!Keysight Technologies,N5224A,MY55441802,A.10.65.16
!Date: Wednesday, May 13, 2026 19:18:24
!Correction: S11(Full 2 Port(1,2)) 
!S21(Full 2 Port(1,2)) 
!S12(Full 2 Port(1,2)) 
!S22(Full 2 Port(1,2)) 
!S2P File: Measurements: S11, S21, S12, S22:
# Hz S  dB   R 50
1000000000 -6.1798315 -39.355576 -0.8743915 -13.152984 3.4016206 -8.3995438 -17.695877 -33.076706
1100000000 -3.251066 152.53572 -3.8000734 15.791509 -0.77310914 0.099115551 -5.1292038 41.66584
1200000000 2.3047478 -2.9670548 -7.4727626 -161.14804 -21.041744 -123.96852 1.2067497 -22.262659
1300000000 -1.0221483 -25.37491 0.92417687 -17.068771 4.3074141 -13.316754 -25.618208 -12.340839
1400000000 -1.395588 154.92055 -2.7696846 25.145334 -1.3925073 1.5359679 -5.4139748 32.463737
1500000000 5.2963376 -12.437545 -0.37303627 166.8479 -7.8443141 164.17938 3.2136374 -32.760292
1600000000 1.9818414 -22.866226 1.9199916 -19.571167 4.8924217 -15.526011 -18.224045 33.345707
1700000000 0.77159488 138.41248 1.0892177 26.16041 -0.74858326 0.88059002 -4.2348347 6.5160675
1800000000 10.891284 -39.267902 6.7700958 123.48967 4.0240145 117.86983 6.9931545 -63.272339
1900000000 0.56455666 -25.732546 1.7574019 -22.574593 3.636647 -20.259239 -15.563774 46.728603
2000000000 4.3226533 119.4248 4.5710135 18.257826 1.3764576 1.5951291 -2.1248939 -17.234081
2100000000 11.802915 -156.56609 11.409295 6.8867774 10.368756 -4.5239635 6.6131597 -173.49031
2200000000 0.47597528 -32.344547 1.669107 -28.429697 3.1552479 -27.477177 -13.662481 39.022087
2300000000 3.6854203 71.541824 6.9052467 -15.669923 3.0533378 -25.30636 -2.3723514 -60.057636
2400000000 8.3448706 165.62537 8.8619728 -28.932856 8.5420351 -37.048218 1.9362723 148.18538
2500000000 -2.8599119 -51.093067 1.4545449 -44.401646 2.2594552 -44.999344 -17.827143 0.9379077
2600000000 1.2961659 36.656933 6.1068983 -44.213181 2.9614623 -47.522896 -5.710206 -101.16068
2700000000 -0.70624089 158.24529 3.2529018 -42.998512 3.9300129 -49.212433 -9.0685349 149.86665
2800000000 -2.4998376 -60.00946 1.789516 -49.97921 2.5649674 -50.728443 -15.082704 -13.237748
2900000000 -4.4043636 17.818684 3.5197442 -57.094578 1.7505221 -58.900333 -10.628944 -109.27713
3000000000 -2.2127538 143.80656 2.6441209 -56.191803 3.5712101 -58.288685 -11.565473 128.39491
3100000000 -5.8086824 -73.798615 1.3729795 -58.925182 1.8411539 -59.831181 -15.968912 -32.404724
3200000000 -5.9877791 8.9573908 2.9364042 -64.482353 1.5635359 -62.674507 -11.442259 -111.09824
3300000000 -5.3832898 134.0909 1.7509663 -66.483749 2.4841931 -65.077423 -15.744128 116.87547
3400000000 -6.4621711 -80.582062 1.1683396 -65.692589 1.4000072 -65.172569 -16.796133 -28.854111
3500000000 -7.8242259 -11.775015 2.0436957 -74.460152 0.84975612 -69.781792 -14.512682 -112.84906
3600000000 -4.9718857 135.0052 1.7527362 -71.635948 2.2986045 -69.462837 -15.430642 120.2242
3700000000 -7.1752138 -103.33218 1.1419876 -75.10218 1.1953322 -74.464691 -17.813532 -40.474785
3800000000 -9.1031628 -19.146439 1.6807623 -80.601395 0.36709261 -76.78656 -16.966059 -112.05528
3900000000 -8.4156551 132.4761 0.89471608 -78.7715 1.1900275 -76.686729 -20.665339 131.50996
4000000000 -7.9478483 -108.93394 1.031743 -82.465927 0.96287346 -82.522141 -19.535658 -60.266258
4100000000 -9.4476919 -29.707344 1.6439624 -85.981659 0.31062475 -85.131592 -17.093039 -117.38832
4200000000 -12.679392 114.75695 0.45686525 -87.900414 0.64227253 -87.425247 -27.868608 120.38311
4300000000 -9.4221182 -121.967 0.91162455 -89.694511 0.75696135 -90.172951 -20.180981 -79.678131
4400000000 -13.000508 -36.426323 0.96802348 -92.598763 0.060117163 -92.221443 -20.658968 -133.17188
4500000000 -13.671793 115.28216 0.19582582 -94.137169 0.52527183 -92.671188 -29.924746 132.65044
4600000000 -10.50889 -125.07877 0.67123055 -95.742859 0.60966015 -96.495148 -19.678625 -91.565857
4700000000 -12.618552 -47.205189 0.80109715 -98.367233 0.26478553 -98.433449 -19.90737 -137.28134
4800000000 -14.443637 100.59486 0.088591807 -101.54399 0.53476888 -100.15636 -32.005154 111.10892
4900000000 -11.86804 -139.27151 0.53540701 -102.2646 0.42641446 -102.77616 -20.89967 -98.868286
5000000000 -14.992118 -61.325531 0.46707544 -106.2428 0.084713653 -105.10337 -21.902452 -152.41571
5100000000 -16.850286 100.82018 0.03180486 -108.20403 0.30849388 -104.78634 -29.644497 106.66104
5200000000 -13.420837 -147.26425 0.23505148 -109.25867 0.18614803 -109.40037 -22.63419 -117.22367
5300000000 -16.118507 -68.98056 0.34647062 -111.84305 0.030963078 -110.86429 -22.035295 -149.43335
5400000000 -17.789715 95.554413 -0.11976609 -113.91059 0.22529185 -111.9987 -29.747503 121.89568
5500000000 -14.460732 -158.72363 0.21425571 -115.06216 0.096026339 -115.21528 -25.321177 -125.33882
5600000000 -18.225426 -75.24762 0.1332037 -117.95869 -0.083040603 -117.35051 -24.293722 -160.42918
5700000000 -16.802841 77.430756 -0.022459352 -121.15731 0.34362686 -118.5435 -29.365917 95.990036
5800000000 -15.971735 -165.10565 -0.0075117867 -121.70205 -0.070106924 -121.53557 -26.260849 -145.6129
5900000000 -18.033304 -88.224274 0.049537715 -124.62363 -0.077234648 -123.85877 -24.800341 -169.48819
6000000000 -20.872803 88.317368 -0.29078141 -126.69015 0.015950847 -125.1061 -30.038725 115.18569
6100000000 -15.710079 -174.1232 0.049618166 -127.40292 -0.028880838 -127.59067 -28.217148 -148.65137
6200000000 -21.137167 -95.529053 -0.16172233 -130.61162 -0.23355022 -130.05501 -25.75157 -176.62691
6300000000 -21.014637 89.163261 -0.26732418 -132.8024 -0.11919999 -131.30936 -29.067455 109.33656
6400000000 -16.299871 179.6411 -0.059726238 -134.54791 -0.12615025 -134.70218 -31.680645 -162.65326
6500000000 -21.557684 -107.12779 -0.27581829 -136.38696 -0.35600749 -136.15952 -28.568377 165.70656
6600000000 -24.816517 100.57811 -0.44474354 -139.01222 -0.37338582 -138.34856 -28.413012 118.79414
6700000000 -16.727354 -179.2946 -0.15538517 -139.79886 -0.16988841 -140.00761 -31.130541 -163.52394
6800000000 -22.511103 -117.89301 -0.30789626 -142.4093 -0.33150685 -142.48122 -29.898405 179.37242
6900000000 -24.808414 85.105965 -0.42491809 -145.14886 -0.34467202 -145.00186 -28.260115 105.53585
7000000000 -18.923567 175.59761 -0.27094719 -146.6434 -0.25486365 -146.78157 -28.68433 160.07565
7100000000 -24.069418 -116.20637 -0.32130197 -148.34984 -0.34294742 -148.38205 -29.393808 168.31683
7200000000 -24.577583 87.639069 -0.44895211 -151.49692 -0.37927365 -151.08739 -28.983049 97.553253
7300000000 -18.798044 167.51242 -0.25885996 -152.93794 -0.23510829 -152.86441 -28.532602 149.80861
7400000000 -24.679668 -120.27223 -0.35895905 -154.99974 -0.32260713 -154.96588 -28.496925 143.48172
7500000000 -24.031357 72.365463 -0.39917803 -157.61804 -0.34301084 -156.92593 -27.885157 77.479103
7600000000 -20.616491 152.75826 -0.43518293 -159.54898 -0.38878819 -159.62808 -28.874081 134.37387
7700000000 -25.526421 -129.05602 -0.375507 -161.28036 -0.32939389 -161.33432 -28.459936 140.31265
7800000000 -23.28109 80.074173 -0.45491406 -163.21635 -0.45773661 -162.84183 -26.52611 76.367111
7900000000 -19.496878 148.42924 -0.42286369 -165.84187 -0.38874891 -165.74312 -30.062038 121.62052
8000000000 -27.153397 -129.36848 -0.37687901 -167.80994 -0.34826806 -167.69391 -28.744846 125.99402
8100000000 -23.395159 62.789696 -0.42419532 -169.63272 -0.4201836 -169.21596 -25.546654 63.818222
8200000000 -20.678726 143.64926 -0.53036368 -172.15036 -0.48018444 -172.0656 -29.687737 90.496391
8300000000 -27.091465 -117.80246 -0.40926468 -173.74242 -0.35732374 -173.69579 -30.257872 114.00889
8400000000 -23.892183 58.842266 -0.47394079 -175.90948 -0.4528985 -175.78575 -26.200418 59.004932
8500000000 -20.169592 138.04015 -0.50841081 -178.07062 -0.46379733 -178.1028 -28.786943 75.150002
8600000000 -27.995667 -149.79466 -0.50059879 179.50276 -0.46543714 179.44569 -29.963821 84.226364
8700000000 -23.872694 54.183811 -0.48331603 177.79561 -0.47254121 177.95015 -26.103439 47.388954
8800000000 -21.48332 133.61943 -0.56849504 175.69431 -0.52209359 175.84602 -28.26923 61.624058
8900000000 -27.890751 -141.81787 -0.53589821 173.33186 -0.47958499 173.39696 -30.242374 73.715866
9000000000 -23.481327 41.333534 -0.47731867 171.47673 -0.44652498 171.47777 -26.260521 33.959476
9100000000 -21.260117 117.37798 -0.54896903 169.45522 -0.49568686 169.45929 -28.434118 51.145943
9200000000 -26.744587 -161.65648 -0.54711837 167.08914 -0.497475 166.98523 -30.0895 63.756012
9300000000 -25.209721 36.166534 -0.52247608 165.16905 -0.51375961 165.10811 -26.187086 25.347874
9400000000 -21.227262 115.43243 -0.53144789 163.08582 -0.49517187 163.24771 -28.611063 37.486843
9500000000 -26.395723 -158.39105 -0.5497821 161.03142 -0.50265121 161.06046 -31.372669 52.582279
9600000000 -24.984587 17.635391 -0.53804034 158.73769 -0.49794891 158.72755 -26.628313 13.159912
9700000000 -21.609589 98.307426 -0.5370003 156.4821 -0.49978185 156.58919 -29.080351 34.742722
9800000000 -28.159424 -154.29942 -0.60019588 155.00157 -0.53572077 154.95708 -32.231979 34.540939
9900000000 -25.019581 11.965083 -0.56217718 152.96741 -0.52143109 152.75641 -26.239361 5.2507172
10000000000 -21.197981 102.37733 -0.52217746 150.46198 -0.49440637 150.50043 -29.519184 19.879528
10100000000 -25.07785 -167.95468 -0.52857494 148.74513 -0.48342392 148.60092 -32.820274 28.169498
10200000000 -25.855709 -6.1515565 -0.55156368 146.54681 -0.52750134 146.30573 -26.206364 -6.6808743
10300000000 -23.822512 94.702003 -0.607131 144.03745 -0.59299302 144.08044 -29.087759 8.7601738
10400000000 -27.633656 -159.48402 -0.57138997 142.27815 -0.51928622 142.34323 -32.354206 8.1413765
10500000000 -25.758358 -9.5266142 -0.5918932 140.88248 -0.53042608 140.59723 -25.970304 -11.757919
10600000000 -23.566839 94.003113 -0.62778056 137.83614 -0.58238268 137.80154 -28.851665 -7.9915571
10700000000 -24.917835 -169.78868 -0.54103166 136.04381 -0.46811461 135.95009 -32.892426 -4.0732431
10800000000 -27.236183 -21.474495 -0.5760808 134.6003 -0.52915257 134.11467 -25.847252 -20.738132
10900000000 -25.929886 82.408447 -0.61700082 131.64877 -0.61322564 131.69781 -28.083118 -21.480783
11000000000 -25.674141 -159.73558 -0.56880921 129.75334 -0.51109368 129.86499 -32.208668 -29.291578
11100000000 -25.517956 -36.919399 -0.53909558 128.28592 -0.46608391 128.06383 -25.699423 -33.346985
11200000000 -25.343115 69.524307 -0.5856747 125.37456 -0.57725346 125.45719 -27.886566 -34.205914
11300000000 -25.979521 -179.34956 -0.64048839 123.26031 -0.56994081 123.32737 -31.949736 -51.882095
11400000000 -27.350073 -51.453804 -0.52908176 121.66199 -0.48262471 121.32044 -25.797934 -49.749645
11500000000 -26.266047 65.290016 -0.53875273 119.42133 -0.59572536 119.43408 -27.581642 -47.465172
11600000000 -24.728481 -176.33397 -0.64154077 117.06538 -0.57544845 117.12028 -30.982653 -68.99781
11700000000 -24.695055 -66.149002 -0.46696702 115.34791 -0.41534981 115.0439 -25.071249 -64.726227
11800000000 -25.214769 53.643482 -0.47441521 112.9065 -0.52632082 112.97927 -28.851278 -64.358833
11900000000 -25.784506 160.43024 -0.68465626 110.44901 -0.62302178 110.55097 -30.755114 -84.916267
12000000000 -27.803736 -66.561035 -0.5250777 108.84692 -0.48369068 108.64025 -25.145216 -75.19326
12100000000 -25.325222 55.86063 -0.4865945 106.64946 -0.50385392 106.72913 -28.303324 -83.085419
12200000000 -23.935675 165.28914 -0.67835969 104.38868 -0.6038788 104.49255 -30.020657 -102.46194
12300000000 -26.367382 -96.111549 -0.57455957 102.71014 -0.48962605 102.21527 -25.757774 -87.252426
12400000000 -29.392309 56.713245 -0.50644654 99.861336 -0.53077948 99.91037 -29.174559 -100.67865
12500000000 -24.342644 157.05852 -0.67633635 97.906715 -0.62524718 98.191597 -30.22431 -116.11891
12600000000 -29.115942 -99.694298 -0.63138419 96.087326 -0.55085224 95.84967 -26.135164 -96.093979
12700000000 -27.839767 63.861103 -0.5162096 93.593918 -0.53558558 93.76178 -28.415197 -109.1173
12800000000 -23.264145 152.4095 -0.69759113 91.717606 -0.6116752 91.827499 -28.72204 -129.13646
12900000000 -27.86739 -140.80437 -0.69282228 89.786057 -0.601677 89.389954 -26.502647 -114.05544
13000000000 -34.489914 83.246452 -0.63642597 87.123306 -0.61891729 86.869217 -28.341263 -122.90948
13100000000 -23.679762 155.07211 -0.72950459 85.332169 -0.65677106 85.621986 -27.995693 -138.72621
13200000000 -27.357815 -143.26265 -0.67302436 83.571098 -0.59508675 83.282356 -26.433628 -121.56826
13300000000 -36.133793 70.828896 -0.59671158 80.580086 -0.62160051 80.510361 -27.717657 -130.88887
13400000000 -24.341461 143.98857 -0.72354656 78.815842 -0.65332687 78.91555 -27.22843 -144.27977
13500000000 -25.325739 -159.14941 -0.69675356 77.248833 -0.61264229 76.98687 -25.55048 -137.30774
13600000000 -35.226688 152.57997 -0.70544422 74.553513 -0.68829888 74.230042 -26.342617 -143.48227
13700000000 -22.794767 148.96405 -0.74014127 72.571907 -0.68577069 72.72567 -26.645018 -159.27213
13800000000 -23.878559 -165.56081 -0.69205099 71.042427 -0.58817738 70.86071 -25.496679 -145.04219
13900000000 -32.904945 157.07565 -0.64716774 68.393005 -0.6969288 68.043045 -25.203255 -150.74521
14000000000 -22.703007 140.31096 -0.74833608 66.151909 -0.71608543 66.378227 -25.31525 -165.87801
14100000000 -24.453709 -177.68446 -0.68114722 64.753708 -0.58786649 64.601028 -24.274193 -159.66382
14200000000 -30.577105 139.32091 -0.65856755 62.123257 -0.69431996 61.81863 -24.561338 -166.48448
14300000000 -21.667448 139.96794 -0.78007168 59.74424 -0.72580683 59.877155 -24.854927 -178.21603
14400000000 -23.274883 177.63089 -0.68687057 58.195747 -0.56108165 58.010471 -24.157478 -169.33151
14500000000 -30.470825 140.34637 -0.67726266 55.675396 -0.69888973 55.470585 -24.463837 -178.49139
14600000000 -22.307692 131.87845 -0.78220487 53.364559 -0.77417195 53.489094 -24.358963 175.06691
14700000000 -23.926336 163.44164 -0.73424506 51.859867 -0.63760847 51.606125 -23.286047 -178.28017
14800000000 -28.91802 127.80808 -0.67724508 49.571785 -0.69393873 49.176971 -23.038925 172.52341
14900000000 -21.873137 127.44634 -0.84002376 46.800995 -0.80121088 47.10112 -23.609671 163.17474
15000000000 -22.206745 154.41867 -0.77614874 45.098827 -0.65508652 44.824139 -22.92168 167.70267
15100000000 -25.906477 130.15364 -0.73714679 42.796829 -0.74857742 42.656513 -22.927378 160.04308
15200000000 -21.769485 123.04094 -0.86325049 40.705532 -0.85694289 40.939293 -23.298117 153.80626
15300000000 -22.5418 140.67818 -0.84167761 38.849827 -0.75402981 38.635551 -22.583296 156.00024
15400000000 -25.965401 113.04069 -0.77328283 36.713333 -0.76258463 36.481487 -22.171785 151.48419
15500000000 -21.635132 111.54819 -0.87592083 34.45034 -0.87976366 34.742088 -22.937952 142.30835
15600000000 -21.836708 135.60229 -0.89655828 32.551167 -0.79130566 32.338581 -22.143713 143.34668
15700000000 -24.294163 120.2905 -0.83590513 30.306189 -0.83372813 30.140137 -22.466635 141.39873
15800000000 -20.802807 109.37534 -0.92616332 28.48752 -0.90731049 28.777466 -22.530445 132.67822
15900000000 -21.444666 128.14598 -0.95446306 26.742704 -0.86258382 26.501816 -21.620356 134.79282
16000000000 -25.109896 102.70061 -0.85525429 24.420807 -0.8238579 24.129019 -21.981295 132.34209
16100000000 -20.090557 100.97712 -0.90967304 22.660177 -0.87825018 22.693995 -21.973993 121.49294
16200000000 -20.649927 124.19459 -0.94069296 20.641031 -0.8597182 20.393351 -21.333969 124.76585
16300000000 -24.376772 109.86124 -0.87312156 18.363279 -0.8622508 18.028721 -22.241655 123.21129
16400000000 -19.402323 101.86586 -0.90699017 16.479286 -0.89046884 16.669285 -21.846821 111.37892
16500000000 -20.172215 120.13113 -0.95809388 14.775012 -0.87189823 14.650365 -20.862213 117.76916
16600000000 -24.124681 93.929077 -0.88394767 12.342666 -0.84640735 12.041396 -21.837273 115.06328
16700000000 -19.543665 93.384956 -0.91315025 10.365863 -0.87631577 10.313055 -21.41058 101.94785
16800000000 -20.053009 116.30829 -0.92567241 8.6764307 -0.84195018 8.3634672 -20.990437 108.6207
16900000000 -23.028458 98.086082 -0.91821992 6.3717856 -0.88500828 5.9526796 -22.058788 106.85794
17000000000 -18.740257 92.281898 -0.87346768 4.2101159 -0.86755836 4.1526017 -21.28236 94.295204
17100000000 -19.785898 109.19724 -0.90063292 2.4436219 -0.84607625 2.245681 -20.753483 100.67395
17200000000 -22.539534 88.085144 -0.89295477 0.025289264 -0.86003339 -0.23889092 -21.791361 97.855728
17300000000 -19.541348 83.044281 -0.90666091 -2.1399534 -0.88019294 -2.2449467 -21.287567 87.364944
17400000000 -20.284126 102.48325 -0.89410555 -3.9713581 -0.83008903 -4.1903877 -20.860117 93.546936
17500000000 -22.866365 86.023621 -0.91061312 -5.9586844 -0.85403824 -6.2369719 -21.965466 91.809349
17600000000 -18.683455 81.25177 -0.88259435 -8.2289305 -0.86683738 -8.4083042 -21.135916 78.228752
17700000000 -19.416603 95.591919 -0.88179177 -10.281744 -0.84492254 -10.516611 -20.669935 84.126854
17800000000 -23.252487 77.237022 -0.84878242 -12.310836 -0.80303729 -12.579472 -21.689537 83.220245
17900000000 -19.485392 69.177361 -0.88624984 -14.506239 -0.87118131 -14.674419 -21.358509 68.403099
18000000000 -20.531998 90.904343 -0.87386966 -16.828321 -0.83749211 -16.92194 -20.919497 77.537399
18100000000 -24.117796 73.183136 -0.86061639 -18.553261 -0.79426956 -18.651819 -22.184599 78.138069
18200000000 -18.994558 67.456535 -0.89489871 -20.677595 -0.86353922 -20.896364 -20.954313 62.380249
18300000000 -19.297583 85.212845 -0.89446139 -22.983147 -0.8551777 -23.209173 -20.401461 68.118813
18400000000 -23.74645 62.418701 -0.84379452 -24.9056 -0.77801245 -25.206619 -21.986423 65.338943
18500000000 -19.277531 57.416176 -0.86245078 -26.728102 -0.85780448 -27.066891 -20.980595 50.974594
18600000000 -20.538113 80.419365 -0.87657046 -29.409561 -0.86055076 -29.598745 -21.216148 60.85939
18700000000 -24.670225 57.561058 -0.85386401 -31.344572 -0.79125446 -31.42984 -22.994574 57.785252
18800000000 -19.247618 51.326668 -0.8414253 -33.306637 -0.81991708 -33.522083 -21.164219 44.685677
18900000000 -20.059883 74.204956 -0.88860673 -35.617474 -0.89032537 -35.776539 -20.896843 53.875725
19000000000 -23.449097 50.769436 -0.87828428 -37.847187 -0.81577742 -37.984577 -22.357965 44.612797
19100000000 -19.631609 46.923191 -0.82620281 -39.412144 -0.82180977 -39.81216 -21.000006 32.261066
19200000000 -21.03343 68.664299 -0.88652319 -41.972389 -0.9028194 -42.198345 -22.132683 41.878517
19300000000 -24.497278 49.00523 -0.91079456 -44.281319 -0.84090257 -44.406887 -23.599766 37.143829
19400000000 -20.29265 41.30027 -0.84533596 -46.179867 -0.81684697 -46.449314 -21.993147 27.069265
19500000000 -21.300913 60.306522 -0.89544082 -48.515957 -0.91525614 -48.558167 -22.252539 36.4147
19600000000 -24.44898 46.7159 -0.92614979 -50.735962 -0.87427992 -50.773594 -23.127285 26.386986
19700000000 -21.174259 37.916985 -0.87567425 -52.592701 -0.84704423 -52.86845 -22.132742 15.264659
19800000000 -21.65917 58.167038 -0.90524387 -54.960022 -0.9157576 -55.001801 -23.230026 20.749338
19900000000 -25.704136 46.365082 -0.97148895 -57.02359 -0.90115035 -57.049667 -24.624714 16.600075
20000000000 -22.17453 34.960274 -0.93937176 -59.040581 -0.88698924 -59.426517 -23.512833 7.6362071
20100000000 -22.241152 50.572918 -0.92448062 -61.39957 -0.93923116 -61.344429 -23.559361 14.014709
20200000000 -26.830002 38.860065 -0.99005222 -63.424713 -0.91817755 -63.290516 -24.738682 7.1995592
20300000000 -23.47254 21.773479 -0.96710622 -65.359505 -0.9158808 -65.707176 -23.588287 -6.4409466
20400000000 -23.202831 47.162895 -0.97379279 -67.726089 -0.97380388 -67.718735 -24.403526 -2.2964377
20500000000 -29.043518 36.221447 -1.0635377 -69.557526 -0.96047568 -69.519318 -26.629669 -9.2428951
20600000000 -25.237881 9.7167101 -1.0449457 -71.510162 -0.94381022 -72.025597 -24.854141 -16.749546
20700000000 -25.325661 42.573288 -1.0119617 -73.711655 -1.0216496 -73.966873 -25.084148 -12.827841
20800000000 -32.873085 47.495762 -1.0562671 -75.675148 -0.97634679 -75.707932 -26.909716 -24.145624
20900000000 -27.690434 11.985268 -1.0415515 -77.178375 -0.97799873 -77.832085 -25.466997 -36.884243
21000000000 -27.352192 47.807621 -1.0356705 -79.605362 -1.0411276 -79.99012 -27.897154 -34.814327
21100000000 -33.120621 67.144165 -1.0428934 -81.623886 -0.97360808 -81.756676 -30.277016 -47.786346
21200000000 -28.908695 14.504836 -1.0054486 -83.63398 -0.93340009 -84.245934 -28.043501 -46.550461
21300000000 -27.868767 45.163601 -1.0112716 -86.180328 -1.0287865 -86.417511 -28.987751 -41.353733
21400000000 -38.894936 64.005478 -1.0220929 -88.164337 -0.95096624 -88.206734 -29.751989 -58.016632
21500000000 -31.88463 9.4093084 -0.97465372 -89.816742 -0.92928064 -90.586365 -27.589443 -66.244568
21600000000 -29.446842 49.480141 -0.9791348 -92.299339 -1.0331383 -92.806877 -29.024364 -73.927116
21700000000 -35.022423 91.297066 -1.0474228 -94.718895 -1.0091977 -94.875114 -29.964897 -85.082977
21800000000 -38.322796 8.578764 -1.0141621 -96.652153 -0.96525156 -97.176651 -28.115738 -92.781815
21900000000 -32.866486 58.016693 -1.0243936 -99.01825 -1.0733511 -99.178017 -28.512512 -96.862854
22000000000 -35.70298 135.60066 -1.0772547 -101.14016 -1.0656801 -101.02836 -28.948135 -104.0559
22100000000 -44.182362 -151.05307 -1.0531106 -102.9209 -1.0103682 -103.37312 -26.460896 -119.39895
22200000000 -32.822182 89.720093 -1.0379673 -104.96873 -1.0943279 -105.18908 -26.356472 -124.21478
22300000000 -27.575426 134.27258 -1.1205339 -107.07928 -1.1105921 -107.13594 -27.52058 -140.13208
22400000000 -30.328312 146.53133 -1.0588181 -109.2328 -1.0107554 -109.74941 -25.622501 -147.90221
22500000000 -27.288502 106.80926 -1.0464588 -111.53731 -1.1008328 -111.50993 -27.330198 -146.54366
22600000000 -26.224333 129.72133 -1.1284906 -113.8456 -1.1070632 -113.38805 -28.071312 -158.92625
22700000000 -32.368973 139.79417 -1.1246468 -115.7066 -1.0516424 -115.89835 -25.090576 -159.8353
22800000000 -28.142437 94.517288 -1.0876878 -117.91302 -1.1031207 -117.82792 -25.869892 -155.82185
22900000000 -24.691076 127.41993 -1.2016581 -119.83384 -1.1817923 -119.55276 -25.400921 -170.11937
23000000000 -27.699028 134.59482 -1.1914227 -121.65866 -1.1299586 -122.09747 -22.985859 -170.15736
23100000000 -25.479481 111.82143 -1.1863552 -123.71712 -1.1837004 -123.84168 -23.447197 -172.63966
23200000000 -22.485714 138.6743 -1.2346249 -125.60711 -1.1721081 -125.34556 -22.941927 171.36479
23300000000 -25.415455 147.46024 -1.2495319 -127.62699 -1.123083 -127.90473 -21.795874 171.38945
23400000000 -23.79586 114.23357 -1.16798 -129.96663 -1.1606705 -130.10304 -22.680246 169.91551
23500000000 -21.121359 130.50961 -1.2569124 -131.80093 -1.2017647 -131.74345 -22.084002 160.01921
23600000000 -22.865509 132.91139 -1.2535931 -133.60083 -1.1820344 -134.04282 -20.699501 163.26952
23700000000 -21.04073 112.27216 -1.1920909 -135.55313 -1.200644 -135.96031 -20.949669 162.42436
23800000000 -19.18165 126.80142 -1.2463031 -137.50197 -1.1630025 -137.63889 -20.220911 149.27846
23900000000 -21.023664 131.54533 -1.2223794 -139.51294 -1.1303914 -140.11971 -19.210186 150.31172
24000000000 -20.143948 117.00616 -1.2023684 -141.76863 -1.1984059 -142.33685 -20.047485 148.3992
24100000000 -18.157589 123.75887 -1.2106202 -143.93434 -1.1849387 -143.99347 -19.686628 137.64557
24200000000 -19.475977 124.67976 -1.2121599 -145.70738 -1.1644822 -146.10727 -18.623365 140.88416
24300000000 -18.374689 104.6714 -1.1679361 -147.83736 -1.1744767 -148.27774 -19.291977 141.92937
24400000000 -16.842787 113.5159 -1.1686591 -150.04549 -1.1605346 -150.32106 -18.571529 131.44872
24500000000 -18.539249 115.95839 -1.1661596 -151.81461 -1.1011225 -152.60423 -17.268147 134.9785
24600000000 -17.800879 104.79354 -1.1546553 -154.2715 -1.1786999 -154.8439 -18.225529 132.09329
24700000000 -16.218168 112.75304 -1.1574728 -156.49199 -1.1803983 -156.58464 -17.592434 120.50592
24800000000 -17.901541 113.24255 -1.1562588 -158.45647 -1.106636 -158.80112 -16.908457 124.90775
24900000000 -16.622707 95.214897 -1.1331437 -160.74898 -1.165682 -160.91464 -17.855881 123.55452
25000000000 -15.404768 101.08443 -1.1730392 -162.97293 -1.1921623 -163.15378 -16.92577 114.6568
25100000000 -16.95764 100.7917 -1.1675638 -164.97252 -1.1328529 -165.48502 -16.154167 119.82584
25200000000 -16.130026 89.366409 -1.1631964 -166.9865 -1.1965568 -167.31969 -16.908861 115.99326
25300000000 -15.129376 99.727425 -1.2148085 -169.39978 -1.2336437 -169.33353 -16.094276 106.06931
25400000000 -16.532146 98.628036 -1.1906611 -171.50806 -1.1408455 -171.70828 -15.715662 110.26522
25500000000 -15.541571 84.972427 -1.1799216 -173.47054 -1.191889 -173.718 -16.454403 105.48743
25600000000 -14.699203 89.245872 -1.2449521 -175.74168 -1.2628717 -175.83157 -15.644141 99.398056
25700000000 -15.845412 86.411743 -1.2353125 -177.94481 -1.2236081 -178.17708 -15.324619 103.05691
25800000000 -14.946236 77.784309 -1.229255 -179.79388 -1.242029 -179.87714 -15.865865 97.893555
25900000000 -14.317554 85.322502 -1.2843472 177.96262 -1.2776393 178.07875 -15.005783 91.902969
26000000000 -15.287533 84.451874 -1.2836714 175.72029 -1.2382665 175.53357 -14.950857 94.38813
26100000000 -14.737862 74.740746 -1.2573135 173.78377 -1.2515962 173.51509 -15.430179 89.503891
26200000000 -14.076478 78.118973 -1.3209757 171.72424 -1.3390067 171.66193 -14.667847 84.828148
26300000000 -15.032129 74.700005 -1.3328676 169.55319 -1.3236504 169.40053 -14.585736 86.825699
26400000000 -14.316358 66.570137 -1.3099121 167.52802 -1.3015593 167.45219 -14.986642 81.777374
26500000000 -13.416273 72.110069 -1.3425984 165.68053 -1.3381442 165.83228 -14.296905 75.413925
26600000000 -14.373129 71.101158 -1.3932196 163.27716 -1.3655568 163.16481 -14.525231 77.89653
26700000000 -14.099445 63.716713 -1.3739589 161.25314 -1.3607113 161.04308 -15.083404 72.445534
26800000000 -13.773697 65.998337 -1.414644 159.36168 -1.4302008 159.52493 -14.247773 69.547829
26900000000 -14.779431 63.438969 -1.4485335 157.45166 -1.4410547 157.41936 -14.333174 71.533028
27000000000 -14.428153 55.869202 -1.40545 155.33519 -1.3595843 155.31323 -14.68406 64.229591
27100000000 -13.415499 60.113522 -1.3883227 153.48357 -1.3602118 153.72084 -14.005979 60.779224
27200000000 -14.098183 60.879566 -1.4317036 151.28665 -1.4503232 151.30775 -14.630659 62.412712
27300000000 -13.732026 55.355965 -1.4402939 149.23959 -1.4331563 148.80305 -15.178995 55.358883
27400000000 -13.437471 56.424892 -1.4730856 147.52893 -1.3767074 146.81197 -15.55738 55.979
27500000000 -14.240743 54.748814 -1.445784 145.44824 -1.3767334 145.06619 -16.216501 65.362411
27600000000 -14.239067 48.267853 -1.4450073 142.87727 -1.3482847 142.80794 -15.775692 43.308231
27700000000 -13.520565 49.291039 -1.3927771 140.89688 -1.3305575 141.0265 -13.337844 46.447998
27800000000 -13.975617 48.699379 -1.4177531 139.00868 -1.4307718 138.98672 -14.395413 57.61705
27900000000 -13.877872 44.647125 -1.4708493 136.87849 -1.4480501 136.60495 -16.284048 41.09753
28000000000 -13.297084 44.575233 -1.4695148 134.47125 -1.4002987 134.51323 -13.053346 34.006535
28100000000 -13.847427 45.003586 -1.4502504 132.26007 -1.4342535 132.58673 -12.461913 55.730103
28200000000 -14.194539 39.69725 -1.6469467 130.73135 -1.5363473 130.14566 -23.582304 101.91968
28300000000 -14.209379 32.650372 -1.9173098 134.26747 -1.7948316 137.23077 -12.315259 -130.96898
28400000000 -13.851503 38.516685 -1.0953825 127.47993 -1.2060055 127.4509 -27.220568 40.065277
28500000000 -14.322896 30.044147 -1.4175702 124.57511 -1.340353 124.16561 -14.908887 19.031361
28600000000 -13.442366 30.616003 -1.4870954 122.65063 -1.4494004 122.63879 -14.176531 26.549011
28700000000 -14.320904 31.290459 -1.5277586 120.68171 -1.5414834 120.63508 -14.629397 26.286448
28800000000 -14.804252 24.130152 -1.5513214 118.95126 -1.5242692 118.61283 -15.167302 25.245747
28900000000 -14.484499 25.167595 -1.5408889 117.28336 -1.5180787 116.99783 -15.647415 20.140985
29000000000 -15.169634 25.937641 -1.5137067 115.38078 -1.5400966 115.32938 -15.276044 20.54673
29100000000 -15.527424 15.520807 -1.4777645 113.3924 -1.4468838 113.30215 -15.715115 23.14386
29200000000 -14.88936 18.688936 -1.3958311 111.5831 -1.3727695 111.21519 -15.971951 15.483809
29300000000 -15.939744 25.382492 -1.3526489 109.12589 -1.4017491 109.04086 -15.384518 14.528176
29400000000 -16.169363 20.742163 -1.3770854 106.64634 -1.4066571 106.46535 -16.078083 15.730764
29500000000 -14.849154 24.511059 -1.3654526 104.51363 -1.387045 104.37122 -16.637804 8.9399681
29600000000 -15.193469 24.710041 -1.4053528 102.39665 -1.4401135 102.71662 -15.862678 8.7227516
29700000000 -15.450047 11.067011 -1.4112225 100.0244 -1.3966582 100.26945 -16.286909 11.191586
29800000000 -14.843975 10.646965 -1.4118454 97.966621 -1.3737382 97.978378 -16.76029 3.7959507
29900000000 -15.93754 13.047976 -1.4130833 95.83136 -1.4327346 96.129921 -15.894726 1.0501549
30000000000 -16.515574 6.4714923 -1.4725255 93.735649 -1.491847 93.982964 -16.651945 0.63613427
30100000000 -15.609612 10.101874 -1.4750073 91.913406 -1.479151 91.986671 -17.571463 -10.605745
30200000000 -16.418533 10.611146 -1.4893938 89.884712 -1.4613807 90.380447 -17.027826 -11.896847
30300000000 -17.079651 -3.8835008 -1.5062526 87.89798 -1.4582673 88.208252 -18.307158 -6.2223597
30400000000 -16.793541 -3.4142349 -1.5335407 86.003685 -1.4566388 86.048233 -19.505791 -12.640158
30500000000 -18.798153 1.2494539 -1.4800358 83.833931 -1.4359463 84.132286 -17.985802 -15.845274
30600000000 -19.810837 -4.9959021 -1.5121827 82.00016 -1.4501328 82.372154 -18.96034 -9.6972885
30700000000 -18.468208 4.2895055 -1.4847279 80.068954 -1.4461857 80.080353 -20.264626 -25.078003
30800000000 -19.217239 9.5837517 -1.444896 77.901146 -1.3804486 77.991837 -18.796684 -27.788189
30900000000 -19.5742 -5.1931801 -1.4986147 75.796371 -1.3947029 75.940842 -20.841497 -17.587626
31000000000 -20.271425 -8.8780708 -1.4974174 73.891373 -1.4304372 73.860077 -22.497757 -35.57217
31100000000 -20.600565 -19.385374 -1.4724398 71.805382 -1.369071 71.581459 -20.599304 -31.656431
31200000000 -16.401199 -17.774603 -1.4209037 68.893944 -1.3119823 68.947929 -23.032953 -18.715319
31300000000 -20.490942 12.326015 -1.4500225 68.010971 -1.4136357 67.714813 -24.335197 -54.416573
31400000000 -26.068914 -24.181438 -1.4786915 65.546898 -1.3941894 64.720444 -21.391609 -37.020035
31500000000 -14.41892 -12.423949 -1.3060501 62.623703 -1.1611917 61.687469 -23.978922 -6.8591061
31600000000 -7.7395954 22.996555 -1.6909481 59.580643 -1.6550957 59.595417 -29.328621 -71.427498
31700000000 -15.422971 68.171013 -1.4065392 60.457436 -1.4296092 60.03825 -24.572062 -60.264851
31800000000 -23.612965 -173.37007 -1.4026204 58.611519 -1.4120635 58.092999 -31.2582 -34.080444
31900000000 -22.24917 -26.692141 -1.4049764 55.771477 -1.3163069 55.291157 -34.239376 -98.965874
32000000000 -20.884977 48.470329 -1.3214145 53.783867 -1.3519495 53.009201 -29.743914 -79.604301
32100000000 -34.905365 127.65337 -1.3176376 51.227299 -1.3106626 50.818275 -39.797218 -17.999838
32200000000 -27.35775 -19.994022 -1.3180642 49.03059 -1.265738 48.619991 -36.620834 -154.87746
32300000000 -23.85741 62.39925 -1.2431142 46.869976 -1.3151796 46.328026 -33.958481 -116.39521
32400000000 -26.603468 125.58996 -1.2928922 44.422016 -1.3273512 44.236305 -39.045692 132.82988
32500000000 -29.243357 34.979305 -1.2515707 42.040459 -1.2570909 41.640533 -28.566805 164.02942
32600000000 -21.54583 64.983063 -1.2716938 40.147686 -1.3243417 39.653099 -30.66798 171.71681
32700000000 -26.265566 101.05195 -1.3323045 37.419186 -1.3335164 37.337433 -28.101475 120.03222
32800000000 -30.464552 46.360031 -1.2963803 35.489151 -1.2679294 35.209259 -25.083313 136.45885
32900000000 -21.051701 78.260818 -1.3235179 33.265583 -1.3567684 33.034233 -27.809216 133.69975
33000000000 -20.817987 105.49651 -1.3423808 30.973938 -1.4111279 31.075834 -25.46664 108.76427
33100000000 -23.096998 71.359146 -1.3617144 28.672005 -1.361587 28.472242 -23.15097 127.44129
33200000000 -18.709654 69.991043 -1.3645945 26.876593 -1.4149638 26.685913 -23.929626 130.62665
33300000000 -21.076551 87.390495 -1.4440271 24.313847 -1.4567752 24.376678 -21.505777 110.58588
33400000000 -22.702883 64.114891 -1.4853399 22.527214 -1.4361955 22.550499 -19.786997 113.1661
33500000000 -18.72492 74.009491 -1.4508454 20.556231 -1.4458984 20.506405 -21.453268 108.20316
33600000000 -18.55625 94.37439 -1.4895742 18.505402 -1.4736997 18.653173 -20.342159 95.723541
33700000000 -19.894478 78.832535 -1.4803383 16.073746 -1.4489017 16.076746 -19.900995 105.71303
33800000000 -16.73016 75.34021 -1.4570304 14.501561 -1.4780314 14.283724 -20.509899 106.84814
33900000000 -17.666183 88.882271 -1.5193831 12.165557 -1.5103568 12.111689 -18.680923 99.239922
34000000000 -18.823566 72.711502 -1.5310237 9.891799 -1.4615598 9.9277239 -17.487123 103.7851
34100000000 -16.083954 72.468384 -1.4939708 8.092906 -1.4553317 7.8580523 -17.807314 96.843788
34200000000 -16.085901 85.864464 -1.5203574 5.8548131 -1.4947013 5.8022799 -17.034367 88.035187
34300000000 -17.118086 77.943924 -1.5527586 3.5045936 -1.4995567 3.2428176 -16.887215 92.2295
34400000000 -14.892691 73.852432 -1.5300522 1.6026275 -1.5427976 1.2899257 -17.271074 91.230095
34500000000 -14.717879 84.105499 -1.5939231 -0.28850964 -1.5959017 -0.4058972 -16.044155 87.82415
34600000000 -15.735608 74.18409 -1.6041186 -2.5575016 -1.5581665 -2.8852415 -15.080074 89.251389
34700000000 -13.964891 66.620773 -1.556803 -4.7047377 -1.5370971 -5.0544658 -15.114716 84.340591
34800000000 -13.824794 73.404015 -1.589039 -6.9565315 -1.5862395 -7.2517629 -14.737861 76.822067
34900000000 -14.838 67.049477 -1.6692981 -9.2438717 -1.6419718 -9.5665359 -14.232195 77.214462
35000000000 -13.302527 64.247581 -1.6810877 -11.106213 -1.6871049 -11.490922 -14.546725 75.782677
35100000000 -12.956924 72.898788 -1.7323881 -12.709251 -1.7389199 -12.939893 -14.128652 70.372047
35200000000 -14.173609 64.922066 -1.7874146 -14.845725 -1.7641258 -15.219586 -13.555168 69.804047
35300000000 -12.874961 57.171528 -1.7536209 -16.678108 -1.7571919 -17.157845 -13.776797 68.203972
35400000000 -12.84178 64.326248 -1.7456747 -18.394995 -1.7669902 -18.809582 -13.718596 62.901379
35500000000 -14.117027 60.300659 -1.7610329 -20.628273 -1.7765508 -20.991699 -13.344186 62.930523
35600000000 -12.954937 54.214603 -1.7497888 -22.600428 -1.7629787 -22.924559 -13.509687 63.929691
35700000000 -12.248041 63.111473 -1.7232319 -24.31049 -1.7453657 -24.60203 -13.189043 59.636677
35800000000 -13.413705 60.95911 -1.7435315 -26.506781 -1.7461123 -26.814398 -12.51284 58.795799
35900000000 -12.260936 52.04163 -1.7178134 -28.681543 -1.731192 -29.084219 -12.805774 57.797546
36000000000 -11.88002 58.021626 -1.6829686 -30.616722 -1.7291106 -30.980827 -12.975398 53.836681
36100000000 -13.02273 56.823936 -1.7023431 -32.968422 -1.7304834 -33.2318 -12.406244 53.86779
36200000000 -11.989086 49.197266 -1.7379577 -35.278889 -1.7631294 -35.569401 -12.282922 56.101814
36300000000 -10.883847 54.504337 -1.7357321 -37.022945 -1.7657995 -37.177181 -12.178931 51.907818
36400000000 -11.87884 52.606758 -1.7635955 -39.13068 -1.7718261 -39.318752 -11.332651 48.017891
36500000000 -11.174792 42.175697 -1.7735256 -41.294785 -1.7916685 -41.565739 -11.230404 47.931377
36600000000 -10.615191 47.761555 -1.7326682 -43.151962 -1.7703028 -43.455124 -11.516639 41.64967
36700000000 -11.794054 46.726368 -1.7517318 -45.391056 -1.7791685 -45.568024 -10.980604 38.428707
36800000000 -10.850787 37.00716 -1.7814004 -47.820206 -1.8063341 -47.994907 -11.230403 41.925896
36900000000 -9.8334627 41.825539 -1.8240358 -49.86137 -1.8592312 -49.916134 -11.543221 37.925972
37000000000 -11.005268 40.000973 -1.8825499 -51.720734 -1.9098054 -51.787781 -10.463408 34.327591
37100000000 -10.367159 28.696993 -1.919618 -53.692631 -1.94626 -53.671432 -10.618729 34.477142
37200000000 -9.9405298 34.89893 -1.907212 -55.43832 -1.9540846 -55.474251 -11.222729 26.112358
37300000000 -11.759028 34.682812 -1.9169691 -57.203983 -1.9330363 -57.191864 -10.523674 23.562033
37400000000 -10.885887 24.222116 -1.9252639 -59.309437 -1.9281515 -59.262245 -11.08367 28.664536
37500000000 -9.6383228 31.862612 -1.8842993 -61.144714 -1.9329811 -61.178249 -11.627207 22.005278
37600000000 -10.951316 29.816956 -1.9002688 -63.370907 -1.9181706 -63.239815 -10.591791 19.725609
37700000000 -10.124828 17.813484 -1.9108325 -65.429237 -1.9356405 -65.013565 -10.786557 24.736618
37800000000 -9.7086048 25.173162 -1.9286666 -67.288506 -1.9571621 -66.971809 -11.372435 15.958085
37900000000 -11.578734 26.134846 -1.9135269 -69.245926 -1.9025114 -69.0812 -10.160875 11.649456
38000000000 -10.839318 14.950874 -1.9391606 -71.32531 -1.9127792 -71.051895 -10.719781 16.546495
38100000000 -9.6980419 23.172062 -1.9328909 -73.109398 -1.95485 -72.883049 -11.800126 8.5502052
38200000000 -11.444613 22.770506 -1.9508569 -75.131439 -1.9393115 -75.024956 -10.398231 4.9087191
38300000000 -10.49877 6.4384584 -1.938822 -77.293892 -1.892417 -76.908546 -10.625072 11.368897
38400000000 -9.6984787 15.366305 -1.9425044 -78.776749 -1.9266964 -78.49791 -12.014894 3.9946742
38500000000 -11.995266 16.600382 -1.9641058 -80.946404 -1.9276867 -80.978516 -10.518943 -1.6363457
38600000000 -11.377429 3.1204965 -1.9214274 -83.179413 -1.8596785 -82.850639 -10.693811 5.2520466
38700000000 -10.067246 13.71359 -1.8944091 -84.621788 -1.8730775 -84.493378 -11.901779 -2.781431
38800000000 -12.403629 15.562764 -1.9499995 -86.625603 -1.9193162 -86.865555 -10.561272 -9.2725143
38900000000 -11.370863 -2.4993894 -1.9019752 -88.98658 -1.8226343 -88.987175 -11.099312 -1.8345039
39000000000 -10.318091 9.3215418 -1.8554779 -90.311409 -1.822752 -90.470047 -12.554914 -11.715978
39100000000 -12.583952 10.903746 -1.8873512 -92.490814 -1.8598247 -92.96595 -11.045994 -12.117447
39200000000 -11.680304 -7.62499 -1.8468845 -94.979454 -1.801692 -95.128723 -11.427346 -5.4436398
39300000000 -10.586006 3.219538 -1.8205121 -96.785881 -1.7962115 -97.008949 -12.569997 -16.350372
39400000000 -13.310978 4.4957142 -1.8140243 -98.392799 -1.8418335 -99.029472 -11.036293 -19.840862
39500000000 -12.351187 -11.130726 -1.8503971 -100.97359 -1.8012323 -101.25761 -11.888972 -14.111667
39600000000 -11.229522 2.0654962 -1.7651205 -102.69326 -1.7665633 -103.09212 -13.052301 -27.14307
39700000000 -13.229795 5.3319569 -1.7847263 -104.43138 -1.8214239 -105.15218 -11.846026 -27.038221
39800000000 -12.227495 -11.768059 -1.7760557 -107.25173 -1.7726251 -107.49516 -12.595901 -17.2847
39900000000 -11.057117 -3.2952609 -1.7220961 -109.10752 -1.760519 -109.23663 -13.271667 -28.658825
40000000000 -13.7089 -4.0839806 -1.7150333 -110.87818 -1.7740108 -111.40804 -11.848791 -31.382854
