!Keysight Technologies,N5247B,MY61255062,A.19.80.06
!Date: Tuesday, May 26, 2026 11:28:47
!Correction: S11(C  2-Port  ) 
!S21(C  2-Port  ) 
!S12(C  2-Port  ) 
!S22(C  2-Port  ) 
!S2P File: Measurements: S11, S21, S12, S22:
# Hz S  dB   R 50
1000000000 -34.66608 -40.468662 -0.13019533 -14.353806 -0.12862401 -14.359411 -38.580944 -50.725395
1027500000 -34.754517 -45.368893 -0.13616262 -14.777774 -0.13459019 -14.770226 -38.3881 -55.987301
1055000000 -34.81712 -45.599987 -0.14066325 -15.150822 -0.1413946 -15.141047 -38.523388 -58.23457
1082500000 -34.943165 -47.514862 -0.14669368 -15.544155 -0.14604871 -15.53987 -38.693035 -60.857841
1110000000 -35.421997 -49.875103 -0.15906431 -15.903213 -0.15864921 -15.908086 -39.221386 -66.207924
1137500000 -35.228958 -48.885502 -0.16365622 -16.235067 -0.16110069 -16.231674 -40.191479 -65.062714
1165000000 -34.898235 -45.904125 -0.15883581 -16.592234 -0.15717383 -16.599188 -40.085388 -60.941647
1192500000 -34.675957 -47.882832 -0.16173445 -17.006851 -0.16091855 -16.993004 -40.182388 -63.059601
1220000000 -34.733322 -48.706066 -0.16536586 -17.37075 -0.165638 -17.37122 -39.932106 -63.434734
1247500000 -34.882477 -48.976994 -0.16680932 -17.756126 -0.16516095 -17.75174 -39.504555 -60.783676
1275000000 -35.063843 -51.954437 -0.17299633 -18.154089 -0.17163455 -18.141382 -39.434765 -65.939919
1302500000 -35.344307 -53.687946 -0.17917867 -18.508539 -0.17866129 -18.514782 -39.636089 -70.410843
1330000000 -35.779217 -54.542725 -0.1855257 -18.870081 -0.1838486 -18.875988 -39.826099 -71.349762
1357500000 -35.895023 -55.181194 -0.18818891 -19.208586 -0.18662754 -19.209816 -40.560951 -71.811195
1385000000 -35.827824 -54.699821 -0.18976545 -19.560654 -0.1894588 -19.559269 -40.858639 -72.040344
1412500000 -35.963799 -54.659683 -0.1897714 -19.912771 -0.18839085 -19.900604 -40.793629 -67.921036
1440000000 -35.919365 -55.148144 -0.19098279 -20.280245 -0.1895456 -20.272057 -41.057968 -67.065704
1467500000 -35.61879 -55.165867 -0.19315137 -20.626194 -0.19256116 -20.615982 -41.311607 -69.030022
1495000000 -35.605103 -52.930908 -0.1927311 -20.974289 -0.19212876 -20.974733 -41.620338 -65.733917
1522500000 -35.539337 -50.915718 -0.1908581 -21.333033 -0.19096845 -21.31938 -41.52047 -60.243923
1550000000 -35.290085 -49.875 -0.18880773 -21.696758 -0.18720558 -21.687845 -41.08474 -61.116459
1577500000 -35.10067 -49.06385 -0.18657376 -22.043158 -0.18466371 -22.044796 -40.808804 -59.991314
1605000000 -34.998951 -47.999035 -0.18326938 -22.423035 -0.18234791 -22.42432 -40.398579 -58.238396
1632500000 -34.777264 -48.861618 -0.18118076 -22.80088 -0.18159318 -22.799639 -39.89999 -59.319893
1660000000 -34.617928 -49.852356 -0.18031424 -23.180153 -0.17964834 -23.17684 -39.56263 -60.882782
1687500000 -34.315331 -49.888794 -0.1813473 -23.556538 -0.17858414 -23.555647 -39.626186 -58.190384
1715000000 -34.144043 -51.257069 -0.17849621 -23.944319 -0.17767932 -23.94405 -39.348896 -57.523594
1742500000 -33.888805 -51.446011 -0.17712329 -24.324741 -0.17477082 -24.32729 -38.935097 -59.79459
1770000000 -33.658436 -51.9328 -0.17624086 -24.699959 -0.17573327 -24.703596 -39.026638 -58.663322
1797500000 -33.521664 -51.984726 -0.17705345 -25.098631 -0.17473039 -25.0879 -38.627174 -57.638538
1825000000 -33.359673 -52.94886 -0.17573327 -25.469671 -0.17472231 -25.470181 -38.379463 -59.553288
1852500000 -33.243896 -53.146309 -0.17540093 -25.8608 -0.17439139 -25.859461 -38.080864 -60.263157
1880000000 -33.260151 -52.445465 -0.1749433 -26.239233 -0.17436391 -26.237135 -38.11734 -59.894325
1907500000 -33.097496 -54.181736 -0.17507131 -26.621399 -0.17389533 -26.615305 -37.761497 -60.819309
1935000000 -32.78368 -53.489223 -0.17467649 -27.01288 -0.17417906 -27.004625 -37.665051 -62.759769
1962500000 -33.01268 -54.225346 -0.17601064 -27.399824 -0.17431864 -27.388599 -37.501541 -62.781536
1990000000 -32.838226 -56.67123 -0.17523383 -27.782057 -0.17526186 -27.772602 -37.24625 -63.744976
2017500000 -32.676994 -57.441879 -0.1755365 -28.159588 -0.17508371 -28.156858 -37.005257 -64.716278
2045000000 -32.631565 -57.533356 -0.17700978 -28.538912 -0.17520553 -28.533501 -36.953358 -64.584702
2072500000 -32.530743 -58.757515 -0.17714891 -28.914421 -0.17496943 -28.920664 -36.78175 -66.530403
2100000000 -32.325134 -59.163139 -0.1772155 -29.30584 -0.1765366 -29.297836 -36.653282 -66.697662
2127500000 -32.34317 -59.614986 -0.17708419 -29.696081 -0.1759969 -29.681803 -36.56757 -67.803535
2155000000 -32.255146 -61.162502 -0.17803772 -30.071299 -0.1763894 -30.068041 -36.321114 -68.864052
2182500000 -31.987461 -61.374939 -0.17701301 -30.455557 -0.1771764 -30.45458 -36.284012 -69.008141
2210000000 -31.91363 -61.309479 -0.17814155 -30.843851 -0.17740776 -30.84247 -36.214493 -69.571724
2237500000 -31.979162 -63.236336 -0.17687118 -31.224781 -0.17659968 -31.224066 -35.9161 -70.800964
2265000000 -31.648752 -63.404865 -0.17862757 -31.611536 -0.17770843 -31.603651 -35.949818 -72.11853
2292500000 -31.523209 -62.635654 -0.1794595 -32.001133 -0.1775469 -31.984646 -35.797146 -71.443398
2320000000 -31.591944 -64.383011 -0.18071713 -32.388073 -0.17918594 -32.376812 -35.721443 -73.144402
2347500000 -31.268173 -64.971252 -0.18068582 -32.769188 -0.18062915 -32.759075 -35.581699 -73.939964
2375000000 -31.124243 -64.504921 -0.18033287 -33.159275 -0.18156348 -33.154331 -35.810909 -73.693947
2402500000 -31.276304 -65.773727 -0.18411165 -33.554962 -0.1831765 -33.547997 -35.388931 -73.796333
2430000000 -31.148264 -68.00058 -0.18558539 -33.927795 -0.18225397 -33.93272 -35.228542 -75.60498
2457500000 -30.885517 -67.630142 -0.18607496 -34.325741 -0.18469343 -34.314983 -35.261044 -75.07515
2485000000 -31.0984 -68.21051 -0.18767938 -34.715569 -0.18737911 -34.698666 -35.06076 -75.115303
2512500000 -31.041445 -69.664772 -0.18976302 -35.095707 -0.18814567 -35.078968 -34.982548 -76.173828
2540000000 -30.756983 -70.075897 -0.19077505 -35.467487 -0.19260013 -35.465439 -34.942383 -76.019691
2567500000 -30.810755 -70.328842 -0.19366397 -35.859665 -0.19421048 -35.843433 -34.850101 -77.836922
2595000000 -30.998833 -71.366379 -0.19340983 -36.231461 -0.19307153 -36.230297 -34.683979 -78.106331
2622500000 -30.763758 -72.279701 -0.19615859 -36.6203 -0.19641832 -36.602806 -34.492153 -78.688057
2650000000 -30.543158 -72.899834 -0.19874163 -36.995018 -0.19828126 -36.974644 -34.402725 -80.394821
2677500000 -30.752424 -73.57711 -0.19832081 -37.358128 -0.20047733 -37.355396 -34.434147 -81.267799
2705000000 -30.608101 -73.816544 -0.20200899 -37.741718 -0.19860993 -37.739758 -34.315983 -81.669373
2732500000 -30.458572 -74.328476 -0.20376039 -38.119049 -0.20168981 -38.10807 -34.433678 -82.221687
2760000000 -30.447508 -75.003662 -0.2036269 -38.513306 -0.20352273 -38.499306 -34.139709 -84.084129
2787500000 -30.592871 -76.365189 -0.20670031 -38.881302 -0.20418334 -38.874756 -34.018921 -84.430702
2815000000 -30.296125 -75.870773 -0.20809266 -39.270927 -0.2062494 -39.263233 -34.033714 -84.996361
2842500000 -30.204037 -77.876076 -0.20901744 -39.644333 -0.20904107 -39.649719 -34.018185 -86.42067
2870000000 -30.240673 -77.494011 -0.210804 -40.013081 -0.21188292 -40.018051 -33.929043 -87.093727
2897500000 -30.237837 -78.172005 -0.21365815 -40.402058 -0.21149807 -40.404884 -33.828888 -86.809509
2925000000 -30.0219 -79.008957 -0.21509191 -40.774281 -0.21525621 -40.780109 -33.707489 -87.398636
2952500000 -30.031406 -80.211449 -0.21785335 -41.152222 -0.21747313 -41.150074 -33.714764 -90.636536
2980000000 -30.048601 -78.778076 -0.22032896 -41.52179 -0.21963565 -41.514713 -33.780949 -90.173973
3007500000 -30.039291 -80.0093 -0.22289017 -41.902817 -0.22138354 -41.895496 -33.798073 -89.577766
3035000000 -30.05378 -81.50959 -0.22337958 -42.250805 -0.22200793 -42.246719 -33.750736 -92.06308
3062500000 -30.006134 -79.722832 -0.22389087 -42.627075 -0.22212835 -42.630718 -33.735798 -92.674187
3090000000 -30.071609 -80.485062 -0.22367501 -42.98798 -0.22342972 -42.999912 -33.863949 -91.661888
3117500000 -30.013393 -82.049011 -0.22284602 -43.371201 -0.2248392 -43.371376 -33.706604 -93.812286
3145000000 -29.981575 -81.799301 -0.22481166 -43.758282 -0.22378348 -43.752163 -33.685143 -93.58847
3172500000 -29.948187 -81.762329 -0.22753945 -44.123829 -0.22395383 -44.120758 -33.693184 -92.535637
3200000000 -29.847788 -83.511452 -0.2280013 -44.506927 -0.22664563 -44.507591 -33.782291 -92.818222
3227500000 -29.915907 -83.653328 -0.22812407 -44.882957 -0.22739924 -44.891338 -33.610615 -94.450035
3255000000 -29.844877 -83.426262 -0.23029135 -45.237 -0.23046441 -45.239513 -33.604332 -94.38649
3282500000 -29.784725 -84.664993 -0.23362651 -45.631245 -0.23055886 -45.636124 -33.607281 -93.882507
3310000000 -29.822435 -85.099014 -0.23132816 -46.005054 -0.23251405 -45.998806 -33.624035 -96.564461
3337500000 -29.851583 -84.956619 -0.23535874 -46.386204 -0.23280218 -46.374149 -33.410992 -96.490982
3365000000 -29.862886 -86.678352 -0.23608899 -46.732841 -0.23609282 -46.731434 -33.495861 -95.646553
3392500000 -29.812069 -86.70993 -0.23561098 -47.10854 -0.23495841 -47.100658 -33.652859 -96.981499
3420000000 -29.718245 -86.818878 -0.23576458 -47.482346 -0.23602448 -47.460518 -33.422287 -99.172516
3447500000 -29.853456 -87.787971 -0.23568833 -47.845173 -0.23521528 -47.83791 -33.354298 -97.700676
3475000000 -29.707609 -88.397057 -0.23794715 -48.213963 -0.23477425 -48.207047 -33.613533 -96.679283
3502500000 -29.706259 -87.977173 -0.23607424 -48.578056 -0.23423736 -48.586582 -33.640446 -99.559105
3530000000 -29.73912 -87.549438 -0.23599224 -48.951416 -0.23647384 -48.948807 -33.516743 -99.795235
3557500000 -29.639791 -88.507431 -0.23677891 -49.33075 -0.23680405 -49.329945 -33.461449 -97.811722
3585000000 -29.572922 -88.618309 -0.2369298 -49.705173 -0.23519805 -49.704441 -33.725773 -98.317932
3612500000 -29.669426 -88.563187 -0.23690055 -50.095032 -0.23478818 -50.084095 -33.58667 -100.36541
3640000000 -29.528513 -89.095055 -0.23714906 -50.471092 -0.23603132 -50.462021 -33.370979 -98.85038
3667500000 -29.279911 -89.988922 -0.23553337 -50.849758 -0.23398493 -50.838528 -33.514149 -98.24292
3695000000 -29.55567 -89.752251 -0.23714359 -51.21003 -0.23711079 -51.216228 -33.411716 -100.74902
3722500000 -29.46405 -90.131737 -0.23672916 -51.592144 -0.23612398 -51.588425 -33.417637 -100.10216
3750000000 -29.180872 -91.587959 -0.23662254 -51.973812 -0.23704025 -51.979172 -33.307331 -98.375992
3777500000 -29.318951 -90.217842 -0.23963049 -52.353413 -0.23671003 -52.354 -33.277573 -100.40225
3805000000 -29.445024 -91.207779 -0.24057186 -52.752972 -0.23886053 -52.73632 -33.243057 -101.44272
3832500000 -29.149607 -92.864441 -0.24047528 -53.115002 -0.23791735 -53.103928 -33.278324 -99.462425
3860000000 -29.036964 -91.243477 -0.24044737 -53.48901 -0.24038637 -53.47327 -33.199482 -100.35037
3887500000 -29.510969 -91.546921 -0.24228524 -53.860085 -0.24090731 -53.862549 -33.30302 -102.04987
3915000000 -29.145136 -93.806984 -0.24149838 -54.237701 -0.23903011 -54.222656 -33.209972 -100.41454
3942500000 -28.849012 -93.57972 -0.24132188 -54.599598 -0.2408835 -54.601597 -33.065796 -100.43145
3970000000 -29.136032 -91.652061 -0.24255046 -54.985638 -0.24381445 -54.977032 -33.229271 -102.34235
3997500000 -29.241049 -94.077621 -0.24343607 -55.353733 -0.2417247 -55.349895 -33.121426 -101.65498
4025000000 -28.777273 -95.504021 -0.24377611 -55.723228 -0.24269089 -55.72665 -32.903374 -101.83913
4052500000 -28.732239 -92.907143 -0.24383198 -56.093193 -0.24357487 -56.092422 -33.062874 -103.38743
4080000000 -29.080004 -93.898849 -0.24390262 -56.481544 -0.24340704 -56.471607 -33.092152 -102.86199
4107500000 -28.764446 -97.226517 -0.2445056 -56.858124 -0.24373449 -56.861107 -32.72086 -103.22565
4135000000 -28.526606 -96.052559 -0.24228796 -57.224865 -0.24344127 -57.223812 -33.05006 -104.59461
4162500000 -28.868105 -94.817024 -0.24467182 -57.605701 -0.24364497 -57.607578 -33.059364 -104.16566
4190000000 -28.835489 -97.268127 -0.24310398 -57.97813 -0.24358062 -57.987549 -32.842075 -104.24019
4217500000 -28.535473 -97.657326 -0.24276042 -58.365067 -0.24454668 -58.369091 -32.849606 -104.07476
4245000000 -28.595018 -95.74366 -0.24454722 -58.74202 -0.24364579 -58.743984 -32.922539 -104.71163
4272500000 -28.830898 -97.021996 -0.24516043 -59.126225 -0.24652572 -59.120132 -32.918827 -105.29443
4300000000 -28.51894 -98.605606 -0.24577427 -59.494205 -0.24610546 -59.500935 -32.816216 -105.54532
4327500000 -28.493536 -97.283455 -0.24618791 -59.882851 -0.24498761 -59.875992 -32.774734 -105.76738
4355000000 -28.56604 -96.99894 -0.24613833 -60.255829 -0.24556717 -60.249039 -32.790649 -106.46581
4382500000 -28.54587 -98.447227 -0.24803506 -60.641064 -0.24755217 -60.62833 -32.843193 -105.90523
4410000000 -28.464634 -98.793343 -0.24713235 -61.011505 -0.24758451 -61.005455 -32.850643 -106.59046
4437500000 -28.481482 -97.827156 -0.24841055 -61.391907 -0.24794105 -61.376278 -32.993065 -107.09133
4465000000 -28.435156 -98.483269 -0.2493012 -61.771896 -0.24602629 -61.758419 -32.888451 -105.16796
4492500000 -28.452305 -99.261177 -0.24805452 -62.149506 -0.24744309 -62.140667 -32.838596 -106.5578
4520000000 -28.424326 -99.189453 -0.24919263 -62.519699 -0.24937631 -62.507599 -32.97641 -107.52612
4547500000 -28.357288 -98.863701 -0.24911806 -62.897087 -0.24830009 -62.897377 -32.930439 -106.0183
4575000000 -28.304203 -99.319138 -0.25079477 -63.270775 -0.24893658 -63.267395 -32.921799 -105.79815
4602500000 -28.327957 -99.716438 -0.25302032 -63.6563 -0.25056961 -63.662075 -32.874168 -108.12245
4630000000 -28.277552 -99.771049 -0.2520842 -64.034866 -0.25337401 -64.020805 -32.897022 -106.85551
4657500000 -28.24296 -99.65731 -0.25127527 -64.417007 -0.25311279 -64.401619 -32.822891 -105.77045
4685000000 -28.275927 -100.45872 -0.25306395 -64.795952 -0.25225264 -64.77639 -32.828449 -108.42262
4712500000 -28.200291 -100.29674 -0.25155312 -65.166565 -0.25261998 -65.158501 -32.771259 -106.91312
4740000000 -28.07802 -100.64423 -0.25233328 -65.536278 -0.2531361 -65.548439 -32.727913 -106.97476
4767500000 -28.107992 -100.52143 -0.25272289 -65.929794 -0.25296599 -65.919868 -32.598438 -108.0491
4795000000 -28.105494 -101.26781 -0.25279203 -66.308861 -0.25401646 -66.302826 -32.717525 -108.64581
4822500000 -27.998383 -101.16121 -0.25388032 -66.684875 -0.25467765 -66.685677 -32.710701 -107.36761
4850000000 -27.927008 -101.88361 -0.25351095 -67.057312 -0.25591716 -67.061165 -32.640827 -108.77766
4877500000 -27.962461 -102.15401 -0.2548086 -67.457245 -0.25532332 -67.440857 -32.69936 -109.0937
4905000000 -27.916178 -101.86524 -0.25637656 -67.822556 -0.25601354 -67.826241 -32.696178 -107.69375
4932500000 -27.910873 -102.05402 -0.25713864 -68.199219 -0.25804564 -68.199211 -32.56778 -108.36309
4960000000 -27.86718 -102.51283 -0.25839204 -68.582405 -0.25774181 -68.562126 -32.628433 -109.8807
4987500000 -27.876556 -102.50975 -0.2581448 -68.944916 -0.2592611 -68.947968 -32.529396 -108.91736
5015000000 -27.829977 -102.35082 -0.25969061 -69.32695 -0.25985056 -69.33194 -32.605549 -107.70039
5042500000 -27.910236 -103.398 -0.2601963 -69.713959 -0.26017404 -69.707115 -32.638515 -109.9471
5070000000 -27.863026 -103.36265 -0.26180029 -70.077942 -0.26108521 -70.082062 -32.589031 -108.564
5097500000 -27.838352 -102.68584 -0.26217726 -70.463295 -0.26266122 -70.474579 -32.491352 -107.60302
5125000000 -27.820242 -104.16859 -0.26444992 -70.85334 -0.26296458 -70.845055 -32.590786 -109.6594
5152500000 -27.806154 -104.37189 -0.26312903 -71.226036 -0.26235875 -71.222519 -32.487259 -109.38047
5180000000 -27.771193 -103.83792 -0.26313838 -71.601677 -0.26335594 -71.595413 -32.530712 -107.82229
5207500000 -27.790462 -104.64083 -0.26574367 -71.992195 -0.26504254 -71.985298 -32.508507 -109.5563
5235000000 -27.748816 -105.07623 -0.26736957 -72.342979 -0.26555327 -72.353264 -32.428108 -109.94006
5262500000 -27.807446 -104.28424 -0.26926595 -72.740753 -0.26741663 -72.726501 -32.421658 -108.70621
5290000000 -27.867277 -105.07602 -0.26796755 -73.11116 -0.2683233 -73.114075 -32.513016 -109.24454
5317500000 -27.759911 -105.93355 -0.26820296 -73.491325 -0.26783648 -73.49144 -32.457985 -110.43391
5345000000 -27.645012 -105.43433 -0.26977909 -73.869675 -0.26695251 -73.872276 -32.281994 -109.188
5372500000 -27.781914 -105.64743 -0.27038923 -74.24453 -0.27016473 -74.244293 -32.450035 -109.12143
5400000000 -27.711262 -107.46944 -0.27263531 -74.620911 -0.27349427 -74.621384 -32.350105 -111.7488
5427500000 -27.56658 -105.88164 -0.2725926 -74.99144 -0.2733705 -74.998756 -32.276455 -110.33891
5455000000 -27.697687 -106.17887 -0.27227563 -75.385437 -0.27511865 -75.365494 -32.226974 -109.02999
5482500000 -27.562696 -107.81593 -0.27531612 -75.751747 -0.27508885 -75.749557 -32.327045 -111.10178
5510000000 -27.54673 -106.91444 -0.27600622 -76.126404 -0.275029 -76.134506 -32.250553 -111.49095
5537500000 -27.658737 -106.4341 -0.27698365 -76.502945 -0.27549869 -76.513023 -32.150246 -109.71783
5565000000 -27.622305 -108.2239 -0.27844289 -76.891426 -0.27651188 -76.885338 -32.283039 -110.57954
5592500000 -27.48748 -107.27168 -0.27831426 -77.256485 -0.27852651 -77.262909 -32.323608 -111.39417
5620000000 -27.637547 -106.42004 -0.27948493 -77.635414 -0.27943385 -77.634605 -32.156403 -110.49224
5647500000 -27.59473 -108.01846 -0.28040734 -78.021187 -0.28098339 -78.024193 -32.131508 -109.6592
5675000000 -27.399525 -107.73483 -0.28171831 -78.399429 -0.2813496 -78.388199 -32.234493 -111.00299
5702500000 -27.615459 -106.7961 -0.28242132 -78.772888 -0.28335515 -78.774437 -32.075111 -110.61526
5730000000 -27.674814 -108.17476 -0.28438011 -79.138275 -0.28280008 -79.159798 -32.065369 -110.43224
5757500000 -27.303938 -108.84042 -0.2847245 -79.537971 -0.28436601 -79.52919 -32.124947 -111.45692
5785000000 -27.494402 -107.32034 -0.28669786 -79.888954 -0.28605253 -79.897018 -32.072197 -111.62867
5812500000 -27.624954 -108.59174 -0.28765726 -80.270226 -0.28606331 -80.262383 -31.929798 -111.1954
5840000000 -27.403906 -109.92133 -0.28707534 -80.655304 -0.28809676 -80.654121 -32.020123 -111.05784
5867500000 -27.339811 -108.19852 -0.28889155 -81.024284 -0.2896992 -81.031082 -32.071106 -111.52136
5895000000 -27.532007 -109.1687 -0.29136482 -81.407219 -0.28953871 -81.406532 -31.836708 -111.79609
5922500000 -27.335457 -110.48523 -0.29126459 -81.785416 -0.29123804 -81.785385 -31.958931 -112.37598
5950000000 -27.299118 -109.05888 -0.29328749 -82.163116 -0.29254311 -82.156967 -32.062675 -111.92568
5977500000 -27.559328 -109.19106 -0.29425856 -82.539253 -0.29462284 -82.535645 -31.876331 -112.31264
6005000000 -27.290045 -110.34576 -0.29630974 -82.915314 -0.29398656 -82.913788 -31.857008 -112.57999
6032500000 -27.211861 -109.88712 -0.2977522 -83.290016 -0.29662734 -83.297539 -31.849094 -111.96376
6060000000 -27.472191 -108.7887 -0.30169785 -83.660782 -0.29910696 -83.660461 -31.799372 -112.22853
6087500000 -27.372978 -111.25919 -0.3013427 -84.038437 -0.30175611 -84.043091 -31.812309 -113.7212
6115000000 -27.016794 -110.72175 -0.30271134 -84.415878 -0.30309075 -84.41423 -31.802748 -113.50385
6142500000 -27.37602 -108.9865 -0.30576986 -84.785873 -0.30493337 -84.782288 -31.706408 -113.34452
6170000000 -27.526112 -112.16273 -0.30844507 -85.151299 -0.30709684 -85.158699 -31.779171 -113.85258
6197500000 -26.923845 -111.41182 -0.30880052 -85.539909 -0.30793124 -85.537338 -31.722939 -113.91702
6225000000 -27.130116 -109.51135 -0.31114998 -85.904503 -0.30962968 -85.889473 -31.621307 -113.1772
6252500000 -27.538504 -111.73531 -0.31283748 -86.260902 -0.31386524 -86.24955 -31.795887 -113.22549
6280000000 -26.848993 -112.67909 -0.3137069 -86.618729 -0.31274733 -86.623909 -31.693239 -114.55114
6307500000 -26.955879 -109.54758 -0.31472293 -86.97451 -0.31453368 -86.970749 -31.540615 -113.77922
6335000000 -27.663774 -111.22017 -0.31554207 -87.354622 -0.31409314 -87.343765 -31.605242 -113.4799
6362500000 -27.087551 -114.44609 -0.31521863 -87.726326 -0.31461605 -87.713409 -31.664351 -114.25182
6390000000 -26.698254 -111.11143 -0.31531355 -88.095497 -0.31315768 -88.086212 -31.828962 -114.67416
6417500000 -27.490154 -109.67823 -0.31797653 -88.459984 -0.31766573 -88.453705 -31.729782 -114.31054
6445000000 -27.441946 -115.08012 -0.31658691 -88.840012 -0.31725997 -88.845528 -31.5411 -116.44527
6472500000 -26.627153 -113.6407 -0.31686202 -89.19381 -0.31516659 -89.187576 -31.708546 -116.15874
6500000000 -27.202793 -110.84014 -0.31853947 -89.561852 -0.31949866 -89.549927 -31.651262 -113.28911
6527500000 -27.587715 -113.48386 -0.31820354 -89.942436 -0.31744346 -89.944435 -31.52289 -115.84882
6555000000 -26.744621 -116.00188 -0.31876817 -90.307487 -0.31700125 -90.306313 -31.643539 -117.45573
6582500000 -26.882486 -112.35376 -0.31969398 -90.678391 -0.31970263 -90.679321 -31.357187 -113.57474
6610000000 -27.44326 -112.9835 -0.32076684 -91.05558 -0.32069048 -91.049805 -31.454231 -115.08816
6637500000 -27.006704 -116.02824 -0.32069939 -91.433105 -0.32094997 -91.413101 -31.702192 -117.91038
6665000000 -26.718187 -114.9035 -0.32156011 -91.790619 -0.31959674 -91.792877 -31.200705 -116.18376
6692500000 -27.141424 -113.36063 -0.320948 -92.156059 -0.32179788 -92.164803 -31.088329 -115.43513
6720000000 -27.077089 -115.63644 -0.32283196 -92.531227 -0.32408467 -92.537262 -31.691317 -118.00665
6747500000 -26.704887 -116.20497 -0.32246754 -92.909317 -0.32238054 -92.90789 -31.358799 -118.44636
6775000000 -27.06673 -114.61997 -0.3263191 -93.268196 -0.32441577 -93.265594 -30.883785 -117.14265
6802500000 -27.00606 -116.23154 -0.3257345 -93.64785 -0.32664225 -93.635719 -31.53583 -117.35828
6830000000 -26.78233 -117.47868 -0.32751083 -94.013229 -0.32749659 -94.007164 -31.690672 -120.69689
6857500000 -26.871635 -116.18922 -0.32966128 -94.370377 -0.32760909 -94.354637 -30.915972 -119.36028
6885000000 -26.969702 -117.26788 -0.32992518 -94.741394 -0.32717282 -94.731384 -31.172804 -118.45908
6912500000 -26.762413 -117.69425 -0.33159876 -95.111404 -0.32665536 -95.096024 -31.792927 -120.24649
6940000000 -26.790609 -117.72853 -0.32803172 -95.470398 -0.32862976 -95.468071 -31.266075 -122.81039
6967500000 -26.91618 -118.6894 -0.32850355 -95.843102 -0.32543597 -95.813744 -31.074406 -120.94754
6995000000 -26.785446 -118.467 -0.32836422 -96.198151 -0.32785726 -96.180931 -31.826944 -120.30616
7022500000 -26.8505 -118.8438 -0.32765153 -96.573502 -0.32661909 -96.571571 -31.653185 -124.08104
7050000000 -27.139042 -120.13556 -0.32592228 -96.953438 -0.32528809 -96.931358 -31.237148 -122.99891
7077500000 -26.914206 -119.82056 -0.32766995 -97.313438 -0.32563964 -97.303917 -31.716402 -120.2163
7105000000 -26.801168 -120.64323 -0.32510257 -97.695076 -0.32437617 -97.667503 -31.974445 -123.98889
7132500000 -27.055641 -120.7955 -0.32572725 -98.052094 -0.32483447 -98.055397 -31.271706 -124.06116
7160000000 -27.027184 -121.34885 -0.3248063 -98.423431 -0.32504982 -98.400131 -31.719069 -121.61221
7187500000 -26.860207 -121.89977 -0.32647872 -98.814903 -0.3253701 -98.804504 -32.246178 -124.02373
7215000000 -26.965216 -121.84619 -0.3272303 -99.176559 -0.326047 -99.170403 -31.671619 -125.32579
7242500000 -27.091728 -121.62695 -0.32610002 -99.552498 -0.32917702 -99.562111 -31.705046 -121.74712
7270000000 -26.947739 -121.95577 -0.32793653 -99.91494 -0.32733637 -99.92202 -32.372459 -123.008
7297500000 -26.985342 -123.55221 -0.32687053 -100.29367 -0.3289732 -100.2793 -31.944853 -126.34159
7325000000 -27.127525 -123.32497 -0.3294574 -100.65095 -0.32870626 -100.65321 -31.552048 -122.64493
7352500000 -27.025002 -122.46655 -0.32956687 -101.0069 -0.32845694 -100.99859 -32.468571 -123.09744
7380000000 -27.174786 -124.10651 -0.32866549 -101.37775 -0.32900557 -101.36786 -32.154007 -126.5078
7407500000 -27.235119 -125.87515 -0.32718369 -101.72607 -0.32606432 -101.72006 -31.538944 -123.80326
7435000000 -27.041058 -123.71878 -0.32674411 -102.08959 -0.32439232 -102.08396 -32.448174 -122.98063
7462500000 -27.181776 -124.0903 -0.32562262 -102.47633 -0.32148123 -102.46651 -32.610378 -128.03984
7490000000 -27.410763 -126.78715 -0.31886232 -102.85349 -0.32254952 -102.84718 -31.677774 -126.6096
7517500000 -27.22431 -125.15527 -0.31989458 -103.21869 -0.32066762 -103.20928 -32.612118 -121.38345
7545000000 -27.12042 -124.48249 -0.31869155 -103.60648 -0.31683502 -103.59753 -33.142025 -128.12956
7572500000 -27.550026 -125.6161 -0.32063001 -103.97136 -0.31921253 -103.97915 -32.126537 -126.31782
7600000000 -27.470213 -125.97633 -0.31886762 -104.37013 -0.32041067 -104.35716 -32.476498 -119.8074
7627500000 -27.193199 -125.06339 -0.32140204 -104.74407 -0.31957418 -104.72462 -33.45956 -126.4145
7655000000 -27.435104 -125.21452 -0.32064673 -105.11875 -0.32243547 -105.10444 -31.979061 -127.39838
7682500000 -27.614168 -126.38177 -0.32151523 -105.4651 -0.321273 -105.48006 -32.095112 -119.70866
7710000000 -27.180267 -126.34707 -0.32158464 -105.83555 -0.32159078 -105.84528 -33.53429 -126.50883
7737500000 -27.440523 -126.37197 -0.32379153 -106.22536 -0.32235602 -106.21743 -32.511528 -132.05579
7765000000 -27.648161 -126.88018 -0.32284033 -106.5863 -0.31890133 -106.58949 -32.020145 -120.32957
7792500000 -27.37537 -127.52704 -0.32098481 -106.9486 -0.32087889 -106.945 -34.221249 -125.26982
7820000000 -27.514812 -128.39267 -0.32007545 -107.34578 -0.32088503 -107.34321 -32.993584 -137.35373
7847500000 -27.812284 -127.45005 -0.31854391 -107.72633 -0.3182857 -107.703 -32.054127 -121.77464
7875000000 -27.584717 -129.49268 -0.32044941 -108.08282 -0.31835869 -108.07426 -34.95578 -119.14174
7902500000 -27.607529 -128.52449 -0.31917128 -108.48721 -0.31818154 -108.48318 -33.928982 -141.64667
7930000000 -27.953243 -126.86098 -0.32104111 -108.87006 -0.31793892 -108.86749 -31.631041 -123.10786
7957500000 -27.576399 -129.65796 -0.32298282 -109.2709 -0.32289386 -109.24603 -34.789783 -106.8313
7985000000 -27.797745 -128.91435 -0.3272945 -109.66824 -0.32503253 -109.65086 -35.573166 -149.17189
8012500000 -28.281553 -125.0069 -0.33263123 -110.04516 -0.33129671 -110.04273 -30.788832 -128.82706
8040000000 -27.66083 -129.97192 -0.34068757 -110.44009 -0.33857283 -110.42581 -32.76894 -93.538223
8067500000 -28.039539 -131.41202 -0.35226074 -110.81462 -0.34982973 -110.78445 -40.621933 -169.42528
8095000000 -28.326139 -120.58116 -0.36772621 -111.17036 -0.36662138 -111.17603 -29.456776 -147.18832
8122500000 -27.651403 -130.32117 -0.38354892 -111.52173 -0.38393518 -111.50692 -28.676975 -92.208076
8150000000 -28.535507 -136.56129 -0.40585259 -111.76948 -0.40736175 -111.76385 -39.395672 9.517005
8177500000 -27.651337 -114.90652 -0.43177989 -111.95776 -0.43336132 -111.92673 -28.448265 169.44914
8205000000 -27.491896 -130.76534 -0.44966456 -111.98325 -0.44683355 -111.96355 -23.990623 -120.21416
8232500000 -31.251043 -140.50337 -0.43262601 -111.86967 -0.43204495 -111.83652 -25.386105 -43.105766
8260000000 -25.696268 -118.97811 -0.38005736 -111.64972 -0.38138521 -111.61715 -26.764437 70.755379
8287500000 -27.094212 -135.86977 -0.26443836 -111.92475 -0.26108989 -111.9325 -23.076599 173.95508
8315000000 -31.462404 -104.71011 -0.16372073 -112.62234 -0.15950175 -112.56661 -21.674217 -114.15842
8342500000 -26.785398 -134.9509 -0.09741199 -113.46674 -0.097272478 -113.48409 -24.705887 -35.562248
8370000000 -28.909403 -141.65074 -0.099556051 -114.38148 -0.097073682 -114.3791 -30.170494 81.709801
8397500000 -28.101067 -112.7454 -0.1217211 -115.12438 -0.12393073 -115.1084 -26.063843 -166.72096
8425000000 -28.612204 -131.85945 -0.15589644 -115.67068 -0.15589912 -115.69192 -26.499147 -94.258522
8452500000 -29.885532 -133.04399 -0.18210442 -116.20267 -0.18115999 -116.19052 -34.407013 -18.536264
8480000000 -28.100475 -120.88161 -0.20229618 -116.59044 -0.20020923 -116.58046 -33.630962 174.83458
8507500000 -28.855553 -126.07005 -0.21763562 -116.95008 -0.21946739 -116.9613 -29.24263 -118.86047
8535000000 -30.006207 -127.96545 -0.22827195 -117.37167 -0.22951239 -117.33733 -33.047626 -63.368332
8562500000 -28.597261 -123.12259 -0.23813665 -117.71319 -0.23798789 -117.7113 -42.941143 -163.91167
8590000000 -28.94639 -126.17615 -0.24482739 -118.08488 -0.24297531 -118.06317 -31.668756 -128.92819
8617500000 -29.890467 -125.11202 -0.24912244 -118.46242 -0.24765055 -118.43185 -32.663353 -82.453743
8645000000 -28.913065 -122.55624 -0.25015691 -118.82124 -0.25120205 -118.79855 -43.074028 -99.12529
8672500000 -29.056694 -125.08392 -0.25382957 -119.1916 -0.2551671 -119.16711 -33.8764 -130.62827
8700000000 -29.929977 -122.29092 -0.25715733 -119.5611 -0.25613135 -119.54767 -32.969334 -91.771095
8727500000 -29.143625 -121.64444 -0.25709993 -119.9219 -0.25760007 -119.92562 -38.687202 -81.353081
8755000000 -29.185202 -123.24893 -0.25760886 -120.31212 -0.25842088 -120.30566 -35.577904 -124.91544
8782500000 -29.841543 -120.34311 -0.25835302 -120.68772 -0.25849012 -120.67671 -33.128017 -96.758026
8810000000 -29.416594 -119.49057 -0.26116687 -121.06613 -0.25903359 -121.0595 -36.461517 -78.466568
8837500000 -29.305563 -120.69005 -0.26124275 -121.45277 -0.26181403 -121.43549 -36.923946 -115.83661
8865000000 -29.849123 -118.64191 -0.26228312 -121.83575 -0.26159492 -121.79067 -33.445248 -99.1707
8892500000 -29.641333 -117.19162 -0.2638315 -122.20938 -0.26173541 -122.19677 -34.867897 -77.317863
8920000000 -29.317677 -119.14715 -0.26399216 -122.59188 -0.26452366 -122.57738 -37.178959 -101.86559
8947500000 -29.863834 -117.06443 -0.26328799 -122.97201 -0.26464525 -122.96276 -33.724594 -101.79727
8975000000 -29.966875 -115.42097 -0.26616117 -123.37715 -0.26613778 -123.35229 -33.940842 -79.690071
9002500000 -29.267242 -117.37391 -0.26411539 -123.74989 -0.26460287 -123.76407 -36.680401 -88.167618
9030000000 -29.64436 -115.67028 -0.26440534 -124.14409 -0.26456738 -124.1255 -33.975864 -99.116333
9057500000 -29.849751 -112.78362 -0.26387578 -124.51733 -0.26808015 -124.52391 -33.11972 -80.942665
9085000000 -29.294222 -114.33353 -0.26917064 -124.93262 -0.26793808 -124.9091 -35.156139 -80.356895
9112500000 -29.462175 -114.2582 -0.27006581 -125.31617 -0.27058235 -125.30991 -34.163998 -95.54847
9140000000 -29.513657 -111.62606 -0.27117914 -125.71342 -0.27379119 -125.6917 -32.570896 -83.571999
9167500000 -29.229176 -111.85439 -0.27442095 -126.11013 -0.27606443 -126.08372 -33.813545 -76.991066
9195000000 -29.055662 -112.14938 -0.2774643 -126.49799 -0.27932534 -126.48248 -33.831867 -90.769569
9222500000 -29.371061 -109.79514 -0.28280643 -126.88687 -0.28117642 -126.87007 -32.118317 -85.191063
9250000000 -29.044983 -110.53522 -0.28695035 -127.26423 -0.28678748 -127.25307 -32.644642 -77.893677
9277500000 -28.753725 -111.78678 -0.29159293 -127.66696 -0.29218039 -127.66084 -33.213787 -88.93531
9305000000 -28.871809 -110.89804 -0.29969352 -128.05247 -0.2953465 -128.0365 -31.614128 -88.743034
9332500000 -28.520351 -111.07677 -0.30650899 -128.40471 -0.30800208 -128.42334 -31.44224 -81.052803
9360000000 -28.0868 -112.4026 -0.31730396 -128.77296 -0.31543714 -128.76692 -32.254318 -88.621368
9387500000 -28.270041 -113.12466 -0.32446513 -129.11478 -0.3246367 -129.09923 -31.336761 -94.843849
9415000000 -28.114529 -115.2215 -0.33063352 -129.39851 -0.33347309 -129.39824 -31.138016 -90.268776
9442500000 -27.882109 -115.86379 -0.33585691 -129.70979 -0.33446491 -129.68617 -31.955076 -94.818665
9470000000 -28.242823 -118.71779 -0.33170798 -130.00323 -0.33198181 -129.99347 -31.944147 -102.07558
9497500000 -28.567591 -119.76536 -0.32279629 -130.31372 -0.32384425 -130.30284 -31.990438 -96.152847
9525000000 -28.408993 -118.98467 -0.31665403 -130.66168 -0.31602314 -130.63258 -32.893673 -95.262634
9552500000 -28.983477 -119.21142 -0.30581513 -131.02469 -0.30900037 -130.98843 -33.258034 -99.643333
9580000000 -29.39967 -119.52247 -0.29838958 -131.38771 -0.30026433 -131.38213 -32.883167 -95.043449
9607500000 -29.214745 -118.14702 -0.29338166 -131.77716 -0.29473338 -131.7569 -33.226841 -89.793488
9635000000 -29.300415 -117.13758 -0.28921416 -132.16455 -0.29024658 -132.14122 -33.634491 -91.960815
9662500000 -29.655407 -116.82096 -0.28523973 -132.56389 -0.28551009 -132.54248 -33.257092 -90.821533
9690000000 -29.567276 -115.9319 -0.2819553 -132.94562 -0.2826564 -132.93314 -32.933186 -86.021812
9717500000 -29.402918 -113.27026 -0.28060368 -133.33537 -0.28077489 -133.32968 -33.381256 -86.475159
9745000000 -29.770567 -114.85962 -0.27725571 -133.74437 -0.27764559 -133.7374 -33.143654 -86.122925
9772500000 -29.810925 -112.75396 -0.27503729 -134.11217 -0.2752251 -134.11824 -32.592857 -83.261971
9800000000 -29.54085 -110.74509 -0.27732 -134.51891 -0.27741823 -134.50246 -32.781662 -82.871597
9827500000 -29.850058 -112.05711 -0.27311108 -134.93442 -0.27292943 -134.90254 -32.961632 -83.051086
9855000000 -29.668955 -111.55167 -0.27265987 -135.30214 -0.27103007 -135.28865 -32.351795 -81.651787
9882500000 -29.665506 -108.18084 -0.27229384 -135.68109 -0.27393237 -135.67343 -32.087963 -79.47509
9910000000 -29.683531 -110.10821 -0.27376252 -136.08678 -0.27135795 -136.08441 -32.475483 -80.833176
9937500000 -29.647175 -110.05404 -0.27112484 -136.48863 -0.27090251 -136.48367 -32.208649 -80.597008
9965000000 -29.726034 -107.00186 -0.27295369 -136.87498 -0.27137834 -136.86841 -31.613361 -79.355263
9992500000 -29.556337 -107.04228 -0.27230266 -137.2603 -0.27329302 -137.25424 -31.921886 -77.888702
10020000000 -29.428524 -109.18977 -0.27316153 -137.65108 -0.27285224 -137.6613 -31.823025 -78.619942
10047500000 -29.528439 -105.81123 -0.27242282 -138.04384 -0.27212295 -138.02988 -31.0963 -77.768776
10075000000 -29.336235 -105.38908 -0.27489084 -138.43286 -0.27145386 -138.41631 -31.219702 -75.867767
10102500000 -29.303026 -107.82993 -0.27363431 -138.85022 -0.27421084 -138.83116 -31.472908 -76.586868
10130000000 -29.19997 -104.8967 -0.27668789 -139.2175 -0.27176633 -139.19769 -30.85634 -78.320107
10157500000 -29.081387 -101.74923 -0.27709511 -139.62286 -0.27889279 -139.59314 -30.398954 -76.061577
10185000000 -28.960045 -105.11453 -0.27863526 -140.01076 -0.27645007 -140.02029 -30.989407 -75.443535
10212500000 -29.029625 -104.75478 -0.27975491 -140.39819 -0.27559632 -140.38425 -30.371904 -77.590523
10240000000 -28.64077 -100.41649 -0.28030354 -140.77074 -0.27768368 -140.76656 -29.686792 -77.644501
10267500000 -28.663862 -102.12183 -0.28304154 -141.17339 -0.28036401 -141.16882 -30.246805 -75.886887
10295000000 -29.047531 -103.85762 -0.28120846 -141.55464 -0.28088424 -141.54771 -30.03035 -78.161362
10322500000 -28.554342 -99.621063 -0.28580257 -141.93816 -0.28505397 -141.94058 -29.333593 -78.726486
10350000000 -28.459352 -100.18304 -0.2884489 -142.33701 -0.28601491 -142.33061 -29.494028 -76.258064
10377500000 -28.859335 -101.99786 -0.28889957 -142.73219 -0.28980327 -142.73267 -29.829699 -78.647133
10405000000 -28.653782 -101.43177 -0.29172137 -143.11789 -0.28848127 -143.11761 -28.989153 -80.64106
10432500000 -27.982306 -99.629585 -0.29661044 -143.51831 -0.29353786 -143.49887 -28.926554 -78.611137
10460000000 -28.590797 -102.34556 -0.30093455 -143.93488 -0.29887372 -143.8947 -29.422094 -79.463661
10487500000 -28.464434 -102.88411 -0.30111241 -144.25002 -0.3034111 -144.27428 -28.686569 -82.134682
10515000000 -27.761686 -101.14693 -0.3086763 -144.65616 -0.30891114 -144.66711 -28.418844 -81.269318
10542500000 -27.918125 -102.76874 -0.3154324 -145.05132 -0.31569239 -145.04875 -29.008366 -80.772392
10570000000 -28.199429 -103.33915 -0.32112417 -145.41527 -0.31847095 -145.3934 -28.689907 -85.989418
10597500000 -27.757154 -103.52689 -0.32981405 -145.74133 -0.32808727 -145.76189 -28.054281 -85.103226
10625000000 -27.71558 -104.83788 -0.33651194 -146.10645 -0.33464164 -146.11378 -28.807087 -84.372581
10652500000 -28.119923 -107.93781 -0.3371475 -146.43671 -0.33610415 -146.43977 -28.934298 -88.914627
10680000000 -27.879877 -107.13844 -0.34224486 -146.75154 -0.3413358 -146.73549 -28.273243 -90.021454
10707500000 -27.919657 -108.58179 -0.34249863 -147.05696 -0.34355864 -147.06529 -29.005058 -87.333771
10735000000 -28.524841 -112.1255 -0.33885884 -147.37416 -0.33725831 -147.38667 -29.864689 -89.672035
10762500000 -28.555281 -109.41122 -0.32419902 -147.70372 -0.32551771 -147.69249 -29.188915 -89.78923
10790000000 -28.838732 -107.66492 -0.31400773 -148.07346 -0.31490356 -148.04573 -29.506941 -84.683228
10817500000 -28.850763 -108.30646 -0.30606788 -148.49144 -0.30336612 -148.47641 -30.183043 -81.903694
10845000000 -28.703402 -105.40499 -0.29685682 -148.91908 -0.29727733 -148.87958 -29.355251 -83.708412
10872500000 -28.399656 -101.68945 -0.29753318 -149.31322 -0.29689121 -149.32349 -28.696342 -80.66053
10900000000 -28.473593 -102.26939 -0.2964569 -149.7598 -0.29753402 -149.74702 -29.281435 -77.657356
10927500000 -28.244211 -102.60809 -0.29479071 -150.16861 -0.29453862 -150.15158 -28.760017 -81.73468
10955000000 -27.845789 -98.295128 -0.29956648 -150.56931 -0.29940951 -150.53571 -27.95944 -81.696358
10982500000 -27.976175 -99.883453 -0.30398545 -150.96867 -0.30492616 -150.95969 -28.375465 -79.177887
11010000000 -28.075024 -101.13695 -0.31009561 -151.37161 -0.30946568 -151.36035 -28.293798 -82.520531
11037500000 -27.463417 -99.949272 -0.31387499 -151.73335 -0.31461495 -151.73616 -27.371037 -84.464211
11065000000 -27.560301 -98.826988 -0.32113838 -152.13335 -0.32196906 -152.11694 -27.616764 -81.892357
11092500000 -27.786148 -102.19858 -0.32842371 -152.48651 -0.32831454 -152.50119 -28.09549 -85.719269
11120000000 -27.292772 -101.55194 -0.33328077 -152.86981 -0.33264691 -152.84641 -27.408087 -88.563614
11147500000 -27.526148 -100.48952 -0.33833998 -153.19652 -0.34013522 -153.21439 -27.368753 -87.417046
11175000000 -27.603119 -104.1411 -0.3458488 -153.54865 -0.34285995 -153.54539 -28.107868 -88.207756
11202500000 -27.768391 -106.33627 -0.34867364 -153.86629 -0.3464787 -153.85654 -27.778685 -92.462509
11230000000 -27.681433 -104.96941 -0.34681094 -154.1666 -0.34964988 -154.16412 -27.585896 -91.015549
11257500000 -28.000956 -106.94501 -0.34400359 -154.49731 -0.34470385 -154.4912 -28.718397 -88.793808
11285000000 -28.199974 -108.79733 -0.33394745 -154.83578 -0.33593243 -154.80125 -28.7708 -91.364166
11312500000 -27.9251 -106.00129 -0.32710695 -155.19276 -0.32738662 -155.17465 -28.225981 -88.856949
11340000000 -28.006012 -102.80645 -0.32167077 -155.57069 -0.32080418 -155.56793 -28.678381 -85.083534
11367500000 -28.177486 -102.87569 -0.31466198 -155.97598 -0.31326786 -155.94539 -28.832731 -86.197586
11395000000 -28.425196 -103.28287 -0.30947706 -156.38531 -0.30871519 -156.37247 -27.988621 -85.685783
11422500000 -27.569963 -102.86316 -0.30982652 -156.79108 -0.30549517 -156.77246 -28.07704 -81.071175
11450000000 -26.986237 -100.8811 -0.3145192 -157.19603 -0.31239265 -157.18024 -28.189871 -83.143242
11477500000 -27.635365 -96.640411 -0.31534973 -157.52811 -0.31197739 -157.52592 -27.545044 -88.362122
11505000000 -28.139736 -97.209595 -0.30990657 -157.89723 -0.30796736 -157.88216 -27.726261 -85.417976
11532500000 -27.872501 -99.726265 -0.30415037 -158.29959 -0.30455104 -158.27863 -28.28657 -83.729713
11560000000 -27.727282 -97.021233 -0.30057502 -158.68921 -0.30082387 -158.67603 -27.630186 -85.770447
11587500000 -27.998373 -97.68203 -0.30119729 -159.07585 -0.30243906 -159.06407 -27.500128 -83.473488
11615000000 -27.416418 -97.457405 -0.30437917 -159.47064 -0.3033897 -159.47115 -27.880383 -82.047638
11642500000 -27.462337 -97.919899 -0.30134296 -159.87376 -0.30072927 -159.87448 -27.499153 -85.561501
11670000000 -27.639002 -95.377953 -0.30294448 -160.25159 -0.30187517 -160.25732 -27.036684 -84.32267
11697500000 -27.322037 -96.480484 -0.30492699 -160.65419 -0.30514222 -160.62012 -27.448481 -82.502762
11725000000 -27.15563 -97.444763 -0.30419314 -161.04039 -0.30280653 -161.01212 -27.333788 -84.457016
11752500000 -27.241976 -94.456741 -0.30503446 -161.41481 -0.30319345 -161.38771 -26.702517 -85.427193
11780000000 -27.060835 -93.308792 -0.30770448 -161.80008 -0.30552045 -161.78577 -26.960047 -84.153015
11807500000 -27.274284 -93.407387 -0.30655205 -162.17879 -0.30613095 -162.16893 -27.190899 -85.787437
11835000000 -27.786676 -96.304588 -0.30310047 -162.55356 -0.30528662 -162.53488 -26.82103 -86.894966
11862500000 -27.296213 -97.732437 -0.30782008 -162.93973 -0.3065201 -162.93413 -26.869659 -84.035378
11890000000 -26.690046 -96.644913 -0.30724409 -163.3409 -0.30697736 -163.30568 -27.108328 -84.360512
11917500000 -27.155205 -95.966866 -0.30824748 -163.7016 -0.30697155 -163.69547 -26.618067 -86.528015
11945000000 -27.25297 -97.837288 -0.30674568 -164.07388 -0.30847508 -164.05446 -26.618025 -84.484894
11972500000 -26.537418 -98.093735 -0.30895978 -164.45699 -0.31122118 -164.44267 -26.914852 -83.930115
12000000000 -26.631279 -97.221848 -0.30857903 -164.84265 -0.30763724 -164.82518 -26.470026 -86.336853
12027500000 -26.699345 -97.090996 -0.31199825 -165.22208 -0.30940118 -165.19566 -26.172844 -85.172112
12055000000 -26.285137 -95.241974 -0.31353441 -165.63341 -0.31218377 -165.59 -26.498253 -84.663826
12082500000 -26.402718 -96.130936 -0.31104654 -166.00252 -0.31170315 -165.97064 -26.264135 -86.532829
12110000000 -26.598839 -97.609032 -0.31022739 -166.35886 -0.31360704 -166.34648 -25.830111 -86.703331
12137500000 -25.94389 -95.072289 -0.31236374 -166.73811 -0.31629068 -166.7354 -26.063602 -85.463081
12165000000 -26.103687 -94.38623 -0.31305391 -167.12003 -0.31688458 -167.10594 -26.08016 -87.396301
12192500000 -26.539482 -96.153641 -0.31309316 -167.50302 -0.31232145 -167.47166 -25.605753 -87.953484
12220000000 -26.051189 -96.049423 -0.31448776 -167.87103 -0.31456876 -167.87035 -25.861187 -86.514961
12247500000 -25.894897 -93.982033 -0.31287059 -168.25906 -0.31525564 -168.24055 -25.924494 -88.238411
12275000000 -26.251099 -96.228523 -0.31339502 -168.6489 -0.31177378 -168.62373 -25.521955 -88.932884
12302500000 -26.148251 -95.36261 -0.3168506 -169.02061 -0.31566736 -169.00632 -25.683847 -88.42131
12330000000 -25.713579 -92.682564 -0.3176139 -169.41681 -0.31768131 -169.39609 -25.925701 -89.618011
12357500000 -26.168207 -94.378464 -0.31634665 -169.78476 -0.31662673 -169.79019 -25.510942 -90.739449
12385000000 -26.274887 -95.369492 -0.31727442 -170.17125 -0.31656995 -170.14899 -25.463196 -88.803993
12412500000 -25.813745 -93.547806 -0.31915653 -170.55168 -0.32032177 -170.55547 -25.771992 -89.585617
12440000000 -26.07542 -94.523766 -0.31851578 -170.93565 -0.3166028 -170.93134 -25.575842 -90.800072
12467500000 -26.021973 -96.716713 -0.31795815 -171.32143 -0.31771919 -171.29884 -25.390253 -90.159454
12495000000 -25.782339 -94.137123 -0.32055309 -171.71271 -0.32077521 -171.6902 -25.671385 -89.970512
12522500000 -25.914087 -94.876678 -0.31786764 -172.0797 -0.31935379 -172.07896 -25.492064 -91.406288
12550000000 -25.892387 -98.266891 -0.31898993 -172.46162 -0.31947023 -172.43596 -25.148146 -90.720512
12577500000 -25.601521 -95.31144 -0.32039395 -172.82011 -0.32177755 -172.81158 -25.308624 -90.195724
12605000000 -25.282785 -94.981346 -0.32443973 -173.2121 -0.3245346 -173.19226 -25.359293 -91.049576
12632500000 -25.652645 -97.008675 -0.32405204 -173.5882 -0.32240343 -173.57439 -24.951132 -91.538361
12660000000 -25.493988 -96.246124 -0.32321984 -173.9794 -0.32384369 -173.9538 -25.085674 -91.423958
12687500000 -25.267168 -94.657745 -0.32766241 -174.3438 -0.32472566 -174.3371 -25.220728 -91.681366
12715000000 -25.362387 -96.10025 -0.3239215 -174.73216 -0.32502583 -174.6955 -24.826319 -92.682762
12742500000 -25.415342 -95.916985 -0.32722723 -175.12791 -0.32940966 -175.09642 -24.833204 -93.174667
12770000000 -25.234482 -93.183083 -0.32902429 -175.50488 -0.32876208 -175.46909 -25.033482 -93.391045
12797500000 -25.353531 -96.655937 -0.32992965 -175.88179 -0.32878304 -175.86589 -24.792061 -93.275658
12825000000 -25.110826 -96.352516 -0.33235738 -176.24025 -0.32921836 -176.23711 -24.661268 -94.317047
12852500000 -25.191635 -92.991875 -0.3334837 -176.63272 -0.33198377 -176.59499 -24.894896 -94.640755
12880000000 -25.298843 -95.903519 -0.33390495 -177.00731 -0.33200362 -176.99623 -24.794212 -94.26107
12907500000 -25.094547 -97.882233 -0.33404052 -177.3913 -0.33315638 -177.37804 -24.599857 -95.409531
12935000000 -24.941721 -94.304787 -0.33647224 -177.75504 -0.33325255 -177.75246 -24.720169 -95.944656
12962500000 -25.203716 -94.242531 -0.33686888 -178.14249 -0.33804116 -178.12589 -24.739334 -95.766045
12990000000 -25.021769 -98.102493 -0.33542344 -178.52652 -0.3370454 -178.52361 -24.557787 -96.211075
13017500000 -24.937885 -95.381058 -0.33722919 -178.89522 -0.33913478 -178.86574 -24.669235 -97.67292
13045000000 -25.028797 -93.844734 -0.34106055 -179.26321 -0.34153211 -179.26833 -24.668684 -97.022377
13072500000 -25.133333 -98.123428 -0.34132573 -179.66371 -0.34018338 -179.64517 -24.579397 -97.002861
13100000000 -24.803921 -97.398483 -0.34191465 179.95885 -0.34093285 179.97102 -24.63241 -98.677269
13127500000 -24.909075 -94.456039 -0.3427524 179.61067 -0.34464669 179.61787 -24.627943 -97.752014
13155000000 -24.970425 -97.380516 -0.34532827 179.20618 -0.34538826 179.23244 -24.57266 -97.200623
13182500000 -24.696966 -98.048798 -0.34685582 178.82065 -0.34552646 178.83946 -24.605089 -98.991684
13210000000 -24.954649 -95.102867 -0.35053822 178.4792 -0.34687993 178.47353 -24.621452 -98.633011
13237500000 -24.770052 -97.374138 -0.34735885 178.0986 -0.3473995 178.09114 -24.588078 -97.597313
13265000000 -24.556612 -98.808289 -0.34721583 177.68944 -0.35061315 177.72012 -24.521936 -99.305908
13292500000 -24.626839 -95.441422 -0.35041812 177.33026 -0.3504549 177.36136 -24.630695 -99.560844
13320000000 -24.778994 -97.070122 -0.35202885 176.95151 -0.349924 176.9648 -24.499954 -97.635086
13347500000 -24.365385 -98.54541 -0.35110709 176.54868 -0.35294268 176.57829 -24.486179 -99.170067
13375000000 -24.454485 -96.537956 -0.35269448 176.18207 -0.35434368 176.19963 -24.439054 -100.38074
13402500000 -24.674572 -95.864235 -0.35712573 175.8262 -0.35600054 175.8439 -24.452738 -98.643234
13430000000 -24.251951 -98.719017 -0.36015728 175.42892 -0.35851234 175.44601 -24.399101 -99.426949
13457500000 -24.177408 -96.359459 -0.35864419 175.06526 -0.35913679 175.10161 -24.381153 -101.45156
13485000000 -24.541039 -95.306488 -0.36075526 174.6981 -0.36069533 174.72202 -24.314507 -99.687683
13512500000 -24.214201 -98.488884 -0.36206424 174.31897 -0.3625395 174.34035 -24.324766 -99.47348
13540000000 -23.927847 -97.28804 -0.36427718 173.95482 -0.36378852 173.97868 -24.258326 -102.3371
13567500000 -24.320055 -95.23996 -0.36566609 173.59865 -0.36537492 173.6068 -24.239777 -101.38793
13595000000 -24.221588 -98.582138 -0.366936 173.21394 -0.36547884 173.24283 -24.196152 -100.0912
13622500000 -23.807453 -99.014137 -0.3669256 172.842 -0.36687967 172.8647 -24.152113 -102.25153
13650000000 -24.1647 -97.023224 -0.36436558 172.47217 -0.36368129 172.52818 -24.126284 -102.35312
13677500000 -24.172247 -99.118454 -0.3649185 172.11925 -0.36385918 172.12646 -24.168911 -100.61934
13705000000 -23.761684 -100.31467 -0.36463642 171.70634 -0.36473918 171.713 -24.077082 -102.85771
13732500000 -24.038776 -97.980957 -0.3627044 171.34499 -0.36420372 171.35437 -24.052191 -104.09641
13760000000 -24.311062 -99.388603 -0.36733517 170.96254 -0.36524484 170.99538 -24.119701 -101.61042
13787500000 -23.789865 -100.84612 -0.36724445 170.57143 -0.36527637 170.57793 -24.138615 -103.25002
13815000000 -23.853912 -98.959145 -0.37102401 170.19431 -0.37062535 170.20073 -24.020634 -104.94478
13842500000 -24.413303 -98.563004 -0.37546241 169.84784 -0.37131301 169.85225 -24.095358 -102.72369
13870000000 -23.837929 -101.94484 -0.37412426 169.43286 -0.37252393 169.46024 -24.092968 -103.05383
13897500000 -23.731995 -99.745201 -0.3765915 169.06586 -0.37592927 169.09537 -24.029156 -105.5009
13925000000 -24.287033 -98.122192 -0.37559536 168.714 -0.37691107 168.73926 -23.995743 -103.51694
13952500000 -24.070532 -102.41052 -0.37947878 168.34192 -0.38222015 168.33449 -24.013887 -102.87366
13980000000 -23.58876 -99.862564 -0.38130692 167.95084 -0.37887514 167.97081 -23.888374 -105.91492
14007500000 -24.161739 -98.368294 -0.3800616 167.59865 -0.37865284 167.63791 -23.834309 -104.716
14035000000 -24.162277 -101.75624 -0.38390437 167.22205 -0.38378304 167.24847 -23.876215 -103.34336
14062500000 -23.435507 -100.29061 -0.38483509 166.83839 -0.38279513 166.86264 -23.749441 -106.33672
14090000000 -23.942009 -98.630142 -0.38202003 166.49353 -0.38270101 166.50629 -23.699461 -106.40261
14117500000 -24.11772 -100.58538 -0.38518697 166.11238 -0.3835673 166.14597 -23.741177 -104.60471
14145000000 -23.522285 -100.708 -0.38778928 165.73894 -0.38598558 165.74113 -23.675144 -107.15742
14172500000 -23.722954 -99.50811 -0.38760531 165.35097 -0.38909116 165.38229 -23.565918 -107.57673
14200000000 -24.043781 -100.31696 -0.38618958 165.00275 -0.38857931 165.02518 -23.607376 -105.47974
14227500000 -23.534388 -100.93616 -0.39090636 164.63101 -0.38958099 164.65652 -23.624762 -107.60854
14255000000 -23.574286 -99.409912 -0.3915692 164.26524 -0.38861555 164.28035 -23.494532 -109.10363
14282500000 -23.876638 -101.54042 -0.38868773 163.911 -0.39122644 163.9254 -23.538431 -107.51338
14310000000 -23.530119 -100.66357 -0.39155418 163.52113 -0.39145446 163.55264 -23.559084 -107.94341
14337500000 -23.452211 -100.59904 -0.39316523 163.15485 -0.39342454 163.18279 -23.461622 -110.49902
14365000000 -23.96101 -102.26544 -0.39179158 162.79053 -0.39128733 162.80565 -23.519012 -108.8272
14392500000 -23.507439 -102.80964 -0.3915199 162.42818 -0.39300454 162.44344 -23.540648 -108.76769
14420000000 -23.367464 -100.51937 -0.3950853 162.05171 -0.39203125 162.07457 -23.386103 -110.99815
14447500000 -23.861204 -101.81422 -0.39290339 161.67894 -0.39319667 161.70026 -23.508953 -110.50057
14475000000 -23.524128 -103.80211 -0.39481911 161.30344 -0.39273223 161.33354 -23.505136 -109.96581
14502500000 -23.256941 -100.41872 -0.39454952 160.92261 -0.3957091 160.95724 -23.370199 -112.01325
14530000000 -23.565567 -101.67996 -0.39278492 160.56494 -0.39159271 160.58194 -23.482662 -111.204
14557500000 -23.639463 -103.97452 -0.39235651 160.19948 -0.39475247 160.2229 -23.572487 -110.92097
14585000000 -22.961773 -101.45804 -0.39543092 159.81224 -0.39492512 159.83774 -23.392271 -112.43391
14612500000 -23.295551 -101.75169 -0.39630458 159.43474 -0.39596742 159.46532 -23.351904 -112.42651
14640000000 -23.433489 -103.6864 -0.39815202 159.08054 -0.39562148 159.10965 -23.514442 -111.53067
14667500000 -22.908098 -102.42981 -0.39914486 158.7092 -0.3988364 158.7355 -23.392317 -112.61446
14695000000 -23.077778 -102.15747 -0.39789924 158.33813 -0.40081522 158.34415 -23.243011 -113.00293
14722500000 -23.299276 -104.73069 -0.39857677 157.97362 -0.39563793 157.98936 -23.365171 -112.28251
14750000000 -22.921957 -103.92513 -0.3978737 157.61592 -0.39618832 157.62453 -23.340097 -113.41027
14777500000 -22.967342 -101.89583 -0.39782152 157.22107 -0.39921522 157.26599 -23.135229 -114.59496
14805000000 -23.213387 -106.81937 -0.39515221 156.85831 -0.39595294 156.86475 -23.298906 -114.06713
14832500000 -22.969814 -105.06654 -0.39326864 156.47745 -0.39428702 156.48825 -23.333176 -114.77769
14860000000 -22.8918 -102.86601 -0.39677653 156.11319 -0.39541364 156.11273 -23.104134 -115.83317
14887500000 -23.304937 -106.32573 -0.39594954 155.7012 -0.3962734 155.7245 -23.241032 -115.22857
14915000000 -23.089067 -105.15332 -0.39645717 155.34369 -0.39658281 155.38087 -23.382685 -115.68219
14942500000 -22.949329 -103.44449 -0.40002862 154.96979 -0.39991167 154.98758 -23.11915 -116.38519
14970000000 -23.247295 -105.34962 -0.40245867 154.603 -0.39823118 154.62021 -23.198751 -116.5182
14997500000 -22.966904 -105.89444 -0.4031207 154.21077 -0.40004876 154.2318 -23.39152 -116.686
15025000000 -23.049702 -103.1947 -0.40220505 153.87335 -0.40190861 153.88341 -23.168995 -117.49541
15052500000 -23.018661 -104.95367 -0.40323943 153.48361 -0.40582019 153.52641 -23.141214 -117.61346
15080000000 -22.844631 -107.13079 -0.40624738 153.1024 -0.40433711 153.14664 -23.416397 -117.86453
15107500000 -22.879335 -104.55965 -0.40085295 152.75407 -0.39950696 152.79581 -23.16642 -118.45872
15135000000 -22.889933 -105.17339 -0.40299004 152.43007 -0.40370896 152.4216 -23.00116 -118.33333
15162500000 -22.811174 -108.84164 -0.40292925 152.01624 -0.40325192 152.04179 -23.297918 -119.08286
15190000000 -22.707359 -105.56207 -0.40251291 151.66718 -0.39925951 151.68506 -23.247458 -119.48311
15217500000 -23.011883 -105.91959 -0.40509492 151.29076 -0.40402773 151.29343 -23.067148 -119.43774
15245000000 -22.718699 -109.38058 -0.40254101 150.90125 -0.40472808 150.91132 -23.33041 -119.90041
15272500000 -22.579464 -107.6441 -0.40149459 150.52884 -0.4028537 150.5721 -23.396944 -120.77978
15300000000 -22.986286 -105.37016 -0.40445217 150.17892 -0.40418738 150.2079 -23.047352 -120.41199
15327500000 -22.711685 -109.71967 -0.4033502 149.79591 -0.40491477 149.81711 -23.273191 -120.93691
15355000000 -22.591864 -109.21825 -0.40301135 149.42615 -0.40283638 149.44707 -23.431673 -122.04662
15382500000 -22.981218 -106.44443 -0.40396351 149.06146 -0.40260151 149.09119 -23.128933 -121.65649
15410000000 -22.654448 -111.27636 -0.40412915 148.70107 -0.40219513 148.70634 -23.213997 -121.90308
15437500000 -22.466095 -109.98238 -0.40328148 148.30035 -0.40201083 148.32642 -23.499784 -123.39561
15465000000 -22.819082 -108.44978 -0.40297273 147.94759 -0.40163261 147.96718 -23.198456 -122.62601
15492500000 -22.923906 -110.37388 -0.4039962 147.57726 -0.40275148 147.61165 -23.20783 -122.58616
15520000000 -22.387436 -111.74057 -0.40756133 147.19133 -0.40541235 147.20357 -23.525038 -124.30306
15547500000 -22.76849 -108.2179 -0.40352461 146.83582 -0.40325478 146.87686 -23.328768 -124.34633
15575000000 -23.175146 -110.16508 -0.40760058 146.48174 -0.40707061 146.5022 -23.146227 -123.10949
15602500000 -22.360643 -113.48783 -0.4099054 146.07872 -0.40587616 146.11969 -23.493013 -124.77375
15630000000 -22.727772 -110.20966 -0.40333429 145.759 -0.40297356 145.76964 -23.489759 -125.12808
15657500000 -22.911259 -110.43052 -0.40193245 145.39104 -0.399822 145.4066 -23.130812 -124.04427
15685000000 -22.689054 -113.99226 -0.40171608 145.00998 -0.40030339 145.02448 -23.470961 -125.3175
15712500000 -22.506229 -111.8493 -0.39700341 144.65186 -0.39716965 144.65565 -23.604582 -126.04808
15740000000 -22.995676 -111.43261 -0.39463454 144.27248 -0.39564756 144.29248 -23.233019 -124.94589
15767500000 -22.883158 -113.74329 -0.39506406 143.86549 -0.39839801 143.89551 -23.384315 -126.08568
15795000000 -22.463144 -113.20183 -0.39350417 143.49997 -0.39653659 143.52016 -23.662973 -127.41646
15822500000 -23.248154 -112.7261 -0.39154878 143.14766 -0.39644894 143.13747 -23.340288 -126.29494
15850000000 -22.956625 -113.39555 -0.39613613 142.7653 -0.39227548 142.77258 -23.359741 -126.92356
15877500000 -22.687483 -114.13012 -0.39518058 142.3737 -0.39586675 142.38478 -23.679523 -128.40569
15905000000 -23.1017 -112.06738 -0.39238656 142.00359 -0.39132133 142.01079 -23.446821 -127.38081
15932500000 -23.165043 -114.03404 -0.39555824 141.61319 -0.39391741 141.65173 -23.444613 -127.60608
15960000000 -22.643095 -113.22509 -0.39460224 141.22409 -0.39558601 141.23836 -23.750278 -129.20023
15987500000 -22.973045 -111.83839 -0.39016291 140.85622 -0.39214769 140.87724 -23.60323 -129.07819
16015000000 -23.326708 -114.3506 -0.39690953 140.47162 -0.39302978 140.51137 -23.382017 -128.51691
16042500000 -22.683929 -112.82204 -0.39667499 140.08421 -0.39576182 140.10565 -23.661743 -130.38966
16070000000 -22.875786 -112.30232 -0.3931281 139.75146 -0.39452514 139.75087 -23.696898 -130.08817
16097500000 -23.438227 -114.43623 -0.39838099 139.37216 -0.39610493 139.38692 -23.496464 -129.42227
16125000000 -22.638847 -113.24242 -0.39812395 138.97986 -0.39657855 139.00761 -23.662512 -131.14285
16152500000 -22.886961 -112.29892 -0.39399478 138.61348 -0.39391798 138.65872 -23.802208 -131.19826
16180000000 -23.336246 -114.02559 -0.39665172 138.28368 -0.40044475 138.27704 -23.551273 -130.47237
16207500000 -22.914833 -114.99089 -0.39750662 137.88086 -0.39809245 137.90668 -23.601599 -131.68073
16235000000 -22.75049 -112.02316 -0.39677936 137.5023 -0.3982397 137.51982 -23.797579 -132.74373
16262500000 -23.172817 -114.08146 -0.39495888 137.15263 -0.39365664 137.16692 -23.719072 -131.4606
16290000000 -23.07366 -115.84274 -0.39727232 136.79779 -0.39554065 136.79964 -23.744164 -132.63112
16317500000 -22.569204 -111.21688 -0.39608425 136.40749 -0.39615655 136.40855 -23.894997 -134.34503
16345000000 -23.396725 -113.86082 -0.39446163 136.04489 -0.38983783 136.05333 -23.848515 -132.39407
16372500000 -23.116873 -115.90018 -0.39196864 135.68037 -0.39377031 135.66782 -23.711987 -133.19974
16400000000 -22.759912 -113.26083 -0.3924129 135.26898 -0.39190206 135.30756 -23.935854 -135.06126
16427500000 -23.17812 -113.61526 -0.39316437 134.91528 -0.39181763 134.94127 -24.000744 -134.03183
16455000000 -23.131462 -117.22473 -0.39091513 134.55878 -0.38964838 134.54193 -23.825184 -134.48538
16482500000 -22.849424 -114.25272 -0.3900944 134.16512 -0.3862108 134.19873 -23.971661 -136.92418
16510000000 -23.041285 -113.09728 -0.38487327 133.7845 -0.38548258 133.8027 -24.074783 -135.7912
16537500000 -23.231537 -118.64727 -0.38572136 133.40565 -0.38451862 133.44356 -23.996336 -135.93713
16565000000 -22.92444 -115.27602 -0.38307983 133.04324 -0.3837952 133.04991 -24.047867 -137.99904
16592500000 -22.951746 -114.00501 -0.38072589 132.64696 -0.38282087 132.67557 -24.290648 -136.88608
16620000000 -23.512405 -118.18283 -0.38564667 132.26906 -0.38153896 132.29308 -24.184355 -136.32388
16647500000 -22.920284 -116.62925 -0.38289493 131.91666 -0.38102487 131.88666 -24.161987 -138.43092
16675000000 -23.317312 -114.78198 -0.38103873 131.51514 -0.38161612 131.53143 -24.325262 -137.82985
16702500000 -23.482185 -117.79297 -0.38325176 131.11832 -0.37799424 131.15553 -24.363279 -137.15437
16730000000 -23.097229 -119.20668 -0.38607273 130.76482 -0.38193607 130.76411 -24.292065 -138.74274
16757500000 -23.361162 -113.35049 -0.38184306 130.34802 -0.38094011 130.36343 -24.380873 -139.28384
16785000000 -23.444708 -117.31604 -0.3797788 129.98448 -0.38122863 130.00189 -24.514244 -137.5632
16812500000 -23.432119 -118.74558 -0.38382235 129.62883 -0.38146856 129.64359 -24.450432 -139.95441
16840000000 -23.121387 -114.13113 -0.38175064 129.25992 -0.38273153 129.25992 -24.445637 -141.0527
16867500000 -23.536903 -116.67078 -0.38253647 128.8849 -0.37709093 128.8878 -24.569769 -138.7487
16895000000 -23.262566 -119.17198 -0.38267076 128.52301 -0.38143635 128.51479 -24.512939 -141.17984
16922500000 -22.968163 -116.57327 -0.38524044 128.1304 -0.3763555 128.13657 -24.438454 -142.86925
16950000000 -23.645634 -114.02184 -0.37718692 127.73571 -0.37642694 127.74941 -24.775316 -139.97627
16977500000 -23.345568 -121.34174 -0.37784684 127.36 -0.37502864 127.38045 -24.831354 -141.77274
17005000000 -23.111044 -117.82981 -0.37432122 126.97945 -0.37546411 127.01428 -24.737539 -143.75833
17032500000 -23.649017 -114.19751 -0.37538341 126.58349 -0.37274054 126.6013 -25.01498 -141.74983
17060000000 -23.419106 -122.11477 -0.3798404 126.19212 -0.37065974 126.22771 -25.102957 -141.44341
17087500000 -23.267727 -117.60351 -0.37761527 125.83231 -0.37303981 125.8607 -25.068638 -144.45282
17115000000 -23.683781 -115.24398 -0.37654409 125.4306 -0.37745431 125.46843 -25.268415 -142.86494
17142500000 -23.731129 -121.33914 -0.37231776 125.05523 -0.37580395 125.07641 -25.398415 -141.29672
17170000000 -23.154209 -119.97499 -0.38020882 124.68573 -0.37686819 124.73778 -25.131859 -144.68219
17197500000 -23.785849 -116.45625 -0.37543985 124.30078 -0.37661636 124.37238 -25.186142 -143.50928
17225000000 -23.928072 -121.18481 -0.37458447 123.93819 -0.37170863 123.9681 -25.492586 -140.86465
17252500000 -23.31435 -121.81532 -0.37240604 123.58095 -0.37521687 123.58195 -25.371777 -144.87065
17280000000 -23.683668 -116.1693 -0.37137759 123.17664 -0.37354928 123.18171 -25.208853 -145.17142
17307500000 -24.091753 -119.4431 -0.37256259 122.79964 -0.36995837 122.80633 -25.609917 -142.50148
17335000000 -23.578829 -123.73037 -0.3718372 122.39597 -0.37428367 122.4173 -25.500757 -144.73747
17362500000 -23.599211 -116.70283 -0.37767938 122.0265 -0.37155747 122.03573 -25.338043 -146.46429
17390000000 -24.34543 -120.07063 -0.37250221 121.65138 -0.37172103 121.64481 -25.788622 -142.88168
17417500000 -23.604246 -123.06687 -0.37839019 121.27043 -0.3740966 121.26885 -25.79048 -144.11931
17445000000 -23.611326 -117.45306 -0.37704775 120.92756 -0.37518188 120.89303 -25.473312 -147.19034
17472500000 -24.499641 -118.80452 -0.37568229 120.51712 -0.37124026 120.52236 -25.674715 -144.72632
17500000000 -23.814775 -122.60523 -0.37252083 120.11315 -0.37317637 120.16054 -25.944227 -144.45081
17527500000 -23.770357 -119.0937 -0.3750436 119.7691 -0.3736136 119.7807 -25.730335 -148.63918
17555000000 -24.75452 -118.20659 -0.37403736 119.37778 -0.37574551 119.4063 -25.871449 -147.89203
17582500000 -24.093847 -122.96754 -0.3710629 119.00467 -0.37036374 119.00194 -26.248995 -145.4218
17610000000 -23.76997 -120.10766 -0.37074572 118.60225 -0.37244356 118.61454 -25.925476 -149.20081
17637500000 -24.47851 -116.39255 -0.37112129 118.23422 -0.3718138 118.23028 -26.085928 -148.98665
17665000000 -24.560984 -121.61768 -0.37236261 117.82796 -0.36722502 117.85571 -26.562334 -147.20175
17692500000 -23.746162 -120.37048 -0.36762252 117.44044 -0.36810008 117.44499 -26.44088 -150.04745
17720000000 -24.538742 -115.58208 -0.37220326 117.07845 -0.36874929 117.05403 -26.395786 -151.66293
17747500000 -24.78417 -119.68288 -0.37013736 116.67422 -0.36990368 116.67033 -27.034414 -147.99504
17775000000 -23.88364 -119.93356 -0.37197906 116.26391 -0.37387148 116.29336 -27.033714 -149.832
17802500000 -24.408712 -114.61728 -0.37067357 115.86584 -0.37218633 115.86806 -26.826027 -151.26379
17830000000 -24.779856 -117.00066 -0.37436917 115.47077 -0.37517145 115.50812 -27.364904 -147.5416
17857500000 -24.016352 -118.09967 -0.38067362 115.07549 -0.38189226 115.09715 -27.717993 -149.10326
17885000000 -24.450003 -114.33424 -0.37821111 114.68322 -0.37925872 114.71149 -27.323193 -150.83525
17912500000 -24.786655 -114.33426 -0.38470867 114.32719 -0.38494882 114.33338 -27.723454 -148.28178
17940000000 -24.102728 -116.68973 -0.38918999 113.92499 -0.3888256 113.91819 -28.169228 -145.8992
17967500000 -24.030676 -112.5983 -0.38920158 113.50366 -0.39356199 113.53023 -28.003942 -149.23976
17995000000 -24.923979 -113.18205 -0.39931029 113.14515 -0.39979616 113.14827 -27.94908 -147.06346
18022500000 -24.018387 -115.26999 -0.40430501 112.75642 -0.40514436 112.77344 -28.503199 -142.09717
18050000000 -23.937359 -111.97588 -0.41369352 112.37443 -0.41464463 112.41338 -28.459587 -145.29588
18077500000 -24.576725 -111.96432 -0.42548767 111.99417 -0.42174631 112.04602 -27.944115 -143.94992
18105000000 -24.095795 -113.97584 -0.43141994 111.6768 -0.42808399 111.71476 -28.328539 -138.28751
18132500000 -23.461117 -111.79408 -0.43741071 111.35248 -0.42924854 111.3756 -28.164564 -140.5527
18160000000 -24.159798 -113.09407 -0.43668675 110.98562 -0.43845636 111.02376 -27.664148 -141.54788
18187500000 -23.769838 -112.69407 -0.4398506 110.70487 -0.44003478 110.72169 -27.739906 -137.18359
18215000000 -23.301237 -112.96348 -0.44752336 110.38369 -0.44698477 110.4118 -27.989439 -138.31219
18242500000 -23.850658 -113.91666 -0.44211042 110.03852 -0.43922558 110.07658 -27.292995 -142.23521
18270000000 -23.659111 -114.65151 -0.44531864 109.74036 -0.44231448 109.78876 -27.280817 -140.22954
18297500000 -23.309338 -114.16178 -0.44280434 109.43243 -0.44500059 109.43713 -27.689407 -139.91776
18325000000 -23.554459 -114.40968 -0.44053355 109.07531 -0.43112606 109.07634 -27.255526 -144.01143
18352500000 -23.78688 -118.34378 -0.43786335 108.7743 -0.42893282 108.76942 -27.108694 -144.20108
18380000000 -23.254261 -115.87453 -0.42608213 108.42227 -0.42665839 108.42878 -27.666788 -142.65955
18407500000 -23.3983 -115.61588 -0.41865808 108.06042 -0.41614032 108.08203 -27.459684 -146.04337
18435000000 -24.055925 -120.81482 -0.41233245 107.66819 -0.41737181 107.69275 -27.220118 -147.22992
18462500000 -23.308628 -117.32247 -0.40497643 107.36538 -0.4066405 107.35378 -27.519924 -144.56569
18490000000 -23.721546 -116.75345 -0.40726393 106.96626 -0.39876744 106.9963 -27.79818 -148.76981
18517500000 -24.140982 -121.07491 -0.39571816 106.55225 -0.39789528 106.57738 -27.369076 -151.01456
18545000000 -23.618761 -120.43446 -0.39279458 106.20718 -0.38715166 106.22898 -27.931906 -149.1463
18572500000 -23.925558 -116.33793 -0.38765654 105.81042 -0.3884474 105.84123 -28.186411 -149.62918
18600000000 -24.142168 -121.1627 -0.38518387 105.43513 -0.38098192 105.39751 -27.855068 -153.53917
18627500000 -24.163847 -122.38232 -0.37879151 105.04662 -0.38037947 105.07292 -28.259577 -150.73273
18655000000 -24.099941 -115.81373 -0.37884152 104.65981 -0.37903106 104.6838 -28.755743 -149.21281
18682500000 -24.188437 -123.61185 -0.37381589 104.23365 -0.37403286 104.24273 -28.307201 -153.18729
18710000000 -24.490831 -121.74881 -0.37345478 103.91738 -0.37405205 103.94112 -28.595409 -153.29674
18737500000 -23.954988 -117.43773 -0.37384072 103.47413 -0.36825365 103.52751 -29.170876 -149.67953
18765000000 -24.709761 -119.49278 -0.37009904 103.12424 -0.36407056 103.11637 -29.105148 -153.21745
18792500000 -24.460072 -122.03915 -0.36342487 102.7083 -0.36102024 102.76548 -28.990961 -156.59473
18820000000 -24.599699 -118.28986 -0.36309558 102.33945 -0.36105117 102.35677 -29.771868 -150.79422
18847500000 -24.82806 -117.01629 -0.35860342 101.94687 -0.36144164 101.95396 -29.756889 -153.42189
18875000000 -24.416319 -123.41084 -0.35735279 101.5224 -0.35752454 101.55746 -29.609196 -158.37492
18902500000 -25.024157 -117.01573 -0.35596797 101.18204 -0.35567099 101.20596 -30.267826 -152.9182
18930000000 -24.788216 -116.19572 -0.36028162 100.75253 -0.35891297 100.76836 -30.650398 -151.40144
18957500000 -25.033901 -121.10593 -0.35431281 100.37016 -0.35489029 100.36956 -30.402575 -157.97456
18985000000 -25.090113 -120.07622 -0.35789809 100.00275 -0.35428947 99.991379 -30.823067 -152.97917
19012500000 -25.015411 -114.67962 -0.35634813 99.587578 -0.3577362 99.61068 -31.320868 -148.68192
19040000000 -25.382521 -118.74814 -0.35784695 99.193207 -0.35461894 99.210159 -30.839243 -155.60144
19067500000 -24.940298 -121.18481 -0.35849714 98.818382 -0.35506615 98.847977 -31.101379 -155.26686
19095000000 -25.736897 -113.57756 -0.352359 98.446991 -0.35006541 98.452995 -31.66189 -148.25716
19122500000 -25.367432 -116.12427 -0.35469562 98.051689 -0.34868795 98.082962 -31.705353 -152.10049
19150000000 -25.180508 -120.81747 -0.35386792 97.66806 -0.34963667 97.695107 -31.360565 -155.35501
19177500000 -25.696943 -113.6417 -0.34849468 97.29332 -0.34944057 97.316917 -32.047516 -146.29942
19205000000 -25.542099 -115.27406 -0.35249346 96.881676 -0.35074925 96.89476 -31.945528 -148.80276
19232500000 -25.374073 -119.06109 -0.34936175 96.484253 -0.35178858 96.524399 -32.011036 -156.61601
19260000000 -25.809725 -115.04166 -0.34636882 96.117218 -0.34793431 96.151207 -32.6175 -148.16539
19287500000 -25.75079 -112.89884 -0.34762833 95.703987 -0.35109502 95.738953 -32.525627 -146.56732
19315000000 -25.498783 -116.22007 -0.35145456 95.343803 -0.34833339 95.368736 -32.693745 -154.68706
19342500000 -25.82888 -116.31081 -0.34861472 94.948158 -0.35253951 94.972816 -33.006702 -150.22997
19370000000 -25.943876 -110.64394 -0.34946722 94.519943 -0.34758851 94.581375 -33.177303 -143.53061
19397500000 -25.932302 -114.41585 -0.35149947 94.165863 -0.3507877 94.176491 -33.389477 -150.96912
19425000000 -25.526657 -117.49258 -0.35060221 93.776901 -0.35366124 93.811935 -33.57238 -153.0453
19452500000 -25.992033 -109.65824 -0.34715414 93.366379 -0.35246482 93.414917 -33.884575 -140.53169
19480000000 -26.01911 -111.2126 -0.35536477 92.987595 -0.35136613 93.014153 -34.268589 -146.97688
19507500000 -25.567268 -116.76512 -0.35488915 92.607132 -0.35317853 92.641449 -34.205322 -152.77257
19535000000 -26.059122 -109.33826 -0.35097995 92.214798 -0.35194436 92.227722 -34.556969 -137.64211
19562500000 -26.087738 -109.10152 -0.35612109 91.844711 -0.35199854 91.848625 -34.843391 -140.68541
19590000000 -25.668301 -113.6683 -0.35827702 91.445412 -0.35713696 91.468117 -35.250381 -150.88988
19617500000 -26.054466 -111.59454 -0.35644087 91.058075 -0.35599804 91.082603 -35.460739 -136.01785
19645000000 -25.990597 -105.83767 -0.35841647 90.671661 -0.35716704 90.674721 -35.232811 -131.50052
19672500000 -25.907188 -111.15951 -0.36319211 90.283394 -0.36218384 90.313972 -35.959072 -146.8102
19700000000 -25.764727 -111.89062 -0.36651012 89.88678 -0.36060616 89.945854 -36.013195 -136.19861
19727500000 -26.204729 -104.27726 -0.36471355 89.48835 -0.36168554 89.532135 -35.169098 -126.23905
19755000000 -25.830458 -109.80769 -0.36246184 89.154518 -0.36352 89.17601 -36.407787 -137.286
19782500000 -25.606812 -110.69073 -0.36699572 88.750656 -0.36244157 88.771744 -36.997368 -139.9295
19810000000 -26.170805 -104.3528 -0.36578408 88.393539 -0.35871392 88.411774 -35.747559 -119.78101
19837500000 -26.130161 -106.00842 -0.36920807 88.011696 -0.36840579 88.047234 -36.576366 -128.3334
19865000000 -25.697243 -112.10242 -0.36531466 87.617813 -0.36678842 87.641823 -37.731899 -139.14275
19892500000 -25.982801 -105.28061 -0.36583871 87.242874 -0.36147511 87.254326 -36.545013 -117.06837
19920000000 -26.183115 -104.4504 -0.36547574 86.854576 -0.36507085 86.882523 -36.35836 -117.83001
19947500000 -25.561913 -109.88701 -0.37012413 86.464828 -0.36611527 86.478561 -38.784687 -131.71768
19975000000 -25.908182 -105.38075 -0.36810091 86.084198 -0.36806682 86.111366 -37.418358 -115.1291
20002500000 -26.198786 -102.92129 -0.3691937 85.705727 -0.36618596 85.700615 -36.433239 -108.77989
20030000000 -25.843904 -106.34737 -0.36709517 85.29599 -0.36788425 85.321068 -39.823963 -120.43732
20057500000 -25.449268 -106.73926 -0.3740145 84.909431 -0.37055007 84.926003 -38.422848 -110.08766
20085000000 -26.183043 -99.538536 -0.36932334 84.508347 -0.3720597 84.546211 -35.789703 -96.185898
20112500000 -25.630302 -103.60952 -0.37412879 84.127838 -0.37672192 84.159424 -38.918011 -102.29922
20140000000 -25.156235 -104.68365 -0.38159972 83.721611 -0.37603736 83.755966 -38.780243 -97.753853
20167500000 -26.150364 -98.146133 -0.37529477 83.332291 -0.37664768 83.365967 -35.162636 -89.17643
20195000000 -25.671398 -103.07817 -0.38831154 82.967583 -0.3806985 82.98645 -37.254475 -92.006927
20222500000 -24.969923 -102.22292 -0.38845333 82.56456 -0.38971379 82.588776 -38.07299 -89.394745
20250000000 -25.622919 -99.349487 -0.38916761 82.192574 -0.38707948 82.243492 -34.78907 -83.990555
20277500000 -25.784101 -98.328621 -0.39553443 81.808731 -0.3972238 81.864731 -35.152287 -85.285789
20305000000 -24.80756 -101.48602 -0.39949164 81.411324 -0.39964887 81.431847 -37.225578 -84.844292
20332500000 -25.38315 -99.427567 -0.39967015 81.10318 -0.39950866 81.097809 -34.367596 -82.62619
20360000000 -25.668449 -97.645462 -0.40632099 80.696823 -0.40752864 80.744217 -33.573368 -81.248596
20387500000 -24.650785 -102.0245 -0.40747947 80.316704 -0.40939537 80.312859 -36.112656 -79.766731
20415000000 -25.041809 -98.16777 -0.41211441 79.970711 -0.41568539 79.962616 -34.466873 -78.236855
20442500000 -25.661804 -97.291824 -0.4122923 79.582207 -0.41809398 79.591454 -32.409534 -77.925362
20470000000 -24.474955 -101.21739 -0.41933057 79.197601 -0.41967183 79.222618 -34.439831 -78.490746
20497500000 -24.588402 -97.401962 -0.43178475 78.809982 -0.43055663 78.839607 -33.750885 -77.455109
20525000000 -25.506777 -100.96719 -0.42814481 78.443443 -0.42892879 78.475739 -31.588634 -79.639938
20552500000 -24.177521 -99.013763 -0.43782929 78.157425 -0.4381749 78.176765 -33.061657 -78.680252
20580000000 -24.241711 -100.50535 -0.44961435 77.784569 -0.44468972 77.809723 -33.203587 -80.365547
20607500000 -24.912855 -101.57927 -0.44549274 77.46273 -0.44326729 77.502892 -31.094126 -85.112679
20635000000 -24.330559 -101.88618 -0.45721638 77.184158 -0.44908696 77.198029 -31.840342 -83.141861
20662500000 -23.955473 -102.94067 -0.45726469 76.791313 -0.45665991 76.826241 -32.994976 -86.109367
20690000000 -24.66807 -103.04237 -0.45118272 76.540504 -0.45200649 76.540535 -31.179186 -86.112511
20717500000 -24.557806 -105.32043 -0.4552229 76.204857 -0.45650837 76.254723 -31.297953 -87.417023
20745000000 -23.906511 -103.62773 -0.45095098 75.886681 -0.45082805 75.934517 -33.304588 -91.19133
20772500000 -24.42766 -106.70094 -0.44293475 75.61573 -0.43900678 75.623627 -32.186409 -89.872833
20800000000 -25.289663 -108.13679 -0.43774825 75.298927 -0.43331555 75.310181 -31.83246 -92.460411
20827500000 -23.865627 -105.95979 -0.42381465 74.939346 -0.42071894 74.966644 -34.272991 -90.331551
20855000000 -25.211601 -106.58437 -0.40852249 74.602097 -0.40755624 74.607964 -33.946579 -88.325775
20882500000 -25.661327 -109.7231 -0.39814323 74.203506 -0.39599037 74.240616 -32.798855 -88.321297
20910000000 -24.806431 -106.58086 -0.38834378 73.809967 -0.38591683 73.820946 -34.861202 -86.497391
20937500000 -25.220097 -102.49395 -0.37781492 73.381783 -0.3777093 73.40863 -34.962944 -76.672142
20965000000 -26.281301 -108.55055 -0.37208593 72.972618 -0.36630648 72.963669 -33.297962 -78.250443
20992500000 -25.360794 -102.92662 -0.36549121 72.544724 -0.36691573 72.591759 -34.514961 -73.981476
21020000000 -25.281706 -99.191841 -0.37077138 72.148476 -0.36306068 72.128471 -35.059597 -65.420944
21047500000 -26.608242 -106.27905 -0.35652769 71.669395 -0.35463214 71.724495 -32.988907 -68.382317
21075000000 -25.578032 -100.60044 -0.36057299 71.309441 -0.35931197 71.328171 -33.010986 -67.9048
21102500000 -25.043468 -96.034889 -0.36136034 70.850693 -0.36371872 70.891174 -33.755062 -56.602764
21130000000 -26.310442 -99.512398 -0.36073866 70.450401 -0.35854381 70.465858 -32.188953 -59.601612
21157500000 -25.625116 -100.78193 -0.36710417 70.040573 -0.36569089 70.051483 -32.177765 -64.167358
21185000000 -24.783705 -93.380722 -0.36660364 69.638367 -0.3675907 69.671158 -32.451923 -56.409092
21212500000 -25.681787 -96.328232 -0.36845765 69.252884 -0.36995977 69.279335 -31.369556 -56.145298
21240000000 -25.933754 -99.885773 -0.37184173 68.821175 -0.36891499 68.850487 -30.852852 -62.241692
21267500000 -24.649166 -90.325569 -0.37286803 68.444145 -0.3715851 68.468582 -31.352057 -58.274998
21295000000 -25.133947 -95.200142 -0.3771539 68.059021 -0.37599531 68.077431 -30.598969 -53.918232
21322500000 -25.929979 -96.09108 -0.38033143 67.653595 -0.3841812 67.667938 -29.645523 -60.346199
21350000000 -24.524282 -92.983177 -0.38323081 67.283936 -0.38222721 67.285057 -30.278782 -60.429989
21377500000 -24.427599 -89.546623 -0.39374053 66.880463 -0.39178309 66.907585 -29.852333 -55.111755
21405000000 -25.517578 -96.687569 -0.39538017 66.452019 -0.39130744 66.508537 -28.93119 -60.412861
21432500000 -24.581148 -94.930901 -0.39919651 66.094543 -0.39893627 66.133858 -29.301695 -63.397064
21460000000 -24.014982 -87.460045 -0.40969434 65.696983 -0.40369108 65.759499 -29.467955 -58.738499
21487500000 -25.078028 -99.281082 -0.40977854 65.316933 -0.40961269 65.35022 -28.518534 -59.573128
21515000000 -24.349758 -93.51828 -0.42049593 65.003708 -0.41467908 65.026924 -28.457821 -65.237579
21542500000 -23.819407 -89.755562 -0.42297426 64.617325 -0.42130762 64.656097 -28.845879 -62.218647
21570000000 -24.610859 -95.958603 -0.42479765 64.31411 -0.42237395 64.317612 -28.14669 -61.026115
21597500000 -24.603458 -97.546005 -0.43516794 63.936207 -0.43105286 63.945454 -28.164766 -67.591919
21625000000 -23.773352 -93.354568 -0.43223825 63.585529 -0.42624462 63.607857 -28.754641 -66.420174
21652500000 -24.239235 -92.400238 -0.43057722 63.271545 -0.43255568 63.281456 -28.151119 -62.054897
21680000000 -24.329018 -102.25078 -0.43549815 62.872677 -0.43875447 62.872601 -27.790724 -67.517418
21707500000 -24.028105 -91.242882 -0.43244871 62.553272 -0.4297432 62.565269 -28.380993 -69.621277
21735000000 -23.672808 -91.492622 -0.43718168 62.20435 -0.43798962 62.210701 -28.289219 -63.31168
21762500000 -24.692091 -102.17398 -0.4444299 61.839729 -0.43949255 61.850937 -27.724546 -67.435951
21790000000 -23.690256 -94.083473 -0.44033587 61.485794 -0.43457624 61.523621 -28.173687 -71.823685
21817500000 -23.887856 -91.495972 -0.44123149 61.157883 -0.43895981 61.19138 -28.292757 -66.144295
21845000000 -24.222662 -100.19359 -0.43739411 60.793903 -0.4358241 60.83466 -27.821661 -66.057602
21872500000 -23.931578 -98.348991 -0.43984801 60.475471 -0.44056648 60.48584 -28.005503 -71.77565
21900000000 -23.919952 -92.561661 -0.43537968 60.120869 -0.43302527 60.126492 -28.628738 -67.299706
21927500000 -23.924824 -97.314339 -0.43133304 59.80291 -0.42492071 59.829376 -27.877756 -64.808342
21955000000 -24.410925 -103.80468 -0.43412393 59.455936 -0.43668932 59.474972 -27.91309 -71.731194
21982500000 -24.17148 -91.601715 -0.41988 59.054924 -0.41624317 59.078125 -28.5089 -69.841797
22010000000 -24.071016 -98.270744 -0.41581985 58.735264 -0.41711307 58.774624 -28.1689 -62.748341
22037500000 -24.864309 -101.69866 -0.41749889 58.364712 -0.41547033 58.381432 -27.833601 -67.388817
22065000000 -24.346601 -93.482452 -0.40246972 57.957661 -0.40169391 57.987331 -28.358047 -69.967155
22092500000 -24.720577 -94.750313 -0.40162152 57.625256 -0.39690414 57.637234 -28.455034 -61.440414
22120000000 -24.462143 -100.69135 -0.39967045 57.219425 -0.4006111 57.209965 -27.522154 -65.315704
22147500000 -24.558847 -93.747322 -0.39467424 56.848484 -0.38838851 56.852264 -28.20059 -69.291573
22175000000 -25.084751 -90.441933 -0.38765401 56.459938 -0.38567156 56.478081 -28.162609 -60.995209
22202500000 -24.082035 -98.327087 -0.38757816 56.008057 -0.38605547 56.048286 -27.404472 -60.340481
22230000000 -24.882858 -94.550621 -0.38071686 55.673363 -0.37756896 55.692009 -27.527328 -66.989998
22257500000 -24.601379 -87.184555 -0.37626404 55.217697 -0.37553242 55.223957 -28.004726 -60.525955
22285000000 -24.491383 -96.214653 -0.38105822 54.810982 -0.37736508 54.865696 -27.139715 -57.808632
22312500000 -24.109982 -95.104706 -0.38472393 54.461571 -0.38494399 54.457584 -26.936136 -65.181099
22340000000 -24.423365 -86.26799 -0.38234594 54.035969 -0.37843028 54.018219 -27.375673 -62.494846
22367500000 -24.424175 -92.262985 -0.38215655 53.659786 -0.38091692 53.699326 -26.922491 -57.367455
22395000000 -23.526337 -95.82988 -0.39768478 53.273335 -0.40072748 53.319996 -26.301802 -63.931854
22422500000 -24.481251 -88.157806 -0.38630727 52.89777 -0.38408676 52.943062 -26.955261 -64.9748
22450000000 -24.3969 -90.447914 -0.39032859 52.629391 -0.38998649 52.618141 -26.974443 -59.537632
22477500000 -23.152746 -98.286438 -0.39977345 52.202763 -0.39712027 52.227787 -26.397923 -61.282768
22505000000 -24.434555 -86.213432 -0.37628859 51.864712 -0.37698054 51.876438 -26.820599 -64.970459
22532500000 -24.557854 -89.637985 -0.37285113 51.502029 -0.37119514 51.549271 -27.032198 -58.532269
22560000000 -23.713976 -92.885551 -0.37746167 51.092308 -0.374576 51.131649 -26.112867 -58.554161
22587500000 -24.101406 -88.045624 -0.36700982 50.742027 -0.36480871 50.773056 -26.372362 -65.107788
22615000000 -25.086084 -86.683426 -0.36009711 50.307529 -0.36099377 50.314705 -26.694376 -59.365452
22642500000 -23.786221 -90.810989 -0.36484531 49.908348 -0.35859388 49.948467 -25.757746 -56.490921
22670000000 -23.525015 -89.55645 -0.36798003 49.543179 -0.36360556 49.576962 -25.897173 -61.765667
22697500000 -25.028824 -83.777145 -0.35524255 49.099476 -0.35350204 49.139503 -26.312918 -60.498913
22725000000 -23.722507 -89.21167 -0.35652179 48.717796 -0.35430044 48.776402 -25.463526 -56.4846
22752500000 -22.921806 -89.433945 -0.37019458 48.346947 -0.36930841 48.374592 -25.251949 -61.304581
22780000000 -24.943731 -81.140434 -0.35240081 47.925625 -0.35052308 47.936722 -25.816095 -63.098232
22807500000 -23.879456 -91.029762 -0.35330629 47.56229 -0.35533077 47.575771 -25.269545 -57.143616
22835000000 -22.723402 -89.366821 -0.36710504 47.169304 -0.36726841 47.186306 -24.630819 -58.56604
22862500000 -23.808561 -81.131187 -0.35106918 46.762707 -0.35269308 46.773582 -25.05308 -62.532253
22890000000 -24.505016 -88.879845 -0.35341159 46.389713 -0.3476561 46.433914 -25.047588 -58.234451
22917500000 -22.54969 -87.264145 -0.36489823 45.955154 -0.36163294 45.979946 -24.324427 -58.148106
22945000000 -23.333567 -84.926445 -0.35749727 45.595764 -0.35853341 45.666328 -24.696236 -62.476841
22972500000 -24.591427 -83.755165 -0.35232362 45.209305 -0.35211644 45.225704 -24.927004 -60.454403
23000000000 -22.318272 -89.208145 -0.36466062 44.807652 -0.3625564 44.814663 -24.082514 -58.296909
23027500000 -22.897316 -82.987839 -0.35860232 44.46114 -0.36110041 44.466076 -24.291586 -62.854176
23055000000 -24.334202 -83.760445 -0.3530536 44.026295 -0.35207713 44.083214 -24.607222 -61.941086
23082500000 -22.808634 -90.04493 -0.36148918 43.650745 -0.35929313 43.69215 -23.772991 -58.909958
23110000000 -22.153713 -83.055016 -0.37212712 43.279274 -0.3690232 43.304016 -23.774237 -61.909496
23137500000 -24.232307 -84.085236 -0.35469562 42.856094 -0.35738119 42.889904 -24.250425 -63.987488
23165000000 -23.035067 -89.392456 -0.36099324 42.520599 -0.35511136 42.568729 -23.653988 -59.810513
23192500000 -21.816126 -82.593491 -0.37370276 42.116314 -0.37654436 42.133709 -23.182775 -62.534077
23220000000 -23.948116 -84.578407 -0.35467035 41.682339 -0.35310608 41.732376 -23.85759 -65.448982
23247500000 -23.268152 -89.099274 -0.35243115 41.377132 -0.35322121 41.400635 -23.481377 -61.398205
23275000000 -21.52721 -85.018402 -0.3782244 40.964054 -0.37042463 41.017548 -22.959517 -61.86993
23302500000 -23.303196 -81.219254 -0.35856631 40.522869 -0.36116424 40.586025 -23.525766 -66.255051
23330000000 -23.382404 -91.407265 -0.35368931 40.220917 -0.35966066 40.256256 -23.3986 -62.835991
23357500000 -21.82752 -84.609207 -0.37066114 39.819298 -0.36854246 39.857418 -22.626719 -62.514515
23385000000 -22.329144 -83.48275 -0.36452013 39.450153 -0.37110943 39.431427 -23.133415 -66.803665
23412500000 -23.711132 -89.194595 -0.35723168 39.031429 -0.3652775 39.059059 -23.155411 -64.767029
23440000000 -21.599913 -86.240448 -0.36753547 38.656078 -0.36345807 38.68531 -22.396231 -63.412434
23467500000 -22.126675 -81.987709 -0.36991441 38.269764 -0.372738 38.273174 -22.616163 -67.154556
23495000000 -23.687407 -89.291313 -0.3592023 37.862362 -0.36038932 37.887707 -22.976521 -67.750809
23522500000 -21.792625 -88.776726 -0.36611444 37.526611 -0.36108997 37.533886 -22.28933 -65.168037
23550000000 -21.831526 -81.441765 -0.3748582 37.108547 -0.37768757 37.156467 -22.3228 -67.662369
23577500000 -23.098915 -87.851852 -0.36584154 36.667568 -0.36891639 36.722118 -22.845119 -69.623116
23605000000 -22.275579 -90.084229 -0.37102515 36.38678 -0.36983097 36.386143 -22.223318 -66.356125
23632500000 -21.352348 -82.011536 -0.38068917 35.941319 -0.384563 35.992348 -22.021347 -68.294373
23660000000 -23.156507 -86.969978 -0.3765088 35.566616 -0.37215644 35.595936 -22.514048 -70.658127
23687500000 -22.382042 -90.813835 -0.36979434 35.265343 -0.36651379 35.23695 -22.049517 -68.48349
23715000000 -21.42057 -83.879303 -0.38012463 34.846481 -0.38211668 34.896496 -21.787352 -67.921768
23742500000 -22.502317 -84.540001 -0.37477043 34.414215 -0.3749482 34.488052 -22.327551 -71.781372
23770000000 -22.575621 -90.433517 -0.37233019 34.109341 -0.37151068 34.103924 -22.221424 -70.266907
23797500000 -21.615351 -85.635933 -0.38366202 33.709923 -0.3820186 33.742115 -21.582191 -69.303352
23825000000 -21.980797 -81.486618 -0.38061881 33.311462 -0.38253561 33.314934 -22.016783 -72.96463
23852500000 -22.8757 -92.355087 -0.37905815 32.899853 -0.37974942 32.932049 -22.13974 -71.553993
23880000000 -21.463739 -85.554832 -0.3820022 32.542313 -0.38247061 32.600174 -21.451876 -69.841919
23907500000 -21.769917 -82.222183 -0.38625577 32.188072 -0.38720542 32.199749 -21.711351 -73.357697
23935000000 -22.818525 -90.847572 -0.38316777 31.757645 -0.38982651 31.764351 -22.016033 -73.824684
23962500000 -21.392492 -88.47377 -0.38606566 31.446085 -0.38246408 31.464355 -21.343521 -70.86937
23990000000 -21.427826 -80.58625 -0.39330578 31.036158 -0.39158705 31.067276 -21.400806 -73.189674
24017500000 -22.690899 -89.711037 -0.391442 30.613701 -0.38776976 30.62063 -21.829865 -75.936966
24045000000 -21.489511 -90.389503 -0.38874409 30.276751 -0.38823396 30.32877 -21.258097 -72.139069
24072500000 -21.326626 -80.394157 -0.39918771 29.923565 -0.39554548 29.955915 -21.152319 -74.030586
24100000000 -22.331543 -89.810509 -0.39373204 29.48274 -0.38958836 29.545504 -21.706085 -76.542587
24127500000 -21.54409 -92.49929 -0.3891781 29.168825 -0.39110094 29.215864 -21.276058 -73.758049
24155000000 -21.102894 -81.883575 -0.39853591 28.829231 -0.39553896 28.877518 -20.959528 -74.217079
24182500000 -22.004324 -86.226471 -0.39403558 28.400629 -0.39598557 28.415169 -21.522779 -77.743881
24210000000 -21.902174 -92.314163 -0.39871666 28.048328 -0.39376974 28.080727 -21.288967 -75.953239
24237500000 -20.910635 -84.210274 -0.3947576 27.682241 -0.39908978 27.746115 -20.825659 -74.642281
24265000000 -21.932774 -83.435822 -0.39734665 27.270109 -0.39636415 27.324278 -21.179186 -78.702492
24292500000 -21.643419 -94.119987 -0.39628842 26.878454 -0.39881226 26.916039 -21.282331 -77.990051
24320000000 -20.922903 -85.153595 -0.39433691 26.564091 -0.39397776 26.622787 -20.786064 -74.961685
24347500000 -21.531418 -81.949905 -0.39587751 26.198938 -0.39555314 26.226223 -21.061945 -79.088486
24375000000 -21.712389 -93.391571 -0.39817357 25.780489 -0.39571959 25.788597 -21.286913 -80.096359
24402500000 -20.858192 -86.577057 -0.39515051 25.415377 -0.39915052 25.451508 -20.839928 -76.138145
24430000000 -21.58268 -80.975258 -0.40259951 25.058577 -0.39692399 25.07794 -20.829475 -78.795341
24457500000 -21.517689 -91.542618 -0.40096369 24.641109 -0.39826295 24.653744 -21.12731 -81.353172
24485000000 -20.890989 -89.358009 -0.40068802 24.329262 -0.39365777 24.333084 -20.659739 -77.373024
24512500000 -21.065165 -79.655815 -0.40056795 23.971268 -0.40309826 23.984076 -20.552938 -78.929337
24540000000 -21.603821 -89.036903 -0.4005492 23.502588 -0.39565125 23.533573 -20.896915 -83.137299
24567500000 -20.760372 -90.995407 -0.39592317 23.141968 -0.39524749 23.221327 -20.670137 -79.726967
24595000000 -21.03541 -80.594147 -0.40368909 22.812574 -0.40147614 22.839037 -20.480633 -79.447784
24622500000 -21.378399 -87.155525 -0.39959154 22.39002 -0.40133786 22.420706 -20.72962 -84.114655
24650000000 -20.664661 -92.972275 -0.40191171 22.060839 -0.39936846 22.035702 -20.642532 -81.449394
24677500000 -20.69142 -82.949776 -0.40128309 21.701004 -0.39940053 21.692711 -20.460493 -79.663071
24705000000 -21.384882 -84.718803 -0.39921069 21.285292 -0.40214881 21.306761 -20.533981 -84.645058
24732500000 -20.739662 -92.038513 -0.40357801 20.905191 -0.40251914 20.915945 -20.686159 -83.974846
24760000000 -20.36725 -86.624817 -0.40387061 20.546129 -0.39712653 20.555225 -20.465124 -80.09803
24787500000 -21.472109 -81.846535 -0.40550756 20.177319 -0.40480027 20.200666 -20.443531 -83.732941
24815000000 -20.46427 -93.058167 -0.40224567 19.721346 -0.39951691 19.794834 -20.491756 -85.899902
24842500000 -20.304831 -88.403496 -0.40248364 19.418692 -0.39823231 19.432198 -20.383354 -81.627167
24870000000 -21.085257 -81.658768 -0.39969513 19.056114 -0.40681475 19.048672 -20.342899 -84.309532
24897500000 -20.680906 -90.760323 -0.39970762 18.631159 -0.40049586 18.61417 -20.44619 -87.593704
24925000000 -20.142607 -90.231689 -0.40232632 18.291597 -0.40228143 18.311264 -20.274557 -83.68029
24952500000 -21.111286 -83.115349 -0.3968063 17.918251 -0.40516257 17.9079 -20.187586 -83.818657
24980000000 -20.735645 -90.658485 -0.40698421 17.481752 -0.39898822 17.525803 -20.35181 -87.808884
25007500000 -20.061287 -91.133087 -0.40812579 17.154533 -0.40957457 17.186661 -20.210608 -85.173302
25035000000 -20.776577 -85.493256 -0.40819573 16.77379 -0.40404192 16.761885 -20.142017 -84.54425
25062500000 -21.244242 -86.305756 -0.4055084 16.380287 -0.40288353 16.391581 -20.270863 -88.718956
25090000000 -19.682188 -93.866508 -0.40772825 15.947131 -0.4084039 15.965222 -20.230301 -87.216576
25117500000 -20.632238 -86.322044 -0.40794662 15.645149 -0.40270177 15.681778 -20.190392 -85.197968
25145000000 -21.073582 -87.266579 -0.40520036 15.202211 -0.40343314 15.294162 -20.139509 -88.579094
25172500000 -20.015306 -93.338791 -0.40850145 14.878241 -0.40707999 14.85489 -20.09564 -88.574081
25200000000 -20.299938 -88.307144 -0.41323087 14.518421 -0.41343072 14.487549 -20.166027 -85.986504
25227500000 -21.128777 -89.135605 -0.41213492 14.051023 -0.40679201 14.116157 -20.02284 -88.800835
25255000000 -20.264872 -91.152588 -0.40644151 13.70441 -0.40749311 13.762287 -19.964218 -91.486031
25282500000 -19.912539 -91.205727 -0.4157885 13.387898 -0.40815052 13.378609 -20.046284 -87.486465
25310000000 -21.083237 -88.430992 -0.41406965 12.964003 -0.41000301 13.031051 -20.026854 -89.048828
25337500000 -20.440205 -90.987541 -0.40925428 12.553787 -0.40737653 12.603976 -19.862465 -92.581696
25365000000 -19.701029 -92.009407 -0.41273353 12.206588 -0.41213235 12.278851 -20.067041 -88.653099
25392500000 -20.875919 -88.102448 -0.41844058 11.85417 -0.41172934 11.872048 -20.039137 -88.837852
25420000000 -20.594309 -92.025597 -0.41700077 11.401487 -0.4088009 11.447989 -19.819681 -93.540459
25447500000 -19.772747 -90.89537 -0.41520885 11.066797 -0.417247 11.077062 -19.871765 -90.424713
25475000000 -20.481976 -89.98526 -0.41277507 10.694613 -0.4137741 10.736548 -19.968737 -89.252113
25502500000 -20.917728 -90.943314 -0.41442877 10.302075 -0.41394123 10.298895 -19.81917 -93.652451
25530000000 -19.496292 -91.33564 -0.41917405 9.9164619 -0.4170022 9.9547291 -19.849577 -91.879356
25557500000 -20.171549 -90.168953 -0.42370564 9.5618038 -0.41769755 9.6077032 -19.953178 -89.525925
25585000000 -20.930031 -91.746582 -0.4272936 9.1870108 -0.422243 9.2224245 -19.748133 -94.320656
25612500000 -19.663948 -90.319061 -0.41668195 8.8045225 -0.42088607 8.8115396 -19.745811 -94.061859
25640000000 -20.106167 -91.427185 -0.42659473 8.5027885 -0.42492726 8.4935608 -19.896782 -90.9048
25667500000 -20.744396 -92.55027 -0.42837852 8.0892344 -0.42622378 8.1444254 -19.737514 -93.479881
25695000000 -20.036987 -93.004333 -0.41384983 7.7054415 -0.41552785 7.7519464 -19.562611 -95.21106
25722500000 -19.695852 -90.064484 -0.41564751 7.3498712 -0.41968581 7.3656282 -19.803423 -91.631233
25750000000 -20.669306 -94.928795 -0.42060915 6.964252 -0.42471802 6.9553404 -19.741438 -93.610489
25777500000 -20.068722 -91.904221 -0.41354546 6.5765243 -0.41292965 6.5953774 -19.586281 -96.631645
25805000000 -19.631342 -92.306274 -0.42506486 6.2153516 -0.41881514 6.2738471 -19.762497 -94.165817
25832500000 -20.407896 -92.614571 -0.42216396 5.8533688 -0.42272887 5.8803477 -19.778994 -93.990334
25860000000 -20.424784 -96.048706 -0.42114732 5.4645152 -0.42681691 5.4792323 -19.505894 -97.802361
25887500000 -19.5385 -90.457161 -0.41633889 5.0559878 -0.41749263 5.1000872 -19.617933 -96.143921
25915000000 -20.128654 -92.802826 -0.42659873 4.685533 -0.42493698 4.7663684 -19.802599 -94.608925
25942500000 -20.395884 -96.851479 -0.42830452 4.3146143 -0.42598078 4.2952738 -19.463097 -98.371162
25970000000 -19.762039 -90.75441 -0.41608593 3.9920237 -0.41531593 3.9492025 -19.561871 -97.988327
25997500000 -19.853642 -93.611366 -0.42628345 3.6214747 -0.42558303 3.650296 -19.792723 -94.663879
26025000000 -20.651102 -95.37191 -0.42716476 3.172961 -0.42686832 3.1628363 -19.376564 -97.923676
26052500000 -19.880983 -93.478279 -0.42319682 2.8019392 -0.41738263 2.8594427 -19.508064 -99.542618
26080000000 -19.727676 -91.937134 -0.42087352 2.4359307 -0.43125927 2.4889176 -19.765232 -95.680397
26107500000 -20.44175 -94.995583 -0.4295086 2.0763574 -0.42865622 2.0776796 -19.463448 -98.613205
26135000000 -20.22735 -95.110909 -0.42347649 1.6723652 -0.41980186 1.697086 -19.393133 -100.55292
26162500000 -19.639952 -90.958847 -0.42361003 1.3036921 -0.42351899 1.3308189 -19.753784 -97.942261
26190000000 -20.253685 -96.182571 -0.43205783 0.9241091 -0.43022677 0.97611815 -19.503939 -97.703796
26217500000 -20.209648 -95.45871 -0.42644164 0.55257577 -0.43041515 0.61474758 -19.272991 -101.25502
26245000000 -19.629965 -91.230934 -0.42867851 0.20004568 -0.42603189 0.18575051 -19.581547 -99.491676
26272500000 -20.183092 -95.441086 -0.43178418 -0.19639075 -0.43523717 -0.16301614 -19.470779 -98.297882
26300000000 -20.096476 -93.782448 -0.4308196 -0.60543412 -0.4315463 -0.5819124 -19.25651 -101.56306
26327500000 -20.064325 -93.881653 -0.4297635 -0.92561817 -0.42996013 -0.9352591 -19.516239 -101.10825
26355000000 -19.603403 -93.15287 -0.43735433 -1.3242093 -0.42409065 -1.3227444 -19.542128 -98.743576
26382500000 -20.385988 -97.436501 -0.44163468 -1.6699545 -0.43240181 -1.6400774 -19.286724 -101.30735
26410000000 -19.761299 -92.894211 -0.4239859 -2.0704548 -0.42965776 -2.0618708 -19.379604 -102.89156
26437500000 -19.850649 -93.404907 -0.42816854 -2.4441762 -0.42817196 -2.426065 -19.545153 -100.04865
26465000000 -20.17626 -96.457466 -0.4374657 -2.8275514 -0.43747082 -2.8107855 -19.253664 -101.78232
26492500000 -19.954655 -95.630486 -0.43438885 -3.2022882 -0.4314571 -3.205615 -19.337999 -104.16236
26520000000 -19.581787 -92.340866 -0.42389029 -3.5183024 -0.44789037 -3.5263348 -19.628988 -102.48445
26547500000 -19.900818 -96.87516 -0.44159916 -4.0170341 -0.43614492 -3.9396741 -19.275337 -102.19678
26575000000 -19.847553 -96.903191 -0.43651041 -4.3055515 -0.4367317 -4.3434768 -19.304007 -104.75429
26602500000 -19.862473 -92.048668 -0.43359759 -4.7984633 -0.43713531 -4.7026091 -19.589701 -103.80718
26630000000 -19.761578 -94.633919 -0.43405098 -5.1103439 -0.45653912 -5.0825467 -19.288349 -102.66734
26657500000 -19.942177 -97.865059 -0.43808872 -5.5225468 -0.44814897 -5.3026471 -19.42342 -104.61529
26685000000 -19.540621 -91.95079 -0.43461916 -5.7899175 -0.44439721 -5.7815609 -19.820797 -103.73609
26712500000 -19.948952 -95.166153 -0.45597929 -6.2124791 -0.45180771 -6.1796021 -19.376749 -103.06439
26740000000 -19.583508 -96.275124 -0.46073139 -6.5607991 -0.45645314 -6.6232543 -19.168665 -106.67635
26767500000 -20.041088 -93.952187 -0.43402436 -7.1044025 -0.44648525 -6.9199243 -19.342243 -105.67715
26795000000 -19.947512 -94.367546 -0.45303613 -7.3415375 -0.45747149 -7.2326999 -19.225723 -104.11029
26822500000 -19.929434 -95.866882 -0.45085219 -7.7599487 -0.4577128 -7.6926498 -19.355333 -104.80228
26850000000 -19.26446 -95.778114 -0.45162189 -8.0088558 -0.45960209 -8.0854301 -19.554111 -107.02681
26877500000 -19.816294 -93.552994 -0.45384589 -8.3864775 -0.45339787 -8.4012051 -19.277565 -104.95271
26905000000 -19.592049 -96.884079 -0.45169455 -8.7818394 -0.44747198 -8.8105011 -18.974264 -106.1357
26932500000 -19.358049 -96.516098 -0.43513444 -9.0471106 -0.4417046 -9.1404896 -19.35932 -108.05873
26960000000 -20.13946 -93.596642 -0.44670588 -9.493124 -0.44243169 -9.4468555 -19.223049 -106.66065
26987500000 -19.309847 -98.598663 -0.46582925 -9.8644171 -0.45498461 -9.8900614 -18.938795 -106.90753
27015000000 -19.588842 -97.194069 -0.45043004 -10.229866 -0.42965403 -10.170195 -19.073921 -108.50845
27042500000 -19.504452 -93.163345 -0.45160061 -10.538681 -0.45400622 -10.606006 -19.3263 -109.51539
27070000000 -19.614693 -99.500267 -0.45144007 -10.865737 -0.43517166 -10.86467 -18.805248 -108.22708
27097500000 -19.332384 -96.402199 -0.457248 -11.42877 -0.43726012 -11.286081 -18.987843 -108.78689
27125000000 -19.671286 -96.051941 -0.44929567 -11.720652 -0.43453217 -11.655762 -19.153732 -111.40514
27152500000 -19.659998 -99.958458 -0.42303759 -12.074845 -0.45370105 -11.963032 -18.864054 -108.49516
27180000000 -19.112425 -96.203842 -0.44950667 -12.486639 -0.44814351 -12.397466 -18.861305 -110.61208
27207500000 -19.778877 -99.611343 -0.4448007 -12.810836 -0.42411491 -12.725735 -19.229893 -112.43254
27235000000 -19.204052 -96.126312 -0.43187541 -13.1809 -0.43102744 -13.132513 -19.092926 -109.91236
27262500000 -19.020332 -100.19236 -0.44388855 -13.543201 -0.44371709 -13.437543 -18.947655 -111.56974
27290000000 -19.726568 -98.284683 -0.42436266 -13.92305 -0.42680833 -13.86496 -19.26088 -113.35075
27317500000 -19.011984 -98.287201 -0.44614732 -14.27651 -0.4433679 -14.345025 -19.050217 -112.5357
27345000000 -19.440657 -100.42361 -0.42975122 -14.661271 -0.44448122 -14.613047 -18.748369 -111.1464
27372500000 -19.477072 -98.231491 -0.43302211 -15.038272 -0.43189028 -15.009545 -19.015629 -114.39248
27400000000 -19.296553 -101.68214 -0.42636454 -15.402945 -0.43169841 -15.404978 -19.317268 -113.48315
27427500000 -19.011478 -97.986328 -0.43972227 -15.816575 -0.4323023 -15.759895 -18.878063 -113.39981
27455000000 -18.96089 -99.623878 -0.44856369 -16.079891 -0.43674058 -16.102722 -19.092018 -115.1549
27482500000 -19.835875 -101.13528 -0.44768119 -16.580425 -0.4239682 -16.49847 -19.297264 -115.51997
27510000000 -18.830984 -99.23349 -0.42733243 -16.78948 -0.42741841 -16.903091 -18.977484 -114.29795
27537500000 -19.343464 -102.48596 -0.42466265 -17.296268 -0.42276996 -17.270988 -18.977106 -116.97217
27565000000 -19.442408 -99.117958 -0.43114462 -17.68664 -0.42476085 -17.718393 -19.366238 -117.63766
27592500000 -18.925667 -101.76429 -0.42691574 -18.050482 -0.40816104 -18.091425 -19.092548 -115.40479
27620000000 -19.220272 -98.931366 -0.40324682 -18.305525 -0.42074203 -18.407011 -19.16745 -118.13365
27647500000 -19.157557 -101.98898 -0.42632887 -18.902506 -0.43263316 -18.76219 -19.340601 -119.2001
27675000000 -19.622282 -101.43093 -0.42147762 -19.234396 -0.41743678 -19.118532 -19.253632 -116.86309
27702500000 -18.827923 -97.664116 -0.40646908 -19.629234 -0.42725018 -19.518126 -18.791618 -118.92594
27730000000 -19.49375 -103.4557 -0.43076015 -20.100012 -0.41599789 -19.941217 -19.430929 -119.72755
27757500000 -19.541796 -99.958588 -0.42172721 -20.325285 -0.43514875 -20.360498 -19.430262 -118.38297
27785000000 -18.806868 -100.77884 -0.42740497 -20.801168 -0.41708171 -20.690992 -19.18004 -119.42983
27812500000 -19.738705 -102.41798 -0.42290235 -21.201862 -0.40532851 -21.148634 -19.565735 -119.53832
27840000000 -19.010508 -103.03957 -0.40962237 -21.483437 -0.43187341 -21.431522 -19.510099 -120.30569
27867500000 -19.154234 -101.3806 -0.39907873 -21.833647 -0.40920338 -21.976452 -19.195662 -118.86487
27895000000 -19.147991 -99.879662 -0.4248105 -22.368437 -0.41293195 -22.32835 -19.063452 -122.12045
27922500000 -19.718405 -103.67284 -0.41695946 -22.589104 -0.43518424 -22.621565 -19.517843 -122.22852
27950000000 -19.237349 -99.729645 -0.4037942 -22.960995 -0.40686762 -22.985624 -19.531372 -120.83091
27977500000 -18.987949 -99.246361 -0.4111596 -23.36133 -0.4125132 -23.420301 -19.33391 -122.11254
28005000000 -19.838333 -106.37997 -0.4245927 -23.930681 -0.40706521 -23.92898 -19.595016 -122.63475
28032500000 -19.333628 -100.29952 -0.40290824 -24.25416 -0.41689423 -24.149956 -19.521177 -120.84396
28060000000 -19.113605 -103.53464 -0.41999489 -24.631872 -0.4056724 -24.44442 -19.497185 -123.30955
28087500000 -20.20273 -101.60264 -0.42330098 -24.983938 -0.4061189 -25.049917 -19.810608 -123.89194
28115000000 -19.107035 -106.87695 -0.4174 -25.333853 -0.41939014 -25.304726 -19.771645 -120.42775
28142500000 -19.254744 -98.230034 -0.41911647 -25.745003 -0.40093556 -25.778692 -19.544214 -122.67476
28170000000 -19.571756 -103.84264 -0.41871393 -26.060793 -0.40690887 -26.044065 -19.902008 -125.41223
28197500000 -19.543694 -106.22825 -0.42313233 -26.492678 -0.42325017 -26.437563 -19.853584 -123.94241
28225000000 -19.437626 -97.845245 -0.41130018 -26.855516 -0.40543422 -26.819141 -19.71067 -122.67061
28252500000 -19.931587 -105.56773 -0.39802748 -27.244774 -0.41751429 -27.156761 -19.880362 -124.51691
28280000000 -19.437975 -105.88354 -0.41644034 -27.651718 -0.40968835 -27.685364 -19.950697 -124.80405
28307500000 -19.473715 -99.134758 -0.41282234 -27.918661 -0.38618419 -28.009722 -20.007858 -121.55779
28335000000 -19.563444 -104.17885 -0.43628746 -28.330853 -0.42580801 -28.392206 -19.520679 -125.85246
28362500000 -19.746908 -104.5496 -0.41510659 -28.780634 -0.41229117 -28.881466 -20.158411 -126.19801
28390000000 -19.612995 -101.25702 -0.3949084 -29.280663 -0.42401302 -29.164972 -19.792543 -124.13372
28417500000 -19.904531 -99.702873 -0.4025555 -29.61006 -0.40789232 -29.601381 -19.527246 -125.47482
28445000000 -19.752024 -109.3155 -0.43498251 -29.928377 -0.41825503 -30.024178 -20.102081 -127.90881
28472500000 -19.330839 -104.80824 -0.41815183 -30.402596 -0.42944086 -30.386852 -20.589149 -126.27119
28500000000 -19.847477 -100.52142 -0.41958204 -30.640366 -0.41805637 -30.674978 -20.04059 -125.29533
28527500000 -19.193043 -105.27734 -0.40115702 -31.113791 -0.43766037 -31.123447 -20.111267 -126.44579
28555000000 -19.693811 -103.93123 -0.4317719 -31.581259 -0.43701479 -31.537884 -20.594278 -126.9287
28582500000 -19.789513 -102.24639 -0.42132786 -31.768898 -0.41888213 -31.845755 -20.068316 -126.07375
28610000000 -19.817368 -103.90317 -0.4244206 -32.161724 -0.42667726 -32.302612 -20.099834 -127.27647
28637500000 -19.397816 -107.84455 -0.44183844 -32.648056 -0.44547209 -32.583492 -20.504622 -128.38733
28665000000 -19.600981 -97.760971 -0.43183336 -33.101635 -0.43012875 -32.948551 -20.39683 -128.29095
28692500000 -20.227482 -103.26754 -0.41993845 -33.347252 -0.43676317 -33.406338 -19.955742 -129.03952
28720000000 -19.38159 -105.11208 -0.43191344 -33.896988 -0.43360618 -33.793293 -20.336355 -129.40558
28747500000 -19.861685 -102.87486 -0.43591139 -34.195328 -0.42890367 -34.240829 -20.635969 -128.11703
28775000000 -19.710865 -101.39904 -0.42226267 -34.560978 -0.44801521 -34.530869 -19.933935 -129.20842
28802500000 -19.655355 -107.24986 -0.4289408 -35.061733 -0.44262058 -34.87199 -20.168734 -130.33751
28830000000 -19.578226 -101.08746 -0.4425022 -35.149113 -0.43061522 -35.208244 -20.834301 -130.28888
28857500000 -20.213068 -100.08894 -0.44186193 -35.636253 -0.43047544 -35.63633 -20.149313 -129.62041
28885000000 -19.431959 -102.49603 -0.43576199 -36.028328 -0.42863709 -36.121471 -20.376675 -131.21872
28912500000 -19.441381 -106.32228 -0.43453503 -36.362736 -0.44683182 -36.46553 -20.955976 -130.95808
28940000000 -19.909498 -97.684052 -0.45092338 -36.756275 -0.45672116 -36.877586 -20.664186 -130.50252
28967500000 -19.583288 -104.33174 -0.45052022 -37.065388 -0.42570266 -37.159534 -20.543371 -133.02817
28995000000 -19.659845 -102.2481 -0.43633783 -37.501572 -0.44902554 -37.534439 -20.813938 -131.96727
29022500000 -19.70252 -100.64796 -0.45152393 -37.972664 -0.43892431 -37.997765 -20.83572 -132.66609
29050000000 -19.997192 -102.58044 -0.45391917 -38.332016 -0.4620412 -38.293579 -20.335896 -133.64426
29077500000 -19.54693 -103.80853 -0.48748115 -38.744808 -0.45131627 -38.683369 -20.631487 -131.19853
29105000000 -19.248693 -100.81819 -0.43431187 -39.132057 -0.45169425 -38.974251 -20.840166 -132.49295
29132500000 -20.555603 -98.019974 -0.46817356 -39.386444 -0.4635087 -39.39661 -20.659739 -134.65521
29160000000 -19.087875 -107.04624 -0.46950179 -39.878529 -0.47760251 -39.751274 -21.215036 -133.34132
29187500000 -20.021542 -102.64487 -0.44909155 -40.117706 -0.45742545 -40.166611 -21.34322 -130.9453
29215000000 -19.902765 -98.527733 -0.4639442 -40.585655 -0.46155953 -40.552452 -20.850639 -134.91461
29242500000 -19.584568 -103.89984 -0.45425138 -40.830059 -0.49001595 -40.992977 -20.671228 -133.92702
29270000000 -19.440918 -102.76716 -0.44671795 -41.179211 -0.46919465 -41.271553 -21.346169 -131.17021
29297500000 -19.61372 -99.44883 -0.46238557 -41.58868 -0.46041304 -41.659782 -21.011909 -133.88393
29325000000 -19.961506 -104.70428 -0.47341907 -42.033394 -0.47523087 -42.001244 -20.387465 -134.04822
29352500000 -18.874737 -101.12685 -0.46270058 -42.404991 -0.48791847 -42.326893 -21.250538 -132.45494
29380000000 -20.368633 -105.03285 -0.46243712 -42.773232 -0.46362734 -42.689232 -21.112013 -135.38608
29407500000 -19.953651 -100.00962 -0.50117111 -43.048428 -0.46389291 -43.043522 -20.679476 -134.60535
29435000000 -18.89016 -108.3686 -0.48632634 -43.528221 -0.47142971 -43.447079 -21.082232 -134.85042
29462500000 -19.826342 -102.6069 -0.46863636 -43.803295 -0.48064074 -43.791416 -21.308643 -134.7283
29490000000 -19.813732 -102.84247 -0.48473245 -44.172428 -0.46786797 -44.178085 -20.654234 -135.27478
29517500000 -19.61134 -109.49213 -0.46599641 -44.492275 -0.46837252 -44.595974 -21.132212 -135.89716
29545000000 -19.114416 -99.833984 -0.47241893 -44.8311 -0.46192893 -44.947624 -21.388668 -135.96782
29572500000 -20.093475 -102.86137 -0.47625938 -45.340931 -0.47464177 -45.318275 -21.177799 -136.19353
29600000000 -19.547203 -107.41032 -0.47791198 -45.747158 -0.47187552 -45.646206 -21.167984 -136.36336
29627500000 -18.573336 -102.95615 -0.48074195 -46.141598 -0.48466009 -46.033367 -21.315035 -135.99738
29655000000 -20.729792 -104.25895 -0.48155889 -46.490597 -0.46349773 -46.361374 -21.281206 -134.56749
29682500000 -19.091686 -102.73312 -0.4725745 -46.830952 -0.48604086 -46.860237 -20.959761 -136.24744
29710000000 -19.196188 -105.64529 -0.44673342 -47.103672 -0.44595855 -47.056877 -21.536478 -135.1554
29737500000 -20.09655 -101.25304 -0.49671066 -47.524799 -0.47527736 -47.47826 -21.395496 -136.05733
29765000000 -19.202019 -105.77483 -0.49434856 -47.821976 -0.47757217 -47.933914 -21.119076 -138.19089
29792500000 -19.137398 -104.86442 -0.48732272 -48.14748 -0.4767603 -48.165138 -21.14291 -138.79633
29820000000 -19.094994 -100.73897 -0.47593644 -48.655312 -0.46644455 -48.510445 -21.15757 -136.33542
29847500000 -20.327946 -106.40134 -0.46547109 -49.044304 -0.48079082 -48.820942 -21.205301 -140.86786
29875000000 -18.943674 -104.21442 -0.47741151 -49.261856 -0.46082637 -49.267719 -21.272917 -139.39781
29902500000 -19.017557 -106.67137 -0.47426438 -49.525642 -0.47642404 -49.545837 -21.498009 -136.9718
29930000000 -20.346762 -102.88964 -0.49038225 -49.921719 -0.46951854 -50.073345 -21.081709 -140.2355
29957500000 -18.518824 -108.11651 -0.4620035 -50.363323 -0.44429055 -50.476147 -21.418043 -141.11395
29985000000 -19.41556 -105.82731 -0.44680142 -50.665661 -0.45467675 -50.698277 -21.827423 -139.70079
30012500000 -19.78476 -102.29481 -0.47930101 -51.097832 -0.46555811 -50.993526 -21.580929 -140.32452
30040000000 -19.774614 -109.4517 -0.46119425 -51.47488 -0.44770214 -51.525818 -21.786169 -140.87326
30067500000 -19.150805 -105.92172 -0.43573454 -51.816029 -0.44292128 -51.804806 -22.104521 -139.21472
30095000000 -19.702156 -104.28845 -0.46766356 -52.238289 -0.45969185 -52.17421 -21.380556 -143.2971
30122500000 -20.054901 -109.33624 -0.46465686 -52.594448 -0.44068652 -52.562626 -21.532213 -144.32092
30150000000 -18.678978 -107.0984 -0.43055919 -53.102146 -0.4227283 -52.880699 -21.663153 -145.59169
30177500000 -19.704729 -109.18868 -0.44797274 -53.369106 -0.44309154 -53.387981 -21.596178 -143.12529
30205000000 -20.494368 -105.17515 -0.4535858 -53.621101 -0.42749268 -53.534775 -21.931751 -145.30937
30232500000 -18.660969 -112.08485 -0.42072979 -54.145046 -0.41991848 -54.068378 -22.021379 -147.25256
30260000000 -20.317022 -102.97985 -0.42781803 -54.35355 -0.43674943 -54.452904 -22.124332 -142.76991
30287500000 -19.852085 -107.0064 -0.4121238 -54.929661 -0.42015088 -54.863209 -22.014374 -145.07339
30315000000 -19.669992 -111.54839 -0.43664467 -55.241058 -0.41359955 -55.275875 -22.230703 -147.95966
30342500000 -19.462931 -102.16946 -0.42069441 -55.603104 -0.42496866 -55.639774 -22.374451 -143.53073
30370000000 -20.598515 -109.74156 -0.44173583 -56.071358 -0.43247959 -56.017017 -22.237343 -147.99806
30397500000 -19.460869 -110.69341 -0.41825759 -56.412777 -0.40616581 -56.556458 -22.604141 -148.53998
30425000000 -19.492361 -104.44262 -0.42164764 -56.935928 -0.40352347 -56.760635 -22.970453 -144.28954
30452500000 -21.095678 -111.31795 -0.42481166 -57.295162 -0.41200227 -57.265011 -22.714312 -146.16374
30480000000 -19.512106 -106.43328 -0.4099845 -57.57515 -0.43125471 -57.664165 -22.728949 -151.38338
30507500000 -19.955025 -109.19462 -0.41892204 -57.898727 -0.41592041 -57.852528 -23.122911 -147.75345
30535000000 -20.901731 -103.63343 -0.42274341 -58.365669 -0.43827999 -58.432816 -23.328392 -146.12259
30562500000 -20.367279 -109.25626 -0.39172527 -58.907917 -0.44479755 -58.712627 -22.787855 -154.17545
30590000000 -20.175156 -110.81923 -0.4118816 -59.288788 -0.42097306 -59.291534 -23.471252 -149.41183
30617500000 -19.700489 -104.26624 -0.42327672 -59.622772 -0.40524498 -59.548267 -23.430075 -145.33908
30645000000 -21.470444 -110.31131 -0.43855745 -60.011669 -0.44139713 -60.125549 -23.338379 -150.97522
30672500000 -19.167244 -105.75394 -0.42041951 -60.435059 -0.42169756 -60.505661 -23.512239 -147.39354
30700000000 -20.8304 -109.39495 -0.41069263 -60.654869 -0.40747347 -60.810581 -24.111301 -143.59814
30727500000 -20.82547 -106.52924 -0.43382728 -61.304241 -0.41724443 -61.205845 -22.922928 -150.438
30755000000 -19.547888 -111.24209 -0.44167536 -61.624905 -0.43531987 -61.501038 -23.896667 -155.42374
30782500000 -20.712154 -103.2056 -0.44195795 -61.922474 -0.41475314 -62.077023 -24.508398 -144.77159
30810000000 -20.376396 -107.33369 -0.43658856 -62.261887 -0.44327959 -62.292004 -24.034401 -149.54343
30837500000 -21.345675 -107.08483 -0.4277266 -62.735905 -0.41841921 -62.718548 -23.938606 -153.1337
30865000000 -19.624474 -106.05021 -0.43287283 -63.059994 -0.44063038 -63.0509 -24.126532 -146.2728
30892500000 -20.755247 -107.94628 -0.43610343 -63.523022 -0.4408547 -63.468388 -24.15283 -144.02206
30920000000 -21.33478 -108.4589 -0.42923883 -63.86795 -0.44026712 -63.802879 -24.142979 -153.27457
30947500000 -19.484138 -108.19765 -0.43034482 -64.155838 -0.43982279 -64.292175 -24.513552 -147.46642
30975000000 -20.719011 -106.92899 -0.44252658 -64.629539 -0.44200724 -64.549614 -25.067522 -145.81245
31002500000 -21.529993 -104.13063 -0.44742003 -64.932671 -0.44664621 -64.948174 -24.546078 -147.39221
31030000000 -19.078396 -114.42348 -0.45133179 -65.314507 -0.43741301 -65.434486 -24.961767 -147.61865
31057500000 -20.489962 -94.522606 -0.46818915 -65.834984 -0.42730671 -65.793983 -25.02771 -141.62671
31085000000 -20.903044 -114.39272 -0.46337706 -66.18647 -0.46048501 -66.066475 -24.454586 -148.75316
31112500000 -19.814045 -103.31275 -0.42433098 -66.552895 -0.44837886 -66.46624 -24.910187 -150.80614
31140000000 -19.865421 -108.02143 -0.4551982 -66.77565 -0.4513967 -66.934784 -25.245249 -146.49443
31167500000 -21.198559 -107.35824 -0.4654662 -67.149498 -0.44912574 -67.09507 -25.41958 -147.97615
31195000000 -20.196262 -110.28262 -0.46754363 -67.506218 -0.452831 -67.737816 -24.393629 -156.07813
31222500000 -19.34173 -106.72904 -0.45980409 -67.969177 -0.45665503 -67.992783 -24.80765 -150.05461
31250000000 -21.349478 -102.0098 -0.43740556 -68.428078 -0.43399063 -68.426003 -24.889713 -145.44321
31277500000 -20.790354 -110.77872 -0.46062431 -68.776367 -0.45844603 -68.514442 -24.836241 -152.26022
31305000000 -19.44327 -102.36666 -0.47667998 -69.212601 -0.44732794 -68.954994 -25.99559 -149.92886
31332500000 -21.076185 -102.1003 -0.45463941 -69.51667 -0.43587419 -69.440674 -25.75606 -147.79916
31360000000 -20.531277 -118.08591 -0.4692682 -69.789284 -0.46850631 -69.893356 -25.000534 -154.61275
31387500000 -19.29022 -100.21249 -0.45323956 -70.336487 -0.4684841 -70.069702 -25.864326 -156.49149
31415000000 -21.814993 -101.77619 -0.44115758 -70.51767 -0.44164357 -70.575577 -26.792189 -149.92262
31442500000 -20.897575 -115.6226 -0.46682009 -71.071381 -0.47015625 -70.820152 -25.521873 -156.1933
31470000000 -19.626329 -102.97394 -0.45534194 -71.598938 -0.45824352 -71.299225 -25.670456 -156.80319
31497500000 -21.100857 -103.90301 -0.46002337 -71.669563 -0.46518728 -71.68364 -26.985022 -151.87549
31525000000 -20.786001 -110.39117 -0.44196397 -72.156906 -0.43926427 -71.929787 -25.926882 -150.39412
31552500000 -19.743773 -111.40039 -0.45925996 -72.455673 -0.47287869 -72.495499 -25.45908 -156.25168
31580000000 -20.612646 -93.746887 -0.45598477 -72.964798 -0.46354815 -72.83728 -26.836157 -146.0583
31607500000 -20.796679 -114.09577 -0.4367938 -73.239738 -0.47168016 -73.204483 -26.749947 -149.70171
31635000000 -20.11388 -110.06368 -0.4820911 -73.529251 -0.47299734 -73.5457 -26.08168 -157.87646
31662500000 -20.267773 -97.737686 -0.47725114 -74.06292 -0.44042468 -74.054726 -27.712704 -151.6669
31690000000 -21.884983 -114.02858 -0.45061556 -74.340637 -0.45094723 -74.232826 -26.743362 -149.89502
31717500000 -19.705008 -110.03367 -0.45207542 -74.725784 -0.46413171 -74.702095 -27.12772 -154.96553
31745000000 -20.632053 -95.368317 -0.42691058 -75.166748 -0.45377403 -75.17627 -27.473209 -153.07774
31772500000 -21.226902 -110.74226 -0.46069598 -75.38401 -0.45119882 -75.628059 -27.379473 -147.41054
31800000000 -19.797228 -109.16725 -0.47361335 -75.823929 -0.46246102 -75.856064 -26.610424 -155.14677
31827500000 -20.441364 -100.61613 -0.4694294 -76.172928 -0.46650824 -76.289215 -27.790804 -152.0442
31855000000 -21.64856 -102.86755 -0.45528385 -76.63681 -0.46258023 -76.477226 -28.091106 -152.57376
31882500000 -19.851637 -115.8457 -0.46859598 -76.965477 -0.48079631 -76.984947 -26.865572 -154.19786
31910000000 -20.193491 -100.33736 -0.44951472 -77.217651 -0.46503833 -77.339951 -26.983871 -155.25755
31937500000 -21.4527 -106.2771 -0.48413917 -77.698959 -0.45879269 -77.695747 -28.549992 -152.89114
31965000000 -20.239323 -111.23829 -0.47953689 -77.915108 -0.47417834 -78.044098 -28.283669 -155.23152
31992500000 -19.920231 -107.22205 -0.46626154 -78.378189 -0.48513362 -78.439026 -26.979555 -155.82886
32020000000 -21.560637 -96.986519 -0.45779362 -78.979797 -0.47402474 -78.732269 -29.769653 -149.1779
32047500000 -20.746496 -113.49153 -0.47906339 -78.962425 -0.46864647 -79.1343 -28.273014 -150.73746
32075000000 -20.077847 -106.89511 -0.46517977 -79.453949 -0.48576236 -79.399963 -27.853861 -158.60191
32102500000 -21.968744 -101.04708 -0.46241781 -79.910301 -0.46484327 -79.862343 -29.418133 -155.32625
32130000000 -21.073696 -111.21309 -0.43821812 -80.210999 -0.47816774 -80.177261 -29.052 -152.93886
32157500000 -19.028271 -112.10458 -0.47877553 -80.446327 -0.47266915 -80.637901 -27.742235 -156.35942
32185000000 -22.29505 -92.77269 -0.45958394 -81.042145 -0.46839529 -81.090599 -29.972218 -157.50063
32212500000 -20.429678 -112.3401 -0.46216589 -81.448738 -0.46041217 -81.31089 -30.322044 -150.6333
32240000000 -20.065659 -108.82967 -0.46233806 -81.762054 -0.44232392 -81.742874 -28.392614 -152.48892
32267500000 -20.722683 -105.65018 -0.44540757 -82.06176 -0.44875142 -82.159401 -29.283455 -159.77843
32295000000 -22.179169 -107.26073 -0.46666187 -82.605644 -0.45355764 -82.443573 -31.31386 -155.28577
32322500000 -19.724533 -108.4874 -0.47065619 -82.944016 -0.46982685 -82.659248 -30.062248 -154.2233
32350000000 -20.491343 -104.23952 -0.46614107 -83.156166 -0.45632058 -83.392334 -29.631384 -159.20703
32377500000 -22.420155 -106.33064 -0.46557423 -83.914696 -0.45476931 -83.627655 -31.619709 -155.87192
32405000000 -19.42708 -111.99888 -0.46523193 -83.946922 -0.45458248 -83.886581 -30.753798 -148.38994
32432500000 -20.548183 -99.800888 -0.43380782 -84.428421 -0.45235091 -84.281639 -31.5177 -152.90782
32460000000 -21.827448 -102.8229 -0.44623426 -84.919556 -0.43880287 -84.847305 -31.276148 -151.02425
32487500000 -20.061424 -115.62837 -0.47173297 -85.09166 -0.43607336 -85.110046 -31.452028 -158.2493
32515000000 -20.39098 -95.781647 -0.4486739 -85.520149 -0.45313239 -85.468491 -32.780334 -151.31566
32542500000 -21.424248 -110.85923 -0.4412083 -85.844566 -0.41940412 -86.00592 -32.156017 -154.48972
32570000000 -21.747795 -107.80807 -0.44349003 -86.312927 -0.4310703 -86.233437 -32.400742 -144.73991
32597500000 -19.091125 -104.23762 -0.44933987 -86.615311 -0.43044543 -86.478256 -32.13237 -145.61189
32625000000 -21.559517 -99.720474 -0.43923363 -86.95993 -0.45762736 -87.014832 -35.103245 -153.55489
32652500000 -21.275038 -105.00452 -0.46349803 -87.282021 -0.41187561 -87.414742 -34.26852 -145.30258
32680000000 -19.210356 -102.6993 -0.44916075 -87.696159 -0.43594944 -87.593636 -32.601189 -136.75591
32707500000 -22.16774 -97.533501 -0.46131429 -88.217186 -0.4542968 -88.249718 -33.951527 -149.90186
32735000000 -20.623884 -108.12413 -0.42368394 -88.368454 -0.41664603 -88.607643 -35.399696 -144.19682
32762500000 -20.609936 -105.89763 -0.45075339 -88.791382 -0.41707116 -88.836342 -33.228539 -134.11681
32790000000 -20.570517 -97.07032 -0.45983085 -89.182678 -0.44760054 -89.165886 -37.247425 -154.17807
32817500000 -22.225264 -115.85464 -0.41794208 -89.868652 -0.4424744 -89.801033 -35.430191 -150.18022
32845000000 -20.170181 -102.95 -0.41653576 -89.983513 -0.4423652 -90.09404 -35.648357 -131.93369
32872500000 -20.622238 -104.37812 -0.42654961 -90.389877 -0.44074699 -90.564217 -34.565948 -146.80881
32900000000 -22.836863 -101.92332 -0.44169715 -90.837715 -0.43333501 -90.75132 -40.038788 -141.00198
32927500000 -20.159418 -105.75759 -0.42533094 -91.046555 -0.41285792 -91.151291 -38.296349 -118.50903
32955000000 -21.170326 -100.70252 -0.41473264 -91.451965 -0.43795326 -91.454582 -37.030029 -129.85239
32982500000 -21.67404 -100.1248 -0.43006903 -92.001587 -0.43414968 -91.911201 -37.434772 -149.19481
33010000000 -21.060566 -108.9627 -0.42609671 -92.331993 -0.44204506 -92.350502 -37.018452 -109.74697
33037500000 -20.093948 -93.988617 -0.40451953 -92.526482 -0.40755567 -92.546288 -34.756397 -113.83302
33065000000 -21.352882 -106.3726 -0.44156304 -93.189842 -0.42320824 -92.998512 -38.176464 -127.12488
33092500000 -21.277451 -106.65012 -0.4273884 -93.52034 -0.40824407 -93.490784 -37.944225 -121.88163
33120000000 -20.365995 -99.158592 -0.409159 -93.888161 -0.39714694 -93.664749 -35.668697 -109.23898
33147500000 -21.729889 -101.81148 -0.41829407 -94.277092 -0.43457279 -94.19986 -40.496838 -115.34792
33175000000 -21.724152 -102.78553 -0.43626228 -94.598 -0.40881371 -94.538322 -40.516491 -90.194534
33202500000 -20.561583 -104.065 -0.40319881 -94.913406 -0.40682757 -94.973549 -36.198601 -103.42412
33230000000 -21.574211 -94.605171 -0.4234896 -95.524368 -0.44969815 -95.372589 -43.131332 -102.67597
33257500000 -21.448599 -105.61863 -0.42647022 -95.881142 -0.41122305 -95.694023 -42.088829 -88.164452
33285000000 -21.264355 -102.28607 -0.41555092 -96.116188 -0.40830719 -96.27092 -36.751148 -86.985794
33312500000 -20.479813 -97.840317 -0.41407421 -96.618362 -0.4277806 -96.56694 -40.911766 -126.39339
33340000000 -22.286163 -101.36816 -0.42357409 -96.898323 -0.4154951 -96.891769 -40.372593 -77.529282
33367500000 -20.739513 -99.069923 -0.40221727 -97.331886 -0.39887556 -97.273399 -35.420326 -78.114838
33395000000 -20.97365 -96.068581 -0.40998876 -97.58535 -0.41926271 -97.747559 -34.865204 -77.298119
33422500000 -21.982571 -101.67062 -0.42812511 -98.084343 -0.43258426 -98.262825 -42.334351 -79.399803
33450000000 -21.215034 -97.173454 -0.41528603 -98.396004 -0.41213748 -98.690819 -38.177364 -60.046535
33477500000 -21.160862 -95.567558 -0.41691443 -98.800186 -0.40096083 -98.808647 -35.315693 -63.056854
33505000000 -21.176466 -99.051895 -0.41634944 -99.170799 -0.42403099 -99.307823 -42.224739 -74.811745
33532500000 -22.123194 -100.0843 -0.4096269 -99.525116 -0.43275872 -99.73629 -37.106525 -51.76812
33560000000 -20.796465 -96.026253 -0.40665954 -99.93721 -0.41226101 -99.873634 -33.972019 -65.994484
33587500000 -21.110733 -94.094315 -0.39425159 -100.40923 -0.41220805 -100.40527 -34.988182 -60.012524
33615000000 -22.164862 -95.841064 -0.44389457 -100.79592 -0.40369278 -100.7961 -35.987225 -25.61541
33642500000 -20.543482 -96.67791 -0.39730436 -101.24068 -0.39259735 -101.0834 -32.218029 -59.405701
33670000000 -21.741537 -92.974365 -0.40937403 -101.54106 -0.42084387 -101.61377 -34.393929 -55.020672
33697500000 -21.885841 -99.345833 -0.41301394 -101.98259 -0.42683262 -102.0534 -36.85474 -29.408241
33725000000 -21.799152 -92.104607 -0.42050961 -102.40767 -0.41494223 -102.31915 -32.935352 -49.781479
33752500000 -20.966635 -89.24958 -0.42472175 -102.64724 -0.41251546 -102.55791 -33.645672 -46.372463
33780000000 -22.427883 -96.757584 -0.429344 -103.19328 -0.4397741 -102.97118 -33.077656 -35.413849
33807500000 -22.102806 -93.627441 -0.42753208 -103.55958 -0.41627309 -103.44542 -32.080219 -41.214645
33835000000 -21.058746 -94.285172 -0.4329243 -103.85616 -0.4231135 -103.9922 -33.564674 -54.226692
33862500000 -21.681768 -93.820221 -0.45114252 -104.2839 -0.42515507 -104.11923 -34.111641 -41.024151
33890000000 -21.88434 -98.216431 -0.40291902 -104.6143 -0.43728361 -104.60091 -32.157578 -52.350246
33917500000 -21.314857 -95.74501 -0.41610044 -104.96619 -0.42075458 -105.09309 -31.741684 -47.452663
33945000000 -21.218342 -89.742035 -0.41561189 -105.28191 -0.4195849 -105.42196 -32.580677 -51.153366
33972500000 -21.613153 -103.83879 -0.45066407 -105.88058 -0.43718311 -105.72509 -30.156292 -37.969341
34000000000 -20.791477 -91.094559 -0.41170144 -106.21116 -0.41409871 -106.18774 -29.683588 -47.306629
34027500000 -20.96269 -95.987122 -0.40423769 -106.65292 -0.43400264 -106.37894 -32.556564 -54.732456
34055000000 -22.055075 -94.401276 -0.3921746 -106.91685 -0.42024782 -106.74377 -31.077332 -37.36338
34082500000 -21.074274 -96.360069 -0.41755676 -107.38891 -0.41900358 -107.42453 -28.575907 -45.168346
34110000000 -21.212223 -89.330269 -0.42212689 -107.6752 -0.39693791 -107.72133 -30.985037 -45.932281
34137500000 -21.023348 -95.963676 -0.43986377 -108.19238 -0.42281789 -108.02029 -30.667788 -38.320053
34165000000 -21.857485 -101.35335 -0.449958 -108.478 -0.43225998 -108.42502 -28.80802 -46.374393
34192500000 -20.862627 -84.345505 -0.38594511 -109.08359 -0.42083046 -108.72928 -29.291319 -48.703987
34220000000 -21.722582 -97.179901 -0.41583693 -108.98248 -0.42344424 -109.28017 -30.211065 -31.993067
34247500000 -21.785574 -100.64365 -0.40411124 -109.79855 -0.4356584 -109.72803 -27.883112 -49.69989
34275000000 -20.46398 -87.763733 -0.42843366 -110.23536 -0.42936569 -110.0025 -28.122015 -45.635052
34302500000 -21.631721 -95.650612 -0.40346581 -110.36214 -0.42036247 -110.39275 -30.884699 -41.915562
34330000000 -21.240526 -95.723396 -0.44881627 -110.61745 -0.41796771 -110.77551 -27.451157 -34.033745
34357500000 -20.795702 -85.528915 -0.42910454 -111.15057 -0.42940113 -111.2081 -27.00876 -48.371479
34385000000 -21.660709 -90.958229 -0.42062339 -111.62547 -0.43832752 -111.63331 -29.032509 -32.254784
34412500000 -21.143198 -92.789108 -0.433714 -111.9082 -0.41312468 -111.90831 -27.561865 -35.425022
34440000000 -21.039732 -91.454369 -0.44372311 -112.39664 -0.40139863 -112.27148 -26.76729 -43.382538
34467500000 -21.314892 -86.197433 -0.43394399 -112.59638 -0.43450698 -112.61422 -28.680317 -37.226467
34495000000 -20.805599 -98.450005 -0.44536653 -113.01198 -0.46037564 -112.9903 -28.106195 -29.574652
34522500000 -22.109451 -87.559845 -0.42734557 -113.43954 -0.45420483 -113.41827 -25.644857 -46.287849
34550000000 -20.531151 -87.09185 -0.42581373 -113.9828 -0.4347336 -113.74288 -27.28517 -41.71051
34577500000 -21.359375 -94.55909 -0.44089511 -114.27686 -0.4459379 -114.03207 -27.546133 -33.980869
34605000000 -20.955238 -88.449486 -0.45224521 -114.79608 -0.45488027 -114.47905 -24.97995 -39.081078
34632500000 -21.220551 -83.845459 -0.43654364 -114.94798 -0.42880479 -115.04214 -25.915264 -44.005371
34660000000 -21.037952 -95.624672 -0.45492366 -115.31533 -0.4755064 -115.37798 -26.960337 -37.497505
34687500000 -20.485165 -88.027473 -0.44621503 -115.82867 -0.44807464 -115.7994 -24.879805 -44.109325
34715000000 -21.661016 -88.250793 -0.43155059 -116.14539 -0.44685221 -116.15663 -24.788996 -43.505547
34742500000 -20.427141 -85.881676 -0.41927668 -116.61563 -0.45734492 -116.42519 -26.841503 -39.971745
34770000000 -19.946541 -93.593414 -0.45614234 -116.86181 -0.45020178 -116.81998 -25.434589 -42.900024
34797500000 -22.428301 -83.394753 -0.48819363 -117.17622 -0.44060516 -117.05022 -24.306473 -41.159081
34825000000 -20.024504 -85.957741 -0.45429075 -117.80228 -0.46579728 -117.82079 -26.629786 -39.397408
34852500000 -20.795221 -91.546982 -0.45872191 -118.01859 -0.4680548 -117.99562 -25.123735 -41.436676
34880000000 -20.450407 -86.904778 -0.43862876 -118.33374 -0.48351413 -118.25297 -23.204481 -41.303669
34907500000 -21.20126 -89.13459 -0.47017935 -118.86483 -0.4641369 -118.65746 -24.962013 -39.035992
34935000000 -20.346853 -82.080963 -0.47982308 -119.07196 -0.45958424 -119.31827 -25.397291 -39.801239
34962500000 -20.251123 -91.490578 -0.45825905 -119.39888 -0.45054203 -119.41594 -22.879166 -43.012169
34990000000 -22.020439 -82.956024 -0.48138016 -119.80051 -0.44433355 -120.01254 -24.290808 -43.208614
35017500000 -19.204823 -86.658211 -0.45045733 -120.03682 -0.45680541 -120.19334 -24.553738 -42.70932
35045000000 -21.098377 -84.716461 -0.47026154 -120.52335 -0.47059819 -120.57816 -23.443773 -41.931633
35072500000 -20.747936 -90.302925 -0.42878252 -121.01248 -0.43352321 -120.9648 -23.488039 -47.082935
35100000000 -20.485107 -83.108902 -0.45660928 -121.25821 -0.43315712 -121.52592 -24.616543 -44.029736
35127500000 -19.54561 -83.485214 -0.46025935 -121.57458 -0.46857494 -121.75735 -23.25771 -43.682762
35155000000 -21.869987 -88.481827 -0.46592608 -122.16903 -0.48587063 -122.11533 -22.408569 -41.466545
35182500000 -20.098679 -83.433716 -0.4445644 -122.69662 -0.46601167 -122.33054 -23.958153 -46.951969
35210000000 -19.791336 -79.466682 -0.46100655 -122.92878 -0.46854785 -122.98282 -23.17185 -44.687138
35237500000 -21.084963 -94.299774 -0.44651625 -123.45495 -0.43222797 -123.1601 -22.067724 -46.394318
35265000000 -19.817793 -82.880882 -0.46250218 -123.75256 -0.4327713 -123.63493 -23.723993 -47.31345
35292500000 -19.778109 -85.017357 -0.44119713 -124.09885 -0.45876276 -124.07022 -22.904789 -50.136974
35320000000 -20.69644 -83.743271 -0.45440313 -124.46567 -0.47089159 -124.67551 -22.064842 -45.790352
35347500000 -20.117918 -89.952766 -0.45226589 -124.89465 -0.43454933 -124.73968 -22.872499 -49.927273
35375000000 -19.902559 -84.563812 -0.42804199 -125.3697 -0.44533154 -125.25414 -22.972815 -50.090218
35402500000 -19.847775 -80.950485 -0.46007288 -125.60306 -0.44345304 -125.48187 -21.581739 -46.450863
35430000000 -20.787653 -92.896385 -0.47296876 -125.96796 -0.45774359 -126.01627 -22.040636 -48.120464
35457500000 -19.655157 -77.941467 -0.44407892 -126.63383 -0.4172239 -126.36313 -23.14262 -52.281319
35485000000 -19.08547 -83.32695 -0.44739708 -126.64413 -0.44279343 -126.53239 -21.590868 -51.95829
35512500000 -21.052608 -93.507118 -0.44418502 -127.10838 -0.46567163 -127.04691 -21.431086 -49.561634
35540000000 -18.684433 -84.20623 -0.44337651 -127.47171 -0.43898445 -127.55753 -22.926582 -57.332302
35567500000 -20.467316 -77.7192 -0.47484824 -128.02641 -0.44359583 -127.87195 -21.996862 -51.407768
35595000000 -19.328218 -91.627403 -0.47469375 -128.05101 -0.44818628 -128.14346 -21.158728 -49.142658
35622500000 -19.252434 -87.999619 -0.46608227 -128.47748 -0.41680077 -128.47121 -22.028439 -51.652962
35650000000 -19.252823 -76.42205 -0.44770098 -129.19081 -0.46313369 -128.94452 -21.813337 -54.181744
35677500000 -20.204374 -92.509132 -0.45870551 -129.47672 -0.45128986 -129.15753 -21.030607 -49.882412
35705000000 -18.768469 -90.542 -0.45372143 -129.82516 -0.43436766 -129.66377 -21.743694 -54.50021
35732500000 -19.056763 -77.787834 -0.41527322 -130.24672 -0.45883527 -130.22414 -21.719522 -59.334175
35760000000 -19.70376 -90.25605 -0.43570936 -130.59807 -0.41805038 -130.62366 -21.333084 -54.275192
35787500000 -19.446201 -93.525246 -0.44886366 -130.89105 -0.45374557 -131.1205 -21.575922 -52.701633
35815000000 -18.670433 -83.505539 -0.45433819 -131.38802 -0.45173016 -131.17111 -22.126581 -59.31089
35842500000 -20.541218 -75.562073 -0.45691413 -131.66664 -0.48632169 -131.62891 -21.311007 -52.404694
35870000000 -18.805935 -94.771103 -0.43667272 -132.00311 -0.47891715 -132.24124 -21.420254 -53.500889
35897500000 -19.173861 -83.153336 -0.44439837 -132.40466 -0.44556761 -132.20572 -21.131899 -56.847546
35925000000 -19.28487 -72.744675 -0.47424012 -132.7061 -0.44634986 -132.80159 -21.133207 -53.646652
35952500000 -19.576469 -100.58492 -0.49585253 -133.50807 -0.46799394 -133.24391 -20.586422 -49.017509
35980000000 -18.156656 -81.922401 -0.48145738 -133.3047 -0.45386341 -133.744 -21.040203 -54.029629
36007500000 -19.382193 -79.306213 -0.45948812 -133.93193 -0.46937433 -133.8848 -21.087591 -55.483276
36035000000 -19.594755 -86.41362 -0.45019516 -134.42079 -0.44865641 -134.2319 -20.691021 -53.812531
36062500000 -17.973339 -92.892906 -0.50084162 -134.89946 -0.46726891 -134.66103 -20.671257 -58.971962
36090000000 -19.228298 -79.20179 -0.46156156 -135.32889 -0.46586269 -134.92894 -20.860668 -57.351952
36117500000 -19.864193 -84.226021 -0.47999018 -135.5722 -0.44055903 -135.52013 -21.025097 -53.591038
36145000000 -18.348139 -92.142281 -0.4859708 -136.02242 -0.46635175 -135.69035 -20.186979 -56.297527
36172500000 -19.727764 -75.326019 -0.48509222 -136.26753 -0.44765994 -136.04396 -20.459433 -57.646236
36200000000 -19.752428 -81.841011 -0.4775317 -136.72794 -0.46430138 -136.26593 -20.228004 -55.869862
36227500000 -19.119095 -95.211197 -0.49967515 -137.17508 -0.46441659 -137.01353 -20.388395 -57.250584
36255000000 -18.110453 -81.264725 -0.49865153 -137.48473 -0.44415691 -137.09486 -20.211662 -55.943806
36282500000 -20.468498 -80.464783 -0.49635687 -137.91278 -0.46164563 -137.81769 -20.634624 -56.816277
36310000000 -18.730528 -94.134476 -0.49155205 -138.15356 -0.48910499 -138.20198 -19.820206 -57.353722
36337500000 -17.286606 -79.825256 -0.50497979 -138.56738 -0.4736858 -138.67636 -19.880365 -58.800102
36365000000 -20.970352 -82.255196 -0.50125068 -138.72191 -0.45992926 -138.74266 -19.992165 -56.540241
36392500000 -19.83219 -84.405884 -0.52198809 -139.36191 -0.45574844 -139.05464 -19.928259 -58.214825
36420000000 -17.174242 -90.209152 -0.52428263 -139.7206 -0.4860585 -139.75531 -19.962402 -58.867886
36447500000 -19.610826 -68.807884 -0.4392319 -140.38388 -0.50158221 -139.95039 -20.139349 -57.363869
36475000000 -19.694174 -93.973053 -0.47216237 -140.5282 -0.46369648 -140.88017 -20.232868 -61.640278
36502500000 -18.092937 -87.476082 -0.44820178 -140.68329 -0.48917857 -140.91994 -19.192614 -59.637218
36530000000 -18.741587 -74.92382 -0.47373834 -141.09985 -0.48269653 -141.12386 -19.676401 -61.670292
36557500000 -20.635551 -90.252487 -0.48585731 -141.35823 -0.47962707 -141.60739 -19.319063 -60.052166
36585000000 -17.904642 -86.447716 -0.45030859 -141.94611 -0.4787547 -141.9912 -19.017548 -61.774746
36612500000 -17.870127 -81.860916 -0.4610011 -142.25589 -0.50299072 -142.2704 -19.595045 -58.584488
36640000000 -21.447336 -82.339043 -0.50124431 -142.51959 -0.46063295 -142.22424 -19.378233 -59.858311
36667500000 -17.704582 -88.371933 -0.44649187 -143.45486 -0.53166258 -143.26642 -18.914785 -64.495941
36695000000 -18.256264 -80.115173 -0.54594415 -143.61264 -0.47463396 -143.46805 -19.259846 -61.939259
36722500000 -20.641342 -76.189796 -0.49546111 -143.82431 -0.48268321 -143.74094 -19.334661 -60.540249
36750000000 -17.863325 -97.03051 -0.51873004 -144.40291 -0.42617524 -144.24908 -18.450106 -65.214577
36777500000 -18.244492 -77.238129 -0.4550671 -144.62762 -0.46743149 -144.64197 -18.949896 -63.302208
36805000000 -19.198385 -79.076767 -0.49585196 -144.86699 -0.5216127 -145.00456 -19.479279 -59.438171
36832500000 -19.089453 -96.502945 -0.4998619 -145.36685 -0.48949844 -145.38289 -19.080561 -67.051361
36860000000 -17.009874 -79.098373 -0.50594234 -145.84418 -0.50909448 -145.76814 -18.486032 -65.26371
36887500000 -20.718712 -78.257248 -0.48853832 -146.26105 -0.49499661 -146.10587 -19.404434 -64.512047
36915000000 -18.444128 -93.329697 -0.48081076 -146.44681 -0.46475539 -146.19153 -19.542139 -64.977997
36942500000 -17.12178 -85.54319 -0.52668709 -147.0312 -0.48577884 -146.94151 -18.644726 -65.541313
36970000000 -19.128429 -79.550056 -0.46444714 -147.24437 -0.4767707 -147.00769 -18.929781 -65.420776
36997500000 -19.076571 -88.374084 -0.50352496 -147.55379 -0.51758146 -147.56136 -19.126736 -64.723495
37025000000 -17.741339 -94.742218 -0.51416183 -148.19395 -0.48644185 -148.14659 -18.374149 -67.802834
37052500000 -18.148825 -72.022057 -0.47617215 -148.43533 -0.4554227 -148.33879 -18.694334 -64.748589
37080000000 -20.603249 -98.175308 -0.5272283 -148.6637 -0.48934054 -148.42398 -18.81531 -62.535347
37107500000 -17.143814 -85.954094 -0.52096885 -149.60146 -0.50366825 -149.47151 -18.291258 -71.949013
37135000000 -18.120169 -76.43895 -0.48385239 -149.54704 -0.48214257 -149.80811 -18.570116 -65.823517
37162500000 -20.03488 -95.310158 -0.48759639 -149.91631 -0.52302194 -149.89233 -18.943842 -62.925419
37190000000 -17.082151 -85.305115 -0.50998318 -150.49323 -0.52788246 -150.50626 -18.080267 -68.552734
37217500000 -17.45862 -83.285637 -0.55876559 -151.08954 -0.5316819 -150.81653 -18.350931 -68.015457
37245000000 -20.318172 -81.314957 -0.51328826 -150.99234 -0.51265788 -151.07088 -18.810843 -64.101074
37272500000 -17.069479 -89.617668 -0.49334562 -151.64505 -0.50242054 -151.49022 -17.863314 -69.422035
37300000000 -18.367926 -76.760399 -0.48277637 -151.93587 -0.46862599 -151.67096 -18.032274 -70.080231
37327500000 -18.38088 -86.112473 -0.53529727 -151.90654 -0.50859392 -151.97934 -18.161287 -64.656105
37355000000 -19.02771 -86.687225 -0.50374413 -152.77238 -0.53950441 -152.38028 -18.325006 -69.935036
37382500000 -16.612747 -82.554657 -0.53354132 -153.21719 -0.53693497 -153.1041 -17.577208 -72.439674
37410000000 -19.736885 -82.26561 -0.50590748 -153.25348 -0.50713122 -153.26059 -18.150484 -68.21286
37437500000 -18.685984 -91.549843 -0.53488499 -153.44682 -0.52596003 -153.55846 -17.983664 -68.196854
37465000000 -16.637259 -84.093399 -0.55067414 -154.36845 -0.50832504 -154.14845 -17.20249 -71.052826
37492500000 -18.547863 -82.940445 -0.53603435 -154.46065 -0.55576932 -154.56615 -18.510647 -69.317436
37520000000 -18.62615 -91.023666 -0.54019117 -154.87839 -0.53703868 -154.62042 -17.95504 -67.133461
37547500000 -16.357847 -84.633614 -0.52937472 -155.22345 -0.52747965 -155.35228 -17.566454 -74.895782
37575000000 -18.284296 -82.390831 -0.53964686 -155.42625 -0.50994968 -155.69447 -17.91157 -69.919449
37602500000 -18.536551 -91.082993 -0.53237742 -156.00055 -0.55166572 -155.67099 -18.053421 -70.982246
37630000000 -17.160824 -81.280777 -0.52145624 -156.51152 -0.51763749 -156.36031 -17.261534 -74.515625
37657500000 -17.506842 -83.15995 -0.54720187 -156.72995 -0.54033452 -156.3945 -17.501118 -73.519974
37685000000 -18.168356 -90.977249 -0.53943229 -156.83768 -0.48263058 -156.9856 -17.83824 -72.217018
37712500000 -17.083296 -82.825897 -0.54605693 -157.22198 -0.52920103 -157.38914 -17.362009 -72.947479
37740000000 -16.747522 -82.356552 -0.52560329 -157.74928 -0.55307412 -157.61113 -17.356279 -74.594971
37767500000 -18.571739 -91.179092 -0.53961492 -158.03264 -0.54511619 -157.92741 -17.504416 -72.253601
37795000000 -17.181641 -88.053589 -0.49854439 -158.33405 -0.50181752 -158.28705 -17.037577 -72.102753
37822500000 -17.181816 -78.105171 -0.53676772 -159.01076 -0.51608837 -158.75919 -17.004547 -77.09922
37850000000 -17.61886 -93.245384 -0.53016871 -159.16927 -0.53343737 -159.0945 -17.817533 -76.386063
37877500000 -17.2861 -85.377426 -0.51677495 -159.63899 -0.5519805 -159.59975 -17.550619 -76.499115
37905000000 -16.794315 -79.571312 -0.54128093 -160.0824 -0.53634036 -160.04942 -17.06883 -75.667732
37932500000 -17.825348 -88.530716 -0.5145418 -160.17061 -0.52609384 -160.05498 -17.068478 -78.454887
37960000000 -16.544411 -90.393677 -0.54514641 -160.48119 -0.53786308 -160.93216 -18.040222 -76.470558
37987500000 -17.730749 -75.930824 -0.51268238 -160.97321 -0.50231069 -161.35873 -16.47373 -78.801476
38015000000 -16.65415 -86.22216 -0.54477721 -161.23442 -0.52239418 -161.34488 -17.040548 -79.605347
38042500000 -17.939407 -92.697083 -0.50390315 -161.69438 -0.5249936 -161.79446 -17.304594 -79.136368
38070000000 -16.90266 -79.188438 -0.53349358 -162.31525 -0.51562601 -162.09108 -16.691217 -78.310684
38097500000 -17.101194 -83.599884 -0.50801659 -162.35777 -0.49377108 -162.47943 -16.868267 -80.738235
38125000000 -17.613476 -95.468697 -0.55377918 -162.68977 -0.52987331 -163.02525 -16.975746 -79.509369
38152500000 -16.392792 -82.560608 -0.56658077 -163.32045 -0.51838642 -163.42657 -17.206051 -78.293076
38180000000 -16.98638 -80.936317 -0.53088444 -163.51581 -0.50678766 -163.78847 -16.716873 -80.160812
38207500000 -17.195772 -91.675964 -0.52376276 -163.99007 -0.5290004 -163.90784 -17.033178 -78.164192
38235000000 -16.570669 -87.506271 -0.54798031 -164.47319 -0.48038572 -164.54277 -17.252094 -78.382668
38262500000 -17.56921 -78.3927 -0.55929846 -164.82724 -0.4908106 -164.77852 -16.622551 -81.601059
38290000000 -16.276749 -94.373886 -0.52723533 -165.02658 -0.53435594 -165.39418 -16.710594 -81.777985
38317500000 -16.885328 -89.705605 -0.5353933 -165.66083 -0.51791865 -165.32965 -16.994778 -81.4412
38345000000 -16.861593 -76.98951 -0.51071304 -165.76546 -0.50723445 -165.85144 -16.988853 -81.813644
38372500000 -17.562738 -92.762276 -0.50155342 -166.30565 -0.47774613 -166.58418 -16.661253 -82.224472
38400000000 -16.206562 -91.110695 -0.51051128 -166.73624 -0.49012172 -166.60701 -16.659586 -81.159622
38427500000 -17.788439 -80.694641 -0.52072632 -166.87469 -0.52319974 -167.11536 -16.789057 -82.153603
38455000000 -16.722883 -86.592621 -0.51093292 -167.35435 -0.5326103 -167.4391 -16.58234 -85.658371
38482500000 -16.122332 -95.474785 -0.54254287 -167.65097 -0.51952708 -167.79315 -16.472694 -81.792175
38510000000 -17.096331 -86.202156 -0.52622449 -168.08455 -0.50669599 -168.27704 -16.969532 -82.062637
38537500000 -17.396139 -86.299301 -0.47963372 -168.52354 -0.51524651 -168.70367 -16.53314 -86.91433
38565000000 -16.364359 -93.880074 -0.50938964 -169.07945 -0.54795885 -168.7364 -16.536648 -85.298508
38592500000 -16.990007 -85.7313 -0.54212373 -169.58658 -0.53233993 -169.49744 -16.783281 -83.971573
38620000000 -17.451122 -90.548874 -0.51409334 -169.75082 -0.53846049 -169.49435 -16.870115 -86.707199
38647500000 -15.967015 -85.741531 -0.54445356 -170.05168 -0.47072658 -170.51399 -16.566315 -87.783852
38675000000 -16.350004 -94.888405 -0.48985687 -170.40074 -0.49522698 -170.18541 -16.949846 -84.275024
38702500000 -17.236385 -83.39753 -0.50673991 -170.97069 -0.52238774 -170.76315 -16.534594 -85.040077
38730000000 -16.262791 -89.96389 -0.5369426 -171.41481 -0.5319376 -171.19585 -16.479322 -89.573532
38757500000 -16.030699 -91.767471 -0.50047505 -171.52225 -0.54061717 -171.7193 -16.697405 -86.218163
38785000000 -17.460245 -90.877235 -0.51960814 -172.11301 -0.49037558 -171.7522 -16.593443 -85.251198
38812500000 -16.87676 -91.243431 -0.49625066 -172.30145 -0.56561935 -172.32826 -16.438505 -88.076889
38840000000 -15.721848 -90.549156 -0.51303601 -172.88602 -0.50271547 -172.47928 -16.106226 -89.527809
38867500000 -16.906548 -94.563934 -0.53726161 -173.02849 -0.50091922 -172.98869 -16.338503 -84.634659
38895000000 -17.446417 -91.617271 -0.48760104 -173.5334 -0.53534001 -173.70679 -16.409859 -86.147438
38922500000 -15.610523 -92.593826 -0.50138348 -173.91096 -0.48751009 -173.7056 -15.996203 -93.009171
38950000000 -16.318373 -92.433487 -0.47414079 -174.20454 -0.51993173 -174.19998 -16.809803 -87.239845
38977500000 -17.4119 -90.759018 -0.51081699 -174.50693 -0.49579045 -174.71977 -16.357906 -90.276199
39005000000 -16.187798 -88.710327 -0.51564759 -174.75607 -0.4808102 -175.05861 -16.062155 -92.737312
39032500000 -16.103115 -90.785721 -0.57768083 -175.17749 -0.50051773 -175.30373 -15.978781 -88.735664
39060000000 -17.520054 -92.565308 -0.52552998 -175.67714 -0.52121723 -175.7831 -16.447309 -90.309799
39087500000 -16.395329 -90.348709 -0.55066913 -176.38448 -0.53670007 -175.96075 -16.176416 -95.39817
39115000000 -15.78244 -87.690475 -0.53580558 -176.27231 -0.51706827 -176.25496 -16.119509 -92.586044
39142500000 -16.988016 -93.766777 -0.55453914 -177.14589 -0.52190286 -176.82581 -16.595966 -88.959869
39170000000 -16.814106 -89.749794 -0.47327703 -177.00903 -0.50219673 -177.45638 -16.080088 -96.572159
39197500000 -15.819948 -89.093941 -0.5675267 -177.68407 -0.52085298 -177.82536 -16.052725 -92.468788
39225000000 -16.669386 -92.26693 -0.5558517 -177.72679 -0.53066272 -177.88823 -16.666292 -91.503769
39252500000 -17.394777 -94.897499 -0.53451258 -178.61124 -0.53855163 -178.35567 -16.44187 -96.391304
39280000000 -15.99043 -90.980873 -0.45471239 -178.91492 -0.51968575 -178.90138 -16.190321 -92.193977
39307500000 -16.489166 -89.560112 -0.54281884 -178.91182 -0.55510771 -178.81367 -16.28363 -93.794121
39335000000 -17.767529 -100.06628 -0.51295996 -179.6051 -0.55676204 -179.612 -16.326746 -96.793457
39362500000 -15.648482 -86.79937 -0.46035406 179.64178 -0.5150218 -179.8376 -15.691523 -99.49585
39390000000 -17.176249 -89.088615 -0.54124433 179.5941 -0.56379509 179.68333 -16.303694 -95.496681
39417500000 -16.743139 -96.804787 -0.53686875 179.20313 -0.54519808 179.17337 -16.258976 -96.478035
39445000000 -16.899506 -94.598129 -0.54926473 178.97475 -0.51370698 178.95099 -15.810747 -99.962509
39472500000 -16.151121 -89.298698 -0.49845845 178.34207 -0.5114795 178.32843 -15.873113 -93.801697
39500000000 -16.934311 -96.032715 -0.57193208 178.20982 -0.53582728 178.29071 -16.682169 -98.103241
39527500000 -16.263962 -96.63311 -0.51315457 177.79036 -0.52248675 177.76813 -15.960586 -101.70644
39555000000 -16.018002 -87.084274 -0.50244874 177.16734 -0.53212839 177.24686 -15.924998 -95.124657
39582500000 -17.137972 -97.561935 -0.49477237 177.18375 -0.60353684 177.16318 -16.340347 -95.664513
39610000000 -17.124054 -96.310463 -0.5489102 176.8439 -0.55982083 176.80058 -16.187004 -102.28075
39637500000 -15.364281 -90.598877 -0.47486931 176.20872 -0.49424067 176.15977 -15.717872 -99.4543
39665000000 -17.469076 -84.963341 -0.52016926 175.70247 -0.51508093 175.94839 -15.81168 -96.609711
39692500000 -16.2936 -105.75555 -0.57997835 175.26959 -0.55338901 175.25571 -16.078035 -99.196968
39720000000 -15.138819 -89.44223 -0.52573913 175.01149 -0.57663691 175.00208 -15.940295 -103.02629
39747500000 -16.60911 -87.336411 -0.47789782 174.68207 -0.54668748 174.79175 -16.457464 -95.992523
39775000000 -16.318554 -105.2153 -0.55728352 174.22345 -0.53219336 174.30864 -16.149872 -99.97773
39802500000 -15.887837 -91.072235 -0.49883097 173.92169 -0.55023187 173.95387 -16.152044 -101.67641
39830000000 -16.917778 -83.243523 -0.50410056 174.00504 -0.52283245 173.56253 -16.372906 -100.60103
39857500000 -17.024794 -106.78027 -0.5601598 173.55136 -0.55928701 173.37137 -16.075195 -99.71402
39885000000 -16.136429 -90.858414 -0.56381309 172.78531 -0.53773272 172.90114 -15.814418 -104.10056
39912500000 -16.683985 -90.204048 -0.50943768 172.51086 -0.55343223 172.61841 -16.593637 -100.42087
39940000000 -17.209003 -101.52623 -0.55442739 172.09944 -0.51768446 172.06892 -16.273352 -99.411728
39967500000 -15.655773 -96.572258 -0.53679645 172.13332 -0.55046815 171.59033 -16.138008 -102.99457
39995000000 -16.211782 -90.815285 -0.55651867 171.60948 -0.56770635 171.68237 -16.216328 -103.96508
40022500000 -17.304317 -92.601479 -0.56481385 171.17136 -0.59483409 170.99922 -16.486259 -99.260979
40050000000 -15.124777 -107.51502 -0.54300249 170.69775 -0.60279059 170.34293 -15.820068 -107.67609
40077500000 -16.502316 -77.463455 -0.47843593 170.37357 -0.51670319 170.06013 -15.883391 -104.81273
40105000000 -16.839409 -104.56877 -0.54872394 170.06075 -0.51046968 170.06737 -16.340855 -99.045227
40132500000 -16.036055 -101.89296 -0.54787457 169.26587 -0.52861625 169.71982 -15.984812 -106.18301
40160000000 -15.77554 -88.253029 -0.55096358 169.15494 -0.53010929 169.20396 -15.691062 -107.50192
40187500000 -17.916222 -95.364189 -0.55754161 168.93365 -0.49367914 168.98393 -16.308369 -102.55531
40215000000 -16.095385 -106.65644 -0.5532167 168.36531 -0.56528944 168.52097 -16.030439 -102.52601
40242500000 -14.880388 -90.423592 -0.51908129 167.9855 -0.54222113 168.02374 -15.713916 -109.83607
40270000000 -18.719086 -90.881645 -0.47642952 167.41595 -0.52165622 167.53185 -16.336842 -100.64117
40297500000 -14.842794 -106.10968 -0.55588698 166.98309 -0.55605084 167.3367 -16.31493 -103.52301
40325000000 -16.122364 -93.448372 -0.55296564 166.89763 -0.55455005 166.79219 -15.574828 -110.4035
40352500000 -16.775137 -91.038742 -0.55567402 166.58304 -0.51963353 166.77524 -15.842188 -106.3259
40380000000 -16.401829 -105.90413 -0.53955835 165.99657 -0.56079859 166.07303 -15.906513 -104.82668
40407500000 -15.417166 -95.381027 -0.57075989 165.67523 -0.5690217 165.51617 -15.773716 -111.91392
40435000000 -16.140335 -84.773109 -0.54507303 165.1974 -0.49845845 165.55635 -16.306831 -110.44518
40462500000 -17.030352 -111.10752 -0.51149958 164.83832 -0.57291138 165.51584 -16.226227 -106.00652
40490000000 -14.95308 -91.00692 -0.51507485 164.50276 -0.51060098 164.7092 -15.881416 -109.71513
40517500000 -17.530935 -94.568901 -0.5773828 164.36693 -0.53328985 164.15536 -16.305784 -110.83411
40545000000 -16.90634 -100.65701 -0.52613038 163.92934 -0.48964244 163.92302 -16.121609 -106.97466
40572500000 -15.34947 -100.28329 -0.57238209 163.37189 -0.5475269 163.60478 -15.777932 -111.06145
40600000000 -16.958614 -89.368484 -0.5029102 163.24768 -0.54966015 163.42523 -16.21755 -112.60495
40627500000 -16.262951 -98.96479 -0.55717903 163.07916 -0.5125702 162.78065 -16.459633 -109.80869
40655000000 -15.711948 -103.53018 -0.58728474 162.51537 -0.53573209 162.55519 -16.131731 -111.81274
40682500000 -16.844458 -87.335732 -0.51851332 161.65201 -0.50873911 162.11684 -15.850934 -115.49465
40710000000 -15.715095 -104.04789 -0.58588475 161.66035 -0.52769774 161.798 -16.497211 -109.17687
40737500000 -16.677099 -100.40571 -0.58384436 161.36333 -0.50459248 161.4995 -16.202888 -111.79571
40765000000 -15.539856 -97.14959 -0.52273345 160.62997 -0.55884331 160.65253 -16.241337 -114.30217
40792500000 -18.046488 -94.224434 -0.50999862 160.53535 -0.493718 160.43358 -16.505013 -112.45174
40820000000 -14.712813 -107.87209 -0.55437094 159.89796 -0.57373077 159.99489 -15.730711 -112.06205
40847500000 -15.715008 -90.229012 -0.50505537 159.71504 -0.50370783 159.42497 -15.801253 -116.05787
40875000000 -18.066692 -100.82442 -0.49977303 159.64246 -0.50168157 159.58627 -16.272924 -114.11916
40902500000 -14.825189 -99.892593 -0.57424247 158.89915 -0.53511983 158.91391 -16.377567 -112.65906
40930000000 -16.221769 -103.86684 -0.53955865 158.74849 -0.51175612 158.94444 -16.269258 -115.47525
40957500000 -16.671555 -90.984718 -0.53685296 158.1132 -0.5441047 158.31204 -16.233465 -118.86051
40985000000 -15.650999 -109.68406 -0.52057052 158.01543 -0.51975518 157.93256 -16.424646 -114.76836
41012500000 -15.326228 -94.810295 -0.5481286 157.53146 -0.49407908 157.52931 -15.833054 -114.78954
41040000000 -17.398029 -105.55003 -0.5560376 157.39091 -0.56555569 157.22609 -16.292625 -118.50904
41067500000 -16.408068 -99.132416 -0.57898176 156.45628 -0.5155648 156.83516 -16.133978 -114.75704
41095000000 -15.017157 -101.37116 -0.53048253 156.15257 -0.58662927 156.19542 -16.07058 -115.30317
41122500000 -17.401501 -101.66995 -0.49708477 156.18777 -0.54073822 156.23367 -16.124485 -119.46773
41150000000 -16.133266 -101.21257 -0.52743524 155.81039 -0.53475499 155.89174 -17.471222 -117.92513
41177500000 -14.920482 -99.956017 -0.60953915 155.3819 -0.52521324 155.12349 -16.114908 -116.97726
41205000000 -17.603863 -105.81696 -0.51467091 155.08258 -0.47712663 155.04312 -16.230591 -120.20972
41232500000 -16.121447 -100.21362 -0.51495332 154.03172 -0.53251755 154.52269 -16.421688 -123.05436
41260000000 -15.893566 -100.93729 -0.57127714 154.04681 -0.53170854 154.23801 -16.259331 -115.98517
41287500000 -15.968977 -103.25281 -0.54345453 153.5907 -0.50772619 153.69386 -16.209845 -118.1858
41315000000 -17.547005 -106.8353 -0.57756668 153.30727 -0.51315719 153.58792 -16.823227 -121.25823
41342500000 -15.888095 -96.563194 -0.54345864 152.95888 -0.56007677 152.81812 -16.755442 -119.94995
41370000000 -15.637742 -106.2593 -0.58465344 152.29282 -0.54694468 152.64436 -16.128281 -120.02458
41397500000 -18.150257 -105.61758 -0.46409023 151.93723 -0.50334126 152.49307 -16.556145 -122.88419
41425000000 -15.273149 -96.186264 -0.5189051 151.58961 -0.4982433 151.71887 -16.860735 -121.16959
41452500000 -16.316198 -103.83071 -0.51707965 151.42401 -0.55647135 151.63426 -16.314508 -120.13433
41480000000 -16.760944 -106.88643 -0.60611802 151.36383 -0.5379498 151.2397 -16.589144 -128.05716
41507500000 -16.746029 -104.1544 -0.54076755 150.89294 -0.49999404 151.01323 -17.207651 -124.42648
41535000000 -15.984632 -96.515892 -0.52965426 150.47754 -0.55871463 150.11624 -16.511206 -118.07349
41562500000 -16.424728 -107.97653 -0.50437587 150.24719 -0.53282309 150.34473 -16.515043 -127.7698
41590000000 -16.293859 -102.28832 -0.55465412 149.38414 -0.51990521 149.66661 -17.361589 -125.04684
41617500000 -16.126617 -95.461578 -0.53538889 149.02606 -0.51275748 149.23878 -16.995104 -117.73811
41645000000 -15.18864 -107.19947 -0.53922451 148.85568 -0.54448646 149.03343 -16.351267 -126.25047
41672500000 -17.996805 -99.472824 -0.5106467 148.42789 -0.55276835 148.38666 -16.912268 -128.94101
41700000000 -15.857231 -104.28346 -0.59924585 148.08336 -0.54696083 147.60277 -16.789932 -118.07851
41727500000 -15.990175 -108.84165 -0.54132992 147.63182 -0.52151144 147.55191 -16.419498 -123.62626
41755000000 -16.785145 -106.03119 -0.5460757 147.60912 -0.55654722 147.31706 -16.886799 -127.39856
41782500000 -16.956516 -107.68025 -0.50428051 147.00021 -0.54232579 147.15501 -17.941669 -119.66624
41810000000 -16.157587 -98.130692 -0.57059252 146.33716 -0.5453918 146.6438 -16.237633 -125.58967
41837500000 -15.272916 -114.08111 -0.50829333 145.93532 -0.49930167 146.27087 -16.798458 -126.93755
41865000000 -17.486147 -97.481842 -0.51586795 145.60229 -0.58108497 145.6716 -17.423647 -127.06293
41892500000 -15.656146 -102.13621 -0.53122729 145.25101 -0.53839427 145.3624 -16.21183 -122.04293
41920000000 -15.684845 -104.5253 -0.55741417 145.12064 -0.57728314 145.38486 -16.663172 -130.27823
41947500000 -17.923788 -100.68225 -0.52411264 144.93286 -0.49989414 144.65031 -17.616793 -129.87761
41975000000 -15.775381 -107.90868 -0.56452852 144.38446 -0.54066962 144.27652 -17.186333 -126.435
42002500000 -16.001276 -99.409691 -0.58464926 144.19035 -0.52101845 144.09041 -16.568695 -127.87231
42030000000 -16.964445 -113.76404 -0.52740425 143.49319 -0.49270448 143.35677 -17.339006 -130.12415
42057500000 -16.786592 -101.67371 -0.58670127 142.92877 -0.5250082 142.80914 -17.273804 -124.50965
42085000000 -14.856794 -104.49478 -0.55448973 142.99925 -0.57475775 142.72939 -16.520603 -128.99931
42112500000 -17.633209 -103.63371 -0.53543371 142.59172 -0.49708533 142.52646 -17.473825 -134.15988
42140000000 -16.966417 -107.62574 -0.53201073 141.87091 -0.53486627 141.91818 -18.068619 -130.28004
42167500000 -15.953988 -105.02789 -0.56227773 141.46289 -0.60400563 141.77037 -16.42909 -128.97682
42195000000 -16.815577 -100.4096 -0.59632927 141.7908 -0.54021877 141.82501 -17.146696 -135.37439
42222500000 -17.772259 -109.97184 -0.53366393 141.07651 -0.54666221 140.9836 -18.429007 -132.92145
42250000000 -15.20457 -101.06271 -0.53098971 140.21259 -0.51265615 140.43083 -17.395079 -122.98999
42277500000 -16.603878 -99.940758 -0.60906732 140.82362 -0.50229907 140.15277 -16.784817 -136.16917
42305000000 -18.092388 -116.11132 -0.55046254 139.93663 -0.52527404 139.85597 -18.872591 -132.32365
42332500000 -15.384589 -101.00891 -0.56585854 139.45305 -0.50128907 139.51921 -17.862715 -124.61003
42360000000 -16.885799 -103.73932 -0.53267998 139.08986 -0.58231586 139.45207 -16.792631 -134.78865
42387500000 -17.394642 -107.64268 -0.59723186 138.79831 -0.53734273 138.68442 -18.262774 -135.74129
42415000000 -15.787696 -111.10876 -0.51137114 138.72955 -0.51323932 138.36844 -17.777699 -126.89904
42442500000 -16.66017 -93.92601 -0.53118747 137.72218 -0.52809846 137.97478 -16.936598 -130.63409
42470000000 -17.325949 -114.33428 -0.53909028 137.53793 -0.4812535 137.66814 -18.073906 -133.34853
42497500000 -16.219837 -110.66112 -0.5341686 137.38559 -0.44760457 137.00336 -18.458975 -130.67621
42525000000 -15.751712 -96.714874 -0.49586645 136.43649 -0.50394297 136.72351 -17.064955 -129.63457
42552500000 -17.410097 -109.42724 -0.51252449 136.2511 -0.48146549 136.66368 -17.11128 -137.44168
42580000000 -17.314819 -118.86649 -0.55635774 136.14407 -0.46288863 136.21446 -18.525635 -135.4879
42607500000 -16.026291 -93.530197 -0.53442359 135.58263 -0.51621604 135.73795 -17.917023 -135.0687
42635000000 -17.891541 -115.01098 -0.61582863 135.08858 -0.47858533 135.34773 -17.291433 -137.45822
42662500000 -15.666997 -113.31329 -0.48295978 134.98285 -0.5377816 134.79515 -18.66082 -136.06937
42690000000 -16.336306 -101.36424 -0.47944266 134.30936 -0.47583967 134.41603 -17.907257 -134.96472
42717500000 -17.787483 -93.845123 -0.52476281 134.15451 -0.60776985 133.71852 -17.214558 -137.85574
42745000000 -16.262999 -124.82207 -0.54962724 133.59131 -0.51726156 133.97112 -18.367243 -136.27695
42772500000 -16.110409 -102.31842 -0.54744321 133.58336 -0.52482092 133.52939 -18.94087 -134.84959
42800000000 -17.422686 -102.36661 -0.54538417 132.7038 -0.44801006 132.832 -16.941639 -134.07121
42827500000 -17.091002 -126.84068 -0.55891895 132.55568 -0.55747747 132.75885 -18.466919 -141.10149
42855000000 -16.390808 -103.91196 -0.58048517 132.4265 -0.51184148 132.46997 -18.841894 -140.00803
42882500000 -17.603323 -100.28249 -0.55021662 131.97755 -0.52219361 131.99133 -18.363184 -137.5992
42910000000 -18.249826 -120.54223 -0.52391899 131.46361 -0.54028791 131.57385 -18.665932 -139.89497
42937500000 -15.164552 -109.49199 -0.52975428 131.05925 -0.55561042 131.16061 -18.777317 -142.48174
42965000000 -17.846762 -92.364853 -0.52321374 130.51234 -0.52427179 130.8008 -18.351868 -138.5927
42992500000 -17.867485 -119.26367 -0.60849792 130.44209 -0.61680502 130.44977 -17.797544 -140.07246
43020000000 -15.184587 -110.96766 -0.47065416 129.948 -0.53412789 129.55815 -19.078629 -139.06842
43047500000 -18.083559 -93.64959 -0.57642168 129.01186 -0.49623963 129.82756 -18.519108 -140.05295
43075000000 -17.706106 -118.64667 -0.49958801 129.3987 -0.49852812 128.98059 -17.344238 -144.59477
43102500000 -16.711662 -119.66077 -0.59063381 129.02399 -0.55702662 128.61311 -19.585394 -143.94864
43130000000 -17.134691 -92.679253 -0.6063844 128.67319 -0.51345319 128.48895 -18.82114 -141.83177
43157500000 -18.010384 -116.80503 -0.49292052 128.13701 -0.54950327 128.26463 -17.861288 -142.16885
43185000000 -16.7612 -109.73352 -0.55004412 127.82332 -0.50498325 127.76261 -19.690756 -140.61671
43212500000 -15.49907 -101.22879 -0.58990192 127.49828 -0.48226956 127.26254 -19.314047 -146.44145
43240000000 -20.75523 -104.58233 -0.55249316 126.65 -0.52526468 126.53848 -17.974159 -143.29837
43267500000 -15.488362 -117.42651 -0.5836913 126.25137 -0.50760049 126.04676 -19.954329 -149.90639
43295000000 -16.979332 -110.41122 -0.49954852 126.40693 -0.51266634 126.34634 -20.499964 -146.84808
43322500000 -17.689552 -91.92807 -0.55048341 125.52951 -0.50285822 126.03927 -18.873842 -145.25206
43350000000 -16.729738 -128.35718 -0.59656507 125.15319 -0.46905422 125.17084 -19.392517 -146.10056
43377500000 -16.301701 -104.69283 -0.5292291 124.84671 -0.54324156 124.64021 -19.72283 -146.70322
43405000000 -17.993422 -102.21832 -0.49831676 124.46243 -0.58443958 124.88 -18.957779 -142.29781
43432500000 -17.446596 -123.86259 -0.59709227 124.01706 -0.56478232 124.38314 -19.060877 -151.33365
43460000000 -15.02996 -105.66654 -0.5145762 123.51141 -0.51207882 124.32333 -20.644554 -147.22116
43487500000 -18.90786 -98.676987 -0.49173236 122.94268 -0.49138334 123.36943 -19.04702 -146.54727
43515000000 -18.818729 -109.53455 -0.49678233 123.34446 -0.5353933 123.08804 -19.522881 -147.17326
43542500000 -15.652687 -116.6874 -0.52970839 122.23882 -0.58431488 122.98921 -20.156351 -151.34065
43570000000 -19.171162 -96.73835 -0.59838802 122.23798 -0.51999825 122.17826 -20.853424 -146.15227
43597500000 -17.709581 -109.55479 -0.51746452 122.3446 -0.49337521 121.94176 -18.813841 -152.51944
43625000000 -16.300819 -116.14029 -0.45293298 121.74757 -0.55858511 121.59141 -21.374332 -152.77603
43652500000 -17.139023 -95.637932 -0.55467206 120.99732 -0.45854673 121.01796 -20.521999 -140.11528
43680000000 -18.869091 -108.35739 -0.51273072 120.90437 -0.50901854 120.88555 -18.980869 -152.09061
43707500000 -16.874796 -120.38781 -0.49239278 120.34317 -0.52891505 120.03633 -20.81995 -147.39417
43735000000 -15.842767 -106.4103 -0.55521214 120.30769 -0.5282923 120.24612 -21.033892 -151.90239
43762500000 -21.402748 -92.973366 -0.51945555 119.55052 -0.52034551 119.65287 -20.57122 -146.58473
43790000000 -15.864495 -117.84418 -0.55173331 119.05466 -0.55246907 119.48653 -19.54512 -155.9686
43817500000 -16.207203 -106.02509 -0.52760124 118.82968 -0.5135811 118.72612 -21.42016 -145.68082
43845000000 -19.703489 -98.549416 -0.46366334 118.79892 -0.44433126 118.1258 -19.751705 -145.79935
43872500000 -17.013531 -117.54793 -0.57701176 118.11027 -0.52897 118.22758 -20.717932 -164.79733
43900000000 -16.35169 -108.5288 -0.55847883 117.39501 -0.53456324 117.98577 -22.669718 -150.86002
43927500000 -18.73045 -102.54057 -0.50971651 116.74895 -0.52227479 117.62098 -21.258074 -147.85294
43955000000 -18.725309 -113.22919 -0.53313327 116.94429 -0.47403342 117.16269 -20.529285 -157.76559
43982500000 -15.964929 -108.37792 -0.54651308 116.43166 -0.54233342 116.4487 -22.868778 -162.62477
44010000000 -17.820816 -109.92336 -0.45377663 116.42937 -0.57799691 116.23991 -21.047783 -148.98672
44037500000 -19.36981 -110.485 -0.50521708 116.02971 -0.53190428 115.88879 -20.122837 -158.28479
44065000000 -15.693354 -111.49361 -0.51070142 116.21548 -0.64848924 115.29596 -22.194984 -166.70616
44092500000 -18.724884 -108.34893 -0.50942051 115.17995 -0.48988092 115.62023 -22.21167 -152.78368
44120000000 -21.155102 -107.44584 -0.46849334 114.94269 -0.50821239 114.46581 -19.900724 -154.66362
44147500000 -16.832804 -118.99316 -0.52889109 114.15633 -0.63177431 114.36649 -22.493532 -174.75165
44175000000 -17.533447 -101.04852 -0.5232234 113.49291 -0.48520947 113.77917 -23.18091 -154.69196
44202500000 -20.682713 -108.85472 -0.51430196 113.25298 -0.43351778 113.38653 -20.884462 -150.28369
44230000000 -16.737997 -104.34348 -0.52805495 112.94905 -0.54383153 113.26292 -21.708595 -159.89337
44257500000 -16.870895 -103.41453 -0.51525843 113.3082 -0.54254872 112.56391 -24.936939 -161.77281
44285000000 -20.091639 -106.77998 -0.42314374 112.39915 -0.52056843 112.78989 -23.303297 -138.80264
44312500000 -18.477104 -101.65965 -0.49488029 111.94453 -0.47289747 112.48698 -21.649881 -157.78967
44340000000 -15.435641 -108.8601 -0.52603686 111.89833 -0.52189642 111.69034 -23.325186 -157.19958
44367500000 -22.861256 -101.14114 -0.48567203 111.0331 -0.42057493 111.13555 -24.901152 -144.54401
44395000000 -18.440979 -111.82504 -0.54841524 110.52872 -0.49223769 110.82074 -21.601608 -159.87892
44422500000 -15.912541 -103.27092 -0.57119739 110.12376 -0.487831 109.9249 -24.414261 -164.2888
44450000000 -21.215424 -112.79545 -0.49152914 110.24064 -0.46544054 110.16017 -25.053034 -157.61501
44477500000 -19.393429 -116.67422 -0.54851192 109.47182 -0.43899676 109.74861 -22.566902 -153.99196
44505000000 -17.231743 -102.88531 -0.5365662 109.18974 -0.59787405 109.30785 -23.292749 177.53662
44532500000 -19.099716 -107.19736 -0.56005436 108.71882 -0.49479181 109.49924 -25.320301 -155.09169
44560000000 -19.808624 -123.47971 -0.54145133 108.62553 -0.52988619 108.36974 -23.219204 -152.78163
44587500000 -16.722998 -96.927208 -0.48334545 108.16064 -0.5318504 107.61033 -22.732506 -167.85309
44615000000 -17.656179 -104.12277 -0.55269247 108.04974 -0.59037399 108.32147 -27.366789 -159.11841
44642500000 -20.857677 -111.2542 -0.4738059 107.55083 -0.53012395 107.3214 -24.865845 -140.40388
44670000000 -17.709188 -100.08364 -0.54149061 106.76675 -0.55349457 107.14627 -23.810013 -166.26982
44697500000 -17.053226 -97.775146 -0.50009543 106.5252 -0.5209595 106.60009 -26.45479 -166.31047
44725000000 -20.894957 -113.55212 -0.50806952 106.14458 -0.50510454 106.55485 -25.654739 -139.61232
44752500000 -18.01111 -105.93549 -0.49899387 105.44477 -0.48551571 106.06507 -24.367599 -171.00157
44780000000 -19.261381 -93.826546 -0.54589838 105.43399 -0.55328053 105.42728 -25.715166 176.41008
44807500000 -18.22484 -114.87825 -0.56998765 104.75829 -0.56782728 105.75072 -27.214212 -146.94832
44835000000 -20.968594 -115.79199 -0.52400339 104.77312 -0.57110471 104.71791 -23.849319 -162.89041
44862500000 -17.098469 -96.742722 -0.55344224 104.32786 -0.56593311 104.43359 -25.01795 171.00957
44890000000 -19.040073 -116.66125 -0.53270221 104.31954 -0.51522028 103.86993 -28.376701 -150.95908
44917500000 -19.676271 -111.70056 -0.52481455 103.29718 -0.49327952 103.89258 -24.03179 -147.21022
44945000000 -17.663174 -98.357399 -0.55965185 103.07632 -0.48679048 102.98561 -25.861057 178.61786
44972500000 -18.689939 -101.15163 -0.5296253 102.94215 -0.54831773 103.14008 -30.173927 -140.76192
45000000000 -20.495501 -117.01987 -0.53604138 102.70574 -0.57573831 102.77967 -25.781067 -148.73083
