!Keysight Technologies,N5224A,MY55441802,A.10.65.16
!Date: Wednesday, May 13, 2026 18:18:13
!Correction: S11(Full 2 Port(1,2)) 
!S21(Full 2 Port(1,2)) 
!S12(Full 2 Port(1,2)) 
!S22(Full 2 Port(1,2)) 
!S2P File: Measurements: S11, S21, S12, S22:
# Hz S  dB   R 50
1000000000 -0.39062637 -86.12989 -6.2770882 -17.09827 5.7793398 -15.642875 -8.4549236 -85.037468
1100000000 0.36772868 155.71535 -11.514355 33.879761 -1.3598467 10.872078 -7.5159631 51.729103
1200000000 1.4597143 1.1423827 -15.340841 -139.60655 -14.915767 -72.17289 -0.88838989 -28.258492
1300000000 8.2072601 -81.148781 -0.49735713 -29.936647 9.4934511 -27.565601 -14.998564 -42.23597
1400000000 1.6624215 166.61261 -10.045629 52.20488 -2.468008 11.761358 -6.1452627 39.430317
1500000000 3.1987185 -0.81052327 -9.8619308 -159.8166 -11.436501 -124.13549 -1.0550792 -30.973915
1600000000 14.752847 -59.366989 5.5070434 -21.951897 13.435033 -18.969828 -3.5161078 31.02759
1700000000 3.2560048 172.43626 -7.3273644 75.470856 -3.8425715 19.549643 -3.9548316 38.581032
1800000000 6.0914865 -4.8141813 -5.0546169 -177.09428 -5.3438544 -164.90523 0.13825566 -36.349865
1900000000 14.032858 -30.085798 6.560338 1.9719567 11.973837 2.0484416 0.11119962 71.235054
2000000000 5.9494667 174.97234 -2.2846887 89.789597 -4.3747435 41.110577 -1.5585941 37.469093
2100000000 10.509626 -4.7046533 2.2742572 179.08887 2.5766273 178.47754 2.8988278 -33.582951
2200000000 13.41398 -31.04541 7.2271595 0.37892875 11.297598 -2.3129935 1.243921 64.914856
2300000000 9.7694769 173.15883 4.2178702 101.23103 -1.2710197 72.977814 1.8247125 38.212154
2400000000 13.774508 13.068543 7.2786584 -163.84981 8.1713505 -165.97246 5.2560492 -18.353737
2500000000 10.732223 -59.406956 7.3075061 -24.891939 9.6878862 -28.446619 -0.27298576 32.947529
2600000000 15.690477 -154.0433 11.618382 141.89682 6.6410747 134.07501 7.2660055 62.888565
2700000000 13.073483 94.163445 9.6975679 -85.158295 11.119294 -88.778915 2.8276463 68.364624
2800000000 10.387609 -77.876175 7.8110023 -39.453598 9.5889826 -43.47411 0.13479432 10.918941
2900000000 13.699307 -36.542393 12.582357 -95.687881 10.196898 -96.927361 5.2779613 -174.58659
3000000000 9.9553604 97.127739 7.5200686 -83.411682 9.05583 -84.570648 -0.71191347 69.956314
3100000000 6.1159906 -110.75719 6.0007052 -61.726345 6.897378 -66.282425 -3.3202631 -19.631409
3200000000 8.7374706 -35.394176 8.8738079 -92.350464 7.2098298 -88.429077 0.45614412 -166.88937
3300000000 4.3321676 94.43824 4.3670235 -82.373299 5.4883084 -81.676598 -7.6349254 68.52652
3400000000 4.4524341 -108.67066 5.0918622 -65.466721 5.6269679 -67.720299 -5.3968568 -19.756893
3500000000 3.7739024 -49.706059 5.0228224 -96.439957 3.921716 -88.961128 -6.4030967 -169.22894
3600000000 3.8654611 95.764038 4.2019472 -85.957748 5.1471767 -85.048317 -8.5718527 66.650627
3700000000 2.8937585 -134.78957 4.5186663 -80.32444 4.6395049 -82.246658 -6.8259578 -40.519653
3800000000 1.0919663 -44.994587 3.8824117 -94.755074 2.6676514 -89.022186 -9.7580099 -164.1102
3900000000 1.0691551 95.527252 3.0196848 -86.934967 3.6995699 -86.390923 -13.268265 74.014397
4000000000 1.796178 -144.92989 4.0075397 -90.064583 3.9814389 -92.466156 -7.8823261 -60.345131
4100000000 0.94445544 -56.056782 3.8050542 -100.05402 2.6883209 -96.801407 -9.8383083 -164.76974
4200000000 -2.4205108 71.572685 1.7718755 -96.88253 2.2072213 -98.24202 -17.839909 36.833515
4300000000 -1.5650411 -159.77641 2.748853 -97.767517 2.5810494 -99.494598 -10.935123 -75.55764
4400000000 -3.1829948 -57.225769 2.3320622 -102.17535 1.6058384 -100.66554 -13.705133 -172.23962
4500000000 -4.2190051 74.505547 1.4367514 -98.813751 1.959134 -98.676132 -21.850185 61.315388
4600000000 -3.2432103 -161.93195 2.0861802 -103.3861 2.0329139 -105.16843 -12.433978 -91.712463
4700000000 -4.2307124 -69.776199 1.8667295 -106.67898 1.5432715 -106.31071 -14.328436 -170.58714
4800000000 -5.4917974 65.881454 1.0055504 -106.02899 1.553889 -105.66637 -25.068958 31.328049
4900000000 -5.4604621 -176.57552 1.5231131 -109.23235 1.4224205 -110.11081 -14.375564 -99.623512
5000000000 -5.915432 -75.127975 1.2621753 -113.29256 1.1017976 -111.81357 -16.49757 173.8398
5100000000 -7.5161376 54.552155 0.88817298 -112.18997 1.2369601 -109.66552 -25.671015 46.811256
5200000000 -6.4348707 174.39978 1.0875003 -115.60612 1.0558789 -116.1327 -15.55535 -114.33221
5300000000 -6.8886294 -87.920547 0.96557933 -118.87216 0.87865698 -118.15942 -17.026688 171.63885
5400000000 -9.2397547 52.105175 0.52838838 -117.42778 0.91428196 -116.28033 -30.740194 34.999584
5500000000 -6.9654541 159.48694 1.0543127 -121.08292 0.95705032 -121.26472 -16.571577 -112.12024
5600000000 -8.9680443 -84.7211 0.64920557 -123.08031 0.6131739 -122.49147 -18.789053 170.28632
5700000000 -6.7963395 27.022715 0.84556282 -127.94245 1.1812164 -126.0512 -23.355885 11.201803
5800000000 -9.8068771 155.76732 0.45856178 -125.63178 0.45715153 -125.65155 -19.414131 -126.18774
5900000000 -9.3533163 -99.643135 0.4712905 -129.5974 0.53771067 -129.32837 -19.129566 166.17157
6000000000 -10.793455 27.036751 0.20972322 -131.34209 0.51796311 -130.32849 -34.413055 -17.253874
6100000000 -9.0102911 147.32732 0.68091327 -131.63246 0.65769655 -131.99895 -19.611492 -124.27965
6200000000 -12.300261 -106.19448 0.14349173 -134.25391 0.20144112 -134.24742 -20.12204 167.95647
6300000000 -10.895953 25.809074 0.29690275 -136.96594 0.43243539 -135.97362 -38.367023 10.124472
6400000000 -10.504534 137.09499 0.3111355 -139.04982 0.31603178 -139.37036 -21.885509 -142.8279
6500000000 -12.993649 -117.72694 0.0040176362 -139.34253 0.029297791 -139.66312 -21.565887 152.0136
6600000000 -14.457836 23.71801 -0.12383316 -141.72453 -0.031263061 -141.39536 -33.462326 166.88972
6700000000 -11.148838 131.09502 0.20634665 -143.82373 0.28606561 -144.25108 -20.277014 -143.48189
6800000000 -13.983186 -123.69959 0.012558659 -144.95776 0.092931449 -145.53923 -22.114422 164.6572
6900000000 -14.114898 8.3377934 -0.13251068 -148.17537 -0.030271739 -148.29425 -33.747143 148.83267
7000000000 -13.341858 121.88033 -0.063175343 -150.0732 0.025906723 -150.51839 -21.038097 -171.99489
7100000000 -15.164845 -130.59346 0.0095335236 -151.11922 0.07604412 -151.60657 -21.004839 154.35284
7200000000 -15.334313 9.8320656 -0.20213272 -153.64629 -0.085316561 -153.38132 -30.918068 135.15019
7300000000 -11.857355 110.58478 -0.032113973 -157.32478 0.088716842 -157.63483 -20.798321 178.92274
7400000000 -15.915895 -136.03351 -0.091847777 -157.5457 0.026531277 -158.12263 -21.321081 140.35471
7500000000 -14.932828 -10.846843 -0.15206149 -160.56386 -0.049609363 -159.98547 -31.436056 106.59475
7600000000 -14.674602 103.56943 -0.33473259 -161.8821 -0.22828321 -162.38681 -22.906015 161.86594
7700000000 -15.275974 -147.68163 -0.04897188 -164.38423 0.058612645 -165.03241 -20.837393 129.50664
7800000000 -15.907469 -2.9286339 -0.15845342 -165.41173 -0.11376264 -165.12215 -27.96743 97.309319
7900000000 -13.529708 98.859734 -0.28238031 -168.27531 -0.16598423 -168.63951 -23.307177 156.9201
8000000000 -16.99424 -156.6145 -0.22114687 -171.02893 -0.13080879 -171.50699 -21.973074 115.20144
8100000000 -14.928651 -9.9961777 -0.084909119 -172.077 -0.026328346 -171.73459 -27.534002 75.238678
8200000000 -15.085433 89.091141 -0.43698117 -173.70691 -0.31520435 -174.18958 -25.221069 142.01019
8300000000 -17.268196 -148.93581 -0.1981203 -176.56865 -0.082143508 -177.19623 -22.083483 110.09184
8400000000 -15.896648 -18.09436 -0.20587917 -178.48619 -0.12871155 -178.5199 -28.642132 72.827927
8500000000 -15.164529 77.98423 -0.42066696 -179.79172 -0.34093997 179.66539 -26.025297 132.13054
8600000000 -20.684238 -166.89015 -0.41160884 177.6441 -0.33087453 177.14189 -23.714788 103.42214
8700000000 -16.974525 -16.218758 -0.2926726 175.74953 -0.2101806 175.75967 -27.977987 69.482895
8800000000 -15.291083 71.618927 -0.42390969 174.08524 -0.31776318 173.72403 -26.829525 123.55556
8900000000 -21.449284 -177.5779 -0.4930084 171.71118 -0.37903813 171.17943 -24.395838 97.682159
9000000000 -16.915977 -26.146681 -0.37751806 169.18391 -0.28649932 168.83727 -29.649014 66.478569
9100000000 -15.700751 57.76453 -0.42826355 167.81174 -0.35258347 167.29108 -27.054501 114.86861
9200000000 -22.064161 165.3689 -0.50826019 165.77406 -0.42477354 165.21651 -24.604452 91.283859
9300000000 -18.315144 -34.329166 -0.47077876 163.21492 -0.40152055 162.94414 -28.934826 64.939873
9400000000 -15.231369 56.734364 -0.38286775 161.44102 -0.30450928 161.16757 -27.140272 109.10677
9500000000 -21.608562 148.29739 -0.5336656 159.35112 -0.43696174 158.87228 -24.827856 82.507523
9600000000 -18.500845 -39.13134 -0.55491018 157.20468 -0.44852611 156.83051 -29.345558 61.37447
9700000000 -15.726573 40.291634 -0.49729145 154.88408 -0.42993325 154.5594 -26.293785 99.79789
9800000000 -24.835224 154.45212 -0.5605821 153.75272 -0.46179372 153.18648 -25.452454 75.329796
9900000000 -17.614643 -41.344391 -0.47701499 151.73433 -0.37433758 151.20668 -27.734961 44.551945
10000000000 -15.585107 38.684212 -0.49747387 148.59641 -0.44530112 148.16908 -26.522524 91.198845
10100000000 -21.66876 143.80597 -0.43939891 147.12032 -0.37241095 146.5425 -24.668911 69.247826
10200000000 -18.703915 -56.107292 -0.54380953 145.27721 -0.46655321 144.69119 -28.300989 36.607651
10300000000 -17.94384 29.631605 -0.6123991 143.03883 -0.56167734 142.77359 -27.59129 71.491379
10400000000 -24.414469 156.24236 -0.50122416 140.91356 -0.39776927 140.55795 -25.437498 55.843792
10500000000 -18.916786 -61.095844 -0.52096313 139.7175 -0.39007917 138.96956 -26.906569 26.36095
10600000000 -17.604454 25.954212 -0.625983 136.9426 -0.55214757 136.41608 -28.091709 58.664654
10700000000 -24.376942 135.08667 -0.55005735 134.66905 -0.45695147 134.03377 -26.302568 44.810848
10800000000 -19.801771 -66.078178 -0.51861435 133.37857 -0.43137914 132.50021 -27.419537 13.970325
10900000000 -18.729588 8.9290247 -0.59964836 130.92523 -0.56441206 130.73956 -29.44034 42.898239
11000000000 -26.357302 149.29561 -0.57552803 128.51765 -0.47958568 128.21349 -27.341305 32.237247
11100000000 -18.897989 -80.745056 -0.49069503 126.62578 -0.36055085 125.87005 -27.903191 -3.3100851
11200000000 -18.324102 0.074670076 -0.58500642 124.63891 -0.54400378 124.36309 -30.224136 32.046894
11300000000 -27.300083 100.08994 -0.71290684 122.42715 -0.61788994 121.99431 -29.450684 21.515427
11400000000 -19.861963 -80.50679 -0.51724982 120.57748 -0.43177715 119.79511 -28.87162 -12.132761
11500000000 -17.706553 -9.7953825 -0.46231103 118.33191 -0.48258466 118.06635 -32.686161 17.245779
11600000000 -26.916031 110.20304 -0.67918873 116.25652 -0.59101683 115.80873 -30.094934 10.430518
11700000000 -18.777992 -97.053856 -0.49450761 113.87038 -0.40540871 113.06079 -29.312716 -31.270563
11800000000 -17.5352 -18.516794 -0.44411781 111.43291 -0.45734981 111.34501 -34.719227 21.493431
11900000000 -25.591465 86.717644 -0.70003772 109.97225 -0.61013967 109.63223 -31.530716 3.5956516
12000000000 -20.360678 -100.15566 -0.59279215 107.65221 -0.50708687 106.95177 -30.765623 -36.90028
12100000000 -17.038761 -23.432611 -0.42133346 104.93959 -0.37954485 104.77554 -38.878334 16.79796
12200000000 -25.769627 89.544022 -0.67236352 103.81195 -0.5814538 103.35497 -32.401447 -9.3138418
12300000000 -20.431532 -115.65952 -0.61082143 101.74941 -0.51155019 100.73775 -30.862703 -46.43977
12400000000 -18.640522 -32.771709 -0.49807033 98.462563 -0.4845733 98.287903 -38.845821 19.234621
12500000000 -27.060301 77.667587 -0.66364521 97.315948 -0.59664464 97.196457 -33.571095 -17.154375
12600000000 -20.384678 -117.77595 -0.63912553 95.241364 -0.52952087 94.510056 -31.193575 -58.668621
12700000000 -19.410387 -35.790787 -0.54014027 92.285225 -0.51074064 92.16507 -39.251369 -14.826515
12800000000 -26.168665 74.894363 -0.6872741 90.938454 -0.58981985 90.574036 -34.092247 -38.447773
12900000000 -22.741472 -137.95425 -0.70684278 89.409576 -0.60128754 88.551704 -31.739153 -70.168846
13000000000 -21.392345 -51.016922 -0.68679011 86.368019 -0.62702006 85.779808 -37.72084 -47.256962
13100000000 -28.229982 71.013809 -0.69994652 84.50647 -0.61751956 84.379868 -34.345524 -56.042702
13200000000 -22.426531 -143.46843 -0.66801876 83.123413 -0.57126689 82.337868 -30.649763 -80.788666
13300000000 -21.268105 -65.04763 -0.67791587 79.830635 -0.65966576 79.38974 -35.871414 -66.967834
13400000000 -26.920624 55.691044 -0.74369824 77.919106 -0.6718303 77.645836 -31.628052 -79.974327
13500000000 -22.912062 -166.23422 -0.70571399 76.653275 -0.61436182 75.991699 -28.950949 -101.78683
13600000000 -22.884558 -76.935089 -0.75062805 74.369057 -0.69272959 73.71534 -31.431505 -112.19534
13700000000 -26.856955 63.534462 -0.76757014 71.758209 -0.69448626 71.498848 -31.006905 -117.4082
13800000000 -21.155624 -176.51613 -0.68277067 70.217163 -0.57043165 69.520569 -28.546141 -127.99573
13900000000 -22.191435 -93.288315 -0.64538074 68.131165 -0.66436028 67.370682 -31.433992 -137.19873
14000000000 -28.699644 58.033855 -0.79929399 65.511047 -0.76558793 65.341469 -30.777016 -136.21074
14100000000 -21.930546 179.93944 -0.6678021 63.919945 -0.56427813 63.345402 -28.109692 -138.50554
14200000000 -22.778357 -99.585686 -0.63495177 61.68766 -0.629848 61.00938 -29.988955 -154.64182
14300000000 -27.844761 76.815468 -0.82762378 59.410858 -0.76205575 59.131229 -30.10228 -153.00696
14400000000 -19.899254 167.9407 -0.69122201 57.010551 -0.55942065 56.29203 -26.7463 -155.79454
14500000000 -24.017487 -118.0781 -0.66477621 55.269886 -0.66340637 54.638168 -29.203335 -168.99925
14600000000 -28.801455 71.121834 -0.81355453 53.178741 -0.80102623 52.975456 -29.106543 -165.42841
14700000000 -21.828028 163.87416 -0.76442873 51.202053 -0.66236383 50.497395 -26.517866 -166.77205
14800000000 -24.127113 -123.2724 -0.65275252 48.937275 -0.63228148 48.116795 -26.898319 176.12111
14900000000 -29.451811 77.748573 -0.85411555 47.015858 -0.80680758 46.89764 -27.915249 176.44658
15000000000 -21.236689 148.38147 -0.83264029 44.642941 -0.72356623 43.894402 -26.153637 173.81352
15100000000 -26.106972 -154.04698 -0.72837532 42.328133 -0.71746659 41.81189 -26.81885 161.87927
15200000000 -29.235313 77.811485 -0.84905654 40.764206 -0.83388984 40.630047 -27.669395 166.43567
15300000000 -22.427206 135.36948 -0.89293277 38.811642 -0.80808389 38.137764 -25.939709 165.50548
15400000000 -26.372004 -155.15501 -0.76177442 35.989437 -0.71849054 35.304569 -26.050322 150.45947
15500000000 -31.110649 64.470451 -0.83555168 34.305729 -0.83193833 34.220364 -27.224541 152.48129
15600000000 -21.546915 124.96561 -0.93740851 32.470531 -0.84654999 31.856987 -25.384722 153.75102
15700000000 -25.951181 169.65498 -0.84720021 29.915197 -0.82312405 29.335447 -25.988125 146.53749
15800000000 -27.735788 64.266304 -0.87883639 28.111729 -0.84163523 28.070585 -26.487787 146.25267
15900000000 -20.820318 113.7948 -0.95205384 26.740517 -0.8675589 26.062769 -24.638569 148.42007
16000000000 -26.775389 171.00308 -0.91207236 23.806551 -0.87234116 22.94936 -25.61162 141.12859
16100000000 -26.799234 56.077271 -0.87057137 22.033434 -0.83261842 21.779833 -25.480158 136.40805
16200000000 -19.976423 104.72555 -0.94067508 20.385017 -0.87072498 19.837204 -23.776138 139.70973
16300000000 -25.884518 147.06403 -0.9082728 18.045904 -0.89068675 17.340267 -24.552937 135.87793
16400000000 -23.92638 53.45203 -0.87428635 15.629872 -0.83165497 15.55565 -24.758062 131.51854
16500000000 -19.931997 97.023499 -0.92726779 14.502994 -0.84531409 14.001938 -22.893631 133.58839
16600000000 -27.097155 141.78947 -0.92541301 11.894697 -0.88136005 11.067152 -23.711937 127.0715
16700000000 -25.307329 51.812893 -0.916403 9.716918 -0.87523937 9.3431406 -23.605766 122.36101
16800000000 -19.61817 91.339455 -0.90450531 8.2437277 -0.83824569 7.6400805 -22.235363 125.4757
16900000000 -25.213057 113.39597 -0.91804445 6.2035909 -0.88888019 5.4534202 -22.906166 121.08666
17000000000 -22.9217 49.848801 -0.8986311 3.4626734 -0.86957216 3.1433742 -22.938284 116.14219
17100000000 -19.813486 80.967239 -0.90207958 1.9186249 -0.84731233 1.4196873 -21.67848 117.48457
17200000000 -24.809675 105.09629 -0.91369414 -0.26794538 -0.88325721 -0.91823238 -22.357243 112.51167
17300000000 -24.423382 53.404152 -0.93252754 -2.409059 -0.90080583 -2.8227048 -22.21225 107.15596
17400000000 -19.895693 74.478859 -0.92478931 -4.4266491 -0.86421901 -4.9247837 -21.168304 109.08569
17500000000 -23.531862 92.413773 -0.89885688 -6.3287821 -0.85220122 -6.9642782 -21.770369 105.83998
17600000000 -22.758766 46.893311 -0.91528511 -8.5938025 -0.88670063 -9.0534115 -21.796459 98.587852
17700000000 -19.157682 63.222321 -0.91019017 -10.756589 -0.87962449 -11.30639 -20.850559 100.54025
17800000000 -23.383516 88.642494 -0.88840139 -12.889537 -0.85776705 -13.490693 -21.491501 95.998764
17900000000 -23.819372 39.791637 -0.90196258 -14.822339 -0.87619799 -15.254635 -21.585983 88.523361
18000000000 -19.249304 60.480656 -0.93632144 -17.160627 -0.89950216 -17.559669 -20.635088 91.821243
18100000000 -22.965538 80.333733 -0.90098524 -19.146683 -0.83435386 -19.657795 -21.301878 89.846336
18200000000 -22.80443 29.953201 -0.90475476 -21.089468 -0.86127591 -21.673624 -21.130627 81.983147
18300000000 -18.764194 50.76189 -0.92014939 -23.181253 -0.89220858 -23.687746 -20.287949 83.690399
18400000000 -24.02462 74.82196 -0.89348602 -25.535984 -0.84180963 -26.173092 -21.164204 79.206848
18500000000 -22.766319 23.816513 -0.85203421 -27.260023 -0.8414222 -27.879702 -20.994038 71.627007
18600000000 -18.956825 46.399639 -0.91935539 -29.562445 -0.91299957 -30.003113 -20.394127 77.083733
18700000000 -23.377218 65.352615 -0.91311252 -31.885017 -0.8589837 -32.331249 -21.311771 73.092018
18800000000 -21.696585 14.765684 -0.86223286 -33.901867 -0.83407992 -34.410442 -20.896402 66.691696
18900000000 -18.621897 36.630676 -0.90566564 -35.938873 -0.91065359 -36.294514 -20.097368 70.519867
19000000000 -23.048388 48.371494 -0.9449296 -38.07642 -0.89307725 -38.550102 -20.921459 64.706711
19100000000 -21.902056 12.426944 -0.85751867 -40.060097 -0.84506226 -40.697842 -20.746096 57.178921
19200000000 -18.972679 30.209576 -0.90103394 -42.238087 -0.91615707 -42.688148 -20.457951 62.825222
19300000000 -22.497526 39.810169 -0.96892142 -44.341454 -0.91476363 -44.795326 -21.090401 59.860504
19400000000 -21.765047 3.9390666 -0.90823901 -46.761189 -0.86454087 -47.265827 -20.920256 54.434551
19500000000 -19.123768 18.051916 -0.92216349 -48.867096 -0.92959839 -49.093323 -20.269493 57.25634
19600000000 -21.948652 32.318642 -0.98718977 -50.744556 -0.94401288 -51.05986 -20.74472 51.619606
19700000000 -22.430616 0.92840022 -0.94366187 -52.917393 -0.90506601 -53.465866 -20.767582 45.442383
19800000000 -19.260393 11.249934 -0.96583223 -55.204479 -0.96324342 -55.491699 -20.440891 48.391064
19900000000 -21.956417 26.752592 -1.0187161 -57.009647 -0.96152091 -57.371071 -21.055477 45.204521
20000000000 -23.099318 -8.4054909 -1.0184659 -59.229668 -0.95686346 -59.922249 -21.001169 40.720425
20100000000 -19.311943 1.7087902 -0.99029672 -61.592026 -0.99347883 -61.791054 -20.406002 41.256161
20200000000 -22.197809 21.955917 -1.0465058 -63.459274 -0.98852539 -63.649948 -21.029461 36.87056
20300000000 -23.406851 -14.628315 -1.0366654 -65.269958 -0.98200154 -65.903687 -21.035992 28.921873
20400000000 -19.034908 -2.8766818 -1.0509423 -67.854034 -1.0364773 -68.114967 -20.754509 30.497765
20500000000 -22.329542 14.799676 -1.1140072 -69.480148 -1.0310638 -69.811523 -21.834801 26.815435
20600000000 -23.398886 -29.025757 -1.0999856 -71.348099 -1.0031395 -72.176186 -21.98844 20.445965
20700000000 -19.733913 -13.740151 -1.0568075 -73.532501 -1.055869 -74.01709 -21.813646 23.298229
20800000000 -24.715225 10.760735 -1.0670477 -75.529503 -1.0088118 -75.841179 -22.646812 23.082838
20900000000 -24.836409 -32.593445 -1.0236895 -77.264671 -0.96708417 -78.162949 -22.341984 16.586809
21000000000 -20.638634 -15.599384 -1.0494701 -79.72319 -1.0485948 -80.305191 -22.103107 17.942116
21100000000 -23.830746 3.6076696 -1.0961533 -81.830704 -1.040511 -82.246246 -22.872463 14.289299
21200000000 -24.170376 -41.790138 -1.0647532 -83.804276 -0.9945941 -84.717293 -22.841965 8.4733496
21300000000 -20.913469 -26.509058 -1.0791012 -86.112122 -1.0888013 -86.59343 -22.665625 9.4809103
21400000000 -24.924049 -12.77626 -1.1264672 -88.115166 -1.0729798 -88.45356 -23.51631 6.340734
21500000000 -24.986475 -50.260963 -1.0625565 -89.807526 -1.0253875 -90.806427 -23.416656 -1.0306896
21600000000 -21.789036 -38.101955 -1.06745 -92.013885 -1.1051799 -92.732269 -23.581186 -0.16040325
21700000000 -25.468893 -18.638142 -1.1374115 -94.202133 -1.1111901 -94.618034 -24.149605 -1.0392268
21800000000 -26.751835 -65.683159 -1.1091284 -96.362076 -1.0631292 -97.149574 -24.594738 -7.6558833
21900000000 -23.043282 -52.805466 -1.0968634 -98.497589 -1.1278782 -98.880501 -24.377991 -8.8458891
22000000000 -26.92481 -27.642797 -1.1564975 -100.38215 -1.1539714 -100.53306 -24.811352 -11.500901
22100000000 -28.481478 -82.4058 -1.1265528 -102.2381 -1.0871614 -102.99049 -26.284819 -21.132938
22200000000 -23.433748 -59.629601 -1.0473912 -104.43884 -1.0805687 -104.94389 -26.563709 -19.241566
22300000000 -28.024841 -22.591782 -1.1084408 -106.34556 -1.109907 -106.63232 -27.554953 -12.859139
22400000000 -30.763271 -103.27618 -1.1265841 -108.97566 -1.0859768 -109.74311 -28.435911 -14.893465
22500000000 -24.522846 -71.073883 -1.0875069 -111.13281 -1.1120112 -111.39287 -26.805635 -17.756069
22600000000 -31.262484 -33.307274 -1.1612188 -113.04762 -1.1462208 -112.93224 -27.883421 -15.449203
22700000000 -29.961298 -121.8938 -1.1990622 -114.98607 -1.1379247 -115.56284 -29.50444 -26.763186
22800000000 -24.674206 -75.639297 -1.129926 -117.25725 -1.1219813 -117.54581 -28.148745 -26.072439
22900000000 -31.814167 -36.801888 -1.1509303 -118.90708 -1.1421709 -118.91174 -30.34399 -23.748009
23000000000 -30.511532 -131.77074 -1.1700011 -121.01646 -1.1204774 -121.75937 -31.37648 -36.287819
23100000000 -27.076656 -88.012573 -1.1674302 -123.24945 -1.1392711 -123.7711 -30.305559 -38.569939
23200000000 -40.09264 -52.296265 -1.1749612 -125.07624 -1.1354918 -125.20272 -33.37986 -34.883659
23300000000 -30.176363 -151.82622 -1.2342834 -126.97516 -1.1554856 -127.59493 -34.985081 -59.092175
23400000000 -28.898214 -104.36174 -1.1830243 -129.4109 -1.1733354 -129.88919 -33.20887 -53.380375
23500000000 -41.217178 -100.92807 -1.2092577 -131.22499 -1.1683502 -131.34378 -36.707588 -61.101185
23600000000 -31.057274 -174.56773 -1.2151928 -132.80016 -1.1600507 -133.4946 -37.465401 -111.80644
23700000000 -31.731783 -134.43823 -1.1676513 -135.08536 -1.161518 -135.88084 -37.43042 -110.87534
23800000000 -40.703106 154.59213 -1.1964583 -136.97575 -1.1401298 -137.42734 -40.745552 -162.91681
23900000000 -29.976137 151.47585 -1.1671293 -138.84952 -1.122869 -139.68976 -35.386478 173.976
24000000000 -30.610184 -175.95761 -1.1593345 -141.0746 -1.1698623 -141.84792 -37.532116 -175.50731
24100000000 -36.027058 136.21686 -1.1581405 -143.4584 -1.1327373 -143.67075 -37.182278 150.36749
24200000000 -28.310486 139.00034 -1.1382107 -145.14711 -1.1047711 -145.78432 -32.108414 152.37682
24300000000 -30.331573 161.04135 -1.1201553 -147.27278 -1.1325715 -148.11046 -32.957241 162.50398
24400000000 -32.238369 111.22126 -1.1121413 -149.53517 -1.1185519 -150.06807 -31.665329 136.42621
24500000000 -26.256998 121.43356 -1.1034139 -151.36034 -1.0819925 -152.2562 -28.209362 139.67503
24600000000 -27.932318 142.77153 -1.0789348 -153.66353 -1.105673 -154.38838 -29.708288 138.94849
24700000000 -28.17992 107.27687 -1.0895265 -155.96475 -1.104 -156.29843 -28.750895 119.28386
24800000000 -24.462143 117.59965 -1.0747736 -158.06342 -1.0580133 -158.6364 -26.793331 126.73605
24900000000 -27.112843 128.75378 -1.0550669 -160.28772 -1.0911285 -160.78 -28.444469 124.59884
25000000000 -27.033537 95.042404 -1.0822479 -162.37628 -1.1122946 -162.76871 -26.83247 111.88293
25100000000 -23.542807 105.07214 -1.0957735 -164.50462 -1.0888624 -165.07896 -25.400457 119.87247
25200000000 -25.42177 110.8559 -1.0707759 -166.55922 -1.0940937 -167.12547 -26.304544 115.77023
25300000000 -24.35166 92.763748 -1.0944231 -168.78424 -1.1098633 -169.05911 -25.124712 103.37123
25400000000 -22.295385 98.834686 -1.100346 -170.96562 -1.0889368 -171.4791 -24.214399 108.2952
25500000000 -23.805895 103.53269 -1.0755562 -173.11996 -1.1078638 -173.68216 -25.220739 101.90238
25600000000 -23.753878 85.72599 -1.1053855 -175.25485 -1.1336302 -175.5258 -24.08379 96.480431
25700000000 -21.972773 86.112061 -1.1295543 -177.36191 -1.1341149 -177.72896 -23.309231 100.92877
25800000000 -22.603083 88.814354 -1.117885 -179.50473 -1.1276002 -179.89409 -23.843901 95.812393
25900000000 -22.486204 78.486626 -1.1340032 178.43559 -1.1338024 178.17786 -22.725481 89.760712
26000000000 -20.611156 77.683228 -1.152384 176.2865 -1.151126 175.85127 -22.268482 92.60276
26100000000 -21.426998 83.293335 -1.1485809 174.08626 -1.1678267 173.61963 -22.677279 88.474648
26200000000 -21.881739 71.602234 -1.1556779 171.96205 -1.1770926 171.70389 -21.748337 83.254288
26300000000 -20.232718 68.322502 -1.1843673 169.94615 -1.1898098 169.65315 -21.163799 84.419601
26400000000 -20.796984 72.073807 -1.2020578 167.67828 -1.2011793 167.3018 -21.6105 81.111008
26500000000 -21.200264 57.701965 -1.1956217 165.59442 -1.2049185 165.32918 -20.900616 73.694878
26600000000 -19.406731 59.434662 -1.234136 163.65318 -1.2451103 163.34975 -20.634605 75.537537
26700000000 -20.475937 64.607063 -1.2746602 161.52057 -1.2766439 161.14052 -21.288568 71.619606
26800000000 -20.938818 50.55283 -1.2653012 159.48415 -1.2711998 159.31442 -20.647173 67.321281
26900000000 -19.253395 51.405354 -1.2784613 157.76524 -1.2887247 157.52809 -20.478811 70.068985
27000000000 -20.711142 55.498466 -1.27914 155.62485 -1.2661296 155.33388 -20.8785 65.274818
27100000000 -20.641754 39.808666 -1.2409086 153.49438 -1.2323245 153.36212 -20.42753 63.540417
27200000000 -19.288486 44.940121 -1.2316122 151.478 -1.2618278 151.35814 -20.529684 65.762131
27300000000 -20.528763 52.032639 -1.2505276 149.35422 -1.2423607 148.85837 -20.661581 61.044193
27400000000 -20.692034 39.760021 -1.2439746 147.07492 -1.1468636 146.20786 -19.998198 65.96315
27500000000 -18.773588 42.376316 -1.2638508 144.94968 -1.2219465 144.41116 -19.922155 69.784409
27600000000 -19.59638 45.192703 -1.3076891 142.68303 -1.2504181 142.43356 -20.282871 52.66156
27700000000 -19.474903 32.780716 -1.3081633 140.47063 -1.2692063 140.347 -18.324873 50.287537
27800000000 -18.26388 31.637306 -1.3241469 138.45132 -1.3462248 138.32793 -18.97929 56.992943
27900000000 -19.320049 34.339703 -1.3929383 136.62572 -1.3661692 136.17125 -20.511345 44.874683
28000000000 -19.517429 21.180496 -1.4185351 134.41675 -1.3586742 134.07291 -18.197714 40.086479
28100000000 -18.585072 22.846148 -1.434539 132.46753 -1.417052 132.42618 -17.532726 54.693409
28200000000 -19.662935 28.379419 -1.5153959 130.93132 -1.4559665 130.18379 -25.033438 61.139271
28300000000 -20.247107 13.687612 -1.6459099 131.06149 -1.6556305 130.55826 -26.101191 -113.37674
28400000000 -18.799393 18.321154 -1.2747087 127.52261 -1.4155674 127.04159 -23.630135 29.014391
28500000000 -20.10379 19.792749 -1.416364 125.15965 -1.3516268 124.70046 -19.255642 22.555046
28600000000 -20.522518 10.362301 -1.3995025 123.52375 -1.3763063 123.10715 -19.438547 24.424469
28700000000 -19.59646 12.55506 -1.377255 121.59899 -1.402105 121.21321 -19.478563 25.703552
28800000000 -20.471569 21.168106 -1.3351884 119.54966 -1.3223478 119.06367 -20.030069 29.305412
28900000000 -20.694614 11.724376 -1.2884972 117.37474 -1.2607812 116.75821 -20.280767 25.423359
29000000000 -19.041695 12.376071 -1.2541934 115.05936 -1.2910405 114.63063 -19.163956 25.769356
29100000000 -20.02471 12.665995 -1.2838368 112.512 -1.2809922 112.0781 -19.03528 26.899199
29200000000 -19.831459 0.34474722 -1.2867955 110.48207 -1.2925602 109.80335 -19.172338 17.283754
29300000000 -18.796629 1.4861497 -1.3054202 108.24574 -1.3761452 108.01103 -18.484619 13.603974
29400000000 -20.231638 2.5451953 -1.3697641 106.26978 -1.4136746 105.92205 -19.284763 11.360558
29500000000 -20.426634 -8.3869038 -1.3582293 104.2363 -1.3693519 103.76741 -20.263479 2.9921024
29600000000 -19.960941 -5.5212278 -1.3663834 102.34353 -1.4040087 102.27621 -20.194857 4.0629396
29700000000 -21.467548 -6.1584725 -1.4030558 100.31341 -1.4119786 100.23282 -20.963888 11.438372
29800000000 -21.533031 -13.52634 -1.3517393 98.514496 -1.3398641 98.204109 -21.161594 6.8316517
29900000000 -20.559906 -9.9258385 -1.2530935 96.228531 -1.3087323 96.322914 -20.10829 7.0652184
30000000000 -21.11133 -8.5691576 -1.3009598 93.732338 -1.3380322 93.80838 -20.067463 7.189465
30100000000 -21.34037 -16.199574 -1.3619895 91.641457 -1.3738374 91.351303 -20.635164 -3.693722
30200000000 -21.060118 -20.104521 -1.3859708 89.545708 -1.3764712 89.674576 -20.443199 -6.7971201
30300000000 -21.951925 -20.043444 -1.4067665 87.878113 -1.3974403 87.934959 -21.634865 -4.2236509
30400000000 -22.755625 -26.211016 -1.4291039 86.026443 -1.3809679 85.797134 -22.827429 -7.0655198
30500000000 -22.267292 -26.927444 -1.3481096 83.560982 -1.3249083 83.679474 -21.402393 -7.7691584
30600000000 -22.681723 -27.168095 -1.4124585 81.492073 -1.3751705 81.688423 -21.726473 -7.8663578
30700000000 -23.689951 -32.048515 -1.4402704 79.774437 -1.4202036 79.474533 -23.305153 -19.801334
30800000000 -23.577793 -34.305695 -1.394389 77.681595 -1.3479946 77.505852 -22.591938 -22.501465
30900000000 -24.180544 -35.696877 -1.4449583 75.71804 -1.3698674 75.618904 -23.972542 -14.316356
31000000000 -24.595398 -42.471561 -1.4266837 73.859406 -1.3856258 73.633186 -25.94858 -27.959219
31100000000 -25.249727 -36.581985 -1.41293 71.974243 -1.3405747 71.567528 -24.618317 -26.164795
31200000000 -29.328953 -33.595055 -1.3707381 70.188339 -1.3211424 69.904091 -26.595526 -16.662531
31300000000 -29.214035 -46.651073 -1.3611195 68.091805 -1.3437448 67.498352 -28.488585 -38.438435
31400000000 -29.457291 -63.132484 -1.3787297 65.801651 -1.3232497 64.823753 -26.105234 -28.227976
31500000000 -28.106625 -81.92749 -1.3788183 63.891018 -1.2977971 62.467819 -29.07366 -9.7647562
31600000000 -22.827536 -103.64857 -1.2986271 62.661243 -1.2797281 62.014259 -33.559273 -44.381279
31700000000 -26.687243 -79.893288 -1.300004 59.554844 -1.2841688 58.821011 -28.579126 -46.510338
31800000000 -29.915674 -60.297626 -1.2610973 57.504669 -1.2950778 57.007832 -32.130577 -22.563374
31900000000 -35.856205 -74.676613 -1.2857411 55.555298 -1.2354139 54.832581 -37.718365 -43.655006
32000000000 -34.712818 -93.068214 -1.2347375 53.372551 -1.2695894 52.311584 -33.423325 -57.073486
32100000000 -36.048424 -73.518349 -1.2376966 51.044285 -1.2651908 50.562527 -37.134552 -12.23929
32200000000 -48.71019 -95.838959 -1.2327924 48.843151 -1.2175376 48.313866 -48.459396 -47.945995
32300000000 -38.997913 -162.71539 -1.1561462 46.784424 -1.241565 46.075428 -39.417355 -74.868568
32400000000 -43.192478 -168.53549 -1.2051374 44.2789 -1.2662566 44.004837 -45.570431 15.039559
32500000000 -36.488022 124.65392 -1.2041184 42.123688 -1.2464249 41.549255 -39.39217 144.27388
32600000000 -33.077942 141.02512 -1.1949714 40.011951 -1.2630737 39.339439 -41.625229 148.47791
32700000000 -36.851013 118.63066 -1.2469307 37.660549 -1.2790024 37.484722 -34.674885 89.020271
32800000000 -30.542562 103.87058 -1.2603487 35.521156 -1.2741058 35.124241 -31.94194 109.94972
32900000000 -29.171701 123.96185 -1.2456497 33.363403 -1.2912511 33.007084 -34.971893 97.333069
33000000000 -30.22299 107.4362 -1.246565 31.179243 -1.3326277 31.194014 -31.511736 73.851433
33100000000 -26.563383 98.938965 -1.3039291 29.178268 -1.3392524 28.848919 -30.807682 98.762459
33200000000 -26.799168 112.10372 -1.2986658 26.997433 -1.3566973 26.67474 -32.733227 105.06451
33300000000 -28.319145 95.047516 -1.3062166 25.058481 -1.3292273 25.043673 -29.087627 90.663345
33400000000 -25.441994 96.937393 -1.3505501 23.116133 -1.3329968 22.917915 -26.986221 98.620171
33500000000 -25.48588 107.54118 -1.2999761 20.808231 -1.3141946 20.533506 -29.029484 98.760185
33600000000 -25.407351 98.49279 -1.2814031 18.66012 -1.2874167 18.658619 -27.251318 86.352119
33700000000 -23.080311 94.638954 -1.3067889 16.44313 -1.3113103 16.324995 -25.910229 101.09882
33800000000 -22.845581 100.43203 -1.3256326 14.127651 -1.3525413 13.759877 -26.121675 104.55779
33900000000 -23.081366 91.943939 -1.342876 12.009383 -1.3455231 11.817856 -23.754696 95.598907
34000000000 -21.431107 86.681015 -1.4056038 9.9890308 -1.3803538 9.8047705 -22.225142 97.842072
34100000000 -21.155952 90.037361 -1.4307017 7.8639932 -1.422037 7.4603553 -22.461645 91.745872
34200000000 -21.404898 80.114662 -1.4205017 5.6900215 -1.4195831 5.5817189 -21.861149 82.233337
34300000000 -20.075428 76.319603 -1.462988 3.8756294 -1.4475423 3.6130259 -21.620255 87.123886
34400000000 -20.206972 79.842789 -1.4944631 1.8739493 -1.5150701 1.4540279 -21.903214 89.700462
34500000000 -20.988512 72.70388 -1.514905 -0.21514073 -1.5225214 -0.46853775 -20.585892 85.752319
34600000000 -19.667604 69.39579 -1.5193304 -1.7076594 -1.5092621 -2.0760078 -19.286217 84.862762
34700000000 -19.752132 74.768379 -1.5044336 -3.6648905 -1.5102146 -4.1027246 -19.517284 80.727783
34800000000 -20.004484 68.609276 -1.462263 -6.0587239 -1.4716398 -6.3387647 -19.539085 73.640785
34900000000 -18.70344 66.049477 -1.4704344 -8.1101551 -1.4663147 -8.3834724 -18.792643 74.7276
35000000000 -18.857372 71.246262 -1.5065322 -10.041724 -1.5232495 -10.491179 -19.283144 74.80619
35100000000 -19.494915 63.491089 -1.5259869 -12.208869 -1.5369542 -12.545318 -18.94278 70.40097
35200000000 -18.241665 61.532028 -1.4927108 -13.986615 -1.5056065 -14.333117 -18.191925 69.706581
35300000000 -18.372524 67.20565 -1.4887712 -15.789219 -1.5118115 -16.267572 -18.495459 69.783554
35400000000 -18.173647 63.430233 -1.4385363 -18.015139 -1.4646019 -18.413368 -18.36264 66.006851
35500000000 -17.209887 61.543728 -1.4097524 -20.399559 -1.4364207 -20.70867 -17.663534 66.697319
35600000000 -17.14341 61.986038 -1.4266641 -22.639875 -1.4528214 -23.036697 -17.559801 67.430901
35700000000 -16.830917 56.815781 -1.4659449 -24.953407 -1.4875042 -25.30662 -17.018162 62.370857
35800000000 -16.186335 54.33292 -1.4999895 -27.134415 -1.5197345 -27.456284 -16.084826 59.569115
35900000000 -16.193169 52.671959 -1.5379074 -29.116909 -1.5608506 -29.521458 -16.381538 56.276337
36000000000 -16.143702 48.921215 -1.5605549 -31.003014 -1.5975941 -31.431974 -16.485163 50.041489
36100000000 -15.960487 46.415874 -1.5926716 -32.982071 -1.6252522 -33.29015 -16.208319 47.736603
36200000000 -16.026169 44.415722 -1.6047114 -34.803642 -1.6343313 -35.223419 -16.446274 48.057632
36300000000 -16.036875 41.775967 -1.6084368 -36.631985 -1.6406894 -36.97541 -16.799194 43.190269
36400000000 -15.971679 40.802216 -1.5989845 -38.501408 -1.6343853 -38.76609 -16.515574 42.231117
36500000000 -15.80119 40.355976 -1.5814729 -40.433327 -1.6193932 -40.765709 -16.474033 46.154774
36600000000 -15.800627 39.378845 -1.5245264 -42.252571 -1.5636487 -42.665764 -16.368385 41.815964
36700000000 -15.522509 37.448765 -1.4741278 -44.463642 -1.5237666 -44.756504 -15.758144 38.807766
36800000000 -15.245902 35.794376 -1.4783285 -46.972202 -1.5183814 -47.275906 -15.725394 42.597027
36900000000 -15.16392 33.234592 -1.503665 -49.42469 -1.5508922 -49.684307 -15.744883 38.122234
37000000000 -14.966131 28.779371 -1.5414454 -51.301224 -1.6007874 -51.407681 -14.679478 32.942242
37100000000 -14.843401 27.398079 -1.5889423 -53.198101 -1.6386039 -53.299778 -14.973667 32.541622
37200000000 -15.214655 26.083235 -1.5577755 -55.15929 -1.6112267 -55.338417 -15.580404 25.439602
37300000000 -15.295705 23.355249 -1.5421263 -57.026146 -1.5901281 -57.10273 -15.107754 23.604675
37400000000 -15.035013 22.821434 -1.5493461 -59.070477 -1.6031241 -59.085514 -15.431723 28.882023
37500000000 -15.018967 22.884127 -1.5263021 -61.315701 -1.5749942 -61.379543 -15.757124 23.534748
37600000000 -14.910235 18.259863 -1.5117679 -63.622993 -1.5447649 -63.477264 -14.753633 20.800755
37700000000 -14.528203 15.323328 -1.5672233 -65.57885 -1.614422 -65.294846 -14.90945 22.222923
37800000000 -15.097742 14.918496 -1.5816083 -67.527817 -1.6141281 -67.359962 -15.660386 15.513006
37900000000 -15.507082 11.046149 -1.5322851 -69.588387 -1.5522448 -69.398506 -14.801179 12.139161
38000000000 -14.971259 10.549169 -1.5422826 -71.567787 -1.5457512 -71.264771 -15.24007 16.5429
38100000000 -15.224173 11.810594 -1.5801902 -73.719582 -1.5889373 -73.59967 -15.976864 10.89758
38200000000 -15.43821 5.835278 -1.5713204 -75.745979 -1.5630068 -75.712601 -14.954352 5.9452057
38300000000 -14.833715 3.4959891 -1.5469986 -77.69075 -1.5317235 -77.379959 -15.27478 11.090775
38400000000 -15.472324 7.0731773 -1.5806779 -79.486214 -1.5605423 -79.407646 -16.39876 6.6006293
38500000000 -15.847208 -0.40907291 -1.5713273 -81.857887 -1.5398788 -81.846436 -15.260244 0.30870518
38600000000 -15.18946 -0.25980213 -1.5288028 -83.967056 -1.4890461 -83.666466 -15.349022 5.6464348
38700000000 -15.80986 3.3122306 -1.5566369 -85.605766 -1.5189387 -85.690155 -16.326773 -0.39016578
38800000000 -16.330858 -4.5828075 -1.5754191 -87.833321 -1.5328078 -88.105194 -15.366906 -7.0148244
38900000000 -15.266278 -5.142714 -1.5280719 -89.945198 -1.4786259 -90.077461 -15.735085 -1.9626536
39000000000 -16.127539 -0.62811649 -1.5354505 -91.490791 -1.4951074 -91.945152 -17.253176 -9.9526138
39100000000 -16.47637 -9.5585327 -1.5285369 -93.896584 -1.5005287 -94.46524 -15.833394 -11.132587
39200000000 -15.565508 -10.619471 -1.4821191 -96.237473 -1.4688494 -96.466522 -16.152597 -6.1109538
39300000000 -16.33923 -6.5196557 -1.4993169 -98.074188 -1.470867 -98.538651 -17.284052 -15.64554
39400000000 -16.926556 -17.126432 -1.4712108 -100.0366 -1.5224929 -100.72735 -15.793765 -20.893927
39500000000 -15.914314 -15.591194 -1.5117325 -102.38238 -1.4964048 -102.73206 -16.518141 -16.483969
39600000000 -17.114431 -10.20827 -1.475703 -104.12587 -1.4822142 -104.77219 -17.907837 -27.886484
39700000000 -17.584589 -19.644779 -1.4579414 -106.11137 -1.5060188 -106.97457 -16.905338 -28.919899
39800000000 -16.58622 -19.729055 -1.4469833 -108.65829 -1.4680126 -108.96261 -17.325808 -19.159771
39900000000 -17.51033 -15.913987 -1.4265178 -110.81799 -1.4700655 -111.1999 -18.201729 -29.358845
40000000000 -18.215767 -26.467682 -1.3949893 -112.73593 -1.4797617 -113.39417 -17.017584 -34.113827
