!Keysight Technologies,N5224A,MY55441802,A.10.65.16
!Date: Wednesday, May 13, 2026 18:10:39
!Correction: S11(Full 2 Port(1,2)) 
!S21(Full 2 Port(1,2)) 
!S12(Full 2 Port(1,2)) 
!S22(Full 2 Port(1,2)) 
!S2P File: Measurements: S11, S21, S12, S22:
# Hz S  dB   R 50
1000000000 -0.88243335 -85.213539 -5.8894033 -15.544421 5.9547215 -14.425809 -8.5782614 -85.180183
1100000000 0.30362585 155.55219 -10.851652 35.194302 -1.1532811 9.4171839 -5.2084413 49.90448
1200000000 1.7550739 1.8332016 -15.061218 -136.86116 -15.025625 -84.177589 -1.2435164 -16.136862
1300000000 7.1533022 -74.723648 0.0024623789 -27.771753 9.6022949 -23.926582 -14.520398 -42.243065
1400000000 1.6808373 166.26524 -9.7216148 55.324448 -2.3394797 13.175229 -4.6366401 45.460526
1500000000 3.8731084 0.19394776 -8.7984791 -156.41194 -9.5044727 -133.97086 -0.90278435 -15.468813
1600000000 12.231986 -52.963654 4.7696347 -17.976116 12.247784 -14.087365 -4.2748404 38.810543
1700000000 3.3380041 172.08858 -7.2259698 78.540024 -3.9035203 22.704176 -3.1717894 45.773277
1800000000 7.5718522 -4.7818079 -2.4809117 -176.58873 -1.9891119 -169.37224 1.266359 -18.964914
1900000000 11.181993 -35.744488 5.4238915 -1.9619306 10.523765 -2.3139341 -1.1335729 71.107079
2000000000 6.0296593 174.46832 -2.4435074 91.545692 -4.5429797 44.124027 -1.4063474 43.140987
2100000000 14.278335 1.7279007 7.079741 -172.63477 8.3349752 -172.76009 6.1938338 -9.3247452
2200000000 10.685243 -36.706154 5.8678741 -3.8345413 9.7740021 -6.5809364 -0.11808433 65.669861
2300000000 9.7441998 171.13765 3.9373288 101.19536 -1.3405393 73.229698 1.8606753 42.924442
2400000000 18.808155 40.602871 13.184505 -134.07536 14.74523 -134.5925 9.8487606 28.801798
2500000000 7.6739902 -57.596268 5.6904807 -23.507822 7.9936895 -26.701801 -1.6953355 42.484501
2600000000 15.893305 -161.42554 11.454818 137.2807 6.6232886 128.55443 7.3035169 63.646996
2700000000 9.0114746 114.66008 7.0604124 -60.268284 8.6473722 -59.623016 -1.4417484 101.56928
2800000000 6.9447751 -70.958679 6.043046 -33.945179 7.754313 -37.606411 -1.4335179 26.206579
2900000000 16.184196 -28.156679 14.332767 -84.279846 11.970106 -86.193329 6.4748492 -155.34772
3000000000 6.9612641 110.49243 5.9803853 -64.438232 7.3318882 -61.634583 -3.3117001 95.226387
3100000000 2.7515621 -98.903389 4.8544598 -51.140057 5.7310314 -55.33128 -3.9368014 4.7994552
3200000000 11.024449 -26.256561 10.037307 -80.869072 8.3464022 -77.433495 0.63342828 -146.32964
3300000000 2.1865304 93.851112 3.6550202 -69.65033 4.4031973 -67.132599 -7.8859978 78.089798
3400000000 1.154673 -96.27951 4.080411 -54.604412 4.6119428 -56.801453 -5.2505708 6.2334342
3500000000 5.5237489 -39.57663 5.6573873 -85.736305 4.470974 -78.562347 -7.9823642 -148.10526
3600000000 2.0128856 93.019997 3.6760452 -72.889496 4.2587852 -71.040833 -8.219079 77.401543
3700000000 -0.60285217 -121.08688 3.6983542 -67.020485 3.8391824 -68.898277 -6.2645984 -6.6635189
3800000000 2.9248021 -33.26078 4.3617678 -83.034981 3.0449884 -77.541649 -12.63634 -133.28487
3900000000 -0.22721368 85.896843 2.6801503 -75.012062 3.0987868 -74.404076 -11.961605 70.597504
4000000000 -1.6063538 -128.65157 3.3588066 -75.307632 3.3845794 -77.643639 -7.2317362 -19.459728
4100000000 2.8100042 -43.528023 4.3273768 -87.120628 3.0984192 -84.379906 -12.612288 -128.22202
4200000000 -2.1398301 59.542114 1.7207626 -84.563385 2.0621216 -85.693031 -12.444747 40.435749
4300000000 -5.7920566 -142.56926 2.3559902 -82.637794 2.2298012 -84.399918 -9.5662594 -26.398924
4400000000 -1.0143459 -43.24778 2.6789937 -89.097519 1.8614215 -87.974831 -19.638515 -118.64394
4500000000 -3.7726064 57.877274 1.5101744 -86.354736 1.8126857 -85.680992 -14.861522 39.466515
4600000000 -7.3570666 -142.12401 1.853961 -87.847939 1.8403598 -89.523178 -10.74057 -35.297493
4700000000 -1.9776807 -53.00256 2.1894848 -92.759392 1.8181343 -92.639793 -19.531509 -104.40606
4800000000 -4.7822132 48.547115 1.1440233 -92.907082 1.4395829 -91.342499 -14.437598 23.737545
4900000000 -10.85405 -159.43594 1.3537871 -93.272903 1.280732 -94.32093 -11.910368 -35.724876
5000000000 -3.2887626 -57.628464 1.5875336 -99.055786 1.3664345 -97.698631 -25.134001 -96.028435
5100000000 -5.8385334 32.359241 1.1340647 -97.781609 1.1021538 -95.208824 -15.489788 24.222454
5200000000 -12.098882 -168.3775 1.0157213 -99.203926 0.98945683 -99.788513 -13.048655 -41.787098
5300000000 -4.4036565 -68.140465 1.2539783 -103.87422 1.1019969 -103.15039 -24.747759 -84.288513
5400000000 -7.4032893 26.780464 0.68004209 -102.73164 0.80303848 -100.57145 -15.734541 9.0676098
5500000000 -13.195155 167.77579 0.98259181 -104.23274 0.91021603 -104.61215 -13.005358 -39.437469
5600000000 -5.6176639 -63.985813 0.8765893 -106.90714 0.80794841 -106.40366 -23.660692 -57.895172
5700000000 -4.6890488 8.3096275 1.0866016 -112.66476 1.0640472 -109.67614 -13.779692 12.402599
5800000000 -18.329611 167.42131 0.47375265 -108.3012 0.45469373 -108.50124 -14.494605 -40.761341
5900000000 -6.2872562 -76.685127 0.67603087 -112.43594 0.68894643 -112.14735 -23.499352 -51.19735
6000000000 -7.7544742 2.1789126 0.41473806 -115.44988 0.4806138 -112.97235 -15.042008 -3.4065762
6100000000 -16.366518 151.88187 0.61772126 -113.42728 0.59104413 -113.7158 -13.513628 -43.363121
6200000000 -8.3962116 -77.723465 0.35142729 -115.65707 0.40154013 -115.31801 -19.379774 -42.24519
6300000000 -7.7531862 -0.8715539 0.56275892 -120.34369 0.52410096 -118.27808 -15.152983 -3.1932251
6400000000 -19.333672 126.45512 0.39952829 -118.82493 0.47755378 -119.11662 -14.949096 -59.413685
6500000000 -9.5411348 -90.203468 0.48476675 -121.69248 0.5528878 -122.2023 -17.481314 -82.018539
6600000000 -10.19754 -9.13589 0.019529805 -123.97352 0.087989002 -123.5778 -16.139065 -25.408163
6700000000 -21.415098 134.38858 0.40482044 -125.38154 0.48191577 -126.28278 -16.111897 -46.403156
6800000000 -10.39317 -90.714111 0.16144606 -126.08915 0.21402483 -127.04378 -21.224161 -68.43187
6900000000 -9.7249289 -19.793285 -0.020779965 -129.68771 0.082483955 -129.45689 -16.918541 -32.92802
7000000000 -24.985716 109.57774 0.010664981 -130.41231 0.1007029 -131.00388 -16.765354 -56.900692
7100000000 -11.125153 -95.143585 0.19264939 -130.87039 0.24098614 -131.67648 -20.509192 -71.310318
7200000000 -10.895397 -22.937546 -0.059726324 -134.08217 0.053345721 -133.39224 -17.880743 -40.309906
7300000000 -19.700737 95.030983 0.064880908 -136.487 0.16399841 -136.9438 -16.906446 -67.920906
7400000000 -11.643599 -102.53965 0.12480417 -136.61821 0.21690099 -137.44101 -21.474255 -76.077431
7500000000 -10.315051 -38.069439 0.015808355 -140.40622 0.079471357 -139.02347 -18.439524 -39.97876
7600000000 -24.64006 70.558189 -0.22466466 -140.40929 -0.1204634 -140.85608 -18.540779 -69.930092
7700000000 -11.896399 -116.04661 0.15362448 -142.92191 0.25960314 -143.61307 -23.317686 -87.186821
7800000000 -11.605202 -36.886868 0.001380749 -144.14604 0.02001695 -143.39571 -20.284515 -43.572441
7900000000 -21.23559 77.581985 -0.1623098 -145.91772 -0.047189612 -146.40173 -18.944126 -74.227577
8000000000 -13.296235 -122.14831 0.0099574914 -148.76598 0.082218833 -149.40599 -24.679119 -84.369179
8100000000 -11.357089 -42.739365 0.088317044 -150.25204 0.084818296 -149.46565 -20.760237 -39.845284
8200000000 -23.861927 54.95731 -0.29557085 -150.75415 -0.1907008 -151.20793 -20.101435 -73.722389
8300000000 -13.212018 -122.6333 0.019549577 -153.70386 0.10208902 -154.32625 -25.328878 -93.55925
8400000000 -12.347948 -50.915043 -0.078832716 -155.90729 -0.0090019135 -155.48083 -21.392519 -47.883652
8500000000 -21.584087 45.635178 -0.29427215 -155.98547 -0.18114874 -156.5352 -21.486738 -77.231636
8600000000 -16.443563 -128.61511 -0.19889519 -158.42511 -0.12670904 -159.02031 -25.747625 -85.994759
8700000000 -13.930584 -51.830029 -0.13636017 -160.67351 -0.029393965 -160.38162 -22.489521 -50.644592
8800000000 -21.463806 40.342983 -0.26674935 -161.4516 -0.14266035 -161.88676 -22.193008 -77.753273
8900000000 -17.61236 -137.50609 -0.27634856 -163.7886 -0.18989182 -164.38843 -26.595076 -89.986465
9000000000 -14.361156 -59.283085 -0.23047526 -166.59215 -0.12560362 -166.53595 -22.696796 -57.869865
9100000000 -20.960365 26.528927 -0.30382916 -167.03867 -0.19872527 -167.55109 -23.351917 -82.825272
9200000000 -19.721172 -152.2697 -0.32766697 -169.08989 -0.25242046 -169.61845 -28.337109 -96.295624
9300000000 -16.020508 -67.398827 -0.35499498 -171.47462 -0.24194488 -171.55235 -24.597603 -63.867031
9400000000 -20.297958 37.169994 -0.27034387 -172.6196 -0.15943143 -173.09404 -24.406075 -87.236046
9500000000 -20.659252 -172.59851 -0.34874427 -174.6107 -0.26409936 -175.19145 -30.781786 -106.86149
9600000000 -17.161833 -70.763588 -0.42379943 -176.58597 -0.3113139 -176.89807 -26.628969 -69.925972
9700000000 -20.116579 22.426123 -0.36357433 -178.34419 -0.2796714 -178.80247 -27.202929 -97.042786
9800000000 -22.170923 -169.85172 -0.37701091 -179.58813 -0.30503953 179.89275 -33.720036 -114.93858
9900000000 -17.357273 -68.820671 -0.35026345 178.4528 -0.23508781 178.14706 -29.906471 -61.245831
10000000000 -19.22403 30.193415 -0.37302214 176.13338 -0.28827286 175.64691 -30.24238 -108.07993
10100000000 -20.878931 164.94345 -0.30933669 174.61957 -0.23706359 174.11856 -38.512012 -166.56372
10200000000 -19.131306 -80.672768 -0.43486321 173.02809 -0.33935305 172.55501 -32.34481 -57.239525
10300000000 -21.655842 23.849451 -0.47935697 171.48795 -0.41118225 171.09956 -36.797398 -98.315506
10400000000 -22.154148 167.86491 -0.35601002 169.28069 -0.26825768 168.85954 -39.516518 110.32845
10500000000 -20.247862 -80.43528 -0.38963819 168.10658 -0.26725522 167.60564 -34.439854 -14.512941
10600000000 -20.210711 27.910275 -0.49253118 166.054 -0.41761521 165.52957 -48.247013 -71.440689
10700000000 -22.996122 138.76982 -0.42514634 163.74057 -0.34686399 163.18376 -34.016495 74.965637
10800000000 -22.595556 -79.572159 -0.42829204 162.62474 -0.33230403 162.01187 -32.353981 7.5775795
10900000000 -20.585869 16.790464 -0.48946631 160.91104 -0.43310809 160.57664 -38.039227 17.228472
11000000000 -24.210896 137.19827 -0.45335817 158.59587 -0.36547434 158.19933 -31.314091 62.205288
11100000000 -22.529467 -87.393593 -0.39963424 156.8231 -0.28607354 156.18866 -29.207951 15.51187
11200000000 -19.399462 12.779521 -0.46651798 155.45203 -0.4195106 155.00142 -33.17252 29.233139
11300000000 -23.247972 92.355637 -0.57054788 153.28589 -0.49957857 152.8244 -29.288145 50.91901
11400000000 -24.60384 -72.280403 -0.44256794 151.57809 -0.35075033 150.98253 -28.184847 21.80323
11500000000 -17.948538 8.1310158 -0.36785427 150.03072 -0.35179585 149.60713 -29.725653 23.549961
11600000000 -22.418995 87.475136 -0.57157218 147.99954 -0.48557717 147.52591 -27.19105 45.665207
11700000000 -24.899231 -84.748917 -0.43753397 145.9167 -0.34000057 145.18733 -26.643967 20.044514
11800000000 -17.135056 3.4802597 -0.34660891 144.23344 -0.34105888 143.85287 -28.170729 29.267023
11900000000 -20.299826 72.681679 -0.56062639 142.6918 -0.49061537 142.22871 -25.516356 43.317383
12000000000 -27.478115 -64.310371 -0.49904215 140.64044 -0.41685602 140.03267 -25.541162 21.565546
12100000000 -15.957898 0.80569828 -0.29912195 138.47897 -0.26548219 138.22136 -27.096737 25.475649
12200000000 -19.573811 66.613518 -0.5361765 137.22205 -0.46472156 136.7805 -24.037109 39.047638
12300000000 -30.054531 -69.141708 -0.52806967 135.47319 -0.42280632 134.71292 -23.98802 23.697786
12400000000 -16.462904 -0.95863372 -0.37233692 132.84648 -0.35072321 132.58098 -25.374491 30.342466
12500000000 -19.052286 55.062897 -0.51716793 131.81644 -0.46763796 131.47441 -22.766109 36.27446
12600000000 -28.743635 -48.393829 -0.53374738 129.98145 -0.43269691 129.37817 -22.618065 20.856379
12700000000 -16.300274 -1.9215515 -0.3936877 127.55962 -0.37513265 127.25708 -23.488791 25.730753
12800000000 -17.960835 48.937576 -0.51607633 126.06278 -0.45659748 125.68642 -21.581507 31.507763
12900000000 -30.71986 2.8010564 -0.58672774 124.76366 -0.48339641 124.15355 -21.675383 20.29603
13000000000 -17.129253 -4.5632787 -0.53230399 122.17159 -0.46827048 121.76148 -21.853662 23.981131
13100000000 -17.707829 38.872841 -0.53103191 120.42754 -0.47876742 120.24342 -20.555071 25.818747
13200000000 -28.317631 0.6474337 -0.55916989 119.40135 -0.45406219 118.71995 -20.442865 15.959167
13300000000 -16.768747 -12.536081 -0.53309685 116.67418 -0.49718142 116.11745 -20.658318 17.547131
13400000000 -16.433191 30.449425 -0.57261729 114.59866 -0.53154272 114.27858 -19.509274 18.42333
13500000000 -26.255045 17.580091 -0.58110142 113.70319 -0.49704221 113.15127 -19.737343 10.31621
13600000000 -16.99317 -14.242613 -0.6115886 111.82993 -0.54210609 111.31382 -19.902657 9.1887941
13700000000 -16.0665 25.722401 -0.59625852 109.16889 -0.54815179 108.94632 -18.993437 12.90841
13800000000 -26.837793 16.552965 -0.56385964 107.98906 -0.4500984 107.4519 -19.048409 4.5059462
13900000000 -16.452436 -23.462353 -0.53879815 106.43941 -0.51633012 105.6129 -19.208052 2.8539429
14000000000 -15.987485 14.536707 -0.67307615 103.87824 -0.65875912 103.57945 -18.548964 4.5956221
14100000000 -24.451206 1.512254 -0.57143551 102.68735 -0.47076419 102.2004 -18.598738 -0.87615824
14200000000 -15.983974 -28.252819 -0.51315832 101.03114 -0.47694516 100.2323 -18.702337 -3.5356596
14300000000 -16.127863 12.262842 -0.68610048 98.585762 -0.6529808 98.294067 -18.200554 -1.8086847
14400000000 -26.477365 -3.1914709 -0.59488112 96.711472 -0.47410414 96.198265 -18.142246 -9.7467241
14500000000 -16.477297 -32.731899 -0.53178853 95.640274 -0.51863462 94.915962 -18.419189 -10.373051
14600000000 -16.007166 4.0661941 -0.67903614 93.561462 -0.67938954 93.283585 -18.21904 -8.2380571
14700000000 -23.208218 -7.8464556 -0.63356829 91.912552 -0.52271962 91.382149 -18.339163 -13.691942
14800000000 -15.808397 -36.833172 -0.47915325 90.111305 -0.41501567 89.234978 -18.532961 -16.17271
14900000000 -15.928457 -3.4057779 -0.66500121 87.98584 -0.6583215 87.811676 -18.022232 -12.517836
15000000000 -22.732553 -8.0749989 -0.69252133 86.065903 -0.57955337 85.519737 -18.180811 -19.047237
15100000000 -17.040016 -40.646801 -0.5223881 84.231789 -0.51557958 83.62397 -18.534023 -21.680731
15200000000 -15.902127 -9.6302042 -0.64614296 82.615158 -0.67022407 82.505402 -18.099932 -18.1141
15300000000 -20.905697 -10.137244 -0.72557014 80.885468 -0.6304968 80.40181 -18.187412 -22.488285
15400000000 -16.565733 -47.617588 -0.55466592 78.262207 -0.48856354 77.657852 -18.857298 -24.854471
15500000000 -15.382023 -20.365025 -0.63671064 76.773621 -0.65402997 76.644333 -18.053108 -21.387581
15600000000 -21.087631 -10.735378 -0.78871143 75.280144 -0.68441522 74.807648 -18.174412 -26.941879
15700000000 -18.073898 -49.457561 -0.65794683 73.105934 -0.62096089 72.425377 -18.398972 -29.93519
15800000000 -15.478182 -22.959238 -0.69486284 71.269287 -0.69323909 71.298447 -17.994257 -26.905468
15900000000 -20.880802 -11.205493 -0.8233977 70.362434 -0.73101866 69.868065 -18.341652 -32.595974
16000000000 -17.948181 -58.39719 -0.75297982 67.720772 -0.69083136 66.841957 -18.709846 -33.217007
16100000000 -15.415063 -29.176693 -0.7140922 65.894943 -0.67018408 65.973221 -18.229311 -30.805304
16200000000 -21.342537 -8.8797283 -0.80599254 64.992943 -0.71896666 64.639999 -18.645653 -37.0033
16300000000 -19.177151 -57.469334 -0.7527979 63.118782 -0.69401538 62.244637 -18.751362 -39.507683
16400000000 -15.755742 -28.718781 -0.70400596 60.586243 -0.6650731 60.677715 -18.385788 -34.767601
16500000000 -20.839483 -11.768833 -0.76616222 59.946018 -0.66905409 59.590649 -19.141626 -40.371635
16600000000 -18.750063 -63.618092 -0.71807921 57.739578 -0.653844 56.525906 -19.116526 -41.614792
16700000000 -15.910688 -37.56691 -0.71565175 55.226131 -0.67693955 55.108284 -18.47011 -38.005409
16800000000 -20.88658 -16.384211 -0.73365605 54.213943 -0.64150047 53.839695 -18.997303 -43.76622
16900000000 -19.864674 -57.287258 -0.72157747 52.538826 -0.67402589 51.635757 -18.952066 -46.542797
17000000000 -16.231634 -37.775871 -0.74230087 49.824356 -0.70068687 49.58025 -18.560871 -43.894012
17100000000 -20.051384 -23.872343 -0.75577843 48.676514 -0.66982687 48.253693 -19.126671 -48.592705
17200000000 -19.97506 -64.564461 -0.72707945 46.883789 -0.69172829 45.873779 -19.094656 -51.91098
17300000000 -17.179007 -49.557659 -0.77570093 44.776535 -0.75111502 44.344364 -18.836962 -50.830345
17400000000 -20.399811 -32.733585 -0.79775488 43.171455 -0.71139652 42.720242 -19.353682 -55.781715
17500000000 -21.026443 -66.167755 -0.73610157 41.596832 -0.69141614 40.794735 -19.363106 -60.080311
17600000000 -17.638968 -51.662029 -0.79614782 39.540653 -0.7674045 39.161076 -19.2349 -57.670582
17700000000 -20.530056 -30.996908 -0.79428679 37.972836 -0.72999084 37.543766 -20.037823 -61.480118
17800000000 -22.230883 -73.093376 -0.71067882 35.985241 -0.67821568 35.067299 -20.176266 -63.745453
17900000000 -17.98852 -61.07872 -0.7358008 34.068783 -0.72794795 33.6772 -19.665062 -61.506878
18000000000 -21.191082 -36.864838 -0.80042225 32.295055 -0.74794549 31.829174 -20.348862 -67.713562
18100000000 -22.985388 -78.625992 -0.72397047 30.492748 -0.68316036 29.707102 -20.567842 -73.168755
18200000000 -18.18185 -62.880005 -0.76164883 28.641451 -0.74318588 28.238508 -20.440779 -67.690887
18300000000 -21.376543 -37.141594 -0.80097151 27.067972 -0.75694972 26.740839 -21.127331 -71.669548
18400000000 -23.452587 -89.42662 -0.7561031 24.864456 -0.71593684 24.104202 -21.385906 -76.486366
18500000000 -18.936384 -70.095612 -0.73439443 23.274475 -0.7198621 22.856676 -21.166546 -72.698471
18600000000 -22.695057 -40.599838 -0.80326295 21.692852 -0.76881492 21.325817 -21.948786 -79.974701
18700000000 -25.286608 -91.115311 -0.76635522 19.698288 -0.72946274 18.98337 -22.136694 -85.211372
18800000000 -19.745327 -70.372505 -0.74440718 17.796196 -0.71183473 17.396753 -22.289871 -79.28054
18900000000 -22.72971 -41.532688 -0.7906428 16.263111 -0.74518633 16.038811 -23.394981 -84.201286
19000000000 -26.130377 -85.270905 -0.79664141 14.384856 -0.76104099 13.770416 -23.269936 -87.947327
19100000000 -21.388905 -74.795456 -0.74326718 12.411749 -0.71306336 12.049163 -23.281775 -83.491089
19200000000 -24.270727 -43.69392 -0.77426028 10.901697 -0.73566896 10.605118 -24.225691 -92.721031
19300000000 -28.44313 -80.561218 -0.78855133 9.1932011 -0.75439805 8.5525389 -24.804951 -97.065216
19400000000 -22.569471 -77.091187 -0.75983703 7.0275502 -0.72202009 6.5356083 -24.989891 -91.184258
19500000000 -24.411812 -44.626179 -0.76157433 5.4269013 -0.71685606 5.0924258 -26.379084 -98.452385
19600000000 -31.556517 -72.981094 -0.77595562 3.7252219 -0.74393696 3.2201457 -26.899948 -101.27649
19700000000 -24.77532 -80.583672 -0.75347805 1.6628922 -0.71712577 1.189202 -26.950943 -95.848831
19800000000 -25.290806 -41.660019 -0.75661016 -0.16830868 -0.71106291 -0.54941243 -28.04822 -105.49203
19900000000 -35.826714 -48.925812 -0.7580021 -1.8156464 -0.72082978 -2.3322001 -29.349236 -112.21347
20000000000 -26.441771 -85.80645 -0.76517117 -3.8399336 -0.72876972 -4.4190989 -29.710609 -107.17043
20100000000 -25.735031 -36.919342 -0.73626798 -5.71315 -0.70261031 -6.1183434 -31.69146 -111.89056
20200000000 -38.751213 4.9107022 -0.74752074 -7.4776468 -0.71934825 -7.9529629 -33.755363 -122.61027
20300000000 -29.627388 -83.108154 -0.74940199 -9.2940378 -0.71685189 -9.8212433 -34.204273 -111.58628
20400000000 -25.61994 -20.159855 -0.74052083 -11.403076 -0.71227521 -11.822146 -36.514629 -123.95388
20500000000 -32.346493 30.601522 -0.75617105 -13.172208 -0.73001415 -13.590896 -39.102779 -153.63144
20600000000 -30.680424 -69.946724 -0.76992184 -14.942908 -0.72146034 -15.454539 -44.484245 -124.09209
20700000000 -25.763029 -17.8748 -0.75241131 -16.769636 -0.72635579 -17.233006 -56.417892 -170.07256
20800000000 -30.763451 42.293385 -0.75763917 -18.761887 -0.73193914 -19.17281 -42.03907 110.37909
20900000000 -34.157921 -50.193272 -0.7601797 -20.413631 -0.71560162 -20.987135 -45.260639 72.592155
21000000000 -25.022854 -5.9787903 -0.77622682 -22.343027 -0.75023484 -22.843845 -38.007149 74.874199
21100000000 -27.409143 33.17387 -0.79971153 -24.283346 -0.77129018 -24.710859 -35.168072 75.174606
21200000000 -31.257135 -21.45229 -0.79695165 -26.038328 -0.74826509 -26.579594 -34.289558 59.854053
21300000000 -24.20892 -5.217237 -0.80367535 -27.859285 -0.78549522 -28.378429 -31.430239 54.699986
21400000000 -25.715679 25.484671 -0.84816748 -29.787117 -0.82664812 -30.151262 -30.467194 50.99984
21500000000 -29.371771 -6.7692056 -0.84421998 -31.380522 -0.79476887 -31.992186 -30.196617 39.684998
21600000000 -23.438925 -7.6211219 -0.85020703 -32.99271 -0.82850617 -33.637836 -29.782784 37.969303
21700000000 -24.679165 20.418764 -0.86253309 -34.739407 -0.84628767 -35.172298 -29.425703 43.113354
21800000000 -29.961718 6.2658439 -0.81436598 -36.734646 -0.77203327 -37.263275 -29.019852 42.637192
21900000000 -23.7892 -4.9485383 -0.77947867 -38.509819 -0.77614081 -39.076881 -27.591654 40.799465
22000000000 -22.665058 23.85968 -0.81228501 -40.508663 -0.82015759 -40.912315 -26.20224 41.821175
22100000000 -26.524633 13.465145 -0.82756227 -42.48819 -0.78709048 -43.01733 -26.079645 37.74905
22200000000 -21.62027 -6.5725932 -0.79073679 -44.357452 -0.78853947 -44.976196 -25.230946 31.300531
22300000000 -20.914753 17.767227 -0.86873585 -46.105217 -0.87780118 -46.502296 -24.392305 32.931961
22400000000 -25.888346 11.149384 -0.90715927 -48.12796 -0.86281246 -48.611183 -24.770744 28.74618
22500000000 -21.276236 -8.9725494 -0.83348525 -49.77037 -0.84408647 -50.191612 -24.048611 24.449411
22600000000 -20.405869 16.562332 -0.86112028 -51.664318 -0.88975209 -51.870754 -22.946531 29.058456
22700000000 -24.231142 6.1086001 -0.93880224 -53.644077 -0.89489925 -54.032803 -23.250252 24.351336
22800000000 -19.678417 -14.139894 -0.87953329 -55.54073 -0.87797344 -55.951797 -22.644108 18.984577
22900000000 -19.439432 6.9019618 -0.92053568 -57.063831 -0.95624787 -57.260994 -22.084349 21.160858
23000000000 -23.37594 -2.6251214 -0.99569499 -58.779106 -0.94829285 -59.177292 -22.479851 14.970749
23100000000 -19.989386 -15.263262 -0.96187252 -60.739796 -0.92700076 -61.040485 -22.184797 13.433439
23200000000 -19.526676 3.8877773 -0.98366439 -62.243488 -0.98557246 -62.330853 -21.562609 15.463666
23300000000 -22.688972 -4.030776 -1.037902 -63.990341 -0.97695726 -64.219704 -22.006338 12.3117
23400000000 -19.799244 -17.504526 -0.99003458 -65.860985 -0.96616054 -66.282089 -21.507263 8.9022923
23500000000 -19.41535 -3.6597605 -0.99342185 -67.527489 -0.99896759 -67.611359 -21.154497 9.6309528
23600000000 -21.896423 -4.9838848 -1.0497919 -68.947601 -0.98640233 -69.286552 -21.77256 6.0404997
23700000000 -20.250782 -17.388477 -1.0095711 -70.805603 -0.95463854 -71.407738 -21.591536 3.695648
23800000000 -19.27129 -5.0853033 -1.0299171 -72.642769 -0.99320579 -72.806137 -21.147696 7.8283939
23900000000 -21.318678 -1.9502156 -1.0301154 -74.056778 -0.96088284 -74.510506 -21.595209 7.3175163
24000000000 -20.44692 -16.783253 -1.0278145 -75.861855 -0.97605824 -76.508598 -20.884256 3.599519
24100000000 -18.735706 -9.4214115 -0.98311204 -77.971031 -0.97977042 -78.088287 -20.276812 4.1761069
24200000000 -20.520576 -4.7256804 -0.99850553 -79.358826 -0.93906283 -79.782074 -20.85825 3.1222243
24300000000 -19.987123 -19.721104 -0.98554236 -81.053207 -0.93035346 -81.910225 -20.585316 -2.3152356
24400000000 -18.243038 -11.908941 -0.96635383 -83.09848 -0.95508385 -83.623161 -20.159544 0.66803229
24500000000 -19.985571 -5.2592025 -0.97827864 -84.693428 -0.91235578 -85.316078 -20.731638 1.079811
24600000000 -19.868956 -21.782747 -0.94312227 -86.531227 -0.90643716 -87.304115 -20.126398 -3.7906444
24700000000 -18.138245 -14.226254 -0.93717867 -88.562347 -0.94387591 -88.977242 -19.430901 -1.5900748
24800000000 -19.617992 -10.716238 -0.9389931 -90.364815 -0.88709652 -90.855576 -19.82358 -3.4584343
24900000000 -18.851645 -26.294483 -0.89546418 -92.051361 -0.89550966 -93.020706 -19.364208 -8.974102
25000000000 -17.244158 -19.417486 -0.9228214 -94.08725 -0.95530868 -94.722427 -18.859047 -7.3696651
25100000000 -18.683123 -16.617889 -0.9892776 -95.937088 -0.96001977 -96.524361 -19.207541 -11.224949
25200000000 -18.893471 -29.690132 -0.93433237 -97.326218 -0.92933631 -98.121498 -19.219856 -16.32855
25300000000 -17.764557 -22.658041 -0.91181231 -99.42572 -0.95140308 -99.771568 -18.906193 -11.954827
25400000000 -19.111191 -20.170677 -0.9242571 -101.35617 -0.91342193 -101.77629 -19.116165 -14.544336
25500000000 -18.834837 -32.636028 -0.8828432 -103.1616 -0.90053159 -103.98049 -18.649469 -18.852348
25600000000 -17.413908 -29.6712 -0.90091115 -105.21982 -0.95858526 -105.49981 -18.358118 -17.102657
25700000000 -18.062176 -25.026239 -0.94393015 -107.06715 -0.95562863 -107.32932 -18.672426 -20.741051
25800000000 -18.459837 -35.240242 -0.92869145 -108.88528 -0.93755895 -109.38828 -18.262957 -24.473831
25900000000 -17.729332 -35.529324 -0.94859451 -110.67482 -0.97455269 -110.75345 -18.146917 -23.106655
26000000000 -18.502884 -27.113747 -0.95813495 -112.50062 -0.96947902 -112.67137 -18.482037 -26.766706
26100000000 -19.290375 -37.229523 -0.95041823 -114.39149 -0.96780789 -114.90832 -18.187727 -30.097868
26200000000 -17.638847 -40.427021 -0.96546698 -116.42062 -0.97330427 -116.44002 -18.091045 -28.872334
26300000000 -17.954823 -32.910744 -1.0107723 -118.04806 -0.99596393 -118.03929 -18.339201 -32.470482
26400000000 -18.854204 -41.729927 -1.0212131 -119.95747 -0.99440742 -120.34238 -18.312244 -36.432686
26500000000 -17.276215 -45.947113 -1.001965 -121.831 -0.98927277 -121.89161 -17.889551 -34.873985
26600000000 -17.976772 -38.099545 -1.0419174 -123.46104 -1.0288976 -123.39319 -18.499117 -39.810139
26700000000 -19.546125 -48.840153 -1.0867642 -125.12931 -1.0649707 -125.61369 -18.377031 -43.596478
26800000000 -17.93985 -52.522053 -1.0670605 -126.99222 -1.0202442 -127.12286 -18.58235 -42.604355
26900000000 -18.810686 -43.867218 -1.0906422 -128.44598 -1.0396602 -128.49771 -19.183825 -45.195477
27000000000 -19.830843 -54.917942 -1.0913841 -130.24507 -1.0330899 -130.68546 -18.992031 -47.385338
27100000000 -18.007305 -54.570221 -1.0697346 -132.24593 -0.99840403 -132.5929 -18.831711 -46.785416
27200000000 -18.740627 -46.808559 -1.0707021 -133.84526 -1.0169274 -133.7775 -19.505602 -51.930054
27300000000 -19.922516 -59.815094 -1.0765997 -135.35915 -1.1074792 -135.94357 -19.624645 -53.834
27400000000 -18.59227 -62.408756 -1.06405 -137.03123 -1.1965938 -138.44489 -20.722858 -56.645954
27500000000 -19.851248 -54.590107 -1.0463725 -138.90254 -1.077898 -139.12164 -21.108723 -61.92223
27600000000 -21.089874 -63.265945 -1.0492177 -140.69923 -1.0094033 -141.59502 -19.816828 -61.41851
27700000000 -19.753012 -64.53215 -1.029757 -142.7515 -0.97261363 -143.38663 -20.321606 -51.138927
27800000000 -20.473246 -56.494743 -1.018065 -144.60963 -0.96934658 -144.82159 -21.856148 -59.715164
27900000000 -21.739002 -64.87014 -1.0262837 -146.2753 -1.0273331 -146.89769 -20.606319 -65.899719
28000000000 -20.397537 -68.861496 -1.0295 -148.33589 -1.0169477 -149.18419 -20.51881 -52.783981
28100000000 -21.170849 -57.184093 -1.0220342 -150.06035 -0.98583198 -150.69891 -24.607883 -51.479923
28200000000 -22.905239 -63.298862 -1.0892611 -151.6636 -1.1083084 -152.09299 -21.175171 -98.05883
28300000000 -22.304993 -65.574348 -1.1782798 -151.74406 -1.4616432 -149.58029 -15.458113 -99.757584
28400000000 -21.42338 -64.55545 -0.86578476 -155.02261 -0.87677765 -153.96144 -18.452393 -92.928574
28500000000 -24.160614 -69.175514 -0.98488623 -157.1281 -0.98778647 -157.85304 -21.042316 -72.229347
28600000000 -22.342276 -73.919586 -0.96817648 -159.00008 -0.97154808 -159.57497 -22.733562 -70.704575
28700000000 -22.908545 -60.213085 -0.97645897 -161.02299 -0.98585194 -161.24904 -23.555321 -71.852364
28800000000 -25.656195 -66.404114 -0.99203372 -162.85744 -1.0060269 -163.28046 -24.456356 -74.00602
28900000000 -24.191862 -70.983643 -0.99855483 -164.81361 -1.0190663 -165.22017 -24.254496 -76.150642
29000000000 -24.371658 -53.189106 -1.0442328 -166.62874 -1.045159 -166.82765 -24.980154 -70.138046
29100000000 -26.555614 -60.137356 -1.0830644 -168.39156 -1.0782895 -168.78535 -26.09009 -70.249924
29200000000 -23.898457 -64.662636 -1.0778784 -170.04956 -1.0855678 -170.46658 -25.054104 -73.555138
29300000000 -23.648722 -51.44379 -1.0843012 -171.66136 -1.0835856 -171.87195 -25.143654 -68.028923
29400000000 -25.951088 -60.402828 -1.0683279 -173.35172 -1.078052 -173.61279 -26.297667 -74.800247
29500000000 -25.294024 -65.629051 -1.0592798 -175.5659 -1.0606966 -175.88469 -26.720343 -78.868622
29600000000 -24.959406 -49.659981 -1.1097392 -177.18405 -1.0971314 -177.36418 -27.245638 -66.00164
29700000000 -26.921112 -56.786137 -1.1481303 -178.75142 -1.1323693 -179.03929 -28.2421 -62.139191
29800000000 -25.391397 -64.46154 -1.1267377 179.58784 -1.1130325 179.19897 -27.25173 -67.958351
29900000000 -25.399555 -55.466152 -1.0924745 177.95781 -1.0813907 177.69099 -26.807674 -63.170631
30000000000 -27.460041 -57.127048 -1.0866302 176.27528 -1.0776143 176.01807 -27.910679 -65.259773
30100000000 -27.43368 -64.704597 -1.0697026 174.34991 -1.0590447 174.00058 -27.970261 -76.990456
30200000000 -27.351894 -54.486115 -1.0531015 172.4272 -1.0404929 172.09756 -28.34581 -67.611099
30300000000 -29.212778 -50.968796 -1.0745615 170.83609 -1.0651118 170.52803 -30.384783 -64.976509
30400000000 -29.855507 -58.629524 -1.0708712 169.06145 -1.0615257 168.70073 -31.203186 -76.108673
30500000000 -29.036013 -52.128559 -1.0329829 167.16585 -1.0281919 166.85252 -30.411024 -64.51516
30600000000 -30.653086 -38.881218 -1.028563 165.38422 -1.0242864 165.10162 -33.458431 -55.114719
30700000000 -31.773277 -47.587284 -1.0473729 163.5623 -1.0410514 163.20459 -33.334641 -73.421753
30800000000 -31.217289 -38.803349 -1.0239177 161.68452 -1.0122455 161.36423 -32.324459 -62.083908
30900000000 -31.991564 -25.755531 -1.0215198 159.89488 -1.0129815 159.62459 -38.497765 -36.064125
31000000000 -31.782963 -23.535471 -1.0262495 158.07449 -1.0224084 157.791 -40.613144 -65.040688
31100000000 -30.703588 1.1703981 -1.0248502 156.19125 -1.0119761 155.91988 -36.396305 -25.097878
31200000000 -32.518085 50.752796 -0.9935813 154.71243 -0.99187607 154.41693 -36.905132 23.23345
31300000000 -32.406898 18.945679 -1.0134279 152.61298 -1.0082785 152.23532 -44.214008 12.932661
31400000000 -34.89003 21.10079 -1.0471264 150.56371 -1.0145051 150.16331 -33.285076 10.445559
31500000000 -39.444569 -116.23019 -1.0917541 149.02292 -1.0216689 148.56705 -29.718269 45.723789
31600000000 -22.469828 -114.23368 -1.0026958 148.08618 -0.97320735 147.6599 -34.495205 55.848118
31700000000 -26.624624 -38.693317 -1.0240198 145.18083 -0.98663455 144.79221 -32.165554 27.035961
31800000000 -24.619524 10.487788 -1.0196571 143.47948 -1.0113837 143.00827 -28.834892 44.635017
31900000000 -27.277452 29.611853 -1.0151477 141.71422 -0.98171997 141.40289 -29.087683 49.847561
32000000000 -26.790417 8.2805538 -1.015923 139.953 -0.97419286 139.35345 -28.498119 36.619453
32100000000 -23.832048 15.437602 -1.0074583 138.05647 -1.0093844 137.62984 -26.214964 42.233509
32200000000 -23.993711 23.233843 -1.0017833 136.21681 -0.98758173 135.87851 -26.265686 44.232048
32300000000 -24.682119 14.816922 -0.99086416 134.69141 -0.97365993 133.97012 -25.766632 34.051464
32400000000 -22.356525 12.138521 -0.9915626 132.59425 -1.0069741 132.03175 -24.247782 37.398453
32500000000 -22.256792 23.775625 -0.98404324 130.79935 -0.97712231 130.20717 -24.385582 38.328011
32600000000 -22.994148 13.761602 -0.9722482 128.9821 -0.96543175 128.2688 -23.736052 32.538147
32700000000 -20.845003 9.7606697 -0.9679305 127.02213 -0.9992857 126.58427 -22.320377 34.354404
32800000000 -20.47576 18.672077 -0.98860985 125.11135 -0.99662864 124.7442 -22.173086 34.211647
32900000000 -21.518478 10.033797 -0.95282066 123.31867 -0.96722305 122.77059 -21.666807 25.949474
33000000000 -19.655769 7.3646507 -0.92696941 121.51583 -1.0037813 120.92548 -20.682701 24.519361
33100000000 -19.820518 13.83517 -0.99142474 119.46482 -1.0226167 118.98597 -20.885025 24.165567
33200000000 -21.000992 2.6708989 -0.98927295 117.5776 -1.0141777 117.03901 -20.947809 17.323322
33300000000 -19.389233 0.79788959 -0.96806276 115.96642 -1.023412 115.77142 -20.145765 19.793016
33400000000 -19.803221 10.909274 -1.0003823 113.96152 -1.0384346 113.87942 -19.991722 22.934334
33500000000 -20.434464 2.6426597 -0.96778816 112.02677 -0.99457461 111.72334 -19.571188 15.29794
33600000000 -18.689243 1.1866355 -0.92240155 110.21527 -0.99561393 110.14935 -18.602312 13.647285
33700000000 -18.883139 7.8627148 -0.96710247 108.25384 -1.0327243 108.21889 -18.939579 11.464522
33800000000 -19.558727 0.87609512 -1.0101125 106.18354 -1.0215448 105.9221 -19.048193 7.4072113
33900000000 -18.076773 -3.0411613 -0.99571133 104.31373 -1.009259 104.43552 -18.41181 8.830265
34000000000 -17.98263 2.8051081 -1.0394545 102.44795 -1.057425 102.7683 -18.508802 8.6761026
34100000000 -18.845438 -3.3881292 -1.0692266 100.47658 -1.0560163 100.50423 -18.147415 4.4746971
34200000000 -17.473234 -8.2472725 -1.025474 98.641434 -1.025309 98.798096 -17.316505 2.9911222
34300000000 -17.222765 -2.9181919 -1.0745567 96.857475 -1.0690578 97.119728 -17.563171 -0.5608561
34400000000 -18.357525 -6.9567189 -1.1356978 95.120613 -1.1261369 94.881332 -17.764473 -4.7559891
34500000000 -17.394987 -14.504498 -1.1441268 93.068909 -1.1188231 93.067192 -17.553099 -4.8618574
34600000000 -16.979265 -8.2180824 -1.1732069 91.546509 -1.1267195 91.797981 -17.687918 -3.0881715
34700000000 -17.953022 -11.774218 -1.2121245 89.87188 -1.1608337 89.770355 -17.416866 -6.2627916
34800000000 -16.764647 -18.05109 -1.1868674 87.817474 -1.1335168 87.750839 -16.792416 -10.813724
34900000000 -16.6341 -14.378051 -1.186475 86.124466 -1.1484262 86.26535 -16.967459 -11.611205
35000000000 -17.69887 -19.708412 -1.2651144 84.716034 -1.2164125 84.314926 -17.315315 -15.975988
35100000000 -16.962185 -26.145353 -1.2684453 82.739731 -1.2461715 82.376198 -17.095385 -18.491632
35200000000 -16.97044 -20.848078 -1.2688433 81.141518 -1.2131181 81.069733 -17.285461 -17.865839
35300000000 -17.753248 -24.376066 -1.2833024 79.728271 -1.2404066 79.263504 -17.533228 -19.828732
35400000000 -17.093102 -28.252533 -1.2847633 77.894928 -1.2550069 77.31855 -17.254433 -21.899839
35500000000 -17.106163 -25.072445 -1.271953 76.167831 -1.2401153 75.841301 -17.341566 -22.293112
35600000000 -17.59804 -27.857323 -1.2740532 74.591576 -1.2422528 74.080666 -17.766052 -24.422831
35700000000 -16.997557 -31.44796 -1.2752907 72.777214 -1.2819551 72.159744 -17.50292 -25.846277
35800000000 -17.031088 -30.328844 -1.2935078 70.945 -1.2805152 70.563828 -17.303043 -22.866201
35900000000 -17.527731 -32.619911 -1.299309 69.542442 -1.2996361 68.96859 -17.293705 -27.052063
36000000000 -17.286657 -35.231621 -1.248307 68.077789 -1.2994052 67.456078 -16.974592 -31.459888
36100000000 -17.386219 -34.714443 -1.2221954 66.249535 -1.2469748 65.882492 -17.031506 -31.570324
36200000000 -17.759556 -37.187656 -1.1992512 64.447151 -1.2222655 63.909931 -17.537481 -32.928844
36300000000 -17.562599 -37.671894 -1.1872839 62.610355 -1.2402091 62.11047 -17.187811 -35.275417
36400000000 -17.486294 -36.016441 -1.1796029 60.665215 -1.2198603 60.456619 -16.908133 -34.691673
36500000000 -17.814676 -36.901463 -1.1751478 58.735317 -1.2118442 58.486774 -17.389135 -35.963413
36600000000 -17.641724 -38.653786 -1.1662202 56.999004 -1.2250426 56.674721 -16.8416 -38.987446
36700000000 -17.404076 -38.036457 -1.15161 55.322662 -1.2040628 55.215107 -16.273571 -39.394306
36800000000 -17.611115 -40.135113 -1.1733552 53.467201 -1.1960713 53.260498 -17.149055 -42.566635
36900000000 -17.481861 -42.214874 -1.160502 51.502533 -1.1969016 51.292599 -16.972799 -47.214603
37000000000 -17.179134 -43.334732 -1.145419 49.676407 -1.1718252 49.772137 -16.537716 -44.016251
37100000000 -17.294937 -42.708561 -1.1681446 47.937027 -1.1798756 47.96846 -16.915016 -45.708096
37200000000 -17.67329 -46.615601 -1.1474859 45.946316 -1.1668227 45.921013 -16.489883 -53.215748
37300000000 -17.470642 -48.07925 -1.1437607 44.143677 -1.153056 44.164257 -16.265392 -53.243362
37400000000 -17.722145 -47.658855 -1.1943252 42.44231 -1.189893 42.529823 -17.387041 -55.037605
37500000000 -17.903004 -50.446072 -1.203859 40.650776 -1.194574 40.574364 -17.041527 -60.800453
37600000000 -17.72595 -52.916573 -1.2010393 38.85236 -1.1654541 38.845718 -16.899063 -60.417244
37700000000 -18.003363 -52.129036 -1.2114476 37.293034 -1.1670765 37.402321 -18.121622 -60.926346
37800000000 -18.437243 -55.547928 -1.2108984 35.519623 -1.1794674 35.495079 -17.934072 -66.124153
37900000000 -18.364195 -58.234058 -1.1714095 33.719799 -1.1311618 33.665615 -17.495272 -63.109303
38000000000 -18.644621 -56.318619 -1.1722281 32.09454 -1.1069216 32.051022 -18.53907 -64.244675
38100000000 -19.268442 -59.372417 -1.1827278 30.342043 -1.1332877 30.147314 -18.481171 -72.267357
38200000000 -18.846592 -61.780949 -1.1475996 28.398546 -1.1068416 28.110283 -18.062696 -69.319649
38300000000 -18.901793 -59.016491 -1.1414156 26.705027 -1.0706917 26.469639 -19.254723 -68.404388
38400000000 -19.982498 -62.150803 -1.1445565 25.140348 -1.1001208 24.790852 -19.212933 -78.541573
38500000000 -19.411207 -68.088043 -1.1292615 23.093336 -1.0920646 22.670361 -18.675816 -74.572449
38600000000 -19.789402 -63.065029 -1.1039145 21.230442 -1.0480187 20.901169 -19.938772 -74.426109
38700000000 -20.844055 -66.411919 -1.097591 19.661839 -1.0734401 19.212612 -19.918724 -84.216904
38800000000 -20.260523 -72.286469 -1.0936526 17.648626 -1.0829234 17.158648 -19.319525 -79.968872
38900000000 -20.219446 -64.993591 -1.0631196 15.757096 -1.0394526 15.343659 -20.693377 -82.854897
39000000000 -21.981136 -69.849998 -1.0500394 14.256577 -1.0465634 13.74578 -20.650171 -97.387558
39100000000 -21.060831 -75.842644 -1.0535188 12.085375 -1.056211 11.579244 -20.954283 -87.522644
39200000000 -21.604633 -68.894073 -1.0252014 10.129239 -1.0238715 9.742506 -22.731176 -91.089867
39300000000 -23.191332 -75.148399 -1.024467 8.441185 -1.0269058 7.9835591 -21.986622 -103.39967
39400000000 -22.087084 -80.850792 -1.0185822 6.469018 -1.0478318 6.105381 -21.627792 -95.165543
39500000000 -22.759705 -69.024254 -1.0295448 4.5008273 -1.0321243 4.1216168 -23.926121 -99.260963
39600000000 -25.131453 -76.318283 -1.0159055 2.7785008 -1.0313729 2.4160955 -22.775131 -114.25903
39700000000 -23.898094 -79.563072 -1.0276365 0.88620639 -1.0520409 0.54450315 -23.413172 -107.27038
39800000000 -24.810205 -68.914154 -1.0288249 -1.0250252 -1.0350517 -1.3340925 -26.935175 -111.77689
39900000000 -26.662718 -73.062805 -1.0178235 -2.8671222 -1.0310397 -3.2040339 -25.772402 -119.93073
40000000000 -26.092552 -81.090096 -1.0049139 -4.6731515 -1.0265405 -5.0341415 -25.680607 -109.8987
