!Keysight Technologies,N5247B,MY61255062,A.19.80.06
!Date: Thursday, May 21, 2026 12:28:50
!Correction: S11(Cdelta 2-Port  ) 
!S21(Cdelta 2-Port  ) 
!S12(Cdelta 2-Port  ) 
!S22(Cdelta 2-Port  ) 
!S2P File: Measurements: S11, S21, S12, S22:
# Hz S  dB   R 50
1000000000 -25.457321 -17.243898 -0.46573418 -21.024441 -0.4683561 -21.031517 -25.787697 -17.547886
1027500000 -25.45158 -18.311121 -0.46755257 -21.58284 -0.47021973 -21.597393 -25.788368 -18.291332
1055000000 -25.405848 -19.030867 -0.4712182 -22.15394 -0.47484216 -22.161974 -25.784426 -19.280054
1082500000 -25.327576 -19.470995 -0.47320229 -22.701208 -0.475014 -22.710987 -25.781248 -19.536318
1110000000 -25.316233 -20.61587 -0.47468451 -23.273394 -0.47789928 -23.281 -25.821293 -20.335487
1137500000 -25.26755 -21.229385 -0.47615135 -23.824465 -0.48081598 -23.84273 -25.829775 -20.765514
1165000000 -25.190395 -21.675884 -0.47826803 -24.380157 -0.48266354 -24.395992 -25.776241 -21.145525
1192500000 -25.07683 -22.693151 -0.47846165 -24.951073 -0.48223341 -24.956333 -25.74095 -21.766113
1220000000 -25.046406 -23.555668 -0.48075178 -25.52327 -0.48415133 -25.531092 -25.722403 -22.828829
1247500000 -25.057821 -24.058167 -0.48285073 -26.091364 -0.48587352 -26.099859 -25.672176 -23.571068
1275000000 -25.06023 -24.726015 -0.48488468 -26.650623 -0.48914266 -26.671259 -25.666552 -24.599787
1302500000 -25.035919 -25.214493 -0.49157032 -27.219419 -0.49238408 -27.230904 -25.753092 -25.670719
1330000000 -25.023746 -25.896584 -0.49071148 -27.773655 -0.4930481 -27.784538 -25.698002 -25.874897
1357500000 -24.985571 -26.672188 -0.49189469 -28.34193 -0.49434915 -28.350334 -25.69182 -26.68775
1385000000 -24.937216 -27.695227 -0.49227101 -28.901993 -0.49592274 -28.922747 -25.708834 -27.56332
1412500000 -24.926462 -28.704153 -0.49564651 -29.470804 -0.4987967 -29.486732 -25.713535 -27.91386
1440000000 -24.917646 -29.216555 -0.4982346 -30.037905 -0.50152117 -30.043659 -25.681068 -28.34742
1467500000 -24.874876 -30.114752 -0.49938008 -30.591906 -0.50283492 -30.607365 -25.675056 -29.046036
1495000000 -24.844151 -30.795008 -0.49996239 -31.157524 -0.50531185 -31.165792 -25.639015 -29.696949
1522500000 -24.826283 -31.216732 -0.50336802 -31.713976 -0.5062021 -31.734121 -25.61434 -30.220562
1550000000 -24.795794 -31.841387 -0.50360638 -32.277779 -0.50698519 -32.296185 -25.58309 -30.957193
1577500000 -24.741304 -32.420284 -0.50685132 -32.841282 -0.51045948 -32.857735 -25.604128 -31.919466
1605000000 -24.752487 -33.023586 -0.50856423 -33.40163 -0.51295328 -33.416809 -25.588627 -32.459141
1632500000 -24.767 -33.514881 -0.51159537 -33.961224 -0.51498884 -33.978664 -25.589849 -33.280067
1660000000 -24.725241 -34.515312 -0.5129981 -34.521847 -0.51624638 -34.540268 -25.608437 -34.031933
1687500000 -24.683245 -35.21244 -0.51446253 -35.087227 -0.51745141 -35.096863 -25.572693 -34.555222
1715000000 -24.700642 -35.934822 -0.51584989 -35.649689 -0.51869124 -35.660439 -25.576633 -35.22308
1742500000 -24.637587 -36.866871 -0.5183593 -36.208714 -0.52130622 -36.225708 -25.598772 -35.941044
1770000000 -24.594116 -37.702858 -0.51791543 -36.764862 -0.52362174 -36.790222 -25.594986 -36.658535
1797500000 -24.58252 -38.262333 -0.52067643 -37.328876 -0.52342516 -37.347099 -25.581902 -37.139511
1825000000 -24.563169 -39.017994 -0.52198434 -37.897121 -0.5261932 -37.910694 -25.593019 -37.828766
1852500000 -24.524538 -39.81052 -0.52382845 -38.458363 -0.5278874 -38.472019 -25.593361 -38.529564
1880000000 -24.530916 -40.460732 -0.52574176 -39.01516 -0.52910686 -39.038593 -25.592358 -39.062653
1907500000 -24.491039 -41.112915 -0.52725345 -39.584442 -0.53193116 -39.60313 -25.56642 -39.879021
1935000000 -24.4137 -41.685921 -0.52838701 -40.146 -0.53264195 -40.171112 -25.57579 -40.41103
1962500000 -24.445946 -42.50201 -0.52986044 -40.715698 -0.53497869 -40.72974 -25.573456 -41.150078
1990000000 -24.460835 -43.225182 -0.53272682 -41.281193 -0.53770953 -41.29203 -25.595457 -41.981438
2017500000 -24.432198 -43.960949 -0.53545129 -41.838459 -0.53999394 -41.855507 -25.637342 -42.881393
2045000000 -24.414223 -44.789852 -0.53773767 -42.388615 -0.54090768 -42.41045 -25.641895 -43.335903
2072500000 -24.415653 -45.43927 -0.53952402 -42.954975 -0.54368603 -42.976646 -25.646437 -43.865623
2100000000 -24.360613 -46.254681 -0.54076582 -43.512367 -0.54477078 -43.534122 -25.641869 -44.383179
2127500000 -24.352846 -46.955814 -0.54173046 -44.071384 -0.54685068 -44.101494 -25.630383 -45.050323
2155000000 -24.374506 -47.698971 -0.54500616 -44.638756 -0.549649 -44.663113 -25.644907 -45.750496
2182500000 -24.338995 -48.377159 -0.54672623 -45.19302 -0.55071265 -45.217342 -25.65592 -46.455811
2210000000 -24.296841 -49.138092 -0.54806578 -45.767246 -0.55300176 -45.786057 -25.633472 -46.849766
2237500000 -24.31271 -49.810402 -0.55091125 -46.329353 -0.55636424 -46.339333 -25.652763 -47.646824
2265000000 -24.286795 -50.489578 -0.5521419 -46.88958 -0.55814826 -46.903694 -25.665825 -48.212944
2292500000 -24.251051 -51.218136 -0.55322641 -47.451241 -0.5598188 -47.475677 -25.631178 -48.64996
2320000000 -24.270885 -52.075535 -0.55731887 -48.019436 -0.56277895 -48.04364 -25.641495 -49.316631
2347500000 -24.247934 -52.955845 -0.5601716 -48.57415 -0.56478351 -48.592518 -25.705015 -50.066807
2375000000 -24.205635 -53.681248 -0.56227154 -49.139275 -0.56737977 -49.154232 -25.673317 -50.641266
2402500000 -24.2626 -54.429703 -0.56420571 -49.702568 -0.57084346 -49.71595 -25.672756 -51.410301
2430000000 -24.268303 -55.185627 -0.56703526 -50.258839 -0.57193708 -50.276081 -25.721622 -51.728115
2457500000 -24.212675 -55.93206 -0.57114899 -50.816227 -0.57591033 -50.828861 -25.694613 -52.425285
2485000000 -24.218164 -56.763477 -0.57343566 -51.376678 -0.57781273 -51.388332 -25.668095 -53.146938
2512500000 -24.277479 -57.488892 -0.57589376 -51.936115 -0.58135569 -51.952854 -25.70392 -53.693104
2540000000 -24.228514 -58.549046 -0.57793748 -52.489674 -0.58290964 -52.499489 -25.739258 -54.688171
2567500000 -24.207333 -59.221039 -0.58099705 -53.045105 -0.58653682 -53.056656 -25.716873 -55.348179
2595000000 -24.253334 -59.773533 -0.58126575 -53.590115 -0.58789492 -53.616383 -25.716064 -55.274158
2622500000 -24.239717 -60.729473 -0.58258581 -54.14716 -0.59011722 -54.162796 -25.748913 -56.112053
2650000000 -24.203682 -61.928082 -0.58626395 -54.706413 -0.59095943 -54.735416 -25.762167 -57.015907
2677500000 -24.210745 -62.292042 -0.58961517 -55.264133 -0.59442353 -55.281857 -25.731441 -57.409142
2705000000 -24.210333 -62.808331 -0.5894382 -55.810783 -0.597247 -55.839115 -25.747171 -58.206482
2732500000 -24.242113 -64.177879 -0.593337 -56.367371 -0.59798813 -56.400162 -25.776125 -58.644314
2760000000 -24.202663 -64.877525 -0.59541774 -56.93029 -0.59912813 -56.945789 -25.803345 -59.044331
2787500000 -24.246101 -65.210831 -0.5969981 -57.489162 -0.60514665 -57.51796 -25.805429 -60.123363
2815000000 -24.280075 -66.110207 -0.59977895 -58.042847 -0.60672909 -58.06189 -25.839712 -60.476311
2842500000 -24.281 -67.324295 -0.60276532 -58.604568 -0.60857862 -58.625904 -25.804041 -60.819931
2870000000 -24.286467 -67.673676 -0.60506511 -59.161911 -0.61273164 -59.171616 -25.814951 -61.682209
2897500000 -24.363783 -68.330284 -0.60683805 -59.704269 -0.61385971 -59.725266 -25.81163 -62.270092
2925000000 -24.351307 -69.903381 -0.60880941 -60.263355 -0.61586022 -60.28672 -25.878563 -62.713085
2952500000 -24.349764 -70.297241 -0.61289823 -60.814037 -0.61778677 -60.829987 -25.913616 -63.676899
2980000000 -24.379091 -70.676109 -0.61425209 -61.371052 -0.61955082 -61.394127 -25.87672 -64.585617
3007500000 -24.424847 -71.698784 -0.61585188 -61.914627 -0.6242457 -61.941334 -25.970692 -64.679146
3035000000 -24.455864 -72.523087 -0.61834633 -62.475262 -0.62544256 -62.502781 -25.987213 -65.399544
3062500000 -24.494677 -72.817627 -0.62292731 -63.04063 -0.62922782 -63.051773 -25.997866 -66.2379
3090000000 -24.536427 -73.779762 -0.62481064 -63.579178 -0.6315046 -63.606255 -26.01289 -66.113548
3117500000 -24.543327 -75.09716 -0.62715834 -64.133308 -0.63448286 -64.143997 -26.108053 -66.632523
3145000000 -24.571173 -75.114197 -0.63020307 -64.685371 -0.63746685 -64.697182 -26.077835 -67.942375
3172500000 -24.593014 -75.735191 -0.63074964 -65.225563 -0.63931721 -65.245323 -26.066935 -68.157486
3200000000 -24.630629 -77.20137 -0.63354051 -65.776283 -0.64119774 -65.792908 -26.185751 -68.058624
3227500000 -24.652321 -77.196686 -0.6368649 -66.323898 -0.64487332 -66.328987 -26.225145 -69.191528
3255000000 -24.686676 -77.808372 -0.64003646 -66.851921 -0.64633542 -66.875008 -26.116013 -69.532364
3282500000 -24.715851 -78.887299 -0.64140898 -67.409218 -0.64830351 -67.430191 -26.292847 -69.329559
3310000000 -24.763517 -79.089546 -0.64352012 -67.944244 -0.64948386 -67.958023 -26.311033 -70.581963
3337500000 -24.803705 -79.525749 -0.64609963 -68.490875 -0.65188134 -68.507103 -26.168022 -71.792465
3365000000 -24.895082 -80.614861 -0.64832664 -69.036278 -0.65284032 -69.041336 -26.26149 -70.887878
3392500000 -24.859474 -80.673752 -0.65006679 -69.579208 -0.65578997 -69.588692 -26.46693 -71.043884
3420000000 -24.920967 -81.247055 -0.64997298 -70.120125 -0.65774632 -70.134506 -26.371674 -73.112381
3447500000 -25.058187 -82.116028 -0.65171468 -70.663246 -0.65775806 -70.676247 -26.305182 -72.617043
3475000000 -24.979294 -82.548523 -0.65217191 -71.20076 -0.65908653 -71.213745 -26.44173 -71.671501
3502500000 -25.041834 -83.130348 -0.652399 -71.744057 -0.66020441 -71.763306 -26.495668 -73.57148
3530000000 -25.190081 -83.093941 -0.65264541 -72.28833 -0.65939659 -72.313774 -26.361788 -74.449852
3557500000 -25.101692 -83.888527 -0.65275007 -72.834244 -0.65905851 -72.856346 -26.365877 -73.051033
3585000000 -25.140491 -84.474281 -0.6535576 -73.380432 -0.66034186 -73.400803 -26.509062 -73.64801
3612500000 -25.317982 -84.282524 -0.65486765 -73.934921 -0.66009927 -73.94648 -26.474014 -75.603394
3640000000 -25.245333 -84.91349 -0.65465575 -74.473068 -0.6612792 -74.487839 -26.362759 -74.878098
3667500000 -25.242624 -85.700035 -0.65571743 -75.02166 -0.66221195 -75.039871 -26.362045 -74.824043
3695000000 -25.389782 -85.275986 -0.65566051 -75.575279 -0.66172594 -75.574936 -26.437225 -76.553062
3722500000 -25.365038 -85.773605 -0.65810478 -76.110977 -0.66118878 -76.134621 -26.378111 -76.805878
3750000000 -25.310255 -86.513351 -0.65614581 -76.65995 -0.6613338 -76.682106 -26.357307 -76.499748
3777500000 -25.383923 -86.209778 -0.65598446 -77.218369 -0.66283703 -77.227478 -26.433346 -77.920059
3805000000 -25.480692 -86.311806 -0.65739185 -77.749832 -0.66299683 -77.77124 -26.45524 -78.541603
3832500000 -25.373014 -87.608047 -0.65731478 -78.304634 -0.66112036 -78.316559 -26.380861 -78.14978
3860000000 -25.382063 -87.436058 -0.65760326 -78.848801 -0.66321397 -78.871506 -26.411539 -79.418472
3887500000 -25.503012 -86.681114 -0.65706843 -79.394661 -0.66332221 -79.415871 -26.524975 -80.222931
3915000000 -25.470795 -88.373528 -0.65732288 -79.953758 -0.66284156 -79.959724 -26.447569 -80.01368
3942500000 -25.35504 -88.842033 -0.65678716 -80.491234 -0.66228461 -80.504501 -26.443958 -81.158028
3970000000 -25.420391 -87.578186 -0.65516502 -81.038391 -0.66148871 -81.051537 -26.586355 -81.727089
3997500000 -25.530405 -88.461899 -0.65542388 -81.586884 -0.66067159 -81.605682 -26.50485 -82.029213
4025000000 -25.404604 -89.924789 -0.65282619 -82.138107 -0.66096514 -82.165947 -26.454405 -82.937462
4052500000 -25.396122 -89.104317 -0.65508735 -82.694885 -0.65944445 -82.710014 -26.629646 -83.479309
4080000000 -25.568184 -89.002632 -0.65374959 -83.247147 -0.65812528 -83.259621 -26.5851 -83.988953
4107500000 -25.499325 -90.949638 -0.65115744 -83.805618 -0.65779454 -83.820992 -26.564869 -84.788132
4135000000 -25.35243 -90.805511 -0.65013355 -84.357887 -0.65585649 -84.376343 -26.646715 -84.822014
4162500000 -25.476017 -89.675438 -0.64989811 -84.9132 -0.6551376 -84.933052 -26.646561 -85.556969
4190000000 -25.544712 -91.185509 -0.64911741 -85.483475 -0.65512496 -85.497429 -26.639271 -86.426994
4217500000 -25.42197 -92.152313 -0.64822686 -86.038475 -0.65593624 -86.056252 -26.68627 -86.092834
4245000000 -25.411594 -91.30014 -0.64860165 -86.599998 -0.65496755 -86.611748 -26.72481 -87.072098
4272500000 -25.503075 -91.900314 -0.65102208 -87.156158 -0.65495127 -87.168358 -26.755604 -88.115494
4300000000 -25.492702 -93.181046 -0.64947456 -87.722061 -0.65592903 -87.724342 -26.760456 -87.696396
4327500000 -25.423498 -92.926796 -0.65069461 -88.273514 -0.65702778 -88.286957 -26.8291 -88.704163
4355000000 -25.488077 -92.704636 -0.65034944 -88.833138 -0.65650624 -88.843437 -26.874758 -89.71447
4382500000 -25.521164 -93.83905 -0.6516816 -89.389091 -0.657094 -89.402756 -26.87002 -89.5121
4410000000 -25.488022 -94.534172 -0.65103561 -89.943123 -0.65670586 -89.957832 -26.897923 -90.282059
4437500000 -25.494911 -94.149101 -0.65127712 -90.499191 -0.65822613 -90.520599 -27.019403 -90.983002
4465000000 -25.502876 -94.86647 -0.65247089 -91.056488 -0.65881419 -91.078728 -26.992577 -91.248024
4492500000 -25.508543 -95.560684 -0.65276963 -91.615051 -0.65874881 -91.63678 -27.042643 -91.601868
4520000000 -25.542856 -95.68856 -0.6530726 -92.174919 -0.65815991 -92.186829 -27.127676 -92.641945
4547500000 -25.520945 -95.657738 -0.65259397 -92.733284 -0.65849757 -92.735443 -27.099258 -92.810944
4575000000 -25.529161 -96.709488 -0.65392566 -93.284248 -0.65762073 -93.306206 -27.188919 -92.848648
4602500000 -25.551933 -97.134712 -0.65333015 -93.851479 -0.65892327 -93.856178 -27.273947 -94.140892
4630000000 -25.551516 -96.86673 -0.6529246 -94.400955 -0.66046089 -94.419083 -27.264475 -94.518295
4657500000 -25.548487 -97.610733 -0.65515059 -94.950935 -0.66101575 -94.970131 -27.262955 -94.373512
4685000000 -25.612644 -98.331718 -0.65408272 -95.513229 -0.659518 -95.535423 -27.372015 -95.314232
4712500000 -25.588015 -98.272835 -0.65542567 -96.070816 -0.66051215 -96.096542 -27.375546 -95.89843
4740000000 -25.595568 -98.39534 -0.65574479 -96.620399 -0.66147518 -96.645439 -27.432039 -95.672638
4767500000 -25.643101 -99.610329 -0.65551239 -97.179527 -0.66203952 -97.197227 -27.497078 -96.681473
4795000000 -25.661058 -99.599945 -0.65685946 -97.749962 -0.66311204 -97.751228 -27.574282 -97.43129
4822500000 -25.673948 -99.861099 -0.65684736 -98.29924 -0.66364551 -98.315857 -27.54866 -97.09581
4850000000 -25.690176 -100.97427 -0.65703195 -98.854713 -0.66393775 -98.865753 -27.675295 -97.680641
4877500000 -25.717127 -100.97237 -0.65805656 -99.421417 -0.66559517 -99.434509 -27.725691 -98.637413
4905000000 -25.708834 -100.74733 -0.65810418 -99.96981 -0.66403759 -99.989204 -27.676849 -98.234085
4932500000 -25.751534 -101.48073 -0.65963912 -100.53548 -0.66441405 -100.55218 -27.781628 -98.730652
4960000000 -25.780834 -102.41766 -0.6587624 -101.08749 -0.66578376 -101.09017 -27.880827 -99.678429
4987500000 -25.783394 -102.18805 -0.66003269 -101.64371 -0.66670722 -101.65692 -27.841476 -99.718895
5015000000 -25.798422 -102.86555 -0.66064566 -102.1955 -0.6670543 -102.216 -27.945591 -99.525604
5042500000 -25.850056 -103.43683 -0.6607433 -102.76372 -0.66776156 -102.7729 -28.130098 -101.00211
5070000000 -25.896004 -103.34906 -0.66174674 -103.32066 -0.6676662 -103.33107 -28.051287 -101.05472
5097500000 -25.903286 -103.61004 -0.66291875 -103.87113 -0.66867971 -103.89451 -28.085007 -100.69199
5125000000 -25.891279 -104.72002 -0.66345429 -104.43099 -0.67029208 -104.44644 -28.243565 -101.59048
5152500000 -25.924034 -104.53351 -0.66550434 -104.98522 -0.67008185 -104.99487 -28.19404 -101.86564
5180000000 -25.949003 -104.67057 -0.66635984 -105.54783 -0.67174071 -105.55589 -28.177391 -101.69357
5207500000 -25.981993 -105.63076 -0.66702169 -106.10267 -0.67367893 -106.11554 -28.401373 -102.39135
5235000000 -25.9783 -105.67835 -0.66698188 -106.65802 -0.67355317 -106.66631 -28.404043 -103.06704
5262500000 -26.006586 -105.63598 -0.66713065 -107.22727 -0.67434734 -107.23174 -28.342112 -102.57754
5290000000 -26.06543 -106.27721 -0.66929722 -107.75863 -0.67473555 -107.7776 -28.542009 -103.14444
5317500000 -26.032272 -106.55414 -0.66958535 -108.33376 -0.67501646 -108.33566 -28.656418 -104.09953
5345000000 -26.100073 -106.59033 -0.66973001 -108.87855 -0.67561918 -108.89742 -28.558918 -103.91532
5372500000 -26.163847 -107.3428 -0.67076486 -109.4291 -0.67695946 -109.44354 -28.700853 -103.81546
5400000000 -26.139885 -107.76802 -0.67198581 -109.98609 -0.67877012 -110.00205 -28.83552 -105.26337
5427500000 -26.183996 -107.92619 -0.67262101 -110.5403 -0.67817062 -110.54928 -28.745487 -105.22335
5455000000 -26.264805 -108.18511 -0.67213929 -111.10062 -0.68032545 -111.092 -28.776243 -104.66115
5482500000 -26.22509 -108.72206 -0.67455351 -111.64987 -0.68059886 -111.65895 -29.038651 -105.47039
5510000000 -26.279064 -108.92587 -0.67442292 -112.20258 -0.67896748 -112.21816 -29.023006 -106.25567
5537500000 -26.345764 -109.21548 -0.67399997 -112.77289 -0.68136525 -112.78065 -29.002079 -105.38692
5565000000 -26.313984 -109.93274 -0.67473555 -113.31895 -0.68313956 -113.33484 -29.221506 -105.95252
5592500000 -26.338249 -110.06899 -0.67609251 -113.87386 -0.68295813 -113.87865 -29.361317 -106.96767
5620000000 -26.454521 -110.3559 -0.6761055 -114.43987 -0.68215901 -114.43925 -29.190535 -107.06521
5647500000 -26.38843 -110.69273 -0.67710072 -114.98248 -0.6829657 -115.00388 -29.331493 -106.90659
5675000000 -26.391905 -110.62384 -0.67822087 -115.54284 -0.68390554 -115.55621 -29.533272 -107.07166
5702500000 -26.520761 -110.90054 -0.67811799 -116.09264 -0.68345833 -116.1196 -29.473341 -107.33357
5730000000 -26.507647 -111.4129 -0.67878133 -116.64931 -0.68534869 -116.66084 -29.567474 -107.10705
5757500000 -26.475607 -111.67284 -0.67858523 -117.21107 -0.68768752 -117.2338 -29.712786 -107.73304
5785000000 -26.607428 -111.81501 -0.68131769 -117.75787 -0.68790406 -117.78437 -29.818083 -107.85108
5812500000 -26.581009 -112.12644 -0.68108904 -118.31684 -0.68840146 -118.32462 -29.805857 -107.52442
5840000000 -26.538589 -112.40713 -0.680825 -118.86461 -0.68819827 -118.89149 -29.929192 -108.14043
5867500000 -26.687843 -112.3672 -0.68151754 -119.43491 -0.68990862 -119.44571 -30.096437 -108.04787
5895000000 -26.741095 -113.27144 -0.68426311 -119.98711 -0.68806571 -119.99816 -30.071751 -108.12115
5922500000 -26.690689 -113.37437 -0.68488556 -120.53962 -0.69080961 -120.54902 -30.20031 -108.36265
5950000000 -26.762997 -113.10178 -0.68690419 -121.10075 -0.69008309 -121.11321 -30.385138 -108.18822
5977500000 -26.893316 -113.67753 -0.68596011 -121.65123 -0.69265431 -121.66407 -30.400249 -107.86015
6005000000 -26.791822 -114.25429 -0.68664587 -122.2019 -0.69282132 -122.21982 -30.426491 -108.36247
6032500000 -26.793098 -113.68023 -0.68783158 -122.75874 -0.69185007 -122.76595 -30.599468 -108.44431
6060000000 -27.003624 -114.0572 -0.68862838 -123.30969 -0.69444847 -123.33341 -30.719793 -107.09434
6087500000 -26.931286 -114.86494 -0.68985885 -123.86556 -0.6940099 -123.87683 -30.730391 -107.85773
6115000000 -26.851965 -114.52254 -0.69006038 -124.41383 -0.69550806 -124.43716 -30.878458 -108.29674
6142500000 -27.134827 -114.49104 -0.69080627 -124.97181 -0.69496971 -124.9839 -31.020504 -106.77
6170000000 -27.209379 -115.54156 -0.6912955 -125.51747 -0.69823658 -125.54332 -31.07515 -107.29874
6197500000 -26.921059 -115.63728 -0.69088185 -126.07443 -0.69821715 -126.09563 -31.117111 -108.98167
6225000000 -27.130297 -115.00379 -0.692164 -126.62422 -0.69778121 -126.64111 -31.297073 -105.63799
6252500000 -27.382044 -115.76583 -0.69428021 -127.17415 -0.69844395 -127.2015 -31.348469 -105.51823
6280000000 -27.062649 -116.54841 -0.69400805 -127.72372 -0.69953007 -127.74758 -31.427359 -108.67727
6307500000 -27.126524 -115.2479 -0.69185615 -128.27351 -0.69818246 -128.29283 -31.477047 -105.15438
6335000000 -27.530752 -115.05959 -0.69114619 -128.82809 -0.69799888 -128.84196 -31.543777 -103.28228
6362500000 -27.341309 -117.0327 -0.69257963 -129.38757 -0.70003915 -129.40556 -31.742872 -106.48949
6390000000 -27.145212 -116.31754 -0.68897718 -129.93129 -0.69858468 -129.95758 -31.804386 -104.30276
6417500000 -27.602556 -114.56675 -0.69098473 -130.49551 -0.6976639 -130.50903 -31.718742 -101.75822
6445000000 -27.621763 -116.88531 -0.69164157 -131.05087 -0.69691646 -131.07376 -31.961159 -105.40882
6472500000 -27.259943 -117.52688 -0.69072253 -131.59612 -0.69640535 -131.62444 -31.902039 -103.86061
6500000000 -27.564682 -114.99498 -0.69116437 -132.16171 -0.69699335 -132.18637 -31.804428 -99.987404
6527500000 -27.780657 -115.58113 -0.68949991 -132.7222 -0.69579792 -132.74356 -32.259853 -102.27636
6555000000 -27.553961 -118.35788 -0.68706614 -133.27208 -0.69517022 -133.29411 -32.320503 -103.49111
6582500000 -27.51581 -116.07918 -0.6880272 -133.84035 -0.69398803 -133.85727 -31.693403 -99.111847
6610000000 -27.77067 -114.7113 -0.68761837 -134.3902 -0.69547921 -134.41821 -32.226448 -98.651428
6637500000 -27.761219 -117.69378 -0.68904275 -134.95856 -0.6958611 -134.98405 -32.57542 -101.66161
6665000000 -27.627848 -117.08888 -0.68964493 -135.52521 -0.69678122 -135.54648 -31.82234 -99.407669
6692500000 -27.723354 -114.88924 -0.6884318 -136.0811 -0.69489956 -136.10223 -32.005024 -95.005142
6720000000 -27.852083 -116.67236 -0.69016171 -136.64502 -0.69584715 -136.66597 -32.794724 -97.209129
6747500000 -27.758286 -117.17207 -0.69012046 -137.214 -0.69602698 -137.23366 -32.155617 -99.245712
6775000000 -27.740822 -115.60474 -0.68813092 -137.7756 -0.695553 -137.80223 -31.687014 -95.809593
6802500000 -27.958111 -116.19772 -0.69026184 -138.35001 -0.69721586 -138.36388 -32.413651 -92.766731
6830000000 -27.866411 -116.76722 -0.69129884 -138.91637 -0.69677305 -138.93433 -32.667412 -96.34021
6857500000 -27.795261 -116.36462 -0.69367307 -139.47508 -0.69942302 -139.50024 -31.879852 -95.771477
6885000000 -27.974079 -116.13664 -0.69583678 -140.03824 -0.70268595 -140.0594 -32.02417 -92.148758
6912500000 -27.935535 -116.64742 -0.69856679 -140.59068 -0.70455062 -140.60921 -32.563976 -93.348877
6940000000 -27.859875 -117.22858 -0.70079952 -141.15799 -0.70686692 -141.16864 -32.023693 -94.867302
6967500000 -28.105307 -116.71467 -0.70084095 -141.71605 -0.7095834 -141.72098 -31.673058 -92.510239
6995000000 -28.078871 -116.97131 -0.70642769 -142.24828 -0.71169561 -142.27081 -32.240749 -91.136879
7022500000 -28.112526 -118.03773 -0.70645356 -142.79451 -0.71312636 -142.82741 -32.182304 -93.669273
7050000000 -28.42314 -117.06688 -0.70639354 -143.33864 -0.71199113 -143.36073 -31.670113 -92.980789
7077500000 -28.44116 -116.41434 -0.70461488 -143.88451 -0.71413988 -143.9117 -32.103909 -90.459854
7105000000 -28.354523 -117.11285 -0.70573145 -144.42802 -0.71227962 -144.4588 -32.393368 -91.084442
7132500000 -28.547777 -116.20604 -0.70377129 -144.98727 -0.71020371 -145.00317 -31.929983 -91.92897
7160000000 -28.57502 -114.60741 -0.70332384 -145.567 -0.70998913 -145.5799 -31.942225 -89.312637
7187500000 -28.452389 -115.52744 -0.70215523 -146.12178 -0.71253735 -146.13667 -32.403824 -87.828789
7215000000 -28.557936 -115.21274 -0.70453537 -146.67101 -0.71164286 -146.69807 -32.127804 -89.447708
7242500000 -28.614548 -113.38071 -0.70541108 -147.2339 -0.71129763 -147.26472 -31.839975 -87.906342
7270000000 -28.460173 -113.89718 -0.70629364 -147.78986 -0.71357298 -147.81911 -32.299774 -85.522041
7297500000 -28.558575 -114.41574 -0.70682824 -148.36099 -0.71354312 -148.36868 -32.109734 -86.792412
7325000000 -28.629013 -112.92686 -0.70737439 -148.92628 -0.71476269 -148.9391 -31.635588 -86.433014
7352500000 -28.444365 -112.68853 -0.7087273 -149.47423 -0.71612519 -149.49811 -31.924568 -84.106293
7380000000 -28.514294 -113.60104 -0.7102403 -150.03094 -0.71629947 -150.06348 -32.060478 -84.492996
7407500000 -28.610794 -112.55898 -0.70927888 -150.59436 -0.71847481 -150.61479 -31.553947 -85.171852
7435000000 -28.52709 -111.91028 -0.710886 -151.15047 -0.71846473 -151.16849 -31.585527 -83.40461
7462500000 -28.458132 -113.25799 -0.71293175 -151.7045 -0.71788108 -151.72908 -31.846594 -82.626938
7490000000 -28.618166 -112.34029 -0.71245897 -152.25571 -0.71882516 -152.29494 -31.424942 -84.231285
7517500000 -28.585236 -110.77203 -0.71281826 -152.82213 -0.72105831 -152.83958 -31.397604 -82.161438
7545000000 -28.467295 -112.23109 -0.71183407 -153.3903 -0.71928823 -153.41101 -31.742823 -80.331123
7572500000 -28.523323 -111.96365 -0.71408892 -153.94084 -0.72082913 -153.95628 -31.370331 -82.560829
7600000000 -28.542673 -110.42767 -0.71702123 -154.4993 -0.72304308 -154.51573 -31.153902 -81.112411
7627500000 -28.462093 -110.92441 -0.71761906 -155.06161 -0.72247624 -155.06935 -31.456358 -79.180656
7655000000 -28.404869 -111.33312 -0.71914071 -155.61171 -0.72569138 -155.6291 -31.286505 -80.323654
7682500000 -28.535574 -109.92359 -0.72125638 -156.16696 -0.72497433 -156.18718 -30.840824 -80.330666
7710000000 -28.498615 -109.7888 -0.72039521 -156.71803 -0.72765172 -156.74466 -31.116787 -78.335495
7737500000 -28.378082 -110.59192 -0.72156352 -157.26981 -0.72800213 -157.28807 -31.016836 -79.353561
7765000000 -28.441696 -109.76753 -0.72295779 -157.83388 -0.7277717 -157.85225 -30.526995 -79.543083
7792500000 -28.428522 -109.25079 -0.72490585 -158.37407 -0.72914898 -158.41728 -30.794706 -77.583351
7820000000 -28.325943 -109.87296 -0.72443634 -158.94698 -0.73112243 -158.97484 -30.874533 -78.351761
7847500000 -28.358322 -109.49059 -0.72756231 -159.50008 -0.73077601 -159.51866 -30.372261 -79.284874
7875000000 -28.461115 -108.65254 -0.72442502 -160.06616 -0.73275363 -160.084 -30.487429 -77.329041
7902500000 -28.27243 -109.32773 -0.72486913 -160.61971 -0.73293811 -160.64645 -30.728043 -77.115646
7930000000 -28.158648 -109.08978 -0.72717881 -161.17491 -0.73233718 -161.19859 -30.164618 -78.055443
7957500000 -28.417774 -108.29611 -0.72783995 -161.73137 -0.7352162 -161.7545 -30.226139 -76.525375
7985000000 -28.254923 -108.41394 -0.72875828 -162.29535 -0.73471159 -162.32753 -30.528622 -76.453316
8012500000 -28.080963 -108.74544 -0.73148268 -162.84251 -0.73573011 -162.86026 -29.907408 -77.320313
8040000000 -28.31848 -108.29427 -0.72991633 -163.40927 -0.73758358 -163.43178 -29.869204 -75.639938
8067500000 -28.26897 -107.72977 -0.73204154 -163.96436 -0.73805755 -163.97411 -30.324207 -75.531181
8095000000 -27.967384 -107.88734 -0.73384678 -164.5141 -0.73942035 -164.54433 -29.672815 -77.186562
8122500000 -28.140156 -108.12452 -0.73446506 -165.08832 -0.74170399 -165.09891 -29.342216 -74.696861
8150000000 -28.269592 -107.04356 -0.73518711 -165.64178 -0.74326974 -165.66522 -30.121622 -74.421829
8177500000 -27.885788 -107.34019 -0.73728538 -166.19727 -0.74284923 -166.21375 -29.570889 -78.040733
8205000000 -27.973646 -107.87899 -0.7388317 -166.76122 -0.74404389 -166.78658 -28.804031 -74.535782
8232500000 -28.243023 -106.98802 -0.74049187 -167.32773 -0.74735957 -167.3338 -29.871342 -72.551224
8260000000 -27.829176 -106.32239 -0.74160665 -167.88196 -0.75026828 -167.91035 -29.571989 -79.543663
8287500000 -27.835352 -107.61121 -0.74624544 -168.45384 -0.75120497 -168.47337 -28.193811 -75.328995
8315000000 -28.16444 -106.46031 -0.74855703 -169.00119 -0.75416857 -169.01961 -29.443899 -69.606178
8342500000 -27.719673 -105.57745 -0.75443065 -169.57494 -0.75979882 -169.60822 -30.001959 -81.2174
8370000000 -27.622129 -107.38013 -0.75817782 -170.1286 -0.76372683 -170.15215 -27.477934 -79.00489
8397500000 -28.156298 -105.77419 -0.76662982 -170.66023 -0.7717697 -170.7028 -28.27866 -65.006111
8425000000 -27.519405 -104.56739 -0.77691138 -171.23131 -0.78420037 -171.27643 -31.712976 -78.253006
8452500000 -27.484009 -108.15595 -0.78608209 -171.73904 -0.79047489 -171.76846 -27.209078 -90.705978
8480000000 -28.085442 -104.39491 -0.79930931 -172.22304 -0.80230063 -172.25304 -25.611597 -65.719536
8507500000 -27.110367 -104.46738 -0.81807745 -172.66605 -0.82238168 -172.68904 -31.621929 -42.428242
8535000000 -27.603859 -109.75754 -0.81109554 -173.02348 -0.82078689 -173.05534 -30.629908 -117.3544
8562500000 -27.46439 -100.9677 -0.78973025 -173.31119 -0.7975055 -173.34367 -23.343002 -90.667091
8590000000 -26.823214 -109.56199 -0.75459665 -173.67226 -0.76086581 -173.72363 -23.684074 -49.240562
8617500000 -28.325098 -107.39056 -0.70631039 -174.33328 -0.71237296 -174.34979 -31.756573 -15.171926
8645000000 -26.786736 -103.93848 -0.67788893 -175.16135 -0.68329138 -175.19609 -29.150763 -122.71763
8672500000 -27.370195 -110.923 -0.66405392 -175.93506 -0.66831976 -175.97556 -23.753035 -88.12957
8700000000 -27.785465 -102.49744 -0.67393041 -176.63367 -0.67832559 -176.65781 -25.071056 -52.891502
8727500000 -26.903925 -105.89775 -0.69417268 -177.31538 -0.69865948 -177.36044 -31.758009 -69.393257
8755000000 -27.376072 -108.96082 -0.70161301 -177.96321 -0.70487058 -177.98863 -26.900425 -96.819641
8782500000 -27.254059 -103.29629 -0.71082747 -178.49864 -0.7174716 -178.52185 -25.066059 -72.373169
8810000000 -26.888197 -105.67874 -0.72468591 -179.06241 -0.73174185 -179.0867 -28.169338 -63.87849
8837500000 -27.242031 -107.45162 -0.72937125 -179.65224 -0.73350382 -179.67792 -28.116089 -89.048454
8865000000 -27.037523 -104.21909 -0.73264664 179.82603 -0.73846596 179.79617 -25.690908 -79.963005
8892500000 -26.806204 -104.68971 -0.73878783 179.29771 -0.74592608 179.25397 -26.783506 -68.701286
8920000000 -26.976816 -106.89314 -0.74048513 178.71046 -0.74901593 178.69159 -28.025093 -81.947029
8947500000 -26.8442 -105.39228 -0.74307007 178.15778 -0.74881971 178.14371 -26.198353 -82.857712
8975000000 -26.683329 -104.22701 -0.74759912 177.62462 -0.7518962 177.60165 -26.180254 -73.353951
9002500000 -26.791361 -106.39906 -0.75059754 177.06935 -0.75576562 177.04337 -27.455965 -78.426163
9030000000 -26.706303 -106.18399 -0.75151914 176.50806 -0.76109004 176.47192 -26.426424 -84.253166
9057500000 -26.547127 -104.81624 -0.7537033 175.95609 -0.75850761 175.92758 -25.849821 -76.722237
9085000000 -26.57659 -106.33382 -0.75443035 175.39554 -0.76255846 175.36459 -26.761116 -77.782661
9112500000 -26.492935 -106.61403 -0.75786436 174.83328 -0.76343608 174.80347 -26.443245 -84.148422
9140000000 -26.394627 -105.27667 -0.75853658 174.28102 -0.76458889 174.25757 -25.6919 -79.958481
9167500000 -26.387518 -106.08139 -0.76228696 173.74416 -0.76827407 173.71248 -26.236868 -78.220772
9195000000 -26.365051 -106.96198 -0.76217961 173.16515 -0.76923436 173.13277 -26.348694 -83.959335
9222500000 -26.234106 -106.30933 -0.76573801 172.61345 -0.77070993 172.58336 -25.580797 -82.574722
9250000000 -26.205446 -106.12332 -0.76686978 172.06587 -0.77295905 172.03577 -25.730711 -79.763855
9277500000 -26.185846 -107.63129 -0.76854008 171.49693 -0.7753703 171.47501 -26.14057 -83.551666
9305000000 -26.09264 -106.96127 -0.76901561 170.93956 -0.77646345 170.90657 -25.583319 -84.54538
9332500000 -26.068226 -106.14075 -0.77317834 170.38976 -0.7792694 170.3652 -25.476852 -81.682648
9360000000 -26.053392 -107.81218 -0.77550215 169.8306 -0.77914608 169.80135 -25.791183 -83.704124
9387500000 -25.951145 -107.91327 -0.77558261 169.26753 -0.78153753 169.24544 -25.51222 -85.823433
9415000000 -25.925577 -106.95732 -0.77793616 168.72023 -0.78548342 168.69766 -25.287439 -83.753357
9442500000 -25.859121 -108.1265 -0.78029442 168.15996 -0.78683352 168.12534 -25.475603 -84.701424
9470000000 -25.800943 -108.72421 -0.7822631 167.60455 -0.78894609 167.58369 -25.415092 -86.868721
9497500000 -25.792751 -107.7569 -0.78611189 167.05292 -0.79122394 167.03011 -25.162413 -85.842819
9525000000 -25.767729 -108.27266 -0.78833115 166.50941 -0.7921319 166.47018 -25.219213 -85.791489
9552500000 -25.714279 -109.61464 -0.79003578 165.93933 -0.79564309 165.91167 -25.291853 -87.946686
9580000000 -25.680248 -109.09303 -0.79176289 165.39325 -0.79842472 165.36606 -25.071047 -87.689903
9607500000 -25.667013 -108.93446 -0.792624 164.84575 -0.80092049 164.80995 -24.982538 -87.168083
9635000000 -25.554924 -110.40519 -0.79482764 164.29234 -0.80147433 164.27068 -25.122807 -88.846283
9662500000 -25.56249 -110.15233 -0.79735899 163.74113 -0.80534112 163.71297 -25.025278 -89.482574
9690000000 -25.542059 -109.73228 -0.80176419 163.19565 -0.80686015 163.15749 -24.82295 -89.142265
9717500000 -25.430597 -110.77599 -0.80223244 162.63358 -0.81040257 162.61159 -24.930807 -89.927498
9745000000 -25.435976 -111.33393 -0.805004 162.09599 -0.81347591 162.05768 -24.969629 -90.83754
9772500000 -25.490133 -110.87138 -0.80796713 161.5473 -0.81560647 161.52094 -24.746641 -90.652237
9800000000 -25.330675 -111.39085 -0.81105524 160.98344 -0.81777716 160.96126 -24.725542 -91.274513
9827500000 -25.297802 -112.15727 -0.81273204 160.44807 -0.81845593 160.41006 -24.853119 -92.569458
9855000000 -25.399527 -111.57555 -0.8146739 159.90112 -0.82068056 159.87515 -24.726131 -92.239235
9882500000 -25.292915 -112.07745 -0.81553996 159.34512 -0.82323891 159.3221 -24.578125 -92.323586
9910000000 -25.208073 -113.0599 -0.81845903 158.81017 -0.8227374 158.78148 -24.742115 -93.388718
9937500000 -25.328665 -112.82866 -0.82055986 158.26857 -0.82687682 158.22942 -24.699949 -93.890747
9965000000 -25.27309 -112.67864 -0.82270545 157.69873 -0.82756108 157.69005 -24.499794 -93.886658
9992500000 -25.187218 -113.74787 -0.82349581 157.16985 -0.83084935 157.14819 -24.647669 -94.468071
10020000000 -25.281858 -113.67673 -0.82663286 156.62689 -0.83173651 156.6163 -24.719639 -95.149048
10047500000 -25.266008 -113.15444 -0.82711136 156.10054 -0.83233279 156.06525 -24.483929 -95.375999
10075000000 -25.094326 -114.07932 -0.82770234 155.54228 -0.83582741 155.50607 -24.495855 -95.708351
10102500000 -25.166021 -114.57048 -0.82873452 155.01053 -0.83598709 154.96835 -24.661041 -96.154488
10130000000 -25.228785 -113.84104 -0.83028489 154.47118 -0.83666468 154.42496 -24.437044 -96.180367
10157500000 -25.021702 -114.51364 -0.82917434 153.90877 -0.83685988 153.88179 -24.42684 -96.450294
10185000000 -25.072296 -115.46445 -0.83175182 153.37929 -0.83763492 153.33009 -24.70171 -97.246681
10212500000 -25.226261 -114.57484 -0.83326191 152.83324 -0.83831525 152.80757 -24.49473 -97.387421
10240000000 -25.014547 -115.12452 -0.83140606 152.28131 -0.84081519 152.2438 -24.264585 -97.807396
10267500000 -24.995605 -116.02551 -0.83341181 151.74921 -0.8402372 151.71071 -24.541071 -98.16655
10295000000 -25.187874 -115.33257 -0.83422607 151.19559 -0.84114444 151.16341 -24.521259 -98.353653
10322500000 -25.08893 -115.41869 -0.83460814 150.6591 -0.84322733 150.60529 -24.251221 -98.81443
10350000000 -24.89534 -116.34428 -0.83452159 150.10495 -0.83872312 150.07135 -24.510807 -98.987152
10377500000 -25.12829 -115.98284 -0.83437759 149.56372 -0.84328616 149.54269 -24.453968 -99.478226
10405000000 -25.05525 -116.00489 -0.83615816 149.02815 -0.84111714 148.97887 -24.172838 -99.563927
10432500000 -24.802717 -116.62797 -0.83591431 148.47774 -0.84250444 148.42067 -24.318384 -99.529541
10460000000 -25.006718 -116.55235 -0.83563161 147.91879 -0.8418662 147.88164 -24.462484 -100.21797
10487500000 -25.04694 -116.55793 -0.83550954 147.3707 -0.84455341 147.34081 -24.168112 -100.0945
10515000000 -24.809919 -116.9159 -0.83656579 146.82314 -0.84480304 146.79489 -24.133623 -100.66068
10542500000 -24.804668 -117.0865 -0.83618259 146.29301 -0.8445276 146.25023 -24.367031 -100.64667
10570000000 -24.973547 -117.02509 -0.83777213 145.72859 -0.84400696 145.69315 -24.141548 -101.01573
10597500000 -24.748215 -117.19434 -0.83822638 145.172 -0.84372842 145.14233 -24.00839 -101.08016
10625000000 -24.679777 -117.105 -0.83707148 144.64041 -0.84324682 144.59662 -24.239479 -101.3106
10652500000 -24.885185 -117.71528 -0.83716089 144.09192 -0.84374601 144.05202 -24.143856 -101.51863
10680000000 -24.768787 -117.95872 -0.83699894 143.53513 -0.84477097 143.49118 -23.889933 -102.09384
10707500000 -24.579309 -117.72969 -0.83815259 142.993 -0.84571755 142.95061 -24.054636 -102.53243
10735000000 -24.753166 -118.11389 -0.83866411 142.44496 -0.84339774 142.40234 -24.139494 -102.4678
10762500000 -24.766062 -118.38985 -0.83817333 141.87685 -0.84625638 141.84897 -23.803953 -102.93596
10790000000 -24.482298 -117.78167 -0.83912474 141.33395 -0.84389442 141.28708 -23.876183 -103.31977
10817500000 -24.571636 -118.45813 -0.83971018 140.78015 -0.84547663 140.75504 -24.08497 -103.48028
10845000000 -24.663321 -119.14003 -0.84058213 140.23099 -0.8481406 140.19112 -23.800299 -103.7531
10872500000 -24.454651 -118.56786 -0.83958799 139.67702 -0.84482253 139.64934 -23.712461 -104.06846
10900000000 -24.366129 -118.73386 -0.84026581 139.14136 -0.84512192 139.10217 -24.008411 -104.2872
10927500000 -24.57465 -120.04922 -0.84128016 138.58476 -0.84601951 138.56172 -23.803246 -104.82031
10955000000 -24.386065 -119.46216 -0.84077376 138.03351 -0.84673357 137.98978 -23.536427 -104.95199
10982500000 -24.240643 -119.2523 -0.8415454 137.48872 -0.84707052 137.45102 -23.776468 -105.0862
11010000000 -24.39805 -120.63673 -0.84051365 136.94768 -0.8464781 136.91159 -23.768242 -105.47363
11037500000 -24.409706 -120.3159 -0.84135246 136.37813 -0.84751254 136.33083 -23.457073 -106.08385
11065000000 -24.155308 -119.67591 -0.84041905 135.82706 -0.84756255 135.80312 -23.576788 -106.30136
11092500000 -24.255175 -121.19493 -0.84087741 135.26889 -0.84830612 135.24544 -23.657322 -106.59949
11120000000 -24.343706 -121.26889 -0.84257483 134.7282 -0.84880781 134.7039 -23.384428 -107.29293
11147500000 -24.111269 -120.43107 -0.84182626 134.17265 -0.84810597 134.14247 -23.389021 -107.6526
11175000000 -24.082685 -121.74339 -0.84252203 133.61377 -0.84934413 133.60068 -23.536417 -107.59657
11202500000 -24.228764 -122.60844 -0.84324336 133.06729 -0.84970868 133.03169 -23.305786 -108.23281
11230000000 -24.075603 -121.14502 -0.84295732 132.51924 -0.85033518 132.47861 -23.191532 -108.81039
11257500000 -23.976906 -121.99384 -0.84105521 131.96794 -0.84866047 131.95023 -23.437439 -108.5836
11285000000 -24.088345 -123.47385 -0.84339267 131.40964 -0.85088491 131.38333 -23.285707 -109.10869
11312500000 -24.005255 -122.35551 -0.8423115 130.85971 -0.84847987 130.82072 -23.040663 -110.18587
11340000000 -23.852299 -122.48697 -0.84256321 130.30763 -0.85088712 130.27214 -23.253658 -109.71372
11367500000 -23.927023 -123.98445 -0.84570622 129.77097 -0.85035783 129.72925 -23.259979 -110.12297
11395000000 -23.990166 -123.39046 -0.84775072 129.21866 -0.85201174 129.17375 -23.034193 -111.05782
11422500000 -23.776827 -122.78616 -0.84445155 128.65526 -0.85122627 128.61855 -23.147331 -111.32679
11450000000 -23.758181 -124.6541 -0.84587669 128.1219 -0.85271132 128.07826 -23.21837 -111.5385
11477500000 -23.842159 -124.67594 -0.84475529 127.56979 -0.85237396 127.5356 -22.92078 -112.70723
11505000000 -23.70863 -123.6584 -0.84579873 127.00476 -0.85305786 126.9759 -22.954477 -113.01141
11532500000 -23.651417 -125.36084 -0.84670585 126.44149 -0.85346144 126.4203 -23.076414 -113.04174
11560000000 -23.743011 -126.0061 -0.84764498 125.90458 -0.85221642 125.86646 -22.866314 -113.66895
11587500000 -23.674654 -124.94439 -0.84631771 125.35703 -0.85330766 125.32002 -22.805315 -114.32204
11615000000 -23.536167 -125.90052 -0.84766138 124.80447 -0.85420412 124.75791 -22.985672 -114.15231
11642500000 -23.608274 -127.10053 -0.84749681 124.2443 -0.85543549 124.20414 -22.868517 -114.80064
11670000000 -23.633703 -126.111 -0.84922642 123.68869 -0.85515809 123.66439 -22.712147 -115.63509
11697500000 -23.510546 -126.42796 -0.84830266 123.13731 -0.85681039 123.10384 -22.888371 -115.79404
11725000000 -23.50725 -128.09804 -0.84948045 122.59768 -0.85568547 122.5625 -22.80858 -115.95787
11752500000 -23.594334 -127.85285 -0.84909451 122.04518 -0.85753411 122.01285 -22.612545 -116.80898
11780000000 -23.430506 -127.62984 -0.85053921 121.48459 -0.85766846 121.45299 -22.770575 -117.40889
11807500000 -23.394552 -129.00894 -0.85060185 120.9371 -0.85869825 120.91156 -22.738386 -117.52422
11835000000 -23.485106 -129.51602 -0.85388112 120.39605 -0.85927874 120.36784 -22.590204 -118.25133
11862500000 -23.367336 -128.84027 -0.85222781 119.83504 -0.85851628 119.80432 -22.64048 -118.9202
11890000000 -23.268164 -129.27898 -0.85075611 119.2945 -0.85986054 119.25694 -22.694614 -118.95357
11917500000 -23.392275 -130.52106 -0.85358745 118.73898 -0.85794312 118.71078 -22.499128 -119.63214
11945000000 -23.412289 -130.30833 -0.85086226 118.19845 -0.85832196 118.1564 -22.564884 -120.1943
11972500000 -23.17691 -130.1996 -0.85165864 117.65182 -0.85965484 117.61108 -22.681055 -120.97095
12000000000 -23.224377 -131.22699 -0.85349643 117.09733 -0.85998583 117.0556 -22.512953 -120.93172
12027500000 -23.330025 -131.17741 -0.85199344 116.54722 -0.859864 116.52154 -22.466839 -122.07207
12055000000 -23.119505 -131.11258 -0.85284615 116.00636 -0.86122417 115.96058 -22.653133 -122.72482
12082500000 -23.098577 -131.97929 -0.85177678 115.45306 -0.86105752 115.40958 -22.451855 -122.8979
12110000000 -23.247253 -132.59496 -0.85385406 114.88956 -0.86072677 114.86616 -22.402235 -123.39281
12137500000 -23.116297 -132.14331 -0.85274816 114.3533 -0.86000538 114.31472 -22.594591 -124.43263
12165000000 -23.005005 -132.73262 -0.85361016 113.80022 -0.86193031 113.75313 -22.478395 -124.73669
12192500000 -23.194685 -133.96426 -0.85143787 113.24422 -0.85936046 113.20947 -22.323683 -124.74719
12220000000 -23.111061 -133.8069 -0.85356921 112.6955 -0.8598842 112.66607 -22.494398 -125.92594
12247500000 -22.963602 -133.82187 -0.85209268 112.14265 -0.86037678 112.10165 -22.528193 -126.29185
12275000000 -23.111834 -135.18333 -0.85370785 111.59117 -0.86185014 111.56037 -22.295849 -126.12475
12302500000 -23.129467 -135.53261 -0.85236609 111.0436 -0.85860676 111.01049 -22.446302 -127.03208
12330000000 -22.959425 -135.1442 -0.85248482 110.49447 -0.86095905 110.45607 -22.561022 -127.90264
12357500000 -23.000257 -136.39111 -0.85227597 109.92847 -0.8591314 109.89139 -22.246157 -127.60681
12385000000 -23.07345 -136.74974 -0.85146779 109.38682 -0.85952389 109.34161 -22.344238 -128.28093
12412500000 -22.95377 -136.16896 -0.85170114 108.8199 -0.85920084 108.78471 -22.607994 -129.40076
12440000000 -22.928169 -137.29182 -0.85306323 108.27486 -0.85872257 108.23856 -22.345652 -129.87477
12467500000 -23.007277 -138.21912 -0.85259289 107.72283 -0.85847777 107.6773 -22.295021 -130.23213
12495000000 -22.895775 -137.70564 -0.85208005 107.16111 -0.85916358 107.12414 -22.579395 -131.26646
12522500000 -22.844385 -137.99825 -0.85150653 106.61294 -0.85813141 106.58072 -22.414701 -131.74989
12550000000 -22.915649 -139.42772 -0.85187942 106.06854 -0.85633457 106.03394 -22.237486 -131.73224
12577500000 -22.896414 -138.82808 -0.85117996 105.50085 -0.86101085 105.47497 -22.543457 -132.64998
12605000000 -22.784687 -138.82106 -0.85189611 104.95551 -0.85975766 104.93697 -22.54105 -133.46873
12632500000 -22.856352 -140.49878 -0.8522048 104.41295 -0.85747951 104.38809 -22.287699 -133.49452
12660000000 -22.874044 -140.40324 -0.85300303 103.85416 -0.85998458 103.81628 -22.471666 -134.11682
12687500000 -22.837542 -140.11191 -0.85089815 103.30394 -0.86050999 103.2703 -22.612625 -135.25581
12715000000 -22.8533 -141.49655 -0.85238117 102.7475 -0.85668898 102.71557 -22.375288 -135.05681
12742500000 -22.883554 -142.27068 -0.85027534 102.19727 -0.85757822 102.14912 -22.417488 -135.79684
12770000000 -22.844618 -141.41568 -0.85315269 101.63914 -0.85986876 101.61122 -22.667978 -136.92216
12797500000 -22.828077 -142.5685 -0.84852016 101.08375 -0.85674953 101.06412 -22.489265 -136.79359
12825000000 -22.888342 -143.96136 -0.8506459 100.52914 -0.85552251 100.51293 -22.399036 -137.1078
12852500000 -22.882425 -143.10776 -0.85194463 99.971436 -0.8604421 99.943382 -22.667454 -138.44557
12880000000 -22.80949 -143.7363 -0.8506217 99.430626 -0.8573786 99.394478 -22.597771 -138.35699
12907500000 -22.832335 -145.242 -0.85169327 98.880463 -0.85783935 98.838341 -22.510153 -138.79282
12935000000 -22.883139 -144.83365 -0.85157675 98.32486 -0.85836768 98.278633 -22.679405 -140.16716
12962500000 -22.843784 -144.96837 -0.85083956 97.769608 -0.85611671 97.733086 -22.734301 -140.05797
12990000000 -22.849192 -146.67151 -0.84945148 97.197548 -0.85704374 97.17189 -22.562843 -140.01129
13017500000 -22.905516 -146.53995 -0.85077059 96.647911 -0.85585856 96.606995 -22.71628 -141.64787
13045000000 -22.889328 -146.07884 -0.84865892 96.104507 -0.85741615 96.061623 -22.839437 -141.86839
13072500000 -22.849371 -147.44568 -0.84952354 95.541862 -0.85584182 95.494278 -22.679878 -141.56792
13100000000 -22.941605 -148.17215 -0.85064685 94.976669 -0.85615581 94.948616 -22.722801 -143.06775
13127500000 -23.010256 -147.58115 -0.84989721 94.428101 -0.8570478 94.394508 -22.949661 -143.528
13155000000 -22.869452 -148.65192 -0.84839994 93.863449 -0.85499674 93.836525 -22.848761 -143.1104
13182500000 -22.955751 -149.59087 -0.84964567 93.311417 -0.85573339 93.283379 -22.784531 -144.48672
13210000000 -23.033535 -149.04581 -0.85039151 92.74456 -0.85679996 92.714714 -22.971441 -145.47185
13237500000 -22.964968 -149.67949 -0.84797633 92.20697 -0.85345292 92.156662 -23.016481 -144.48415
13265000000 -22.929827 -150.97324 -0.84896988 91.631065 -0.85545886 91.60775 -22.899939 -145.3378
13292500000 -23.112314 -150.64677 -0.84891921 91.085243 -0.85776901 91.04467 -23.04628 -146.87196
13320000000 -23.025522 -150.77454 -0.84852612 90.512321 -0.85399204 90.497307 -23.124992 -146.00977
13347500000 -22.963253 -152.19046 -0.84819412 89.975136 -0.85590553 89.923752 -23.020275 -146.57826
13375000000 -23.173016 -152.157 -0.84787846 89.414139 -0.85648847 89.371025 -23.051861 -148.0312
13402500000 -23.155643 -152.01314 -0.84935862 88.850304 -0.85450572 88.811562 -23.210743 -147.39697
13430000000 -23.011833 -153.22528 -0.85110724 88.288086 -0.85537404 88.260719 -23.146677 -147.61705
13457500000 -23.20582 -153.89751 -0.85062575 87.737015 -0.85706168 87.695801 -23.138363 -149.15884
13485000000 -23.270578 -153.48071 -0.85075456 87.172096 -0.85788351 87.128494 -23.315664 -148.82278
13512500000 -23.127634 -154.02982 -0.85059649 86.615883 -0.85763282 86.578758 -23.339327 -148.41499
13540000000 -23.237886 -155.39752 -0.85468537 86.041397 -0.85800368 86.013069 -23.199312 -150.26772
13567500000 -23.385387 -155.12782 -0.85259914 85.498878 -0.85972679 85.448647 -23.324581 -150.13083
13595000000 -23.215296 -155.19225 -0.8525973 84.923973 -0.85751861 84.889359 -23.470585 -149.47989
13622500000 -23.226555 -156.74217 -0.85543865 84.366791 -0.8615253 84.330101 -23.335001 -151.40443
13650000000 -23.395943 -156.82423 -0.85446477 83.820419 -0.86418712 83.783798 -23.3757 -152.02791
13677500000 -23.327623 -156.38223 -0.85410678 83.263016 -0.86109161 83.215187 -23.568199 -151.11688
13705000000 -23.245438 -157.52122 -0.85840619 82.700058 -0.86319673 82.662918 -23.481869 -152.13368
13732500000 -23.497654 -158.40762 -0.85865504 82.144218 -0.86575818 82.111603 -23.400646 -153.16922
13760000000 -23.488728 -158.10471 -0.86078233 81.588829 -0.86553854 81.5457 -23.656681 -152.37724
13787500000 -23.29685 -158.81889 -0.86190128 81.027176 -0.86852372 80.98101 -23.60227 -153.12459
13815000000 -23.454227 -159.92761 -0.86361265 80.468971 -0.87013018 80.424248 -23.488441 -154.41736
13842500000 -23.534143 -159.55765 -0.86547792 79.908463 -0.87039113 79.876144 -23.692369 -153.96922
13870000000 -23.37937 -159.50975 -0.86330664 79.362282 -0.87116802 79.321243 -23.701918 -153.95029
13897500000 -23.484325 -161.48531 -0.86750358 78.812737 -0.87605 78.759476 -23.565342 -155.67059
13925000000 -23.637953 -161.64436 -0.8691656 78.266457 -0.87666285 78.219223 -23.691406 -155.44371
13952500000 -23.553825 -161.32779 -0.86981547 77.700188 -0.8759762 77.653099 -23.84963 -155.08154
13980000000 -23.44071 -163.05565 -0.87184256 77.167625 -0.87932539 77.112259 -23.609068 -156.86909
14007500000 -23.620697 -163.91803 -0.87532127 76.6269 -0.88002944 76.565475 -23.710758 -156.67383
14035000000 -23.623386 -162.82085 -0.87644523 76.055626 -0.88234705 76.020035 -23.950678 -156.52997
14062500000 -23.487213 -164.26884 -0.87849349 75.501801 -0.88597673 75.471634 -23.71446 -157.65715
14090000000 -23.63203 -165.61478 -0.88094312 74.967842 -0.88511145 74.929512 -23.737362 -158.18063
14117500000 -23.786781 -165.19223 -0.87988234 74.411507 -0.88699776 74.372292 -24.019037 -158.04527
14145000000 -23.6465 -166.02135 -0.88126975 73.8647 -0.8893972 73.812599 -23.8494 -159.24706
14172500000 -23.693401 -168.25192 -0.88329804 73.322632 -0.89126629 73.281914 -23.761328 -160.20105
14200000000 -23.919695 -168.15977 -0.88652784 72.774879 -0.89039171 72.739616 -24.086676 -160.12505
14227500000 -23.878241 -168.2153 -0.88676977 72.241356 -0.89432645 72.192184 -24.041237 -160.72188
14255000000 -23.854609 -170.69971 -0.88824129 71.710663 -0.89738208 71.665573 -23.92923 -162.12238
14282500000 -24.098333 -171.29105 -0.8902058 71.165558 -0.89568663 71.133438 -24.20265 -161.85342
14310000000 -24.215937 -170.31819 -0.89007998 70.636398 -0.89652026 70.603874 -24.277657 -162.45375
14337500000 -24.218157 -171.77609 -0.88862401 70.13047 -0.89613909 70.07872 -24.089228 -163.16019
14365000000 -24.368813 -173.10588 -0.88810062 69.596672 -0.89510417 69.537476 -24.319036 -163.24673
14392500000 -24.584259 -171.26601 -0.88281584 69.041542 -0.89036149 68.989662 -24.486439 -163.66353
14420000000 -24.512815 -171.82883 -0.88120759 68.500046 -0.88892609 68.44899 -24.261465 -164.2047
14447500000 -24.588606 -173.30429 -0.87887186 67.962013 -0.88429147 67.913025 -24.446325 -164.32768
14475000000 -24.752001 -172.69502 -0.87375122 67.409218 -0.87962717 67.345596 -24.639872 -164.93436
14502500000 -24.69112 -172.028 -0.87206405 66.849472 -0.87957299 66.796509 -24.382206 -165.64069
14530000000 -24.649521 -173.94646 -0.87232065 66.289223 -0.87766743 66.243004 -24.484755 -165.81104
14557500000 -24.850895 -174.3356 -0.86865872 65.730186 -0.87622541 65.687782 -24.788052 -166.36859
14585000000 -24.834682 -173.21269 -0.86635661 65.146225 -0.87227064 65.109001 -24.58161 -166.72177
14612500000 -24.792006 -174.54216 -0.86773467 64.592506 -0.87324131 64.557213 -24.606798 -167.25995
14640000000 -24.931925 -175.91539 -0.86451751 64.037964 -0.86979902 63.977551 -24.949932 -167.7589
14667500000 -25.043308 -174.91298 -0.86597651 63.457623 -0.86801821 63.403492 -24.804558 -168.01833
14695000000 -24.981104 -175.53447 -0.861889 62.888081 -0.87128192 62.854694 -24.724586 -168.41965
14722500000 -25.121574 -177.43309 -0.86446857 62.331257 -0.87162989 62.28294 -25.117441 -169.30031
14750000000 -25.279928 -176.84694 -0.86334705 61.771759 -0.87082702 61.711258 -25.013351 -169.76761
14777500000 -25.296934 -176.48712 -0.86448342 61.208427 -0.87001663 61.158901 -24.842712 -169.72061
14805000000 -25.223862 -178.90356 -0.86520243 60.657368 -0.87236118 60.57555 -25.250963 -170.49214
14832500000 -25.460625 -178.35963 -0.86630166 60.072517 -0.87393737 60.015419 -25.28636 -170.89682
14860000000 -25.547825 -177.86551 -0.86626691 59.50663 -0.87472063 59.456936 -25.055305 -170.828
14887500000 -25.378254 -179.73993 -0.86664832 58.959969 -0.87589097 58.898811 -25.386873 -171.8853
14915000000 -25.540295 179.80309 -0.87141132 58.398434 -0.87628877 58.338806 -25.55636 -172.76733
14942500000 -25.825768 -178.5697 -0.87335116 57.823677 -0.87883985 57.774441 -25.217562 -172.24765
14970000000 -25.624323 179.65704 -0.87240803 57.270576 -0.88088924 57.235405 -25.467485 -173.05057
14997500000 -25.658333 178.56114 -0.87423843 56.722485 -0.88168073 56.672638 -25.772287 -174.51855
15025000000 -25.982225 179.91174 -0.87768739 56.163052 -0.88352168 56.11208 -25.507126 -173.9482
15052500000 -25.930756 179.2202 -0.87674332 55.618637 -0.8841328 55.560452 -25.616869 -174.34285
15080000000 -25.827076 177.56949 -0.87882942 55.061638 -0.88626242 55.014053 -26.090664 -176.23238
15107500000 -26.212866 178.42526 -0.87747765 54.501488 -0.88762897 54.459877 -25.80518 -175.88431
15135000000 -26.282114 177.78313 -0.8785854 53.966446 -0.88816571 53.905323 -25.789396 -175.61244
15162500000 -25.970333 176.71977 -0.88075989 53.381222 -0.89153296 53.328476 -26.294916 -178.05229
15190000000 -26.362179 176.99706 -0.88204354 52.837406 -0.88953668 52.780815 -26.219145 -177.78273
15217500000 -26.672697 177.38574 -0.8843168 52.266685 -0.89018959 52.229 -26.034973 -176.55806
15245000000 -26.32645 175.70026 -0.88591802 51.723984 -0.89191628 51.659321 -26.531748 -179.79878
15272500000 -26.575684 175.80351 -0.88511527 51.171638 -0.89317143 51.123688 -26.656174 179.90558
15300000000 -27.022337 176.00333 -0.88737625 50.622475 -0.89518178 50.57172 -26.371307 -177.69405
15327500000 -26.695398 175.05237 -0.88636655 50.071018 -0.89523107 50.026817 -26.705612 179.77374
15355000000 -26.675499 174.55702 -0.89187688 49.530334 -0.89828801 49.461014 -27.117565 178.14905
15382500000 -27.366541 175.04564 -0.89160287 48.979885 -0.89892405 48.908337 -26.798393 -179.43341
15410000000 -27.07814 174.32448 -0.89113373 48.421669 -0.89722961 48.388695 -27.083374 179.44826
15437500000 -26.898605 174.16231 -0.89647257 47.900566 -0.90077496 47.843224 -27.628405 176.25661
15465000000 -27.447132 174.16499 -0.8942396 47.333065 -0.89958704 47.274792 -27.314749 179.13121
15492500000 -27.513033 173.57404 -0.89165878 46.812111 -0.89996469 46.744377 -27.396135 179.25255
15520000000 -27.064823 173.60478 -0.89341468 46.232361 -0.90043348 46.200378 -27.963558 176.32227
15547500000 -27.598642 173.79927 -0.89174175 45.705978 -0.89673287 45.634804 -27.866976 178.54173
15575000000 -27.896116 173.28572 -0.8893804 45.14386 -0.89849013 45.096432 -27.657597 179.90318
15602500000 -27.393204 173.28766 -0.89004093 44.581028 -0.89757687 44.544292 -28.199274 176.25214
15630000000 -27.632271 172.91336 -0.88780332 44.028759 -0.89443713 43.98214 -28.266222 176.78571
15657500000 -28.288534 171.67508 -0.88885593 43.470493 -0.89896226 43.433544 -27.858555 179.45752
15685000000 -27.716585 171.90938 -0.8894363 42.902382 -0.89531761 42.861458 -28.273033 176.07751
15712500000 -27.793407 171.37801 -0.88988143 42.362514 -0.89448422 42.30283 -28.640072 175.01617
15740000000 -28.447828 170.89642 -0.88697803 41.800652 -0.89739037 41.743759 -28.282305 177.39996
15767500000 -28.230785 170.96257 -0.891559 41.235126 -0.89823896 41.180664 -28.448774 175.71361
15795000000 -28.031824 171.39848 -0.89243698 40.695984 -0.89945644 40.639469 -29.095173 172.80432
15822500000 -28.73698 169.12617 -0.89264971 40.120586 -0.89797413 40.063522 -28.830437 175.88116
15850000000 -28.662464 169.96036 -0.89246213 39.553192 -0.89879543 39.500412 -28.870066 174.82552
15877500000 -28.332834 170.90541 -0.8943271 39.007534 -0.90099794 38.958626 -29.556505 171.56178
15905000000 -28.862549 168.42879 -0.89351803 38.449715 -0.89936411 38.396713 -29.505524 173.65462
15932500000 -29.184652 167.91446 -0.89438653 37.900806 -0.90127599 37.85289 -29.306353 174.36755
15960000000 -28.744932 169.96596 -0.89739543 37.335026 -0.9035629 37.283218 -29.88633 170.90755
15987500000 -29.160271 168.10864 -0.89671123 36.776035 -0.90189755 36.725281 -30.300394 172.57831
16015000000 -29.662485 165.96744 -0.89859265 36.22377 -0.90602165 36.177071 -29.966684 174.24796
16042500000 -29.298119 168.78778 -0.89803267 35.6847 -0.90529394 35.613598 -30.335728 171.78401
16070000000 -29.402962 167.31358 -0.90210307 35.12785 -0.90584624 35.086086 -30.907219 171.97401
16097500000 -29.989687 165.14848 -0.89944243 34.572598 -0.90671915 34.517048 -30.748936 174.41058
16125000000 -29.890905 167.39719 -0.9025259 34.010178 -0.90737116 33.951153 -30.81674 172.16182
16152500000 -29.730894 167.30139 -0.90246475 33.47345 -0.90763438 33.423073 -31.607023 171.80194
16180000000 -30.264551 164.26598 -0.90596199 32.914295 -0.91137052 32.857449 -31.605555 174.80957
16207500000 -30.490547 166.20651 -0.90313363 32.364445 -0.91328418 32.31118 -31.462568 172.98239
16235000000 -30.186979 166.79951 -0.90589088 31.831806 -0.91207176 31.763006 -32.266235 172.33487
16262500000 -30.613754 164.13609 -0.90675169 31.256912 -0.91382021 31.197268 -32.451401 175.57813
16290000000 -31.084826 164.52911 -0.90595084 30.716051 -0.91304809 30.660507 -32.027489 175.30988
16317500000 -30.701756 165.93465 -0.90974712 30.162205 -0.91406465 30.086926 -32.577621 174.07866
16345000000 -30.810616 163.50705 -0.90932268 29.596123 -0.91644651 29.559505 -33.205509 177.00406
16372500000 -31.514523 162.92461 -0.90819746 29.059946 -0.91630906 29.008533 -32.837502 177.38327
16400000000 -31.409588 165.28052 -0.91094714 28.497274 -0.91649163 28.438 -32.963245 177.40372
16427500000 -31.191441 163.78839 -0.91056401 27.953619 -0.91640401 27.905096 -33.784073 -179.98174
16455000000 -31.880785 162.07542 -0.91366434 27.406683 -0.91724837 27.348698 -33.310837 -179.24751
16482500000 -32.13015 164.08955 -0.91302544 26.826157 -0.91660863 26.790016 -33.370697 -179.66426
16510000000 -31.737366 163.24022 -0.91275233 26.295946 -0.92032403 26.247971 -34.164543 -176.97238
16537500000 -32.191471 160.62656 -0.91230804 25.738247 -0.91871679 25.686941 -33.97868 -175.68021
16565000000 -32.887093 162.59212 -0.91541344 25.189911 -0.91940707 25.142035 -33.538109 -177.26781
16592500000 -32.294167 163.8847 -0.91488773 24.644077 -0.92023635 24.599743 -34.273369 -174.57224
16620000000 -32.564342 161.55748 -0.91699451 24.101513 -0.92127949 24.03709 -34.593632 -172.54819
16647500000 -33.663502 160.26007 -0.91425794 23.540619 -0.92038894 23.487122 -33.928173 -175.09004
16675000000 -33.169239 162.7379 -0.91617674 23.00654 -0.92428148 22.940413 -34.488541 -171.47787
16702500000 -33.001041 162.64963 -0.91623938 22.442528 -0.92055631 22.375343 -35.075954 -168.7963
16730000000 -34.279984 158.6257 -0.91668981 21.892031 -0.92561007 21.843559 -34.223366 -172.18517
16757500000 -34.144958 162.20485 -0.91952705 21.352747 -0.92504919 21.294479 -34.403477 -170.2298
16785000000 -33.500217 164.528 -0.9181664 20.796486 -0.92271155 20.73156 -35.163288 -165.56465
16812500000 -34.667007 159.81964 -0.91923374 20.251539 -0.9258939 20.201653 -34.603996 -169.9321
16840000000 -35.374977 161.13364 -0.91925353 19.673716 -0.9284147 19.617193 -34.386902 -167.2908
16867500000 -34.164734 164.97549 -0.91979927 19.145445 -0.92556393 19.092012 -35.405575 -162.88339
16895000000 -35.242393 160.01701 -0.92084175 18.603296 -0.92933577 18.542219 -35.136028 -166.33809
16922500000 -36.090435 158.64374 -0.92037678 18.039782 -0.92543197 17.987713 -34.613045 -167.3844
16950000000 -35.07333 166.94823 -0.92227781 17.487505 -0.92901129 17.43914 -35.349918 -159.23695
16977500000 -35.593037 163.50151 -0.92136365 16.938694 -0.93157655 16.885798 -35.332905 -161.00877
17005000000 -37.02422 158.86079 -0.91935301 16.40382 -0.92890006 16.336554 -34.947983 -166.27966
17032500000 -36.163166 167.55852 -0.92284375 15.857857 -0.93117398 15.766041 -35.413025 -158.2348
17060000000 -36.021343 167.47496 -0.92473853 15.291851 -0.92943352 15.237803 -35.841896 -158.85168
17087500000 -38.106987 158.70621 -0.92081869 14.771376 -0.92946595 14.701073 -35.065208 -164.9223
17115000000 -37.477516 166.65443 -0.92481089 14.205305 -0.93125129 14.129264 -35.564251 -158.37376
17142500000 -36.814804 173.72078 -0.92190808 13.64545 -0.93237442 13.578527 -36.094067 -154.59129
17170000000 -38.383278 160.32213 -0.92274964 13.118528 -0.92801178 13.040218 -35.411354 -160.13577
17197500000 -39.135048 166.33054 -0.92459595 12.557362 -0.92918187 12.503772 -35.821419 -158.3636
17225000000 -37.594395 177.83752 -0.92383254 12.009015 -0.9287622 11.95027 -36.465969 -151.03551
17252500000 -39.46344 167.89857 -0.92323536 11.471505 -0.92976576 11.398353 -35.999649 -155.69392
17280000000 -40.445972 165.92839 -0.9210664 10.882835 -0.92866349 10.840316 -36.138538 -155.58437
17307500000 -38.792324 -175.46384 -0.92255342 10.342569 -0.93082082 10.282427 -36.531631 -143.14056
17335000000 -40.132618 174.80826 -0.92456782 9.7853251 -0.92982221 9.7345123 -36.284351 -148.30707
17362500000 -42.096153 166.30032 -0.92013299 9.243083 -0.92950475 9.1913099 -36.248013 -152.00745
17390000000 -40.538719 -169.3002 -0.92334932 8.6765366 -0.93247777 8.6286049 -36.502613 -140.80707
17417500000 -40.570705 -174.32697 -0.92596346 8.1318979 -0.93165159 8.0830488 -36.469955 -140.81346
17445000000 -42.842052 170.63127 -0.92272949 7.5889831 -0.93106687 7.5202775 -35.984543 -147.46001
17472500000 -42.456051 -164.07721 -0.92683113 7.02177 -0.93236285 6.9614196 -36.560852 -138.27754
17500000000 -41.400726 -158.77614 -0.92602718 6.4676533 -0.93061012 6.4169159 -36.234505 -134.33025
17527500000 -43.053352 -178.51439 -0.92543936 5.946507 -0.93544316 5.8901777 -36.252998 -142.94785
17555000000 -43.59523 -157.06982 -0.92601854 5.3861609 -0.93069124 5.3267746 -36.430725 -137.27908
17582500000 -41.718136 -145.55058 -0.92727846 4.809113 -0.93169427 4.7619438 -36.078091 -129.50044
17610000000 -43.68327 -163.89015 -0.92309767 4.2908664 -0.93390161 4.2296934 -35.814571 -137.31425
17637500000 -44.650425 -146.6261 -0.92458731 3.7565656 -0.93582428 3.6707537 -36.180202 -135.76758
17665000000 -41.835838 -129.12148 -0.92715412 3.1801689 -0.93340415 3.1409001 -35.921238 -126.59995
17692500000 -43.067299 -148.73935 -0.92802393 2.6348722 -0.93407786 2.5804687 -35.55677 -129.71385
17720000000 -44.756802 -138.57103 -0.92621946 2.0912259 -0.92935085 2.013855 -36.24379 -134.58501
17747500000 -41.705345 -117.66216 -0.92862052 1.5441628 -0.93577677 1.471427 -35.963516 -123.08443
17775000000 -42.024719 -127.28723 -0.9274618 0.98706126 -0.935754 0.93122995 -35.526382 -123.6969
17802500000 -43.907139 -133.09517 -0.92399132 0.43677628 -0.93195957 0.39291808 -35.622627 -131.28133
17830000000 -40.722458 -105.1059 -0.92622167 -0.10343844 -0.93130583 -0.16990578 -36.025097 -121.42507
17857500000 -41.159271 -112.34766 -0.92720538 -0.6968472 -0.93360859 -0.74068779 -35.130253 -118.87051
17885000000 -42.747883 -120.0817 -0.921556 -1.1954609 -0.93449128 -1.2506522 -35.502773 -126.59734
17912500000 -40.264473 -98.002365 -0.92756402 -1.7888371 -0.93243027 -1.810058 -35.576576 -121.18741
17940000000 -39.197166 -96.878548 -0.92271799 -2.3485518 -0.93225378 -2.3903048 -34.949692 -114.85969
17967500000 -41.141388 -111.77615 -0.92528397 -2.8807764 -0.93293756 -2.9154975 -35.122116 -120.15454
17995000000 -39.437378 -94.872009 -0.92493099 -3.4363248 -0.93290806 -3.4764433 -35.505077 -121.32851
18022500000 -38.127678 -90.218887 -0.92359906 -3.9597027 -0.93048346 -4.0539432 -34.644592 -111.41949
18050000000 -39.353188 -104.09942 -0.92463887 -4.5252199 -0.93174851 -4.5816264 -34.240921 -115.77941
18077500000 -39.157227 -94.829674 -0.92715317 -5.0841861 -0.9326542 -5.1492333 -35.069107 -118.97522
18105000000 -36.986633 -85.158752 -0.92382514 -5.6260562 -0.93037599 -5.6570201 -34.453636 -110.17584
18132500000 -37.835457 -96.315994 -0.92350972 -6.1942358 -0.93210971 -6.2531719 -33.844521 -111.16113
18160000000 -37.993477 -95.536751 -0.92765504 -6.7340822 -0.9318223 -6.7825813 -34.377251 -117.33257
18187500000 -36.154655 -81.895515 -0.92027056 -7.2808342 -0.93038368 -7.3467727 -34.08519 -109.32492
18215000000 -36.23782 -89.104317 -0.92358595 -7.8421125 -0.93087375 -7.8972321 -33.334423 -106.49155
18242500000 -37.082672 -93.048592 -0.92440736 -8.3980474 -0.92991322 -8.4807835 -33.747272 -114.40603
18270000000 -35.714161 -80.54628 -0.92167795 -8.9678669 -0.93022656 -8.993741 -33.824272 -108.72453
18297500000 -35.014191 -84.868736 -0.92515779 -9.5125313 -0.92930561 -9.5720787 -32.941128 -104.88172
18325000000 -35.936836 -90.690613 -0.92242891 -10.064198 -0.92676735 -10.123582 -33.11792 -109.80153
18352500000 -35.271725 -80.969238 -0.92571294 -10.597945 -0.93246043 -10.657856 -33.573116 -109.37468
18380000000 -34.104366 -81.873154 -0.92187512 -11.173746 -0.92645496 -11.228518 -32.501919 -102.33157
18407500000 -34.620628 -89.254349 -0.92406756 -11.709879 -0.92934412 -11.760999 -32.318455 -107.54346
18435000000 -34.822891 -84.423706 -0.92185944 -12.290481 -0.93326551 -12.308935 -33.124916 -109.34165
18462500000 -33.467022 -80.682716 -0.92336792 -12.846312 -0.92765248 -12.880334 -32.12043 -102.67071
18490000000 -33.591763 -86.435074 -0.92024273 -13.342522 -0.92787588 -13.424801 -31.859955 -104.32572
18517500000 -33.943241 -84.603638 -0.92493355 -13.911146 -0.93246108 -13.988521 -32.743214 -108.24329
18545000000 -32.998421 -79.882935 -0.922418 -14.462846 -0.92801404 -14.542805 -32.098221 -103.80508
18572500000 -32.62233 -84.267242 -0.92446852 -15.022417 -0.92701411 -15.10114 -31.30105 -102.21366
18600000000 -33.328995 -86.840668 -0.92673081 -15.586541 -0.93110245 -15.651316 -32.040127 -106.67712
18627500000 -32.515232 -81.017639 -0.91920555 -16.151245 -0.92755473 -16.211817 -31.793789 -104.46838
18655000000 -31.937067 -82.505486 -0.92166102 -16.678726 -0.92558253 -16.766687 -30.834663 -101.79837
18682500000 -32.24197 -87.050041 -0.92267698 -17.233852 -0.9279108 -17.306116 -31.228651 -105.95663
18710000000 -32.226517 -83.088295 -0.92362982 -17.80827 -0.92623162 -17.868996 -31.550339 -104.76882
18737500000 -31.286886 -81.893433 -0.92026192 -18.354889 -0.92767781 -18.396626 -30.59366 -101.15743
18765000000 -31.588751 -85.925789 -0.92016244 -18.89492 -0.92581445 -18.971657 -30.529799 -103.71567
18792500000 -31.945822 -84.820549 -0.92263633 -19.460972 -0.93260962 -19.492203 -31.008518 -105.80457
18820000000 -30.781359 -82.492615 -0.91887128 -20.038937 -0.92663342 -20.076635 -30.094633 -102.05599
18847500000 -30.838594 -86.63282 -0.9167611 -20.535706 -0.92599899 -20.606255 -29.995934 -102.30016
18875000000 -31.175024 -86.342972 -0.91916496 -21.129078 -0.92820764 -21.196852 -30.579863 -106.83711
18902500000 -30.572571 -82.880577 -0.91603094 -21.654835 -0.92454278 -21.735947 -29.91473 -103.11315
18930000000 -30.158539 -85.663521 -0.91965503 -22.218142 -0.92636138 -22.292843 -29.472898 -102.50676
18957500000 -30.673748 -87.987816 -0.92144114 -22.777187 -0.92523593 -22.844196 -29.998741 -106.4834
18985000000 -30.231632 -85.1688 -0.91574842 -23.340332 -0.92233735 -23.375555 -29.683298 -104.37354
19012500000 -29.658419 -84.951622 -0.91728222 -23.898088 -0.9253487 -23.935369 -29.018337 -102.17918
19040000000 -30.137941 -89.861076 -0.92080331 -24.461523 -0.92510623 -24.495584 -29.322615 -105.72933
19067500000 -29.998344 -86.920074 -0.9180001 -24.995546 -0.92314118 -25.054144 -29.332611 -105.64465
19095000000 -29.460815 -85.785583 -0.91737497 -25.552851 -0.92259663 -25.608309 -28.679045 -102.40115
19122500000 -29.509192 -91.223656 -0.91882843 -26.111351 -0.92700928 -26.168562 -28.866541 -105.50443
19150000000 -29.571764 -90.6996 -0.91937381 -26.652115 -0.92560434 -26.708765 -29.085714 -107.26861
19177500000 -28.915054 -86.469162 -0.91349727 -27.248859 -0.91994965 -27.271118 -28.365152 -103.81268
19205000000 -28.931232 -91.186829 -0.9143883 -27.769712 -0.9234755 -27.812426 -28.30479 -105.60802
19232500000 -29.091637 -92.066002 -0.91708463 -28.353924 -0.92675483 -28.385334 -28.75355 -107.79561
19260000000 -28.830477 -87.570068 -0.91467458 -28.883553 -0.91998774 -28.948927 -28.183046 -105.38761
19287500000 -28.52618 -90.110939 -0.91562343 -29.444656 -0.92501813 -29.519009 -27.773348 -105.55357
19315000000 -28.57593 -95.555428 -0.92098379 -30.006453 -0.92530894 -30.052887 -28.300301 -108.79591
19342500000 -28.561502 -89.91217 -0.91114318 -30.555759 -0.91991764 -30.622498 -27.938433 -107.3614
19370000000 -28.162745 -91.348 -0.91417581 -31.119974 -0.92164403 -31.166086 -27.425007 -106.09476
19397500000 -28.080997 -96.772575 -0.91499031 -31.657944 -0.92508602 -31.726713 -27.83407 -109.44666
19425000000 -28.319801 -92.492165 -0.91182584 -32.214211 -0.92065036 -32.28463 -27.727266 -108.60636
19452500000 -28.14657 -91.650826 -0.90951413 -32.775616 -0.91839027 -32.848785 -27.105467 -106.46775
19480000000 -27.714231 -98.175209 -0.91549081 -33.322865 -0.92490506 -33.384407 -27.375275 -109.5219
19507500000 -27.856173 -96.364944 -0.9139033 -33.886726 -0.92201114 -33.947063 -27.5683 -110.67502
19535000000 -27.872639 -93.155106 -0.9119491 -34.46534 -0.91930634 -34.535202 -26.749626 -108.18624
19562500000 -27.354134 -98.627625 -0.9158411 -34.997238 -0.92282808 -35.060299 -26.850683 -109.68484
19590000000 -27.352652 -99.227051 -0.91218287 -35.540829 -0.91950434 -35.630844 -27.29648 -111.68527
19617500000 -27.77734 -94.761902 -0.91018575 -36.106003 -0.91945827 -36.196281 -26.676277 -109.79507
19645000000 -27.068996 -99.551453 -0.91381705 -36.694633 -0.92192924 -36.744114 -26.419447 -110.02152
19672500000 -26.850859 -101.28989 -0.91576183 -37.252495 -0.92089421 -37.282845 -26.98563 -112.67934
19700000000 -27.443413 -97.37072 -0.91026169 -37.790001 -0.91885757 -37.874352 -26.63464 -111.28125
19727500000 -27.101324 -100.0176 -0.91234797 -38.363605 -0.91913265 -38.428162 -26.115238 -110.93803
19755000000 -26.425732 -103.17784 -0.91472703 -38.918545 -0.92276406 -38.979706 -26.547497 -113.44731
19782500000 -27.078873 -100.42956 -0.91258335 -39.470287 -0.91825688 -39.52264 -26.592459 -113.34605
19810000000 -26.952036 -100.93022 -0.914226 -40.067738 -0.91658336 -40.102173 -25.833132 -112.16266
19837500000 -26.068398 -104.58891 -0.91972506 -40.607494 -0.92503637 -40.638367 -26.186787 -114.10893
19865000000 -26.631693 -103.07431 -0.91741014 -41.148552 -0.92400575 -41.223011 -26.453966 -115.34188
19892500000 -26.882383 -102.84439 -0.91307145 -41.728527 -0.92062736 -41.759705 -25.683418 -112.93755
19920000000 -25.737282 -105.93059 -0.91806054 -42.254818 -0.92824513 -42.337418 -25.75934 -115.24923
19947500000 -26.100611 -104.75851 -0.91860074 -42.818306 -0.92262578 -42.881115 -26.200369 -116.43529
19975000000 -26.632465 -105.49831 -0.91323113 -43.404297 -0.91884249 -43.444927 -25.572342 -114.60874
20002500000 -25.700443 -106.81617 -0.92150933 -43.928429 -0.92936718 -44.005363 -25.328959 -115.68089
20030000000 -25.585978 -106.69821 -0.92041838 -44.497761 -0.9265402 -44.578541 -25.889397 -117.62488
20057500000 -26.477718 -107.16005 -0.91651303 -45.022755 -0.92212194 -45.116627 -25.553612 -116.17943
20085000000 -25.592169 -108.38284 -0.92171091 -45.622635 -0.92709744 -45.67305 -25.042389 -116.15862
20112500000 -25.096642 -108.32096 -0.9232251 -46.159039 -0.9288978 -46.240528 -25.620935 -119.2261
20140000000 -26.092157 -109.50529 -0.91962844 -46.719395 -0.92746627 -46.778923 -25.462782 -118.13484
20167500000 -25.59936 -110.83045 -0.91973788 -47.278412 -0.92642677 -47.360641 -24.820219 -117.53928
20195000000 -24.729511 -109.91605 -0.92229605 -47.840908 -0.93152523 -47.913967 -25.201822 -120.31142
20222500000 -25.455418 -111.00024 -0.92465013 -48.409729 -0.92952687 -48.453838 -25.462589 -120.66932
20250000000 -25.634995 -112.80263 -0.91773885 -48.97229 -0.92497039 -49.029587 -24.691257 -119.04121
20277500000 -24.503649 -111.25877 -0.92465013 -49.501823 -0.93013483 -49.544678 -24.829214 -121.30157
20305000000 -25.088428 -111.7888 -0.92188954 -50.095112 -0.92849386 -50.14389 -25.286242 -122.5587
20332500000 -25.514317 -115.5435 -0.91866308 -50.620659 -0.92528814 -50.673668 -24.661211 -120.60527
20360000000 -24.585901 -112.72302 -0.92648059 -51.203827 -0.93196279 -51.261742 -24.50882 -122.1081
20387500000 -24.508844 -113.23603 -0.92568058 -51.747646 -0.92873752 -51.823814 -25.119658 -124.54565
20415000000 -25.284643 -117.5836 -0.9198783 -52.295002 -0.9286955 -52.359737 -24.726469 -123.19425
20442500000 -24.490593 -115.57954 -0.92674267 -52.859337 -0.93303478 -52.927509 -24.289276 -123.18141
20470000000 -24.260702 -114.37399 -0.92342556 -53.425301 -0.93335086 -53.484905 -24.880409 -126.08289
20497500000 -24.941259 -118.78014 -0.92910141 -53.95784 -0.93302578 -54.010468 -24.833641 -125.16451
20525000000 -24.584402 -118.13771 -0.93061203 -54.560478 -0.93315995 -54.588306 -24.249817 -123.90049
20552500000 -23.987665 -114.73043 -0.92909724 -55.097122 -0.93706071 -55.141659 -24.711639 -127.43043
20580000000 -24.510431 -119.3051 -0.93057257 -55.661339 -0.93718988 -55.720318 -24.878344 -126.70348
20607500000 -24.452114 -120.30483 -0.92682344 -56.242092 -0.93274468 -56.283104 -24.148138 -125.13451
20635000000 -23.896194 -116.36288 -0.93303317 -56.753983 -0.93653786 -56.820038 -24.439798 -128.11185
20662500000 -24.153822 -119.50256 -0.93576396 -57.340511 -0.93749696 -57.393013 -24.767477 -128.94147
20690000000 -24.373962 -122.37698 -0.92931813 -57.91597 -0.93882155 -57.930019 -24.220592 -126.61977
20717500000 -24.014336 -118.36785 -0.93367666 -58.432407 -0.94329447 -58.502491 -24.274696 -127.85809
20745000000 -23.823069 -119.81459 -0.93686932 -59.011749 -0.94406426 -59.089054 -24.695705 -130.20602
20772500000 -24.220018 -124.09187 -0.93751717 -59.566765 -0.94332469 -59.603081 -24.28755 -127.86025
20800000000 -23.883184 -120.42357 -0.93864197 -60.104675 -0.94974756 -60.166515 -24.01861 -128.58316
20827500000 -23.634926 -119.99596 -0.93968666 -60.683426 -0.94798225 -60.739185 -24.476652 -130.69763
20855000000 -23.881037 -124.96973 -0.94279015 -61.247917 -0.9510414 -61.27037 -24.250443 -129.30095
20882500000 -23.900537 -123.1639 -0.94325912 -61.792484 -0.9520008 -61.869007 -23.805092 -128.28424
20910000000 -23.469868 -120.28481 -0.94541538 -62.324413 -0.95244914 -62.391518 -24.119152 -131.45503
20937500000 -23.572672 -124.99545 -0.95353138 -62.861443 -0.95920897 -62.935879 -24.092968 -130.70773
20965000000 -23.723307 -125.3353 -0.94915676 -63.453598 -0.95960093 -63.524044 -23.652222 -129.84644
20992500000 -23.430967 -121.49583 -0.95149612 -63.974407 -0.95965099 -64.023262 -23.715519 -133.0089
21020000000 -23.365965 -124.62836 -0.95780969 -64.524635 -0.96070594 -64.582413 -23.94989 -133.15315
21047500000 -23.539936 -127.61184 -0.95324701 -65.082794 -0.95983988 -65.177155 -23.462622 -131.92076
21075000000 -23.443115 -123.21828 -0.95768481 -65.577377 -0.96678811 -65.643753 -23.417248 -134.62518
21102500000 -23.164074 -124.96513 -0.96142423 -66.161133 -0.9668864 -66.236481 -23.76144 -136.12115
21130000000 -23.340872 -128.43192 -0.95659542 -66.676079 -0.9632557 -66.762115 -23.505144 -134.59332
21157500000 -23.414236 -126.27206 -0.95952892 -67.233658 -0.96823424 -67.301956 -23.271854 -137.2375
21185000000 -23.04085 -125.02073 -0.95857495 -67.787178 -0.96497452 -67.840271 -23.640554 -138.72025
21212500000 -23.15715 -129.24745 -0.95880479 -68.323296 -0.96565825 -68.387741 -23.597881 -137.53606
21240000000 -23.31884 -128.93896 -0.96125531 -68.886833 -0.96412539 -68.951599 -23.266844 -138.89661
21267500000 -22.988922 -126.60134 -0.95411372 -69.402199 -0.96014857 -69.470032 -23.517792 -141.0076
21295000000 -22.934532 -129.60141 -0.95679033 -69.941513 -0.96324664 -70.023689 -23.669235 -139.37115
21322500000 -23.180548 -131.54227 -0.95495474 -70.552399 -0.96329743 -70.605141 -23.408094 -139.89192
21350000000 -22.944267 -128.35455 -0.95194989 -71.034599 -0.96091843 -71.120995 -23.488474 -142.68028
21377500000 -22.741299 -130.22568 -0.95493609 -71.598824 -0.96190101 -71.666534 -23.78619 -141.60417
21405000000 -23.000216 -132.68059 -0.95223641 -72.172203 -0.95820701 -72.241615 -23.480282 -140.21939
21432500000 -23.019968 -130.33846 -0.95098376 -72.664307 -0.95793301 -72.755653 -23.59026 -143.11983
21460000000 -22.67293 -130.8625 -0.94843084 -73.260452 -0.95843714 -73.325974 -23.817022 -142.89001
21487500000 -22.833223 -133.88516 -0.94578737 -73.804672 -0.95413274 -73.858917 -23.676924 -140.51489
21515000000 -23.071981 -133.2563 -0.95284241 -74.37085 -0.95861501 -74.4179 -23.489103 -143.70476
21542500000 -22.673292 -131.32809 -0.94582248 -74.899879 -0.95399797 -74.984924 -23.728462 -143.31229
21570000000 -22.741194 -134.95053 -0.94535518 -75.469589 -0.95500058 -75.534309 -23.68342 -141.58237
21597500000 -22.908049 -135.30046 -0.94995564 -76.03701 -0.95597857 -76.118225 -23.27681 -143.22852
21625000000 -22.658369 -132.99213 -0.94285351 -76.578506 -0.94979715 -76.659416 -23.523651 -144.9733
21652500000 -22.475039 -135.35043 -0.94142091 -77.146629 -0.94824183 -77.197807 -23.567005 -141.82356
21680000000 -22.781467 -137.19609 -0.94377375 -77.724098 -0.95383835 -77.798149 -23.273922 -143.38792
21707500000 -22.641357 -135.11906 -0.94321889 -78.251701 -0.94851685 -78.317062 -23.187906 -145.86919
21735000000 -22.413963 -136.21536 -0.94400185 -78.788261 -0.95028943 -78.868927 -23.451548 -143.10147
21762500000 -22.549747 -138.93723 -0.94876933 -79.396187 -0.94915873 -79.467049 -23.138632 -143.80263
21790000000 -22.684032 -137.79308 -0.94766545 -79.904663 -0.95012605 -79.965446 -22.91853 -147.55266
21817500000 -22.298544 -137.63322 -0.94153214 -80.478653 -0.95042378 -80.540466 -23.241316 -145.80719
21845000000 -22.302513 -140.53952 -0.94357401 -81.057655 -0.94823986 -81.12619 -23.017231 -145.04971
21872500000 -22.598471 -140.6962 -0.9466024 -81.583298 -0.9512077 -81.654533 -22.634546 -148.41028
21900000000 -22.336327 -139.74782 -0.93888038 -82.146629 -0.94715863 -82.220459 -22.98419 -147.93262
21927500000 -22.128437 -142.2654 -0.93549711 -82.726181 -0.94303554 -82.784119 -22.937849 -146.31194
21955000000 -22.562346 -143.45285 -0.94344306 -83.28595 -0.94823503 -83.343201 -22.489832 -149.57785
21982500000 -22.385937 -142.20541 -0.93968374 -83.803642 -0.94556499 -83.878357 -22.76786 -150.27585
22010000000 -22.028627 -143.40227 -0.93511212 -84.382088 -0.9424023 -84.451462 -22.898901 -148.0083
22037500000 -22.402983 -145.62991 -0.94293523 -84.942719 -0.94828755 -85.051338 -22.467136 -150.85101
22065000000 -22.474882 -144.82791 -0.93356818 -85.46386 -0.94346946 -85.558075 -22.499393 -152.82875
22092500000 -22.129662 -144.9449 -0.93550831 -86.032059 -0.94436282 -86.094353 -22.867004 -150.05797
22120000000 -22.218214 -147.26418 -0.93674791 -86.634491 -0.94312495 -86.701408 -22.417 -151.76022
22147500000 -22.574207 -147.9278 -0.93377739 -87.179764 -0.94550514 -87.253006 -22.2724 -155.17761
22175000000 -22.116621 -147.35918 -0.93596911 -87.739151 -0.94437283 -87.809288 -22.795612 -153.09683
22202500000 -22.065422 -148.96852 -0.93869364 -88.343491 -0.94610763 -88.419182 -22.429564 -153.24313
22230000000 -22.458475 -150.42827 -0.93855488 -88.864914 -0.9427374 -88.932732 -22.067417 -156.78596
22257500000 -22.177204 -149.27022 -0.93983418 -89.431862 -0.94522357 -89.487236 -22.601824 -156.01788
22285000000 -21.952339 -150.62279 -0.93780565 -90.010628 -0.93915766 -90.110535 -22.528051 -154.62199
22312500000 -22.441357 -152.97534 -0.93995982 -90.55175 -0.94393462 -90.614334 -21.918333 -157.66428
22340000000 -22.326786 -152.11293 -0.93842667 -91.133957 -0.94646174 -91.206665 -22.424244 -158.51932
22367500000 -21.985275 -151.97668 -0.93699938 -91.732956 -0.94426471 -91.780518 -22.542393 -156.50763
22395000000 -22.315699 -155.26181 -0.9426319 -92.285362 -0.94958103 -92.338676 -21.910545 -158.53117
22422500000 -22.417061 -154.70453 -0.94482005 -92.821022 -0.95080107 -92.893623 -22.242819 -160.62463
22450000000 -22.043934 -153.28314 -0.94175822 -93.414513 -0.94940096 -93.464401 -22.608252 -158.48247
22477500000 -22.204691 -156.63046 -0.94723368 -93.974373 -0.95553082 -94.031929 -21.980667 -159.44337
22505000000 -22.491938 -158.01193 -0.94678235 -94.53363 -0.95554376 -94.567673 -21.97661 -162.72456
22532500000 -22.130323 -155.22997 -0.95236248 -95.085892 -0.95618021 -95.133789 -22.499544 -161.41205
22560000000 -22.17238 -157.47658 -0.95420301 -95.667458 -0.96132118 -95.71315 -22.07192 -160.69174
22587500000 -22.435307 -160.81194 -0.95199889 -96.184891 -0.96368128 -96.25193 -21.677126 -164.02827
22615000000 -22.210062 -157.44243 -0.95985019 -96.767296 -0.97182798 -96.808517 -22.412329 -164.2007
22642500000 -22.158571 -158.20319 -0.9614985 -97.350792 -0.96675122 -97.391144 -22.222065 -162.43332
22670000000 -22.375319 -162.37921 -0.96078891 -97.850342 -0.97289723 -97.90464 -21.636301 -165.18454
22697500000 -22.299908 -159.79883 -0.96689677 -98.378677 -0.97521996 -98.485847 -22.219509 -167.09378
22725000000 -22.136761 -158.85278 -0.96634799 -98.975327 -0.97613835 -99.007439 -22.33943 -165.25453
22752500000 -22.238707 -163.14957 -0.97158128 -99.469284 -0.978562 -99.531754 -21.637295 -166.16789
22780000000 -22.280661 -161.89456 -0.97107434 -100.02842 -0.97578055 -100.07914 -22.003765 -169.60202
22807500000 -22.135626 -159.23235 -0.96754104 -100.57636 -0.97472417 -100.62317 -22.409592 -167.66183
22835000000 -22.072451 -163.79817 -0.96991199 -101.086 -0.97598052 -101.13904 -21.851719 -167.34221
22862500000 -22.072634 -164.44496 -0.96564341 -101.64388 -0.97270232 -101.71066 -21.8496 -171.31818
22890000000 -22.084675 -160.78078 -0.96153402 -102.20142 -0.97611272 -102.26946 -22.497953 -170.62714
22917500000 -21.876411 -164.2596 -0.96493763 -102.77071 -0.97583145 -102.83595 -22.085751 -168.02542
22945000000 -21.913992 -166.88503 -0.96190488 -103.30956 -0.96574688 -103.38594 -21.698418 -171.80383
22972500000 -22.0886 -163.0919 -0.9615137 -103.89103 -0.97241765 -103.93396 -22.402765 -172.96347
23000000000 -21.853565 -165.07156 -0.9668777 -104.48 -0.97429556 -104.54256 -22.214716 -169.9529
23027500000 -21.688816 -168.92891 -0.95973426 -104.98466 -0.97265017 -105.04829 -21.663704 -171.60059
23055000000 -22.034744 -166.13713 -0.968871 -105.5712 -0.97390878 -105.64117 -22.233795 -175.12518
23082500000 -21.926874 -166.3549 -0.9621743 -106.19975 -0.96983981 -106.20319 -22.339972 -171.69122
23110000000 -21.51248 -170.8351 -0.96848142 -106.64954 -0.97121775 -106.72331 -21.643827 -172.17844
23137500000 -21.854931 -169.30795 -0.96780372 -107.28214 -0.97290117 -107.33279 -21.973898 -176.28726
23165000000 -21.9624 -168.17743 -0.96445572 -107.83118 -0.97519726 -107.92164 -22.386045 -174.49959
23192500000 -21.378328 -171.77351 -0.97235483 -108.35179 -0.97883213 -108.40961 -21.769999 -173.4966
23220000000 -21.620964 -172.0377 -0.97024828 -108.96829 -0.98038965 -109.00517 -21.747179 -177.51089
23247500000 -21.996471 -170.1037 -0.97409666 -109.50519 -0.97694218 -109.59318 -22.334595 -176.59485
23275000000 -21.341253 -172.30434 -0.97764891 -110.09657 -0.98603302 -110.09451 -21.923973 -174.71271
23302500000 -21.346872 -173.61839 -0.97509289 -110.61335 -0.97822118 -110.65139 -21.627739 -178.72221
23330000000 -22.036388 -172.39929 -0.98189425 -111.18841 -0.98445392 -111.23096 -22.254597 -179.60707
23357500000 -21.438765 -173.86298 -0.98054117 -111.71336 -0.99169797 -111.81143 -21.960266 -176.28973
23385000000 -21.117685 -175.4341 -0.97912884 -112.26548 -0.98391461 -112.33839 -21.590061 -179.39244
23412500000 -21.813175 -175.33099 -0.98276019 -112.84241 -0.99301094 -112.9403 -22.061493 178.04156
23440000000 -21.56986 -175.14751 -0.98419321 -113.42654 -0.99350584 -113.48357 -22.070412 -179.06633
23467500000 -20.960133 -176.73122 -0.98493582 -113.91438 -0.9917627 -113.97678 -21.614555 179.57423
23495000000 -21.633801 -177.58163 -0.99046773 -114.48919 -0.99399757 -114.57014 -21.899389 176.54373
23522500000 -21.722916 -177.83644 -0.99066573 -115.07613 -0.99364674 -115.14265 -22.161489 178.53925
23550000000 -20.939821 -178.08481 -0.99561495 -115.60071 -1.001175 -115.651 -21.672174 178.25696
23577500000 -21.291676 179.76764 -0.99572921 -116.19794 -0.99735701 -116.22496 -21.717474 174.76862
23605000000 -21.726221 179.70013 -0.99133694 -116.75761 -0.99698347 -116.80039 -22.155523 175.67236
23632500000 -21.023983 -179.59167 -1.001565 -117.24297 -1.0029061 -117.31324 -21.833487 176.54625
23660000000 -21.059814 178.18829 -1.0003632 -117.81094 -1.0042788 -117.88033 -21.622242 173.74341
23687500000 -21.664927 176.87814 -0.99986583 -118.37302 -1.0024945 -118.44361 -22.063498 172.78426
23715000000 -21.144926 177.96178 -1.0040749 -118.93388 -1.0075042 -118.99577 -21.966974 174.54822
23742500000 -20.942318 176.68849 -0.99808466 -119.47053 -1.0077896 -119.52802 -21.607176 172.1275
23770000000 -21.476067 174.10194 -1.0030277 -120.02707 -1.0079936 -120.10762 -21.961823 170.67995
23797500000 -21.310289 175.70006 -1.0052086 -120.5934 -1.0100445 -120.65636 -22.122629 172.78162
23825000000 -20.831697 175.80536 -1.0028079 -121.08418 -1.0117995 -121.17305 -21.670666 170.71661
23852500000 -21.308228 172.11897 -1.0059379 -121.65761 -1.0144975 -121.75379 -21.883507 168.46149
23880000000 -21.430008 172.78162 -1.0093968 -122.25509 -1.0100203 -122.31696 -22.210228 170.14023
23907500000 -21.002047 174.01956 -1.009642 -122.73745 -1.0170578 -122.83604 -21.806036 169.20898
23935000000 -21.086742 170.08134 -1.0124259 -123.32877 -1.0175427 -123.40304 -21.802803 166.35097
23962500000 -21.452887 169.31369 -1.0052174 -123.88272 -1.0168066 -123.96537 -22.30307 168.02188
23990000000 -21.083109 171.98499 -1.010097 -124.39986 -1.0168949 -124.47193 -21.92214 167.8829
24017500000 -20.978519 168.86421 -1.0133996 -124.98297 -1.0212696 -125.06815 -21.734913 165.13174
24045000000 -21.38685 166.62614 -1.0085957 -125.5249 -1.0146139 -125.59269 -22.243834 166.04755
24072500000 -21.28364 169.37212 -1.0158945 -126.06548 -1.019783 -126.12788 -22.038378 166.7287
24100000000 -20.965101 167.97264 -1.0125721 -126.64043 -1.0227221 -126.68049 -21.727474 163.68204
24127500000 -21.240808 164.32642 -1.0134934 -127.18234 -1.0209755 -127.23686 -22.114449 164.00758
24155000000 -21.484995 166.48573 -1.0171723 -127.76533 -1.023131 -127.79235 -22.17598 165.1114
24182500000 -21.08309 166.57117 -1.0179013 -128.29413 -1.0245099 -128.35893 -21.690102 162.62717
24210000000 -21.164663 162.72707 -1.0191745 -128.83997 -1.0264957 -128.87469 -21.971449 162.09404
24237500000 -21.451096 163.25677 -1.0158677 -129.39664 -1.0241271 -129.45116 -22.34136 163.31499
24265000000 -21.273457 165.08752 -1.0213622 -129.90907 -1.0292108 -129.9834 -21.789959 161.52591
24292500000 -21.027861 161.81404 -1.0220913 -130.48131 -1.0301839 -130.55731 -21.827648 159.9243
24320000000 -21.43401 160.38303 -1.0178293 -131.02513 -1.0251644 -131.10985 -22.336834 161.33539
24347500000 -21.393425 162.7468 -1.0206935 -131.58353 -1.0250982 -131.61777 -21.859251 160.12939
24375000000 -21.058462 160.63292 -1.0209084 -132.12138 -1.0283558 -132.21759 -21.673643 157.80574
24402500000 -21.251263 157.90915 -1.0156865 -132.68652 -1.024597 -132.73767 -22.385818 159.58797
24430000000 -21.544346 160.16156 -1.0206064 -133.25409 -1.0279937 -133.29504 -22.002394 158.72333
24457500000 -21.144791 159.00732 -1.024013 -133.77931 -1.0319701 -133.86226 -21.612108 156.40968
24485000000 -21.204399 156.09196 -1.0200583 -134.34596 -1.0281374 -134.39233 -22.209105 157.04155
24512500000 -21.601696 156.73949 -1.0191621 -134.87854 -1.0260446 -134.94363 -22.149084 157.56935
24540000000 -21.327431 157.66449 -1.023439 -135.424 -1.0338622 -135.50301 -21.492607 155.01884
24567500000 -21.049574 154.47374 -1.0246705 -135.97655 -1.029399 -136.04463 -22.118853 154.54433
24595000000 -21.534283 153.63272 -1.0236562 -136.50183 -1.0277077 -136.61142 -22.246679 155.43866
24622500000 -21.426992 155.00284 -1.0248783 -137.08105 -1.0286613 -137.17648 -21.56905 153.11057
24650000000 -21.092943 153.09235 -1.028283 -137.64906 -1.0351242 -137.72621 -21.822895 151.9389
24677500000 -21.383297 150.88666 -1.0214765 -138.20032 -1.0256945 -138.25743 -22.338348 153.51303
24705000000 -21.54771 152.33969 -1.0258991 -138.76521 -1.0294995 -138.81418 -21.637547 151.63947
24732500000 -21.157951 151.13481 -1.0292777 -139.3161 -1.0325483 -139.36749 -21.623163 149.82463
24760000000 -21.271591 148.57452 -1.0236055 -139.84673 -1.0293735 -139.89464 -22.383848 150.59509
24787500000 -21.576233 148.88066 -1.0219144 -140.38911 -1.0300392 -140.46964 -21.770796 150.31723
24815000000 -21.304092 149.30573 -1.0313674 -140.95023 -1.0365155 -141.03255 -21.493675 147.9738
24842500000 -21.138786 146.90414 -1.0194743 -141.49782 -1.0326078 -141.57892 -22.344879 147.82399
24870000000 -21.607601 146.09775 -1.0252938 -142.03535 -1.0309821 -142.09999 -21.972492 149.01901
24897500000 -21.448046 147.45653 -1.0271837 -142.63098 -1.0379913 -142.68077 -21.424297 146.30841
24925000000 -21.144342 145.15498 -1.0246967 -143.16934 -1.0313753 -143.24309 -22.250658 144.98703
24952500000 -21.497295 143.36952 -1.0208579 -143.68965 -1.0346321 -143.77507 -22.139215 146.18253
24980000000 -21.65353 144.50464 -1.0322127 -144.24696 -1.0370347 -144.35065 -21.398169 145.22049
25007500000 -21.203407 143.62038 -1.0289614 -144.82454 -1.0335391 -144.88426 -21.964041 142.53229
25035000000 -21.437044 140.65381 -1.021841 -145.36058 -1.0292987 -145.43083 -22.333035 144.16373
25062500000 -21.703205 141.70877 -1.0299628 -145.92018 -1.0358168 -145.99281 -21.507719 143.54135
25090000000 -21.397661 140.94736 -1.0292383 -146.49348 -1.0375403 -146.54498 -21.711409 140.86969
25117500000 -21.212658 138.60231 -1.0282909 -147.01521 -1.0287888 -147.08873 -22.406191 140.16463
25145000000 -21.661341 138.6987 -1.0314863 -147.57896 -1.0384078 -147.64973 -21.691084 142.33479
25172500000 -21.52952 139.21603 -1.0271342 -148.14156 -1.037275 -148.21678 -21.514664 139.59241
25200000000 -21.180378 136.79195 -1.029299 -148.67947 -1.0278311 -148.74574 -22.315908 137.12634
25227500000 -21.633291 135.38074 -1.0320046 -149.23082 -1.0385529 -149.29416 -21.94104 140.04472
25255000000 -21.612 136.72227 -1.0344061 -149.80037 -1.0409998 -149.88023 -21.397331 137.65562
25282500000 -21.16659 134.88702 -1.0321071 -150.33182 -1.0354317 -150.40308 -22.147827 134.43182
25310000000 -21.389023 132.60461 -1.0279328 -150.9124 -1.0343759 -150.98511 -22.114641 137.65242
25337500000 -21.628639 133.51421 -1.0304432 -151.45219 -1.0405447 -151.52345 -21.416737 136.68069
25365000000 -21.238178 132.66435 -1.0257436 -152.00443 -1.036612 -152.08189 -21.963453 131.82204
25392500000 -21.307379 130.61798 -1.0317233 -152.55287 -1.0337844 -152.60229 -22.334465 134.37923
25420000000 -21.691948 130.35524 -1.0319084 -153.12126 -1.0424991 -153.19649 -21.519894 135.54726
25447500000 -21.368872 130.79414 -1.0331597 -153.69318 -1.041917 -153.76247 -21.874451 130.94083
25475000000 -21.263836 128.17444 -1.0264075 -154.22021 -1.0375623 -154.28987 -22.306625 129.89049
25502500000 -21.62155 127.12052 -1.0385617 -154.79926 -1.0428852 -154.87006 -21.675623 133.8801
25530000000 -21.542305 128.18356 -1.0310284 -155.34978 -1.0424106 -155.3961 -21.659733 129.59041
25557500000 -21.225733 126.37199 -1.0338405 -155.87477 -1.0324699 -155.93114 -22.281965 127.14728
25585000000 -21.519896 123.85499 -1.0363215 -156.46347 -1.0424353 -156.51865 -21.992527 131.55074
25612500000 -21.495529 125.39002 -1.0404335 -157.01199 -1.0440208 -157.0231 -21.545576 128.73116
25640000000 -21.20397 124.67281 -1.0340872 -157.52409 -1.0426577 -157.57698 -22.193722 124.58743
25667500000 -21.356564 121.71049 -1.04073 -158.10716 -1.0437683 -158.15588 -22.14415 127.99839
25695000000 -21.672018 121.78014 -1.0368789 -158.65614 -1.0448718 -158.70174 -21.588896 127.91653
25722500000 -21.264662 123.06332 -1.0339588 -159.22452 -1.0425205 -159.23962 -22.004709 122.4631
25750000000 -21.314442 118.99147 -1.0346715 -159.7267 -1.0421315 -159.80084 -22.176867 124.35903
25777500000 -21.563791 117.9015 -1.0379127 -160.34045 -1.0505198 -160.38666 -21.763958 126.62571
25805000000 -21.465736 120.78757 -1.0443035 -160.83646 -1.0527126 -160.90727 -21.808603 120.99097
25832500000 -21.19684 117.14436 -1.0392249 -161.40584 -1.0467699 -161.48888 -22.17557 120.03783
25860000000 -21.532867 114.91359 -1.0467336 -161.99455 -1.050812 -161.98259 -21.854937 124.84673
25887500000 -21.54796 117.9166 -1.0424244 -162.50436 -1.0539943 -162.59639 -21.85647 119.78984
25915000000 -21.20281 115.90392 -1.0447431 -163.08073 -1.0471108 -163.10786 -22.095015 116.88268
25942500000 -21.33873 111.98991 -1.0432377 -163.59813 -1.0507588 -163.69769 -22.124926 121.73008
25970000000 -21.605696 114.7951 -1.0430794 -164.20238 -1.0516007 -164.25513 -21.744968 119.13751
25997500000 -21.308018 113.92037 -1.0427039 -164.67773 -1.0468403 -164.74501 -22.109095 114.8151
26025000000 -21.247873 109.33132 -1.0434335 -165.27211 -1.0465853 -165.31496 -22.18412 118.45497
26052500000 -21.602087 110.696 -1.0447553 -165.84355 -1.0495447 -165.87613 -21.824984 118.36545
26080000000 -21.532507 112.52236 -1.0448297 -166.31407 -1.0562357 -166.43411 -22.00205 112.15253
26107500000 -21.117041 107.27003 -1.0434536 -166.9106 -1.0524783 -166.9648 -22.203581 115.08514
26135000000 -21.435347 107.26314 -1.0488285 -167.4718 -1.0512838 -167.50854 -21.895477 116.4806
26162500000 -21.555058 109.56424 -1.0412602 -168.01837 -1.0573077 -168.06418 -21.988169 111.07347
26190000000 -21.071943 106.47804 -1.0457836 -168.56638 -1.051214 -168.65399 -22.316528 111.23399
26217500000 -21.187841 103.45406 -1.0414057 -169.09122 -1.0470581 -169.16589 -22.071617 114.68451
26245000000 -21.701143 106.80502 -1.0512674 -169.66516 -1.0541738 -169.74156 -21.934286 109.58899
26272500000 -21.288862 105.20895 -1.0394002 -170.22533 -1.0488799 -170.2765 -22.177994 108.04585
26300000000 -21.05695 101.0519 -1.0432011 -170.72467 -1.0548037 -170.81931 -22.072309 110.77184
26327500000 -21.79035 103.07207 -1.0462399 -171.33713 -1.0558916 -171.4135 -21.961199 108.50391
26355000000 -21.358959 103.42141 -1.044027 -171.90616 -1.0470703 -171.94708 -22.190018 105.48782
26382500000 -20.864225 98.828484 -1.0495499 -172.39563 -1.0526935 -172.48036 -22.240288 108.22228
26410000000 -21.5826 98.888458 -1.0446143 -172.99329 -1.0485322 -173.05737 -22.031384 107.25359
26437500000 -21.532894 100.64579 -1.0420104 -173.53833 -1.0501387 -173.59184 -22.097704 103.90494
26465000000 -20.891624 97.740295 -1.0478801 -174.07481 -1.0535288 -174.13979 -22.391663 105.09827
26492500000 -21.302896 95.527374 -1.0430919 -174.64178 -1.0539309 -174.70686 -22.20359 105.15494
26520000000 -21.6703 97.699074 -1.0630774 -175.16902 -1.0468397 -175.18414 -22.263657 101.47205
26547500000 -21.02379 96.46843 -1.0524615 -175.71637 -1.0592316 -175.84489 -22.296043 102.4649
26575000000 -21.111158 93.282875 -1.0618492 -176.23949 -1.0383427 -176.42052 -22.123955 102.74071
26602500000 -21.645222 94.382957 -1.0445147 -176.85283 -1.0637454 -176.96156 -22.015408 99.921806
26630000000 -21.117876 94.943611 -1.0424813 -177.41652 -1.0507097 -177.4864 -22.522196 99.346802
26657500000 -21.136314 91.385818 -1.0493826 -178.00667 -1.0538656 -178.09502 -22.235855 100.62884
26685000000 -21.508261 89.779076 -1.0479316 -178.43411 -1.0563092 -178.69984 -22.006134 97.664238
26712500000 -21.480543 92.598671 -1.0555404 -179.07838 -1.0589336 -179.10722 -22.369953 96.76577
26740000000 -20.937384 89.694008 -1.0471352 -179.65224 -1.0619166 -179.66055 -22.419428 98.629845
26767500000 -21.390289 86.890457 -1.0420536 179.79474 -1.0454965 179.74312 -21.971666 96.75808
26795000000 -21.614832 89.090042 -1.053826 179.2417 -1.0553021 179.21861 -22.410875 94.427002
26822500000 -21.100359 89.378624 -1.0398709 178.71036 -1.0691303 178.6541 -22.491623 96.229019
26850000000 -21.136616 84.89904 -1.0421658 178.11395 -1.0504806 178.07408 -22.170408 94.027809
26877500000 -21.571362 83.963608 -1.0543107 177.57927 -1.0542269 177.49225 -22.369398 91.550102
26905000000 -21.090229 87.07991 -1.0537046 177.07115 -1.0708719 176.9359 -22.728796 92.160759
26932500000 -20.895773 82.2603 -1.0430273 176.40961 -1.0548655 176.40138 -22.218866 92.787376
26960000000 -21.528919 81.834427 -1.057626 175.92821 -1.0591669 175.79652 -22.356817 90.720924
26987500000 -21.289305 84.003372 -1.0631233 175.43336 -1.0750182 175.25418 -22.722309 90.611877
27015000000 -20.830664 82.280006 -1.0608752 174.82298 -1.0666462 174.7628 -22.333549 89.869186
27042500000 -21.364603 76.623001 -1.0404363 174.23657 -1.074852 174.08096 -22.142963 86.716568
27070000000 -21.600176 80.792168 -1.074737 173.66727 -1.0733365 173.67836 -22.579556 86.264664
27097500000 -21.016178 79.613121 -1.0477911 173.11975 -1.0599853 173.11305 -22.516094 87.448837
27125000000 -21.06588 76.026512 -1.0515239 172.5574 -1.0597639 172.52466 -22.155451 85.960495
27152500000 -21.69212 76.316139 -1.0594732 172.03029 -1.0618062 172.03439 -22.794203 83.729927
27180000000 -21.058058 78.887146 -1.0590446 171.50989 -1.0700495 171.51077 -22.654345 85.551926
27207500000 -20.919508 73.684502 -1.0618099 170.86636 -1.0591986 170.88269 -22.117785 83.844559
27235000000 -21.734001 73.296616 -1.0655831 170.39288 -1.0615427 170.30234 -22.582859 82.013878
27262500000 -21.348572 75.621483 -1.071763 169.939 -1.0745944 169.74333 -22.71666 83.033669
27290000000 -20.851267 71.276779 -1.062598 169.2798 -1.0585372 169.20427 -22.262804 82.34671
27317500000 -21.404026 69.842934 -1.0772913 168.71843 -1.0755388 168.6142 -22.615877 78.852821
27345000000 -21.600706 71.210686 -1.0702575 168.24055 -1.0770166 168.09032 -23.038944 79.185471
27372500000 -20.96743 70.67775 -1.0697044 167.60095 -1.065076 167.57578 -22.291113 79.686722
27400000000 -21.051304 67.610268 -1.0538976 167.04143 -1.0703075 166.94867 -22.332602 76.398628
27427500000 -21.827951 67.793274 -1.0745676 166.5426 -1.0910932 166.37738 -23.205069 75.993401
27455000000 -21.048918 69.010391 -1.0644438 166.02708 -1.0679377 165.94128 -22.540382 77.836823
27482500000 -21.041044 65.75573 -1.0628952 165.42584 -1.0780798 165.2412 -22.39278 75.744804
27510000000 -21.661324 64.727921 -1.0666744 164.84422 -1.0618323 164.72943 -22.931898 73.212608
27537500000 -21.356869 66.502899 -1.0827209 164.34236 -1.0764073 164.22258 -22.797251 76.018715
27565000000 -20.797476 64.127663 -1.0608639 163.76613 -1.0727355 163.65402 -22.385458 72.986465
27592500000 -21.581112 61.188736 -1.0751156 163.15118 -1.0842786 163.11383 -22.96777 69.774391
27620000000 -21.588747 62.807598 -1.0782843 162.63585 -1.0943278 162.57463 -22.901978 73.457939
27647500000 -20.817022 61.674328 -1.0755825 162.01424 -1.074789 162.02126 -22.555578 71.645462
27675000000 -21.272263 58.151222 -1.0863738 161.55994 -1.079609 161.52115 -22.73148 67.935608
27702500000 -21.779329 59.426491 -1.0753802 160.98831 -1.0854064 160.83894 -22.958351 68.666
27730000000 -21.110165 61.166653 -1.0733298 160.49557 -1.0724854 160.35393 -22.665319 70.825523
27757500000 -21.180872 56.996994 -1.0862092 159.92912 -1.0902536 159.79405 -22.632359 65.835854
27785000000 -21.584684 55.207893 -1.0778655 159.26758 -1.0758249 159.2339 -23.0877 65.76368
27812500000 -21.268906 58.893333 -1.0788029 158.7225 -1.0942292 158.72365 -22.761522 69.388046
27840000000 -21.005632 54.963909 -1.0848153 158.29282 -1.0993906 158.22366 -22.481617 64.208031
27867500000 -21.567575 52.307594 -1.0843029 157.79019 -1.0955925 157.64989 -23.170961 63.013386
27895000000 -21.5492 54.911316 -1.0814439 157.1028 -1.0803062 157.10005 -23.164124 65.864342
27922500000 -20.861948 54.509716 -1.0807031 156.60979 -1.0843849 156.53009 -22.823948 64.692116
27950000000 -21.348122 49.529415 -1.0925571 156.00291 -1.0832859 155.86861 -22.960833 59.427891
27977500000 -21.506853 52.295628 -1.0811335 155.51955 -1.0781442 155.41986 -23.241112 63.226673
28005000000 -20.844017 52.815586 -1.0871274 154.98846 -1.1016356 154.92049 -22.695822 62.07737
28032500000 -21.197227 49.199352 -1.0865872 154.40262 -1.1020659 154.24513 -22.689823 56.400059
28060000000 -21.543394 46.752285 -1.0827415 153.8161 -1.1040074 153.60963 -23.39657 58.958256
28087500000 -21.194735 50.922539 -1.0972902 153.30785 -1.1032528 153.07581 -22.957041 60.422592
28115000000 -21.091238 46.718922 -1.099283 152.72435 -1.1089779 152.66534 -22.861025 56.733047
28142500000 -21.349913 45.148685 -1.0976188 152.17743 -1.0985337 152.03891 -23.297079 55.128075
28170000000 -21.205162 48.012882 -1.0883192 151.60573 -1.1037277 151.4595 -23.01268 58.876648
28197500000 -20.991186 46.192039 -1.1068211 151.08086 -1.1008376 151.01265 -22.568623 55.167229
28225000000 -20.979132 41.825752 -1.0908669 150.47179 -1.1152766 150.43843 -23.067635 52.681194
28252500000 -21.281616 45.028557 -1.0930401 149.9117 -1.1135404 149.78047 -23.234442 56.123085
28280000000 -20.697746 43.62928 -1.1017343 149.35298 -1.1120775 149.35947 -22.962191 54.216301
28307500000 -20.903286 38.577957 -1.0971925 148.8432 -1.1352088 148.77733 -23.227566 50.888054
28335000000 -21.130833 39.891422 -1.0976175 148.28775 -1.1145796 148.15453 -23.351795 54.232067
28362500000 -20.857243 41.424435 -1.1244698 147.72345 -1.1190959 147.87245 -23.074741 52.514515
28390000000 -20.71023 36.929398 -1.1016124 147.34479 -1.1242776 147.24362 -22.90189 48.865086
28417500000 -20.998043 37.84539 -1.1155262 146.70486 -1.1265817 146.66168 -23.345119 50.203766
28445000000 -20.890829 39.501526 -1.1282889 146.19998 -1.1172634 146.17526 -23.383272 52.052628
28472500000 -20.615217 36.35194 -1.116127 145.80934 -1.1322336 145.75645 -22.786219 48.392044
28500000000 -20.952429 33.476227 -1.123029 145.13086 -1.1431711 145.14597 -23.511642 47.384453
28527500000 -20.946951 36.168629 -1.1204721 144.66322 -1.1396842 144.58414 -23.325045 51.455925
28555000000 -20.468508 33.462975 -1.1194272 144.23935 -1.1229391 144.07265 -23.079 46.235535
28582500000 -20.558071 30.9636 -1.1192064 143.50797 -1.1148646 143.5701 -23.312763 44.829647
28610000000 -21.081516 32.537025 -1.1200479 143.10739 -1.1216054 142.93291 -23.515026 49.28899
28637500000 -20.787067 31.14653 -1.1239221 142.63333 -1.1254612 142.52467 -22.894554 44.761806
28665000000 -20.392202 28.333977 -1.103484 142.08279 -1.1216483 142.02689 -23.081059 43.047386
28692500000 -21.025253 28.327698 -1.0998211 141.42343 -1.120061 141.45825 -23.397511 46.366497
28720000000 -20.77836 29.40638 -1.1063412 140.96547 -1.1150577 140.81946 -23.115709 45.47834
28747500000 -20.409773 25.532206 -1.0889353 140.43837 -1.1030812 140.44554 -22.706226 41.93367
28775000000 -20.795155 25.142649 -1.1053457 139.91849 -1.0987282 139.832 -23.713902 43.296841
28802500000 -21.022985 26.801449 -1.0913588 139.40282 -1.1181535 139.28004 -23.300739 42.255623
28830000000 -20.284529 23.980158 -1.0760238 138.74712 -1.0918829 138.73262 -22.786423 39.330345
28857500000 -20.640333 21.215639 -1.0879947 138.27324 -1.0907757 138.11098 -23.379753 37.397259
28885000000 -21.151175 24.615498 -1.0785531 137.65628 -1.0777209 137.5845 -23.40699 38.781372
28912500000 -20.644102 22.268238 -1.0694906 137.19923 -1.0769712 137.15187 -22.775921 37.18301
28940000000 -20.557802 19.311541 -1.0769669 136.59785 -1.0886166 136.44603 -23.227829 38.25351
28967500000 -21.292046 19.50651 -1.0584745 135.95341 -1.0809754 135.91815 -23.607952 36.986382
28995000000 -20.582237 19.339764 -1.0857066 135.57025 -1.0715232 135.42293 -22.60465 35.18005
29022500000 -20.40473 16.282415 -1.0683436 134.84692 -1.0615593 134.84315 -22.979795 35.100788
29050000000 -21.094206 16.047216 -1.0666585 134.30684 -1.0652219 134.23466 -23.515429 34.927467
29077500000 -20.984343 17.906439 -1.0853902 133.9039 -1.0699551 133.72731 -22.996588 33.018997
29105000000 -20.592857 15.365971 -1.0407891 133.20267 -1.0540688 133.16084 -22.815418 31.633797
29132500000 -21.224539 14.561079 -1.0724933 132.56894 -1.0737302 132.5634 -23.891333 32.036774
29160000000 -21.219328 14.927245 -1.062711 132.13535 -1.0685962 132.07484 -23.284271 33.211639
29187500000 -20.614937 13.664962 -1.0501209 131.47836 -1.0636322 131.38582 -23.009136 29.452892
29215000000 -20.776474 11.832618 -1.0483526 130.94757 -1.0661211 130.84657 -23.651802 29.492746
29242500000 -21.440861 11.53553 -1.0627596 130.33333 -1.0611868 130.33348 -23.470339 28.514198
29270000000 -20.608265 11.863103 -1.0300599 129.9126 -1.0459385 129.82457 -22.895132 26.28396
29297500000 -20.925194 10.140141 -1.0567091 129.22987 -1.0565538 129.16727 -23.5082 25.544107
29325000000 -21.505457 8.7580547 -1.0423402 128.70168 -1.047919 128.65848 -23.517019 27.222073
29352500000 -21.030964 10.382404 -1.0570703 128.19147 -1.0664653 128.13342 -23.256262 26.009933
29380000000 -20.670435 7.2903862 -1.049847 127.55518 -1.0395741 127.4343 -23.483498 22.041077
29407500000 -21.356077 5.9005756 -1.0444968 127.01961 -1.050813 126.97431 -23.912039 22.803091
29435000000 -21.067471 5.5157895 -1.0490197 126.52998 -1.0551111 126.50838 -23.060188 23.040813
29462500000 -20.734261 7.6829419 -1.0241723 125.87528 -1.0554936 125.74422 -23.4723 19.318882
29490000000 -21.251587 2.2390099 -1.0355225 125.38301 -1.04642 125.2201 -23.89105 20.761051
29517500000 -21.687008 4.9860888 -1.0445231 124.90274 -1.0540969 124.69701 -23.49572 20.123793
29545000000 -21.019661 3.46451 -1.0355711 124.25681 -1.0433124 124.03539 -23.579159 19.288893
29572500000 -21.124655 1.5394944 -1.03811 123.72512 -1.0480283 123.51834 -23.965528 17.966211
29600000000 -21.727804 -0.60216212 -1.0373507 123.09589 -1.0596026 123.07576 -23.470844 18.58082
29627500000 -21.18667 4.4720678 -1.0354127 122.51346 -1.0522026 122.51945 -23.444605 17.459221
29655000000 -21.073431 -0.70504206 -1.0300087 121.90965 -1.0425448 121.96062 -24.104586 14.421625
29682500000 -21.641376 -2.6385705 -1.0396652 121.44557 -1.0514487 121.36326 -23.811882 16.076773
29710000000 -21.449644 0.25008622 -1.045889 120.72079 -1.0500847 120.77475 -23.351685 15.536973
29737500000 -20.898401 -0.40368289 -1.0171573 120.18804 -1.021655 120.14702 -24.167898 11.012735
29765000000 -21.461021 -6.4943099 -1.0321156 119.8553 -1.0510101 119.67487 -23.992144 14.000042
29792500000 -21.489267 -3.4212782 -1.0377085 119.21458 -1.0317833 119.15408 -23.317526 12.571617
29820000000 -21.110319 -1.5484586 -1.0442983 118.54274 -1.0298364 118.51716 -23.848038 9.5643148
29847500000 -21.453455 -9.2173862 -1.0353814 118.11214 -1.0458044 118.05927 -23.974648 9.8859167
29875000000 -21.863913 -7.7620201 -1.0380485 117.52918 -1.0510488 117.38444 -23.865335 12.105025
29902500000 -21.335939 -4.0083685 -1.0205275 116.85851 -1.0349455 116.86143 -23.622475 7.8091621
29930000000 -21.335146 -8.2338104 -1.0328021 116.36307 -1.045698 116.32924 -23.89185 7.8219166
29957500000 -21.593138 -10.942434 -1.0457027 115.76311 -1.0713178 115.69259 -23.855389 9.0654116
29985000000 -21.687725 -6.9375596 -1.010015 115.23973 -1.0409428 115.29488 -23.396679 5.0433955
30012500000 -21.297356 -10.664712 -1.0293282 114.62485 -1.0376297 114.52541 -24.055815 3.0429339
30040000000 -21.577694 -14.949527 -1.0203818 114.08705 -1.0482491 114.07082 -23.749088 6.7776995
30067500000 -21.91131 -11.040976 -1.0339564 113.48802 -1.0440744 113.47497 -23.736948 7.0005608
30095000000 -21.426315 -9.6452065 -1.0349425 112.94311 -1.0529722 112.83682 -24.352749 0.42029706
30122500000 -21.20974 -16.911745 -1.036054 112.51189 -1.0447046 112.35201 -24.27425 6.0997105
30150000000 -22.026627 -14.642124 -1.0391115 111.89322 -1.040451 111.75377 -23.895428 3.03544
30177500000 -21.636915 -11.628209 -1.0372359 111.26771 -1.0406313 111.16358 -24.29697 -2.3227818
30205000000 -21.488342 -18.610643 -1.0464962 110.70769 -1.0537435 110.68329 -24.148109 -0.35324612
30232500000 -21.864792 -19.278841 -1.0508202 110.13925 -1.0583037 110.172 -24.133938 3.3904965
30260000000 -22.216208 -13.113698 -1.0150194 109.52609 -1.0270007 109.34994 -24.160311 -4.4729114
30287500000 -21.558237 -20.927235 -1.0378495 109.05408 -1.0373763 109.00795 -24.30608 -1.6049713
30315000000 -21.677795 -21.242704 -1.0418772 108.52589 -1.0650277 108.26792 -24.322773 -1.1792815
30342500000 -22.140043 -17.401001 -1.038871 107.81281 -1.0427792 107.74154 -24.229113 -7.1743488
30370000000 -21.425932 -19.589813 -1.0407155 107.4119 -1.0464427 107.28053 -24.482883 -6.3476572
30397500000 -21.392349 -24.066149 -1.0509567 106.70039 -1.0559607 106.62193 -24.6022 -1.9927096
30425000000 -22.020252 -20.28462 -1.0653661 106.14967 -1.0467761 106.1159 -24.044882 -6.1782136
30452500000 -21.97813 -20.304935 -1.0589532 105.57715 -1.0512964 105.54494 -24.214306 -10.798693
30480000000 -21.047613 -24.28422 -1.0609244 105.07327 -1.0537194 105.13564 -24.766073 -4.6051292
30507500000 -21.948023 -24.934875 -1.0335935 104.69913 -1.0721838 104.53658 -24.395519 -8.3494577
30535000000 -22.053188 -23.641182 -1.0452673 104.09105 -1.0653608 104.06006 -24.149654 -13.305186
30562500000 -21.123602 -26.275537 -1.0422661 103.57413 -1.0641178 103.47893 -24.859007 -8.6123085
30590000000 -21.622627 -27.847446 -1.0409224 103.08725 -1.0614853 102.89478 -24.565775 -8.3429976
30617500000 -22.231253 -27.258665 -1.0307612 102.36259 -1.0442947 102.27861 -24.156002 -15.312666
30645000000 -21.292637 -28.773119 -1.0451623 101.75615 -1.0366446 101.66434 -24.852608 -13.412605
30672500000 -21.484238 -30.975008 -1.0237968 101.33529 -1.0676564 101.13789 -24.876322 -10.539529
30700000000 -22.500719 -32.024952 -1.0490038 100.6226 -1.0547278 100.60981 -24.018055 -17.551819
30727500000 -21.819641 -30.577559 -1.0491983 100.22536 -1.0569488 99.976013 -25.026466 -17.899218
30755000000 -21.026934 -33.78875 -1.0393765 99.536598 -1.0657657 99.508148 -25.108524 -14.550704
30782500000 -22.459044 -32.320805 -1.0301532 99.076401 -1.0279285 98.932564 -24.208324 -17.628584
30810000000 -21.722971 -33.396698 -1.0536838 98.447281 -1.0369973 98.370728 -24.788767 -17.989367
30837500000 -21.146479 -34.759232 -1.0560782 97.933586 -1.0391799 97.880508 -25.443499 -17.343744
30865000000 -22.161613 -36.362339 -1.0533875 97.333359 -1.0532649 97.309334 -24.641727 -19.765396
30892500000 -22.514696 -36.391342 -1.0481796 96.728256 -1.0669709 96.667664 -24.913877 -24.05216
30920000000 -21.478888 -36.906281 -1.0562148 96.225227 -1.0454751 96.228249 -25.765017 -22.047153
30947500000 -21.834337 -39.962704 -1.0374824 95.7714 -1.0617301 95.521423 -25.399063 -20.334778
30975000000 -22.374386 -38.695393 -1.0473579 95.138321 -1.0496786 95.037704 -24.465384 -27.624447
31002500000 -21.98719 -38.608681 -1.0642848 94.666275 -1.0544952 94.445663 -25.647835 -24.93782
31030000000 -21.726654 -41.285954 -1.0577915 94.108337 -1.0526515 94.061783 -25.739658 -24.321409
31057500000 -22.999975 -42.408264 -1.0480989 93.43454 -1.0556738 93.365494 -24.888311 -27.370802
31085000000 -22.001261 -41.125759 -1.0512831 92.949707 -1.0631164 92.868332 -25.83782 -28.718258
31112500000 -21.773466 -40.480129 -1.0390427 92.311234 -1.0410705 92.235535 -26.038673 -26.474005
31140000000 -22.709234 -44.847664 -1.0645097 91.827179 -1.0361747 91.846802 -24.705536 -29.58312
31167500000 -22.23447 -45.120327 -1.0397248 91.267746 -1.0385725 91.154739 -25.541693 -31.777035
31195000000 -21.995373 -43.379486 -1.046759 90.668175 -1.0691199 90.626633 -26.568869 -29.173248
31222500000 -22.93206 -48.142078 -1.0403125 89.982117 -1.0507711 89.986603 -25.54331 -32.228489
31250000000 -22.761086 -48.814877 -1.0503039 89.510788 -1.0573314 89.470795 -25.570599 -34.417404
31277500000 -22.053949 -46.05201 -1.0524698 88.990036 -1.0368069 88.865578 -26.413738 -32.669559
31305000000 -22.767715 -50.065609 -1.0382053 88.390823 -1.0445057 88.362007 -25.714525 -35.815483
31332500000 -23.537283 -52.300125 -1.0549259 87.792046 -1.0571796 87.800522 -25.319332 -37.119915
31360000000 -22.759964 -47.019024 -1.0441056 87.31823 -1.0604703 87.180878 -26.993488 -37.132755
31387500000 -22.678274 -48.679768 -1.0636088 86.613319 -1.0413952 86.679031 -26.755772 -39.83139
31415000000 -23.442612 -55.125462 -1.0514174 86.075981 -1.0445749 86.073555 -25.670124 -36.846313
31442500000 -23.017632 -52.153008 -1.0368634 85.642944 -1.0510932 85.524475 -27.277727 -43.179008
31470000000 -22.988291 -49.183315 -1.0367202 85.062393 -1.0306832 84.902939 -27.034536 -41.004387
31497500000 -23.2747 -57.712612 -1.031093 84.463158 -1.0542576 84.405228 -26.04143 -40.194286
31525000000 -23.184429 -57.18615 -1.0576646 83.890236 -1.0378828 83.869904 -26.652344 -42.791817
31552500000 -22.989611 -49.843987 -1.050992 83.471214 -1.0551652 83.305145 -27.501852 -42.875149
31580000000 -23.732435 -62.036285 -1.0679877 82.771965 -1.0603814 82.591377 -26.362434 -43.008331
31607500000 -23.62219 -60.064915 -1.044294 82.215729 -1.0662975 82.090012 -26.815916 -44.918598
31635000000 -23.359129 -54.380165 -1.0493232 81.762749 -1.0627762 81.858452 -28.165825 -51.199905
31662500000 -23.725727 -61.550068 -1.043 81.056305 -1.0492418 81.085693 -26.935123 -49.237427
31690000000 -23.775835 -64.843941 -1.0403869 80.61232 -1.0543932 80.482101 -26.824078 -49.423569
31717500000 -23.984875 -57.639938 -1.038518 80.093819 -1.0373967 80.057304 -28.749273 -55.499901
31745000000 -24.388201 -61.636589 -1.046118 79.372253 -1.0443454 79.376564 -28.087563 -46.591965
31772500000 -23.98749 -68.64167 -1.0355552 78.988243 -1.0549862 78.792564 -27.572695 -50.283772
31800000000 -24.610926 -62.602367 -1.0544842 78.367973 -1.0542263 78.321831 -28.402988 -57.623901
31827500000 -24.496017 -62.842175 -1.0590069 77.816864 -1.064256 77.801857 -28.392555 -51.023289
31855000000 -24.183331 -70.636925 -1.0432297 77.392593 -1.053056 77.15554 -27.287449 -55.611732
31882500000 -24.257841 -65.817284 -1.046393 76.661911 -1.0547318 76.666603 -28.529657 -58.366001
31910000000 -25.409185 -63.433914 -1.0372559 76.064896 -1.06203 76.036789 -28.821053 -60.842957
31937500000 -24.740597 -72.320679 -1.0419828 75.466263 -1.0638995 75.429977 -27.592989 -56.028187
31965000000 -25.259777 -70.117485 -1.0514642 75.00499 -1.0475101 74.799416 -28.789526 -59.145176
31992500000 -25.431522 -65.153664 -1.0551678 74.31324 -1.0423254 74.286041 -29.673101 -65.003464
32020000000 -24.923557 -73.5606 -1.0458266 73.809883 -1.0481542 73.847336 -28.632935 -58.637947
32047500000 -25.065275 -74.901268 -1.0614033 73.122391 -1.0699084 73.237862 -28.341274 -63.686428
32075000000 -26.458223 -70.27681 -1.0583843 72.819351 -1.0581198 72.48159 -30.723804 -73.199738
32102500000 -25.267542 -76.261246 -1.0334496 72.177505 -1.0490074 72.112564 -29.201569 -67.600739
32130000000 -25.338026 -79.629601 -1.0595038 71.66758 -1.0633293 71.488976 -28.316042 -67.22683
32157500000 -26.477505 -74.009277 -1.0541072 70.936134 -1.0594771 70.82766 -29.404978 -76.979607
32185000000 -26.092834 -84.008247 -1.0462178 70.596436 -1.0430629 70.313202 -30.3209 -66.496544
32212500000 -25.719707 -81.823769 -1.0505512 69.914108 -1.0542457 69.882233 -29.911125 -71.962868
32240000000 -26.43066 -81.970314 -1.0546681 69.400101 -1.0507381 69.278603 -29.991539 -82.714752
32267500000 -27.120417 -80.04789 -1.0554143 68.669212 -1.0585068 68.679298 -30.363777 -75.900475
32295000000 -25.496824 -85.488243 -1.0473918 68.160858 -1.0793378 68.105583 -29.893942 -72.058937
32322500000 -27.054745 -82.637924 -1.0585469 67.56472 -1.0710295 67.583336 -29.542637 -84.024719
32350000000 -26.970417 -84.137184 -1.0563247 67.108681 -1.0670291 67.031693 -31.439314 -83.10907
32377500000 -26.061188 -85.87085 -1.0653803 66.606064 -1.0424138 66.376381 -31.032139 -75.119347
32405000000 -26.85894 -94.430206 -1.0436472 66.007515 -1.0442183 65.828194 -30.253342 -85.181236
32432500000 -27.528221 -93.010063 -1.0511677 65.406158 -1.0694876 65.299583 -32.807903 -97.948112
32460000000 -26.787371 -93.624283 -1.0446752 64.746933 -1.0617626 64.878418 -31.578957 -87.2061
32487500000 -26.784966 -94.977585 -1.0383463 64.346786 -1.0794431 64.196152 -29.829187 -86.66552
32515000000 -28.355289 -100.75894 -1.0455021 63.830223 -1.0609865 63.752651 -32.563644 -102.59098
32542500000 -27.318333 -97.938721 -1.049224 63.07024 -1.081779 63.033413 -33.243366 -91.40242
32570000000 -27.310114 -96.319527 -1.0701585 62.754665 -1.0511388 62.558815 -31.40036 -86.954414
32597500000 -27.546812 -104.94064 -1.0539402 62.00956 -1.0810325 61.952522 -31.809992 -103.01664
32625000000 -28.082758 -104.09012 -1.0356246 61.476101 -1.0642914 61.395451 -34.336555 -101.29678
32652500000 -27.11375 -99.741928 -1.0614007 61.03302 -1.0653727 60.80925 -31.25712 -97.876762
32680000000 -28.064703 -111.84894 -1.0731021 60.348301 -1.0741283 60.281883 -31.149725 -104.63664
32707500000 -28.178576 -111.52518 -1.067801 59.723625 -1.0810814 59.74284 -34.387054 -106.88144
32735000000 -28.528166 -102.78469 -1.0443753 59.235439 -1.0674552 58.924534 -33.477798 -96.785789
32762500000 -27.746225 -112.58765 -1.0849402 58.563103 -1.0891714 58.53569 -32.217091 -106.22071
32790000000 -28.664957 -115.70958 -1.0599872 58.033905 -1.0809795 58.10696 -34.460781 -131.11475
32817500000 -28.813166 -112.45117 -1.0528888 57.530739 -1.0895064 57.38036 -34.128899 -115.82733
32845000000 -28.331825 -119.08143 -1.059189 57.014122 -1.0833716 56.877525 -33.094704 -111.62894
32872500000 -28.989647 -127.84397 -1.092127 56.305626 -1.0890334 56.257576 -33.539478 -131.25487
32900000000 -29.120279 -117.56779 -1.0761954 55.792885 -1.0685862 55.707069 -35.738266 -128.22905
32927500000 -29.183128 -117.20081 -1.0782614 55.399101 -1.1058617 55.214851 -33.992954 -113.92992
32955000000 -28.737333 -128.77599 -1.0745577 54.644855 -1.0808034 54.665165 -33.574257 -128.04228
32982500000 -29.973942 -123.70832 -1.0949383 54.067776 -1.0693451 54.0186 -35.683731 -144.52888
33010000000 -29.516306 -119.63243 -1.080914 53.601353 -1.093709 53.556236 -35.149345 -123.72501
33037500000 -28.700075 -133.21417 -1.0890307 52.952168 -1.092611 52.983562 -35.128841 -138.1467
33065000000 -29.684364 -137.17676 -1.0564456 52.405159 -1.0751123 52.496307 -34.857792 -146.03737
33092500000 -30.052378 -125.00079 -1.0767233 51.896805 -1.08416 51.781742 -34.409069 -134.09117
33120000000 -28.677109 -138.62625 -1.0816708 51.444107 -1.089517 51.232273 -34.671989 -134.50858
33147500000 -29.480608 -141.07465 -1.0773653 50.783173 -1.0820858 50.715656 -34.607872 -162.94542
33175000000 -30.956387 -132.48141 -1.090602 50.147484 -1.0861683 50.229862 -35.749229 -138.14816
33202500000 -29.419071 -139.7459 -1.0810738 49.639877 -1.0954776 49.593613 -34.14986 -145.67574
33230000000 -29.088634 -147.1955 -1.106416 49.220512 -1.0948861 49.036213 -34.123226 -167.85915
33257500000 -30.773849 -144.22699 -1.0930111 48.412132 -1.096964 48.462967 -34.794342 -167.91925
33285000000 -29.94833 -145.01146 -1.0894289 48.031494 -1.1004014 47.968391 -34.722813 -150.84442
33312500000 -29.181547 -149.09633 -1.1075634 47.353313 -1.0936098 47.285545 -34.436337 -165.61539
33340000000 -30.746881 -157.56139 -1.0852988 46.784985 -1.1033355 47.015121 -33.991623 -173.30099
33367500000 -31.084824 -152.71182 -1.0881586 46.358936 -1.1122944 46.154301 -34.051823 -161.5511
33395000000 -29.132097 -152.51588 -1.0929166 45.742859 -1.1089746 45.719093 -34.01162 -166.8205
33422500000 -30.041838 -167.13271 -1.0966257 45.237782 -1.0795978 45.205208 -33.580372 175.76886
33450000000 -30.764936 -161.9595 -1.0958867 44.605362 -1.1076646 44.529198 -33.513138 -177.36739
33477500000 -29.250685 -159.99348 -1.1121373 44.140743 -1.1094441 43.958851 -33.178631 -179.23985
33505000000 -30.257406 -174.4888 -1.1037127 43.568382 -1.107128 43.462532 -32.089672 172.36711
33532500000 -32.233944 -177.04543 -1.1101266 42.880287 -1.1097777 42.814098 -33.29398 167.56032
33560000000 -30.262186 -163.2086 -1.0851276 42.354954 -1.0972395 42.258926 -32.115677 178.76392
33587500000 -29.881594 -178.33195 -1.1007649 41.869503 -1.1223649 41.752796 -32.147449 167.96954
33615000000 -31.261866 174.08525 -1.1194094 41.083805 -1.1188276 41.162792 -33.340485 163.44516
33642500000 -31.066973 -175.19598 -1.1168554 40.610226 -1.1104175 40.424915 -31.936909 175.4837
33670000000 -29.779911 -177.99117 -1.1245288 40.198959 -1.1263914 39.925156 -30.699348 159.18556
33697500000 -30.321949 158.55441 -1.1025543 39.565887 -1.1215075 39.512753 -31.473095 159.5049
33725000000 -31.283014 168.46176 -1.1135377 38.904293 -1.077835 38.997181 -32.045368 168.90318
33752500000 -29.976896 171.14073 -1.1248112 38.392422 -1.116043 38.226128 -30.9858 155.61748
33780000000 -28.859928 162.33896 -1.1195736 37.725658 -1.1177671 37.747791 -31.274326 146.46889
33807500000 -30.279329 150.82692 -1.113708 37.317348 -1.1142529 37.136681 -30.991116 155.358
33835000000 -30.475628 171.07906 -1.1095036 36.672485 -1.1147244 36.555225 -30.021437 154.59665
33862500000 -28.510139 158.19438 -1.1199273 36.291615 -1.1508514 36.13805 -29.600483 145.57372
33890000000 -29.029203 151.78619 -1.1223186 35.607414 -1.1163292 35.516361 -30.62048 144.0854
33917500000 -30.825678 153.90178 -1.1323928 34.953037 -1.1421796 35.045555 -29.741693 152.62994
33945000000 -29.08556 150.57544 -1.1188514 34.383331 -1.131727 34.461433 -29.697449 139.46869
33972500000 -28.378954 136.75632 -1.1217455 34.094776 -1.1338576 33.920177 -29.091629 138.65834
34000000000 -29.727938 140.07259 -1.1062981 33.349976 -1.1131105 33.245777 -29.200632 146.22348
34027500000 -29.107418 146.37546 -1.1328958 32.99918 -1.1449016 32.691643 -27.993412 134.02422
34055000000 -27.552393 135.82558 -1.132756 32.264622 -1.1448369 32.098324 -28.47303 135.83565
34082500000 -28.950666 131.91365 -1.1351732 31.643484 -1.1744879 31.62619 -30.037794 141.16321
34110000000 -28.786505 138.87256 -1.1348925 31.094505 -1.148627 30.947451 -27.820345 133.00206
34137500000 -27.351475 127.68368 -1.1221751 30.701233 -1.1345738 30.613611 -28.46965 129.9391
34165000000 -28.018753 122.5631 -1.1426417 30.041737 -1.1409444 29.949816 -29.269978 139.37596
34192500000 -28.810068 129.08713 -1.147341 29.484564 -1.1789883 29.352301 -27.479523 134.99055
34220000000 -27.18051 129.612 -1.1472517 28.859938 -1.1695584 28.904333 -27.500395 118.19969
34247500000 -26.456743 123.96931 -1.148559 28.447817 -1.1738888 28.299269 -28.032129 127.24854
34275000000 -27.817036 123.89731 -1.1835773 28.014608 -1.1556715 27.859224 -27.944855 131.54619
34302500000 -26.842272 126.26308 -1.1399659 27.250769 -1.1632971 27.218149 -26.360609 122.82436
34330000000 -25.969067 120.09879 -1.1558373 26.778507 -1.173939 26.628241 -27.807989 128.60829
34357500000 -26.9335 115.49387 -1.1589729 26.31959 -1.171626 26.188578 -27.426521 131.16577
34385000000 -26.823431 117.13896 -1.157557 25.68927 -1.1743942 25.663612 -25.748453 118.8072
34412500000 -25.185658 120.70849 -1.1635319 25.03927 -1.1677675 25.119505 -26.646503 119.77033
34440000000 -25.623459 110.31886 -1.1879361 24.722775 -1.161014 24.55088 -27.254812 126.73057
34467500000 -25.725639 110.90051 -1.1390344 24.067535 -1.1481671 23.919514 -25.891392 118.02982
34495000000 -25.045841 113.3306 -1.1774783 23.436724 -1.1689997 23.341057 -25.957651 110.8735
34522500000 -24.713646 109.84994 -1.1811062 22.800383 -1.1712283 22.959759 -26.958027 117.2066
34550000000 -25.138327 104.43353 -1.1555309 22.207148 -1.1771446 22.057016 -25.382002 121.68771
34577500000 -24.646074 111.999 -1.1676819 21.813141 -1.1739129 21.753992 -24.731382 107.43285
34605000000 -24.092714 107.99708 -1.1790644 21.115881 -1.1965036 20.987368 -27.055407 114.82585
34632500000 -24.726646 101.6789 -1.1593879 20.62816 -1.1688678 20.391201 -25.52219 116.39186
34660000000 -24.147669 106.71784 -1.1787391 20.012358 -1.1831228 19.918621 -24.067282 108.48879
34687500000 -23.82485 105.44174 -1.1889513 19.437321 -1.2034711 19.264446 -26.497948 109.16425
34715000000 -23.915106 96.684891 -1.1729907 19.151623 -1.1942906 19.094524 -25.559639 113.21147
34742500000 -23.87636 99.413834 -1.1741266 18.327394 -1.1815377 18.325586 -24.328867 107.5222
34770000000 -22.989824 102.66109 -1.1885843 17.887564 -1.2163346 17.760168 -24.614649 106.9168
34797500000 -23.199329 95.166542 -1.2044784 17.184925 -1.2255677 17.164988 -26.42898 111.15014
34825000000 -23.110428 94.69532 -1.2138218 16.802162 -1.1970618 16.752968 -24.001772 106.9049
34852500000 -22.709824 99.675011 -1.2082505 16.311951 -1.2052341 16.13689 -24.171759 99.308975
34880000000 -22.36974 93.778976 -1.1856985 15.689848 -1.2016945 15.64475 -26.296793 107.0131
34907500000 -22.739328 92.273743 -1.1870421 15.083073 -1.2026119 15.012817 -23.996931 106.19831
34935000000 -22.387823 96.106056 -1.2055155 14.708286 -1.2122689 14.575986 -23.285027 102.38674
34962500000 -22.283464 92.258865 -1.2053232 13.885413 -1.2290707 13.804784 -25.322842 101.95603
34990000000 -22.201683 89.595085 -1.2094024 13.566497 -1.1933497 13.487556 -24.360577 106.82313
35017500000 -21.924435 90.011734 -1.2096471 13.066525 -1.2156039 12.839776 -22.717022 100.81686
35045000000 -21.701256 93.098297 -1.2136708 12.495405 -1.2096326 12.268712 -24.725727 96.527847
35072500000 -21.64028 85.780342 -1.201388 11.937872 -1.2187041 11.843751 -24.714088 102.22134
35100000000 -21.684446 89.695114 -1.2338742 11.438193 -1.2233484 11.412494 -22.878954 99.792831
35127500000 -21.723389 89.550316 -1.2177001 10.829729 -1.222111 10.804805 -23.605659 96.890923
35155000000 -21.176245 86.226234 -1.2034472 10.298819 -1.2079595 10.16401 -24.638077 97.733131
35182500000 -20.953451 85.661987 -1.1859549 9.8141088 -1.186295 9.6517143 -22.811831 100.57467
35210000000 -21.537174 90.894012 -1.2143127 9.0757456 -1.2339472 9.2958021 -22.863422 97.370476
35237500000 -20.901693 83.547287 -1.1782949 8.6738539 -1.1961457 8.423707 -24.083366 97.321159
35265000000 -20.691374 84.596962 -1.2095625 8.115634 -1.215003 7.8894963 -22.968542 98.11348
35292500000 -21.320377 85.443626 -1.2342718 7.5438409 -1.2159225 7.2912536 -22.156727 96.83062
35320000000 -20.166267 86.347618 -1.2067062 7.0433292 -1.2004241 6.92839 -23.537331 91.917572
35347500000 -20.354937 81.311478 -1.2097 6.5137606 -1.205995 6.333034 -23.202133 97.245811
35375000000 -20.947271 85.501892 -1.1984066 5.8507352 -1.2173235 5.8165288 -21.625036 96.767662
35402500000 -20.708763 83.931084 -1.2141203 5.2762818 -1.2150749 5.1624751 -22.716738 93.378029
35430000000 -19.766703 79.538551 -1.1861063 4.5858717 -1.1982371 4.5719757 -22.865765 94.560783
35457500000 -20.415064 80.786003 -1.2319818 4.2138758 -1.2268413 4.1891422 -21.387106 94.812538
35485000000 -20.263882 79.812347 -1.2052941 3.572 -1.2128483 3.5103424 -21.75234 89.981827
35512500000 -19.456905 78.111946 -1.2101984 3.2077363 -1.2197461 2.8850856 -22.738005 91.531273
35540000000 -19.7932 76.775383 -1.1832999 2.5566454 -1.2423707 2.4217968 -21.137014 94.856583
35567500000 -20.013508 79.221817 -1.2266109 1.9574108 -1.1918089 1.9159741 -21.413406 89.642586
35595000000 -19.378725 73.668564 -1.2178698 1.4192933 -1.2393563 1.4623188 -22.337236 89.673347
35622500000 -19.429525 72.979202 -1.2348455 0.80980325 -1.2037648 0.82603198 -21.391798 91.933731
35650000000 -19.955944 76.558113 -1.2175254 0.45506233 -1.2373663 0.37023658 -20.697514 88.275764
35677500000 -19.147701 76.023773 -1.2012337 -0.17611979 -1.2109404 -0.38756934 -21.982403 86.530182
35705000000 -19.052744 71.626892 -1.2083986 -0.96482879 -1.2484642 -1.0864749 -21.274982 89.010094
35732500000 -19.754204 73.355431 -1.2066597 -1.416063 -1.2398456 -1.2157509 -20.64143 89.553947
35760000000 -19.283476 72.805458 -1.1954938 -1.9149603 -1.2275168 -1.9796872 -20.76545 85.870537
35787500000 -18.616508 71.976913 -1.2036459 -2.5997519 -1.2394637 -2.6688323 -21.1693 87.513596
35815000000 -19.294418 69.148277 -1.2106947 -3.0014801 -1.2360249 -3.3095622 -20.290224 86.476097
35842500000 -19.251282 73.379128 -1.2125092 -3.4269831 -1.2085247 -3.5526731 -20.301157 81.652466
35870000000 -18.361443 69.475685 -1.225603 -4.2645245 -1.2211559 -4.2036266 -20.61409 82.744919
35897500000 -18.593674 67.276337 -1.2427346 -4.8114343 -1.2100092 -4.7688379 -19.912529 85.52861
35925000000 -18.828417 65.919167 -1.2172245 -5.2879367 -1.227174 -5.3118854 -19.963087 83.959854
35952500000 -18.33861 68.462761 -1.233348 -5.8738375 -1.2186915 -5.8779507 -20.148865 80.246483
35980000000 -18.331886 66.974586 -1.198976 -6.5310631 -1.2027762 -6.6181684 -19.727381 85.221321
36007500000 -18.724318 66.735794 -1.212093 -7.0128884 -1.235782 -7.0333691 -19.77401 82.623093
36035000000 -17.93334 66.875771 -1.1955827 -7.5060706 -1.238525 -7.710813 -19.759089 78.497124
36062500000 -17.653675 64.345551 -1.1818238 -8.1446114 -1.2320294 -8.0607615 -19.769369 81.241119
36090000000 -18.509129 62.482597 -1.2460325 -8.6912613 -1.2364792 -8.8497028 -19.536354 81.747887
36117500000 -18.012125 64.321281 -1.2188306 -9.0414333 -1.2028619 -9.2220821 -19.227987 79.916557
36145000000 -17.530867 63.094814 -1.2064929 -9.7645969 -1.2218126 -9.8756542 -19.224792 78.645126
36172500000 -17.953192 61.424603 -1.2299865 -10.34621 -1.2460607 -10.44256 -19.00668 79.440254
36200000000 -17.860029 62.234772 -1.2270542 -10.806336 -1.2168131 -10.974157 -18.995531 77.269722
36227500000 -17.254295 63.110573 -1.1773517 -11.449043 -1.2505482 -11.450269 -19.03664 76.606705
36255000000 -17.348368 58.296841 -1.2273073 -11.849113 -1.2368649 -12.047298 -18.89238 77.807838
36282500000 -17.908861 59.503365 -1.2255697 -12.448065 -1.2333659 -12.703524 -18.654932 74.30542
36310000000 -17.40012 59.294964 -1.2318084 -13.121871 -1.2335073 -13.13301 -18.273502 76.068848
36337500000 -17.126682 56.78651 -1.2263377 -13.862333 -1.2324836 -13.676423 -18.404873 74.875145
36365000000 -17.560619 57.533825 -1.2282349 -14.195281 -1.2407008 -14.116405 -18.016592 75.280663
36392500000 -17.078205 60.087826 -1.219051 -14.778412 -1.2214742 -14.697405 -18.151779 73.884346
36420000000 -16.608112 54.940147 -1.2202405 -15.357254 -1.2469534 -15.402733 -18.04093 71.6166
36447500000 -17.160313 56.309258 -1.239203 -15.885322 -1.2554517 -16.014614 -17.994028 71.433365
36475000000 -17.207228 53.491447 -1.246346 -16.359644 -1.2418956 -16.443998 -18.070202 71.305084
36502500000 -16.418627 56.435226 -1.2456055 -17.038967 -1.2673965 -17.052343 -17.782507 69.255394
36530000000 -16.502651 51.557217 -1.2527138 -17.638165 -1.2634064 -17.567186 -17.833109 68.600655
36557500000 -17.205318 51.438343 -1.2311753 -17.954945 -1.2702813 -17.93046 -17.559889 68.979172
36585000000 -16.247402 51.749191 -1.270943 -18.649288 -1.2661676 -18.776701 -17.666225 69.622704
36612500000 -16.038658 51.142303 -1.2616688 -19.214937 -1.2248054 -19.427767 -17.760923 66.940994
36640000000 -16.871561 49.05624 -1.2732742 -19.720863 -1.2874824 -19.764133 -17.352835 67.684044
36667500000 -16.19817 49.68853 -1.2651526 -20.327522 -1.2922733 -20.492706 -17.198755 69.132996
36695000000 -15.83568 51.109184 -1.2809796 -20.758974 -1.3075207 -20.874947 -17.280907 64.990067
36722500000 -16.615379 47.447865 -1.2269104 -21.48448 -1.2322347 -21.673445 -17.006138 63.854191
36750000000 -16.150763 47.338257 -1.2694112 -22.083475 -1.293875 -22.18186 -17.013462 65.918686
36777500000 -15.442161 47.721016 -1.2862451 -22.721657 -1.2959974 -22.765543 -17.020544 65.36692
36805000000 -16.091028 46.238201 -1.2954388 -23.225904 -1.2986544 -23.194025 -16.896347 63.228668
36832500000 -16.204094 45.051548 -1.2578901 -23.597464 -1.2886897 -23.785124 -16.755413 63.800907
36860000000 -15.325127 46.948288 -1.2899667 -24.12978 -1.258497 -24.329008 -16.777237 60.887703
36887500000 -15.537877 44.261253 -1.2695305 -24.723984 -1.269853 -24.819216 -16.450178 58.741505
36915000000 -15.941428 40.782951 -1.2667372 -25.41898 -1.2872969 -25.329645 -16.643009 62.242695
36942500000 -15.131548 46.279667 -1.3257432 -25.727554 -1.3129219 -26.057875 -16.648624 60.69109
36970000000 -15.153511 43.226654 -1.2961745 -26.407774 -1.2483482 -26.650398 -16.295078 57.880833
36997500000 -15.593281 39.579201 -1.2711023 -26.876072 -1.2872227 -27.049137 -16.516771 60.525585
37025000000 -15.250346 41.934471 -1.3084793 -27.56567 -1.2845764 -27.753521 -16.53381 58.147655
37052500000 -14.948167 44.442032 -1.280421 -27.964197 -1.3083894 -28.229389 -16.235348 57.212086
37080000000 -15.480358 36.828976 -1.2949362 -28.579762 -1.2994728 -28.594517 -16.203358 56.513702
37107500000 -14.999826 39.071133 -1.2964516 -29.122496 -1.2903438 -29.486719 -16.531969 55.955299
37135000000 -14.922902 42.210232 -1.3235416 -29.803921 -1.2897483 -29.709637 -16.093386 55.932014
37162500000 -15.216008 36.990585 -1.2855291 -30.347221 -1.2994301 -30.567966 -15.964391 53.238873
37190000000 -15.27699 36.406395 -1.3035039 -30.892345 -1.3281922 -31.151762 -16.405977 54.556503
37217500000 -14.730538 41.177273 -1.3189241 -31.511072 -1.3339351 -31.454361 -16.076393 54.370365
37245000000 -15.033527 35.921921 -1.3038638 -31.955359 -1.2972039 -31.923004 -15.410132 52.157902
37272500000 -14.712644 32.673248 -1.2971418 -32.539661 -1.3093097 -32.609478 -16.110022 52.30484
37300000000 -14.715688 38.905857 -1.341136 -33.157276 -1.3267645 -33.153614 -15.971664 52.066669
37327500000 -14.578981 35.373459 -1.3076162 -33.382385 -1.334304 -33.73584 -15.472355 51.762897
37355000000 -14.627995 30.709234 -1.2890217 -34.090248 -1.299675 -34.050976 -15.626774 50.20787
37382500000 -14.368065 35.728752 -1.3417945 -34.748859 -1.3742431 -34.82769 -15.899186 51.530495
37410000000 -14.596157 35.035152 -1.2980293 -35.139847 -1.3117614 -35.275326 -15.393551 49.470539
37437500000 -14.385633 29.771542 -1.3379732 -35.93586 -1.2917076 -35.991611 -15.427892 47.801426
37465000000 -14.402566 32.603466 -1.3259346 -36.354534 -1.2964771 -36.627937 -15.765507 48.251419
37492500000 -14.177577 33.662193 -1.3002532 -36.966221 -1.3000758 -36.762413 -15.431686 46.712017
37520000000 -14.2871 28.079809 -1.2902294 -37.442917 -1.3240265 -37.239525 -15.148168 46.857155
37547500000 -14.273119 29.184629 -1.3201314 -38.017262 -1.3130836 -38.378986 -15.635728 45.413288
37575000000 -14.382684 33.996632 -1.2983483 -38.606606 -1.3292176 -38.588451 -15.225488 46.120331
37602500000 -13.954689 27.935274 -1.3074005 -39.094032 -1.3329209 -39.243107 -14.83487 45.968159
37630000000 -13.936769 27.896795 -1.3225734 -39.645702 -1.2972193 -39.599731 -15.249946 43.544998
37657500000 -14.235274 29.645638 -1.31371 -40.176514 -1.3434643 -40.264633 -15.321635 44.542301
37685000000 -13.961526 27.481264 -1.3557748 -40.707512 -1.2921298 -40.67564 -14.625863 44.307613
37712500000 -13.829107 25.088129 -1.3106403 -41.210144 -1.3867964 -41.384872 -14.982943 40.262814
37740000000 -13.910881 27.907141 -1.3407606 -41.876293 -1.3861616 -41.871399 -15.187651 41.336628
37767500000 -13.970977 25.274277 -1.3322911 -42.59116 -1.3695416 -42.62389 -14.718705 41.53064
37795000000 -13.469172 23.159197 -1.3152908 -42.893848 -1.3306581 -43.155769 -14.757619 40.339649
37822500000 -13.770709 24.722557 -1.3595494 -43.509193 -1.3528931 -43.597237 -15.141102 39.270653
37850000000 -14.048909 25.99333 -1.3428009 -44.017845 -1.3590068 -44.093952 -14.713408 40.94519
37877500000 -13.378491 23.128317 -1.353645 -44.55463 -1.3735527 -44.43441 -14.610278 38.726234
37905000000 -13.539474 23.733681 -1.3622444 -45.126995 -1.353634 -45.017078 -14.886262 36.284172
37932500000 -13.84613 24.465876 -1.3523332 -45.799908 -1.344489 -45.738178 -14.839711 38.309174
37960000000 -13.291367 22.367538 -1.3190742 -46.084 -1.3659126 -46.394554 -14.499301 37.115234
37987500000 -13.521862 20.662806 -1.3359116 -46.802467 -1.3682255 -46.731937 -14.755279 33.860508
38015000000 -13.692137 21.741978 -1.3572458 -47.116425 -1.3756368 -47.408028 -14.793802 36.350071
38042500000 -13.335136 20.967852 -1.3398985 -47.649364 -1.3720094 -48.084972 -14.286919 36.900013
38070000000 -12.975249 19.786057 -1.372384 -48.427319 -1.4075177 -48.486156 -14.326449 33.664619
38097500000 -13.581528 19.362776 -1.332523 -48.837597 -1.3846542 -48.957951 -14.685327 34.300625
38125000000 -13.270436 19.576019 -1.3491249 -49.717926 -1.3472741 -49.688866 -14.367109 35.200806
38152500000 -12.856401 17.533398 -1.3471403 -50.043121 -1.3321688 -50.109661 -14.284425 31.227991
38180000000 -13.355824 17.610266 -1.3928275 -50.533237 -1.3621051 -50.713165 -14.597059 31.653131
38207500000 -13.261124 18.893221 -1.3350484 -51.043407 -1.3450559 -51.150402 -14.313766 33.257748
38235000000 -13.042436 17.586817 -1.3598394 -51.825912 -1.3893714 -51.849335 -14.240636 31.019585
38262500000 -13.011538 15.705083 -1.3684314 -52.340687 -1.4188851 -52.529556 -14.310296 30.598759
38290000000 -13.207747 17.043102 -1.3254839 -52.549416 -1.3620442 -53.018135 -14.695177 30.882128
38317500000 -13.03141 14.995913 -1.3495724 -53.528095 -1.4030979 -53.7523 -14.086301 30.221224
38345000000 -12.768805 14.299702 -1.3849006 -53.988419 -1.3820958 -54.005692 -14.143417 28.295187
38372500000 -13.112151 14.533747 -1.4158325 -54.274227 -1.3627063 -54.584927 -14.272218 29.77076
38400000000 -12.736468 14.532123 -1.3640027 -55.050449 -1.3769269 -55.037186 -14.249071 27.883789
38427500000 -12.850508 11.400443 -1.4025344 -55.699337 -1.3904123 -55.917118 -13.876839 24.934
38455000000 -12.774839 11.98481 -1.3813642 -56.0383 -1.4089124 -56.041138 -14.24988 27.157825
38482500000 -12.896811 12.178839 -1.3783253 -56.615795 -1.4024374 -56.643082 -14.137834 27.282583
38510000000 -12.524634 11.134742 -1.4108288 -57.527153 -1.4135679 -57.391644 -13.992762 24.741741
38537500000 -12.805718 10.92046 -1.3873091 -57.813305 -1.4454439 -57.722912 -14.037589 25.769535
38565000000 -12.899639 10.100902 -1.3476218 -58.132778 -1.3389072 -58.42556 -14.146739 25.64855
38592500000 -12.657417 9.8718185 -1.3647438 -58.955688 -1.4141017 -58.972229 -13.899707 23.223419
38620000000 -12.646368 7.2827883 -1.3961885 -59.328636 -1.4183092 -59.394588 -14.149797 22.559923
38647500000 -12.870171 10.199075 -1.3714176 -59.853161 -1.3664734 -59.760578 -14.078167 23.71875
38675000000 -12.462003 7.0307336 -1.3959693 -60.48769 -1.3642515 -60.678513 -13.895907 21.63385
38702500000 -12.545035 8.0379372 -1.4139787 -61.072781 -1.4667153 -60.948914 -13.839281 21.518148
38730000000 -12.697062 6.621799 -1.3656275 -61.365433 -1.3938743 -61.41967 -14.030258 21.541658
38757500000 -12.675398 8.6808395 -1.3834177 -61.893356 -1.369454 -61.976448 -13.775468 19.497179
38785000000 -12.320208 6.3207521 -1.4131285 -62.655334 -1.4457299 -62.912327 -13.591207 20.045418
38812500000 -12.610908 5.0643682 -1.4413847 -63.18737 -1.419543 -63.329208 -13.810425 19.899851
38840000000 -12.615362 6.7445164 -1.3839043 -63.346344 -1.404879 -63.770382 -13.871665 20.648558
38867500000 -12.256734 4.627667 -1.3983361 -64.227104 -1.4247332 -64.448845 -13.592132 19.824699
38895000000 -12.625691 4.349884 -1.4384257 -64.656219 -1.4342319 -64.965729 -13.777778 18.696775
38922500000 -12.464938 3.7578588 -1.4065993 -65.349106 -1.4048983 -65.226166 -13.986081 17.758127
38950000000 -12.292318 5.1023674 -1.4299672 -66.181564 -1.3956038 -66.145607 -13.448792 18.135418
38977500000 -12.390288 2.6587243 -1.41633 -66.368591 -1.4015015 -66.762222 -13.513586 18.512703
39005000000 -12.590926 2.2880211 -1.4046061 -66.700134 -1.3949462 -67.060501 -13.755895 17.771645
39032500000 -12.257029 2.1228518 -1.4043603 -67.985474 -1.4051938 -67.747864 -13.43569 16.142588
39060000000 -12.295142 2.2288954 -1.4140705 -68.4533 -1.4528987 -68.101387 -13.688861 17.280146
39087500000 -12.605799 -1.2943054 -1.4151618 -68.562683 -1.4408826 -68.555939 -13.725728 17.149632
39115000000 -12.314494 1.6371092 -1.3710169 -69.347794 -1.3801931 -69.367615 -13.362687 14.308496
39142500000 -12.074568 1.1391898 -1.4386189 -69.805466 -1.43622 -69.719894 -13.541416 16.265823
39170000000 -12.475285 -2.9629745 -1.4287606 -70.281456 -1.4601983 -70.062431 -13.618248 14.730589
39197500000 -12.266987 -0.2617515 -1.3463908 -70.905533 -1.3987191 -70.692009 -13.502015 11.727604
39225000000 -12.131811 -0.43325347 -1.4411541 -71.75383 -1.4195538 -71.553596 -13.247794 12.052446
39252500000 -12.502121 -4.1738811 -1.4604421 -71.775505 -1.4821591 -71.988098 -13.641513 13.593855
39280000000 -12.365933 -3.8315496 -1.4124877 -72.451981 -1.3933233 -72.336105 -13.448567 10.437392
39307500000 -11.850799 0.38684034 -1.4284222 -72.889778 -1.427832 -73.145844 -13.299313 11.009414
39335000000 -12.101372 -4.4683957 -1.4673243 -73.207787 -1.4739884 -73.354721 -13.389152 11.752899
39362500000 -12.09461 -4.4992528 -1.4540925 -74.063576 -1.457296 -73.696083 -13.473714 11.219705
39390000000 -11.924432 -2.2555101 -1.3879963 -74.662071 -1.4519649 -74.548424 -13.106914 9.3093224
39417500000 -12.162201 -5.5066047 -1.4232703 -75.149864 -1.4915614 -75.176178 -13.271981 10.770219
39445000000 -12.124771 -8.0467339 -1.471431 -75.434395 -1.4243741 -75.837196 -13.442718 9.1475735
39472500000 -12.035654 -2.8683784 -1.3931335 -76.241035 -1.3895015 -76.449409 -13.085638 7.4170732
39500000000 -12.20119 -6.3587022 -1.4190882 -76.686584 -1.4628026 -76.910965 -13.335159 8.7037172
39527500000 -11.81695 -8.6916513 -1.4729522 -77.122696 -1.4518076 -77.260284 -13.422002 8.9032097
39555000000 -12.13326 -7.2292705 -1.4141881 -77.857491 -1.411545 -77.618294 -13.118091 6.6725516
39582500000 -12.136413 -6.2895412 -1.4155399 -78.38501 -1.4196116 -78.648506 -13.092483 5.9924684
39610000000 -11.803107 -9.6767645 -1.4442265 -78.651764 -1.4789369 -79.040817 -13.364284 7.0647902
39637500000 -11.787078 -8.4032192 -1.4540086 -79.226273 -1.4666555 -79.219414 -12.999398 5.4014578
39665000000 -12.186585 -6.3345461 -1.4180239 -79.930443 -1.4043767 -79.892273 -12.866003 4.7117476
39692500000 -11.770666 -12.19028 -1.4319927 -80.214813 -1.4698603 -80.634972 -13.238325 4.0703359
39720000000 -11.851199 -9.1510248 -1.4938824 -80.844101 -1.506444 -81.059914 -13.056617 6.1989689
39747500000 -11.92119 -9.3466578 -1.3704579 -81.255119 -1.4249178 -81.393059 -12.887229 1.9070351
39775000000 -12.056165 -12.519575 -1.5127974 -82.192276 -1.4452131 -82.208435 -13.105872 3.3226476
39802500000 -11.64724 -12.144085 -1.489247 -82.65107 -1.4957778 -82.767212 -13.082162 4.2342014
39830000000 -12.161983 -9.2735796 -1.4396263 -82.900757 -1.4230322 -82.963562 -12.728122 1.4975595
39857500000 -11.743982 -12.954024 -1.4120767 -83.517189 -1.4390689 -83.816185 -13.110025 0.93013251
39885000000 -11.596469 -13.650611 -1.475417 -84.478394 -1.4458996 -84.086044 -13.172875 2.0636907
39912500000 -12.109665 -12.265516 -1.4299281 -84.470078 -1.487968 -84.645737 -12.74411 0.73793948
39940000000 -11.947072 -14.947636 -1.4419168 -85.227798 -1.376343 -85.356956 -12.820578 -1.918394
39967500000 -11.595635 -15.63526 -1.4804097 -85.826195 -1.4812288 -86.046608 -13.119986 0.98325878
39995000000 -11.941897 -14.603735 -1.4463719 -86.058311 -1.4777749 -86.51606 -12.838844 0.16732807
40022500000 -12.105725 -14.635533 -1.4104213 -86.62532 -1.4323422 -87.144714 -12.746254 -2.2045803
40050000000 -11.438239 -17.411692 -1.4377429 -87.268311 -1.4566009 -87.327469 -13.090794 -1.2154741
40077500000 -11.793032 -16.35298 -1.4342999 -87.89624 -1.4536992 -87.869522 -12.750177 -0.18845859
40105000000 -12.175848 -16.512112 -1.378229 -88.23085 -1.4173275 -88.587227 -12.638513 -4.3054886
40132500000 -11.568784 -16.447119 -1.4363952 -89.026306 -1.4408472 -88.911858 -13.061041 -4.5135074
40160000000 -11.705782 -18.500118 -1.4112931 -89.578178 -1.4320664 -89.842072 -13.062948 -2.627888
40187500000 -12.374839 -19.170006 -1.4402665 -89.700722 -1.4265937 -90.124489 -12.717036 -4.8561234
40215000000 -11.577149 -19.167519 -1.4509275 -90.548355 -1.4225739 -90.407066 -12.986324 -6.0215044
40242500000 -11.497625 -18.347069 -1.4380602 -91.110077 -1.4354148 -91.196503 -12.986454 -3.0939896
40270000000 -12.27094 -20.891775 -1.4711874 -91.432121 -1.4105624 -91.716316 -12.564318 -5.1361852
40297500000 -11.905344 -21.98336 -1.4391799 -92.01149 -1.4061735 -92.320053 -12.886765 -8.1388302
40325000000 -11.301997 -20.109322 -1.4479697 -92.80307 -1.4359815 -92.758247 -12.98493 -6.9668469
40352500000 -12.077601 -22.448984 -1.3988529 -93.246399 -1.4199396 -93.338028 -12.752913 -6.651659
40380000000 -12.010799 -22.451914 -1.4420171 -93.601891 -1.4131601 -93.571419 -12.765277 -10.346297
40407500000 -11.56149 -20.683252 -1.403846 -94.076065 -1.4559262 -94.451035 -13.000033 -8.1789742
40435000000 -12.091026 -22.950377 -1.4289509 -94.961296 -1.4248323 -94.98584 -12.850995 -7.2994137
40462500000 -11.973331 -25.991463 -1.4045922 -95.477669 -1.4311022 -95.441116 -12.761548 -10.116953
40490000000 -11.557746 -21.880901 -1.3862361 -95.807846 -1.4323097 -95.963173 -13.142108 -11.409828
40517500000 -11.71343 -25.893343 -1.4091141 -96.670876 -1.4139024 -96.382057 -12.857594 -8.2134514
40545000000 -12.016382 -27.583069 -1.3750858 -97.324631 -1.4300003 -97.182518 -12.747052 -12.301654
40572500000 -11.732888 -24.634678 -1.4197993 -97.501801 -1.4254786 -97.573242 -12.874982 -13.533022
40600000000 -11.88157 -25.550932 -1.4036343 -98.000114 -1.3735758 -98.069946 -13.130256 -10.15616
40627500000 -11.916815 -29.861256 -1.4187121 -98.598457 -1.401646 -98.735054 -12.828418 -13.839653
40655000000 -11.726711 -26.994589 -1.3998626 -99.406578 -1.4024518 -99.488022 -12.765194 -15.128279
40682500000 -11.904722 -25.981573 -1.3859953 -99.573601 -1.4358582 -99.981827 -13.28487 -12.21265
40710000000 -11.883281 -30.809402 -1.3665472 -100.26833 -1.4046201 -100.55761 -12.510551 -13.624842
40737500000 -12.037826 -29.631865 -1.4145864 -100.77126 -1.3757044 -100.91164 -12.773665 -16.045807
40765000000 -11.686209 -26.913687 -1.3823787 -101.33224 -1.3618511 -101.50026 -13.05317 -15.464532
40792500000 -11.966498 -30.787146 -1.401255 -102.00326 -1.3952104 -102.03279 -12.76227 -14.541823
40820000000 -11.891568 -31.867966 -1.3711596 -102.70001 -1.3919418 -102.65672 -12.749326 -17.023188
40847500000 -12.189653 -27.837246 -1.3633971 -102.79355 -1.4532933 -102.91225 -13.154095 -17.782412
40875000000 -11.752388 -31.703648 -1.3880459 -103.67956 -1.3766675 -103.44881 -13.116225 -15.615514
40902500000 -12.226402 -33.805668 -1.3752308 -104.28288 -1.3647027 -104.45602 -12.809228 -19.925966
40930000000 -12.098549 -30.197937 -1.382172 -104.77603 -1.3816845 -104.7328 -12.960093 -19.596525
40957500000 -12.053626 -32.075287 -1.3289634 -104.97253 -1.3235097 -105.41863 -13.246468 -17.360548
40985000000 -11.930575 -35.161545 -1.3275677 -105.49239 -1.3528475 -105.87331 -12.641438 -18.810125
41012500000 -12.366772 -32.427727 -1.3660647 -106.22919 -1.3706627 -106.60345 -13.170575 -21.930307
41040000000 -12.035032 -33.641392 -1.3751291 -106.79264 -1.4064361 -106.73558 -13.266591 -18.810408
41067500000 -11.825463 -35.035439 -1.3553349 -107.35815 -1.3801167 -107.6729 -12.80333 -20.159515
41095000000 -12.324485 -35.583443 -1.3738875 -108.05178 -1.3869898 -108.25064 -13.030797 -23.063204
41122500000 -12.196298 -33.038322 -1.3730718 -108.70351 -1.3779656 -108.54178 -13.395616 -21.56279
41150000000 -11.812711 -37.699589 -1.329965 -109.18673 -1.3775511 -108.9951 -12.880851 -21.001663
41177500000 -12.212565 -37.677578 -1.3575473 -109.86115 -1.3452595 -109.85065 -13.256591 -23.000984
41205000000 -12.327478 -35.472267 -1.379144 -110.04749 -1.3646307 -110.21634 -13.331806 -22.842865
41232500000 -11.810826 -36.644768 -1.3317319 -110.78364 -1.3638705 -110.90106 -13.259641 -21.648094
41260000000 -12.153578 -38.59304 -1.3581601 -111.42853 -1.3932977 -111.24687 -12.821242 -24.429617
41287500000 -12.511742 -38.214535 -1.3524406 -112.17543 -1.3767122 -111.98795 -13.202694 -24.867924
41315000000 -11.878049 -38.003628 -1.3986279 -112.69589 -1.3748336 -112.49473 -13.137761 -23.170061
41342500000 -12.084558 -39.589287 -1.3457201 -112.96028 -1.3516229 -113.14488 -13.121705 -26.582029
41370000000 -12.486428 -38.769878 -1.3848959 -113.71561 -1.3621972 -113.68777 -13.221659 -26.170851
41397500000 -12.246323 -38.741959 -1.3659182 -113.90279 -1.3619149 -114.00343 -13.309137 -24.158705
41425000000 -12.051502 -40.484344 -1.3556807 -114.71677 -1.3769439 -114.98554 -12.99593 -25.729679
41452500000 -12.565835 -41.638004 -1.3090405 -115.40381 -1.3506689 -115.49483 -13.219023 -27.551746
41480000000 -12.351151 -40.467358 -1.369998 -115.8139 -1.3749927 -115.84079 -13.501969 -27.454073
41507500000 -12.069761 -41.934772 -1.3705573 -116.10467 -1.3472843 -116.41317 -13.217029 -27.571247
41535000000 -12.557687 -44.796585 -1.3507434 -116.98822 -1.3518374 -116.77911 -13.150541 -29.556896
41562500000 -12.466938 -42.801796 -1.3700572 -117.62286 -1.4278686 -117.35449 -13.47012 -28.80036
41590000000 -12.286197 -41.385265 -1.3420283 -117.85061 -1.3943228 -117.78215 -13.451828 -28.248581
41617500000 -12.440335 -44.672077 -1.292303 -118.53374 -1.3481245 -118.46339 -13.245139 -31.382206
41645000000 -12.455321 -43.848484 -1.3336821 -118.99948 -1.4004483 -119.46633 -13.545722 -31.874748
41672500000 -12.303729 -42.427082 -1.3444618 -119.19182 -1.3382682 -119.72898 -13.444929 -28.169596
41700000000 -12.303859 -45.403961 -1.3153042 -120.15319 -1.2968773 -120.09886 -13.243159 -31.830238
41727500000 -12.848735 -46.610512 -1.3199382 -120.69247 -1.3453872 -120.99855 -13.837566 -35.014534
41755000000 -12.523243 -43.562836 -1.3310488 -121.43053 -1.373487 -121.5852 -13.653576 -30.601885
41782500000 -12.664556 -47.010109 -1.3285623 -121.68591 -1.3570232 -121.70475 -13.311218 -32.326504
41810000000 -12.839463 -48.556019 -1.335961 -122.83776 -1.2913539 -122.36844 -13.652755 -34.848946
41837500000 -12.8434 -45.23851 -1.3862841 -122.77692 -1.3609335 -123.08829 -14.101496 -33.562813
41865000000 -12.637822 -46.721153 -1.3290179 -123.28152 -1.3104664 -123.25251 -13.37612 -31.542515
41892500000 -12.72249 -50.054207 -1.2792702 -124.00047 -1.3269004 -123.85941 -13.522632 -37.227215
41920000000 -13.09111 -46.706978 -1.2911291 -124.61437 -1.3182799 -124.44122 -14.266642 -34.485016
41947500000 -12.768405 -48.773125 -1.3494347 -124.97694 -1.308111 -125.20203 -13.828685 -33.088264
41975000000 -12.660295 -50.202553 -1.2799219 -125.43132 -1.3105245 -125.26512 -13.594506 -37.089275
42002500000 -12.997147 -49.179844 -1.311838 -126.55122 -1.3003807 -126.43311 -13.963934 -36.696507
42030000000 -13.004252 -48.269218 -1.304587 -126.6341 -1.3453156 -127.05688 -14.138492 -35.156982
42057500000 -12.542548 -52.719425 -1.2707144 -127.13335 -1.3528291 -127.19024 -13.586194 -37.971035
42085000000 -13.089996 -52.669773 -1.2384572 -127.9587 -1.2981986 -128.19589 -14.212441 -39.480804
42112500000 -13.233225 -50.555779 -1.3613181 -128.41284 -1.3127314 -128.50267 -14.237377 -36.582375
42140000000 -12.765901 -51.616856 -1.2765822 -128.92946 -1.3640602 -128.85693 -13.613006 -37.195942
42167500000 -13.182278 -52.027168 -1.3012654 -129.53249 -1.3148766 -129.71446 -14.041364 -41.574127
42195000000 -13.447075 -49.977592 -1.3133576 -129.99834 -1.3156966 -130.56897 -14.495844 -38.78405
42222500000 -13.112113 -50.565811 -1.3153833 -130.63129 -1.3328432 -130.64928 -13.718092 -38.523914
42250000000 -13.089888 -53.714584 -1.2714422 -131.37135 -1.3036877 -131.45807 -13.80549 -43.60743
42277500000 -13.681011 -53.873642 -1.3023772 -131.96703 -1.2776076 -132.14671 -14.707276 -40.837479
42305000000 -13.355872 -53.936443 -1.2907919 -132.55302 -1.3848988 -132.53183 -13.909334 -38.463261
42332500000 -13.202271 -54.274776 -1.3257782 -132.85046 -1.241953 -133.00864 -13.667409 -43.13348
42360000000 -13.931551 -54.465214 -1.3090053 -133.63603 -1.315698 -133.7128 -14.802224 -44.308048
42387500000 -13.592693 -56.449696 -1.3029692 -134.07964 -1.2823334 -134.3907 -14.410903 -40.285267
42415000000 -13.241293 -56.993584 -1.2998582 -134.65334 -1.3044727 -134.88846 -13.970362 -43.976257
42442500000 -14.304942 -56.705574 -1.2735463 -135.06514 -1.2950945 -135.08252 -14.733534 -44.361984
42470000000 -13.93368 -56.47559 -1.3094475 -135.83714 -1.3020583 -135.85594 -14.655811 -42.569096
42497500000 -13.578438 -56.592831 -1.2788966 -135.97095 -1.3123244 -136.28873 -14.083866 -43.179455
42525000000 -14.085635 -59.365505 -1.2630543 -137.19243 -1.2139112 -137.07965 -15.072523 -48.42223
42552500000 -14.42223 -56.55513 -1.2568586 -137.4957 -1.2966285 -137.58192 -15.237536 -43.857124
42580000000 -13.772735 -57.512093 -1.2979598 -137.58476 -1.2817638 -138.38643 -14.457101 -42.208614
42607500000 -14.044163 -58.7444 -1.3058033 -138.67825 -1.2052665 -138.44942 -14.487072 -48.10445
42635000000 -14.494343 -61.377029 -1.1607378 -139.24768 -1.2785988 -139.2536 -15.326112 -47.518333
42662500000 -14.236274 -55.998283 -1.2496835 -139.88159 -1.3114749 -140.01295 -14.504946 -43.666512
42690000000 -14.092219 -59.516418 -1.2780603 -140.28436 -1.2658274 -140.69432 -14.577698 -47.275414
42717500000 -14.58117 -63.126617 -1.2035899 -140.98686 -1.257988 -140.67134 -15.39064 -51.024647
42745000000 -14.280626 -58.293499 -1.24703 -141.07224 -1.3200009 -141.37038 -14.960464 -44.288151
42772500000 -14.466111 -58.754704 -1.2190459 -141.73592 -1.222949 -141.66895 -14.639508 -50.171543
42800000000 -14.761379 -64.376724 -1.2220116 -142.08591 -1.291983 -142.71284 -15.871896 -52.532677
42827500000 -14.885866 -60.624302 -1.2670616 -143.31871 -1.218323 -143.05113 -15.194706 -46.51141
42855000000 -14.731727 -59.246891 -1.2359647 -143.34314 -1.2865491 -143.93762 -14.7787 -49.651779
42882500000 -15.099843 -65.551575 -1.2511287 -144.41252 -1.2247628 -144.38107 -15.295323 -53.718224
42910000000 -15.111493 -63.174728 -1.2438014 -144.76945 -1.2029002 -144.86192 -15.680426 -51.378834
42937500000 -14.736853 -58.714157 -1.2422632 -145.19972 -1.2001439 -145.13727 -15.642899 -48.001759
42965000000 -15.094773 -65.047188 -1.2439003 -145.69756 -1.2471842 -145.9005 -15.470173 -54.892418
42992500000 -15.370818 -65.701172 -1.2757022 -146.07695 -1.3210714 -146.72809 -15.945166 -54.342876
43020000000 -15.236794 -60.051701 -1.2663378 -147.27811 -1.2481091 -147.29076 -15.800736 -48.917515
43047500000 -15.241423 -63.040272 -1.2492486 -147.90001 -1.2282215 -147.38371 -15.44764 -54.534279
43075000000 -15.464491 -67.674423 -1.2108784 -148.28067 -1.2863444 -148.49318 -16.433365 -59.057682
43102500000 -15.709701 -60.882969 -1.2752608 -148.76469 -1.2243321 -148.7757 -15.793049 -51.753521
43130000000 -15.812531 -63.133087 -1.2565147 -149.65666 -1.2529376 -149.20784 -15.858329 -54.911724
43157500000 -15.608737 -70.226753 -1.1755089 -149.96542 -1.2646198 -149.37013 -16.268051 -58.104549
43185000000 -15.840443 -64.2686 -1.2452176 -150.2346 -1.192927 -150.34407 -16.767527 -52.343605
43212500000 -16.250639 -62.506176 -1.2345744 -150.8867 -1.1679488 -151.19609 -16.358107 -54.295719
43240000000 -15.777164 -72.772194 -1.2389048 -151.86838 -1.2320738 -151.95357 -16.60236 -59.785145
43267500000 -16.388975 -65.666672 -1.2207856 -151.91995 -1.2175367 -152.4473 -16.867792 -56.704643
43295000000 -16.704639 -61.47578 -1.205633 -152.75369 -1.203413 -153.07539 -16.15423 -53.41573
43322500000 -16.578501 -68.648262 -1.2208726 -152.88766 -1.1986239 -153.58163 -16.993364 -58.454254
43350000000 -16.211529 -69.483429 -1.2926404 -153.8141 -1.2269688 -154.09697 -16.80492 -58.942539
43377500000 -17.15637 -62.28389 -1.2222602 -154.05954 -1.1893468 -155.04091 -16.602535 -53.938591
43405000000 -16.458372 -68.763084 -1.2396176 -155.41243 -1.2203516 -154.72052 -16.768019 -58.389683
43432500000 -16.444235 -69.509537 -1.1842138 -155.42322 -1.1992432 -155.43079 -17.184992 -60.593025
43460000000 -17.29879 -66.055138 -1.2421874 -155.81247 -1.162455 -156.04715 -16.9949 -52.952942
43487500000 -17.180851 -63.818691 -1.1873541 -157.31371 -1.1789724 -156.90933 -16.677685 -59.878788
43515000000 -16.683416 -71.993584 -1.2229761 -156.92261 -1.2439402 -157.14091 -17.62409 -63.060658
43542500000 -17.886703 -64.165962 -1.1677195 -157.92583 -1.1981518 -157.65483 -17.565166 -54.879272
43570000000 -17.526276 -67.155708 -1.230301 -159.14362 -1.2266144 -158.64012 -17.18815 -61.307156
43597500000 -16.575909 -69.729622 -1.1813154 -158.65291 -1.2037668 -159.24594 -18.043871 -63.715454
43625000000 -17.806108 -66.237915 -1.1931576 -159.46732 -1.2237381 -159.50395 -17.401352 -56.971447
43652500000 -18.523335 -68.101563 -1.2135479 -159.9129 -1.2366174 -160.02284 -17.550304 -61.946735
43680000000 -17.19474 -70.144241 -1.1811806 -160.56117 -1.2524229 -160.79303 -18.5252 -65.8619
43707500000 -18.13862 -68.57486 -1.1349281 -160.90575 -1.2103307 -161.30661 -18.258516 -61.159195
43735000000 -18.696516 -66.350929 -1.2243509 -161.55081 -1.2075644 -161.54396 -18.124027 -59.145763
43762500000 -17.393236 -69.826965 -1.2383161 -162.24663 -1.1898493 -162.05075 -18.632423 -66.580902
43790000000 -17.56271 -73.101303 -1.2093601 -162.58096 -1.2481064 -163.38199 -18.904781 -60.043587
43817500000 -20.163845 -67.76033 -1.2311096 -163.61868 -1.2106588 -163.32697 -18.464827 -60.819454
43845000000 -18.062895 -71.200027 -1.1835399 -164.05029 -1.1966857 -164.16022 -18.802258 -66.084641
43872500000 -18.482924 -68.906059 -1.2002324 -165.04619 -1.1721575 -164.58888 -19.952641 -62.18642
43900000000 -19.789211 -70.716782 -1.1524695 -165.26773 -1.1892848 -165.07561 -18.988564 -60.576027
43927500000 -18.975958 -69.060547 -1.1424073 -165.86765 -1.2085856 -165.59918 -19.223383 -70.170868
43955000000 -18.365072 -69.769432 -1.173918 -166.56354 -1.1511955 -166.27487 -20.277971 -66.851173
43982500000 -20.138723 -70.296234 -1.1700474 -166.78514 -1.2363046 -167.12222 -19.509745 -57.516415
44010000000 -20.418425 -68.661018 -1.1534586 -166.99049 -1.201471 -167.56627 -19.297707 -62.168846
44037500000 -18.40209 -65.984863 -1.1997802 -168.32198 -1.1910307 -168.50504 -21.033611 -66.682144
44065000000 -20.570297 -67.16243 -1.24841 -168.63342 -1.2260486 -168.62477 -20.32272 -55.693893
44092500000 -20.750689 -70.280655 -1.2258364 -168.87062 -1.199802 -169.40407 -20.478014 -65.73613
44120000000 -19.478567 -65.269157 -1.1733927 -169.90909 -1.1657503 -169.85921 -20.529396 -68.072678
44147500000 -19.862499 -67.152527 -1.240986 -170.14622 -1.1430101 -170.757 -20.963682 -58.245407
44175000000 -21.37269 -64.824547 -1.1720111 -170.86934 -1.1781896 -171.24313 -19.744711 -60.610661
44202500000 -20.596588 -66.641129 -1.1865342 -171.37958 -1.2439096 -171.59512 -20.928068 -66.549896
44230000000 -20.46825 -64.500313 -1.1807913 -171.97476 -1.1810939 -172.08086 -21.252281 -62.631653
44257500000 -22.579029 -71.001625 -1.1854546 -172.89841 -1.2133952 -172.83698 -20.255468 -55.268761
44285000000 -21.278976 -66.61512 -1.1989698 -173.37201 -1.1971052 -173.49571 -21.545176 -69.905029
44312500000 -20.377953 -63.785599 -1.1629306 -173.95097 -1.1739448 -174.16138 -22.724846 -66.268761
44340000000 -21.877069 -67.482895 -1.2168467 -174.25035 -1.2076998 -174.83388 -22.349062 -53.691341
44367500000 -22.677107 -65.472679 -1.2017307 -174.96788 -1.1593984 -175.20293 -21.324753 -71.766739
44395000000 -21.410803 -60.126148 -1.1858063 -175.32039 -1.1556925 -175.75914 -22.443472 -66.142639
44422500000 -22.387285 -67.320496 -1.1651846 -176.49045 -1.2013505 -175.88538 -22.416246 -49.356243
44450000000 -23.079895 -58.494949 -1.1771426 -176.46486 -1.1377441 -177.19679 -21.696205 -61.352741
44477500000 -22.348204 -60.373177 -1.16076 -177.25482 -1.1938112 -177.2103 -24.431751 -78.413338
44505000000 -23.237448 -55.537498 -1.1587464 -177.88449 -1.1495482 -177.94781 -23.622662 -50.22168
44532500000 -24.657898 -64.046997 -1.1921986 -178.15277 -1.2609562 -178.52382 -22.101133 -58.021732
44560000000 -22.56374 -55.574417 -1.1945772 -179.10744 -1.1860603 -179.25064 -24.108488 -75.401878
44587500000 -22.399754 -56.510189 -1.1371803 179.951 -1.1438899 -179.75977 -26.158005 -37.408447
44615000000 -25.909599 -55.041691 -1.1830888 -179.78 -1.2341002 179.74103 -22.62583 -53.777367
44642500000 -24.119854 -53.182781 -1.0935732 179.2132 -1.1904999 178.79649 -23.934477 -69.101601
44670000000 -23.224052 -49.118118 -1.1597362 178.7197 -1.1315308 178.7178 -26.842186 -52.512241
44697500000 -26.278496 -49.117378 -1.1808004 177.83253 -1.1937538 177.84532 -24.409214 -43.003872
44725000000 -25.103374 -47.180969 -1.1308933 177.44771 -1.2103944 177.42175 -23.761883 -72.714653
44752500000 -23.066326 -38.097027 -1.1863056 176.94891 -1.1110225 176.91393 -28.252514 -61.26569
44780000000 -25.061354 -57.842388 -1.1914946 176.59291 -1.2080567 175.94258 -25.433538 -35.122692
44807500000 -25.436903 -44.175018 -1.2429872 175.61751 -1.2262964 175.6358 -24.286667 -61.28233
44835000000 -23.483509 -35.0947 -1.1857349 174.80688 -1.1779007 175.12978 -27.853161 -57.530472
44862500000 -25.045441 -44.150646 -1.2349962 174.1515 -1.1594319 174.32326 -26.936333 -24.816488
44890000000 -25.792904 -39.523022 -1.1915021 173.7851 -1.2522986 174.03085 -25.440004 -54.306774
44917500000 -24.467876 -25.590542 -1.1910836 173.67351 -1.1790606 173.58414 -27.546997 -62.217026
44945000000 -24.825432 -36.911591 -1.2129897 172.80777 -1.2012143 172.78963 -28.094624 -21.370275
44972500000 -26.932993 -36.160568 -1.2044356 172.04335 -1.2485801 172.04204 -25.23781 -31.110119
45000000000 -24.417753 -23.479815 -1.2479335 171.34633 -1.2176172 171.84811 -28.106131 -55.84272
