!Keysight Technologies,N5247B,MY61255062,A.19.80.06
!Date: Monday, May 18, 2026 12:38:04
!Correction: S11(Cdelta 2-Port  ) 
!S21(Cdelta 2-Port  ) 
!S12(Cdelta 2-Port  ) 
!S22(Cdelta 2-Port  ) 
!S2P File: Measurements: S11, S21, S12, S22:
# Hz S  dB   R 50
1000000000 -26.568218 -12.185518 -0.4016712 -20.816883 -0.39965314 -20.814922 -27.314411 -12.88182
1100000000 -26.471809 -14.605811 -0.4130401 -22.837194 -0.41077033 -22.827887 -27.422165 -14.469855
1200000000 -26.336843 -16.142735 -0.42127055 -24.831051 -0.41805038 -24.812408 -27.406694 -15.050317
1300000000 -26.214231 -18.271143 -0.42892137 -26.865578 -0.42591083 -26.854649 -27.338913 -17.264421
1400000000 -26.048954 -19.845961 -0.4320561 -28.833685 -0.42856652 -28.823067 -27.28516 -17.903238
1500000000 -25.960125 -22.439873 -0.43570191 -30.853649 -0.43170014 -30.84507 -27.166924 -19.872337
1600000000 -25.815413 -24.246546 -0.43880001 -32.87711 -0.43532962 -32.869614 -27.110138 -22.60623
1700000000 -25.665304 -26.680876 -0.44201756 -34.884048 -0.43677521 -34.878021 -27.071674 -24.312273
1800000000 -25.511652 -28.817938 -0.44356915 -36.919453 -0.44056162 -36.908009 -27.028074 -26.497681
1900000000 -25.388582 -31.285654 -0.44477832 -38.935493 -0.4427149 -38.93745 -26.991041 -28.931839
2000000000 -25.324713 -33.782471 -0.45129618 -40.978127 -0.44729179 -40.981247 -27.043228 -31.485571
2100000000 -25.175051 -36.274216 -0.45561734 -42.994999 -0.45197403 -42.985374 -27.095325 -33.156342
2200000000 -25.154655 -38.64534 -0.45803925 -45.023338 -0.45764491 -45.017799 -27.098394 -35.695229
2300000000 -25.047522 -41.068253 -0.46183047 -47.039963 -0.46141475 -47.053383 -27.11862 -37.934277
2400000000 -25.001457 -43.344589 -0.46845701 -49.057545 -0.46770853 -49.057503 -27.223158 -40.373013
2500000000 -24.917116 -45.410961 -0.47320747 -51.100155 -0.47046176 -51.090057 -27.234722 -42.983849
2600000000 -24.891354 -47.920551 -0.48022813 -53.12252 -0.47650549 -53.102222 -27.350204 -45.126465
2700000000 -24.862902 -50.352703 -0.48713186 -55.131268 -0.48422655 -55.12038 -27.58007 -47.788609
2800000000 -24.883823 -52.913555 -0.48883149 -57.125454 -0.48732531 -57.141987 -27.641514 -50.327885
2900000000 -24.862436 -54.922165 -0.49515706 -59.148899 -0.49293327 -59.141544 -27.735413 -52.608654
3000000000 -24.813984 -57.110523 -0.4989866 -61.136913 -0.49691468 -61.140854 -27.958195 -54.395321
3100000000 -24.845863 -59.401562 -0.50280416 -63.150578 -0.5004251 -63.153496 -28.139751 -56.31591
3200000000 -24.706242 -61.638573 -0.50698572 -65.162834 -0.50300002 -65.157654 -28.3076 -58.026966
3300000000 -24.708977 -64.10199 -0.509121 -67.174644 -0.5052188 -67.156586 -28.421406 -60.681068
3400000000 -24.723764 -66.429482 -0.51384276 -69.183372 -0.51009148 -69.178223 -28.650135 -63.065037
3500000000 -24.708523 -68.972313 -0.51840454 -71.18911 -0.51517248 -71.168152 -28.743647 -64.438095
3600000000 -24.622984 -70.804718 -0.51937157 -73.169594 -0.51645684 -73.174767 -28.932726 -66.282761
3700000000 -24.648825 -73.211456 -0.52267593 -75.190826 -0.51880938 -75.184402 -28.97127 -68.323227
3800000000 -24.617229 -74.952164 -0.52372891 -77.195442 -0.51982147 -77.19194 -29.153503 -70.312904
3900000000 -24.580456 -77.379761 -0.52606696 -79.21431 -0.52144051 -79.216484 -29.312691 -72.702179
4000000000 -24.580872 -79.245605 -0.52889723 -81.234032 -0.52628642 -81.226883 -29.599369 -74.567627
4100000000 -24.528376 -81.523544 -0.53233027 -83.264427 -0.53135717 -83.239868 -29.890427 -76.809158
4200000000 -24.605711 -83.535233 -0.53786719 -85.255081 -0.53490341 -85.249626 -30.100908 -78.266174
4300000000 -24.57004 -85.744904 -0.53879076 -87.244713 -0.53644818 -87.242119 -30.277264 -80.995247
4400000000 -24.664499 -87.723892 -0.54212523 -89.261276 -0.54004759 -89.245415 -30.574221 -82.166451
4500000000 -24.662556 -89.740753 -0.54316884 -91.256424 -0.54075176 -91.254089 -30.695305 -84.58683
4600000000 -24.735191 -91.832565 -0.54635191 -93.285423 -0.54447263 -93.263504 -31.102686 -86.311234
4700000000 -24.748638 -94.236862 -0.54749399 -95.284119 -0.5455817 -95.288399 -31.221819 -88.28035
4800000000 -24.825972 -96.683212 -0.55147433 -97.292313 -0.54935491 -97.29641 -31.649265 -89.875153
4900000000 -24.842875 -98.220673 -0.55429208 -99.300652 -0.55243939 -99.309883 -31.817192 -92.228439
5000000000 -24.909544 -100.40296 -0.55751806 -101.30892 -0.55284977 -101.30988 -32.240025 -93.564369
5100000000 -24.956137 -101.75249 -0.558833 -103.3347 -0.55798841 -103.32063 -32.55479 -94.226784
5200000000 -25.027531 -104.11172 -0.56388855 -105.34444 -0.5606057 -105.33279 -33.13324 -96.678169
5300000000 -25.091047 -105.84827 -0.56497276 -107.34826 -0.56387824 -107.34288 -33.500668 -99.372215
5400000000 -25.230587 -108.56349 -0.56806272 -109.35598 -0.56430417 -109.34763 -33.918819 -102.45271
5500000000 -25.288601 -110.42277 -0.57206613 -111.33953 -0.56975299 -111.34367 -34.10854 -104.3391
5600000000 -25.385265 -112.85636 -0.57662183 -113.36034 -0.5711726 -113.34573 -34.386021 -106.06886
5700000000 -25.491917 -114.29016 -0.58025557 -115.35629 -0.57484168 -115.36205 -34.639503 -104.61918
5800000000 -25.506382 -116.41547 -0.58047068 -117.35686 -0.57850349 -117.352 -35.435982 -105.91695
5900000000 -25.745581 -118.40281 -0.58310652 -119.35436 -0.58039641 -119.36537 -36.166496 -106.87703
6000000000 -25.744152 -120.52882 -0.58552927 -121.34703 -0.57944643 -121.34472 -37.136303 -112.17875
6100000000 -26.046064 -122.57769 -0.58561218 -123.33281 -0.58134681 -123.33886 -37.838982 -116.23303
6200000000 -26.155508 -124.47768 -0.58512521 -125.3452 -0.58202875 -125.35162 -38.287022 -119.58206
6300000000 -26.468014 -126.35368 -0.58505887 -127.36475 -0.57951123 -127.35283 -38.77449 -113.22116
6400000000 -26.680813 -127.82714 -0.5863167 -129.35036 -0.58324003 -129.33958 -39.227547 -115.04938
6500000000 -26.9147 -130.55055 -0.58582103 -131.39339 -0.57916039 -131.37704 -41.296776 -108.84975
6600000000 -27.087118 -131.52362 -0.5872035 -133.38124 -0.58497298 -133.38412 -43.031075 -106.89045
6700000000 -27.319628 -133.74535 -0.59032238 -135.41951 -0.58740532 -135.40807 -44.244553 -105.21849
6800000000 -27.453979 -133.41817 -0.59153306 -137.43553 -0.58788186 -137.42857 -44.556801 -105.62614
6900000000 -27.614878 -135.12473 -0.59164017 -139.4675 -0.59042054 -139.45743 -44.317074 -93.346855
7000000000 -27.835344 -135.74336 -0.60299462 -141.43991 -0.59877247 -141.42612 -43.787971 -94.053711
7100000000 -28.187071 -138.31625 -0.59745222 -143.44891 -0.59422261 -143.42908 -45.865433 -71.044701
7200000000 -28.635761 -138.58643 -0.59931535 -145.4415 -0.59496468 -145.43285 -45.786182 -61.575268
7300000000 -28.760532 -140.1967 -0.59815568 -147.48639 -0.5959391 -147.47058 -46.648014 -51.55452
7400000000 -29.186352 -141.37805 -0.60207123 -149.50473 -0.59828937 -149.50526 -46.185539 -58.210876
7500000000 -29.337624 -142.01726 -0.60194933 -151.50285 -0.60006964 -151.50623 -44.077808 -48.104546
7600000000 -29.834124 -142.43794 -0.60692585 -153.53485 -0.60155177 -153.54086 -42.60685 -47.875858
7700000000 -30.113037 -142.88947 -0.60693389 -155.5314 -0.60277694 -155.5183 -41.14941 -37.419273
7800000000 -30.440859 -144.48329 -0.60776722 -157.54698 -0.60520381 -157.55124 -41.023491 -30.471268
7900000000 -30.599018 -144.44118 -0.61046559 -159.578 -0.60799736 -159.5699 -41.271374 -24.215429
8000000000 -31.0767 -145.94714 -0.61279958 -161.59294 -0.61112314 -161.58466 -41.441795 -34.382439
8100000000 -31.561035 -145.07285 -0.61522281 -163.61902 -0.6144194 -163.60765 -39.909023 -39.688
8200000000 -31.932169 -144.84572 -0.6189481 -165.63959 -0.61808014 -165.6436 -37.908611 -44.519764
8300000000 -32.386204 -145.0219 -0.62078583 -167.66841 -0.6198715 -167.66331 -36.442551 -31.469147
8400000000 -32.890995 -148.47362 -0.63000888 -169.72975 -0.62815768 -169.72375 -36.364155 -17.502966
8500000000 -33.66494 -146.6488 -0.65154356 -171.80547 -0.64605635 -171.81602 -39.209816 19.399801
8600000000 -33.033855 -145.0127 -0.72164422 -173.75688 -0.71635807 -173.7336 -36.63699 96.936554
8700000000 -33.788139 -174.1546 -0.71006137 -174.5526 -0.70754898 -174.55383 -27.249535 92.046272
8800000000 -37.986073 -133.31577 -0.54360241 -177.15913 -0.54346889 -177.16223 -30.537663 62.858116
8900000000 -35.166924 -135.61765 -0.58738047 -179.66125 -0.58326375 -179.64612 -40.44315 44.798325
9000000000 -35.287571 -140.22731 -0.61360866 178.29221 -0.61554015 178.28346 -43.606899 -74.486183
9100000000 -36.368507 -134.85387 -0.63141239 176.29703 -0.6302408 176.29272 -36.36718 -70.843346
9200000000 -36.186249 -129.89633 -0.63645154 174.29909 -0.63596213 174.2924 -33.649509 -63.92635
9300000000 -36.753098 -123.70791 -0.64324605 172.28928 -0.63924253 172.30634 -33.187286 -51.87212
9400000000 -36.272533 -121.51773 -0.6467554 170.30945 -0.64602154 170.30528 -33.489944 -49.591465
9500000000 -36.840755 -118.47996 -0.64708018 168.31793 -0.64834857 168.31349 -34.402676 -47.332649
9600000000 -36.366749 -110.39689 -0.65308821 166.30586 -0.65112281 166.30412 -34.572021 -57.276619
9700000000 -36.808464 -106.42413 -0.65394759 164.3047 -0.6534574 164.30116 -34.240585 -62.976067
9800000000 -35.926838 -100.89984 -0.65731025 162.27913 -0.65418142 162.29964 -33.213257 -65.739105
9900000000 -36.065292 -100.80028 -0.65734094 160.28374 -0.65349954 160.29593 -33.054688 -62.834305
10000000000 -35.43475 -95.449585 -0.66200662 158.27441 -0.65771925 158.28577 -32.742462 -64.042717
10100000000 -35.106079 -94.710098 -0.66511697 156.27554 -0.66324228 156.26282 -33.578968 -64.162811
10200000000 -34.352497 -87.645721 -0.66538095 154.25284 -0.66290456 154.27104 -33.569832 -71.060921
10300000000 -33.876537 -87.875229 -0.66980457 152.23141 -0.67096031 152.2635 -33.397121 -77.250237
10400000000 -33.347336 -85.432602 -0.67319345 150.23714 -0.67391956 150.24812 -32.270332 -81.19751
10500000000 -32.73679 -89.303719 -0.67606586 148.2216 -0.6740284 148.24312 -31.966702 -80.481628
10600000000 -32.267918 -87.476624 -0.67982256 146.20956 -0.67453933 146.24832 -31.45713 -78.977684
10700000000 -31.599363 -87.11792 -0.68546873 144.23019 -0.67896897 144.21454 -31.963068 -79.502029
10800000000 -31.173161 -84.802727 -0.68628269 142.23192 -0.68276089 142.24121 -32.06115 -79.937164
10900000000 -30.560446 -84.609894 -0.68771785 140.24709 -0.68835747 140.23956 -32.694096 -85.50087
11000000000 -30.362034 -84.922646 -0.69129795 138.23491 -0.68881702 138.23384 -32.301189 -90.673157
11100000000 -29.843336 -87.466003 -0.69718909 136.23541 -0.69482028 136.2487 -32.157898 -96.125198
11200000000 -29.623613 -89.210808 -0.69781101 134.21999 -0.69812232 134.23015 -31.424425 -96.757645
11300000000 -28.989426 -89.403229 -0.70236337 132.23466 -0.69897783 132.25011 -31.412786 -100.50259
11400000000 -28.603815 -90.390205 -0.70336342 130.23334 -0.70035851 130.24271 -30.893988 -99.722717
11500000000 -28.077911 -91.309464 -0.70617121 128.23488 -0.70744872 128.25801 -30.863968 -102.98228
11600000000 -27.847689 -93.54113 -0.7093569 126.24889 -0.70314032 126.25875 -30.860376 -104.39291
11700000000 -27.520025 -94.080673 -0.71206492 124.2568 -0.71171361 124.25391 -31.047388 -108.98484
11800000000 -27.33577 -97.308792 -0.71293968 122.25943 -0.71305346 122.27555 -30.89258 -111.61794
11900000000 -26.99931 -98.126984 -0.71837986 120.27555 -0.71538007 120.28374 -30.80319 -117.84383
12000000000 -26.733948 -101.24338 -0.72046697 118.28805 -0.71879888 118.28553 -30.570272 -117.80187
12100000000 -26.423986 -101.96115 -0.72210974 116.30147 -0.72098005 116.31569 -30.183971 -124.69784
12200000000 -26.089745 -105.33054 -0.72608364 114.31152 -0.72043705 114.34293 -29.811871 -126.08482
12300000000 -25.97673 -106.3376 -0.72415829 112.34888 -0.7226606 112.35324 -29.614277 -128.51215
12400000000 -25.684111 -109.31532 -0.72383994 110.35706 -0.72330117 110.35308 -29.640944 -131.39412
12500000000 -25.786516 -110.6657 -0.72531754 108.37482 -0.72063076 108.36834 -29.617962 -136.01688
12600000000 -25.382341 -113.97121 -0.71964782 106.39463 -0.71764445 106.40515 -29.640179 -139.05141
12700000000 -25.473749 -115.62243 -0.71760809 104.40006 -0.71739829 104.41766 -29.375401 -143.7775
12800000000 -25.072786 -118.23425 -0.71708322 102.38396 -0.71295404 102.40488 -29.401154 -146.38737
12900000000 -25.109221 -120.27355 -0.71107537 100.3601 -0.71156663 100.38409 -29.090012 -151.91115
13000000000 -24.848825 -121.38476 -0.71130133 98.372719 -0.70856607 98.369331 -29.121355 -153.44342
13100000000 -25.014652 -124.80738 -0.71072108 96.341576 -0.7093426 96.339249 -28.862421 -157.48596
13200000000 -24.843498 -125.4049 -0.70821351 94.354355 -0.70730889 94.35746 -29.139107 -159.30518
13300000000 -24.792641 -129.56532 -0.70718676 92.295921 -0.70578384 92.289703 -28.923746 -162.47722
13400000000 -24.697481 -129.42348 -0.70671523 90.28257 -0.70387173 90.294647 -29.357883 -166.08813
13500000000 -24.595812 -132.68176 -0.70800054 88.266418 -0.70838809 88.280807 -29.139454 -170.43799
13600000000 -24.612116 -133.31448 -0.70874953 86.22686 -0.70674777 86.233711 -29.430719 -174.37914
13700000000 -24.489948 -136.25273 -0.71327889 84.172089 -0.713202 84.184845 -29.010056 -177.68068
13800000000 -24.566141 -136.88828 -0.72129393 82.136055 -0.71851575 82.126961 -29.175436 -179.81126
13900000000 -24.080812 -139.46799 -0.73961306 80.141945 -0.73996389 80.138702 -28.605488 -178.74292
14000000000 -24.140755 -143.61246 -0.73582733 78.276634 -0.7348845 78.28746 -28.49814 176.18523
14100000000 -23.994436 -147.0636 -0.7268272 76.265869 -0.72543043 76.273102 -28.163229 172.29012
14200000000 -24.241219 -149.57724 -0.72148556 74.243698 -0.72202629 74.250923 -28.423834 166.27325
14300000000 -24.052591 -150.8912 -0.72176492 72.19854 -0.71907592 72.212296 -28.086695 163.85974
14400000000 -24.299818 -154.5592 -0.72394514 70.168259 -0.72139847 70.172981 -28.160936 159.46715
14500000000 -24.18825 -155.45319 -0.7263431 68.128281 -0.72435772 68.138924 -28.046366 158.39015
14600000000 -24.412546 -158.7179 -0.73157519 66.085098 -0.73074937 66.096504 -28.094515 154.11467
14700000000 -24.061823 -159.35991 -0.74835867 64.124207 -0.74695408 64.109695 -27.898582 153.95265
14800000000 -23.960365 -164.67229 -0.74184495 62.155796 -0.74147648 62.167919 -27.50511 147.41129
14900000000 -23.937237 -165.73116 -0.74215329 60.144897 -0.74110192 60.122631 -27.216213 145.08954
15000000000 -23.940493 -169.27357 -0.74242783 58.118618 -0.74214834 58.141918 -27.120985 143.79131
15100000000 -24.251322 -170.76372 -0.74437726 56.116699 -0.74299788 56.116386 -27.092985 144.27893
15200000000 -24.078182 -174.6976 -0.75120986 54.104572 -0.74612558 54.115509 -27.178976 141.63266
15300000000 -24.339937 -176.88693 -0.74681479 52.093147 -0.74294168 52.100586 -27.269039 137.25119
15400000000 -23.935673 -179.50284 -0.74924999 50.060436 -0.74885201 50.079845 -27.037565 131.34079
15500000000 -24.19351 178.89572 -0.75370544 48.055836 -0.75150377 48.069744 -26.707022 129.49751
15600000000 -23.860945 176.43759 -0.75503123 46.033821 -0.7571373 46.048534 -26.23362 126.8094
15700000000 -24.282442 173.19254 -0.76243722 44.038197 -0.75790656 44.043495 -26.206074 127.3815
15800000000 -24.164051 169.83817 -0.76071811 42.023605 -0.76226848 42.052895 -26.313963 126.48592
15900000000 -24.383179 165.0654 -0.76368392 40.021179 -0.76523411 40.035519 -26.53315 124.43612
16000000000 -23.990398 163.81876 -0.76951283 38.028667 -0.76804078 38.021042 -26.399187 119.83688
16100000000 -24.097223 159.3002 -0.77442253 36.040455 -0.77358264 36.015835 -26.346302 115.87077
16200000000 -24.033266 158.95152 -0.77639812 33.997826 -0.77507108 34.018814 -25.804228 111.78423
16300000000 -24.224758 153.57759 -0.78110027 32.024963 -0.77818203 32.036369 -25.707376 112.08785
16400000000 -24.466164 151.52821 -0.78206563 30.029972 -0.78536832 30.053276 -25.336403 109.75189
16500000000 -24.183964 144.92595 -0.78543657 28.023844 -0.78603899 28.037159 -25.528883 109.52914
16600000000 -24.374825 142.45111 -0.78877193 26.043221 -0.78950799 26.034121 -25.420778 104.89168
16700000000 -23.883921 139.23369 -0.7953431 24.011351 -0.79248637 24.020628 -25.507587 102.87685
16800000000 -24.200409 137.03871 -0.79699421 22.051407 -0.79704303 22.063887 -24.949093 99.05191
16900000000 -23.95446 134.32016 -0.80145037 20.043657 -0.80064315 20.044943 -25.043268 97.275574
17000000000 -24.53392 128.89005 -0.80441701 18.051165 -0.8040843 18.051878 -24.531818 96.656082
17100000000 -24.261208 125.67573 -0.80610245 16.068281 -0.80514109 16.072998 -24.729595 94.818222
17200000000 -24.186222 118.72574 -0.80732614 14.088484 -0.80523175 14.07142 -24.418291 94.262199
17300000000 -23.929674 119.19012 -0.80876106 12.08814 -0.80751413 12.097626 -24.689846 90.185844
17400000000 -23.815125 115.502 -0.81197673 10.056538 -0.81211251 10.069747 -24.249208 87.823242
17500000000 -23.892511 115.70139 -0.8110559 8.0800533 -0.81369787 8.0912466 -24.100914 84.426468
17600000000 -24.048731 109.3588 -0.81537753 6.0918975 -0.81658918 6.1224623 -23.71888 85.090675
17700000000 -24.293835 106.25409 -0.82413667 4.1133628 -0.81816155 4.1179237 -23.619045 82.920815
17800000000 -23.853437 99.860992 -0.82474667 2.1020806 -0.82072806 2.1309276 -23.599525 84.228798
17900000000 -23.821274 97.55014 -0.82555145 0.15213048 -0.82089257 0.15182558 -23.79244 81.129288
18000000000 -23.358011 96.101601 -0.82877332 -1.8796612 -0.82563818 -1.8621238 -23.925623 78.501366
18100000000 -23.699429 94.287407 -0.82442397 -3.8205154 -0.82817376 -3.8586957 -23.78738 72.841026
18200000000 -23.588888 91.601295 -0.82662851 -5.8480897 -0.82702368 -5.8085203 -23.298307 71.61937
18300000000 -23.955599 85.001358 -0.82853121 -7.8282099 -0.82627714 -7.8145862 -22.868917 69.535194
18400000000 -23.404095 82.061264 -0.82823861 -9.8254957 -0.83032095 -9.8116217 -22.673162 71.508087
18500000000 -23.272251 76.480614 -0.83089447 -11.806414 -0.83335507 -11.793349 -22.806274 71.118561
18600000000 -23.04343 75.048798 -0.82974118 -13.792133 -0.83147126 -13.794239 -23.198257 70.241997
18700000000 -23.208702 70.799149 -0.83059645 -15.784277 -0.82897073 -15.808598 -23.346352 64.247986
18800000000 -23.212328 69.831375 -0.82969636 -17.794853 -0.83023947 -17.788248 -23.203423 59.655598
18900000000 -23.068871 63.897083 -0.83079767 -19.768946 -0.82805473 -19.765333 -22.633698 55.79858
19000000000 -23.035297 61.332783 -0.82917815 -21.718811 -0.82896322 -21.711376 -22.024097 56.726299
19100000000 -22.496277 56.795807 -0.83243471 -23.752829 -0.82807851 -23.711706 -22.000786 56.403572
19200000000 -22.672529 54.630466 -0.83257014 -25.739031 -0.8316161 -25.729464 -22.026962 58.745842
19300000000 -22.285013 51.489666 -0.83113462 -27.752695 -0.83237106 -27.709921 -22.482004 54.964802
19400000000 -22.56568 49.006332 -0.83054626 -29.715803 -0.82955724 -29.708708 -22.440678 53.419556
19500000000 -22.124477 47.236435 -0.82818377 -31.739264 -0.82793194 -31.737745 -22.316746 47.978619
19600000000 -22.311684 42.952259 -0.83199573 -33.730396 -0.82698232 -33.741734 -21.968077 47.324615
19700000000 -21.941986 40.961082 -0.8294003 -35.739971 -0.8250556 -35.733829 -21.657665 45.256927
19800000000 -21.851288 35.695862 -0.82625902 -37.741394 -0.82687306 -37.756847 -21.669111 47.174961
19900000000 -21.538557 35.368431 -0.8255145 -39.725887 -0.82504743 -39.7122 -21.602072 44.4006
20000000000 -21.452497 32.035419 -0.8265236 -41.756145 -0.82642466 -41.740692 -21.821438 43.71978
20100000000 -21.357946 31.978977 -0.82693911 -43.759491 -0.83040053 -43.766438 -21.475388 39.346214
20200000000 -21.285475 27.598131 -0.83057886 -45.795361 -0.82867181 -45.770565 -21.471903 38.199837
20300000000 -21.442741 24.848642 -0.83773446 -47.789848 -0.83424675 -47.787491 -20.965689 36.871338
20400000000 -20.917337 19.456627 -0.83785278 -49.805458 -0.83567488 -49.80043 -21.268499 36.890797
20500000000 -20.929077 16.734398 -0.85056245 -51.8009 -0.8433336 -51.778065 -21.194441 34.870296
20600000000 -20.596861 14.106138 -0.85322827 -53.766026 -0.85310161 -53.737263 -21.720215 31.154039
20700000000 -21.131105 12.912701 -0.84652531 -55.653194 -0.83943945 -55.6679 -21.381363 28.230373
20800000000 -20.871273 11.791351 -0.84239948 -57.689205 -0.83945578 -57.649754 -21.348322 24.759024
20900000000 -21.143913 7.1919127 -0.82874262 -59.685219 -0.82884789 -59.700893 -20.722342 25.144253
21000000000 -20.697514 4.7601066 -0.83070457 -61.711342 -0.82935327 -61.714619 -20.820932 24.819914
21100000000 -20.442564 0.29498684 -0.82707536 -63.723392 -0.83207101 -63.738964 -20.677362 25.021025
21200000000 -20.276281 0.17982343 -0.8344143 -65.768661 -0.83251119 -65.756416 -21.086781 23.899839
21300000000 -20.313404 -3.5049629 -0.8408677 -67.783859 -0.83570659 -67.802734 -21.23036 20.670311
21400000000 -20.47076 -3.9997423 -0.84319341 -69.816063 -0.84539455 -69.831978 -21.132093 15.373214
21500000000 -20.556749 -9.8605013 -0.8417446 -71.75605 -0.83945447 -71.745766 -21.132093 12.079335
21600000000 -20.641426 -10.393001 -0.83161455 -73.750481 -0.83409214 -73.724609 -20.709921 11.010194
21700000000 -20.137337 -14.642561 -0.82933289 -75.755043 -0.82923675 -75.738579 -20.39156 11.658181
21800000000 -20.062708 -15.43779 -0.83069956 -77.737251 -0.8310951 -77.736862 -20.497635 12.441957
21900000000 -19.790995 -17.636948 -0.83350152 -79.751389 -0.83543044 -79.735962 -20.498711 11.985106
22000000000 -20.151604 -18.372129 -0.84028089 -81.789833 -0.83745188 -81.760384 -21.144157 9.8571796
22100000000 -20.017525 -20.705956 -0.84223574 -83.789513 -0.84207171 -83.771317 -21.102045 5.4717011
22200000000 -20.497347 -24.431202 -0.84893245 -85.818588 -0.85118532 -85.801361 -21.31912 2.0999353
22300000000 -20.17285 -26.853357 -0.83989108 -87.779137 -0.83469915 -87.775383 -20.672113 0.45157972
22400000000 -20.238205 -29.788568 -0.84157866 -89.776024 -0.83647197 -89.77935 -20.602217 0.36815059
22500000000 -19.839449 -29.883072 -0.83947051 -91.813873 -0.83629715 -91.846191 -20.252987 2.5019972
22600000000 -20.158453 -32.246593 -0.85080117 -93.819748 -0.84540462 -93.835274 -20.835665 0.6309098
22700000000 -20.413759 -30.554777 -0.8604601 -95.808632 -0.85836262 -95.802704 -20.809422 -0.30817139
22800000000 -20.77206 -35.374836 -0.86685091 -97.743736 -0.86352897 -97.742416 -21.125992 -6.6305022
22900000000 -20.695919 -37.096943 -0.85929418 -99.665741 -0.85570031 -99.683495 -20.816496 -8.0986681
23000000000 -20.219807 -42.037079 -0.85230184 -101.71248 -0.84523982 -101.73132 -20.785053 -11.74874
23100000000 -20.165932 -41.435989 -0.83725917 -103.716 -0.83406925 -103.73489 -20.52383 -8.842967
23200000000 -19.902952 -43.044437 -0.84390855 -105.72521 -0.84663606 -105.77449 -20.951353 -11.515165
23300000000 -20.519297 -42.32909 -0.83997715 -107.77132 -0.83942181 -107.78295 -21.421181 -10.914162
23400000000 -20.713905 -45.568871 -0.84920532 -109.77773 -0.84385699 -109.74318 -21.701469 -18.555313
23500000000 -21.329222 -50.746342 -0.84281057 -111.80425 -0.84784448 -111.7963 -21.82653 -20.897869
23600000000 -20.754316 -53.682465 -0.85025489 -113.80698 -0.84512728 -113.78246 -21.005983 -25.462181
23700000000 -20.78183 -57.351479 -0.84837914 -115.80411 -0.84281528 -115.78835 -21.021481 -22.272625
23800000000 -20.434681 -57.023315 -0.84973037 -117.82085 -0.85261178 -117.82007 -21.089752 -21.559008
23900000000 -21.002695 -58.965862 -0.85125995 -119.79642 -0.84416759 -119.83048 -22.011244 -19.608171
24000000000 -21.39172 -57.588276 -0.85531002 -121.77273 -0.84923398 -121.84891 -22.822657 -26.142061
24100000000 -21.953743 -63.763889 -0.84410125 -123.8529 -0.84841311 -123.84789 -23.279371 -33.325104
24200000000 -22.123352 -65.247696 -0.84645295 -125.85481 -0.84482509 -125.83069 -22.540556 -37.542484
24300000000 -21.697191 -70.962334 -0.84725738 -127.8543 -0.83929813 -127.85781 -22.150223 -39.389683
24400000000 -21.738037 -69.034103 -0.8430903 -129.82993 -0.84222788 -129.80516 -21.715927 -35.781464
24500000000 -21.652843 -71.87545 -0.8487395 -131.81525 -0.84347916 -131.79269 -22.461178 -33.216782
24600000000 -22.671036 -69.883675 -0.85143065 -133.80139 -0.84666622 -133.82123 -23.208984 -31.254911
24700000000 -22.873175 -73.842056 -0.84584653 -135.82379 -0.84718657 -135.81615 -24.524834 -36.690636
24800000000 -23.980364 -78.044006 -0.85257238 -137.88083 -0.85012734 -137.88177 -24.888008 -43.896152
24900000000 -23.383169 -81.27224 -0.84951633 -139.86026 -0.83798933 -139.86961 -24.716608 -49.47826
25000000000 -23.813919 -82.578804 -0.84075236 -141.92332 -0.84175903 -141.93002 -23.900366 -50.944771
25100000000 -23.378897 -81.462448 -0.83717883 -143.91614 -0.83765906 -143.86835 -24.03911 -46.405762
25200000000 -24.516365 -82.532875 -0.83966804 -145.84251 -0.84146935 -145.86221 -24.412031 -44.972279
25300000000 -24.8437 -79.603668 -0.84296143 -147.84581 -0.84593177 -147.85756 -26.01906 -42.970108
25400000000 -26.362978 -87.431007 -0.84430408 -149.89069 -0.84270686 -149.88466 -26.435261 -49.63763
25500000000 -26.665354 -86.136208 -0.85005558 -151.92691 -0.84741938 -151.88844 -27.318926 -49.759548
25600000000 -26.599161 -95.61377 -0.84285802 -153.9689 -0.84389693 -153.96191 -27.208412 -56.320293
25700000000 -27.029877 -90.036018 -0.84731179 -155.93701 -0.84348196 -155.94872 -27.218458 -55.683693
25800000000 -27.322908 -95.038002 -0.84521377 -157.9841 -0.84073228 -157.963 -27.699638 -54.587383
25900000000 -28.637621 -85.589386 -0.83578628 -160.00252 -0.83952957 -160.01144 -28.429722 -52.969345
26000000000 -29.103218 -90.433937 -0.84453547 -162.00536 -0.84257609 -161.97751 -29.278749 -50.463482
26100000000 -31.436327 -84.273308 -0.84620321 -164.02522 -0.84782749 -163.98642 -30.359823 -51.618294
26200000000 -31.446108 -88.111099 -0.8404417 -166.0461 -0.84903693 -166.05582 -31.086449 -47.099709
26300000000 -34.436081 -88.627861 -0.85859609 -168.05154 -0.84809184 -168.07454 -32.676579 -61.166046
26400000000 -33.24905 -93.058983 -0.84223038 -170.07474 -0.85213077 -170.11249 -32.183826 -45.39679
26500000000 -36.961849 -93.599716 -0.85659909 -172.04549 -0.84603053 -172.0699 -34.734432 -55.092674
26600000000 -35.984737 -70.02845 -0.85999215 -174.07486 -0.854397 -174.07112 -33.732475 -37.880695
26700000000 -39.9533 -52.272842 -0.86285985 -176.15028 -0.8522867 -176.09908 -37.814774 -42.366508
26800000000 -36.706165 -37.997173 -0.8521015 -178.09164 -0.84817773 -178.10474 -37.045795 -7.3610659
26900000000 -45.669502 -3.8493688 -0.8690148 179.87286 -0.86359435 179.851 -39.760204 -21.949671
27000000000 -38.113098 -2.0935247 -0.87295425 177.80086 -0.8549583 177.74521 -38.213375 41.087788
27100000000 -39.554646 -1.2918843 -0.88290787 175.83498 -0.85846388 175.95763 -46.48093 -0.57716328
27200000000 -34.337765 21.140749 -0.87231779 173.74092 -0.86362779 173.74124 -36.918713 30.920424
27300000000 -35.262783 20.243254 -0.88041079 171.83975 -0.8683846 171.77313 -38.312847 14.322762
27400000000 -30.620352 23.317461 -0.88034171 169.66722 -0.88478011 169.74516 -32.818859 44.443897
27500000000 -32.84404 26.518677 -0.87088203 167.74544 -0.89072794 167.73466 -33.158451 40.775005
27600000000 -29.522577 25.084482 -0.87305963 165.73 -0.87804383 165.76866 -31.525099 62.831532
27700000000 -29.504601 16.63266 -0.86639392 163.67949 -0.88237524 163.79861 -32.892647 55.85294
27800000000 -26.973475 24.230274 -0.88244504 161.75124 -0.87213743 161.71193 -31.175026 66.967979
27900000000 -27.105122 20.613237 -0.89925742 159.64824 -0.86315632 159.75032 -31.130323 43.63633
28000000000 -25.853323 26.101622 -0.91352475 157.73407 -0.88713777 157.48007 -28.932117 55.24868
28100000000 -25.839954 15.665769 -0.88875139 155.73404 -0.89634144 155.78764 -27.81823 45.812614
28200000000 -25.147837 19.587025 -0.9092719 153.68843 -0.91665334 153.72525 -26.707748 55.017197
28300000000 -23.428225 10.193897 -0.90355498 151.65526 -0.89541239 151.62642 -27.143442 52.243809
28400000000 -23.854759 13.666509 -0.89858085 149.67723 -0.911443 149.67831 -26.904222 54.311543
28500000000 -22.748489 10.409484 -0.93217969 147.70787 -0.88427621 147.7236 -26.267458 43.201031
28600000000 -22.865269 13.448479 -0.90317345 145.68222 -0.90875429 145.62036 -25.281439 43.748985
28700000000 -21.979065 10.50772 -0.90204096 143.61531 -0.9137429 143.67056 -24.001003 41.516563
28800000000 -22.348524 11.488968 -0.93094623 141.60828 -0.91363811 141.63614 -23.541927 47.898056
28900000000 -21.07921 7.3031473 -0.91915983 139.59726 -0.89839751 139.66997 -23.847694 44.004059
29000000000 -21.465597 4.0098438 -0.9243862 137.63347 -0.95604438 137.53682 -23.772757 44.292564
29100000000 -20.536612 2.2225652 -0.9343828 135.59525 -0.93395394 135.5094 -24.024895 32.377392
29200000000 -20.702684 -0.39258432 -0.92623836 133.86978 -0.9391824 133.57751 -22.658735 34.841892
29300000000 -19.751005 3.2265882 -0.91822398 131.50407 -0.90965331 131.6424 -21.196728 31.515146
29400000000 -19.885906 -1.6290084 -0.92786592 129.70946 -0.93952113 129.70546 -20.579119 39.842056
29500000000 -19.707043 2.2331779 -0.93013036 127.61721 -0.92943996 127.61436 -20.676266 36.618107
29600000000 -19.740416 -5.3081565 -0.94927561 125.64512 -0.94503659 125.56274 -21.119003 42.192078
29700000000 -19.627686 -1.5904696 -0.95407987 123.62218 -0.95553374 123.44994 -21.119242 29.587389
29800000000 -18.808771 -9.7367249 -0.95832807 121.67623 -0.96430606 121.58991 -21.229988 31.856483
29900000000 -18.728657 -7.1105218 -0.94276923 119.70113 -0.95802981 119.6208 -20.111643 19.761873
30000000000 -18.322945 -9.483963 -0.95308489 117.54376 -0.97003627 117.62721 -19.67186 26.527971
30100000000 -18.516331 -8.6632099 -0.96914279 115.63529 -0.9449333 115.59795 -18.596039 22.965271
30200000000 -17.719927 -11.823005 -0.95856529 113.63461 -0.97503948 113.58274 -19.446848 29.585915
30300000000 -18.419638 -14.78401 -0.98228341 111.53212 -0.96857363 111.68388 -18.956589 23.005405
30400000000 -17.673779 -16.034372 -0.98855317 109.70387 -0.97966599 109.44757 -20.195171 23.375751
30500000000 -17.907438 -21.534235 -1.0063866 107.50988 -0.97373712 107.6972 -18.884195 14.024263
30600000000 -17.313971 -20.235785 -0.99137437 105.55967 -0.99595648 105.67965 -19.375389 14.795975
30700000000 -17.435263 -22.925219 -0.96647733 103.71545 -0.97068489 103.72346 -17.878216 12.720387
30800000000 -16.921663 -21.622982 -0.99800813 101.61322 -0.97410411 101.91596 -18.805998 15.631701
30900000000 -17.118151 -25.928476 -0.9864586 99.729782 -0.98899132 99.739914 -17.776649 12.127569
31000000000 -16.833467 -24.830383 -1.0029905 97.782669 -0.98922151 97.748894 -18.593632 11.582492
31100000000 -17.247454 -32.527161 -0.98767471 95.724876 -0.97519565 95.578079 -18.412445 7.070437
31200000000 -16.843697 -32.92318 -1.0115969 93.853249 -0.98624998 93.709427 -18.170431 1.3196176
31300000000 -16.409498 -36.532658 -0.99629116 91.676743 -0.97781521 91.631821 -17.827806 2.6599445
31400000000 -16.334457 -34.499916 -0.98288941 89.688599 -0.97833729 89.779099 -17.490776 0.1884176
31500000000 -16.152168 -35.723946 -1.0004747 87.751656 -1.0013312 87.767471 -17.246611 3.8211703
31600000000 -16.891365 -35.22258 -1.0048699 85.840469 -1.0125371 85.895874 -17.816132 0.56305671
31700000000 -16.653116 -39.158474 -1.0167025 83.798828 -1.0131967 83.807732 -17.491318 -0.59002662
31800000000 -16.752672 -42.725903 -1.0041745 81.606285 -0.99539876 81.705154 -18.038645 -6.1310439
31900000000 -15.784895 -44.681519 -0.9870187 79.703323 -0.98342276 79.932938 -17.267006 -8.7909441
32000000000 -16.085567 -45.126499 -1.015492 77.850182 -1.0025845 77.852791 -17.388033 -9.6211948
32100000000 -15.872027 -42.759407 -0.9892329 75.886719 -1.0041656 75.841125 -16.553123 -9.1912527
32200000000 -16.808708 -44.106247 -0.98974133 73.886375 -1.0128109 73.753052 -17.202005 -9.6214714
32300000000 -16.618757 -46.094234 -1.0322413 71.894897 -1.0175165 71.85038 -17.055174 -9.4537268
32400000000 -16.93008 -54.47649 -1.0201454 70.01049 -1.0197617 69.877571 -17.926828 -11.453897
32500000000 -16.308884 -53.298687 -1.0141793 68.050743 -0.98469812 68.033249 -17.478529 -15.739146
32600000000 -16.182507 -56.682617 -0.99245232 65.912636 -1.0004349 65.883598 -17.575932 -22.089561
32700000000 -16.598143 -51.435329 -0.99195302 63.638397 -1.0169479 63.834915 -16.949303 -22.812393
32800000000 -16.605024 -57.2528 -0.98713499 61.924156 -0.98705477 62.014416 -16.494827 -24.655237
32900000000 -17.311985 -56.10619 -1.0075519 59.86018 -1.0113991 59.93095 -16.775034 -20.340935
33000000000 -16.838743 -62.489559 -0.97371703 58.035061 -0.98106682 57.936546 -17.192621 -21.728683
33100000000 -17.153696 -64.011131 -0.98500794 56.012676 -1.016223 55.904472 -17.921879 -23.058088
33200000000 -16.459 -64.04586 -0.97394699 54.034416 -1.0020707 53.83382 -17.70615 -31.747454
33300000000 -17.221493 -64.77935 -1.0084308 51.858887 -0.99909556 51.864456 -18.012053 -29.906435
33400000000 -17.115608 -63.87373 -0.98011494 50.122269 -0.99814588 49.820831 -17.2237 -35.485802
33500000000 -17.376919 -69.482307 -1.0081007 47.91692 -0.96947384 47.838531 -17.522013 -33.889374
33600000000 -17.28657 -68.544991 -1.00731 46.041237 -0.97107333 46.015419 -17.131323 -35.64127
33700000000 -17.525558 -72.330986 -0.99809021 44.176403 -0.98288292 44.080143 -18.081446 -33.712048
33800000000 -17.551308 -71.388817 -0.98504174 42.012135 -1.0047672 42.128483 -17.926081 -35.899937
33900000000 -17.888786 -77.23613 -1.0065345 39.930305 -0.98148441 39.814884 -18.352379 -40.217983
34000000000 -17.972687 -73.257233 -1.0115087 37.828884 -0.99566543 37.885708 -17.805593 -40.400627
34100000000 -17.746984 -78.365532 -0.95597214 35.932785 -0.97851205 35.893997 -18.173519 -43.694035
34200000000 -18.355709 -75.466591 -0.99410301 33.992847 -0.98385358 33.780159 -18.228161 -37.518368
34300000000 -18.623346 -79.289108 -0.98041952 32.108521 -0.98018432 32.007191 -18.964054 -45.690525
34400000000 -19.042461 -76.138069 -0.97556019 30.021544 -1.0004495 29.864637 -19.191954 -43.247589
34500000000 -18.752569 -82.729729 -0.98236746 27.853765 -1.0053329 27.884985 -19.101351 -49.414738
34600000000 -19.223091 -81.443604 -0.99366367 25.918753 -1.0106844 25.901392 -18.911148 -47.471367
34700000000 -19.091228 -83.189018 -0.97557122 23.721649 -0.98762369 23.772488 -18.608072 -48.492771
34800000000 -19.875071 -84.30648 -0.97298211 21.914371 -0.9578833 22.038918 -19.564987 -44.625038
34900000000 -20.133747 -85.640724 -0.94108719 19.785391 -0.96452874 19.747789 -20.218281 -43.293537
35000000000 -20.836254 -87.129425 -0.96653199 17.958513 -0.97668868 17.951551 -21.84623 -49.157661
35100000000 -20.490061 -85.091026 -0.9701395 15.666624 -0.97557348 15.803615 -21.280132 -59.764881
35200000000 -21.37178 -86.715729 -0.94574553 13.868391 -0.97383749 13.76074 -21.190796 -61.679832
35300000000 -21.457237 -87.205986 -0.97012562 11.565026 -0.97760189 11.589856 -20.482241 -57.62735
35400000000 -22.9688 -92.015816 -0.98165673 9.6812172 -0.97993684 9.7641563 -20.545616 -57.17664
35500000000 -23.249525 -84.729576 -0.97069591 7.6254787 -1.0018721 7.9024067 -21.781567 -55.407822
35600000000 -23.228979 -96.630745 -0.97796828 5.6335316 -0.9882282 5.8836102 -22.506327 -54.115829
35700000000 -23.245327 -91.873177 -0.97980058 3.7671208 -0.97723264 3.8042212 -23.48752 -56.911587
35800000000 -23.285103 -95.991364 -0.99069792 1.7657419 -0.94162732 1.7481565 -22.719076 -64.840248
35900000000 -24.808887 -88.356857 -0.99959898 -0.0065980535 -0.98311889 -0.14228544 -23.853041 -71.793503
36000000000 -25.15398 -92.460854 -0.94927722 -2.1785915 -0.92486948 -2.2754092 -23.339907 -61.728817
36100000000 -29.068995 -75.964096 -0.96745759 -4.529757 -0.99393803 -4.4014416 -24.193548 -55.920105
36200000000 -27.301474 -90.291794 -1.0151057 -6.5504699 -0.94754601 -6.2886071 -24.138479 -53.77227
36300000000 -30.560081 -94.728531 -1.0074396 -8.356266 -0.96611643 -8.670393 -26.868904 -59.76318
36400000000 -27.933054 -90.631485 -0.96681589 -10.321272 -0.98497385 -10.791069 -25.829165 -58.751907
36500000000 -29.265636 -83.533875 -0.96438652 -12.738982 -1.0006311 -12.723619 -25.955513 -63.443798
36600000000 -26.115597 -68.679207 -0.96858788 -14.742599 -0.96705973 -14.547006 -24.607082 -47.262726
36700000000 -29.668697 -47.474991 -0.95372546 -16.747391 -0.97715193 -16.663157 -26.054522 -47.618446
36800000000 -28.273371 -29.134142 -0.96750253 -18.390064 -1.0205196 -18.515278 -25.93758 -19.209097
36900000000 -37.962193 -19.286602 -0.98757887 -20.616592 -1.0274365 -20.479179 -30.311279 -25.137587
37000000000 -30.217342 -31.18088 -0.94989121 -22.46541 -1.0060674 -22.687941 -30.768381 -17.466974
37100000000 -30.019999 -78.809158 -1.0196098 -24.934357 -1.0069934 -25.306044 -29.072809 -59.217018
37200000000 -27.662106 -33.64082 -1.0067561 -26.661444 -0.98449808 -26.815752 -28.487944 -36.834496
37300000000 -26.68815 -21.082415 -0.97996145 -29.148218 -0.98871017 -28.899118 -25.224871 -32.216743
37400000000 -24.530441 -5.4541469 -0.98241192 -30.816483 -0.96197271 -30.747671 -23.940649 -8.1213465
37500000000 -26.889835 -7.3005743 -0.9856835 -32.627804 -0.98489881 -32.97287 -25.435329 -3.5975161
37600000000 -27.629608 0.49318549 -1.0147957 -34.692459 -1.000944 -34.858154 -25.079294 17.566938
37700000000 -26.755983 -18.647076 -1.0009375 -36.776173 -1.0257065 -36.758564 -27.221695 19.488209
37800000000 -24.47434 -12.764577 -1.0287002 -38.775623 -0.98902678 -39.134624 -27.787685 5.9172645
37900000000 -22.623617 -15.347605 -1.0114475 -41.115814 -0.99019033 -40.972473 -28.388248 -6.250484
38000000000 -23.378365 -3.68717 -1.0226972 -43.122719 -1.0144687 -42.96981 -24.098227 -9.0093517
38100000000 -23.065636 -4.6789389 -1.0221715 -44.728138 -1.0787362 -44.816582 -22.800581 1.1198965
38200000000 -22.950655 -2.2457712 -1.0108343 -46.767563 -1.0058386 -47.135311 -21.617275 4.3907986
38300000000 -21.458685 -11.785259 -1.0039034 -49.174576 -1.0469306 -49.046566 -22.421555 25.977879
38400000000 -21.070929 -15.213528 -1.0505189 -50.844227 -1.0216602 -50.931297 -22.64716 23.735481
38500000000 -20.930307 -13.392863 -1.0658568 -52.981533 -1.0633789 -52.986256 -24.460037 24.746967
38600000000 -20.664501 -1.7552276 -1.0739503 -54.857906 -1.0377792 -54.941101 -22.82333 4.3649268
38700000000 -19.467468 -10.345765 -1.0567718 -56.704231 -1.0668141 -56.869991 -22.44837 -0.9154126
38800000000 -20.564116 -6.2088947 -1.0325047 -58.62072 -1.0481641 -59.049904 -19.656992 7.7533526
38900000000 -19.307264 -8.6925716 -1.0381705 -60.950081 -1.0009264 -60.761856 -21.218756 12.995696
39000000000 -20.056593 -12.312634 -1.1283046 -62.743225 -1.0438226 -63.165913 -19.619909 17.202131
39100000000 -18.751904 -13.925978 -1.0489362 -64.945999 -1.0505426 -65.380188 -22.791828 11.014219
39200000000 -19.156166 -19.790998 -1.0938063 -66.934464 -1.1361685 -67.107864 -19.820601 2.2263334
39300000000 -17.651695 -17.011761 -1.0073919 -69.482132 -1.0766146 -69.333565 -20.081047 -7.4868922
39400000000 -18.573576 -15.743412 -1.0551906 -71.045624 -1.100342 -70.691536 -17.721611 5.9112258
39500000000 -18.07542 -5.0961113 -1.1173471 -73.187637 -1.1254598 -73.115738 -19.111755 0.9983784
39600000000 -18.686008 -21.96595 -1.0788571 -74.803833 -1.0955446 -74.992729 -18.093927 15.728251
39700000000 -19.380638 -19.89924 -1.0830308 -77.249214 -1.1134995 -77.20713 -20.677614 6.1943684
39800000000 -17.345333 -31.445662 -1.1242303 -78.809372 -1.0708086 -79.13163 -19.320103 1.4163986
39900000000 -17.44211 -18.819435 -1.1300393 -80.868263 -1.1165645 -81.210686 -19.289192 -15.231322
40000000000 -16.648901 -26.885599 -1.0710654 -82.722359 -1.1017346 -82.698151 -17.25485 -9.5881701
40100000000 -18.543146 -14.944573 -1.0575006 -85.256744 -1.1304131 -85.176178 -16.304617 -8.9750757
40200000000 -17.553211 -22.957111 -1.0956175 -86.859024 -1.093101 -86.818275 -16.855091 0.46698424
40300000000 -18.533754 -36.10968 -1.0728964 -89.389107 -1.0342902 -88.694656 -17.274426 -4.2781987
40400000000 -16.757887 -34.720535 -1.1076448 -90.756142 -1.0715729 -91.277443 -19.039013 -2.1956167
40500000000 -16.683956 -34.318363 -1.160684 -93.066078 -1.0834025 -93.219009 -18.843489 -15.408183
40600000000 -15.748219 -27.702223 -1.1052202 -94.813095 -1.0816996 -94.837959 -17.874645 -16.985771
40700000000 -17.65402 -30.890345 -1.1210518 -97.006828 -1.1214515 -96.972031 -17.118767 -19.328697
40800000000 -17.070786 -30.701468 -1.1406885 -99.031189 -1.1176616 -98.702721 -16.351051 -15.091684
40900000000 -16.865744 -43.050053 -1.1074347 -100.913 -1.1013149 -100.64478 -16.430746 -11.727379
41000000000 -16.003244 -44.232422 -1.0766139 -102.73005 -1.0947324 -103.09411 -16.218777 -12.391491
41100000000 -16.647385 -43.738232 -1.1461067 -104.74236 -1.1197146 -105.01528 -18.041067 -17.040834
41200000000 -16.298849 -36.96067 -1.1056753 -106.79139 -1.1416874 -106.53144 -17.341209 -21.403162
41300000000 -16.529644 -41.501385 -1.1295396 -108.77272 -1.0959784 -108.83565 -17.302395 -24.035244
41400000000 -17.071609 -42.661575 -1.0891924 -110.67286 -1.1162893 -110.82713 -16.1441 -25.382505
41500000000 -16.587053 -46.494854 -1.1714029 -112.87874 -1.1154245 -112.75697 -15.994698 -29.579189
41600000000 -16.640518 -45.834816 -1.0829448 -114.96793 -1.1267216 -115.17244 -16.754082 -22.819559
41700000000 -16.584967 -48.205883 -1.1131055 -117.0196 -1.1387198 -116.87688 -17.369976 -30.625996
41800000000 -17.326071 -48.03933 -1.1096647 -118.56667 -1.1695147 -118.83012 -16.832144 -25.657995
41900000000 -16.87768 -51.701172 -1.1660807 -120.65789 -1.1511102 -120.87553 -17.281349 -34.971825
42000000000 -16.449385 -49.29266 -1.087055 -122.55301 -1.08241 -122.85762 -16.987762 -33.185966
42100000000 -15.665982 -50.76535 -1.1342138 -124.69528 -1.1793802 -125.21094 -16.738232 -38.993076
42200000000 -17.054607 -55.32785 -1.0497415 -126.65199 -1.1758641 -126.44176 -16.937408 -31.673889
42300000000 -17.143312 -50.194618 -1.0922941 -128.6721 -1.1652367 -128.89005 -16.63825 -41.942265
42400000000 -18.638803 -59.683456 -1.1023082 -131.06894 -1.1224926 -130.55609 -17.692152 -35.162865
42500000000 -16.758446 -58.111092 -1.03285 -132.89798 -1.0693233 -132.52901 -18.052469 -46.384502
42600000000 -16.586283 -66.655891 -1.0378433 -134.63594 -1.1214674 -134.94803 -19.38382 -41.681843
42700000000 -17.168098 -56.017071 -1.0872445 -137.16924 -1.1550558 -136.54152 -17.109764 -53.645103
42800000000 -18.282383 -57.460491 -1.1088076 -138.67638 -1.0563204 -138.87764 -18.153179 -53.331055
42900000000 -21.053047 -49.625195 -1.0877173 -141.52307 -1.1230381 -141.09143 -17.234327 -44.335438
43000000000 -20.043629 -65.378265 -1.198101 -143.15529 -1.1423595 -143.30757 -17.72435 -47.694931
43100000000 -21.410927 -78.490448 -1.0901235 -144.55412 -1.0789233 -145.39854 -18.718945 -41.533279
43200000000 -17.99976 -72.988708 -1.0663924 -146.69357 -1.0463364 -146.513 -20.591969 -53.55014
43300000000 -20.109257 -60.793423 -1.0713576 -149.10144 -1.0394483 -148.83585 -20.231096 -55.748745
43400000000 -19.353514 -55.194111 -1.0937203 -150.88152 -1.1448845 -150.95084 -19.343462 -66.108788
43500000000 -20.88726 -48.683372 -1.0317528 -153.31676 -1.042434 -152.88733 -20.184919 -67.278625
43600000000 -23.802626 -60.417622 -1.044185 -155.37183 -1.0913411 -154.92317 -19.211689 -58.815567
43700000000 -25.080832 -77.882439 -1.1848989 -156.78642 -1.0914752 -156.99588 -20.609335 -52.818165
43800000000 -21.811401 -76.150894 -1.0558125 -159.27431 -1.0354432 -159.01996 -21.591059 -39.958374
43900000000 -21.309534 -74.541481 -1.0574663 -161.23184 -1.0841062 -161.22279 -25.72963 -52.582043
44000000000 -23.27346 -47.98436 -1.0448856 -163.00949 -1.0214336 -163.10326 -23.201744 -61.866329
44100000000 -24.219355 -54.434742 -1.0179861 -165.73882 -1.0075558 -165.52501 -23.783745 -68.796333
44200000000 -27.048828 -27.138762 -1.0530303 -167.51306 -1.043896 -167.57727 -22.053411 -63.451958
44300000000 -27.143265 -65.089806 -0.93659759 -169.49263 -1.0589103 -169.586 -24.93079 -53.806404
44400000000 -27.920372 -72.193939 -1.0255647 -171.02484 -1.0671142 -171.91551 -24.221256 -39.05167
44500000000 -25.512552 -73.352165 -1.0243837 -173.47997 -1.0599614 -173.58968 -27.380985 -56.916924
44600000000 -26.004883 -38.033501 -1.0579265 -176.13234 -1.0405339 -176.08441 -29.403444 -39.627251
44700000000 -24.596657 -24.956198 -1.1211225 -177.92038 -1.1320417 -177.73296 -29.774796 -68.491371
44800000000 -28.469336 -8.729744 -1.0754035 -179.70416 -1.0275447 -179.6882 -27.124214 -33.702347
44900000000 -31.179132 -6.2953072 -1.0695375 177.6055 -1.1086063 178.05179 -27.458752 -49.004807
45000000000 -31.600555 20.152514 -1.1416894 176.20418 -1.0807636 175.83722 -26.532406 18.229391
