!Keysight Technologies,N5247B,MY61255062,A.19.80.06
!Date: Monday, May 18, 2026 12:39:20
!Correction: S11(Cdelta 2-Port  ) 
!S21(Cdelta 2-Port  ) 
!S12(Cdelta 2-Port  ) 
!S22(Cdelta 2-Port  ) 
!S2P File: Measurements: S11, S21, S12, S22:
# Hz S  dB   R 50
1000000000 -26.236555 -8.6568251 -0.41088301 -20.854815 -0.40519097 -20.847637 -27.095947 -8.6159973
1100000000 -26.128544 -10.660086 -0.4217335 -22.884272 -0.41721678 -22.871483 -27.163754 -9.724391
1200000000 -25.995766 -11.959877 -0.43009761 -24.866011 -0.42534065 -24.865396 -27.159727 -9.892271
1300000000 -25.843842 -13.80739 -0.43733543 -26.917871 -0.43310618 -26.913363 -27.093445 -11.76397
1400000000 -25.66753 -15.323574 -0.44084728 -28.888876 -0.43757218 -28.879337 -27.002316 -12.080376
1500000000 -25.538937 -17.346447 -0.4420912 -30.909807 -0.43957302 -30.905376 -26.917429 -13.631338
1600000000 -25.405113 -19.234636 -0.44782409 -32.945454 -0.44312021 -32.934311 -26.896845 -15.998588
1700000000 -25.237322 -21.437656 -0.45009324 -34.958286 -0.44499025 -34.946312 -26.840998 -17.381298
1800000000 -25.077562 -23.398479 -0.45177066 -36.99052 -0.44701862 -36.975716 -26.815178 -19.231533
1900000000 -24.930243 -25.696457 -0.45415023 -39.02393 -0.44797045 -39.008736 -26.767204 -21.174522
2000000000 -24.872208 -27.794519 -0.45910344 -41.064796 -0.45458767 -41.057896 -26.832117 -23.481314
2100000000 -24.722933 -30.172293 -0.46149421 -43.084808 -0.45754597 -43.069504 -26.888819 -24.789022
2200000000 -24.682482 -32.302769 -0.46618173 -45.109169 -0.4615581 -45.110348 -26.92704 -27.04393
2300000000 -24.581766 -34.655338 -0.47091323 -47.156231 -0.46662441 -47.138054 -27.009586 -28.979212
2400000000 -24.498426 -36.846096 -0.474556 -49.178997 -0.47072023 -49.1675 -27.067438 -30.405571
2500000000 -24.407459 -38.826851 -0.47894114 -51.202766 -0.47758487 -51.190346 -27.126942 -32.735954
2600000000 -24.359812 -41.01701 -0.48662224 -53.230942 -0.48415247 -53.226887 -27.283854 -34.784557
2700000000 -24.312439 -43.199661 -0.49182862 -55.250488 -0.48888654 -55.234718 -27.502785 -36.813736
2800000000 -24.320875 -45.573689 -0.49584064 -57.26049 -0.49242583 -57.257813 -27.571749 -38.735043
2900000000 -24.337994 -47.600182 -0.50258207 -59.277294 -0.49942422 -59.268257 -27.742847 -40.658024
3000000000 -24.247658 -49.728615 -0.50595021 -61.296844 -0.50088173 -61.265751 -27.947855 -41.673
3100000000 -24.240522 -51.768612 -0.50943536 -63.286594 -0.50392407 -63.28904 -28.118511 -43.438721
3200000000 -24.143141 -53.963448 -0.51297832 -65.312378 -0.50678241 -65.297043 -28.313541 -44.459145
3300000000 -24.119535 -56.474087 -0.5138092 -67.315887 -0.50888437 -67.303024 -28.494015 -46.826546
3400000000 -24.089075 -58.474392 -0.51807171 -69.33242 -0.51432234 -69.329521 -28.730038 -48.659588
3500000000 -24.120132 -61.012695 -0.52262223 -71.341713 -0.51769698 -71.334557 -28.900799 -49.453587
3600000000 -24.029827 -62.818146 -0.5245204 -73.335945 -0.52017361 -73.330513 -29.012737 -51.135231
3700000000 -24.014637 -65.249763 -0.52553403 -75.358955 -0.52230018 -75.341454 -29.127703 -52.877033
3800000000 -23.977373 -66.993385 -0.52785587 -77.382156 -0.52249259 -77.359367 -29.31534 -54.292858
3900000000 -23.963053 -69.177559 -0.52884138 -79.399307 -0.52627879 -79.39547 -29.571564 -55.790527
4000000000 -23.937286 -71.221809 -0.53304845 -81.420822 -0.52872527 -81.41169 -29.882965 -57.137108
4100000000 -23.918335 -73.691566 -0.53759557 -83.450813 -0.53357261 -83.43441 -30.126606 -58.763752
4200000000 -23.891081 -75.567657 -0.54201585 -85.439407 -0.53761172 -85.447525 -30.366991 -59.967422
4300000000 -23.862711 -77.679802 -0.54341233 -87.448151 -0.53779101 -87.436546 -30.646572 -61.871189
4400000000 -23.96154 -79.687599 -0.54457271 -89.45945 -0.54182023 -89.449974 -30.904726 -62.503616
4500000000 -23.988319 -81.580856 -0.54473674 -91.483116 -0.54351467 -91.462303 -31.109932 -64.494774
4600000000 -24.02902 -83.773666 -0.55012435 -93.500504 -0.54732311 -93.485054 -31.513666 -65.283051
4700000000 -24.003746 -86.208931 -0.55011994 -95.501511 -0.54705215 -95.503014 -31.712786 -66.967857
4800000000 -24.090389 -88.556923 -0.55350161 -97.527176 -0.55023688 -97.536591 -32.192101 -67.876244
4900000000 -24.113052 -90.277908 -0.55623239 -99.537773 -0.55041438 -99.545387 -32.384079 -69.940926
5000000000 -24.164673 -92.268204 -0.55885333 -101.57164 -0.55506271 -101.5535 -32.819885 -70.215454
5100000000 -24.211884 -93.857773 -0.56078446 -103.58587 -0.55891514 -103.57246 -33.065075 -70.623566
5200000000 -24.281864 -96.177368 -0.56183726 -105.59533 -0.56009942 -105.58399 -33.65765 -70.520187
5300000000 -24.337912 -98.258095 -0.56752759 -107.61739 -0.56165785 -107.59716 -34.258034 -71.725708
5400000000 -24.44713 -100.85805 -0.56978875 -109.62651 -0.56488729 -109.61329 -34.869968 -74.564018
5500000000 -24.530743 -102.83289 -0.57455271 -111.6353 -0.5671249 -111.62477 -35.085602 -75.754402
5600000000 -24.595591 -105.24461 -0.57634544 -113.64045 -0.57291788 -113.64024 -35.380577 -77.258453
5700000000 -24.696186 -106.83218 -0.57833582 -115.65668 -0.57402503 -115.64633 -35.396069 -75.360909
5800000000 -24.752272 -109.22021 -0.57889098 -117.66981 -0.57718384 -117.64892 -36.13718 -74.72406
5900000000 -24.943886 -111.29976 -0.58300084 -119.65913 -0.57821518 -119.6446 -36.849472 -72.564865
6000000000 -25.009127 -113.78347 -0.58422786 -121.66685 -0.57799751 -121.6537 -38.226032 -74.753258
6100000000 -25.244522 -115.7794 -0.58342898 -123.66961 -0.57952899 -123.65656 -39.216251 -76.171249
6200000000 -25.368261 -117.74042 -0.58235967 -125.67577 -0.57815665 -125.66681 -39.81028 -78.516914
6300000000 -25.714415 -119.85981 -0.58264381 -127.69185 -0.57959878 -127.67876 -39.704304 -72.042923
6400000000 -25.885071 -121.17843 -0.58614486 -129.68439 -0.58260947 -129.68185 -40.015507 -72.413574
6500000000 -26.151663 -123.82246 -0.58536339 -131.7347 -0.5808109 -131.72052 -41.298756 -58.08432
6600000000 -26.271929 -125.42379 -0.58223057 -133.74768 -0.5810284 -133.74846 -42.206093 -53.319931
6700000000 -26.54801 -127.91322 -0.58596766 -135.77055 -0.5826956 -135.77051 -42.302692 -47.144413
6800000000 -26.668198 -128.05655 -0.58895075 -137.81453 -0.58664203 -137.81062 -42.779015 -46.805191
6900000000 -26.828365 -129.62401 -0.59093273 -139.84377 -0.58912688 -139.82774 -41.707432 -43.939579
7000000000 -27.057823 -130.55608 -0.60100389 -141.86343 -0.59602463 -141.85822 -41.231998 -47.933243
7100000000 -27.337074 -134.02286 -0.60200822 -143.82623 -0.59963393 -143.80786 -41.778748 -34.094124
7200000000 -27.835131 -134.95529 -0.59911209 -145.83981 -0.59488451 -145.82191 -41.546516 -26.699242
7300000000 -28.040909 -136.92502 -0.5956713 -147.87854 -0.59305626 -147.8638 -41.779324 -20.736105
7400000000 -28.447475 -138.47986 -0.60175633 -149.90817 -0.59704798 -149.90123 -41.974239 -22.94936
7500000000 -28.677437 -139.51009 -0.60584122 -151.92409 -0.59985656 -151.90076 -40.858192 -25.782309
7600000000 -29.186659 -140.44023 -0.60545641 -153.93324 -0.60167992 -153.91599 -40.359329 -27.767487
7700000000 -29.48732 -141.7968 -0.6056186 -155.93155 -0.60225737 -155.93457 -38.928822 -20.51042
7800000000 -29.857977 -143.231 -0.60596412 -157.98268 -0.60371381 -157.96208 -38.806499 -15.622401
7900000000 -30.120428 -144.62828 -0.60803664 -160.00989 -0.60431206 -159.99864 -38.970356 -8.7819567
8000000000 -30.675734 -146.2861 -0.61285174 -162.03044 -0.60760313 -162.01363 -39.663654 -15.288883
8100000000 -31.20962 -146.31915 -0.61462575 -164.06694 -0.61186785 -164.04042 -39.425037 -20.53805
8200000000 -31.77293 -147.21078 -0.6173138 -166.0936 -0.61428046 -166.09241 -37.75573 -29.326456
8300000000 -32.350475 -148.00105 -0.62075359 -168.13431 -0.61658573 -168.11075 -36.475132 -17.959667
8400000000 -32.976097 -152.03407 -0.62596816 -170.18793 -0.62277222 -170.1693 -36.036835 -3.6988814
8500000000 -33.992924 -151.62447 -0.64721543 -172.26787 -0.64307255 -172.27919 -37.295883 28.654034
8600000000 -33.735481 -151.40236 -0.71355867 -174.25716 -0.71074027 -174.2249 -34.837551 91.060707
8700000000 -34.248569 178.64532 -0.71243119 -175.15558 -0.70663142 -175.11462 -26.900431 92.58802
8800000000 -40.247025 -146.55464 -0.55849534 -177.64322 -0.55071145 -177.63452 -29.749565 67.551453
8900000000 -37.198887 -143.44426 -0.58987075 179.87202 -0.58809084 179.88509 -37.338993 62.298786
9000000000 -37.478317 -149.65428 -0.61667734 177.80045 -0.61403292 177.80441 -51.748852 -21.314917
9100000000 -39.451584 -143.50101 -0.63062119 175.78416 -0.62699294 175.8058 -39.797466 -58.567631
9200000000 -39.894428 -135.65742 -0.63516116 173.78308 -0.63301307 173.79015 -36.400776 -49.987984
9300000000 -41.577518 -124.83372 -0.64201784 171.77689 -0.63993359 171.79182 -35.470997 -33.517006
9400000000 -41.512753 -119.65526 -0.64562207 169.78293 -0.64516735 169.80455 -35.722538 -27.46162
9500000000 -43.016827 -104.58389 -0.64898217 167.78445 -0.64694709 167.79359 -37.125923 -21.528923
9600000000 -41.8344 -90.784233 -0.65315324 165.76561 -0.64811504 165.78291 -38.357582 -31.074343
9700000000 -41.770924 -77.792633 -0.65383804 163.76044 -0.64933777 163.7704 -38.719894 -38.405098
9800000000 -39.822594 -68.51416 -0.65492874 161.74844 -0.65119588 161.76027 -37.413937 -43.459869
9900000000 -39.707981 -64.094696 -0.65952039 159.73122 -0.65462863 159.74832 -36.973686 -39.557228
10000000000 -37.894482 -58.533478 -0.66328633 157.71037 -0.66049558 157.72902 -36.936798 -39.363907
10100000000 -37.296925 -56.128204 -0.6672315 155.70828 -0.66182756 155.72774 -38.319962 -32.463314
10200000000 -35.34584 -51.378571 -0.6675083 153.69469 -0.66308731 153.70399 -39.489342 -40.97821
10300000000 -34.765171 -51.401211 -0.66966051 151.66362 -0.66585708 151.6823 -40.070095 -47.201591
10400000000 -33.792496 -50.549484 -0.67542046 149.68517 -0.67133647 149.66908 -38.886616 -57.682117
10500000000 -33.390633 -55.246323 -0.67353231 147.65024 -0.67444801 147.6532 -38.147427 -55.023239
10600000000 -32.493023 -53.046822 -0.67909521 145.61072 -0.67436576 145.65248 -37.404202 -54.130943
10700000000 -31.63891 -56.045258 -0.68024915 143.6237 -0.67441446 143.66101 -38.594303 -48.823048
10800000000 -30.813801 -53.95454 -0.68417281 141.61961 -0.68248522 141.63974 -38.935623 -46.167713
10900000000 -30.049631 -55.003307 -0.68865412 139.63704 -0.68436825 139.63997 -41.273956 -48.26754
11000000000 -29.696117 -55.287434 -0.69167131 137.62721 -0.68707919 137.63475 -41.537083 -57.87022
11100000000 -29.246351 -58.509411 -0.69461554 135.60336 -0.6924715 135.63359 -42.601936 -68.794907
11200000000 -28.928923 -59.624569 -0.69801283 133.6272 -0.69532335 133.6147 -40.780643 -72.278214
11300000000 -28.284983 -61.757309 -0.70137209 131.58934 -0.69730276 131.61131 -42.021873 -79.288162
11400000000 -27.845661 -63.389034 -0.70301008 129.58572 -0.70022774 129.62656 -40.872501 -77.594986
11500000000 -27.19895 -64.85405 -0.706092 127.60815 -0.70285726 127.61329 -41.433723 -82.739098
11600000000 -26.99041 -67.26123 -0.70975167 125.58213 -0.70636433 125.59413 -41.865162 -84.260628
11700000000 -26.518644 -68.709854 -0.71176118 123.60172 -0.70847559 123.59605 -44.00861 -93.868111
11800000000 -26.412008 -71.570412 -0.71330637 121.60429 -0.70956111 121.61868 -43.966335 -97.076836
11900000000 -25.934654 -72.632523 -0.7165364 119.60938 -0.71277982 119.63561 -44.434982 -117.95998
12000000000 -25.826019 -75.653206 -0.72012204 117.61015 -0.71599454 117.62944 -44.584465 -117.74564
12100000000 -25.415602 -76.987564 -0.72256368 115.62862 -0.72073221 115.64536 -43.075817 -140.73264
12200000000 -25.147173 -80.79837 -0.72344947 113.67188 -0.7215901 113.66523 -42.170658 -144.29124
12300000000 -24.948973 -81.712463 -0.72387511 111.66811 -0.72056538 111.65866 -41.677956 -152.4054
12400000000 -24.751629 -84.85807 -0.72265208 109.68516 -0.71942544 109.69083 -42.157013 -158.50127
12500000000 -24.706179 -85.576988 -0.71833616 107.68974 -0.71746093 107.67747 -41.117321 -172.68364
12600000000 -24.444077 -89.180634 -0.71909517 105.6814 -0.7147004 105.7084 -41.091206 -177.95512
12700000000 -24.458775 -90.497589 -0.71445781 103.67939 -0.71414173 103.7101 -39.564693 169.58241
12800000000 -24.041092 -93.738541 -0.71288323 101.67509 -0.70929903 101.71638 -39.261246 164.2635
12900000000 -24.114252 -95.442764 -0.70730376 99.664413 -0.70599884 99.67218 -37.734283 157.25539
13000000000 -23.780125 -96.7827 -0.70902377 97.655975 -0.70503777 97.668327 -37.68671 152.1048
13100000000 -23.970367 -99.125496 -0.70707864 95.60791 -0.7021966 95.631241 -36.665283 148.12537
13200000000 -23.72756 -100.25311 -0.7051084 93.607895 -0.70143199 93.610771 -36.98307 140.1788
13300000000 -23.700487 -103.758 -0.70374817 91.560143 -0.69977397 91.574356 -36.412025 137.28334
13400000000 -23.48362 -103.91748 -0.70448118 89.522156 -0.69833207 89.548492 -36.072781 127.41867
13500000000 -23.416368 -107.13913 -0.70328856 87.499664 -0.69918948 87.508141 -35.182503 123.31464
13600000000 -23.375397 -107.77351 -0.70731622 85.459755 -0.70328915 85.478004 -34.792744 116.49554
13700000000 -23.281149 -110.45565 -0.70788932 83.412933 -0.70795298 83.433739 -33.888111 116.96925
13800000000 -23.304979 -111.51848 -0.71105218 81.354462 -0.71055156 81.364609 -33.578358 112.45109
13900000000 -22.980755 -114.03666 -0.72417849 79.29081 -0.7233085 79.318604 -33.98473 115.17194
14000000000 -22.889847 -115.74744 -0.74242663 77.341896 -0.73690075 77.348297 -34.179241 111.25367
14100000000 -22.644018 -120.97392 -0.74261427 75.482948 -0.73874056 75.502014 -33.072514 116.89123
14200000000 -23.019144 -123.43129 -0.72346872 73.485664 -0.72579086 73.497322 -31.758863 107.42773
14300000000 -22.868013 -125.52213 -0.72237903 71.430168 -0.71827507 71.452766 -31.281689 106.39083
14400000000 -23.108576 -127.73811 -0.72162676 69.380341 -0.71614408 69.38858 -30.779272 100.81965
14500000000 -22.95323 -128.86275 -0.72543108 67.322655 -0.72164756 67.346069 -30.713266 100.74937
14600000000 -23.189871 -131.2764 -0.72556967 65.287315 -0.72260684 65.305428 -30.323807 95.973869
14700000000 -22.947702 -132.7366 -0.73477137 63.237068 -0.73261786 63.247005 -30.36524 94.200912
14800000000 -22.800707 -136.42781 -0.74997169 61.265362 -0.74850136 61.284264 -29.785707 93.64698
14900000000 -22.682821 -139.1299 -0.74602848 59.359077 -0.74471831 59.37788 -29.110571 96.205162
15000000000 -22.896713 -142.66502 -0.74053609 57.321095 -0.73572427 57.349232 -28.98748 93.297714
15100000000 -22.998556 -142.43115 -0.74104047 55.270683 -0.73816037 55.285683 -29.288992 91.98452
15200000000 -22.964281 -147.04121 -0.74702168 53.278702 -0.74508584 53.3008 -29.270248 89.337975
15300000000 -23.165146 -148.05089 -0.74085873 51.272381 -0.74040532 51.283695 -28.782803 85.129547
15400000000 -22.940508 -152.19244 -0.742477 49.224255 -0.73745286 49.232365 -28.035254 81.445869
15500000000 -23.130613 -152.92793 -0.74494141 47.179874 -0.74165702 47.241447 -27.693333 80.854538
15600000000 -22.852327 -156.01604 -0.75093633 45.168648 -0.74842143 45.182655 -27.289843 80.976753
15700000000 -23.308382 -158.12177 -0.75017786 43.147091 -0.74665523 43.177177 -27.666502 81.658752
15800000000 -23.270172 -161.21721 -0.75569904 41.14312 -0.75263619 41.190804 -27.719257 79.499847
15900000000 -23.625687 -164.82018 -0.75851935 39.124035 -0.7554853 39.153851 -27.913568 76.018234
16000000000 -23.294544 -167.22455 -0.76075017 37.114433 -0.7583831 37.145542 -27.417747 72.427788
16100000000 -23.530258 -171.32883 -0.76149786 35.132145 -0.76343238 35.125797 -27.094839 70.270874
16200000000 -23.335709 -172.01843 -0.76607454 33.1106 -0.76648372 33.127117 -26.375124 69.425392
16300000000 -23.703476 -176.46054 -0.77266586 31.115835 -0.77199948 31.116301 -26.574064 69.113068
16400000000 -23.899364 -177.82124 -0.77865678 29.093178 -0.77616507 29.11372 -26.204994 69.156235
16500000000 -24.058428 175.80522 -0.77712375 27.11412 -0.77568102 27.102875 -26.528444 67.615326
16600000000 -24.252115 173.63341 -0.77931339 25.08997 -0.77932918 25.098267 -26.100237 64.666847
16700000000 -23.924192 168.60022 -0.78275657 23.067207 -0.78355545 23.108177 -26.193983 62.30164
16800000000 -24.18009 167.33421 -0.78778428 21.086536 -0.78760552 21.101242 -25.486794 61.287521
16900000000 -24.028303 164.36107 -0.79312426 19.072115 -0.78698152 19.095041 -25.575037 59.698673
17000000000 -24.838461 161.20064 -0.79006344 17.069811 -0.78877813 17.112476 -25.301476 61.239975
17100000000 -24.801941 156.76543 -0.79259199 15.085347 -0.79130626 15.085185 -25.52739 58.758793
17200000000 -25.154072 149.72203 -0.79805017 13.082429 -0.79480278 13.106974 -25.253855 59.433788
17300000000 -24.591583 148.25015 -0.79896015 11.094228 -0.79928875 11.09349 -25.27614 54.629116
17400000000 -24.517002 143.83681 -0.80441016 9.1159439 -0.80106932 9.1185646 -24.945118 54.384735
17500000000 -24.562805 145.07838 -0.8016988 7.058373 -0.80364072 7.0720234 -24.599419 51.344177
17600000000 -25.096628 138.8203 -0.80908817 5.0909381 -0.8013311 5.1054769 -24.403894 54.273605
17700000000 -25.337479 136.27745 -0.81099659 3.0892527 -0.8083666 3.1312258 -24.335634 52.457085
17800000000 -25.457209 127.43487 -0.81098318 1.096719 -0.81036234 1.0621264 -24.597589 54.475471
17900000000 -25.400595 124.96037 -0.81807995 -0.89402187 -0.81136417 -0.90183949 -24.706823 50.310322
18000000000 -24.845732 121.34168 -0.815009 -2.9242325 -0.81347525 -2.9091444 -24.7514 48.031754
18100000000 -25.164713 121.03867 -0.81317592 -4.8965712 -0.81205225 -4.8765545 -24.258699 42.899124
18200000000 -25.190371 116.78785 -0.81592977 -6.8778605 -0.81618869 -6.8597231 -23.886024 43.194477
18300000000 -25.917963 111.78471 -0.81807244 -8.882247 -0.81267148 -8.8671103 -23.490757 43.541359
18400000000 -25.443321 105.23689 -0.81609064 -10.889027 -0.81304383 -10.844679 -23.490503 46.407219
18500000000 -25.575357 98.829865 -0.81938928 -12.883666 -0.81494403 -12.841174 -23.810493 46.605274
18600000000 -25.256783 96.873871 -0.81736964 -14.908278 -0.8167057 -14.901099 -24.309381 44.289551
18700000000 -25.584663 91.932404 -0.81821561 -16.881699 -0.81438631 -16.883469 -24.246353 38.11013
18800000000 -25.628069 90.866074 -0.81762809 -18.906363 -0.81152457 -18.888233 -23.839542 34.20517
18900000000 -25.656507 82.560661 -0.81375563 -20.886263 -0.81016612 -20.854246 -23.142736 32.280224
19000000000 -25.640093 79.967651 -0.81817061 -22.868967 -0.81378746 -22.864473 -22.774258 35.247383
19100000000 -25.103233 72.475388 -0.8189857 -24.875334 -0.81401604 -24.833567 -22.775188 35.499149
19200000000 -25.315622 70.031303 -0.82069808 -26.872831 -0.81689757 -26.856903 -23.08674 38.487259
19300000000 -24.884367 65.28199 -0.81689191 -28.887545 -0.81407189 -28.824219 -23.5193 34.133728
19400000000 -25.211752 62.508915 -0.81749964 -30.876858 -0.81239247 -30.875013 -23.577206 32.271278
19500000000 -24.730782 59.889435 -0.81316215 -32.89344 -0.81115294 -32.867283 -23.235828 27.728146
19600000000 -25.120369 54.361324 -0.81297892 -34.9058 -0.8093124 -34.900764 -22.942354 28.424921
19700000000 -24.587738 51.918983 -0.81372786 -36.922466 -0.81081438 -36.885456 -22.536345 27.546387
19800000000 -24.534042 44.567173 -0.80814797 -38.926495 -0.80917424 -38.91069 -22.813129 30.612617
19900000000 -24.035242 43.869999 -0.8133601 -40.942471 -0.80851716 -40.91618 -22.740387 28.097879
20000000000 -23.859983 39.643291 -0.81235313 -43.012341 -0.80821472 -42.953156 -23.026997 27.488791
20100000000 -23.725203 40.047096 -0.81183195 -45.008747 -0.80594099 -44.988327 -22.570147 24.087151
20200000000 -23.677002 34.520569 -0.81392515 -47.05479 -0.81294179 -46.998589 -22.568666 22.885141
20300000000 -23.950653 30.724144 -0.81583041 -49.038891 -0.81326896 -49.04451 -22.109783 23.280012
20400000000 -23.400103 23.93145 -0.81435794 -51.088856 -0.81589383 -51.046459 -22.586487 23.910988
20500000000 -23.290207 20.387918 -0.82168567 -53.106377 -0.81990325 -53.084957 -22.454697 22.841
20600000000 -22.740519 17.421438 -0.8342979 -55.12339 -0.83300918 -55.108318 -22.874931 17.979534
20700000000 -23.326508 15.0141 -0.8342725 -57.044636 -0.83609253 -57.027283 -22.429129 14.39022
20800000000 -23.135876 12.815162 -0.84042817 -58.968159 -0.83587605 -58.957531 -22.475422 10.50207
20900000000 -23.593565 7.6182461 -0.81792867 -60.945854 -0.81641865 -60.948116 -21.948051 13.459264
21000000000 -23.079916 4.8138447 -0.81664324 -62.919895 -0.81318873 -62.958008 -22.18498 14.369623
21100000000 -22.733732 -0.84888363 -0.8135733 -65.003456 -0.81002575 -65.013268 -22.119093 15.657833
21200000000 -22.437216 -0.62634844 -0.81806028 -67.089279 -0.81179136 -67.086945 -22.672571 14.520502
21300000000 -22.459986 -4.627821 -0.81517923 -69.137955 -0.81603438 -69.14521 -22.80196 11.557933
21400000000 -22.627764 -4.5868888 -0.82486904 -71.190392 -0.82382435 -71.181335 -22.685226 6.3582358
21500000000 -22.729673 -12.668517 -0.82926899 -73.177917 -0.82828557 -73.163582 -22.52253 2.6281717
21600000000 -22.846197 -13.935762 -0.82512319 -75.110466 -0.82519549 -75.088028 -22.14732 2.6131294
21700000000 -22.242846 -19.519947 -0.81974286 -77.124535 -0.81372631 -77.100746 -21.837284 4.6619983
21800000000 -22.163189 -19.623652 -0.81850123 -79.134003 -0.8130551 -79.098267 -22.091225 6.5248742
21900000000 -21.699472 -21.974455 -0.81749278 -81.147194 -0.81461459 -81.130432 -22.146194 7.1751285
22000000000 -22.228012 -22.294933 -0.82822949 -83.192932 -0.82446593 -83.167702 -23.040201 4.8641911
22100000000 -22.001606 -25.336979 -0.83226568 -85.215698 -0.82829654 -85.176315 -22.960331 0.28537613
22200000000 -22.628664 -30.685537 -0.83740264 -87.248642 -0.83548945 -87.231895 -23.188507 -4.1568999
22300000000 -22.19808 -32.902176 -0.83266205 -89.226654 -0.8337518 -89.196899 -22.426386 -5.1207156
22400000000 -22.214384 -37.544369 -0.83244473 -91.176216 -0.82623553 -91.1548 -22.542904 -4.3220019
22500000000 -21.827829 -36.406433 -0.82502741 -93.187721 -0.82083565 -93.149864 -22.340231 -0.38301399
22600000000 -22.14941 -38.846661 -0.82620078 -95.185211 -0.81905633 -95.163742 -23.019304 -0.8573935
22700000000 -22.463085 -37.287582 -0.82305777 -97.193954 -0.82034725 -97.201012 -23.273796 -0.29246074
22800000000 -22.748493 -44.745674 -0.82815874 -99.224861 -0.82454824 -99.214363 -23.789745 -6.7541327
22900000000 -22.872982 -47.118759 -0.82545662 -101.27695 -0.82183772 -101.24548 -23.290619 -7.5306211
23000000000 -22.102203 -53.225868 -0.82535517 -103.2648 -0.81761622 -103.30451 -23.125729 -10.767492
23100000000 -22.143108 -52.396412 -0.82214051 -105.30266 -0.81722903 -105.32311 -22.820112 -5.9771771
23200000000 -21.867668 -53.003757 -0.82471913 -107.33044 -0.82233477 -107.34344 -23.239368 -7.9503651
23300000000 -22.84499 -53.338634 -0.82266104 -109.38164 -0.81974566 -109.37837 -24.095209 -5.8219757
23400000000 -23.077656 -57.446045 -0.831523 -111.41435 -0.82368606 -111.3833 -24.589466 -14.806147
23500000000 -23.86854 -65.845642 -0.82827681 -113.44416 -0.82537174 -113.44204 -24.827881 -16.662596
23600000000 -23.082579 -68.521896 -0.83070362 -115.46335 -0.82557774 -115.44017 -23.682274 -22.606827
23700000000 -22.849461 -73.02404 -0.82988375 -117.44855 -0.82503116 -117.44048 -23.636871 -15.532022
23800000000 -22.558113 -71.691452 -0.83329391 -119.47376 -0.83323932 -119.46536 -23.776167 -13.24152
23900000000 -23.243694 -75.250145 -0.83622062 -121.50954 -0.83268803 -121.48167 -24.85289 -8.0913019
24000000000 -24.147671 -73.98069 -0.83924532 -123.54586 -0.83586377 -123.53318 -26.564434 -13.655948
24100000000 -24.615927 -83.887161 -0.83654135 -125.55677 -0.83513898 -125.56689 -27.612894 -22.042824
24200000000 -24.778719 -86.622856 -0.83757687 -127.55609 -0.83127159 -127.5272 -26.424812 -28.944891
24300000000 -23.959274 -92.988808 -0.83709091 -129.59962 -0.82982957 -129.56921 -25.787365 -31.205048
24400000000 -24.155205 -90.686882 -0.83631474 -131.59819 -0.83742708 -131.56862 -24.925224 -23.002987
24500000000 -24.148485 -93.588036 -0.83610731 -133.55768 -0.83599901 -133.54073 -25.868038 -15.577896
24600000000 -25.848885 -94.948105 -0.84065247 -135.60951 -0.84232563 -135.5706 -26.915213 -7.817183
24700000000 -25.975224 -101.83864 -0.84679615 -137.64897 -0.84486341 -137.60049 -29.269554 -6.4450393
24800000000 -27.226118 -112.95821 -0.84909737 -139.68199 -0.84582323 -139.66666 -30.748589 -14.969861
24900000000 -26.163309 -113.6712 -0.84777308 -141.7361 -0.8417958 -141.67647 -30.941496 -24.583511
25000000000 -26.652109 -118.61715 -0.8447147 -143.72395 -0.8424812 -143.71687 -29.365833 -27.900085
25100000000 -26.521898 -113.14568 -0.84209651 -145.72884 -0.83737624 -145.70226 -28.742905 -16.150951
25200000000 -28.15061 -122.68137 -0.84555089 -147.6918 -0.83603263 -147.6516 -28.782223 -10.01681
25300000000 -29.371603 -121.55013 -0.85052377 -149.67569 -0.84984529 -149.68881 -29.905764 7.3237867
25400000000 -29.998859 -145.94994 -0.84894252 -151.75815 -0.84957016 -151.72482 -31.586132 5.9559407
25500000000 -30.690571 -146.60754 -0.8585071 -153.78506 -0.85543549 -153.75018 -31.936522 17.160963
25600000000 -29.074265 -155.32892 -0.86413407 -155.86894 -0.85482907 -155.82552 -33.187157 13.419331
25700000000 -30.707945 -156.22928 -0.85409665 -157.8537 -0.85223788 -157.81329 -31.594193 14.588149
25800000000 -30.437408 -163.98164 -0.86167592 -159.92148 -0.850986 -159.87167 -31.334616 20.305109
25900000000 -33.2882 -179.4471 -0.85594463 -161.89456 -0.85642505 -161.87646 -30.730114 25.314398
26000000000 -32.457615 174.50056 -0.85518807 -163.91759 -0.85803807 -163.86588 -29.482567 35.272205
26100000000 -32.053627 147.59209 -0.86924052 -165.96771 -0.8636477 -165.91589 -29.620302 41.108482
26200000000 -31.797445 145.62253 -0.86264038 -167.96745 -0.86042821 -167.93144 -28.539049 43.190338
26300000000 -30.136961 132.56836 -0.8665747 -169.99796 -0.86951375 -169.95969 -29.160797 51.27615
26400000000 -30.648108 134.11844 -0.87732428 -172.08359 -0.86990845 -172.0475 -27.473986 46.004578
26500000000 -28.675085 122.48924 -0.87795228 -174.02992 -0.87822223 -174.00146 -27.871923 53.490204
26600000000 -29.894657 109.19785 -0.87834042 -176.10999 -0.88185483 -176.00923 -26.484045 49.358742
26700000000 -27.982552 103.14388 -0.88187861 -178.16005 -0.88107157 -178.10585 -26.464417 52.26754
26800000000 -27.859526 96.810066 -0.88393354 179.92032 -0.88204825 179.94171 -25.051105 52.970524
26900000000 -25.977509 96.932007 -0.88507879 177.9292 -0.88362575 177.94574 -25.01997 55.929848
27000000000 -26.143385 87.037895 -0.88561201 175.8618 -0.89656639 175.79387 -23.726803 57.878197
27100000000 -25.601192 88.953056 -0.89469033 173.81696 -0.91249841 173.78665 -24.735186 56.108898
27200000000 -24.226467 79.144104 -0.90264636 171.75803 -0.91141742 171.79301 -23.411896 53.912769
27300000000 -24.425943 78.491737 -0.92599678 169.86183 -0.9107942 169.83914 -23.464005 48.940678
27400000000 -23.175497 72.814308 -0.93012363 167.66855 -0.90707833 167.67336 -21.830095 51.546139
27500000000 -23.358721 72.674904 -0.92859167 165.73738 -0.90494293 165.79196 -21.700508 50.174931
27600000000 -22.601419 65.847679 -0.93057066 163.79764 -0.93144917 163.79921 -21.175064 55.649197
27700000000 -22.672953 64.046242 -0.92746246 161.78378 -0.92787331 161.7184 -21.526316 51.346981
27800000000 -21.241512 59.72543 -0.93213314 159.70007 -0.92986226 159.80745 -21.324753 52.547661
27900000000 -21.204052 57.580906 -0.95656157 157.59392 -0.92891061 157.80525 -21.086515 44.625217
28000000000 -20.3046 56.419506 -0.95967972 155.5798 -0.95466614 155.69286 -20.061514 45.898735
28100000000 -20.749153 51.33091 -0.95601857 153.71767 -0.94561779 153.63843 -19.700109 41.776497
28200000000 -20.040596 49.648048 -0.97818357 151.67194 -0.957699 151.68945 -19.152067 44.784939
28300000000 -19.677996 41.43066 -0.96629333 149.57661 -0.94741333 149.60741 -19.327232 43.258083
28400000000 -19.373154 42.010822 -0.98338443 147.69238 -0.99368387 147.60425 -19.216541 43.42429
28500000000 -18.864775 38.236477 -0.97878802 145.73863 -0.96569157 145.67082 -18.81278 36.242912
28600000000 -18.686737 38.150177 -0.96605337 143.70424 -0.96541709 143.62906 -18.491537 37.117493
28700000000 -18.142488 34.059647 -0.97472417 141.72896 -0.97220784 141.7308 -17.725964 34.976921
28800000000 -18.134388 35.80574 -1.0098066 139.54836 -0.99035615 139.68121 -17.486292 36.842064
28900000000 -17.335245 30.564749 -1.0128783 137.65514 -0.99738598 137.56256 -17.708321 35.462299
29000000000 -17.917286 28.197218 -1.0012842 135.72241 -1.006945 135.53285 -17.660009 33.465076
29100000000 -17.115051 25.006907 -0.98299843 133.52713 -1.0088503 133.47762 -17.705902 26.359783
29200000000 -17.274303 22.58959 -1.0295218 131.6971 -1.0028975 131.70714 -16.852312 27.162031
29300000000 -16.603951 23.444542 -1.0223979 129.5493 -1.0055499 129.65593 -16.206079 24.464924
29400000000 -16.578217 19.42235 -1.0157651 127.69715 -1.0190068 127.83804 -15.935091 29.328741
29500000000 -16.311886 19.832657 -1.0236467 125.69883 -1.0222963 125.81572 -15.995014 26.584831
29600000000 -16.491934 15.850776 -1.0207063 123.62252 -1.0247904 123.76213 -16.503567 29.277004
29700000000 -16.33819 16.811911 -1.0372714 121.76682 -1.0251555 121.69051 -16.325628 20.497925
29800000000 -16.048431 10.909196 -1.0559543 119.61256 -1.0355986 119.63814 -16.244944 20.449179
29900000000 -15.820209 11.045696 -1.041435 117.67519 -1.0204767 117.72529 -15.409577 14.663569
30000000000 -15.125065 8.8140335 -1.0501469 115.62183 -1.0674151 115.7444 -15.257573 17.610355
30100000000 -15.359078 8.3528032 -1.0551856 113.59249 -1.0538286 113.70969 -14.670577 14.745295
30200000000 -14.948837 5.387332 -1.0662072 111.7384 -1.0613822 111.74383 -15.172953 18.296715
30300000000 -15.483447 2.2125545 -1.0695757 109.67315 -1.0675528 109.72615 -15.00208 13.636309
30400000000 -15.064641 0.41741621 -1.0533783 107.72603 -1.0635092 107.71722 -15.715236 11.685644
30500000000 -15.085948 -2.5593622 -1.0759125 105.69348 -1.0654135 105.77455 -14.834636 7.4575663
30600000000 -14.7189 -3.4627182 -1.0636508 103.78083 -1.0578021 103.77629 -15.166816 5.4574032
30700000000 -14.669629 -5.655026 -1.0839211 101.8102 -1.0626423 101.78674 -14.248186 4.2755089
30800000000 -14.423744 -6.4999528 -1.1179981 99.923767 -1.0823379 99.793747 -14.679984 5.1436458
30900000000 -14.534472 -9.467803 -1.0809031 97.838318 -1.1199883 97.916985 -14.188854 3.8349144
31000000000 -14.276855 -9.2360554 -1.0959496 95.855942 -1.0834135 95.857727 -14.70693 0.79740632
31100000000 -14.745695 -15.797639 -1.0792124 93.809814 -1.070609 93.977814 -14.529346 -1.6411806
31200000000 -14.367502 -15.406322 -1.1043999 92.103157 -1.0810989 91.819351 -14.370685 -6.1027107
31300000000 -14.119063 -19.668917 -1.0628254 89.967827 -1.082862 89.885582 -14.191885 -5.4229612
31400000000 -13.79705 -18.16831 -1.077757 88.248665 -1.0789791 88.052528 -13.975265 -8.0321569
31500000000 -13.767792 -19.821817 -1.0872728 86.100426 -1.1053745 86.03582 -13.921344 -5.8610497
31600000000 -14.347867 -19.421104 -1.0862012 84.205017 -1.1149944 84.019608 -14.423756 -8.5774155
31700000000 -14.318298 -24.060911 -1.0943605 82.053947 -1.0922174 81.931892 -14.277986 -9.5785913
31800000000 -14.357822 -26.693913 -1.1356981 79.979134 -1.0798856 80.010635 -14.477199 -14.606361
31900000000 -13.60156 -30.801004 -1.0933853 78.028427 -1.084681 78.045509 -14.01329 -16.56596
32000000000 -13.861266 -30.088009 -1.1147133 76.179871 -1.0859263 76.010368 -14.137574 -17.7687
32100000000 -13.693947 -28.720734 -1.0994337 74.121223 -1.0880622 74.229408 -13.518232 -18.790297
32200000000 -14.374412 -29.477816 -1.0723538 72.229507 -1.0934141 72.146362 -13.99552 -18.999111
32300000000 -14.293002 -31.606741 -1.1214848 70.069412 -1.1115705 70.203987 -13.980152 -18.850664
32400000000 -14.442772 -38.011429 -1.0724043 68.159698 -1.1024013 68.275764 -14.670217 -22.623119
32500000000 -14.166613 -38.110615 -1.0776094 66.201118 -1.0706235 66.363869 -14.461581 -26.386446
32600000000 -14.087049 -41.927887 -1.0836414 64.37912 -1.0769519 64.26886 -14.549475 -30.423862
32700000000 -14.169621 -37.129124 -1.0808696 62.261539 -1.0657098 62.177166 -14.035766 -31.37833
32800000000 -14.3368 -42.355385 -1.0727744 60.285366 -1.0720572 60.403954 -13.804832 -33.571804
32900000000 -15.023314 -41.441216 -1.0847322 58.040375 -1.0991089 58.218285 -14.108238 -30.67551
33000000000 -14.795286 -47.036575 -1.074311 56.254238 -1.0626248 56.447865 -14.359122 -32.342361
33100000000 -14.840042 -48.218975 -1.0639524 54.278587 -1.0550674 54.505749 -15.092788 -33.400311
33200000000 -14.445498 -49.256866 -1.0445008 52.486641 -1.0530695 52.425053 -14.755081 -40.559856
33300000000 -15.027705 -50.32045 -1.0393821 50.089928 -1.0563822 50.364407 -15.05512 -41.266983
33400000000 -14.904059 -50.137779 -1.0693386 48.16148 -1.0635297 48.209095 -14.549864 -44.544094
33500000000 -15.245794 -53.247009 -1.0395133 46.372364 -1.0597794 46.407593 -14.835109 -44.107845
33600000000 -15.133512 -52.777225 -1.0537472 44.315128 -1.0594748 44.230572 -14.762335 -44.765011
33700000000 -15.338744 -55.813801 -1.0729738 42.225163 -1.0698495 42.446201 -15.303373 -45.309116
33800000000 -15.479816 -57.32452 -1.057626 40.230122 -1.0836344 40.596268 -15.627776 -48.728371
33900000000 -15.810574 -60.465828 -1.0346965 38.081871 -1.020574 38.29628 -15.713703 -51.281624
34000000000 -15.620634 -58.911366 -1.0351092 36.256577 -1.0507694 36.106464 -15.435017 -50.935497
34100000000 -15.889908 -61.601048 -1.0019627 34.161102 -1.0371113 34.26749 -15.65922 -54.900204
34200000000 -16.154305 -58.696236 -1.006427 32.199387 -0.99488413 32.31749 -16.240341 -50.661045
34300000000 -16.403349 -63.641464 -1.0520146 30.131073 -1.0127845 30.173597 -16.561291 -57.347347
34400000000 -16.664242 -62.598103 -1.0410405 28.154381 -1.028758 28.2428 -16.838499 -57.45187
34500000000 -16.626263 -66.449303 -1.0820855 26.084805 -1.0496861 26.182585 -16.894005 -62.634064
34600000000 -16.984701 -64.556885 -1.0125152 24.091349 -1.0322378 23.863773 -16.746275 -60.397083
34700000000 -17.044127 -65.428444 -1.0429151 22.109274 -1.0361645 22.178661 -17.167814 -62.30323
34800000000 -17.897825 -64.999214 -1.0430231 20.135981 -1.0349833 20.18582 -17.69582 -60.438358
34900000000 -18.051912 -67.066811 -1.007181 18.206257 -1.0028366 17.994085 -18.530067 -61.916122
35000000000 -18.634197 -68.047577 -1.0426433 15.962263 -0.99054152 16.176817 -19.893522 -67.334473
35100000000 -18.237022 -65.804276 -0.98295593 13.880631 -1.0162288 14.077093 -19.367792 -73.138016
35200000000 -19.343292 -67.091324 -0.9762187 12.058017 -0.97971398 12.134057 -19.450972 -77.518799
35300000000 -19.018578 -67.008972 -1.0084997 9.7118092 -1.0315909 9.8921013 -19.217505 -72.743271
35400000000 -20.06465 -69.149734 -1.0214709 7.7962546 -1.0079607 7.9463482 -19.457327 -72.739578
35500000000 -20.387806 -59.93642 -1.0241101 5.819839 -1.020313 5.8366404 -20.786295 -72.558899
35600000000 -20.973549 -71.539505 -1.0008302 3.7421598 -0.98281246 3.813375 -22.546726 -73.098305
35700000000 -21.278564 -64.656876 -1.0156499 1.7766775 -1.0046197 1.7983035 -22.990389 -80.62925
35800000000 -20.707727 -63.946419 -1.0136101 -0.2239098 -1.0574394 -0.098249294 -22.770576 -83.127716
35900000000 -21.818857 -55.144436 -1.014112 -2.3779738 -1.0243456 -2.3330059 -23.432465 -88.25238
36000000000 -21.670265 -59.098049 -0.98375779 -4.1116819 -0.99749249 -3.8487639 -22.981791 -78.364723
36100000000 -23.106689 -49.23922 -1.0091486 -6.3996224 -1.0223087 -6.4048858 -25.599871 -80.754166
36200000000 -23.090302 -57.078346 -1.0149003 -8.4672823 -1.0314955 -8.1384821 -26.212698 -74.714783
36300000000 -24.961506 -52.581066 -1.0302184 -10.819246 -1.0339124 -10.555342 -28.744839 -90.150436
36400000000 -24.295227 -52.201378 -0.99278778 -12.51952 -0.98990715 -12.528083 -27.52018 -92.331551
36500000000 -23.330736 -54.283558 -0.97147089 -14.769577 -0.97625113 -14.656271 -28.880077 -95.018044
36600000000 -21.539577 -44.379932 -0.94132411 -16.654963 -0.95629054 -16.497019 -27.2992 -56.444641
36700000000 -23.055986 -30.445251 -0.98393828 -18.615559 -1.0036101 -18.610157 -31.549562 -54.350567
36800000000 -22.540052 -21.676533 -1.0211048 -20.640554 -1.031502 -20.622732 -29.448549 1.4275475
36900000000 -25.373693 -13.097269 -1.0128629 -23.007803 -1.0019369 -22.677015 -36.238804 26.215549
37000000000 -23.442238 -16.050602 -0.98145002 -24.757639 -1.0082009 -24.786455 -32.736507 36.013226
37100000000 -24.558393 -38.296425 -1.0262361 -27.221739 -0.99580348 -27.230314 -42.038441 32.782593
37200000000 -21.477854 -24.734091 -0.98269916 -29.193499 -0.99762082 -29.208006 -32.341202 10.154133
37300000000 -21.096436 -15.596782 -1.0279787 -31.104221 -0.97308606 -31.293417 -28.683455 -7.1045294
37400000000 -19.420574 -3.9569097 -0.99141502 -33.031254 -0.97595584 -33.114849 -24.507523 25.646372
37500000000 -21.298437 -3.943356 -1.0358605 -35.382076 -1.0619324 -35.132374 -23.454819 28.18646
37600000000 -21.135212 0.035269264 -1.0427575 -37.127922 -1.050629 -36.949558 -22.790714 44.025421
37700000000 -20.956144 -13.555455 -1.0623987 -39.382011 -1.0482913 -39.361935 -23.028793 47.595795
37800000000 -18.807571 -9.489296 -1.0242025 -41.476452 -1.0549566 -41.542942 -24.28912 42.393929
37900000000 -17.955351 -10.923996 -1.066583 -43.478065 -1.0553087 -43.530415 -25.023977 33.128544
38000000000 -17.810259 -0.72293025 -1.03144 -45.333679 -1.0761797 -45.291771 -21.714746 19.080828
38100000000 -17.927641 -4.1523232 -1.0363518 -47.526405 -1.1019074 -47.421169 -19.785664 26.067099
38200000000 -17.893476 -1.4105804 -1.0710833 -49.246227 -1.0771781 -49.645828 -18.592257 25.665556
38300000000 -16.825949 -7.6862826 -1.0846874 -51.829441 -1.0865231 -51.437149 -18.095989 36.052876
38400000000 -17.028656 -12.648877 -1.1022857 -53.423492 -1.0976955 -52.851852 -18.577774 37.74173
38500000000 -16.17827 -9.8264236 -1.1031096 -55.569534 -1.0756164 -55.432449 -19.135532 35.1595
38600000000 -16.183157 -3.8987045 -1.1100297 -57.616787 -1.0942905 -57.227448 -18.525551 20.818737
38700000000 -15.082471 -7.6562357 -1.1243242 -59.590511 -1.1134009 -59.55423 -18.015329 21.075708
38800000000 -15.777441 -7.9711995 -1.1187907 -61.617836 -1.121472 -61.804211 -15.704002 18.625217
38900000000 -14.98278 -9.3598204 -1.174431 -63.633888 -1.13974 -63.594582 -16.516525 23.576883
39000000000 -15.440597 -10.490505 -1.1260972 -65.683533 -1.1526562 -65.51046 -15.487753 24.582537
39100000000 -14.473976 -11.324581 -1.1089729 -67.909348 -1.1671488 -67.916489 -17.415535 21.393562
39200000000 -14.71417 -19.410803 -1.1759093 -69.372673 -1.2065092 -69.660156 -15.73247 14.835229
39300000000 -13.738813 -15.475983 -1.1852274 -71.920059 -1.1903508 -72.002327 -15.911322 4.8586845
39400000000 -14.143435 -13.256021 -1.1778018 -73.595497 -1.2569433 -73.261063 -14.295518 11.353353
39500000000 -14.174814 -9.0510941 -1.2518116 -75.490227 -1.232988 -75.417229 -14.807232 10.041512
39600000000 -14.080891 -17.878454 -1.2436807 -77.611908 -1.2660799 -77.249153 -13.88081 15.685391
39700000000 -14.501531 -20.895205 -1.2063545 -79.759323 -1.2278266 -79.464684 -15.434657 10.299218
39800000000 -13.321203 -27.916971 -1.2359096 -81.997566 -1.2541627 -81.285583 -14.536342 6.7087803
39900000000 -12.821814 -20.050852 -1.1981416 -83.504417 -1.2567238 -83.187675 -15.028882 -5.195312
40000000000 -12.486886 -23.207823 -1.2070233 -85.179512 -1.2322925 -85.298325 -12.873845 -2.5661719
40100000000 -13.292496 -17.615763 -1.303479 -87.386818 -1.2524482 -87.575089 -12.637806 -3.8228261
40200000000 -13.306248 -21.672747 -1.2830307 -89.055054 -1.2620983 -89.412643 -12.516147 1.0030011
40300000000 -13.969782 -29.965492 -1.2791103 -91.623055 -1.2670252 -91.275558 -12.884584 -1.1197881
40400000000 -12.387537 -32.236774 -1.2569575 -93.493851 -1.2266339 -93.462852 -14.182576 -0.23983395
40500000000 -12.107741 -30.430227 -1.3101598 -94.968132 -1.2871298 -95.029846 -13.644863 -9.4935017
40600000000 -11.660443 -27.39682 -1.2630183 -97.465309 -1.3362335 -97.030266 -13.18352 -12.671676
40700000000 -12.838491 -30.122637 -1.3033074 -99.442268 -1.2727214 -99.125023 -12.486719 -16.123161
40800000000 -12.357831 -28.26053 -1.3152252 -101.00732 -1.3083422 -101.15525 -11.690866 -12.569752
40900000000 -12.460079 -36.286789 -1.3059987 -102.7854 -1.2558702 -103.22069 -11.900225 -11.176624
41000000000 -11.500524 -40.637138 -1.314719 -105.00046 -1.322432 -105.02953 -11.995535 -11.770379
41100000000 -11.91081 -39.557964 -1.3907307 -107.15455 -1.3413777 -106.82365 -12.884764 -14.802267
41200000000 -11.689131 -32.972012 -1.2955902 -109.19839 -1.3555739 -109.22576 -12.234293 -18.260557
41300000000 -11.695213 -37.782017 -1.3504732 -111.07163 -1.312821 -110.88673 -12.158326 -21.508514
41400000000 -11.80925 -37.504398 -1.3534664 -112.91492 -1.3197333 -112.68348 -11.384686 -24.091545
41500000000 -11.51654 -40.964291 -1.3276689 -114.83769 -1.3576382 -114.5342 -11.45962 -26.061075
41600000000 -11.507421 -41.713531 -1.3344792 -116.76485 -1.3487175 -116.71315 -11.523195 -23.494648
41700000000 -11.250503 -44.025322 -1.3476994 -118.78014 -1.3494704 -119.09382 -11.712869 -29.248144
41800000000 -11.73666 -44.070423 -1.3812184 -120.42738 -1.3614827 -120.42637 -11.740551 -26.39517
41900000000 -11.442885 -46.877548 -1.3528804 -122.41634 -1.4340672 -122.56127 -11.886043 -35.045822
42000000000 -11.534161 -45.659756 -1.3042294 -124.50383 -1.3137807 -124.63881 -11.608069 -33.294487
42100000000 -10.728614 -46.865131 -1.3789299 -126.43045 -1.3869834 -126.75436 -11.527952 -39.270962
42200000000 -11.432184 -49.642372 -1.269536 -128.33026 -1.343326 -128.61545 -11.253603 -34.35429
42300000000 -11.574438 -47.70335 -1.2388656 -130.41472 -1.3634074 -130.48172 -11.197629 -40.501289
42400000000 -12.120008 -54.91795 -1.3748126 -132.22914 -1.3449634 -132.03397 -11.799721 -38.957752
42500000000 -11.059695 -53.976696 -1.356841 -134.57758 -1.3348724 -134.07016 -11.869313 -44.81739
42600000000 -10.877978 -57.723431 -1.3394256 -135.93156 -1.3470665 -136.05417 -12.223519 -45.1731
42700000000 -11.550274 -54.805157 -1.3074505 -138.28873 -1.2938489 -137.74452 -11.20321 -51.013474
42800000000 -11.348516 -53.7314 -1.3078408 -140.1084 -1.3669479 -139.71201 -11.699714 -52.930218
42900000000 -12.390755 -52.520008 -1.3197862 -141.85083 -1.3282853 -142.16191 -11.18502 -49.939976
43000000000 -12.508567 -63.41029 -1.2881563 -143.78297 -1.287464 -143.73618 -11.429087 -53.439571
43100000000 -12.941965 -66.427628 -1.2269202 -146.66238 -1.28363 -145.98892 -12.193909 -49.635986
43200000000 -11.135221 -65.394783 -1.3183678 -148.05252 -1.2862511 -148.46982 -12.839497 -57.040085
43300000000 -11.845697 -61.374046 -1.2526395 -149.57741 -1.2877864 -150.01477 -12.840135 -60.794525
43400000000 -11.721853 -56.240005 -1.2406546 -151.62567 -1.1807141 -151.81139 -12.137744 -64.714294
43500000000 -12.944292 -59.830929 -1.2213788 -153.96941 -1.1962465 -153.45049 -12.076849 -67.233673
43600000000 -13.001525 -61.493572 -1.2679648 -156.34409 -1.215953 -156.2495 -11.81121 -64.912849
43700000000 -13.54071 -70.31282 -1.2314066 -157.92706 -1.1942978 -158.77374 -12.165033 -63.139805
43800000000 -12.880219 -73.507904 -1.1880027 -159.93042 -1.2301698 -160.43245 -13.12084 -64.263901
43900000000 -13.066926 -71.358345 -1.1726781 -162.69791 -1.1844357 -162.31512 -13.973747 -71.374138
44000000000 -12.716385 -61.95694 -1.1781296 -164.36208 -1.2149496 -164.87457 -13.117107 -74.887375
44100000000 -13.372277 -69.350029 -1.0930744 -165.97615 -1.2151181 -166.43292 -12.850033 -78.306099
44200000000 -14.120607 -63.001106 -1.1386545 -168.18105 -1.1800884 -168.34099 -12.877556 -79.14283
44300000000 -13.644579 -74.159698 -1.2013255 -170.39667 -1.2268249 -170.29366 -13.648826 -75.662315
44400000000 -13.995431 -74.911819 -1.1747787 -172.25392 -1.2638187 -172.28348 -13.994793 -77.905922
44500000000 -13.027277 -79.122337 -1.1899098 -174.43932 -1.1747966 -174.14925 -14.117815 -85.212456
44600000000 -13.826979 -73.624901 -1.0685912 -176.37131 -1.1091073 -176.11964 -15.105473 -85.50415
44700000000 -13.48885 -68.833549 -1.1473926 -179.17268 -1.1819741 -178.11961 -14.314259 -91.562706
44800000000 -15.050137 -75.444275 -1.2140563 179.32112 -1.1368827 179.60254 -14.719825 -84.360397
44900000000 -15.151588 -77.641647 -1.2171279 177.43607 -1.1253608 177.50735 -14.463062 -86.585869
45000000000 -16.16272 -78.15744 -1.1482518 175.45973 -1.194762 175.50993 -16.604536 -87.315056
