!Keysight Technologies,N5247B,MY61255062,A.19.80.06
!Date: Monday, May 18, 2026 12:41:06
!Correction: S11(Cdelta 2-Port  ) 
!S21(Cdelta 2-Port  ) 
!S12(Cdelta 2-Port  ) 
!S22(Cdelta 2-Port  ) 
!S2P File: Measurements: S11, S21, S12, S22:
# Hz S  dB   R 50
1000000000 -26.64591 -14.044259 -0.40050948 -20.828951 -0.39559454 -20.820406 -27.365099 -14.82019
1100000000 -26.521465 -16.475868 -0.41025478 -22.857811 -0.40696287 -22.840666 -27.41518 -16.674629
1200000000 -26.431263 -18.240005 -0.41993758 -24.842878 -0.41656968 -24.829962 -27.449072 -17.562635
1300000000 -26.33692 -20.470259 -0.42698199 -26.885321 -0.42204699 -26.884562 -27.360504 -19.968878
1400000000 -26.176281 -22.013607 -0.42956716 -28.859579 -0.42598048 -28.84478 -27.317419 -20.759941
1500000000 -26.076208 -24.83651 -0.43312535 -30.885115 -0.42833537 -30.870356 -27.198473 -22.917139
1600000000 -25.966499 -26.76722 -0.43551302 -32.914967 -0.43288225 -32.900085 -27.148436 -25.816137
1700000000 -25.832556 -29.273659 -0.43926227 -34.914017 -0.433833 -34.920483 -27.104273 -27.607161
1800000000 -25.68186 -31.672052 -0.44127592 -36.948788 -0.43828914 -36.939495 -27.058361 -29.980497
1900000000 -25.5401 -34.112862 -0.44381315 -38.980515 -0.43894836 -38.971775 -27.002115 -32.456161
2000000000 -25.49468 -36.516556 -0.44896585 -41.021858 -0.44572249 -41.012985 -27.026365 -35.209126
2100000000 -25.35957 -39.1138 -0.45122609 -43.044552 -0.44875687 -43.029934 -27.048935 -37.109692
2200000000 -25.340826 -41.735462 -0.45582837 -45.066483 -0.45204785 -45.05901 -27.073318 -40.007896
2300000000 -25.253447 -44.341339 -0.45945302 -47.097076 -0.45635971 -47.102703 -27.104235 -42.222069
2400000000 -25.203215 -46.782585 -0.46483433 -49.128742 -0.4626784 -49.116291 -27.178919 -44.691494
2500000000 -25.100986 -48.664433 -0.47138092 -51.159538 -0.46661893 -51.14954 -27.177723 -47.287891
2600000000 -25.089821 -51.492321 -0.47552112 -53.1847 -0.47319043 -53.178944 -27.286663 -50.046906
2700000000 -25.084 -53.835411 -0.48273268 -55.197933 -0.47771347 -55.18499 -27.463581 -53.129143
2800000000 -25.090635 -56.580032 -0.49054947 -57.202156 -0.48392299 -57.205769 -27.488667 -55.256588
2900000000 -25.151863 -58.684479 -0.4907364 -59.206524 -0.48766649 -59.218109 -27.577072 -58.015907
3000000000 -25.046122 -61.173313 -0.49641055 -61.227264 -0.4912245 -61.225967 -27.785566 -60.279179
3100000000 -25.095507 -63.54644 -0.49928629 -63.236202 -0.49494904 -63.219707 -27.923637 -62.265343
3200000000 -24.972631 -65.599655 -0.50167602 -65.243332 -0.49939343 -65.233971 -28.075424 -64.424629
3300000000 -25.001598 -68.419899 -0.50470412 -67.253616 -0.50058281 -67.250595 -28.140823 -67.211113
3400000000 -25.008175 -70.874756 -0.50998873 -69.275536 -0.50554246 -69.26442 -28.318079 -70.000534
3500000000 -24.993807 -73.376877 -0.51455522 -71.282707 -0.50825632 -71.263618 -28.465628 -72.003181
3600000000 -24.942106 -75.453568 -0.51699537 -73.256462 -0.51206487 -73.270004 -28.575073 -73.870132
3700000000 -24.951872 -77.795235 -0.51821262 -75.280121 -0.51318455 -75.27697 -28.596956 -75.963539
3800000000 -24.941984 -79.774353 -0.51928782 -77.285019 -0.51443863 -77.293678 -28.731449 -78.313133
3900000000 -24.924696 -82.155876 -0.52334225 -79.320885 -0.51639414 -79.320984 -28.935408 -80.998871
4000000000 -24.90394 -84.173698 -0.52372861 -81.349922 -0.52050394 -81.349327 -29.14814 -83.444344
4100000000 -24.913942 -86.602173 -0.52859199 -83.367821 -0.5268507 -83.356277 -29.375683 -85.965858
4200000000 -24.943729 -88.750198 -0.53476965 -85.361008 -0.53083003 -85.355034 -29.545383 -88.258804
4300000000 -24.974907 -91.017746 -0.53790057 -87.37175 -0.53279823 -87.35154 -29.693504 -91.204903
4400000000 -25.061008 -93.066132 -0.53755927 -89.365761 -0.53308439 -89.361259 -29.916456 -92.595818
4500000000 -25.103153 -95.327438 -0.53914684 -91.378448 -0.53561586 -91.374649 -30.066439 -95.307678
4600000000 -25.183737 -97.436676 -0.5434047 -93.384438 -0.54014403 -93.398964 -30.367529 -97.897072
4700000000 -25.137445 -100.04418 -0.54407388 -95.409554 -0.54009444 -95.403305 -30.475771 -100.55273
4800000000 -25.25655 -102.43919 -0.54694963 -97.418854 -0.54392892 -97.408905 -30.783979 -102.71775
4900000000 -25.301081 -104.30988 -0.54916191 -99.434158 -0.54461348 -99.428017 -30.871851 -105.11492
5000000000 -25.373926 -106.66688 -0.55144 -101.45695 -0.54804051 -101.44459 -31.266052 -107.08657
5100000000 -25.480879 -107.93108 -0.55538952 -103.47041 -0.55123776 -103.45792 -31.557268 -108.76784
5200000000 -25.550638 -110.33652 -0.55833197 -105.47373 -0.55351043 -105.47406 -31.94525 -111.84122
5300000000 -25.642828 -112.78093 -0.55867636 -107.47985 -0.55790162 -107.48124 -32.324295 -115.72832
5400000000 -25.737015 -115.77202 -0.56322777 -109.50784 -0.55894899 -109.49623 -32.612686 -120.37639
5500000000 -25.874601 -117.68927 -0.56544393 -111.50661 -0.56295133 -111.50146 -32.593727 -122.36054
5600000000 -25.927723 -120.36372 -0.56995815 -113.51289 -0.5668382 -113.51032 -32.78614 -124.66326
5700000000 -26.083778 -121.78697 -0.57288092 -115.51785 -0.5688293 -115.51163 -33.113682 -123.97495
5800000000 -26.138512 -124.16171 -0.5725652 -117.52441 -0.57178175 -117.52155 -33.724602 -126.85213
5900000000 -26.385021 -126.72913 -0.57741708 -119.52059 -0.57175899 -119.51072 -34.514923 -129.85756
6000000000 -26.41378 -128.97784 -0.57874572 -121.50937 -0.57527256 -121.51105 -34.854755 -137.39206
6100000000 -26.667606 -131.54539 -0.57841331 -123.51333 -0.57515788 -123.50198 -35.169636 -142.73009
6200000000 -26.890711 -133.42296 -0.57660735 -125.52452 -0.57498205 -125.53292 -35.238842 -146.91756
6300000000 -27.226164 -135.93965 -0.57752383 -127.55253 -0.57557279 -127.54368 -35.869221 -144.05855
6400000000 -27.466551 -138.03261 -0.58091891 -129.52705 -0.57770777 -129.53685 -35.998901 -146.97005
6500000000 -27.759668 -141.29243 -0.57872504 -131.57709 -0.57589376 -131.5753 -37.722908 -152.48166
6600000000 -27.918108 -142.79984 -0.58047271 -133.59875 -0.57735354 -133.59027 -38.718513 -158.53813
6700000000 -28.158792 -145.54955 -0.58440852 -135.62186 -0.58136135 -135.60318 -39.255959 -163.30298
6800000000 -28.455936 -145.53246 -0.58516878 -137.64075 -0.58363503 -137.64076 -39.304577 -167.11584
6900000000 -28.623581 -147.24756 -0.58669591 -139.66057 -0.58401227 -139.66853 -40.070454 -165.11823
7000000000 -29.062845 -147.04243 -0.59438848 -141.70163 -0.58903676 -141.69542 -40.713028 -160.97563
7100000000 -29.06251 -150.13373 -0.60287386 -143.70276 -0.60131216 -143.69135 -42.046806 -163.18098
7200000000 -29.532934 -154.72791 -0.60491812 -145.61371 -0.60281557 -145.58745 -42.164982 -179.91821
7300000000 -29.959967 -157.38196 -0.59323698 -147.63138 -0.59009939 -147.61635 -42.892548 162.36453
7400000000 -30.542089 -159.45018 -0.59212607 -149.68332 -0.58954817 -149.68192 -43.124374 161.76996
7500000000 -30.826408 -159.76598 -0.59700733 -151.71271 -0.59246582 -151.72491 -45.079945 163.36818
7600000000 -31.624197 -161.23285 -0.5990209 -153.75246 -0.59654695 -153.74873 -46.969627 169.15492
7700000000 -31.884895 -162.76805 -0.59985977 -155.73643 -0.59768838 -155.7363 -52.514278 140.48647
7800000000 -32.428638 -165.71243 -0.60214645 -157.76668 -0.59957391 -157.75455 -50.712635 105.08713
7900000000 -32.568714 -166.87701 -0.60393369 -159.79587 -0.60133743 -159.79608 -46.398735 92.56488
8000000000 -33.302647 -170.63402 -0.60725629 -161.81851 -0.60379058 -161.80505 -47.266193 111.67812
8100000000 -34.118374 -170.44653 -0.61171019 -163.83794 -0.60832489 -163.83151 -49.894356 101.41219
8200000000 -34.810207 -173.40985 -0.61429149 -165.86772 -0.61096585 -165.87325 -60.037476 29.830309
8300000000 -35.637543 -175.16487 -0.61576539 -167.90323 -0.6129173 -167.88773 -45.923378 19.964659
8400000000 -35.873638 177.95816 -0.62076104 -169.95242 -0.6191287 -169.94778 -41.192432 39.071468
8500000000 -37.203545 174.68056 -0.63974547 -172.03548 -0.63749862 -172.05391 -36.722855 76.612732
8600000000 -37.412312 177.49562 -0.71129793 -174.04677 -0.70127165 -174.0183 -31.560625 109.33026
8700000000 -34.733929 146.33716 -0.71236962 -174.90755 -0.71272099 -174.92628 -25.190063 101.05908
8800000000 -44.58112 132.6111 -0.55706131 -177.38696 -0.55150759 -177.3905 -28.017164 85.128685
8900000000 -43.323963 168.62564 -0.58608735 -179.8466 -0.58011121 -179.86555 -33.885807 94.009445
9000000000 -42.62542 162.46617 -0.60999548 178.07726 -0.60904974 178.06467 -41.838295 128.22804
9100000000 -46.677021 147.9977 -0.62400723 176.05066 -0.62371916 176.07268 -55.673363 -106.39034
9200000000 -49.860874 152.46445 -0.63119686 174.03149 -0.62883824 174.03784 -42.89418 -45.451397
9300000000 -56.6633 107.67895 -0.63685048 172.03952 -0.63513929 172.06209 -39.570885 -13.051215
9400000000 -64.366585 68.051903 -0.6409409 170.0625 -0.63954031 170.05205 -39.126942 -1.0379764
9500000000 -52.391338 24.964531 -0.64226544 168.04254 -0.64115906 168.05814 -39.822956 12.570223
9600000000 -48.439301 -6.5983834 -0.64524752 166.04135 -0.64371794 166.05666 -42.587112 4.0760045
9700000000 -45.04797 -6.3405046 -0.64876121 164.03119 -0.64580405 164.03571 -43.071396 -4.7384005
9800000000 -42.417004 -16.484522 -0.65014976 162.03267 -0.64731216 162.0079 -41.266735 -20.411667
9900000000 -41.998901 -13.922915 -0.65318632 160.01465 -0.64775836 160.00479 -39.374283 -16.172829
10000000000 -39.672577 -20.07131 -0.65525895 157.99098 -0.65245074 157.99928 -38.719368 -15.61579
10100000000 -38.647625 -19.823887 -0.66017973 155.98108 -0.6583153 156.01033 -39.517815 -3.7843714
10200000000 -36.631165 -24.309502 -0.65963703 153.98759 -0.65749186 153.98936 -41.171326 -8.2035875
10300000000 -35.918987 -26.58176 -0.66585499 151.96027 -0.66305351 151.97281 -41.791275 -16.214331
10400000000 -35.100349 -29.585526 -0.66742194 149.95218 -0.66476703 149.9431 -40.422935 -36.928043
10500000000 -35.038231 -35.180153 -0.67030054 147.95677 -0.66705823 147.94711 -39.151367 -36.224915
10600000000 -33.97324 -34.972927 -0.67483687 145.91801 -0.66901094 145.94641 -37.745007 -34.910721
10700000000 -33.217171 -39.65485 -0.67578429 143.94379 -0.673464 143.93805 -37.833282 -27.037739
10800000000 -32.304508 -38.240429 -0.67835492 141.94812 -0.67626762 141.93597 -37.52338 -24.779041
10900000000 -31.553453 -40.929852 -0.68110418 139.94257 -0.67878711 139.94374 -39.26667 -20.32099
11000000000 -31.163183 -42.650673 -0.68602347 137.92328 -0.68173712 137.94629 -39.399494 -29.308889
11100000000 -30.879732 -46.52354 -0.6896137 135.94868 -0.68557024 135.92928 -40.428471 -38.985825
11200000000 -30.714022 -48.051365 -0.69224018 133.93977 -0.68776029 133.96144 -38.730389 -43.851196
11300000000 -30.012079 -51.63287 -0.6932267 131.94267 -0.69020754 131.92908 -39.446941 -48.978104
11400000000 -29.56414 -53.396759 -0.69506812 129.93605 -0.69242477 129.93163 -37.722824 -49.339996
11500000000 -29.02935 -55.86343 -0.69777268 127.92427 -0.69557124 127.93898 -37.789036 -52.099411
11600000000 -28.877293 -58.609173 -0.69866711 125.94797 -0.69801652 125.94876 -37.949608 -53.051193
11700000000 -28.435032 -60.174793 -0.70373476 123.94628 -0.70155525 123.95252 -38.883362 -54.925781
11800000000 -28.449467 -63.773655 -0.7026211 121.95945 -0.70435393 121.96714 -38.666183 -55.638649
11900000000 -27.968367 -65.369484 -0.70950079 119.96051 -0.70712554 119.95844 -39.904957 -63.537678
12000000000 -27.887474 -68.509079 -0.71213019 117.95987 -0.70873368 117.96499 -38.942825 -66.331848
12100000000 -27.512188 -70.128738 -0.71386254 115.98225 -0.71012384 115.99267 -39.725452 -78.391571
12200000000 -27.284311 -74.847786 -0.71536481 114.0064 -0.71088874 113.99108 -38.729149 -83.619995
12300000000 -27.119112 -75.227829 -0.71527267 112.01203 -0.71279418 112.02294 -38.653458 -88.437202
12400000000 -26.913439 -78.743835 -0.71425921 110.03748 -0.71155959 110.01404 -39.109062 -88.325638
12500000000 -27.040997 -79.44223 -0.71174103 108.03452 -0.71303421 108.03176 -39.691463 -96.318436
12600000000 -26.839846 -83.781067 -0.71203899 106.05412 -0.70800751 106.04115 -39.934872 -96.787666
12700000000 -26.825645 -85.241196 -0.70923895 104.06838 -0.70789081 104.05766 -40.432381 -107.94888
12800000000 -26.471142 -89.293304 -0.70620108 102.05934 -0.69995457 102.07397 -40.69746 -112.90167
12900000000 -26.530373 -90.287781 -0.69962037 100.03381 -0.6976648 100.05052 -41.243801 -127.13851
13000000000 -26.222122 -92.325928 -0.6959179 98.014999 -0.69363755 98.045143 -41.314823 -125.4405
13100000000 -26.623564 -94.575706 -0.69736326 96.00666 -0.6946134 95.998314 -40.886681 -136.3913
13200000000 -26.34523 -96.349075 -0.69208932 94.001442 -0.69127303 93.990585 -42.189735 -135.20486
13300000000 -26.513176 -99.911674 -0.69499886 91.961044 -0.68819219 91.95417 -42.134487 -140.4299
13400000000 -26.219488 -99.608902 -0.69197184 89.936104 -0.68735212 89.936363 -44.384289 -143.43794
13500000000 -26.295475 -103.26581 -0.69248551 87.907639 -0.69080842 87.89827 -44.240215 -161.49832
13600000000 -26.209602 -103.62505 -0.69005913 85.844284 -0.68957126 85.876205 -47.246288 -170.83728
13700000000 -26.242929 -106.82375 -0.69286323 83.810493 -0.69196212 83.830475 -44.743996 176.19025
13800000000 -26.286871 -107.2284 -0.69658399 81.754517 -0.69424921 81.771149 -45.788364 169.91817
13900000000 -26.009609 -110.40797 -0.70292181 79.692894 -0.70196903 79.699852 -44.139736 -179.32123
14000000000 -26.086454 -110.48493 -0.71755463 77.66346 -0.71582544 77.664528 -47.850166 -177.48343
14100000000 -25.479712 -115.49049 -0.74290574 75.709686 -0.73990589 75.730858 -42.725876 -165.37489
14200000000 -25.663517 -120.38731 -0.74055111 73.895645 -0.74146819 73.915375 -41.247471 175.79512
14300000000 -25.639549 -124.73778 -0.72316295 71.938309 -0.72197402 71.940773 -38.748608 160.075
14400000000 -26.311998 -127.70895 -0.71259928 69.908485 -0.71157146 69.904938 -38.912476 143.49734
14500000000 -26.147974 -129.03333 -0.71112508 67.829857 -0.71065611 67.851028 -38.29446 142.02078
14600000000 -26.583389 -131.82802 -0.71129829 65.799362 -0.70857948 65.829918 -37.834869 131.02934
14700000000 -26.530565 -133.31551 -0.71165383 63.791351 -0.70774794 63.787636 -37.682751 128.81725
14800000000 -26.601664 -138.20088 -0.71008027 61.757111 -0.71010375 61.757217 -36.341766 119.2783
14900000000 -26.519276 -138.93707 -0.71545458 59.7257 -0.71065128 59.735222 -35.42403 121.90165
15000000000 -26.606155 -142.56932 -0.71350712 57.698845 -0.71445721 57.705128 -35.230782 121.70103
15100000000 -26.813627 -142.47115 -0.72174478 55.690292 -0.71762091 55.680038 -35.891098 125.33733
15200000000 -26.873447 -148.54662 -0.7206549 53.703255 -0.71746027 53.706787 -36.290592 120.28149
15300000000 -27.122625 -149.23943 -0.71825737 51.664345 -0.71865135 51.656731 -36.05653 111.32955
15400000000 -26.756458 -154.40593 -0.72493917 49.617359 -0.72176063 49.615295 -34.568287 101.068
15500000000 -26.928322 -154.86458 -0.72710568 47.619686 -0.72260129 47.617165 -33.598629 102.20704
15600000000 -26.678644 -158.67487 -0.72978741 45.576801 -0.72729331 45.590496 -32.49625 104.06563
15700000000 -27.32592 -161.64777 -0.72960246 43.576263 -0.72884649 43.596149 -32.861851 108.40507
15800000000 -27.287031 -166.28812 -0.73367333 41.574528 -0.73166221 41.588684 -32.985878 108.54821
15900000000 -27.862427 -171.3483 -0.734146 39.533394 -0.73590398 39.553947 -33.675224 106.31745
16000000000 -27.259888 -174.37883 -0.73969781 37.526356 -0.73479891 37.549324 -33.001598 97.898705
16100000000 -27.559677 179.8746 -0.74194324 35.52861 -0.74045014 35.53817 -32.545616 92.922272
16200000000 -27.241167 179.91914 -0.74371976 33.509224 -0.74502498 33.490662 -31.067917 89.638908
16300000000 -27.764925 173.0451 -0.7499637 31.519304 -0.74742079 31.513565 -31.181219 91.667747
16400000000 -28.041086 171.51595 -0.75391948 29.490513 -0.74964005 29.512817 -30.230686 91.575737
16500000000 -28.041563 160.86024 -0.75435919 27.472025 -0.75221848 27.495089 -30.525999 92.816368
16600000000 -28.211561 158.75008 -0.75685662 25.483597 -0.75417566 25.478975 -30.075062 87.951172
16700000000 -27.495546 151.76396 -0.76381785 23.462154 -0.75973469 23.465923 -30.298883 85.085419
16800000000 -27.887476 150.95578 -0.76402742 21.475195 -0.75984693 21.465191 -28.890444 81.787209
16900000000 -27.411465 146.73442 -0.76919979 19.455744 -0.76554376 19.475582 -28.96665 80.369659
17000000000 -28.531918 140.54344 -0.76920998 17.448826 -0.76727223 17.463009 -28.240248 81.796738
17100000000 -28.026014 135.3486 -0.7750482 15.441873 -0.77391732 15.456911 -28.425268 79.686012
17200000000 -28.068512 124.92461 -0.77789372 13.450109 -0.777125 13.444448 -27.893888 81.367447
17300000000 -27.131393 125.64507 -0.78130448 11.457633 -0.77686059 11.454621 -28.029472 75.477242
17400000000 -26.751713 120.06651 -0.78188556 9.4391136 -0.78134942 9.467473 -27.304712 75.056175
17500000000 -26.852362 122.76108 -0.78414923 7.4407868 -0.78465652 7.4449892 -26.88232 70.063599
17600000000 -27.022991 114.17971 -0.78940737 5.4283218 -0.78779203 5.4715562 -26.11311 73.678612
17700000000 -27.400152 110.27082 -0.79397321 3.4180717 -0.79089659 3.4483995 -25.89695 71.773773
17800000000 -26.551956 99.620872 -0.79468501 1.4523628 -0.79372334 1.4366664 -25.896523 75.238213
17900000000 -26.362131 97.66362 -0.80210513 -0.58645761 -0.79499769 -0.54315501 -26.058805 71.646637
18000000000 -25.477642 96.566025 -0.80219477 -2.5753291 -0.79822129 -2.5720639 -26.152349 68.133942
18100000000 -25.870304 95.801422 -0.79704988 -4.578969 -0.79697275 -4.572897 -25.669662 61.019955
18200000000 -25.680094 91.838387 -0.80721986 -6.5234752 -0.79600751 -6.541976 -24.878252 60.074833
18300000000 -25.887808 84.457916 -0.80708116 -8.5678406 -0.80127972 -8.5509834 -24.057446 59.672112
18400000000 -25.038153 80.203346 -0.80583006 -10.538455 -0.80290818 -10.523446 -23.799526 63.009445
18500000000 -24.702456 74.746452 -0.80885524 -12.552045 -0.80520809 -12.533247 -23.890028 63.930939
18600000000 -24.292479 73.269882 -0.80987352 -14.57761 -0.80510557 -14.576819 -24.323698 62.587959
18700000000 -24.409925 69.324059 -0.80390054 -16.545195 -0.80406904 -16.56391 -24.456366 56.386253
18800000000 -24.231199 68.34314 -0.80269486 -18.548923 -0.8005473 -18.536346 -23.960728 50.0144
18900000000 -23.97817 62.384727 -0.80715847 -20.556671 -0.80489182 -20.524937 -23.108459 46.655525
19000000000 -23.690691 60.521713 -0.81032741 -22.519306 -0.80743557 -22.495747 -22.219622 48.9925
19100000000 -22.990746 55.417747 -0.81094199 -24.520895 -0.80704999 -24.502317 -22.180712 49.311474
19200000000 -22.930519 53.451138 -0.81509238 -26.523544 -0.81195647 -26.529366 -22.109617 52.147873
19300000000 -22.47101 50.189465 -0.81147557 -28.555456 -0.80881125 -28.514549 -22.547998 48.403931
19400000000 -22.554874 48.784351 -0.81650674 -30.535069 -0.81199265 -30.540224 -22.432123 46.267136
19500000000 -22.005114 46.967117 -0.81094766 -32.567413 -0.8066684 -32.549923 -22.095825 40.618031
19600000000 -22.163408 43.28405 -0.8160038 -34.583447 -0.80809623 -34.54208 -21.533241 40.210648
19700000000 -21.65826 41.385647 -0.81451714 -36.552631 -0.80992186 -36.553486 -21.0751 38.742287
19800000000 -21.40716 36.325287 -0.81560022 -38.598171 -0.81308913 -38.585976 -21.032478 40.78862
19900000000 -20.890179 35.792889 -0.81575078 -40.58213 -0.81448221 -40.606979 -20.840338 38.532551
20000000000 -20.650352 33.256027 -0.82004297 -42.63044 -0.81818402 -42.643021 -20.950027 36.960415
20100000000 -20.454 34.143566 -0.81932676 -44.644547 -0.82017213 -44.647758 -20.445091 33.241741
20200000000 -20.406395 30.087742 -0.82528192 -46.678185 -0.8196106 -46.640114 -20.353767 31.731274
20300000000 -20.448181 27.747911 -0.82730931 -48.689159 -0.82572675 -48.666691 -19.766159 30.928978
20400000000 -19.921396 22.231678 -0.82825333 -50.73362 -0.82812768 -50.686195 -19.92622 30.903095
20500000000 -19.730532 20.394085 -0.83865941 -52.734077 -0.83645314 -52.721684 -19.777262 29.435179
20600000000 -19.202293 18.53183 -0.84440815 -54.773777 -0.84111178 -54.742416 -19.983711 25.367569
20700000000 -19.40276 17.801083 -0.85086381 -56.743267 -0.8449471 -56.776936 -19.486628 21.952221
20800000000 -19.161684 15.718672 -0.86528832 -58.768394 -0.86190981 -58.732155 -19.295067 17.477125
20900000000 -19.38055 11.149947 -0.86880356 -60.679913 -0.86420923 -60.659142 -18.676308 17.044678
21000000000 -19.086418 7.9058433 -0.87417603 -62.546829 -0.87225926 -62.55019 -18.783419 16.72076
21100000000 -18.881989 4.0319233 -0.86666793 -64.500435 -0.86643153 -64.49543 -18.78253 17.300798
21200000000 -18.715473 4.6179409 -0.8601073 -66.50042 -0.8580302 -66.491554 -19.102251 16.008949
21300000000 -18.676929 2.4947 -0.8567369 -68.492928 -0.85374123 -68.500702 -19.233465 12.839483
21400000000 -18.771751 2.995156 -0.84792787 -70.55825 -0.84616357 -70.513229 -18.996571 9.0475006
21500000000 -18.767185 -0.97687042 -0.84210598 -72.576073 -0.84108663 -72.562149 -18.73111 5.7624516
21600000000 -18.599974 -1.9931287 -0.84251767 -74.603363 -0.84039235 -74.580338 -18.192169 5.0443749
21700000000 -18.173435 -6.2671514 -0.83814603 -76.613106 -0.84087741 -76.58165 -17.79073 5.1201634
21800000000 -17.918112 -7.3535876 -0.84601098 -78.587067 -0.84442353 -78.574562 -17.831291 5.8283944
21900000000 -17.626265 -9.144208 -0.85776335 -80.564957 -0.85305721 -80.571327 -17.762585 4.8099895
22000000000 -17.808296 -8.9717035 -0.86385548 -82.575676 -0.86185771 -82.592903 -18.307564 2.1601427
22100000000 -17.785458 -11.12516 -0.86443228 -84.545609 -0.86117369 -84.533035 -18.1537 -2.387145
22200000000 -18.065369 -12.760977 -0.86352897 -86.546257 -0.86077225 -86.569824 -18.125427 -5.1497393
22300000000 -17.714237 -15.253778 -0.85313344 -88.610847 -0.85556948 -88.58403 -17.434904 -6.8514409
22400000000 -17.559612 -17.447298 -0.85562527 -90.59639 -0.85395831 -90.584106 -17.329649 -7.1313596
22500000000 -17.095842 -18.724659 -0.85120797 -92.615379 -0.85049856 -92.610207 -17.085621 -6.0893145
22600000000 -17.227369 -19.566957 -0.86076432 -94.574524 -0.85627437 -94.572937 -17.480427 -8.2916985
22700000000 -17.202089 -19.455812 -0.86150229 -96.560417 -0.85952133 -96.571922 -17.519798 -9.9402285
22800000000 -17.548853 -22.751053 -0.87273651 -98.554985 -0.86565673 -98.582527 -17.693184 -15.429996
22900000000 -17.474024 -24.827715 -0.86333632 -100.57739 -0.8644973 -100.57481 -17.296993 -16.677141
23000000000 -17.194389 -29.492453 -0.87047207 -102.62048 -0.86088556 -102.62025 -17.1341 -19.336069
23100000000 -16.889015 -29.30477 -0.8610847 -104.62654 -0.85859072 -104.61271 -16.819811 -17.563972
23200000000 -16.705551 -30.716085 -0.8693493 -106.64458 -0.86795783 -106.62219 -17.080402 -19.911049
23300000000 -17.051334 -29.174061 -0.86360538 -108.65194 -0.86627603 -108.62146 -17.40991 -20.986139
23400000000 -17.213428 -31.983898 -0.86888105 -110.63427 -0.86711293 -110.61611 -17.465485 -27.161612
23500000000 -17.653355 -34.551296 -0.87063974 -112.64577 -0.87110949 -112.63364 -17.413733 -29.610397
23600000000 -17.236643 -38.601868 -0.87340999 -114.65951 -0.87099403 -114.64046 -16.723642 -33.015015
23700000000 -17.157885 -41.31646 -0.87242413 -116.59332 -0.87098867 -116.61435 -16.655489 -31.077295
23800000000 -16.753084 -41.82806 -0.880077 -118.63204 -0.87528294 -118.62073 -16.760807 -30.872053
23900000000 -17.104336 -42.369431 -0.87950927 -120.62295 -0.87663686 -120.5984 -17.320263 -30.796179
24000000000 -17.267651 -41.304825 -0.87968898 -122.62728 -0.87678134 -122.63178 -17.837959 -36.84132
24100000000 -17.685743 -45.258724 -0.87195772 -124.59946 -0.87378192 -124.63911 -17.915661 -42.700275
24200000000 -17.743126 -46.793304 -0.87332863 -126.65945 -0.87291849 -126.65258 -17.369164 -45.751995
24300000000 -17.447115 -51.602474 -0.87238777 -128.64655 -0.87246305 -128.6208 -16.873865 -47.480366
24400000000 -17.246542 -51.173172 -0.86814499 -130.57915 -0.86830461 -130.56892 -16.646008 -44.930431
24500000000 -17.179399 -53.050938 -0.87519395 -132.57497 -0.87131417 -132.52632 -17.122507 -44.178955
24600000000 -17.649769 -51.577835 -0.87473577 -134.5677 -0.87528896 -134.53233 -17.69113 -44.758904
24700000000 -17.91415 -53.698475 -0.87645382 -136.59506 -0.87269694 -136.55138 -18.344549 -50.019554
24800000000 -18.51152 -55.519894 -0.87447017 -138.60838 -0.87296593 -138.631 -18.374296 -55.409729
24900000000 -18.180229 -58.836712 -0.86863095 -140.62892 -0.85866481 -140.6011 -17.997629 -59.046761
25000000000 -18.205133 -60.250854 -0.85988832 -142.5746 -0.86823064 -142.6003 -17.554235 -60.368443
25100000000 -17.803524 -60.61237 -0.85774446 -144.55431 -0.86116046 -144.57753 -17.649328 -58.379471
25200000000 -18.273323 -59.972294 -0.86499643 -146.5128 -0.86206704 -146.51605 -17.864414 -58.818756
25300000000 -18.393581 -59.310207 -0.86037081 -148.53482 -0.86523527 -148.50403 -18.718513 -60.066677
25400000000 -19.199604 -61.401073 -0.86262584 -150.56866 -0.85975671 -150.56427 -18.809612 -65.144005
25500000000 -19.2075 -62.344437 -0.86716193 -152.54878 -0.86060905 -152.56462 -19.183739 -66.723465
25600000000 -19.318953 -67.046242 -0.86942458 -154.59995 -0.85663503 -154.63239 -18.947197 -71.240105
25700000000 -19.220167 -66.422424 -0.8617987 -156.59886 -0.86263311 -156.6346 -18.999617 -70.81916
25800000000 -19.444294 -67.660423 -0.86026287 -158.62239 -0.86074603 -158.61417 -19.167789 -72.489929
25900000000 -19.558229 -64.420059 -0.85937625 -160.6239 -0.85163659 -160.6256 -19.430122 -73.338814
26000000000 -19.799541 -66.903358 -0.85553986 -162.64615 -0.84840524 -162.60435 -19.839636 -74.136024
26100000000 -20.324049 -64.640579 -0.8606075 -164.6813 -0.85772711 -164.62408 -20.193495 -77.49321
26200000000 -20.473352 -67.422325 -0.85084206 -166.65692 -0.84598207 -166.64929 -20.47147 -78.22049
26300000000 -21.029537 -66.50589 -0.86476737 -168.67407 -0.85921341 -168.67459 -20.819305 -84.777863
26400000000 -20.8612 -70.502129 -0.85714018 -170.74554 -0.84947413 -170.72598 -20.865562 -81.625511
26500000000 -21.682283 -68.920692 -0.84725362 -172.72823 -0.85135001 -172.73399 -21.331987 -87.944275
26600000000 -21.297451 -67.644699 -0.8505162 -174.70416 -0.84853053 -174.716 -21.397755 -85.114578
26700000000 -21.842878 -65.909683 -0.85686618 -176.69086 -0.84401673 -176.67384 -21.816374 -89.140633
26800000000 -21.945255 -65.189247 -0.84284419 -178.65715 -0.8421185 -178.89949 -22.791332 -87.52964
26900000000 -22.939987 -68.061768 -0.84846568 179.06915 -0.86196852 179.23401 -22.918667 -95.193222
27000000000 -22.426435 -64.409546 -0.84564048 177.09395 -0.85635948 177.2327 -24.561171 -98.159859
27100000000 -22.836077 -68.851326 -0.86957258 175.10179 -0.86493766 175.15306 -23.367813 -103.25922
27200000000 -23.400745 -59.937378 -0.86538154 172.97247 -0.86228865 173.10793 -24.477795 -99.24572
27300000000 -23.386627 -63.975903 -0.87376297 171.07106 -0.84764183 171.1684 -24.152809 -97.278999
27400000000 -23.468103 -56.170288 -0.87060779 169.09396 -0.85299265 169.04706 -26.610807 -98.226799
27500000000 -23.846458 -61.087109 -0.87352741 167.08853 -0.86147797 167.12747 -27.215788 -98.760254
27600000000 -24.209787 -53.873215 -0.87910897 164.98921 -0.85998392 164.98816 -28.953634 -114.88024
27700000000 -23.526007 -55.584743 -0.87503374 162.98697 -0.86087513 163.10213 -27.788958 -116.87354
27800000000 -23.983479 -45.67276 -0.86845511 161.03897 -0.88073105 161.01169 -28.324591 -121.92508
27900000000 -23.578714 -51.042339 -0.8608098 159.20157 -0.85854656 159.14653 -27.998072 -106.19639
28000000000 -24.481445 -42.725796 -0.86525452 157.08455 -0.88156021 157.07278 -30.744108 -112.69402
28100000000 -23.687885 -46.929619 -0.86418778 155.08113 -0.88492328 155.03839 -33.381237 -99.688042
28200000000 -24.396267 -44.453217 -0.90172619 152.83804 -0.86577237 153.02838 -38.637466 -120.20524
28300000000 -23.088627 -39.675232 -0.83199418 151.08498 -0.85389501 150.9966 -35.538025 -137.36276
28400000000 -23.468857 -38.63623 -0.86785573 149.0009 -0.87250578 149.013 -37.316147 -152.86598
28500000000 -22.812714 -35.514233 -0.86073941 146.9651 -0.86214912 146.94353 -41.304733 -87.005318
28600000000 -23.026148 -32.638367 -0.85834211 144.91423 -0.86038911 144.82141 -46.057896 -45.944843
28700000000 -22.447334 -29.111284 -0.87004572 142.85326 -0.85114723 142.89406 -36.755817 19.441044
28800000000 -22.963886 -29.962643 -0.85806239 140.78297 -0.88524097 140.71185 -35.231606 54.726669
28900000000 -21.500029 -25.025026 -0.88733274 138.93286 -0.87490296 138.87413 -36.246414 51.433311
29000000000 -22.10528 -32.114811 -0.90571934 136.73618 -0.92530191 136.72104 -35.537216 61.893147
29100000000 -21.505505 -29.562944 -0.88934541 134.44991 -0.88623577 134.68896 -36.348408 0.91314387
29200000000 -21.405584 -28.862139 -0.88251102 132.7731 -0.87190771 132.9155 -30.354153 26.806433
29300000000 -20.694214 -21.717098 -0.88252437 130.74326 -0.8681649 130.7131 -26.711403 21.970036
29400000000 -20.577766 -25.087811 -0.87732494 128.75481 -0.88019365 128.78981 -24.950857 43.374741
29500000000 -20.706339 -19.121483 -0.88446182 126.82079 -0.88697743 126.64238 -25.606289 38.653992
29600000000 -20.655195 -27.745337 -0.90623945 124.71047 -0.88682342 124.7034 -26.257805 50.317715
29700000000 -20.631931 -22.762344 -0.88576275 122.71312 -0.91032839 122.59082 -26.464912 28.143152
29800000000 -19.624245 -27.928019 -0.91886717 120.66645 -0.90958279 120.69073 -26.355253 30.594761
29900000000 -19.505615 -23.763561 -0.90020388 118.46 -0.88553584 118.52148 -23.071056 10.242874
30000000000 -18.615726 -22.56555 -0.91614604 116.56759 -0.90068096 116.58248 -22.486509 25.531403
30100000000 -19.136627 -21.136993 -0.92511451 114.57542 -0.94487923 114.57219 -20.918007 21.651529
30200000000 -18.338631 -23.263512 -0.90115684 112.50524 -0.92593271 112.53877 -21.85313 31.160294
30300000000 -19.203798 -27.935589 -0.92706025 110.55354 -0.91412246 110.56337 -21.12677 23.827578
30400000000 -18.158972 -26.960445 -0.9301573 108.47102 -0.92899013 108.68469 -23.036674 20.571533
30500000000 -18.273361 -32.335213 -0.92560464 106.53258 -0.94415855 106.40907 -20.723038 10.987616
30600000000 -17.553877 -28.877596 -0.94932139 104.39925 -0.92127246 104.44679 -21.063704 8.9111843
30700000000 -17.560255 -31.440727 -0.95023143 102.52423 -0.94428629 102.5284 -18.990789 8.7000484
30800000000 -17.324772 -27.593124 -0.95423687 100.66401 -0.96946019 100.58755 -20.093124 12.096206
30900000000 -17.227407 -32.084911 -0.94576359 98.404205 -0.96566153 98.527924 -18.734941 9.7367458
31000000000 -17.291555 -29.247284 -0.96757048 96.521271 -0.96998709 96.384186 -19.875954 5.5542369
31100000000 -17.103605 -37.585846 -0.96749383 94.507217 -0.97903156 94.410057 -19.434624 1.6608101
31200000000 -16.933256 -37.714523 -0.95415306 92.60849 -0.96951652 92.340416 -18.910885 -5.0527682
31300000000 -16.191441 -39.459358 -0.98333544 90.449989 -0.96485299 90.472191 -18.29488 -1.6148865
31400000000 -16.109106 -35.625286 -0.96315843 88.633293 -0.95521182 88.452606 -17.59104 -4.7986894
31500000000 -15.89032 -36.166615 -1.0161209 86.649384 -1.012354 86.530251 -17.398407 -0.90805787
31600000000 -16.582705 -34.32259 -1.0081383 84.597649 -0.98146266 84.421913 -18.021091 -3.444545
31700000000 -16.560171 -37.766064 -1.0048931 82.481239 -0.99762833 82.561455 -17.573936 -6.6262279
31800000000 -16.302395 -41.32201 -1.0013224 80.553307 -1.0025711 80.597305 -17.884165 -12.766073
31900000000 -15.168176 -44.546616 -0.99523211 78.489143 -1.0047737 78.622208 -16.842653 -15.851008
32000000000 -15.383637 -42.328587 -0.99572629 76.693077 -0.96524507 76.431808 -16.806931 -17.204556
32100000000 -15.397301 -39.336174 -0.99249363 74.465759 -0.96249706 74.631783 -16.070852 -17.202715
32200000000 -16.094791 -40.952583 -1.015736 72.613045 -0.98780274 72.581108 -16.534925 -17.48333
32300000000 -16.016464 -43.443016 -0.99920535 70.659889 -1.0013723 70.81517 -16.423389 -17.215136
32400000000 -15.825709 -49.743484 -1.0036855 68.566727 -1.0086162 68.726585 -17.340467 -19.616016
32500000000 -15.408275 -48.957413 -1.0084435 66.714989 -0.9872663 66.498741 -16.788769 -25.335062
32600000000 -15.192355 -51.814629 -0.9792375 64.721054 -0.98838091 64.737801 -16.592745 -31.594933
32700000000 -15.421503 -44.769131 -0.97372967 62.554321 -1.0213714 62.407814 -15.926779 -33.330574
32800000000 -15.443246 -49.775501 -0.98704726 60.510239 -0.98982811 60.633488 -15.354259 -33.231049
32900000000 -16.104864 -49.466339 -1.005126 58.551743 -1.0155969 58.590034 -15.622175 -30.389814
33000000000 -15.458455 -55.218552 -1.0022969 56.686932 -0.99685645 56.62344 -16.037121 -32.317699
33100000000 -15.773376 -56.998386 -0.9904843 54.826389 -1.026781 54.601746 -16.748171 -33.699997
33200000000 -15.187444 -57.098289 -1.0086836 52.599911 -0.99623746 52.66832 -16.183821 -43.037216
33300000000 -15.716784 -56.681385 -1.0177972 50.788742 -0.99822146 50.551243 -16.464207 -42.994865
33400000000 -15.646484 -56.345642 -1.0032883 48.660545 -0.99507034 48.658508 -15.253457 -47.026424
33500000000 -15.822982 -59.381432 -0.98369092 46.700275 -1.0093242 46.713196 -15.807589 -46.219063
33600000000 -15.531507 -58.483906 -1.0016826 44.804462 -0.99706036 44.635342 -15.449015 -47.070652
33700000000 -15.660487 -60.871071 -1.0368986 42.718842 -1.0485879 42.813835 -16.120646 -46.808311
33800000000 -15.447374 -60.885094 -1.016517 40.876598 -1.0003257 41.020397 -16.147524 -49.182693
33900000000 -15.838156 -65.034592 -0.98520607 38.528469 -1.0426792 38.537067 -16.0599 -52.84938
34000000000 -15.543094 -61.573383 -0.97511786 36.906261 -1.0274683 36.608974 -15.939921 -53.949707
34100000000 -15.358522 -66.155632 -1.0043907 34.805176 -1.0279197 34.634483 -15.644714 -56.949699
34200000000 -15.733198 -61.632889 -0.98509109 33.058189 -0.9766916 32.95937 -15.782423 -53.173176
34300000000 -15.807063 -65.501526 -1.0140313 30.579618 -1.0060054 30.740961 -16.296021 -61.06897
34400000000 -16.050449 -64.680397 -0.99520737 28.988262 -1.0116525 28.82205 -16.496256 -62.687729
34500000000 -15.866859 -69.021202 -1.0383358 26.820385 -1.0249189 26.981689 -16.074245 -68.104721
34600000000 -15.980084 -68.733734 -0.99733746 24.838614 -1.0255328 24.748241 -15.771728 -65.930977
34700000000 -15.950493 -68.998466 -0.99875998 22.744909 -1.0017012 22.728868 -15.923064 -66.41172
34800000000 -16.566824 -68.617805 -0.96896124 20.950935 -0.9878788 20.934734 -16.783136 -66.547394
34900000000 -16.627474 -70.134583 -0.96053797 18.747828 -0.97850847 18.664148 -17.671373 -67.997047
35000000000 -16.879562 -70.899574 -0.95444459 16.754541 -0.97252226 16.75721 -18.417635 -75.469521
35100000000 -16.629356 -70.114433 -0.99806249 14.601814 -0.9693023 14.741116 -17.570534 -82.005516
35200000000 -17.148783 -69.584068 -0.98749471 12.612927 -0.9931671 12.71577 -17.256617 -85.734238
35300000000 -16.982227 -70.632332 -1.0100901 10.682534 -1.0096741 10.48671 -16.942766 -80.624489
35400000000 -17.837452 -72.517609 -0.98396003 8.8089848 -1.0140538 8.6398535 -16.732363 -80.060997
35500000000 -17.722736 -69.14299 -0.97860092 6.8736405 -0.99552476 6.8679333 -17.975586 -83.278008
35600000000 -18.172255 -78.27594 -1.0148307 4.7947097 -0.9784621 4.7757125 -19.016359 -86.208397
35700000000 -17.735727 -75.135078 -0.98225904 2.5121717 -0.97804773 2.6313598 -19.020689 -91.804619
35800000000 -18.242443 -75.744774 -0.96105021 0.64809889 -0.94179809 0.73427397 -18.595667 -95.805046
35900000000 -18.247169 -71.283585 -0.93169045 -1.380538 -0.96124268 -1.4422649 -18.512999 -104.84617
36000000000 -18.347748 -73.703011 -0.94560331 -3.2310219 -0.92457998 -3.3643272 -18.986927 -94.5905
36100000000 -19.991663 -65.288055 -0.98362076 -5.6164098 -0.9631297 -5.3797197 -19.856209 -101.51506
36200000000 -19.177191 -76.259254 -0.92308873 -7.3205318 -0.94149262 -7.3686385 -20.237379 -98.399834
36300000000 -20.671629 -74.567276 -0.93471599 -9.7268763 -0.95036095 -10.00981 -20.97645 -110.58783
36400000000 -19.83493 -78.920006 -0.92775762 -11.94878 -0.96829736 -11.878781 -20.274191 -107.74758
36500000000 -19.486101 -74.315399 -0.9195779 -13.999843 -0.95676643 -13.948652 -20.487915 -112.30773
36600000000 -18.035345 -68.11779 -0.92456394 -15.769357 -0.91245914 -15.338706 -21.459505 -96.765869
36700000000 -19.7617 -61.697788 -0.9690237 -17.670919 -0.92711794 -17.79347 -22.267466 -111.4367
36800000000 -19.60898 -55.56237 -0.94582379 -19.469435 -0.98482215 -19.735397 -25.873688 -100.6376
36900000000 -22.220978 -64.470734 -0.96546525 -21.9067 -0.99187887 -21.635832 -24.713369 -124.64381
37000000000 -20.824869 -61.196762 -0.99349284 -23.598793 -0.98082799 -23.554502 -25.720242 -133.5208
37100000000 -19.628664 -79.303734 -0.99120623 -26.010141 -0.96415704 -26.091005 -23.109718 -130.71158
37200000000 -19.314035 -61.483166 -0.94576907 -28.064369 -0.94747353 -28.018097 -23.989464 -117.5509
37300000000 -19.457952 -58.409142 -0.96178925 -30.125626 -0.9281618 -30.181114 -24.390293 -107.41193
37400000000 -19.743427 -44.330093 -0.94005114 -31.750538 -0.9659428 -32.062866 -30.135584 -88.222664
37500000000 -21.263561 -51.93755 -0.99187171 -34.109245 -0.96468586 -34.234383 -33.911137 -106.06127
37600000000 -21.854 -53.664581 -1.002694 -35.867168 -0.91587305 -35.956902 -36.038254 146.46548
37700000000 -20.343512 -61.597652 -0.93957579 -38.021221 -0.99127322 -37.822216 -32.662712 165.41165
37800000000 -19.31575 -53.551666 -1.0213399 -40.233467 -0.94216949 -40.151756 -31.251728 -174.35229
37900000000 -18.755709 -49.420124 -0.9892891 -42.147305 -0.95962352 -42.239498 -30.688835 -160.13242
38000000000 -19.592691 -42.093342 -0.94991827 -44.195629 -1.0009899 -44.263138 -36.119938 -94.571159
38100000000 -20.374359 -44.464329 -1.0053809 -46.008057 -0.99326831 -46.138504 -39.224346 2.2507324
38200000000 -20.500055 -41.572159 -0.97527242 -48.441959 -0.94275862 -48.308865 -31.124723 24.813332
38300000000 -18.823742 -45.485569 -0.96697241 -50.403095 -0.99977463 -50.144382 -26.921579 68.456512
38400000000 -18.678305 -46.428543 -1.0049541 -52.417286 -1.0002403 -52.230179 -28.069654 90.800514
38500000000 -18.34026 -45.592266 -1.026718 -54.359791 -0.97541404 -54.339417 -29.831057 97.073433
38600000000 -19.060263 -33.993523 -0.98640299 -56.399902 -1.0168098 -56.450821 -30.981112 29.509638
38700000000 -17.77224 -37.457306 -0.99171525 -58.500702 -0.9935869 -58.684364 -32.362083 31.972153
38800000000 -18.790665 -38.0881 -1.0371356 -60.497143 -1.011959 -60.386364 -23.611996 27.228203
38900000000 -17.688316 -37.275906 -1.0006734 -62.442463 -1.0180123 -62.557991 -25.274006 45.497169
39000000000 -18.642269 -42.174454 -1.0497998 -64.364906 -1.0611253 -64.415184 -21.852501 42.850597
39100000000 -17.249821 -42.925552 -1.0390726 -66.474472 -1.0732635 -66.401596 -28.323151 59.252819
39200000000 -17.546711 -48.914921 -1.0410202 -68.40731 -1.0679579 -68.478081 -23.261833 27.283094
39300000000 -16.006783 -36.647011 -1.0289575 -70.752022 -1.0841646 -70.576462 -24.378391 2.5588214
39400000000 -17.706013 -38.810616 -1.0079665 -72.356667 -1.0477756 -72.608398 -19.51992 18.804077
39500000000 -17.526428 -29.943586 -1.1075693 -74.38504 -1.1017773 -74.820709 -21.154818 20.772255
39600000000 -17.587158 -44.379601 -1.0864978 -76.431572 -1.0723459 -76.670494 -18.81308 31.914927
39700000000 -17.393101 -49.422321 -1.0548093 -78.971001 -0.99082053 -78.443214 -23.264088 34.555199
39800000000 -15.960734 -53.886433 -1.076193 -80.508888 -1.0882956 -80.345978 -21.387903 18.640877
39900000000 -16.423592 -39.786179 -1.1015722 -82.366722 -1.0644697 -82.413208 -22.826881 0.27781251
40000000000 -15.584092 -42.259754 -1.0689157 -84.505257 -1.0550754 -84.380127 -18.984972 -1.7890011
40100000000 -17.806265 -34.121136 -1.1185868 -86.744957 -1.0693229 -86.473221 -17.593254 1.1694049
40200000000 -17.157356 -41.552235 -1.0759996 -88.59996 -1.1211821 -88.672287 -17.430548 12.573516
40300000000 -17.905102 -57.151134 -1.0861999 -90.530983 -1.1052493 -90.619614 -17.894619 11.207292
40400000000 -15.47212 -53.008781 -1.1397285 -92.486275 -1.0723019 -92.52005 -19.782782 17.43046
40500000000 -15.368928 -50.461239 -1.1241807 -94.436485 -1.1577121 -94.128014 -20.131741 -1.5373895
40600000000 -14.742585 -40.704388 -1.1288061 -96.296692 -1.1020268 -96.300903 -18.84823 -6.5380678
40700000000 -16.736448 -44.894028 -1.1376855 -98.526588 -1.1440084 -98.523476 -17.544001 -11.800121
40800000000 -16.184631 -44.343861 -1.136794 -100.36192 -1.1366237 -100.05293 -16.328247 -5.3385372
40900000000 -15.610109 -54.40189 -1.047011 -102.39521 -1.0974885 -102.5298 -16.529308 1.5464935
41000000000 -14.632852 -59.279423 -1.0769446 -104.62575 -1.0742198 -104.2248 -16.630941 -1.5619574
41100000000 -15.184133 -55.597015 -1.1000285 -106.23094 -1.1513821 -106.3003 -18.559082 -2.8177028
41200000000 -15.211472 -46.143883 -1.0651858 -108.27151 -1.0851552 -108.13226 -16.977343 -8.6505136
41300000000 -14.974243 -54.812492 -1.1203105 -109.834 -1.1299617 -110.2702 -17.748501 -14.975212
41400000000 -15.473283 -53.814262 -1.0366064 -112.15387 -1.1128744 -112.3305 -15.948485 -17.318472
41500000000 -15.229804 -57.429932 -1.1089636 -114.37886 -1.1233776 -114.51518 -15.961353 -21.673258
41600000000 -14.882759 -54.948265 -1.0950478 -116.30233 -1.0903747 -115.88396 -15.850549 -14.387601
41700000000 -15.074866 -59.745304 -1.0862889 -118.25102 -1.1300601 -117.87319 -16.825727 -22.728033
41800000000 -15.518812 -55.778965 -1.1130135 -120.39337 -1.1001619 -120.27927 -16.732145 -16.228693
41900000000 -15.309056 -63.754639 -1.1185255 -122.36864 -1.1130707 -122.43557 -17.14426 -28.821848
42000000000 -15.021772 -58.655727 -1.1621441 -123.69089 -1.0749071 -124.2961 -16.448883 -24.761871
42100000000 -14.639074 -60.110241 -1.0758833 -126.52192 -1.1763813 -126.45844 -16.104332 -32.841869
42200000000 -15.300724 -60.443192 -1.0701061 -128.19188 -1.1328648 -128.05284 -15.895646 -23.945313
42300000000 -16.289757 -60.036121 -1.1377892 -130.37083 -1.0916363 -130.24718 -15.867578 -34.424534
42400000000 -16.636625 -73.300873 -1.06591 -132.19057 -1.1409544 -132.13638 -17.025492 -28.494179
42500000000 -14.788048 -68.145058 -1.0439608 -134.17462 -1.0508763 -135.00743 -17.712412 -37.609501
42600000000 -14.767732 -75.417549 -1.0831696 -136.21751 -0.98858279 -136.02551 -17.498524 -35.620159
42700000000 -15.654105 -67.390495 -1.0223291 -138.12578 -1.0152489 -138.44385 -16.144772 -49.687649
42800000000 -16.276863 -65.504387 -1.0729291 -140.36353 -1.0964365 -140.17509 -17.505939 -48.956573
42900000000 -18.914108 -53.420254 -1.162322 -142.67807 -1.1515117 -142.4005 -16.109364 -42.242535
43000000000 -17.813343 -79.367813 -1.0537498 -144.46967 -1.0716236 -144.35869 -16.13801 -43.99025
43100000000 -17.830849 -85.96254 -1.043444 -146.94109 -1.0891302 -147.22905 -18.216505 -33.095726
43200000000 -15.531702 -79.0355 -1.0592389 -148.75522 -1.0171988 -149.40677 -19.01037 -46.500931
43300000000 -16.800718 -70.797607 -1.0659471 -150.33553 -1.0955849 -150.39342 -19.662994 -48.374424
43400000000 -17.303696 -59.442303 -1.0182623 -152.85252 -1.0317345 -152.22887 -18.12521 -60.0289
43500000000 -19.55859 -63.802258 -1.1063389 -154.53864 -1.0300242 -154.67145 -18.365135 -64.925728
43600000000 -20.853914 -72.036049 -0.99503714 -156.40216 -1.0427357 -157.00238 -16.85544 -55.056156
43700000000 -20.200119 -90.155281 -1.0217307 -158.93346 -1.0473417 -158.80165 -18.065964 -47.69231
43800000000 -19.087772 -85.44091 -0.97036022 -160.99226 -1.0434448 -161.0542 -19.247702 -45.640774
43900000000 -18.458418 -80.572517 -0.96349353 -163.28424 -1.0213091 -162.95682 -22.642391 -51.459892
44000000000 -20.610331 -66.254448 -1.0128244 -165.19394 -1.0374199 -164.18896 -21.426668 -62.436111
44100000000 -21.486246 -65.626976 -1.0357975 -166.96445 -1.0891055 -167.37796 -20.717369 -65.450432
44200000000 -24.158278 -51.319569 -1.0409576 -169.08994 -1.0254165 -169.40179 -19.595596 -65.636818
44300000000 -22.238686 -80.099152 -0.97843808 -171.50476 -1.0332915 -170.72285 -21.263456 -59.486057
44400000000 -22.929138 -89.589386 -1.0191954 -172.89795 -1.0455749 -173.44835 -21.871477 -52.741585
44500000000 -21.190796 -80.568619 -1.0172063 -175.61543 -0.98460788 -175.28188 -22.79912 -64.436813
44600000000 -21.626209 -72.507187 -1.0273666 -177.47812 -1.0812858 -177.20407 -26.300156 -50.209969
44700000000 -21.537376 -43.181122 -1.033848 -179.06546 -1.0958557 -179.16237 -23.629822 -81.564316
44800000000 -26.312798 -64.415413 -1.014249 178.04166 -1.0028715 178.55997 -24.634932 -51.897476
44900000000 -27.210293 -53.330959 -1.034368 176.72116 -1.0647916 176.37508 -23.724617 -59.476646
45000000000 -29.667467 -54.515144 -1.1001596 174.82109 -1.0580095 173.90721 -27.698853 -8.0431423
