!Keysight Technologies,N5247B,MY61255062,A.19.80.06
!Date: Monday, May 18, 2026 12:42:40
!Correction: S11(Cdelta 2-Port  ) 
!S21(Cdelta 2-Port  ) 
!S12(Cdelta 2-Port  ) 
!S22(Cdelta 2-Port  ) 
!S2P File: Measurements: S11, S21, S12, S22:
# Hz S  dB   R 50
1000000000 -26.669384 -16.263298 -0.40635255 -21.02331 -0.40012032 -21.009926 -27.113653 -17.666576
1100000000 -26.615841 -18.759634 -0.41660243 -23.067804 -0.41136932 -23.057476 -27.188246 -19.838728
1200000000 -26.532402 -20.744843 -0.42556021 -25.072618 -0.42183077 -25.059864 -27.184147 -20.944208
1300000000 -26.474087 -23.027161 -0.4324407 -27.137594 -0.42808768 -27.128643 -27.05485 -23.390308
1400000000 -26.35651 -24.847374 -0.43519139 -29.132505 -0.4316012 -29.113743 -27.032646 -24.669867
1500000000 -26.27503 -27.471825 -0.4391686 -31.166933 -0.43391767 -31.161175 -26.855289 -26.801525
1600000000 -26.205257 -29.78014 -0.44263291 -33.207813 -0.43718371 -33.203163 -26.803627 -30.066738
1700000000 -26.097225 -32.296513 -0.44569066 -35.241756 -0.44031581 -35.225979 -26.709452 -32.002583
1800000000 -25.976097 -34.640396 -0.44829074 -37.289482 -0.4440124 -37.272705 -26.638577 -34.53186
1900000000 -25.868126 -37.139347 -0.45129877 -39.335762 -0.44586217 -39.323502 -26.521833 -36.999538
2000000000 -25.85343 -39.639404 -0.4563387 -41.401783 -0.4510377 -41.386688 -26.493002 -39.770702
2100000000 -25.744085 -42.410645 -0.45986855 -43.441887 -0.4541623 -43.421265 -26.518484 -41.915718
2200000000 -25.764978 -45.038815 -0.46162894 -45.474812 -0.45767856 -45.476444 -26.472265 -44.900307
2300000000 -25.734474 -47.614914 -0.46692473 -47.533745 -0.46145621 -47.533478 -26.458149 -47.140091
2400000000 -25.708725 -50.078175 -0.47252023 -49.579189 -0.46867415 -49.55505 -26.502396 -49.796391
2500000000 -25.666166 -52.188416 -0.4765211 -51.630737 -0.47298434 -51.611992 -26.431438 -52.234753
2600000000 -25.669241 -54.929054 -0.48141575 -53.675053 -0.47840905 -53.661015 -26.495157 -55.187206
2700000000 -25.713484 -57.469616 -0.48944107 -55.714497 -0.48578146 -55.689793 -26.58246 -58.154198
2800000000 -25.767056 -60.17215 -0.49560183 -57.730534 -0.49091378 -57.71619 -26.553652 -60.761433
2900000000 -25.858944 -62.539165 -0.4982709 -59.766678 -0.49508539 -59.751232 -26.590172 -63.342083
3000000000 -25.813597 -64.755714 -0.50424564 -61.781097 -0.49856383 -61.765148 -26.689533 -65.416779
3100000000 -25.900064 -67.070496 -0.50528222 -63.802738 -0.50227696 -63.798904 -26.794842 -67.470108
3200000000 -25.815723 -69.232903 -0.51087552 -65.837456 -0.50600636 -65.829689 -26.875019 -69.622734
3300000000 -25.883305 -71.989342 -0.51550066 -67.870094 -0.50893295 -67.855339 -26.893564 -72.248047
3400000000 -25.993488 -74.369705 -0.51909673 -69.904778 -0.51339436 -69.895935 -26.948046 -75.138359
3500000000 -25.95232 -77.224648 -0.52316034 -71.917122 -0.51572746 -71.901817 -27.015646 -76.91407
3600000000 -25.973288 -79.054123 -0.52309227 -73.932739 -0.51728433 -73.934799 -27.104189 -78.628342
3700000000 -26.015875 -81.52459 -0.52687436 -75.964653 -0.52149361 -75.950844 -27.044077 -80.592896
3800000000 -26.056459 -83.216888 -0.52714503 -77.999687 -0.52077913 -78.000092 -27.122164 -83.058937
3900000000 -26.101702 -85.481689 -0.52910364 -80.038971 -0.52437842 -80.038429 -27.254843 -85.456902
4000000000 -26.157005 -87.587509 -0.53313386 -82.090729 -0.52836215 -82.085625 -27.409954 -87.525978
4100000000 -26.167948 -89.708267 -0.53926849 -84.138031 -0.53435534 -84.110558 -27.548508 -89.590462
4200000000 -26.28816 -91.91465 -0.54197359 -86.137878 -0.53808224 -86.12793 -27.609272 -91.825684
4300000000 -26.35183 -93.906219 -0.54478461 -88.154816 -0.53921044 -88.132301 -27.646872 -94.447739
4400000000 -26.507677 -95.94883 -0.5457114 -90.183113 -0.54210263 -90.168877 -27.829176 -95.864082
4500000000 -26.645052 -97.657333 -0.54801852 -92.214279 -0.54292154 -92.191551 -27.859943 -98.010124
4600000000 -26.778957 -100.14074 -0.54940307 -94.244583 -0.54676205 -94.23587 -28.101965 -99.972992
4700000000 -26.813709 -102.36417 -0.55056596 -96.278862 -0.54683459 -96.25843 -28.117899 -102.08913
4800000000 -26.966688 -104.82906 -0.55472946 -98.2995 -0.54968894 -98.285973 -28.340977 -104.18485
4900000000 -27.073351 -106.36649 -0.55654931 -100.34225 -0.55154872 -100.33824 -28.312634 -106.07296
5000000000 -27.230482 -108.00848 -0.56002611 -102.36551 -0.55534244 -102.35629 -28.582191 -107.70814
5100000000 -27.397264 -109.08597 -0.56339961 -104.41426 -0.55900079 -104.37953 -28.754496 -108.76894
5200000000 -27.536594 -111.48918 -0.56561822 -106.42036 -0.56021398 -106.41693 -29.109329 -110.70313
5300000000 -27.688538 -113.76949 -0.56669843 -108.45734 -0.56508422 -108.45753 -29.293564 -113.50708
5400000000 -27.87278 -116.46703 -0.56937468 -110.486 -0.56698865 -110.48762 -29.48694 -116.89944
5500000000 -28.085005 -118.18779 -0.5736593 -112.52363 -0.56933242 -112.51365 -29.446321 -118.36401
5600000000 -28.202621 -120.54997 -0.57804394 -114.55042 -0.57321799 -114.54329 -29.534887 -119.96689
5700000000 -28.419168 -121.01154 -0.57875907 -116.57288 -0.57385838 -116.55648 -29.670591 -119.01974
5800000000 -28.543991 -123.24345 -0.5816564 -118.58395 -0.57650477 -118.56867 -30.062548 -120.6004
5900000000 -28.937197 -125.22153 -0.5837813 -120.59476 -0.57949287 -120.60192 -30.604618 -122.14937
6000000000 -28.935429 -127.59463 -0.58649027 -122.61923 -0.57968283 -122.6031 -30.930128 -126.85164
6100000000 -29.357979 -130.00227 -0.58616972 -124.64339 -0.57966715 -124.61415 -31.198063 -129.85013
6200000000 -29.635605 -130.9364 -0.5830127 -126.65762 -0.58048517 -126.65973 -31.180042 -131.89709
6300000000 -30.239994 -132.84554 -0.58556241 -128.69978 -0.57798952 -128.69115 -31.46624 -129.72081
6400000000 -30.590502 -133.86783 -0.58952475 -130.70549 -0.58371764 -130.71089 -31.605572 -131.20239
6500000000 -30.981922 -136.92067 -0.58489299 -132.75677 -0.58312815 -132.74303 -32.678761 -131.8463
6600000000 -31.332705 -137.70525 -0.58654392 -134.80356 -0.58352429 -134.79243 -33.338104 -133.54723
6700000000 -31.737057 -139.98747 -0.5899716 -136.83929 -0.58680499 -136.83142 -33.717304 -135.06804
6800000000 -32.025463 -136.90263 -0.59157997 -138.88292 -0.58777016 -138.88998 -33.769733 -136.73506
6900000000 -32.269253 -137.57242 -0.59542483 -140.92622 -0.58821595 -140.91811 -33.913811 -134.32124
7000000000 -32.580097 -135.11752 -0.60524487 -142.95403 -0.59946275 -142.94916 -33.804379 -132.53668
7100000000 -33.194107 -139.10182 -0.60314512 -144.92299 -0.59782922 -144.9153 -34.999538 -133.08127
7200000000 -34.146404 -138.98985 -0.59872049 -146.96162 -0.59348953 -146.9317 -35.844807 -132.86081
7300000000 -34.340549 -137.96729 -0.59468889 -149.01102 -0.59341472 -148.98889 -36.522419 -134.44232
7400000000 -35.05899 -139.25952 -0.60029137 -151.06621 -0.59767741 -151.04936 -36.24469 -134.92075
7500000000 -35.373417 -137.75156 -0.60580403 -153.07832 -0.60041201 -153.07736 -36.179287 -131.56108
7600000000 -36.404457 -134.44052 -0.6053502 -155.10995 -0.601201 -155.10007 -36.369526 -127.2671
7700000000 -36.672874 -131.16612 -0.60648024 -157.14735 -0.59893799 -157.12938 -37.613255 -118.62423
7800000000 -37.144001 -129.91017 -0.60542041 -159.19427 -0.60281497 -159.17894 -38.637642 -116.7967
7900000000 -37.33353 -129.81483 -0.60994929 -161.24811 -0.60538143 -161.22398 -40.047943 -117.15714
8000000000 -38.033287 -127.4845 -0.61027789 -163.28427 -0.60562843 -163.26207 -38.906536 -123.92568
8100000000 -38.491516 -119.20677 -0.6137625 -165.32617 -0.60730988 -165.30725 -38.174179 -119.72088
8200000000 -38.807823 -114.21632 -0.61434215 -167.36511 -0.60980481 -167.3549 -36.837849 -108.1571
8300000000 -38.776493 -110.08016 -0.61602879 -169.41896 -0.61147773 -169.39737 -37.694866 -93.057022
8400000000 -39.799076 -109.79816 -0.62135297 -171.48927 -0.6181013 -171.46777 -40.446926 -80.058975
8500000000 -40.207951 -103.15708 -0.63869309 -173.61026 -0.63525885 -173.60339 -53.633419 -148.10847
8600000000 -39.240894 -100.6441 -0.70194864 -175.65359 -0.69762647 -175.6234 -35.234375 146.85219
8700000000 -46.026234 -149.53934 -0.7193023 -176.56477 -0.71258736 -176.56836 -27.535337 116.03392
8800000000 -39.639893 -58.132698 -0.56312436 -179.01974 -0.56186706 -178.98233 -31.926304 102.72185
8900000000 -37.787552 -80.626068 -0.58686393 178.51053 -0.58182216 178.52138 -39.592197 153.51077
9000000000 -38.111134 -85.096901 -0.61200285 176.41765 -0.61073643 176.41777 -36.080482 -139.55402
9100000000 -37.628208 -75.445435 -0.62501121 174.37814 -0.62424153 174.38519 -33.980949 -110.47431
9200000000 -36.610973 -76.507225 -0.63512194 172.3483 -0.63143122 172.34874 -33.216187 -93.324287
9300000000 -36.192657 -72.297012 -0.64045972 170.33766 -0.63379002 170.34329 -34.195038 -77.095146
9400000000 -35.722294 -75.421783 -0.64424336 168.32469 -0.63961864 168.33781 -35.218742 -75.129341
9500000000 -35.544968 -72.141716 -0.64427102 166.29309 -0.64083475 166.32706 -36.93922 -78.766472
9600000000 -34.533375 -71.535416 -0.64720035 164.27386 -0.64324063 164.28586 -35.823662 -89.438927
9700000000 -34.330093 -70.154999 -0.64798552 162.2393 -0.64463764 162.26199 -34.966782 -92.692497
9800000000 -33.514423 -70.381195 -0.65271819 160.18646 -0.64729774 160.21828 -33.724575 -88.864525
9900000000 -33.796764 -71.396851 -0.65381581 158.17506 -0.64991826 158.19328 -33.692795 -82.374802
10000000000 -33.089283 -70.250755 -0.66071343 156.13339 -0.65155953 156.18336 -33.598312 -81.064743
10100000000 -32.818188 -71.330276 -0.66192311 154.1272 -0.65660858 154.12489 -34.808525 -82.958252
10200000000 -31.986614 -68.401665 -0.66279298 152.09846 -0.66110528 152.09019 -34.385063 -89.891235
10300000000 -31.790977 -71.705032 -0.66751915 150.03474 -0.66060799 150.07224 -33.939781 -94.907883
10400000000 -31.41292 -71.17218 -0.67112225 148.00281 -0.66637164 148.04727 -32.520054 -93.904884
10500000000 -31.258291 -75.830582 -0.67197281 145.98135 -0.67067754 146.01997 -32.048393 -91.588364
10600000000 -31.062899 -75.156082 -0.67520696 143.95003 -0.67337483 143.98808 -31.710218 -87.271896
10700000000 -30.424295 -76.198845 -0.67994398 141.94568 -0.6732406 141.96683 -32.306297 -85.367622
10800000000 -30.243984 -74.692909 -0.68204969 139.93146 -0.67559105 139.94518 -32.456448 -85.613297
10900000000 -29.764933 -75.384193 -0.68480855 137.91251 -0.68039024 137.94608 -33.185589 -89.921257
11000000000 -29.722267 -76.454376 -0.68830985 135.87691 -0.68381464 135.91611 -32.646873 -93.522575
11100000000 -29.482643 -80.021889 -0.69241202 133.88058 -0.68730599 133.88216 -32.382572 -98.66375
11200000000 -29.456459 -81.937958 -0.69629383 131.86324 -0.69129914 131.86392 -31.510998 -97.123032
11300000000 -28.972754 -82.430298 -0.69791406 129.81902 -0.69572103 129.85373 -31.363905 -99.552444
11400000000 -28.706505 -83.505264 -0.70112628 127.81898 -0.69403142 127.83759 -30.96353 -97.11998
11500000000 -28.3969 -84.421539 -0.7013526 125.80053 -0.69595468 125.82214 -30.903772 -98.188721
11600000000 -28.299139 -87.014992 -0.70709658 123.79557 -0.69904506 123.80582 -30.9757 -98.230888
11700000000 -28.067167 -87.556725 -0.70555997 121.779 -0.70308918 121.7923 -31.218319 -101.338
11800000000 -28.039194 -90.953377 -0.70624036 119.77398 -0.70498723 119.80607 -31.010841 -102.23769
11900000000 -27.849049 -91.820038 -0.71392018 117.7767 -0.70756328 117.77503 -31.070354 -106.7953
12000000000 -27.796497 -95.125633 -0.71410418 115.74651 -0.71228695 115.76426 -30.785145 -106.98856
12100000000 -27.594681 -95.439293 -0.71595848 113.75153 -0.71079761 113.75674 -30.565002 -111.83327
12200000000 -27.346636 -99.168671 -0.71461499 111.75196 -0.71173799 111.75833 -30.235769 -112.72881
12300000000 -27.427305 -99.47728 -0.71799684 109.72937 -0.71132874 109.77673 -30.007215 -114.04993
12400000000 -27.287729 -102.54771 -0.71824425 107.74508 -0.71192551 107.76131 -30.268671 -114.48756
12500000000 -27.645264 -103.02213 -0.71428388 105.7442 -0.70767605 105.75631 -30.402 -117.66622
12600000000 -27.423639 -106.5287 -0.70714778 103.73589 -0.70408267 103.75562 -30.472445 -118.39172
12700000000 -27.499058 -107.83608 -0.70641911 101.70121 -0.70522106 101.73182 -30.466633 -122.70424
12800000000 -27.182629 -110.39851 -0.7018677 99.684593 -0.69581676 99.706184 -30.535206 -123.73514
12900000000 -27.394262 -112.09352 -0.70082206 97.656776 -0.69822776 97.673698 -30.667425 -128.75941
13000000000 -27.259598 -112.23822 -0.70152813 95.614388 -0.69437587 95.63311 -30.709293 -128.07416
13100000000 -27.752407 -115.36961 -0.69570583 93.568825 -0.69230515 93.607445 -30.71998 -131.20158
13200000000 -27.633688 -114.80029 -0.69382495 91.535324 -0.69073766 91.545494 -31.079311 -129.78285
13300000000 -27.784615 -119.23589 -0.69388235 89.497574 -0.69137293 89.497948 -30.999008 -130.91747
13400000000 -27.829432 -116.98724 -0.69379544 87.425774 -0.68750918 87.457436 -31.814981 -131.22435
13500000000 -27.848104 -120.7572 -0.69308031 85.391228 -0.68746912 85.425285 -32.134228 -133.66747
13600000000 -28.141369 -119.71657 -0.69466567 83.334099 -0.6908114 83.362038 -32.813686 -132.96733
13700000000 -27.971697 -122.24084 -0.69789064 81.274582 -0.69366121 81.281769 -32.67136 -137.85909
13800000000 -28.285704 -121.35602 -0.70328581 79.187706 -0.69985425 79.218582 -33.111427 -136.69649
13900000000 -27.709505 -122.56321 -0.72249186 77.127098 -0.7150746 77.156746 -32.274063 -135.3391
14000000000 -27.819227 -125.27466 -0.73625392 75.26265 -0.73292029 75.290039 -32.143406 -136.12299
14100000000 -27.96117 -132.13992 -0.71963376 73.304115 -0.71618927 73.329353 -32.083664 -144.16129
14200000000 -28.753988 -134.10545 -0.70684528 71.265656 -0.70287186 71.309692 -33.700001 -146.12192
14300000000 -28.675762 -134.1281 -0.70307428 69.186211 -0.69905508 69.213837 -33.645309 -148.18234
14400000000 -29.27722 -136.07097 -0.70584321 67.131409 -0.70058692 67.151459 -34.703358 -148.89926
14500000000 -29.067549 -134.22931 -0.70811874 65.038216 -0.70533645 65.070465 -34.522129 -147.90578
14600000000 -29.763344 -135.32407 -0.71493727 62.97298 -0.70760322 63.013584 -35.942406 -148.92644
14700000000 -29.245903 -133.67749 -0.7332657 60.92738 -0.72628772 60.94212 -35.222294 -145.35918
14800000000 -29.108284 -143.04308 -0.73959464 59.073296 -0.73490715 59.095707 -35.405472 -160.2984
14900000000 -29.449953 -143.45876 -0.72486788 57.045937 -0.7217136 57.066612 -35.415985 -167.39433
15000000000 -30.018806 -146.66417 -0.72332317 54.98819 -0.7218771 55.029499 -35.82951 -164.13145
15100000000 -30.56448 -141.59552 -0.72617239 52.963745 -0.72055715 52.989197 -35.1982 -156.60194
15200000000 -30.812237 -146.95679 -0.72025281 50.931324 -0.71593559 50.957962 -36.365177 -152.77039
15300000000 -31.225697 -143.18178 -0.72190249 48.900024 -0.71715009 48.901398 -38.305698 -149.97032
15400000000 -30.594376 -149.28958 -0.7207976 46.802696 -0.71933043 46.851986 -40.716923 -158.65541
15500000000 -31.066324 -145.93573 -0.72607261 44.786819 -0.72263247 44.817348 -40.982758 -166.64511
15600000000 -30.630049 -149.56738 -0.72759968 42.751266 -0.72502726 42.787613 -39.793949 179.26451
15700000000 -31.985371 -148.22066 -0.73158443 40.712002 -0.72491807 40.732594 -38.540775 -170.74774
15800000000 -32.124363 -151.38347 -0.73362488 38.684616 -0.72893894 38.718105 -38.495449 -162.59605
15900000000 -33.46463 -153.10818 -0.73158318 36.659718 -0.7322762 36.682041 -39.115643 -149.22318
16000000000 -32.35627 -155.71649 -0.73674613 34.628105 -0.73162973 34.648647 -41.731422 -145.48558
16100000000 -33.275288 -159.98628 -0.73933196 32.617558 -0.73669738 32.623302 -44.583241 -138.39435
16200000000 -32.707623 -155.28973 -0.7428965 30.570185 -0.73897225 30.606771 -50.017231 -166.86258
16300000000 -34.121651 -159.78618 -0.74712133 28.56745 -0.7407071 28.60051 -46.000187 -153.20552
16400000000 -34.758904 -151.7972 -0.74965978 26.516054 -0.74618524 26.569639 -48.087482 -177.66866
16500000000 -36.523201 -163.62939 -0.75089598 24.49346 -0.74763602 24.531681 -44.674591 -150.45605
16600000000 -37.159645 -161.13667 -0.75264359 22.480797 -0.7488234 22.511406 -50.395885 -134.28601
16700000000 -36.454315 -175.30247 -0.75654197 20.447876 -0.75509715 20.453814 -47.001637 -108.49108
16800000000 -36.865612 -166.20001 -0.76117551 18.434099 -0.75664061 18.471512 -56.12442 -47.121624
16900000000 -36.330502 -169.35292 -0.76221722 16.413792 -0.7586605 16.454782 -49.924664 -61.298901
17000000000 -39.646149 -152.59593 -0.76429349 14.396386 -0.76190472 14.418422 -65.735428 -56.116684
17100000000 -41.226307 -155.7523 -0.76696956 12.390083 -0.76412064 12.409102 -51.355068 -75.794579
17200000000 -48.681664 -175.47209 -0.76837754 10.372839 -0.76459998 10.423435 -60.040741 -106.43145
17300000000 -43.641888 174.15353 -0.76524121 8.34062 -0.76181591 8.3841286 -45.186405 -56.787472
17400000000 -42.484341 161.3391 -0.77029568 6.3448114 -0.76522481 6.3508158 -46.125542 -28.410217
17500000000 -39.653751 -175.4138 -0.77309084 4.3075323 -0.76755518 4.3230567 -42.168118 -23.042015
17600000000 -44.640778 -160.1293 -0.77433991 2.2640927 -0.769481 2.332854 -45.828228 1.1294305
17700000000 -45.150181 -127.80547 -0.77823436 0.26798329 -0.76858979 0.29404846 -45.431213 -3.2845585
17800000000 -53.506481 -23.7514 -0.77898192 -1.7467059 -0.77163148 -1.7254429 -55.455997 -27.824911
17900000000 -59.636284 -2.1906483 -0.78182298 -3.7575126 -0.77516359 -3.7258201 -46.245842 -63.410179
18000000000 -49.087929 106.33578 -0.78434396 -5.8149486 -0.77657056 -5.767036 -41.631805 -61.158627
18100000000 -48.051929 -161.77589 -0.77545291 -7.795207 -0.77354121 -7.7917304 -37.46315 -38.857334
18200000000 -49.991398 -135.6478 -0.77882212 -9.8137102 -0.7738474 -9.7728901 -37.738945 -27.96632
18300000000 -45.001045 -68.880493 -0.78028417 -11.813409 -0.77375895 -11.798035 -37.386047 -11.258105
18400000000 -45.904816 -23.719549 -0.77771044 -13.83693 -0.78104919 -13.847948 -41.239117 3.7662466
18500000000 -41.513451 -20.962664 -0.78142786 -15.916467 -0.77500302 -15.840886 -45.450634 -11.459023
18600000000 -43.841339 -9.2184496 -0.77965844 -17.912506 -0.77474988 -17.905046 -43.304291 -68.857101
18700000000 -41.695477 -36.26643 -0.77408409 -19.927736 -0.77038717 -19.885914 -37.206417 -62.668358
18800000000 -42.871738 -55.210579 -0.77271038 -21.979826 -0.77104717 -21.919582 -34.274593 -51.071724
18900000000 -38.86655 -38.884937 -0.77381343 -23.949665 -0.77015322 -23.91394 -33.244202 -35.963825
19000000000 -39.257061 -45.49622 -0.77614123 -25.970953 -0.77188569 -25.907236 -34.17313 -19.858789
19100000000 -37.025509 -25.057682 -0.77445751 -27.9704 -0.77024472 -27.937294 -35.842777 -17.210245
19200000000 -36.683289 -36.683445 -0.77676153 -29.98155 -0.7750299 -29.952633 -40.425816 -16.549526
19300000000 -36.177368 -27.643265 -0.77572405 -32.048035 -0.76959193 -31.979622 -37.568787 -54.502586
19400000000 -36.668076 -40.189926 -0.77484888 -34.052494 -0.76953262 -34.008205 -36.657581 -54.919117
19500000000 -37.517529 -28.461266 -0.77183342 -36.061325 -0.76765776 -36.0448 -33.59222 -51.906326
19600000000 -35.83905 -42.941925 -0.76749402 -38.123051 -0.76586831 -38.081894 -34.016876 -41.515198
19700000000 -35.925709 -39.418671 -0.7675311 -40.153706 -0.76521558 -40.107666 -33.715137 -35.183964
19800000000 -33.463017 -39.557411 -0.76839453 -42.172352 -0.76668543 -42.160854 -36.436848 -33.572395
19900000000 -34.055862 -32.433323 -0.7707507 -44.221809 -0.76121002 -44.170494 -35.518337 -36.263023
20000000000 -33.952282 -26.249619 -0.76747423 -46.258148 -0.7650649 -46.249275 -36.223843 -49.293926
20100000000 -35.631645 -21.8957 -0.76654673 -48.28756 -0.76105148 -48.2999 -33.7701 -42.057838
20200000000 -34.900928 -32.418495 -0.7634182 -50.372181 -0.76085103 -50.297321 -33.876339 -41.028866
20300000000 -34.626987 -46.968555 -0.77198243 -52.420235 -0.76811093 -52.385693 -33.289238 -30.031563
20400000000 -31.904253 -42.399036 -0.77208233 -54.478222 -0.76887685 -54.447067 -35.338131 -36.613335
20500000000 -31.093298 -41.960865 -0.78404379 -56.53186 -0.77872461 -56.48653 -35.120567 -40.179028
20600000000 -30.654259 -36.317825 -0.79052609 -58.52182 -0.78984296 -58.49622 -33.357513 -58.969414
20700000000 -32.462395 -46.947033 -0.79651308 -60.430668 -0.78759903 -60.444752 -31.723967 -55.441925
20800000000 -33.306293 -46.024529 -0.78555441 -62.431091 -0.78399509 -62.393883 -30.486097 -57.960926
20900000000 -32.945347 -60.990135 -0.77203071 -64.484818 -0.7699495 -64.457039 -30.794289 -43.690441
21000000000 -31.561901 -56.391502 -0.77080542 -66.526466 -0.76670611 -66.510963 -32.484444 -42.902702
21100000000 -29.968067 -57.381985 -0.77035445 -68.596817 -0.76264888 -68.568085 -33.468502 -39.464287
21200000000 -30.447279 -50.158657 -0.77401322 -70.69265 -0.77004689 -70.658485 -34.673401 -54.020576
21300000000 -30.322861 -54.886784 -0.77847624 -72.758011 -0.77227592 -72.742516 -33.150391 -65.474655
21400000000 -31.794931 -55.645065 -0.79172343 -74.797279 -0.79299438 -74.769615 -31.058086 -66.384201
21500000000 -30.557562 -71.124962 -0.78893799 -76.782097 -0.78437746 -76.733299 -29.759237 -69.670128
21600000000 -31.403097 -71.077522 -0.78809589 -78.776619 -0.77909189 -78.730133 -29.704351 -59.358047
21700000000 -29.233074 -69.141823 -0.77184486 -80.77607 -0.77082306 -80.767029 -30.3174 -49.420689
21800000000 -29.597906 -65.573463 -0.77809256 -82.807739 -0.77432603 -82.786064 -32.053635 -47.071648
21900000000 -28.848711 -61.15559 -0.78112912 -84.826988 -0.78081495 -84.804794 -33.004051 -46.476871
22000000000 -30.793112 -64.97406 -0.79755402 -86.870262 -0.7928561 -86.831024 -33.816746 -73.741394
22100000000 -31.108225 -66.92347 -0.791556 -88.841812 -0.7896741 -88.80307 -31.812618 -78.667015
22200000000 -31.980169 -82.046158 -0.78574616 -90.950974 -0.78495491 -90.882851 -31.103048 -81.210609
22300000000 -30.88262 -76.335388 -0.78006238 -93.021187 -0.77593511 -93.00428 -29.80759 -64.188774
22400000000 -29.95789 -76.374191 -0.77999949 -95.046677 -0.77673399 -95.00354 -30.594997 -60.26123
22500000000 -29.447748 -66.572472 -0.78064263 -97.06971 -0.77063507 -97.048195 -31.682606 -46.768768
22600000000 -30.198168 -66.990433 -0.78758943 -99.095421 -0.77923685 -99.042488 -33.340054 -63.437767
22700000000 -32.527058 -62.766392 -0.79118949 -101.13968 -0.78664023 -101.0958 -33.715775 -67.581322
22800000000 -32.255367 -81.552277 -0.79476082 -103.158 -0.78913355 -103.14577 -31.458149 -86.142426
22900000000 -32.127144 -90.886208 -0.79701132 -105.17191 -0.79503655 -105.17529 -31.260607 -76.281693
23000000000 -29.217499 -88.229477 -0.79337686 -107.26055 -0.7896421 -107.24111 -30.453951 -75.755325
23100000000 -29.582644 -81.431473 -0.79177219 -109.31151 -0.7849431 -109.29103 -31.681913 -56.520676
23200000000 -29.441483 -71.74511 -0.79859245 -111.37599 -0.79252243 -111.35077 -32.855534 -67.801987
23300000000 -33.121544 -71.054199 -0.79655355 -113.41821 -0.79109538 -113.34997 -35.695499 -83.560959
23400000000 -34.258686 -82.307846 -0.80183482 -115.46703 -0.79721969 -115.40148 -31.76688 -99.323906
23500000000 -34.095661 -113.0906 -0.80176169 -117.48196 -0.79588652 -117.45218 -31.285175 -100.78323
23600000000 -31.509701 -105.2212 -0.80746394 -119.52424 -0.8025977 -119.49352 -28.934126 -85.455185
23700000000 -29.983889 -103.21243 -0.8079316 -121.51609 -0.80260086 -121.49815 -30.851532 -71.76918
23800000000 -30.008881 -92.253716 -0.8178131 -123.5864 -0.81314284 -123.54987 -32.801926 -66.21357
23900000000 -32.344799 -96.431877 -0.81578952 -125.60316 -0.81587511 -125.57259 -38.656223 -75.326721
24000000000 -35.460796 -94.926704 -0.81551152 -127.67304 -0.81373036 -127.61918 -35.07798 -128.24136
24100000000 -35.352436 -129.05658 -0.81650174 -129.69852 -0.81352305 -129.66119 -31.48842 -131.7399
24200000000 -34.567955 -133.03044 -0.81645077 -131.71191 -0.80573124 -131.70093 -30.18162 -116.08479
24300000000 -31.364473 -129.44989 -0.8158654 -133.74663 -0.81005353 -133.6626 -29.700344 -103.93724
24400000000 -32.240814 -114.40688 -0.81602192 -135.73248 -0.80773455 -135.67802 -31.658789 -83.573013
24500000000 -32.213882 -114.93111 -0.82331997 -137.74196 -0.81980258 -137.69699 -36.440552 -81.563034
24600000000 -37.944077 -124.29655 -0.82794136 -139.78529 -0.8248722 -139.74748 -44.67522 -103.68977
24700000000 -37.520252 -142.09517 -0.82906252 -141.79973 -0.83088821 -141.75644 -37.210579 -166.57942
24800000000 -35.513206 178.1447 -0.83285862 -143.87981 -0.83025604 -143.84251 -33.612976 -161.08331
24900000000 -34.307877 -158.45819 -0.82504493 -145.88132 -0.81922483 -145.87834 -32.521885 -147.57108
25000000000 -34.723415 -164.81673 -0.82321072 -147.91704 -0.82183522 -147.87115 -32.993656 -126.43721
25100000000 -36.355415 -134.21408 -0.81680912 -149.90472 -0.81608939 -149.86519 -37.692852 -110.80137
25200000000 -39.728462 -174.92641 -0.82487845 -151.9399 -0.82019967 -151.85191 -42.915501 -119.29685
25300000000 -46.5275 157.99623 -0.83007741 -153.95483 -0.82949644 -153.90945 -41.528339 142.40224
25400000000 -35.366158 137.84622 -0.83537775 -155.99402 -0.8327508 -155.98854 -37.940018 167.54543
25500000000 -36.086845 127.58315 -0.83900607 -158.04561 -0.83672303 -157.99606 -36.945251 145.84329
25600000000 -34.619484 152.88701 -0.83935148 -160.09596 -0.82947516 -160.09558 -36.613384 166.52324
25700000000 -37.066639 133.32877 -0.83956975 -162.12764 -0.83172393 -162.11029 -41.150734 155.83026
25800000000 -37.093372 134.72978 -0.83974814 -164.15356 -0.83138347 -164.09494 -39.342304 141.13486
25900000000 -35.139248 92.775452 -0.83360881 -166.11867 -0.83154994 -166.15451 -39.912884 111.63789
26000000000 -35.583321 98.757179 -0.83441335 -168.16263 -0.82971269 -168.12819 -35.927353 99.658066
26100000000 -32.041485 91.264992 -0.84584147 -170.23244 -0.83712417 -170.21635 -34.93066 100.99703
26200000000 -32.31057 92.042496 -0.84043539 -172.308 -0.83434463 -172.26933 -33.402031 89.647903
26300000000 -30.487877 90.480507 -0.8543759 -174.28004 -0.84821016 -174.24591 -32.971775 105.50583
26400000000 -31.712934 89.397621 -0.84996808 -176.34344 -0.84279424 -176.31413 -33.032337 81.501793
26500000000 -30.056808 88.904236 -0.84918863 -178.3549 -0.84874421 -178.35866 -32.35445 91.803772
26600000000 -30.099491 74.425781 -0.86274582 179.47269 -0.84274805 179.68625 -31.982903 71.978874
26700000000 -28.671894 71.292366 -0.86761928 177.57005 -0.84890318 177.5453 -30.656096 71.091316
26800000000 -28.377344 68.745956 -0.86359149 175.66008 -0.85545886 175.55049 -28.759853 72.858047
26900000000 -27.146343 73.548019 -0.8686679 173.46141 -0.87352806 173.54164 -29.525068 73.476906
27000000000 -27.528183 65.00013 -0.85792989 171.38251 -0.84257859 171.47777 -26.912611 73.375389
27100000000 -27.327597 68.082634 -0.86727411 169.45715 -0.85850835 169.4299 -29.232399 73.570465
27200000000 -25.870573 60.459911 -0.88844776 167.33902 -0.87757808 167.36646 -27.691254 63.968849
27300000000 -25.967993 60.331951 -0.87996954 165.37222 -0.86959887 165.39001 -27.683382 53.645042
27400000000 -24.973122 55.39122 -0.89754915 163.32458 -0.87609655 163.36813 -25.382439 54.923096
27500000000 -25.812344 58.859867 -0.90121037 161.30888 -0.86713409 161.38832 -25.650137 50.616646
27600000000 -24.819414 53.169018 -0.87682724 159.28825 -0.87333781 159.40164 -24.778603 61.639584
27700000000 -25.108282 49.569214 -0.86465776 157.24057 -0.85318673 157.30746 -25.790314 55.922951
27800000000 -23.252991 46.415512 -0.87935233 155.23698 -0.88416195 155.23766 -25.513 55.673386
27900000000 -23.936775 44.442814 -0.88873774 153.06708 -0.88467574 153.27061 -25.512386 39.941505
28000000000 -22.710642 44.832558 -0.89429528 151.18535 -0.89752215 151.20198 -24.348829 40.980919
28100000000 -23.482347 41.053352 -0.89525586 149.22453 -0.88783222 149.21033 -23.363354 34.450989
28200000000 -22.980469 38.422192 -0.92323148 147.07364 -0.91269004 147.00784 -22.993135 40.659389
28300000000 -22.721453 28.393948 -0.90500826 145.12878 -0.91419882 145.03566 -23.570843 38.629696
28400000000 -22.490889 31.619873 -0.89636689 143.03017 -0.89297622 142.95984 -23.933516 35.84766
28500000000 -21.785261 28.795744 -0.89191848 141.16711 -0.90065998 140.96971 -22.834219 25.464176
28600000000 -21.800699 27.949631 -0.88441771 139.04878 -0.88428384 139.17903 -22.126768 23.170321
28700000000 -21.33215 25.926855 -0.8978799 136.9958 -0.88771921 136.97665 -21.250818 24.163839
28800000000 -21.595612 27.85923 -0.90907466 134.92133 -0.91203982 134.9632 -21.383261 31.034887
28900000000 -20.384851 22.582064 -0.90484953 132.89879 -0.89335585 132.9584 -21.896622 25.241318
29000000000 -21.790808 18.711473 -0.93646687 131.01421 -0.92891449 130.79408 -22.31801 22.678328
29100000000 -20.88176 17.926664 -0.90850347 128.83705 -0.89691615 128.8996 -21.64423 8.6718521
29200000000 -20.863039 15.542581 -0.89720064 126.96116 -0.92111468 126.82563 -20.458298 11.631631
29300000000 -19.820057 17.496733 -0.90503281 124.75465 -0.89411908 124.85964 -19.337912 9.8879213
29400000000 -19.955368 14.053934 -0.90846521 122.75665 -0.9097842 122.86194 -19.077908 19.078632
29500000000 -19.841999 18.774456 -0.9084754 120.86996 -0.91335446 120.9804 -19.627159 15.470649
29600000000 -20.197762 12.538145 -0.92278904 118.75076 -0.91502035 118.75426 -20.823366 17.528452
29700000000 -20.061037 13.699085 -0.90862441 116.76863 -0.92202747 116.58973 -20.46279 4.5452981
29800000000 -19.786924 4.9158082 -0.92922771 114.5731 -0.91880572 114.68404 -20.59008 3.833652
29900000000 -19.559826 6.0773931 -0.9404124 112.65338 -0.91591686 112.60419 -18.551504 -5.9434991
30000000000 -18.524412 6.6919255 -0.96023059 110.4976 -0.92434394 110.78407 -18.946012 0.66149002
30100000000 -19.119087 8.0560608 -0.9329809 108.6263 -0.93850154 108.75381 -17.927076 0.053733293
30200000000 -18.569029 4.441608 -0.92980164 106.70477 -0.94397581 106.6618 -19.29414 4.152668
30300000000 -19.855068 1.3206012 -0.9398371 104.63788 -0.9376052 104.62057 -18.847466 -1.2913244
30400000000 -19.387424 -2.4820304 -0.9406355 102.47024 -0.94441688 102.57053 -20.340895 -7.5977302
30500000000 -19.497318 -7.366138 -0.93813688 100.45515 -0.92991483 100.51856 -18.581421 -13.335678
30600000000 -18.78034 -7.0058069 -0.95606017 98.41832 -0.9525317 98.545753 -19.148813 -16.648748
30700000000 -18.999262 -7.9917259 -0.96351713 96.331581 -0.92979813 96.556992 -17.864809 -13.264734
30800000000 -18.42915 -4.9239078 -0.95504701 94.434334 -0.95165437 94.501839 -18.93634 -12.789207
30900000000 -18.773241 -9.5466375 -0.97170657 92.658279 -0.95352787 92.661781 -18.018887 -12.285052
31000000000 -18.661905 -9.5801535 -0.95308709 90.415054 -0.95506316 90.362244 -18.846189 -19.599058
31100000000 -19.724016 -18.721752 -0.95667416 88.328888 -0.93902338 88.346893 -18.556013 -22.947908
31200000000 -19.192385 -19.254641 -0.93856162 86.466476 -0.9510414 86.460846 -18.084757 -28.3158
31300000000 -18.613962 -23.870205 -0.91866726 84.433464 -0.92716342 84.408897 -18.089342 -27.121866
31400000000 -17.808664 -17.921032 -0.95394117 82.51384 -0.93067616 82.538933 -17.710625 -27.964359
31500000000 -18.176428 -19.173321 -0.98599243 80.560074 -0.96492022 80.34642 -17.98411 -23.810177
31600000000 -19.296568 -15.782575 -0.95359391 78.397583 -0.95560211 78.554398 -18.694016 -28.849733
31700000000 -19.840971 -21.763561 -0.95295495 76.338951 -0.9392184 76.292274 -18.825397 -30.383892
31800000000 -19.612024 -25.926514 -0.96975082 74.252274 -0.97427547 74.254471 -19.078989 -39.869049
31900000000 -18.181892 -33.305008 -0.95523989 72.304535 -0.96443987 72.215889 -17.897991 -40.563488
32000000000 -18.669231 -29.112158 -0.95993412 70.17276 -0.93331271 70.171974 -18.12598 -42.77383
32100000000 -18.092794 -22.409149 -0.94473833 68.102211 -0.94378728 68.165833 -17.41642 -39.110619
32200000000 -19.709145 -20.862967 -0.93831354 66.322388 -0.97026992 66.200371 -18.555029 -40.773693
32300000000 -20.030581 -23.629833 -0.9365809 64.054535 -0.96612841 64.33239 -18.636515 -40.019539
32400000000 -20.65243 -37.317352 -0.95024461 62.110851 -0.95827514 62.215851 -20.063564 -46.185226
32500000000 -19.797398 -35.928215 -0.95145518 60.033455 -0.94025397 60.232449 -19.400045 -52.545662
32600000000 -19.5998 -40.475395 -0.94217205 57.910824 -0.94417787 58.053612 -19.278763 -60.075645
32700000000 -19.419874 -25.694717 -0.96807218 55.852535 -0.94411832 55.967781 -18.383472 -58.027565
32800000000 -19.954884 -33.572987 -0.90554905 53.981461 -0.94497031 54.005798 -17.982336 -57.301403
32900000000 -21.606859 -29.243746 -0.93159288 51.860828 -0.93891633 51.875011 -19.068254 -53.364346
33000000000 -21.328106 -40.393818 -0.9521178 49.872704 -0.91229564 49.726715 -20.00769 -54.268353
33100000000 -21.348389 -41.63271 -0.94780451 47.95256 -0.94026744 47.899578 -21.875177 -59.873821
33200000000 -20.709692 -42.021976 -0.93609822 45.638119 -0.95475221 45.728081 -20.014923 -72.037422
33300000000 -21.772673 -39.7971 -0.93397707 43.699268 -0.97997832 43.864193 -20.803013 -75.444771
33400000000 -21.783625 -37.970848 -0.96280688 41.698799 -0.94442463 41.75779 -19.481764 -73.17868
33500000000 -22.643591 -39.781208 -0.93288302 39.552505 -0.92405921 39.669746 -20.744812 -69.231911
33600000000 -22.083332 -37.97459 -0.92705095 37.638805 -0.94496357 37.681538 -20.52479 -69.903389
33700000000 -22.475958 -43.06403 -0.95866501 35.68919 -0.93482643 35.806141 -22.014681 -71.808495
33800000000 -22.547731 -41.638191 -0.93680316 33.594994 -0.93615764 33.703979 -22.532576 -77.851997
33900000000 -24.818935 -47.635429 -0.95848393 31.503193 -0.94018453 31.487032 -22.142708 -82.260773
34000000000 -23.54393 -38.691082 -0.92396218 29.50972 -0.92882854 29.650415 -22.998549 -81.812729
34100000000 -23.842604 -44.017918 -0.90423483 27.54228 -0.89859456 27.357933 -22.585566 -84.788078
34200000000 -23.420839 -32.792259 -0.89386845 25.385998 -0.90288633 25.323027 -24.992025 -68.42807
34300000000 -24.757841 -34.963467 -0.91119742 23.075447 -0.91272676 23.224705 -24.604986 -91.963783
34400000000 -25.243887 -29.246519 -0.96161675 21.142881 -0.95524216 21.192324 -25.675068 -91.319397
34500000000 -25.417824 -44.057106 -0.95870054 18.909302 -0.96223181 19.249979 -25.062658 -100.93071
34600000000 -25.980244 -29.861454 -0.94762099 17.014338 -0.96415961 16.965279 -25.878563 -91.697159
34700000000 -25.197691 -30.953274 -0.95546538 14.839708 -0.9898473 15.019038 -25.883684 -91.567513
34800000000 -27.30928 -10.8608 -0.9560973 12.681139 -0.94238138 13.17599 -30.619652 -78.402748
34900000000 -26.896833 -9.9264488 -0.92703557 10.95084 -0.96214682 10.770212 -37.346706 -101.77464
35000000000 -27.546547 -1.5489384 -0.93182933 8.9185181 -0.95865828 8.8198261 -33.920021 177.026
35100000000 -25.077394 -8.3610506 -0.92145842 6.6723785 -0.96181315 6.8209233 -30.990784 -157.84378
35200000000 -26.525944 -1.4905163 -0.96422815 4.5868721 -0.95154059 4.7371302 -29.891121 -154.22748
35300000000 -25.050629 0.49420437 -0.98234898 2.6455042 -1.0062937 2.5145407 -34.862621 -112.42534
35400000000 -25.911535 19.38505 -0.97736585 0.36894599 -0.98299843 0.60651016 -42.551525 -91.889206
35500000000 -23.528042 19.692795 -1.0332849 -1.425716 -1.0261459 -1.3277237 -40.991573 69.485069
35600000000 -26.764776 22.556051 -0.9886952 -3.4994617 -0.98619545 -3.6156409 -31.619963 91.0168
35700000000 -25.109484 17.584576 -0.97944218 -5.6454687 -0.9972766 -5.6517553 -31.199533 98.877441
35800000000 -24.583719 17.175785 -0.98441076 -7.5285854 -0.9943943 -7.5612841 -30.864202 104.42778
35900000000 -22.349638 24.568958 -0.98925042 -9.9242897 -1.0181925 -9.5320148 -30.402998 122.47563
36000000000 -22.080072 21.720421 -0.98324746 -11.823105 -0.99352962 -11.706879 -30.395576 64.430893
36100000000 -20.381641 31.522682 -1.0032018 -13.890093 -0.99310273 -13.711138 -27.159325 79.189209
36200000000 -21.705189 28.495317 -0.98602456 -15.842984 -1.0063934 -15.75342 -25.567831 66.529053
36300000000 -20.694735 39.94418 -1.0099151 -17.973072 -1.0260354 -18.203178 -24.152082 78.210579
36400000000 -21.778599 32.048092 -0.9800306 -20.438818 -1.0041807 -20.13328 -26.151264 67.777603
36500000000 -21.182423 24.668161 -1.0288935 -22.448956 -1.013823 -22.204861 -25.069284 68.470329
36600000000 -19.569685 11.483498 -0.99561757 -24.372074 -0.986404 -23.931082 -21.862873 41.460537
36700000000 -18.258453 23.570324 -1.0285071 -26.00581 -1.0192425 -25.791796 -22.309273 48.495964
36800000000 -17.194818 25.289516 -1.0349084 -28.074154 -1.0414718 -28.112869 -18.972946 48.821968
36900000000 -17.849203 35.369076 -1.0805047 -30.353365 -1.1095635 -30.502569 -19.738527 57.946178
37000000000 -17.855789 28.235476 -1.0864333 -32.553173 -1.0883701 -32.29361 -19.543388 56.527279
37100000000 -19.927498 17.613132 -1.1160139 -34.961807 -1.0584692 -34.682804 -21.03047 53.43478
37200000000 -17.780497 14.969101 -1.0552394 -36.616814 -1.0707209 -36.716251 -19.930904 43.205574
37300000000 -16.235439 16.035282 -1.0481305 -38.802322 -1.0407631 -38.640396 -18.621572 28.276083
37400000000 -14.891345 20.001593 -1.0423059 -40.647793 -1.0191911 -40.50745 -16.739496 32.113403
37500000000 -15.876114 23.483587 -1.1291627 -42.882778 -1.082484 -42.623352 -16.267267 34.047508
37600000000 -16.278812 25.613279 -1.145399 -44.561749 -1.1104462 -44.796024 -15.755344 39.966022
37700000000 -16.593052 17.106289 -1.1487026 -46.664333 -1.1069297 -46.596531 -16.229366 41.70536
37800000000 -15.213821 12.144823 -1.1083441 -48.554615 -1.1530504 -48.784111 -16.866436 35.558338
37900000000 -14.384634 8.7051373 -1.1407046 -50.929943 -1.1140285 -50.82431 -17.441084 30.65819
38000000000 -14.272631 15.20781 -1.127139 -53.174995 -1.1378 -52.855667 -15.764847 18.496017
38100000000 -14.36286 13.862246 -1.152241 -54.947071 -1.1508554 -54.893566 -14.812629 21.7274
38200000000 -14.403244 15.1406 -1.1760844 -56.818176 -1.1530342 -56.92952 -13.991325 20.57341
38300000000 -13.742809 8.2409029 -1.1924108 -59.037548 -1.1690201 -58.693642 -13.736983 28.751812
38400000000 -13.9526 5.7507472 -1.188133 -60.850273 -1.2204355 -60.764183 -14.155496 26.074463
38500000000 -13.509319 3.6921577 -1.1977558 -62.69751 -1.1851281 -62.993359 -14.849297 22.478559
38600000000 -12.953539 9.1199932 -1.1892283 -64.762062 -1.1822234 -64.892395 -14.388731 12.40077
38700000000 -12.53591 4.5627427 -1.1989378 -66.538239 -1.2445022 -66.907455 -14.001127 9.8583384
38800000000 -13.083822 4.1569686 -1.2331197 -68.777145 -1.2541139 -68.487343 -12.499106 10.42399
38900000000 -12.564098 3.6522255 -1.2763617 -70.841805 -1.2294323 -70.620995 -13.361955 12.905035
39000000000 -12.862509 -0.051017556 -1.2509736 -72.295464 -1.2871046 -72.693321 -12.646583 13.207796
39100000000 -12.422054 -1.8256797 -1.235202 -74.911873 -1.256405 -74.99115 -14.099075 8.0101624
39200000000 -12.693844 -7.1590109 -1.3200897 -76.644516 -1.2849289 -76.729576 -12.847875 2.0295649
39300000000 -11.679654 -5.0638442 -1.2395036 -79.120766 -1.2596638 -78.931679 -12.802002 -5.1866517
39400000000 -11.833078 -3.698796 -1.3057693 -80.669487 -1.2957071 -80.650032 -11.409413 0.22135699
39500000000 -11.692531 0.56686372 -1.3074301 -82.806267 -1.3099631 -83.195534 -12.046 -1.3605893
39600000000 -12.211867 -8.0484238 -1.2773331 -84.426018 -1.3098069 -84.589035 -11.596715 5.2820139
39700000000 -13.005326 -10.986439 -1.2440164 -87.023224 -1.2922727 -86.943649 -13.162807 -2.6132507
39800000000 -12.004394 -18.815174 -1.2581059 -88.542679 -1.309674 -88.683182 -12.547562 -6.1337733
39900000000 -11.217473 -12.551672 -1.3153907 -91.03186 -1.3166026 -90.689049 -12.737741 -17.820063
40000000000 -10.847478 -13.710947 -1.3262683 -92.773438 -1.3313875 -92.493355 -10.79209 -16.524597
40100000000 -11.701097 -8.6300964 -1.3316232 -95.008537 -1.3578923 -94.588631 -10.525457 -15.331719
40200000000 -11.881092 -11.237362 -1.3025838 -96.436249 -1.3803265 -96.622795 -10.815665 -10.59652
40300000000 -12.986418 -21.092653 -1.2879219 -99.036125 -1.284449 -98.807831 -11.286611 -12.916927
40400000000 -11.735049 -25.009279 -1.3307333 -100.58492 -1.3067775 -100.66625 -12.364145 -15.308451
40500000000 -11.003715 -22.871052 -1.3235301 -102.42669 -1.2970692 -102.4449 -12.146527 -24.158855
40600000000 -10.499618 -20.699284 -1.2491233 -104.57783 -1.2734901 -104.2615 -11.58147 -26.977713
40700000000 -11.993591 -18.77883 -1.3759972 -106.65801 -1.3360556 -106.86736 -10.844718 -30.371105
40800000000 -11.600314 -21.22596 -1.3557051 -108.67629 -1.3501016 -108.28713 -10.304937 -25.964104
40900000000 -11.685689 -30.384083 -1.3208945 -110.32752 -1.2685188 -110.29611 -10.898323 -25.057535
41000000000 -10.997868 -34.214661 -1.3159896 -112.95395 -1.263638 -112.71261 -10.841257 -25.079981
41100000000 -11.347018 -33.177925 -1.3761493 -114.45463 -1.3883139 -114.29355 -12.019018 -30.34371
41200000000 -10.960043 -27.249174 -1.2882043 -116.43323 -1.299611 -116.26328 -11.354216 -32.856419
41300000000 -11.186304 -32.127033 -1.3001239 -118.22656 -1.2512066 -118.39626 -11.479604 -38.057934
41400000000 -11.798553 -31.039009 -1.3359708 -120.62205 -1.3322029 -120.15517 -10.622768 -37.027908
41500000000 -11.269248 -37.357586 -1.2981964 -122.10297 -1.2844567 -122.18102 -10.622218 -39.946781
41600000000 -10.972507 -36.242386 -1.2483603 -124.33199 -1.2879264 -123.98912 -11.162818 -37.822517
41700000000 -11.122705 -40.810715 -1.2742072 -125.78591 -1.3241782 -126.271 -11.326999 -43.264301
41800000000 -11.775033 -39.615417 -1.3267876 -128.30347 -1.3523283 -127.86517 -11.251084 -41.430157
41900000000 -11.361501 -41.001385 -1.3264071 -130.28334 -1.3232548 -129.77577 -11.290695 -50.166542
42000000000 -11.408857 -41.272675 -1.2506183 -132.5808 -1.2953527 -132.30084 -11.269864 -47.010521
42100000000 -10.669148 -42.390369 -1.286917 -134.16315 -1.381688 -134.23434 -11.108051 -52.348846
42200000000 -11.60878 -43.910969 -1.2526377 -136.2433 -1.2932017 -135.90359 -11.464039 -46.994568
42300000000 -11.927931 -41.25378 -1.3125758 -138.39491 -1.3207166 -138.37416 -11.2074 -55.341518
42400000000 -12.649702 -49.352562 -1.3348336 -139.94131 -1.2994245 -140.02103 -12.176949 -50.885864
42500000000 -11.672905 -51.552204 -1.2188265 -142.05449 -1.2908057 -142.12706 -12.186407 -60.005657
42600000000 -11.296987 -55.144497 -1.2799 -144.06264 -1.2532575 -144.18346 -12.697327 -58.141666
42700000000 -11.979657 -46.651157 -1.2752557 -146.22728 -1.252884 -146.46605 -11.362057 -66.278641
42800000000 -12.245926 -46.28801 -1.279477 -148.17525 -1.2416981 -147.48207 -12.139529 -67.754005
42900000000 -13.649879 -41.996822 -1.3327981 -151.25482 -1.2553636 -150.5161 -11.875778 -62.582478
43000000000 -14.021911 -54.856792 -1.2548981 -152.55101 -1.2207034 -151.8847 -12.240001 -64.338921
43100000000 -14.206116 -65.20977 -1.1687571 -154.65472 -1.1551321 -155.25893 -13.793053 -58.34362
43200000000 -12.606774 -60.952164 -1.1942657 -156.11316 -1.1411453 -156.56433 -14.043698 -70.937912
43300000000 -13.053602 -52.761383 -1.1700315 -158.85347 -1.1673343 -158.8026 -14.239061 -75.604004
43400000000 -13.204846 -45.183868 -1.1665581 -160.6877 -1.1413008 -160.29619 -13.171713 -78.021446
43500000000 -14.203753 -44.798767 -1.2674977 -162.09041 -1.1643205 -162.23779 -13.590026 -80.404732
43600000000 -15.658213 -53.032852 -1.128695 -164.23064 -1.1857022 -164.76424 -12.944255 -74.916016
43700000000 -16.183262 -62.64595 -1.1909521 -166.23128 -1.1640378 -166.66801 -14.032778 -73.353027
43800000000 -14.831055 -68.341415 -1.185227 -168.8604 -1.1559016 -168.93652 -15.256747 -71.245903
43900000000 -14.951343 -63.542782 -1.1139899 -170.57092 -1.1344558 -170.92996 -17.075115 -86.40435
44000000000 -14.540593 -52.485344 -1.152424 -173.04146 -1.208083 -172.78586 -16.872929 -87.595856
44100000000 -15.663024 -52.736111 -1.1376207 -175.31888 -1.1159171 -175.11581 -15.257837 -87.840958
44200000000 -16.897203 -40.382996 -1.1423675 -176.96837 -1.1689557 -177.24904 -15.508958 -88.966911
44300000000 -17.110594 -63.742065 -1.1481068 -179.72427 -1.1048386 -178.92856 -17.063463 -80.519653
44400000000 -17.680315 -60.806122 -1.1361986 178.60854 -1.1048236 178.88098 -18.273525 -81.774162
44500000000 -16.228649 -70.831223 -1.1263539 176.25151 -1.1214482 176.47722 -18.235514 -88.626228
44600000000 -17.27808 -56.731453 -1.1628505 173.91757 -1.0756544 174.092 -20.483641 -92.398476
44700000000 -16.486317 -46.730946 -1.1319766 172.37143 -1.1487154 172.63441 -18.87639 -102.96951
44800000000 -19.272131 -46.207996 -1.135583 170.29359 -1.04406 169.9352 -20.069586 -83.03038
44900000000 -19.811968 -47.707783 -1.121347 167.85408 -1.1132882 167.99675 -20.511187 -86.322556
45000000000 -21.762964 -43.630745 -1.1945397 166.13437 -1.1150028 165.91815 -25.16267 -65.86628
