!Keysight Technologies,N5247B,MY61255062,A.19.80.06
!Date: Monday, May 18, 2026 12:43:58
!Correction: S11(Cdelta 2-Port  ) 
!S21(Cdelta 2-Port  ) 
!S12(Cdelta 2-Port  ) 
!S22(Cdelta 2-Port  ) 
!S2P File: Measurements: S11, S21, S12, S22:
# Hz S  dB   R 50
1000000000 -23.580145 27.862814 -0.40403169 -18.418785 -0.3980377 -18.418133 -23.864889 28.364927
1100000000 -23.188469 27.951698 -0.41219383 -20.218773 -0.40817809 -20.204351 -23.472803 28.792021
1200000000 -22.783052 28.026163 -0.42396134 -21.989618 -0.41784433 -21.981169 -23.062958 29.459877
1300000000 -22.394367 27.843527 -0.4290348 -23.788031 -0.42475569 -23.780071 -22.638926 29.043253
1400000000 -22.008505 27.880436 -0.43874931 -25.527372 -0.43441257 -25.511656 -22.24379 29.422092
1500000000 -21.677158 27.352081 -0.44257873 -27.289036 -0.43865424 -27.274839 -21.822151 28.970255
1600000000 -21.333845 26.801901 -0.44822013 -29.074831 -0.44335473 -29.06251 -21.530062 28.055843
1700000000 -21.005018 26.076231 -0.45233399 -30.83979 -0.44718561 -30.828657 -21.153336 27.475554
1800000000 -20.674236 25.133278 -0.45633698 -32.619293 -0.45158944 -32.605 -20.823139 26.618664
1900000000 -20.38022 24.165825 -0.45912847 -34.390339 -0.45529535 -34.38763 -20.521748 25.494753
2000000000 -20.125914 23.346294 -0.46603301 -36.181648 -0.46083039 -36.177074 -20.268555 24.445663
2100000000 -19.864933 22.096952 -0.46960506 -37.95792 -0.46445781 -37.94825 -19.993889 23.741861
2200000000 -19.661217 21.155241 -0.47402734 -39.735077 -0.4697412 -39.731537 -19.770725 22.499149
2300000000 -19.447821 20.158651 -0.47884113 -41.518673 -0.47439691 -41.514954 -19.545746 21.473919
2400000000 -19.225643 18.987661 -0.48449454 -43.291962 -0.47962621 -43.279213 -19.305597 20.473648
2500000000 -18.993242 17.842171 -0.48920175 -45.08033 -0.48695117 -45.063778 -19.083096 19.150913
2600000000 -18.834236 16.687937 -0.49606088 -46.849667 -0.49229014 -46.834831 -18.926411 17.951832
2700000000 -18.646503 15.563766 -0.50396132 -48.619232 -0.50001961 -48.61618 -18.798365 16.928337
2800000000 -18.50951 14.425511 -0.5096525 -50.389706 -0.50176322 -50.357227 -18.613415 15.650757
2900000000 -18.337469 13.457742 -0.51579976 -52.144718 -0.50871849 -52.122841 -18.444256 14.248165
3000000000 -18.182667 12.148149 -0.51826394 -53.888248 -0.51729482 -53.888504 -18.282883 13.265615
3100000000 -18.039869 11.073306 -0.52321321 -55.649269 -0.51884997 -55.640564 -18.111691 12.172385
3200000000 -17.874865 9.6078253 -0.52877527 -57.398273 -0.52168483 -57.398193 -17.956043 11.043482
3300000000 -17.772488 8.3247356 -0.53059161 -59.161991 -0.52427417 -59.161732 -17.819153 9.6142492
3400000000 -17.654825 7.0826612 -0.53482968 -60.934303 -0.53026694 -60.91819 -17.745787 8.3322144
3500000000 -17.55423 5.6731 -0.54177213 -62.687134 -0.53419787 -62.671822 -17.596712 7.0538583
3600000000 -17.402517 4.2917247 -0.54211932 -64.420395 -0.53684711 -64.417221 -17.452673 5.6951184
3700000000 -17.317015 2.9050889 -0.54579449 -66.162773 -0.53787243 -66.158104 -17.315519 4.1523137
3800000000 -17.179781 1.5454448 -0.54609066 -67.934181 -0.53939098 -67.930023 -17.20903 2.6590083
3900000000 -17.093611 0.022676328 -0.54575396 -69.704132 -0.54025716 -69.695107 -17.116348 1.3068533
4000000000 -17.007299 -1.4216392 -0.55011612 -71.473343 -0.54697698 -71.460571 -17.044718 0.061350688
4100000000 -16.930084 -2.9548576 -0.5553745 -73.235847 -0.55216449 -73.227226 -16.95281 -1.1717123
4200000000 -16.849037 -4.2848864 -0.55976373 -74.961784 -0.55505389 -74.96032 -16.861843 -2.7284679
4300000000 -16.778727 -5.7525473 -0.56125754 -76.711609 -0.55650926 -76.704933 -16.819641 -4.2561007
4400000000 -16.71121 -6.9516845 -0.56077242 -78.465103 -0.5567041 -78.459663 -16.736704 -5.5973992
4500000000 -16.642462 -8.3600378 -0.56093025 -80.213547 -0.55864221 -80.21241 -16.670525 -7.170979
4600000000 -16.599789 -9.853425 -0.56376773 -81.988342 -0.56053972 -81.974388 -16.60429 -8.5027008
4700000000 -16.568731 -11.406517 -0.56275392 -83.73114 -0.55933791 -83.73336 -16.555866 -10.155797
4800000000 -16.549538 -12.764277 -0.56373203 -85.503311 -0.55942893 -85.498032 -16.525976 -11.518792
4900000000 -16.509087 -14.361721 -0.56507039 -87.26606 -0.562334 -87.25161 -16.491638 -13.228721
5000000000 -16.483803 -15.730857 -0.5686003 -89.023964 -0.5624581 -88.999466 -16.436909 -14.552456
5100000000 -16.414972 -17.237776 -0.56822443 -90.78334 -0.56756741 -90.774399 -16.387165 -15.987366
5200000000 -16.412119 -18.668211 -0.56979048 -92.521866 -0.56649196 -92.535431 -16.384886 -17.276567
5300000000 -16.393431 -20.176434 -0.57000035 -94.291809 -0.56661552 -94.289154 -16.402573 -18.764267
5400000000 -16.458775 -21.694225 -0.57082808 -96.056671 -0.56607759 -96.056175 -16.454754 -20.23591
5500000000 -16.439785 -23.196234 -0.57130992 -97.816689 -0.56809193 -97.797577 -16.451103 -22.090099
5600000000 -16.471802 -24.85479 -0.57253301 -99.57299 -0.56992835 -99.553978 -16.453218 -23.787693
5700000000 -16.43808 -26.318489 -0.57436359 -101.33166 -0.57099724 -101.31335 -16.385237 -25.447514
5800000000 -16.485491 -27.948912 -0.57530123 -103.07095 -0.57085967 -103.06121 -16.388062 -26.642197
5900000000 -16.512403 -29.174799 -0.57554829 -104.83781 -0.57115489 -104.81195 -16.412865 -27.748243
6000000000 -16.55901 -31.107697 -0.57638532 -106.58581 -0.57137722 -106.55228 -16.517935 -29.098242
6100000000 -16.62051 -32.479809 -0.57121867 -108.31879 -0.5692504 -108.29685 -16.610125 -30.76623
6200000000 -16.669813 -34.097473 -0.57012612 -110.07941 -0.56815594 -110.07775 -16.692532 -32.552246
6300000000 -16.739138 -35.172119 -0.56927931 -111.85525 -0.56606585 -111.83583 -16.648115 -34.198608
6400000000 -16.787251 -36.578796 -0.56980258 -113.58973 -0.56702906 -113.57619 -16.710793 -36.028591
6500000000 -16.902266 -37.78381 -0.56573111 -115.3806 -0.56227481 -115.34813 -16.759272 -36.561832
6600000000 -16.972698 -39.410416 -0.56593812 -117.13116 -0.56229216 -117.1251 -16.849043 -37.606419
6700000000 -17.114466 -40.758015 -0.56475991 -118.90018 -0.56113732 -118.8827 -16.964651 -39.020344
6800000000 -17.08526 -42.256672 -0.56276393 -120.68041 -0.55929345 -120.67636 -17.080244 -40.711311
6900000000 -17.147495 -44.136017 -0.56377184 -122.46733 -0.56087375 -122.43855 -17.101784 -42.50193
7000000000 -17.197809 -45.118034 -0.56077182 -124.20504 -0.55804348 -124.18777 -17.148911 -44.055687
7100000000 -17.300785 -46.545338 -0.56044018 -125.99598 -0.55729002 -125.97642 -17.207163 -44.810619
7200000000 -17.386637 -47.762119 -0.55655223 -127.74699 -0.55522448 -127.71927 -17.313728 -46.078167
7300000000 -17.50651 -49.631237 -0.55340046 -129.53911 -0.55117518 -129.50728 -17.494022 -47.556438
7400000000 -17.651884 -51.21085 -0.5533734 -131.33017 -0.55053633 -131.31508 -17.656034 -49.669777
7500000000 -17.800808 -52.708282 -0.55203432 -133.09488 -0.54584146 -133.08206 -17.716494 -51.103035
7600000000 -17.89724 -53.753571 -0.5507552 -134.88728 -0.54846668 -134.8707 -17.75684 -52.777763
7700000000 -17.99497 -55.585773 -0.55440825 -136.65601 -0.55148262 -136.64302 -17.811327 -53.53051
7800000000 -18.159925 -56.996803 -0.55163425 -138.43646 -0.54820204 -138.41722 -18.020197 -54.217686
7900000000 -18.319637 -58.747005 -0.5495773 -140.22057 -0.54652631 -140.20319 -18.317013 -55.276428
8000000000 -18.534983 -60.150745 -0.5511499 -142.03075 -0.54688597 -142.00087 -18.545677 -57.630787
8100000000 -18.678768 -61.486134 -0.55326873 -143.82333 -0.54940426 -143.80708 -18.631859 -59.988262
8200000000 -18.869925 -62.912861 -0.55507624 -145.62073 -0.55262899 -145.60173 -18.57501 -61.660355
8300000000 -19.059711 -64.850807 -0.55840552 -147.39726 -0.55566901 -147.37592 -18.705946 -61.700809
8400000000 -19.413687 -67.197357 -0.5678795 -149.16322 -0.56504589 -149.15758 -19.174744 -61.690754
8500000000 -19.81962 -68.763542 -0.57951891 -150.96779 -0.57495105 -150.93037 -20.367136 -62.978634
8600000000 -20.074028 -69.320778 -0.62819326 -152.70259 -0.62459093 -152.68315 -22.469267 -68.722458
8700000000 -20.790222 -74.27961 -0.63086933 -153.4023 -0.62823093 -153.3735 -27.123503 -60.404274
8800000000 -21.035257 -69.022957 -0.47620276 -155.57457 -0.4752329 -155.56564 -24.3305 -57.910866
8900000000 -20.794277 -71.485329 -0.49575242 -157.84071 -0.49285352 -157.81775 -22.617584 -70.184105
9000000000 -21.08713 -74.049965 -0.51412886 -159.72256 -0.51251692 -159.69279 -21.502047 -76.847397
9100000000 -21.372458 -74.399551 -0.52617157 -161.52551 -0.52378201 -161.51285 -20.921616 -76.271202
9200000000 -21.628029 -75.435188 -0.53160936 -163.32428 -0.52958935 -163.31009 -20.751766 -73.888115
9300000000 -21.999336 -76.053169 -0.53803009 -165.09497 -0.5360018 -165.06902 -21.260012 -71.02961
9400000000 -22.306538 -78.190247 -0.53803563 -166.85796 -0.53354043 -166.85318 -21.838326 -71.153717
9500000000 -22.812885 -79.209793 -0.53495586 -168.6571 -0.53553414 -168.63663 -22.659098 -72.834633
9600000000 -23.113861 -80.387352 -0.54032367 -170.43874 -0.53569317 -170.42102 -22.996027 -76.206848
9700000000 -23.649439 -81.003098 -0.53877848 -172.24208 -0.53640133 -172.22975 -23.24741 -78.012268
9800000000 -23.973951 -81.485672 -0.54279602 -174.03925 -0.5375821 -174.02654 -23.310394 -78.040306
9900000000 -24.669628 -83.139969 -0.54454571 -175.80489 -0.53798026 -175.80356 -23.837059 -76.274719
10000000000 -25.162275 -83.65567 -0.54647493 -177.62291 -0.54399407 -177.5891 -24.39139 -75.187508
10100000000 -25.869911 -84.688698 -0.54845023 -179.40161 -0.54295617 -179.39247 -25.435612 -75.692841
10200000000 -26.475317 -82.819542 -0.54821819 178.82057 -0.54448235 178.81578 -26.113741 -77.259277
10300000000 -27.1999 -83.165604 -0.55137593 176.99782 -0.54798239 177.04384 -26.65077 -80.160408
10400000000 -27.799356 -81.989868 -0.55504096 175.2364 -0.55015844 175.25882 -26.748592 -80.018364
10500000000 -28.498926 -83.665512 -0.55979997 173.4538 -0.55753899 173.4502 -27.132759 -76.671623
10600000000 -29.4981 -81.373283 -0.56131941 171.6524 -0.55905998 171.67505 -27.472174 -71.794716
10700000000 -30.306484 -79.952759 -0.56451142 169.88641 -0.56149852 169.90501 -28.562422 -66.910011
10800000000 -31.573269 -73.639572 -0.56527203 168.10573 -0.56296843 168.13644 -29.495136 -61.778584
10900000000 -32.465477 -67.679169 -0.57003486 166.32434 -0.56458837 166.34918 -31.062609 -58.492744
11000000000 -33.613785 -59.949772 -0.57340229 164.56252 -0.57019341 164.56288 -31.683546 -54.744614
11100000000 -34.504272 -55.646854 -0.57530206 162.76593 -0.5740779 162.80879 -32.559265 -51.528305
11200000000 -35.611115 -47.466637 -0.57788223 160.97337 -0.57317364 161.01044 -32.244839 -45.790039
11300000000 -35.599411 -36.220364 -0.58169693 159.21931 -0.57871586 159.24915 -32.51004 -37.981476
11400000000 -35.050865 -22.976967 -0.58162355 157.44681 -0.5804801 157.466 -31.690454 -30.666979
11500000000 -34.124798 -12.417657 -0.58891994 155.64903 -0.58405519 155.68594 -31.455233 -22.596216
11600000000 -33.411316 -3.0181639 -0.58971184 153.88974 -0.58709717 153.91443 -30.882685 -13.94835
11700000000 -32.212631 2.4484425 -0.59419584 152.11174 -0.58787954 152.13297 -30.43745 -6.2683163
11800000000 -31.751715 8.9501209 -0.59671032 150.35574 -0.59112585 150.35548 -29.616112 -2.1967404
11900000000 -30.563787 11.575133 -0.60235584 148.57582 -0.59870976 148.58725 -29.318249 2.7782605
12000000000 -29.957453 14.875372 -0.60506511 146.79996 -0.60348958 146.8306 -28.462387 4.0562396
12100000000 -28.789045 15.176407 -0.61139703 145.02383 -0.60661983 145.05421 -28.113201 6.2762408
12200000000 -28.281683 15.173617 -0.61329085 143.27089 -0.61236322 143.28235 -27.407488 6.0529771
12300000000 -27.256971 15.273954 -0.61969328 141.50735 -0.6145879 141.51077 -26.711615 6.2884884
12400000000 -26.785236 15.8555 -0.62265241 139.75256 -0.61724395 139.76338 -26.020363 6.9309635
12500000000 -25.891006 17.110672 -0.62415785 137.97841 -0.62137032 138.01108 -25.434855 8.2748966
12600000000 -25.564423 16.472353 -0.62847745 136.24402 -0.62598252 136.26463 -24.856606 8.0074778
12700000000 -24.915609 16.635195 -0.63092142 134.4894 -0.62880117 134.5123 -24.504492 9.2292843
12800000000 -24.734404 14.822821 -0.63074875 132.74884 -0.62411004 132.76106 -24.037962 8.1110229
12900000000 -24.124691 14.888836 -0.63085228 130.97823 -0.62655634 130.99544 -23.727415 8.4771795
13000000000 -23.681067 12.908403 -0.62986523 129.23856 -0.6235742 129.25587 -23.264538 7.1842303
13100000000 -23.260117 14.377241 -0.63137287 127.46175 -0.62656981 127.49509 -22.978344 7.0902896
13200000000 -22.792723 12.536145 -0.62688261 125.71115 -0.62588924 125.70654 -22.470331 6.2320561
13300000000 -22.535145 13.173002 -0.62562555 123.924 -0.62341911 123.94463 -22.101271 5.4082336
13400000000 -21.957342 11.007204 -0.6268189 122.14907 -0.62259716 122.16989 -21.608278 5.0072098
13500000000 -21.727526 11.433247 -0.62459421 120.3716 -0.62268227 120.38779 -21.26376 4.863234
13600000000 -21.223677 9.7207365 -0.62674177 118.57479 -0.62241161 118.61266 -20.800024 4.3907809
13700000000 -20.974903 8.7787542 -0.63054699 116.76102 -0.63008249 116.78904 -20.611273 3.8360393
13800000000 -20.590992 6.9249187 -0.64361888 115.01804 -0.64266729 115.04304 -20.254431 2.1209939
13900000000 -20.543484 5.5086541 -0.63959521 113.31711 -0.63616443 113.35275 -20.200882 0.3672809
14000000000 -20.038568 5.6453962 -0.63687807 111.53761 -0.63040453 111.56426 -19.773472 0.21365121
14100000000 -19.899717 4.5138021 -0.63314486 109.74005 -0.63122439 109.76858 -19.619499 -0.97247851
14200000000 -19.507908 4.1779695 -0.63208902 107.95558 -0.63247079 107.97939 -19.202599 -1.430189
14300000000 -19.357029 2.0155678 -0.63651091 106.15469 -0.63317931 106.17036 -19.088089 -2.8128574
14400000000 -19.04039 1.49288 -0.64252353 104.35598 -0.63613147 104.37627 -18.709915 -3.716042
14500000000 -18.778389 -0.96384501 -0.64617354 102.54292 -0.64392394 102.58017 -18.539637 -5.6040711
14600000000 -18.439459 -1.6234182 -0.65422052 100.75777 -0.65294623 100.77277 -18.188202 -6.1700211
14700000000 -18.263067 -4.5470877 -0.67315084 99.015961 -0.67376143 99.036781 -17.995367 -8.2548895
14800000000 -18.33437 -4.9190888 -0.66589332 97.388672 -0.66847646 97.432014 -18.010691 -8.5745916
14900000000 -18.107113 -6.8524241 -0.65556806 95.585991 -0.65558463 95.619736 -18.006115 -9.5474319
15000000000 -17.95203 -8.0092716 -0.66027588 93.781334 -0.6587711 93.817696 -17.814089 -11.368064
15100000000 -17.622774 -9.9546642 -0.6679889 91.984505 -0.65972227 92.001991 -17.600279 -13.994465
15200000000 -17.53656 -10.804381 -0.67455053 90.195221 -0.67167819 90.237122 -17.268299 -15.823993
15300000000 -17.333185 -12.921764 -0.68075842 88.495377 -0.67793792 88.530518 -17.068977 -17.25338
15400000000 -17.335835 -14.101417 -0.67319012 86.680428 -0.67219126 86.706139 -16.908112 -17.073124
15500000000 -17.003366 -16.580515 -0.68134099 84.905098 -0.67678487 84.926544 -16.861553 -18.000351
15600000000 -17.098091 -18.954094 -0.69013137 83.157867 -0.69011408 83.177032 -16.937557 -19.251263
15700000000 -16.809759 -19.8978 -0.6893006 81.395752 -0.68938494 81.42659 -16.907972 -21.966
15800000000 -16.814459 -21.372805 -0.69393003 79.63588 -0.69302684 79.646477 -16.706284 -24.30027
15900000000 -16.63278 -22.023312 -0.70352018 77.85392 -0.69960606 77.89415 -16.485233 -26.754843
16000000000 -16.710249 -24.866034 -0.70851916 76.135605 -0.70339811 76.174782 -16.294439 -27.725355
16100000000 -16.617847 -25.853935 -0.71424544 74.402 -0.71133423 74.442055 -16.193312 -29.028055
16200000000 -16.578136 -29.074234 -0.71578819 72.664017 -0.71410018 72.698975 -16.230085 -28.743721
16300000000 -16.507326 -29.818188 -0.71967041 70.927612 -0.71868068 70.962494 -16.203344 -31.35412
16400000000 -16.359682 -32.115261 -0.72614515 69.204971 -0.72304583 69.243141 -16.232615 -32.422722
16500000000 -16.461788 -32.01844 -0.72615552 67.496857 -0.72777659 67.513229 -16.228065 -35.430428
16600000000 -16.407948 -33.769974 -0.72849625 65.795387 -0.72771686 65.815399 -16.153011 -36.313225
16700000000 -16.645071 -34.679764 -0.7292099 64.073029 -0.72871912 64.110497 -16.066708 -38.238544
16800000000 -16.611458 -37.108341 -0.72075391 62.377781 -0.72274315 62.402004 -16.167904 -38.155533
16900000000 -16.713991 -38.855694 -0.71583611 60.640987 -0.71705967 60.672108 -16.116667 -39.921074
17000000000 -16.419281 -39.747917 -0.70647031 58.875473 -0.70519608 58.93116 -16.269245 -40.717789
17100000000 -16.430145 -40.110779 -0.70006895 57.120884 -0.70042545 57.144791 -16.154827 -42.734661
17200000000 -16.315472 -39.799488 -0.69777268 55.341919 -0.69692469 55.324318 -16.233307 -43.752411
17300000000 -16.46977 -41.862637 -0.70547503 53.470337 -0.7021327 53.487038 -15.963266 -45.550339
17400000000 -16.649237 -44.093822 -0.71082991 51.83831 -0.71067655 51.855476 -16.159632 -46.630196
17500000000 -16.711782 -47.415958 -0.70175087 50.066116 -0.70178646 50.11927 -16.132196 -46.716137
17600000000 -16.535982 -48.21196 -0.69696301 48.301781 -0.68960524 48.355846 -16.375889 -47.912666
17700000000 -16.430756 -50.098251 -0.69199735 46.511967 -0.69254106 46.563614 -16.407715 -49.245804
17800000000 -16.474482 -49.224335 -0.69304842 44.72646 -0.68770599 44.767303 -16.551805 -52.39698
17900000000 -16.641396 -50.598839 -0.6909914 42.988895 -0.68903667 43.004772 -16.376322 -54.248295
18000000000 -16.982393 -52.238655 -0.6939218 41.158485 -0.69013923 41.187107 -16.302767 -56.086224
18100000000 -16.898932 -55.885777 -0.68914193 39.40377 -0.68645728 39.418331 -16.139482 -55.895214
18200000000 -16.889273 -57.742023 -0.6886059 37.659935 -0.68948537 37.692852 -16.272148 -56.122211
18300000000 -16.645882 -59.465076 -0.6902594 35.910091 -0.68861866 35.914276 -16.517847 -56.149265
18400000000 -16.948477 -59.534592 -0.69102597 34.136875 -0.68833292 34.192032 -16.889511 -58.477493
18500000000 -16.995447 -60.193993 -0.69106424 32.370728 -0.68921047 32.406212 -17.078264 -62.337704
18600000000 -17.351709 -61.809734 -0.6826849 30.585814 -0.68293691 30.590925 -16.968027 -65.830864
18700000000 -17.259649 -64.239838 -0.68389368 28.822798 -0.68006206 28.845894 -16.704048 -66.820526
18800000000 -17.446215 -66.672699 -0.68768901 27.074116 -0.68053555 27.073078 -16.554764 -66.426514
18900000000 -17.331799 -67.223259 -0.68103909 25.32321 -0.68119293 25.368752 -16.654722 -64.97757
19000000000 -17.502171 -69.629028 -0.68355042 23.588963 -0.67423397 23.611748 -17.188137 -64.692551
19100000000 -17.711887 -68.83728 -0.67976898 21.82947 -0.67498958 21.860664 -17.523157 -67.017998
19200000000 -17.892029 -71.208977 -0.68021011 20.042416 -0.67636263 20.08198 -18.018032 -70.914482
19300000000 -18.16135 -71.305084 -0.6786409 18.253279 -0.67418921 18.306391 -17.708673 -73.856018
19400000000 -18.22805 -74.269165 -0.68043655 16.50281 -0.6751489 16.529099 -17.790436 -75.108444
19500000000 -18.661961 -75.328796 -0.67564672 14.753782 -0.6664021 14.76738 -17.616676 -74.413315
19600000000 -18.523001 -77.952606 -0.66536015 12.952604 -0.66632301 13.011872 -17.959871 -74.219521
19700000000 -18.854088 -79.406197 -0.66870809 11.202469 -0.66633207 11.232195 -18.2773 -74.167458
19800000000 -18.80999 -79.628098 -0.66600347 9.4347172 -0.66536921 9.4761629 -18.839796 -77.565849
19900000000 -19.355257 -80.063782 -0.66329509 7.6751065 -0.65849483 7.7087541 -18.974945 -79.072922
20000000000 -19.766714 -80.902588 -0.66081142 5.848506 -0.6587922 5.92274 -19.084839 -82.029121
20100000000 -20.461807 -84.34922 -0.65734941 4.1063256 -0.65476978 4.1582499 -19.201132 -80.603233
20200000000 -20.511591 -87.472572 -0.6576066 2.3080802 -0.65052533 2.356498 -19.529634 -81.125023
20300000000 -20.663996 -90.894112 -0.6577093 0.52760744 -0.64913154 0.56666052 -20.155689 -80.170967
20400000000 -20.772446 -88.115685 -0.65421093 -1.229292 -0.6575256 -1.2092848 -20.58983 -83.961586
20500000000 -21.146385 -87.416084 -0.658337 -2.9703875 -0.65256083 -2.9732864 -20.880867 -86.317833
20600000000 -21.83383 -86.707085 -0.65100282 -4.8007493 -0.64281261 -4.7282271 -20.641075 -89.447014
20700000000 -22.588728 -92.036278 -0.63916636 -6.5634861 -0.6379993 -6.5577574 -20.917944 -87.32579
20800000000 -23.167566 -94.522888 -0.64341956 -8.358407 -0.63766921 -8.334198 -20.967167 -85.34832
20900000000 -23.152822 -98.509583 -0.63705975 -10.160438 -0.63091063 -10.141244 -21.822334 -81.126228
21000000000 -23.614635 -96.996048 -0.63303912 -11.973248 -0.63069153 -11.940441 -22.790148 -82.631783
21100000000 -23.864405 -93.996758 -0.6359241 -13.767093 -0.63187224 -13.75944 -23.759811 -84.01757
21200000000 -25.157166 -90.293831 -0.63481092 -15.625235 -0.63506413 -15.56846 -24.218273 -89.750893
21300000000 -25.841377 -90.727798 -0.64101654 -17.408691 -0.63414258 -17.381517 -24.104712 -91.548882
21400000000 -27.23839 -93.457581 -0.64640033 -19.255135 -0.6472854 -19.206482 -23.942572 -86.512436
21500000000 -26.615549 -96.581757 -0.64494783 -21.038073 -0.64397734 -20.988352 -23.699028 -83.093491
21600000000 -27.677652 -99.000107 -0.64597559 -22.732275 -0.6440596 -22.695223 -24.112949 -76.062798
21700000000 -27.402119 -92.500656 -0.6317746 -24.500519 -0.62991428 -24.486958 -25.1199 -69.362946
21800000000 -29.16889 -85.907997 -0.63482499 -26.286112 -0.62983286 -26.237616 -27.043081 -67.229034
21900000000 -29.768198 -73.835785 -0.6364159 -28.087584 -0.63382113 -28.058365 -28.354855 -64.710236
22000000000 -32.652279 -67.480759 -0.64649075 -29.921629 -0.64352763 -29.872591 -29.279495 -73.330902
22100000000 -32.912479 -58.729855 -0.65023816 -31.715548 -0.64255989 -31.697071 -28.018465 -69.837151
22200000000 -35.29496 -68.969093 -0.65770113 -33.55595 -0.65422624 -33.515831 -27.642204 -66.11097
22300000000 -34.287533 -53.360535 -0.65888137 -35.371212 -0.65411913 -35.325161 -26.384932 -52.995884
22400000000 -32.905029 -44.437233 -0.66192132 -37.120789 -0.66066706 -37.09602 -26.746826 -41.928333
22500000000 -30.773775 -26.72278 -0.65807104 -38.81337 -0.65583724 -38.767975 -27.030855 -29.638781
22600000000 -30.93432 -13.51839 -0.65099591 -40.610123 -0.6450938 -40.573895 -28.810051 -26.368832
22700000000 -29.898266 7.7156601 -0.65562528 -42.426918 -0.65577579 -42.379047 -28.408857 -22.281443
22800000000 -31.22323 6.8467937 -0.66666043 -44.250771 -0.66454738 -44.23666 -28.088766 -30.293579
22900000000 -30.821789 8.7888165 -0.66832793 -46.037617 -0.66866428 -46.002327 -25.858189 -25.128607
23000000000 -29.282749 -5.5864339 -0.68505466 -47.845058 -0.67472863 -47.808899 -25.106937 -23.602945
23100000000 -26.929398 1.4330209 -0.67638528 -49.634354 -0.66790766 -49.572964 -23.966944 -10.931232
23200000000 -25.004986 1.6249546 -0.68931216 -51.460064 -0.68690634 -51.408775 -24.398483 -7.5674529
23300000000 -24.343864 12.569387 -0.68498647 -53.193638 -0.68506408 -53.169106 -24.451792 -2.0178607
23400000000 -24.417915 13.686589 -0.697887 -54.996445 -0.6957432 -54.941856 -24.492783 -12.526676
23500000000 -25.356167 16.12413 -0.70418346 -56.749966 -0.69468415 -56.71096 -23.641996 -15.790366
23600000000 -24.768925 8.3620481 -0.70360202 -58.52705 -0.70090026 -58.481998 -21.925762 -21.084249
23700000000 -23.889381 2.9137232 -0.7073738 -60.258232 -0.70948613 -60.201801 -20.861916 -12.481049
23800000000 -22.378199 0.30774254 -0.71792811 -62.017059 -0.71569204 -61.959965 -20.5464 -8.7079954
23900000000 -21.752676 3.8845618 -0.72043979 -63.733269 -0.7229706 -63.713268 -20.750191 -2.2934551
24000000000 -21.12875 6.2383075 -0.72153634 -65.588867 -0.72268569 -65.527534 -21.683468 -5.9962907
24100000000 -21.7358 7.4395866 -0.72016358 -67.342049 -0.71674764 -67.323311 -21.82798 -13.430386
24200000000 -21.724831 6.0581284 -0.71679527 -69.112564 -0.71354645 -69.052849 -20.605074 -20.324692
24300000000 -21.585819 0.018666498 -0.71992433 -70.866745 -0.71238881 -70.829086 -19.469185 -22.39505
24400000000 -20.424286 -2.3190949 -0.72165585 -72.551216 -0.71774888 -72.52507 -18.341703 -17.684786
24500000000 -19.75733 -4.0941663 -0.73388112 -74.268311 -0.72408921 -74.253105 -18.225023 -12.977133
24600000000 -19.131178 -0.5997225 -0.73419195 -76.06163 -0.7339682 -76.017654 -18.275225 -9.5079327
24700000000 -19.235823 -1.4777551 -0.73071784 -77.828773 -0.72944993 -77.819374 -18.953585 -11.695416
24800000000 -19.468063 -0.026109364 -0.7283842 -79.705437 -0.72912234 -79.653122 -19.127422 -17.048599
24900000000 -19.411407 -5.7963901 -0.7272321 -81.422707 -0.71985835 -81.397377 -18.552805 -22.478085
25000000000 -18.920145 -7.0823517 -0.72554517 -83.215294 -0.72691715 -83.175667 -17.704815 -25.160769
25100000000 -18.062939 -11.173196 -0.71729326 -84.952888 -0.71765941 -84.930153 -16.923622 -22.266689
25200000000 -17.702564 -9.0965624 -0.73030007 -86.730644 -0.72850448 -86.700462 -16.709816 -21.106794
25300000000 -17.180143 -10.405118 -0.74994743 -88.426262 -0.75264513 -88.416122 -16.780268 -19.483065
25400000000 -17.778069 -9.0779114 -0.7551409 -90.189781 -0.74852753 -90.178764 -16.948107 -23.486361
25500000000 -17.437046 -10.761727 -0.75776851 -91.953644 -0.7521261 -91.887833 -16.885977 -23.555994
25600000000 -17.699493 -15.525203 -0.75187373 -93.746712 -0.74482036 -93.742516 -16.74111 -28.298552
25700000000 -17.059164 -16.245802 -0.75427604 -95.509834 -0.74057597 -95.46701 -16.184875 -28.367495
25800000000 -16.919708 -18.623404 -0.75345361 -97.204109 -0.74784327 -97.214378 -15.99111 -28.922108
25900000000 -16.36659 -17.248123 -0.74126434 -99.031181 -0.74821168 -98.960289 -15.677305 -29.618204
26000000000 -16.425438 -19.759539 -0.749286 -100.74946 -0.74382424 -100.72575 -15.681538 -29.75363
26100000000 -16.308163 -18.336655 -0.75119263 -102.58 -0.74757791 -102.52906 -15.689998 -31.896837
26200000000 -16.200979 -20.370934 -0.75513136 -104.32288 -0.74904978 -104.29662 -15.49248 -31.677631
26300000000 -16.131718 -21.384184 -0.76761663 -106.07426 -0.75999367 -106.04987 -15.693735 -35.494572
26400000000 -15.970787 -25.458832 -0.77080512 -107.93219 -0.7606715 -107.81466 -15.107587 -35.07058
26500000000 -15.97023 -26.148417 -0.75822771 -109.60746 -0.76281613 -109.62539 -15.282474 -38.122086
26600000000 -15.578333 -27.831295 -0.76609957 -111.34877 -0.76070607 -111.41042 -14.854019 -38.153336
26700000000 -15.499819 -27.608337 -0.78240722 -113.1132 -0.76875293 -113.1797 -14.72121 -39.339172
26800000000 -15.368611 -29.152685 -0.7822302 -114.93039 -0.75765443 -114.85388 -14.780665 -39.421501
26900000000 -15.585863 -30.535263 -0.76725185 -116.62935 -0.77150011 -116.67146 -14.954996 -41.978878
27000000000 -15.286157 -32.572224 -0.7710861 -118.44363 -0.77902842 -118.33766 -15.17223 -41.882114
27100000000 -15.321878 -36.664829 -0.80250555 -120.22237 -0.78062093 -120.10249 -14.793024 -47.087223
27200000000 -15.185155 -35.691376 -0.77955526 -121.96265 -0.77814645 -121.95095 -14.749454 -47.804321
27300000000 -15.223494 -39.016735 -0.78549737 -123.7012 -0.78694367 -123.66928 -14.242165 -48.819305
27400000000 -15.13759 -38.662006 -0.7956692 -125.53201 -0.79392695 -125.38064 -14.576717 -48.399075
27500000000 -15.22683 -41.805668 -0.80678129 -127.24944 -0.77867752 -127.11202 -14.426645 -48.944603
27600000000 -15.247939 -42.577187 -0.77464902 -128.9919 -0.79479784 -128.98689 -15.037228 -51.473209
27700000000 -15.040861 -45.060371 -0.78873682 -130.7104 -0.78960299 -130.645 -14.794834 -54.582783
27800000000 -15.209367 -44.123257 -0.79527873 -132.50867 -0.78215677 -132.43536 -14.659865 -58.027866
27900000000 -15.25389 -47.850533 -0.79967898 -134.24568 -0.77671731 -134.14354 -14.084941 -58.431458
28000000000 -15.571314 -47.472572 -0.78554696 -136.0981 -0.81125152 -135.88501 -14.289132 -58.965626
28100000000 -15.147696 -50.848438 -0.80303991 -137.58221 -0.79969388 -137.6759 -14.295568 -57.826458
28200000000 -15.385502 -50.90675 -0.81067497 -139.6073 -0.80258214 -139.36241 -14.826751 -59.155865
28300000000 -14.96285 -52.273655 -0.78818065 -141.20906 -0.80307513 -141.32256 -14.732015 -62.395767
28400000000 -15.178252 -53.838161 -0.78018349 -143.02475 -0.78781998 -143.00311 -14.704447 -66.934753
28500000000 -15.230967 -54.495571 -0.80440235 -144.74847 -0.76788139 -144.75034 -14.198133 -65.258171
28600000000 -15.382107 -57.091938 -0.7787537 -146.56703 -0.76404071 -146.53389 -14.323227 -67.118988
28700000000 -15.323898 -57.034931 -0.78767413 -148.18112 -0.76909441 -148.21397 -14.478356 -64.563934
28800000000 -15.850752 -59.168747 -0.79570746 -149.95348 -0.80344045 -150.03719 -15.247369 -66.628624
28900000000 -15.675393 -56.924232 -0.80787671 -151.72287 -0.78642088 -151.79654 -15.177402 -71.765717
29000000000 -15.66331 -63.010929 -0.80298889 -153.82823 -0.81005663 -153.71887 -15.044187 -73.705948
29100000000 -15.639174 -61.932148 -0.79387319 -155.50908 -0.80575746 -155.46346 -14.344251 -75.488396
29200000000 -15.559014 -62.931438 -0.79525137 -157.16718 -0.79339176 -157.07207 -14.632833 -73.312126
29300000000 -15.76854 -60.8437 -0.78490216 -158.85422 -0.77908665 -158.83339 -14.687862 -70.075523
29400000000 -15.625553 -64.368866 -0.79701656 -160.4937 -0.79031962 -160.4543 -15.952958 -71.752892
29500000000 -16.51721 -66.564186 -0.78358519 -162.25905 -0.78065813 -162.29211 -15.934855 -74.482841
29600000000 -16.434923 -69.716461 -0.80288297 -164.07504 -0.79624289 -164.16022 -16.323215 -82.109642
29700000000 -16.662817 -70.344604 -0.77742839 -165.86983 -0.77596635 -165.8969 -15.59983 -81.019165
29800000000 -16.052473 -71.866226 -0.80964118 -167.66649 -0.79378581 -167.71068 -15.712434 -84.643448
29900000000 -16.554892 -73.2705 -0.78807104 -169.46432 -0.81387019 -169.41721 -15.015574 -79.168037
30000000000 -16.804468 -70.479233 -0.79802716 -171.17407 -0.80584472 -171.01291 -16.057024 -80.38131
30100000000 -17.367485 -71.493446 -0.79116744 -172.91939 -0.7857936 -172.94609 -16.570192 -78.861191
30200000000 -17.336786 -72.712898 -0.77463293 -174.5899 -0.79078913 -174.57468 -17.379206 -85.485954
30300000000 -17.415548 -81.693001 -0.78834605 -176.43929 -0.77394521 -176.51732 -17.034065 -85.229553
30400000000 -17.666574 -80.551056 -0.80926377 -178.11641 -0.77432537 -178.20247 -16.889658 -93.71273
30500000000 -17.339773 -81.409897 -0.76977676 -179.88405 -0.77902311 -179.95647 -16.883121 -86.771042
30600000000 -17.451551 -78.517677 -0.77661884 178.23706 -0.77404386 178.31595 -16.853054 -90.878494
30700000000 -17.991014 -82.804176 -0.7784403 176.54366 -0.7732622 176.6288 -17.568035 -84.537003
30800000000 -18.901281 -77.877647 -0.80608529 174.86887 -0.7850768 174.79039 -18.675854 -90.172722
30900000000 -18.756943 -82.281754 -0.78622353 172.90433 -0.80093235 173.04218 -18.658661 -86.861382
31000000000 -19.596926 -80.228439 -0.80437154 171.07639 -0.77367294 171.21097 -18.760603 -94.879707
31100000000 -18.894804 -90.328117 -0.7670542 169.36571 -0.77441263 169.24388 -18.437283 -94.61673
31200000000 -18.997351 -88.723152 -0.76049572 167.36955 -0.76434934 167.58658 -18.23527 -91.59967
31300000000 -18.783476 -87.036606 -0.72695386 165.79634 -0.75055075 165.89943 -18.969881 -91.590851
31400000000 -19.85088 -79.099205 -0.7567817 164.07632 -0.74886584 164.08377 -19.360064 -90.050636
31500000000 -20.368196 -79.292648 -0.74933457 162.241 -0.75117481 162.42418 -20.888456 -89.090263
31600000000 -22.743832 -83.831596 -0.76713604 160.53763 -0.75568765 160.46414 -20.913063 -95.838112
31700000000 -22.085272 -91.588821 -0.76692289 158.76654 -0.75419539 158.96626 -21.614487 -93.644478
31800000000 -21.732206 -93.248779 -0.75995177 156.75487 -0.75472045 157.0032 -20.710285 -99.040413
31900000000 -20.013966 -85.795052 -0.7464745 155.03316 -0.74691379 154.94371 -20.843943 -92.888733
32000000000 -21.732906 -83.475037 -0.73604846 153.31052 -0.76137227 153.30817 -21.181854 -91.832367
32100000000 -23.283607 -67.313652 -0.74787402 151.4077 -0.73971403 151.62892 -22.056959 -78.837654
32200000000 -27.287479 -80.248268 -0.72919399 149.75508 -0.74189591 149.84161 -24.053522 -86.464355
32300000000 -27.004177 -78.774918 -0.73604411 148.05168 -0.77604717 148.09644 -24.682051 -79.738052
32400000000 -25.75935 -93.761612 -0.72633207 146.14946 -0.7471416 146.22269 -26.680027 -97.387093
32500000000 -24.55769 -79.958755 -0.73263198 144.44475 -0.71914345 144.38577 -24.717251 -90.725693
32600000000 -24.762476 -77.202217 -0.72977394 142.54843 -0.71592033 142.69183 -24.42341 -88.905121
32700000000 -26.510557 -46.33688 -0.72056264 140.60394 -0.73067766 140.76408 -23.617674 -80.016342
32800000000 -26.772728 -52.264393 -0.69678855 138.8884 -0.72666687 139.04407 -23.676313 -63.782269
32900000000 -30.018766 -39.942101 -0.71438062 137.05644 -0.73250079 137.14642 -24.702988 -47.315693
33000000000 -28.361553 -59.802113 -0.7612893 135.27585 -0.74351025 135.39531 -26.426794 -41.538658
33100000000 -28.334646 -48.537556 -0.73908275 133.63734 -0.75457293 133.60664 -28.472374 -42.042049
33200000000 -25.57663 -47.871777 -0.74155051 131.84544 -0.72068548 131.76152 -26.116148 -62.014957
33300000000 -27.224432 -34.067226 -0.72922951 129.87524 -0.73243582 130.15088 -26.427443 -47.798168
33400000000 -26.026106 -21.964367 -0.74254763 128.28781 -0.72894537 128.19626 -22.820082 -52.223667
33500000000 -26.915897 -26.95071 -0.74079823 126.27058 -0.73478913 126.49696 -22.976307 -34.702538
33600000000 -25.526175 -21.758669 -0.70989215 124.7058 -0.71795928 124.69394 -22.66712 -33.594501
33700000000 -25.596308 -23.339931 -0.73461193 122.91767 -0.75519508 122.69843 -23.056297 -23.43582
33800000000 -25.185169 -18.360008 -0.74579054 121.07058 -0.77360243 120.97472 -23.661184 -28.084511
33900000000 -25.665691 -17.337093 -0.7280851 119.24296 -0.77757329 119.06406 -23.215965 -31.266008
34000000000 -23.348059 -12.396733 -0.73855311 117.39624 -0.73497248 117.38075 -21.411837 -25.958071
34100000000 -22.579151 -19.031496 -0.71423322 115.36176 -0.73212701 115.49585 -21.225538 -31.546698
34200000000 -21.644003 -11.07975 -0.77854466 113.68255 -0.73623246 113.69853 -19.933241 -14.643222
34300000000 -21.794489 -8.6034336 -0.80350214 111.87683 -0.74520016 111.96242 -21.742407 -22.941248
34400000000 -21.138124 -5.5608106 -0.73825115 110.25771 -0.767874 110.26924 -20.607182 -16.105148
34500000000 -21.245478 -9.1981087 -0.81401664 108.2597 -0.82277989 108.35661 -20.623819 -26.841845
34600000000 -20.541208 -6.8269067 -0.79941696 106.53129 -0.78162092 106.48512 -18.931898 -23.245199
34700000000 -19.621073 -7.6355095 -0.79841012 104.6216 -0.80296147 104.53703 -18.24563 -22.352133
34800000000 -19.34882 -2.7083566 -0.78295463 102.82703 -0.80569232 103.03905 -17.764576 -14.636763
34900000000 -18.96483 -7.8729782 -0.82855093 101.14094 -0.79318953 101.10246 -18.210386 -11.817406
35000000000 -18.663027 -6.421567 -0.78414673 99.266846 -0.78315705 99.467941 -18.867393 -10.300963
35100000000 -17.566219 -11.500164 -0.83939391 97.436951 -0.82226247 97.760925 -18.336948 -19.597393
35200000000 -17.41367 -7.9693437 -0.80415314 95.712448 -0.82274801 95.745384 -17.793482 -24.587328
35300000000 -17.007402 -12.284692 -0.85090065 93.759178 -0.841322 93.90023 -15.942287 -27.709715
35400000000 -17.586699 -10.600183 -0.82769078 92.427284 -0.82633382 92.384956 -15.606563 -26.555508
35500000000 -16.562759 -9.5846996 -0.86202443 90.785812 -0.81081629 90.475296 -15.76477 -23.573267
35600000000 -17.588951 -15.55261 -0.862701 88.623009 -0.85910177 88.868599 -15.973959 -21.70035
35700000000 -16.760471 -16.955429 -0.84057677 86.887321 -0.82953566 86.867195 -16.47139 -24.919321
35800000000 -16.387762 -19.136297 -0.86777133 85.424332 -0.85275257 85.189552 -15.906011 -30.380541
35900000000 -15.802217 -15.645613 -0.85541499 83.367867 -0.83193523 83.412819 -16.094315 -35.144596
36000000000 -15.4706 -19.962053 -0.88129544 81.922852 -0.89489007 81.911957 -14.441694 -31.436359
36100000000 -15.039835 -15.199353 -0.90590209 79.976372 -0.91227323 79.855324 -14.984861 -31.699409
36200000000 -15.512562 -21.798355 -0.86880547 78.233109 -0.87518829 78.091217 -14.3765 -33.217484
36300000000 -16.402185 -19.845173 -0.88122565 76.554901 -0.88280886 76.231758 -15.411607 -36.57415
36400000000 -16.121449 -26.443108 -0.86983031 74.364899 -0.90244913 74.331169 -14.595152 -36.861088
36500000000 -15.20928 -29.332344 -0.87974983 72.619591 -0.89951569 73.061218 -14.563707 -42.578556
36600000000 -13.77844 -30.619513 -0.84159374 71.176575 -0.86901635 71.286034 -12.954427 -37.346592
36700000000 -14.073476 -25.802956 -0.86695802 69.589241 -0.91344643 69.501907 -13.297257 -41.821865
36800000000 -13.868153 -22.535791 -0.92930818 68.036331 -0.96498227 67.877342 -13.093604 -32.852779
36900000000 -15.457933 -23.856735 -0.95972103 65.980759 -0.94487441 65.918533 -14.366394 -41.334637
37000000000 -14.894748 -29.325161 -0.98783296 64.278519 -0.97431046 64.185959 -14.573198 -39.29174
37100000000 -14.696965 -43.797722 -0.95333409 61.920391 -0.92795151 61.937794 -13.912552 -50.726128
37200000000 -13.382934 -38.084942 -0.91954273 60.423756 -0.90344119 60.226192 -13.392689 -49.922859
37300000000 -12.8718 -34.162621 -0.94672149 58.562492 -0.929111 58.730877 -11.859642 -51.156879
37400000000 -12.776339 -30.919813 -0.89642924 57.255924 -0.90366936 57.394245 -12.025932 -45.188221
37500000000 -13.867826 -35.624275 -0.93500364 55.355724 -0.93990231 55.441181 -12.447568 -44.770634
37600000000 -14.643455 -38.249157 -0.95347917 53.954731 -0.94172186 53.604206 -13.316179 -43.298294
37700000000 -13.889472 -46.161201 -0.96505564 52.137405 -0.95521277 52.004051 -14.100605 -49.858849
37800000000 -12.96921 -44.139515 -0.9595564 49.948345 -0.94792622 50.179062 -13.09928 -55.499027
37900000000 -12.368923 -44.07983 -0.95014346 48.385307 -0.97039455 48.387257 -12.873911 -60.617657
38000000000 -13.043131 -42.090652 -0.92893273 46.444366 -0.94729227 46.728374 -11.712626 -59.028618
38100000000 -13.195444 -45.292099 -0.96461701 45.251518 -0.95600182 44.864017 -12.016082 -54.841774
38200000000 -13.633531 -47.009346 -0.98133868 43.359467 -0.94853067 43.026379 -11.880614 -52.796608
38300000000 -12.927955 -50.203098 -0.94804347 41.568237 -0.92620116 41.676773 -13.197729 -52.61869
38400000000 -12.817913 -53.291962 -0.92031634 39.735916 -0.93675303 40.233593 -13.876369 -59.615292
38500000000 -12.725612 -53.092667 -0.95309681 38.034416 -0.90618044 37.973339 -13.181429 -64.291588
38600000000 -13.350323 -50.041641 -0.93816769 36.408028 -0.90538645 36.633022 -12.193831 -66.943054
38700000000 -12.700942 -51.946491 -0.93015891 35.00563 -0.96250963 34.779976 -11.872882 -68.457817
38800000000 -13.48107 -57.172115 -0.9262467 33.336193 -0.92761242 32.993893 -12.380825 -60.500961
38900000000 -13.47412 -55.846714 -0.88156271 30.864214 -0.95536405 31.02689 -12.897782 -65.28817
39000000000 -13.348838 -59.915794 -0.92867982 29.541101 -0.92171508 29.227186 -13.32344 -65.949066
39100000000 -13.611466 -59.82399 -0.92582828 27.594343 -0.90502328 27.603376 -12.979184 -77.840645
39200000000 -13.047844 -65.014717 -0.93569618 26.01437 -0.95929456 25.928221 -12.741055 -74.540245
39300000000 -12.675254 -61.760593 -0.9280445 23.938171 -0.96324891 24.172499 -11.808414 -77.76989
39400000000 -13.560589 -59.704044 -0.92204314 22.385971 -0.95900691 22.487356 -12.272899 -69.404366
39500000000 -14.929598 -57.144676 -0.97533077 20.834679 -0.97900271 20.62381 -12.904421 -72.899918
39600000000 -14.011395 -68.387917 -0.97763366 19.01823 -0.92775536 18.668667 -14.135396 -69.228416
39700000000 -14.122062 -77.544426 -0.94558495 16.501188 -0.90922785 16.831291 -14.231985 -85.062706
39800000000 -12.979249 -75.225983 -0.92572445 14.992446 -0.92253482 15.402677 -13.447614 -83.55378
39900000000 -13.422623 -67.832932 -0.89417821 13.356798 -0.95510089 13.19368 -12.412065 -91.201096
40000000000 -13.500096 -65.286316 -0.87673193 11.877199 -0.88067776 11.771179 -11.963182 -81.746887
40100000000 -15.690311 -70.028351 -0.92865705 9.5203543 -0.92358977 9.7728977 -12.766281 -77.385368
40200000000 -16.011778 -75.791916 -0.90260971 8.2148991 -0.89624661 8.0555096 -13.96532 -75.929153
40300000000 -15.087051 -88.69606 -0.88716602 5.8634233 -0.91069716 6.3315616 -14.607821 -80.096214
40400000000 -13.718858 -82.251907 -0.89682037 4.4117684 -0.8759315 4.6276169 -15.135669 -94.92321
40500000000 -13.889908 -73.807686 -0.88196677 2.6211905 -0.88228554 2.8686147 -14.075501 -96.949677
40600000000 -14.040636 -69.892525 -0.85584718 1.3239202 -0.8804149 0.8641938 -13.621248 -93.127792
40700000000 -16.250801 -80.438751 -0.90752077 -0.85999811 -0.86768252 -1.0512382 -13.20605 -90.20076
40800000000 -16.810404 -79.044037 -0.9127875 -2.1045816 -0.87846529 -2.3851745 -14.069967 -83.008423
40900000000 -14.92612 -90.762894 -0.91942114 -4.2700262 -0.84970015 -4.0114007 -15.492002 -85.426247
41000000000 -14.278642 -88.538261 -0.84147251 -5.89499 -0.86854553 -5.8240004 -15.788008 -85.806961
41100000000 -14.895329 -88.232277 -0.93474197 -8.0455446 -0.92214686 -7.7699513 -16.130981 -101.90231
41200000000 -16.21727 -75.746933 -0.84356493 -9.2793741 -0.88694251 -9.1005793 -15.266836 -98.766769
41300000000 -16.139252 -84.943932 -0.87002677 -11.125795 -0.87705535 -10.995574 -15.452347 -98.981926
41400000000 -17.79883 -89.970261 -0.8363232 -13.148285 -0.82896256 -12.502035 -15.329703 -91.952873
41500000000 -16.398384 -93.083382 -0.9404195 -14.95939 -0.85050958 -14.786976 -15.488376 -94.55024
41600000000 -16.893589 -84.614067 -0.88629037 -16.698425 -0.83912539 -16.534428 -17.066851 -91.191963
41700000000 -16.34466 -87.066765 -0.87672591 -18.627851 -0.8384198 -18.336977 -16.820642 -100.1683
41800000000 -18.476446 -91.863998 -0.87139326 -19.924801 -0.87238681 -19.919891 -17.909863 -96.938583
41900000000 -17.461828 -92.24588 -0.86786366 -21.796177 -0.86767936 -21.693186 -16.937281 -103.7433
42000000000 -18.159418 -82.982841 -0.81978911 -23.622681 -0.82585984 -23.872629 -17.86566 -97.063293
42100000000 -17.812737 -82.597809 -0.85436106 -25.213625 -0.83903748 -25.472235 -17.365404 -103.46528
42200000000 -19.700731 -85.002357 -0.85522872 -26.93725 -0.79216421 -27.266165 -19.252373 -92.80014
42300000000 -21.818468 -81.018883 -0.82883632 -29.136726 -0.87234092 -28.969931 -18.623316 -99.304626
42400000000 -21.729778 -103.73415 -0.87628943 -30.99918 -0.80843145 -30.32061 -21.965971 -100.89806
42500000000 -19.02248 -93.441269 -0.823309 -32.529175 -0.87343532 -32.82634 -20.480698 -107.80225
42600000000 -17.607868 -87.860107 -0.84707963 -34.27132 -0.77472824 -34.408546 -21.907719 -101.18094
42700000000 -21.472914 -68.588455 -0.8167423 -36.487679 -0.86448532 -36.370239 -18.62818 -101.42592
42800000000 -23.09366 -56.434681 -0.87784898 -37.952526 -0.86805934 -38.418556 -21.377312 -97.829086
42900000000 -30.361765 -24.551542 -0.80561501 -40.565609 -0.84407175 -40.509647 -20.601301 -79.470703
43000000000 -25.26108 -101.80701 -0.80597401 -42.328186 -0.83656895 -41.408123 -20.325123 -70.41449
43100000000 -24.011196 -120.04846 -0.82871133 -43.643673 -0.81959873 -43.710674 -27.56741 -61.928848
43200000000 -20.694046 -89.04071 -0.80740505 -45.053734 -0.77774143 -45.420818 -27.952831 -78.797844
43300000000 -22.909761 -57.951908 -0.83708149 -47.055252 -0.80744773 -47.44392 -26.327299 -89.58831
43400000000 -22.046085 -33.961277 -0.82260412 -49.079494 -0.90393013 -48.117348 -23.230602 -84.769783
43500000000 -23.75378 -12.859491 -0.8266269 -50.715141 -0.91882527 -50.639645 -22.685905 -85.194412
43600000000 -27.828741 0.74331778 -0.92052782 -52.478828 -0.80011559 -52.424988 -20.658394 -64.117599
43700000000 -33.371361 -51.079716 -0.81356239 -54.066097 -0.78460598 -54.387245 -21.984285 -39.022427
43800000000 -24.760485 -66.916718 -0.79728502 -56.185318 -0.78676772 -56.299892 -21.45825 -31.247343
43900000000 -24.324335 -56.09317 -0.85636425 -58.297367 -0.87986302 -57.931187 -27.774843 -21.264347
44000000000 -20.457823 -23.667181 -0.89810878 -59.956577 -0.80916893 -59.515976 -24.094622 -36.93232
44100000000 -21.759968 -12.897056 -0.7375744 -61.640709 -0.84166825 -61.629795 -21.449997 -48.910622
44200000000 -19.922646 2.5343928 -0.88939118 -63.961094 -0.8844707 -63.701645 -21.333046 -46.069889
44300000000 -23.204842 -17.880169 -0.75004554 -65.223389 -0.88869137 -65.017326 -19.846708 -31.456799
44400000000 -23.096733 -25.508801 -0.83634233 -67.036949 -0.82090819 -67.228577 -18.520599 -21.274294
44500000000 -21.124483 -49.710506 -0.88671196 -68.246475 -0.91674578 -68.50383 -20.89962 -28.871527
44600000000 -19.905167 -25.443731 -0.82987344 -70.784042 -0.84578675 -70.287453 -20.616474 -17.148117
44700000000 -17.295847 -15.317323 -0.8848055 -72.280907 -0.87504518 -72.121689 -19.283073 -37.794754
44800000000 -20.155533 -3.4773085 -0.85636705 -74.555466 -0.88130176 -74.210213 -16.697012 -28.371664
44900000000 -20.181673 -17.12323 -0.87433749 -76.508286 -0.83914453 -75.891823 -16.886936 -31.872049
45000000000 -19.937666 -5.5142255 -0.9307121 -77.904526 -0.90540749 -77.554352 -16.765629 -12.702195
