!Keysight Technologies,N5247B,MY61255062,A.19.80.06
!Date: Thursday, May 21, 2026 12:03:32
!Correction: S11(Cdelta 2-Port  ) 
!S21(Cdelta 2-Port  ) 
!S12(Cdelta 2-Port  ) 
!S22(Cdelta 2-Port  ) 
!S2P File: Measurements: S11, S21, S12, S22:
# Hz S  dB   R 50
1000000000 -23.363434 15.712527 -0.50034755 -18.81941 -0.50073242 -18.825377 -23.491302 15.170308
1027500000 -23.309067 15.551353 -0.50209826 -19.319109 -0.50370955 -19.338085 -23.435892 15.201062
1055000000 -23.242805 15.628317 -0.50489926 -19.831724 -0.50763887 -19.841595 -23.405857 15.018025
1082500000 -23.143291 15.508328 -0.50867194 -20.325663 -0.51027083 -20.341663 -23.352938 15.082662
1110000000 -23.100021 15.431964 -0.51094484 -20.839241 -0.51319218 -20.846849 -23.327316 15.026338
1137500000 -23.055178 15.521516 -0.51716185 -21.33087 -0.51849115 -21.347219 -23.299561 15.446815
1165000000 -22.923367 15.719266 -0.5197978 -21.818895 -0.5218147 -21.829256 -23.206562 15.579709
1192500000 -22.817774 15.315953 -0.52156979 -22.309233 -0.52337641 -22.323174 -23.135218 15.710643
1220000000 -22.728243 15.207655 -0.52076048 -22.805393 -0.52466261 -22.817074 -23.043491 15.605377
1247500000 -22.684931 15.053907 -0.52264529 -23.32144 -0.52520627 -23.325556 -22.966297 15.378755
1275000000 -22.641834 15.098994 -0.52450258 -23.819435 -0.52767813 -23.837898 -22.90633 15.30479
1302500000 -22.601772 15.067029 -0.53147215 -24.337019 -0.53177232 -24.358747 -22.931736 14.906961
1330000000 -22.522985 15.325384 -0.53518742 -24.817461 -0.53638667 -24.828369 -22.852634 15.319064
1357500000 -22.440195 15.252647 -0.53562725 -25.307714 -0.53854167 -25.321226 -22.765314 15.390049
1385000000 -22.363153 14.960238 -0.53606451 -25.804487 -0.53893876 -25.81131 -22.694695 15.326927
1412500000 -22.322681 14.573578 -0.53973627 -26.30969 -0.54167652 -26.325003 -22.630724 15.349729
1440000000 -22.26774 14.665217 -0.54328293 -26.796442 -0.54510152 -26.807989 -22.534853 15.374095
1467500000 -22.1912 14.52331 -0.54339969 -27.294731 -0.54592097 -27.303585 -22.447357 15.262246
1495000000 -22.142519 14.398821 -0.54568118 -27.790445 -0.54897863 -27.808008 -22.373316 15.1213
1522500000 -22.059465 14.408831 -0.54706973 -28.272968 -0.55047137 -28.295887 -22.292341 15.060815
1550000000 -21.963341 14.316336 -0.54656827 -28.771 -0.54903591 -28.782362 -22.198072 14.774951
1577500000 -21.90089 14.104999 -0.55002034 -29.284344 -0.55243582 -29.30253 -22.195049 14.374005
1605000000 -21.81826 14.097793 -0.55310231 -29.767488 -0.55553925 -29.787657 -22.106647 14.418012
1632500000 -21.768002 14.199504 -0.55556041 -30.264442 -0.55887777 -30.278242 -22.063892 14.328416
1660000000 -21.674938 13.992272 -0.55689621 -30.740965 -0.55882239 -30.761557 -21.963184 14.31836
1687500000 -21.582693 13.674781 -0.55638367 -31.237471 -0.55836612 -31.25762 -21.873375 13.955482
1715000000 -21.542648 13.500295 -0.55597997 -31.741241 -0.55936825 -31.756504 -21.816698 13.695869
1742500000 -21.476603 13.237192 -0.55698687 -32.232155 -0.55990595 -32.24831 -21.742958 13.509326
1770000000 -21.411179 12.879786 -0.55897522 -32.738693 -0.560525 -32.750481 -21.69348 13.339811
1797500000 -21.345154 12.71712 -0.55992687 -33.234367 -0.56225771 -33.250984 -21.61409 13.092844
1825000000 -21.274546 12.51769 -0.56002343 -33.732872 -0.56248933 -33.74876 -21.572622 12.901052
1852500000 -21.236292 12.14925 -0.56115472 -34.22781 -0.5635885 -34.24173 -21.503887 12.656661
1880000000 -21.175028 11.993539 -0.56136507 -34.738338 -0.56363332 -34.749794 -21.44895 12.34903
1907500000 -21.109106 11.826037 -0.56261456 -35.231483 -0.56569046 -35.241928 -21.401161 11.997144
1935000000 -21.033518 11.413201 -0.56324369 -35.737568 -0.56727421 -35.74852 -21.342764 11.707507
1962500000 -21.003309 11.164316 -0.56493211 -36.242664 -0.566607 -36.252533 -21.298464 11.453513
1990000000 -20.986498 11.058236 -0.56775266 -36.752705 -0.57198346 -36.755493 -21.280487 11.27256
2017500000 -20.917734 10.756741 -0.56989914 -37.235741 -0.57350802 -37.248146 -21.23068 11.167476
2045000000 -20.865639 10.495837 -0.57177848 -37.726955 -0.5742147 -37.737717 -21.167227 10.980013
2072500000 -20.822525 10.349134 -0.5730496 -38.220665 -0.5750367 -38.236084 -21.087648 10.718983
2100000000 -20.763584 9.9476089 -0.57382619 -38.718513 -0.57851565 -38.73299 -21.03618 10.550226
2127500000 -20.719521 9.7169743 -0.57465142 -39.226154 -0.57727873 -39.232338 -20.986998 10.165496
2155000000 -20.669767 9.5176477 -0.57531893 -39.720242 -0.57943523 -39.729923 -20.942747 9.9140062
2182500000 -20.619663 9.1670561 -0.57773674 -40.221851 -0.58023161 -40.234413 -20.881235 9.608119
2210000000 -20.566395 8.8588266 -0.5779115 -40.714825 -0.58212936 -40.724983 -20.82659 9.3384056
2237500000 -20.528135 8.6483536 -0.58012778 -41.213879 -0.58262485 -41.229977 -20.790852 9.0342665
2265000000 -20.475067 8.3853388 -0.58124357 -41.716087 -0.5859884 -41.728909 -20.750988 8.7497721
2292500000 -20.42074 7.9661598 -0.58266276 -42.215038 -0.58707964 -42.233025 -20.692085 8.4400043
2320000000 -20.408487 7.8258395 -0.58414257 -42.712715 -0.587897 -42.736584 -20.644987 8.0512943
2347500000 -20.34734 7.5167522 -0.58681685 -43.2052 -0.59038764 -43.215954 -20.608356 7.9869475
2375000000 -20.302246 7.102983 -0.58607078 -43.697834 -0.59189469 -43.703419 -20.562988 7.6861305
2402500000 -20.25922 6.981884 -0.5882405 -44.20821 -0.59470373 -44.213024 -20.524084 7.2173696
2430000000 -20.24127 6.7138524 -0.58920664 -44.698074 -0.59398425 -44.712734 -20.464512 6.9709835
2457500000 -20.186113 6.394289 -0.59070969 -45.20229 -0.59665835 -45.211311 -20.437132 6.4433613
2485000000 -20.146477 6.1487093 -0.5937646 -45.690845 -0.59693873 -45.711723 -20.386209 6.238112
2512500000 -20.139977 5.999207 -0.59494418 -46.192234 -0.6005339 -46.199757 -20.363514 5.8512335
2540000000 -20.092136 5.5523348 -0.59484774 -46.681553 -0.59986454 -46.695805 -20.353088 5.6704111
2567500000 -20.059811 5.1727147 -0.59804636 -47.172821 -0.6035291 -47.189232 -20.321129 5.3266878
2595000000 -20.024147 5.0468616 -0.59976768 -47.667339 -0.60415679 -47.686512 -20.254576 4.9807696
2622500000 -19.983093 4.6545401 -0.60067004 -48.152977 -0.60434389 -48.165543 -20.216345 4.7448764
2650000000 -19.967266 4.2451229 -0.60196745 -48.654472 -0.60661298 -48.673103 -20.205881 4.253931
2677500000 -19.90546 4.0126071 -0.60335928 -49.145348 -0.60738194 -49.170143 -20.147545 3.9734476
2705000000 -19.85301 3.8342428 -0.60471165 -49.63401 -0.60837138 -49.667419 -20.115206 3.8075845
2732500000 -19.850843 3.337986 -0.60531986 -50.131115 -0.61046499 -50.162354 -20.096533 3.5088212
2760000000 -19.806953 2.9556866 -0.60560822 -50.63588 -0.61138421 -50.655266 -20.042763 3.1398425
2787500000 -19.754351 2.830447 -0.60849285 -51.1334 -0.61403412 -51.149742 -20.050173 2.7783873
2815000000 -19.748417 2.6034327 -0.60852683 -51.63438 -0.61539429 -51.653107 -19.996899 2.6037915
2842500000 -19.71821 2.1845274 -0.61295098 -52.129238 -0.61601329 -52.146782 -19.952099 2.1107256
2870000000 -19.676067 1.9726206 -0.61487895 -52.616245 -0.61786467 -52.631088 -19.924856 1.7970437
2897500000 -19.641119 1.743232 -0.61590022 -53.116856 -0.61922276 -53.136185 -19.907486 1.5082865
2925000000 -19.636881 1.277364 -0.61563146 -53.612766 -0.62129146 -53.616081 -19.870461 1.1967005
2952500000 -19.579184 1.0216631 -0.61767185 -54.10022 -0.62187779 -54.111015 -19.845425 0.86790311
2980000000 -19.537571 0.76987273 -0.6184395 -54.593903 -0.6216436 -54.615517 -19.83791 0.35302141
3007500000 -19.545614 0.46660653 -0.61970401 -55.086094 -0.62180191 -55.099674 -19.783115 0.27659497
3035000000 -19.500713 0.094827361 -0.62037104 -55.56575 -0.62413514 -55.590683 -19.77659 -0.031875432
3062500000 -19.447973 -0.0097506149 -0.62207884 -56.062832 -0.62545156 -56.081333 -19.757151 -0.47241858
3090000000 -19.439751 -0.45303732 -0.62145871 -56.571121 -0.62617749 -56.585968 -19.703463 -0.74759638
3117500000 -19.433388 -0.79831672 -0.62372631 -57.055782 -0.62772155 -57.071041 -19.682991 -0.82050741
3145000000 -19.362625 -1.1665688 -0.62623042 -57.552635 -0.63033748 -57.561699 -19.688282 -1.3986722
3172500000 -19.332899 -1.5573041 -0.62677586 -58.044369 -0.63086873 -58.058945 -19.640123 -1.8336526
3200000000 -19.348198 -1.9938358 -0.62837696 -58.541553 -0.63186741 -58.544426 -19.613468 -1.784506
3227500000 -19.282291 -2.223316 -0.62823635 -59.022144 -0.63401556 -59.031063 -19.59963 -2.270215
3255000000 -19.2542 -2.6868048 -0.63095438 -59.511581 -0.63248062 -59.525681 -19.564497 -2.7949152
3282500000 -19.242884 -3.1005383 -0.62943369 -60.006916 -0.63399607 -60.033619 -19.540073 -2.785841
3310000000 -19.202553 -3.2980165 -0.63172615 -60.494789 -0.63528311 -60.510941 -19.541103 -3.0362084
3337500000 -19.184872 -3.8136408 -0.63232821 -60.984356 -0.63678968 -60.988052 -19.531771 -3.7234542
3365000000 -19.180548 -4.0995698 -0.63236594 -61.490944 -0.63702017 -61.491291 -19.449152 -3.8342907
3392500000 -19.122622 -4.4122791 -0.63414943 -61.965992 -0.63747251 -61.976536 -19.447222 -3.7541165
3420000000 -19.10615 -4.7622471 -0.63278461 -62.450054 -0.6378392 -62.470791 -19.468988 -4.5328636
3447500000 -19.109776 -5.0010004 -0.63570803 -62.953976 -0.63796538 -62.965397 -19.397856 -4.9362874
3475000000 -19.080448 -5.5813484 -0.63359082 -63.451603 -0.63851953 -63.458382 -19.347593 -4.8104234
3502500000 -19.059998 -5.8282647 -0.63325506 -63.93837 -0.63817948 -63.950268 -19.373234 -5.3064284
3530000000 -19.033783 -5.9815531 -0.63348871 -64.433876 -0.63783169 -64.449051 -19.359604 -6.0250745
3557500000 -19.006346 -6.666862 -0.63394785 -64.934387 -0.64013666 -64.935417 -19.243418 -6.1502013
3585000000 -18.999067 -6.9710612 -0.63555044 -65.424263 -0.63800889 -65.443611 -19.2652 -6.2777462
3612500000 -18.958157 -7.0274358 -0.63558638 -65.926529 -0.63891953 -65.934319 -19.295813 -6.7609081
3640000000 -18.936302 -7.6498647 -0.63678217 -66.425766 -0.64041501 -66.429138 -19.205816 -7.2336493
3667500000 -18.94515 -8.2171392 -0.63692755 -66.920013 -0.64094424 -66.933105 -19.177753 -7.5493712
3695000000 -18.905304 -8.2158251 -0.63849163 -67.415062 -0.64215648 -67.419853 -19.208439 -7.9567537
3722500000 -18.878496 -8.6090298 -0.63863224 -67.913055 -0.64298248 -67.925095 -19.176666 -8.4669199
3750000000 -18.872324 -9.2210293 -0.637999 -68.406166 -0.64238191 -68.413086 -19.122663 -8.5593443
3777500000 -18.83363 -9.3870049 -0.64008921 -68.896133 -0.64397132 -68.904266 -19.163628 -9.0065441
3805000000 -18.806225 -9.5819292 -0.64005983 -69.39048 -0.64396864 -69.40728 -19.141752 -9.3555737
3832500000 -18.812473 -10.270296 -0.64065862 -69.885735 -0.64433044 -69.901642 -19.084387 -9.7365246
3860000000 -18.780972 -10.645915 -0.64247042 -70.379036 -0.64395422 -70.399353 -19.103014 -10.144825
3887500000 -18.719326 -10.677693 -0.6437453 -70.88517 -0.64678907 -70.891487 -19.096983 -10.358194
3915000000 -18.738604 -11.284 -0.64415121 -71.361313 -0.64784038 -71.373146 -19.043051 -10.773995
3942500000 -18.740034 -11.990417 -0.64431155 -71.868736 -0.64760393 -71.879395 -19.055456 -11.211287
3970000000 -18.658936 -11.989621 -0.64386839 -72.354347 -0.64925116 -72.36805 -19.046644 -11.468829
3997500000 -18.66975 -12.249573 -0.64525384 -72.841721 -0.64938647 -72.864838 -19.016523 -11.870197
4025000000 -18.697786 -12.952494 -0.64452082 -73.337807 -0.64970243 -73.351105 -19.005253 -12.432652
4052500000 -18.619843 -13.338561 -0.64598787 -73.838417 -0.64941502 -73.850227 -19.008387 -12.500609
4080000000 -18.594852 -13.382311 -0.64429259 -74.337769 -0.65061104 -74.347694 -18.999962 -12.960777
4107500000 -18.652662 -14.051564 -0.64601791 -74.835487 -0.65003943 -74.847649 -18.988792 -13.406795
4135000000 -18.61076 -14.600667 -0.64645141 -75.325752 -0.65046906 -75.341064 -18.958462 -13.736968
4162500000 -18.53783 -14.721947 -0.64586592 -75.814705 -0.65096432 -75.838219 -18.936722 -14.057534
4190000000 -18.57443 -15.061064 -0.64612335 -76.31826 -0.65104371 -76.335442 -18.940475 -14.531091
4217500000 -18.579506 -15.704297 -0.64792877 -76.815208 -0.65209699 -76.833565 -18.902422 -14.807532
4245000000 -18.5051 -15.958984 -0.64878136 -77.311882 -0.65224141 -77.319199 -18.892197 -15.124447
4272500000 -18.509623 -16.196194 -0.64900017 -77.810692 -0.65317547 -77.81855 -18.90914 -15.554185
4300000000 -18.537231 -16.801207 -0.65043604 -78.300652 -0.6541751 -78.31797 -18.866539 -15.879475
4327500000 -18.499413 -17.279087 -0.65253979 -78.800491 -0.65502417 -78.817734 -18.866348 -16.290367
4355000000 -18.46928 -17.43158 -0.65101695 -79.286461 -0.65436649 -79.317871 -18.882538 -16.721369
4382500000 -18.481779 -17.797691 -0.6522423 -79.788391 -0.65580171 -79.811272 -18.852676 -17.012865
4410000000 -18.478291 -18.293699 -0.65331483 -80.284332 -0.65508527 -80.298286 -18.828531 -17.441029
4437500000 -18.442078 -18.557587 -0.65311503 -80.774048 -0.65668631 -80.790024 -18.834894 -17.761072
4465000000 -18.446453 -19.056507 -0.65473402 -81.279022 -0.65885365 -81.288979 -18.831522 -18.233173
4492500000 -18.463238 -19.464577 -0.65376824 -81.768532 -0.65881211 -81.78566 -18.814457 -18.531727
4520000000 -18.433374 -19.671379 -0.65538263 -82.250359 -0.65753162 -82.272385 -18.823385 -18.894802
4547500000 -18.410925 -20.171452 -0.65585768 -82.762383 -0.66029215 -82.779572 -18.798403 -19.343298
4575000000 -18.429211 -20.534534 -0.65537721 -83.250725 -0.66016346 -83.267189 -18.792419 -19.669249
4602500000 -18.417469 -20.921375 -0.65846777 -83.743988 -0.66082138 -83.753204 -18.802197 -19.991236
4630000000 -18.400667 -21.295406 -0.65855598 -84.243835 -0.66187793 -84.255775 -18.788874 -20.470509
4657500000 -18.409939 -21.781527 -0.65845418 -84.73671 -0.66238141 -84.747353 -18.768465 -20.835871
4685000000 -18.416269 -22.155569 -0.65840811 -85.233109 -0.66320974 -85.243088 -18.782064 -21.216215
4712500000 -18.381308 -22.446451 -0.6576888 -85.727013 -0.66277099 -85.738815 -18.775402 -21.651524
4740000000 -18.377098 -22.889013 -0.65977651 -86.225304 -0.66381383 -86.233803 -18.749861 -22.031313
4767500000 -18.395576 -23.323698 -0.65923113 -86.712898 -0.66427892 -86.72641 -18.764673 -22.366791
4795000000 -18.380835 -23.575304 -0.66025418 -87.205811 -0.66429883 -87.221268 -18.765747 -22.736849
4822500000 -18.370764 -24.060242 -0.66032076 -87.713837 -0.66674376 -87.722588 -18.750809 -23.236177
4850000000 -18.386627 -24.490808 -0.661448 -88.194069 -0.6659621 -88.204597 -18.761076 -23.553776
4877500000 -18.372496 -24.72917 -0.65985698 -88.68821 -0.66569114 -88.700943 -18.761038 -23.90262
4905000000 -18.349648 -25.101757 -0.66141999 -89.182907 -0.66624153 -89.200584 -18.734463 -24.508568
4932500000 -18.357609 -25.584723 -0.66168106 -89.676308 -0.6670984 -89.698105 -18.728384 -24.716232
4960000000 -18.378241 -25.967146 -0.66319132 -90.174141 -0.66876608 -90.193954 -18.757895 -25.063261
4987500000 -18.360289 -26.366169 -0.66288435 -90.671394 -0.66907585 -90.677521 -18.726051 -25.606632
5015000000 -18.364029 -26.762791 -0.66528016 -91.158951 -0.67006767 -91.176132 -18.722523 -25.929388
5042500000 -18.375427 -27.126682 -0.66425753 -91.659424 -0.67020452 -91.673866 -18.753622 -26.207464
5070000000 -18.362741 -27.515406 -0.6644038 -92.145142 -0.67012322 -92.180389 -18.744696 -26.821299
5097500000 -18.36587 -27.87534 -0.66648477 -92.652771 -0.66919452 -92.665253 -18.7187 -27.156597
5125000000 -18.390873 -28.373575 -0.66700482 -93.137878 -0.67093128 -93.162979 -18.756536 -27.440107
5152500000 -18.373598 -28.719378 -0.66839045 -93.629051 -0.67136818 -93.644539 -18.749844 -27.949575
5180000000 -18.373545 -29.076191 -0.66877753 -94.128983 -0.67150384 -94.145065 -18.72019 -28.568998
5207500000 -18.387695 -29.458733 -0.66879475 -94.627296 -0.6738255 -94.645584 -18.732605 -28.651108
5235000000 -18.384216 -29.953945 -0.66967112 -95.122314 -0.67409033 -95.139191 -18.763588 -29.265022
5262500000 -18.371719 -30.295925 -0.66983902 -95.615211 -0.67487675 -95.62999 -18.729836 -29.80949
5290000000 -18.399244 -30.682251 -0.67091894 -96.104958 -0.67406738 -96.117287 -18.750149 -29.998602
5317500000 -18.391882 -31.051441 -0.67228949 -96.609138 -0.67542654 -96.615433 -18.786825 -30.343952
5345000000 -18.399658 -31.423979 -0.67111558 -97.090385 -0.67436969 -97.11557 -18.746126 -30.942966
5372500000 -18.407293 -31.872459 -0.6705398 -97.594009 -0.6763218 -97.604034 -18.752487 -31.284883
5400000000 -18.413868 -32.342758 -0.67188638 -98.083122 -0.67755395 -98.092468 -18.794529 -31.580412
5427500000 -18.411579 -32.641644 -0.67321038 -98.575157 -0.67764652 -98.572594 -18.782772 -32.282658
5455000000 -18.434647 -32.994106 -0.67359757 -99.068237 -0.67891508 -99.084473 -18.764435 -32.683994
5482500000 -18.443521 -33.487083 -0.67454475 -99.554161 -0.67847264 -99.571007 -18.809008 -32.824547
5510000000 -18.445982 -33.805756 -0.67474586 -100.05926 -0.67900532 -100.06645 -18.824814 -33.379997
5537500000 -18.462778 -34.078941 -0.67393404 -100.55002 -0.67862183 -100.5572 -18.795626 -33.852657
5565000000 -18.477009 -34.767349 -0.67424667 -101.04281 -0.68025064 -101.04942 -18.84263 -34.107807
5592500000 -18.470219 -35.043594 -0.67591798 -101.53328 -0.67925775 -101.53937 -18.858812 -34.584396
5620000000 -18.494785 -35.393726 -0.67540717 -102.03719 -0.6803109 -102.0413 -18.834135 -35.172832
5647500000 -18.506153 -35.862209 -0.67642218 -102.51434 -0.68084043 -102.54575 -18.865852 -35.479099
5675000000 -18.504797 -36.299706 -0.67717636 -103.0088 -0.68261582 -103.02416 -18.882589 -35.872429
5702500000 -18.528849 -36.555233 -0.67663336 -103.49486 -0.68192947 -103.52392 -18.87838 -36.438026
5730000000 -18.533974 -37.085251 -0.67758846 -103.9894 -0.6825192 -104.02351 -18.868933 -36.692703
5757500000 -18.539715 -37.5121 -0.67903769 -104.49548 -0.6814667 -104.50436 -18.91543 -37.133301
5785000000 -18.566156 -37.736881 -0.67845088 -104.9831 -0.68340892 -105.00192 -18.924099 -37.613411
5812500000 -18.576574 -38.258778 -0.67842299 -105.47813 -0.6840831 -105.49511 -18.927822 -38.031658
5840000000 -18.583084 -38.814198 -0.67863393 -105.96558 -0.68315989 -105.97672 -18.975819 -38.492203
5867500000 -18.604967 -39.010258 -0.67861003 -106.45595 -0.68421429 -106.48152 -18.9932 -38.832329
5895000000 -18.654974 -39.414543 -0.67941695 -106.94939 -0.68378794 -106.96313 -18.99472 -39.196442
5922500000 -18.651604 -39.963997 -0.67992187 -107.44459 -0.68519592 -107.45407 -19.03261 -39.64571
5950000000 -18.662401 -40.235638 -0.67950654 -107.93022 -0.68550658 -107.94707 -19.066422 -40.156853
5977500000 -18.68605 -40.506382 -0.6819334 -108.42554 -0.68663073 -108.4385 -19.057281 -40.332512
6005000000 -18.707985 -41.202057 -0.68127924 -108.91219 -0.68593585 -108.9356 -19.094889 -40.845451
6032500000 -18.704134 -41.520168 -0.68237346 -109.40995 -0.68625236 -109.41481 -19.122387 -41.377075
6060000000 -18.748518 -41.715919 -0.68220901 -109.89413 -0.68606102 -109.91676 -19.117386 -41.571323
6087500000 -18.77529 -42.336555 -0.68397641 -110.38168 -0.68602437 -110.39251 -19.144089 -42.150742
6115000000 -18.772812 -42.786499 -0.68210572 -110.87467 -0.68512803 -110.88747 -19.208866 -42.586788
6142500000 -18.801149 -42.833961 -0.68126649 -111.3803 -0.68458885 -111.37549 -19.199842 -42.848927
6170000000 -18.846203 -43.207664 -0.68270183 -111.86274 -0.68711102 -111.87285 -19.243618 -43.204262
6197500000 -18.84701 -44.023312 -0.67963487 -112.35397 -0.68632877 -112.36176 -19.297888 -43.769615
6225000000 -18.848455 -44.112164 -0.68210632 -112.84459 -0.68451279 -112.85661 -19.282276 -43.963699
6252500000 -18.926559 -44.224812 -0.68101275 -113.33276 -0.68635148 -113.34937 -19.306505 -44.28537
6280000000 -18.937189 -45.114307 -0.67895597 -113.82709 -0.68482918 -113.8326 -19.38154 -44.99123
6307500000 -18.907921 -45.404213 -0.67947173 -114.31815 -0.68398553 -114.33063 -19.362457 -45.152096
6335000000 -18.965569 -45.203583 -0.67873383 -114.80465 -0.68387884 -114.8243 -19.380268 -45.322735
6362500000 -19.013235 -45.98291 -0.67931372 -115.28687 -0.68448311 -115.31139 -19.476696 -46.064629
6390000000 -18.973894 -46.575985 -0.67856497 -115.78368 -0.68257338 -115.79061 -19.463951 -46.420132
6417500000 -18.996302 -46.249649 -0.67804295 -116.27038 -0.68304354 -116.28484 -19.415606 -46.36462
6445000000 -19.079695 -46.755642 -0.67518371 -116.76623 -0.67915148 -116.77599 -19.55057 -46.876995
6472500000 -19.07469 -47.690758 -0.67396188 -117.25867 -0.68039024 -117.27194 -19.574177 -47.496632
6500000000 -19.052197 -47.54163 -0.67271316 -117.7586 -0.68013895 -117.76685 -19.505022 -47.616383
6527500000 -19.105446 -47.662655 -0.67281866 -118.24697 -0.67867994 -118.26669 -19.621422 -47.910725
6555000000 -19.198523 -48.607738 -0.67037427 -118.75228 -0.67659825 -118.76495 -19.694887 -48.393429
6582500000 -19.153072 -48.927998 -0.67016339 -119.25018 -0.67607468 -119.25852 -19.587173 -48.737057
6610000000 -19.131216 -48.819141 -0.67106301 -119.74076 -0.67381132 -119.75737 -19.659277 -48.796642
6637500000 -19.258703 -49.530224 -0.66905141 -120.24435 -0.67372757 -120.2558 -19.788954 -49.230347
6665000000 -19.25617 -49.917923 -0.66628921 -120.75787 -0.67377657 -120.75822 -19.693073 -50.134659
6692500000 -19.206861 -50.054417 -0.66674858 -121.23699 -0.67194408 -121.2645 -19.679993 -50.016396
6720000000 -19.296167 -50.551952 -0.66589361 -121.73537 -0.67190146 -121.76457 -19.858728 -50.010078
6747500000 -19.33975 -50.967491 -0.6648252 -122.24076 -0.66983932 -122.26065 -19.836302 -50.969986
6775000000 -19.286497 -51.239967 -0.6644578 -122.74561 -0.66837084 -122.76254 -19.78051 -51.474617
6802500000 -19.350113 -51.448402 -0.66596633 -123.25485 -0.6694476 -123.27456 -19.849047 -50.995762
6830000000 -19.403208 -52.041653 -0.66448492 -123.76963 -0.6693362 -123.78535 -19.94973 -51.764008
6857500000 -19.381418 -52.431175 -0.66478419 -124.2561 -0.67019606 -124.2751 -19.883839 -52.588322
6885000000 -19.423269 -52.607578 -0.66462761 -124.76145 -0.66966087 -124.77887 -19.921852 -52.532005
6912500000 -19.451979 -52.93277 -0.66499931 -125.2657 -0.67058599 -125.27582 -20.038586 -52.823719
6940000000 -19.478088 -53.55637 -0.66600436 -125.75983 -0.67174286 -125.77305 -20.007147 -53.734341
6967500000 -19.508114 -53.707153 -0.66455251 -126.25619 -0.67094219 -126.27628 -20.012083 -53.952404
6995000000 -19.52212 -53.972572 -0.66618359 -126.75381 -0.67150533 -126.76475 -20.077192 -53.874584
7022500000 -19.582495 -54.66124 -0.66696799 -127.25723 -0.67259622 -127.27179 -20.146709 -54.456226
7050000000 -19.610197 -54.772667 -0.66622072 -127.7494 -0.67013198 -127.77084 -20.124393 -55.196697
7077500000 -19.608192 -55.097992 -0.66586494 -128.25809 -0.67085761 -128.27562 -20.161081 -55.138611
7105000000 -19.667418 -55.724583 -0.66599017 -128.74529 -0.67118114 -128.77 -20.24984 -55.308617
7132500000 -19.720591 -55.780033 -0.66617274 -129.24637 -0.67169809 -129.26425 -20.23324 -56.263077
7160000000 -19.708822 -56.047249 -0.66634959 -129.75476 -0.6716854 -129.76379 -20.244661 -56.310715
7187500000 -19.749714 -56.877663 -0.6657533 -130.24724 -0.67131442 -130.26247 -20.316826 -56.270489
7215000000 -19.796232 -57.102684 -0.66613293 -130.74843 -0.67088658 -130.7589 -20.368713 -57.298199
7242500000 -19.810799 -57.184315 -0.66738665 -131.24313 -0.67228311 -131.2702 -20.375454 -57.704094
7270000000 -19.841873 -57.787586 -0.66735584 -131.74437 -0.67038667 -131.76031 -20.448351 -57.534107
7297500000 -19.910942 -58.278267 -0.66706365 -132.24054 -0.67207038 -132.25975 -20.480993 -58.228512
7325000000 -19.940342 -58.192364 -0.66664082 -132.74504 -0.67178148 -132.76129 -20.477551 -58.813644
7352500000 -19.94722 -58.617264 -0.66556984 -133.24239 -0.67162681 -133.25243 -20.520803 -58.644524
7380000000 -20.012287 -59.357891 -0.66708118 -133.73569 -0.6722886 -133.77293 -20.61466 -59.100056
7407500000 -20.039581 -59.337017 -0.66643828 -134.24915 -0.67097116 -134.25563 -20.602068 -60.004135
7435000000 -20.053171 -59.70319 -0.66600013 -134.7457 -0.67181957 -134.75621 -20.633303 -60.03405
7462500000 -20.107004 -60.471996 -0.66712463 -135.24796 -0.67020029 -135.26509 -20.706171 -60.184269
7490000000 -20.14934 -60.567913 -0.66788775 -135.74123 -0.67139232 -135.76096 -20.70401 -61.125557
7517500000 -20.132441 -60.634491 -0.66730696 -136.24875 -0.67343891 -136.26079 -20.748545 -61.207756
7545000000 -20.230484 -61.368027 -0.66886145 -136.74261 -0.67275608 -136.7639 -20.85177 -61.210079
7572500000 -20.265106 -61.764725 -0.66803509 -137.24593 -0.67405438 -137.26216 -20.871082 -62.155582
7600000000 -20.274763 -61.617199 -0.66958898 -137.75479 -0.67388934 -137.76506 -20.866489 -62.615086
7627500000 -20.330162 -62.335873 -0.66956961 -138.24326 -0.67271709 -138.25916 -20.958122 -62.342258
7655000000 -20.379959 -62.975815 -0.67080683 -138.73801 -0.67551935 -138.75774 -20.988735 -63.158596
7682500000 -20.406548 -62.89127 -0.67097723 -139.25133 -0.6774441 -139.27397 -21.006628 -63.850174
7710000000 -20.434633 -63.407326 -0.67215288 -139.73271 -0.67641497 -139.77042 -21.089458 -63.72007
7737500000 -20.490307 -64.178833 -0.67209488 -140.24442 -0.67822057 -140.26688 -21.14609 -64.298569
7765000000 -20.527233 -64.154282 -0.67506969 -140.76138 -0.67885822 -140.76277 -21.141943 -65.097916
7792500000 -20.561811 -64.502609 -0.67494208 -141.24352 -0.67947507 -141.26585 -21.244711 -65.006546
7820000000 -20.623602 -65.289314 -0.67529285 -141.75572 -0.68102181 -141.75667 -21.306923 -65.513306
7847500000 -20.695427 -65.483009 -0.67808437 -142.23239 -0.68112206 -142.25281 -21.292721 -66.493744
7875000000 -20.725945 -65.700409 -0.67955226 -142.73016 -0.68378192 -142.74988 -21.390944 -66.509689
7902500000 -20.775984 -66.48259 -0.67991614 -143.22537 -0.683348 -143.25108 -21.512615 -66.714401
7930000000 -20.812899 -66.855606 -0.67946023 -143.71118 -0.68527228 -143.74332 -21.474871 -67.831001
7957500000 -20.918776 -66.858124 -0.6823886 -144.21059 -0.68631512 -144.23059 -21.573725 -67.925606
7985000000 -20.981213 -67.457016 -0.68091285 -144.71065 -0.68620569 -144.72153 -21.724554 -68.074463
8012500000 -21.03187 -68.055466 -0.6828506 -145.18285 -0.68621504 -145.20094 -21.703772 -68.734093
8040000000 -21.130203 -67.957504 -0.6813525 -145.67804 -0.68727142 -145.70387 -21.764343 -68.957542
8067500000 -21.206572 -68.38398 -0.68190736 -146.17595 -0.68580157 -146.18341 -21.971127 -69.026184
8095000000 -21.197048 -69.078247 -0.68243045 -146.65283 -0.68441701 -146.68587 -21.939623 -69.792786
8122500000 -21.323435 -69.008278 -0.68297356 -147.15436 -0.68549204 -147.17706 -21.960495 -69.905823
8150000000 -21.412462 -69.071083 -0.67916936 -147.65727 -0.68528533 -147.6705 -22.211657 -69.933388
8177500000 -21.405085 -69.695068 -0.68030667 -148.14326 -0.6844734 -148.16808 -22.209265 -71.03582
8205000000 -21.505507 -69.868248 -0.67959374 -148.65167 -0.68394494 -148.68047 -22.098896 -70.627083
8232500000 -21.622402 -69.888382 -0.67859674 -149.15297 -0.68239617 -149.16478 -22.449766 -70.562706
8260000000 -21.593426 -70.158974 -0.67932647 -149.65103 -0.68415582 -149.6772 -22.501589 -72.194168
8287500000 -21.652782 -70.668587 -0.68119413 -150.17284 -0.68410397 -150.18428 -22.19595 -71.662689
8315000000 -21.837032 -70.591637 -0.67812371 -150.66763 -0.68451065 -150.6794 -22.634439 -70.670967
8342500000 -21.765398 -70.831848 -0.68322259 -151.18132 -0.68707556 -151.19141 -22.855675 -73.513931
8370000000 -21.785509 -71.564629 -0.68452823 -151.68077 -0.68660647 -151.70436 -22.298046 -73.152802
8397500000 -22.03933 -71.293221 -0.68760806 -152.17105 -0.68984914 -152.21059 -22.695864 -70.002129
8425000000 -21.928638 -71.364937 -0.69453835 -152.67278 -0.69525832 -152.71887 -23.531164 -73.921379
8452500000 -21.921017 -72.574165 -0.69656307 -153.16864 -0.69901156 -153.21762 -22.449905 -77.572533
8480000000 -22.251646 -71.87207 -0.70336705 -153.64395 -0.71081042 -153.64893 -22.195854 -69.622803
8507500000 -22.050278 -71.875237 -0.71747863 -154.07227 -0.72096968 -154.12022 -24.291681 -68.068306
8535000000 -22.138996 -74.161713 -0.71484292 -154.48775 -0.71977037 -154.52551 -23.935183 -84.625488
8562500000 -22.294096 -71.871834 -0.71001655 -154.85548 -0.7152977 -154.87697 -21.34128 -79.237701
8590000000 -22.152025 -74.19812 -0.69257569 -155.20357 -0.69873977 -155.22607 -22.118946 -61.97504
8617500000 -22.614157 -75.440018 -0.66880983 -155.70541 -0.6728667 -155.7392 -25.60647 -64.426651
8645000000 -22.326731 -73.542175 -0.64961761 -156.35626 -0.65403879 -156.38348 -23.910528 -89.066261
8672500000 -22.518702 -75.820145 -0.63864934 -156.9299 -0.64333367 -156.97694 -21.845379 -78.633286
8700000000 -22.845266 -74.354851 -0.63729686 -157.5256 -0.64425629 -157.54739 -22.988371 -65.191299
8727500000 -22.630215 -75.358414 -0.6523208 -158.10902 -0.65556598 -158.12297 -24.832712 -76.360497
8755000000 -22.843899 -76.43927 -0.65025592 -158.66978 -0.65678835 -158.69052 -23.416773 -83.822144
8782500000 -22.918238 -74.963585 -0.65556538 -159.16289 -0.66206843 -159.16766 -22.961859 -73.647675
8810000000 -22.865364 -75.927368 -0.66602248 -159.66005 -0.67303205 -159.68692 -24.385111 -73.342865
8837500000 -23.071365 -76.877777 -0.6661613 -160.18501 -0.67258924 -160.20801 -24.220978 -82.120712
8865000000 -23.100258 -76.100159 -0.66743374 -160.68175 -0.67372394 -160.70099 -23.425444 -77.760689
8892500000 -23.104053 -76.65506 -0.67356497 -161.15599 -0.67892599 -161.18561 -24.207335 -74.58786
8920000000 -23.263882 -77.582207 -0.67323786 -161.67824 -0.68094677 -161.69225 -24.613083 -80.393608
8947500000 -23.378412 -77.160309 -0.67497718 -162.1602 -0.67926198 -162.17433 -24.031145 -79.991867
8975000000 -23.376476 -77.0504 -0.67783868 -162.64403 -0.68136525 -162.67567 -24.280657 -76.773941
9002500000 -23.545654 -78.127693 -0.67997849 -163.14363 -0.68382519 -163.16405 -24.850346 -80.032524
9030000000 -23.67235 -78.307777 -0.67950565 -163.6517 -0.68732631 -163.66415 -24.505686 -81.589203
9057500000 -23.691319 -77.944733 -0.68269819 -164.14668 -0.68530232 -164.15575 -24.490803 -78.387985
9085000000 -23.845667 -78.638138 -0.68295115 -164.62569 -0.68676353 -164.64546 -25.092035 -79.412529
9112500000 -23.959312 -78.84874 -0.68365222 -165.13466 -0.68558449 -165.14983 -24.997887 -82.134529
9140000000 -23.968353 -78.287682 -0.68100667 -165.62886 -0.6855818 -165.64061 -24.844296 -79.893349
9167500000 -24.094044 -78.636375 -0.68168354 -166.11029 -0.68549359 -166.13493 -25.249647 -79.411682
9195000000 -24.237967 -79.255859 -0.68331015 -166.62384 -0.68567997 -166.65067 -25.401173 -81.823097
9222500000 -24.279743 -79.007278 -0.68373066 -167.12524 -0.68619871 -167.14925 -25.196802 -81.187111
9250000000 -24.325806 -79.071342 -0.68422765 -167.62172 -0.68853855 -167.64552 -25.44083 -79.957207
9277500000 -24.504971 -79.720016 -0.6840567 -168.13898 -0.68752891 -168.14857 -25.745466 -81.950401
9305000000 -24.568312 -79.466011 -0.68536872 -168.62704 -0.69009674 -168.64789 -25.628866 -82.213554
9332500000 -24.630365 -79.213585 -0.68499982 -169.10898 -0.6905908 -169.13669 -25.713619 -81.215302
9360000000 -24.792944 -80.318451 -0.68712437 -169.6208 -0.69031101 -169.64307 -26.010759 -82.023849
9387500000 -24.861189 -80.23156 -0.68515956 -170.12503 -0.69103873 -170.14877 -26.088095 -82.575562
9415000000 -24.934296 -79.842842 -0.68624324 -170.61684 -0.69194633 -170.6514 -26.084059 -81.71862
9442500000 -25.090349 -80.182068 -0.68684751 -171.12222 -0.69322515 -171.12943 -26.324575 -82.173935
9470000000 -25.204447 -80.782372 -0.68896353 -171.61356 -0.69306785 -171.63741 -26.50716 -83.341621
9497500000 -25.292778 -79.917427 -0.69022298 -172.10251 -0.69420063 -172.13788 -26.506207 -82.681976
9525000000 -25.428104 -80.149734 -0.68979239 -172.60327 -0.69402534 -172.62979 -26.684036 -82.600777
9552500000 -25.585569 -81.069847 -0.69179487 -173.10759 -0.69486129 -173.12936 -26.979277 -83.25
9580000000 -25.650475 -80.456383 -0.69236737 -173.60733 -0.69717449 -173.63484 -26.927013 -83.39608
9607500000 -25.778332 -80.471634 -0.69177508 -174.09248 -0.69721007 -174.12469 -27.02252 -83.073799
9635000000 -25.89287 -81.475662 -0.69313377 -174.60298 -0.69611907 -174.62996 -27.304514 -83.522011
9662500000 -26.047951 -80.965019 -0.69257629 -175.11275 -0.69820225 -175.12532 -27.428173 -83.792488
9690000000 -26.098341 -80.119324 -0.69391721 -175.58762 -0.69730067 -175.62439 -27.393995 -83.283646
9717500000 -26.232729 -81.120674 -0.69395614 -176.09941 -0.70116764 -176.11684 -27.692438 -83.593597
9745000000 -26.392622 -81.143837 -0.69614369 -176.59171 -0.70139492 -176.6192 -27.980537 -83.994431
9772500000 -26.554705 -80.29361 -0.69572103 -177.09274 -0.70127076 -177.12874 -27.915804 -83.762436
9800000000 -26.596514 -80.829071 -0.69754505 -177.59804 -0.70173627 -177.62421 -28.080826 -83.603798
9827500000 -26.76214 -81.194702 -0.69718152 -178.08246 -0.70205146 -178.1248 -28.448153 -83.682541
9855000000 -26.911064 -79.846298 -0.69865066 -178.58951 -0.70291203 -178.6143 -28.504145 -83.954834
9882500000 -26.998831 -80.118614 -0.70012367 -179.09064 -0.70462853 -179.09604 -28.518997 -83.58992
9910000000 -27.16964 -80.907822 -0.6995979 -179.57553 -0.70335734 -179.59969 -28.965111 -83.333115
9937500000 -27.359966 -79.61541 -0.70250702 179.93065 -0.70611763 179.89215 -29.07029 -83.462547
9965000000 -27.400455 -79.53598 -0.69870996 179.41336 -0.70400536 179.40211 -28.94236 -83.424072
9992500000 -27.563999 -80.508484 -0.70305449 178.91977 -0.70505726 178.89874 -29.412157 -82.629463
10020000000 -27.815424 -79.512398 -0.70097357 178.42816 -0.70733571 178.41151 -29.829422 -83.624992
10047500000 -27.857756 -78.46534 -0.70459205 177.92615 -0.70773178 177.90923 -29.461842 -83.433929
10075000000 -27.956741 -79.587753 -0.70045704 177.4285 -0.70718431 177.40767 -29.835007 -82.270424
10102500000 -28.256918 -79.108406 -0.70322037 176.95213 -0.70846003 176.91316 -30.333965 -82.192574
10130000000 -28.324856 -77.368744 -0.7033841 176.44826 -0.70826501 176.41899 -30.218575 -82.639778
10157500000 -28.377968 -78.116516 -0.70393598 175.93341 -0.70985866 175.92224 -30.39146 -81.396439
10185000000 -28.639168 -78.425201 -0.70431805 175.45068 -0.71165502 175.42612 -31.157562 -81.075165
10212500000 -28.852499 -76.184273 -0.70465046 174.94484 -0.70968336 174.9296 -30.986736 -81.642036
10240000000 -28.823841 -76.700256 -0.70332539 174.45238 -0.7116791 174.42505 -30.865381 -79.990936
10267500000 -29.076765 -77.271866 -0.70612675 173.96555 -0.71270877 173.92807 -31.683975 -78.967995
10295000000 -29.327969 -74.346329 -0.70390278 173.46327 -0.71160352 173.42754 -31.866858 -79.642616
10322500000 -29.367075 -74.180916 -0.70833445 172.95087 -0.71286827 172.91388 -31.544857 -78.717491
10350000000 -29.453199 -75.293457 -0.70606738 172.45253 -0.71332312 172.42146 -32.400208 -76.456535
10377500000 -29.790451 -72.962387 -0.70943618 171.96758 -0.71512979 171.93661 -32.748581 -77.845139
10405000000 -29.852373 -71.917389 -0.70898694 171.44684 -0.71465588 171.42018 -32.204887 -77.337753
10432500000 -29.890333 -73.443199 -0.71288449 170.95232 -0.71512556 170.91621 -32.707645 -73.651215
10460000000 -30.205486 -71.636765 -0.71160257 170.46297 -0.7168811 170.43779 -33.523731 -73.059906
10487500000 -30.340872 -69.51075 -0.71205914 169.97191 -0.71849954 169.94127 -33.122437 -73.979301
10515000000 -30.33849 -70.900795 -0.7106241 169.44385 -0.71922565 169.42923 -33.194138 -71.035301
10542500000 -30.608557 -69.910355 -0.71503186 168.96838 -0.71959925 168.93866 -34.136311 -68.041283
10570000000 -30.823473 -66.786499 -0.71733969 168.45662 -0.7183218 168.43922 -34.007801 -69.094063
10597500000 -30.765675 -67.481705 -0.71589226 167.9572 -0.72043735 167.94133 -33.864647 -67.565895
10625000000 -30.950457 -67.397964 -0.71648878 167.46526 -0.72111237 167.44807 -34.691231 -64.068665
10652500000 -31.299057 -63.98848 -0.7157253 166.96986 -0.72323662 166.94966 -34.884853 -63.928749
10680000000 -31.367659 -63.567444 -0.71822375 166.47012 -0.72226012 166.42883 -34.484818 -62.507584
10707500000 -31.321722 -63.642036 -0.71763498 165.98485 -0.72412807 165.95197 -35.226711 -58.558933
10735000000 -31.610529 -60.272007 -0.72064054 165.47208 -0.72437823 165.44385 -35.69294 -56.769585
10762500000 -31.828011 -58.735207 -0.71922225 164.97446 -0.72540355 164.94611 -35.049084 -57.636143
10790000000 -31.671354 -59.766006 -0.72085476 164.48592 -0.72533411 164.4444 -35.374882 -52.315342
10817500000 -31.799692 -57.018452 -0.72129422 163.99747 -0.73021245 163.96114 -36.077938 -48.049141
10845000000 -32.130608 -54.868664 -0.72322011 163.50729 -0.72990531 163.45615 -35.848549 -49.527618
10872500000 -31.938797 -54.88493 -0.72511506 163.00244 -0.7278592 162.96663 -35.713589 -45.778095
10900000000 -31.874996 -53.653816 -0.7252093 162.50381 -0.73042625 162.4649 -36.32552 -39.107166
10927500000 -32.284954 -50.489117 -0.72704142 162.01088 -0.73370737 161.98022 -36.092079 -41.224743
10955000000 -32.096462 -50.174553 -0.72478652 161.50507 -0.7313562 161.47456 -35.731068 -40.124317
10982500000 -32.130138 -49.236633 -0.72832298 161.0107 -0.73344803 160.99573 -36.056606 -32.064674
11010000000 -32.416611 -46.491879 -0.73172867 160.52084 -0.73460031 160.49132 -36.109398 -29.421553
11037500000 -32.35738 -44.524551 -0.73229796 160.00804 -0.73613214 159.97426 -35.781273 -33.069572
11065000000 -32.039215 -44.200417 -0.73001248 159.51886 -0.73686087 159.49846 -35.658764 -26.838371
11092500000 -32.390686 -41.644829 -0.73303461 159.02853 -0.7373842 159.004 -35.767826 -22.700974
11120000000 -32.515713 -38.746246 -0.73428577 158.52481 -0.73825669 158.50577 -35.691902 -24.923399
11147500000 -32.172379 -39.359032 -0.7340166 158.01762 -0.73879278 157.98006 -35.302254 -22.253736
11175000000 -32.263439 -37.914093 -0.7330181 157.53999 -0.74022448 157.51384 -35.047413 -15.300804
11202500000 -32.520283 -34.578873 -0.73454845 157.03934 -0.74090201 157.00565 -35.072929 -17.419338
11230000000 -32.05125 -34.044876 -0.73717189 156.54057 -0.73997861 156.50522 -34.7938 -16.969755
11257500000 -32.100182 -32.975544 -0.73854637 156.03546 -0.74106383 156.00853 -34.404205 -10.380129
11285000000 -32.334705 -30.072966 -0.73647565 155.55144 -0.74197453 155.52774 -34.462845 -10.032649
11312500000 -31.933199 -29.499819 -0.73628366 155.04697 -0.74246347 155.01414 -34.350082 -12.114814
11340000000 -31.712399 -28.848106 -0.73857671 154.54449 -0.74311244 154.52168 -33.694763 -7.043479
11367500000 -31.939867 -26.303061 -0.73991048 154.06042 -0.74503481 154.03787 -33.569 -4.6899071
11395000000 -31.552013 -24.483433 -0.74308145 153.56581 -0.74586219 153.54758 -33.568287 -5.927423
11422500000 -31.280209 -24.646191 -0.74113905 153.08429 -0.74684674 153.04124 -33.172874 -2.9759502
11450000000 -31.511732 -22.729448 -0.74335051 152.57277 -0.74825227 152.55881 -32.875851 0.045257889
11477500000 -31.333757 -20.730957 -0.74420583 152.08412 -0.74821657 152.06433 -33.054836 -2.0747616
11505000000 -30.889004 -21.307934 -0.7432304 151.5887 -0.74956131 151.561 -32.818943 -1.0760883
11532500000 -31.070227 -20.113945 -0.74676317 151.08603 -0.75095201 151.0638 -32.286716 1.6925849
11560000000 -31.024847 -17.596939 -0.74745184 150.59274 -0.75238377 150.56363 -32.319851 0.41962683
11587500000 -30.519022 -18.084414 -0.74833745 150.10516 -0.75322944 150.07359 -32.163822 1.0309989
11615000000 -30.572302 -17.87772 -0.74939734 149.60226 -0.75594121 149.57199 -31.589447 3.4064608
11642500000 -30.584789 -15.76915 -0.75128835 149.10405 -0.75668186 149.08296 -31.539131 3.4805918
11670000000 -30.131241 -14.968051 -0.7510345 148.61476 -0.75466412 148.589 -31.572241 3.1541364
11697500000 -30.018986 -14.773216 -0.75274885 148.11804 -0.75577641 148.07965 -31.020264 4.6462007
11725000000 -30.141584 -13.113276 -0.75241822 147.62285 -0.75614268 147.60674 -30.763802 5.0191994
11752500000 -29.804848 -12.139045 -0.75409067 147.1373 -0.75890839 147.10458 -30.878387 4.6409822
11780000000 -29.561031 -12.462488 -0.75516367 146.63629 -0.75939614 146.6067 -30.488272 6.5078993
11807500000 -29.686197 -11.730191 -0.75594276 146.13412 -0.76054722 146.11752 -30.218632 6.2332754
11835000000 -29.434656 -10.189338 -0.75619876 145.64047 -0.76388019 145.62711 -30.249146 5.5860286
11862500000 -29.13563 -10.68683 -0.7569561 145.16132 -0.76172829 145.12286 -30.030087 6.6881437
11890000000 -29.157747 -10.576742 -0.75686461 144.67123 -0.76374257 144.63225 -29.602917 7.579308
11917500000 -29.022007 -8.8375521 -0.75892073 144.16687 -0.76435894 144.13893 -29.7043 6.6910086
11945000000 -28.699171 -8.7292728 -0.75950277 143.66962 -0.7664445 143.63452 -29.496527 6.940937
11972500000 -28.645496 -9.397645 -0.76036406 143.18013 -0.76609248 143.15764 -29.064329 8.3681755
12000000000 -28.600149 -8.5832157 -0.76224905 142.69006 -0.76661438 142.65721 -29.082733 7.8623581
12027500000 -28.206942 -7.9708614 -0.76264769 142.17992 -0.76942074 142.16963 -28.975492 7.3273358
12055000000 -28.110708 -8.3949642 -0.76489359 141.69662 -0.7689504 141.65797 -28.658302 9.2652435
12082500000 -28.114416 -7.9130268 -0.76299417 141.20024 -0.770105 141.17125 -28.59663 8.5957899
12110000000 -27.836472 -7.0826764 -0.76444995 140.70216 -0.77051425 140.68692 -28.583164 8.0162935
12137500000 -27.656366 -7.8659124 -0.76508218 140.22185 -0.77014148 140.19051 -28.293446 9.3711958
12165000000 -27.650484 -7.724956 -0.76614004 139.73285 -0.77379948 139.69496 -28.166246 8.7266989
12192500000 -27.396502 -6.5485816 -0.76919544 139.22382 -0.77301937 139.19664 -28.17923 7.622942
12220000000 -27.290501 -6.5835915 -0.76855117 138.74158 -0.77433342 138.69894 -27.936623 8.6724548
12247500000 -27.257463 -7.4284344 -0.7685858 138.25203 -0.77339274 138.21231 -27.642328 8.7057867
12275000000 -27.100739 -6.4073863 -0.76967847 137.74286 -0.77659565 137.72346 -27.675188 7.2666383
12302500000 -26.894253 -6.1225538 -0.7695505 137.26094 -0.77553898 137.229 -27.411201 8.032753
12330000000 -26.827826 -7.0719872 -0.77115661 136.76337 -0.7775256 136.73734 -27.137337 9.1875963
12357500000 -26.738468 -6.0932918 -0.77156812 136.27028 -0.77838826 136.2356 -27.201561 7.3442473
12385000000 -26.539635 -5.6009655 -0.77106202 135.76886 -0.77742684 135.74553 -26.983196 7.0917535
12412500000 -26.408146 -6.648849 -0.77317435 135.27606 -0.77809036 135.23772 -26.689495 8.9175167
12440000000 -26.362329 -6.4456902 -0.77506858 134.79431 -0.77932948 134.75571 -26.77807 7.6819158
12467500000 -26.17012 -5.7994604 -0.77510387 134.2963 -0.77716428 134.26563 -26.725647 6.2402349
12495000000 -26.055384 -6.4995208 -0.77564913 133.806 -0.78191996 133.76485 -26.358574 8.1746893
12522500000 -25.980417 -7.0443377 -0.77651143 133.31094 -0.78190941 133.28017 -26.362022 7.533236
12550000000 -25.801559 -5.8501511 -0.7782771 132.81403 -0.78255814 132.79033 -26.375103 6.2106452
12577500000 -25.666225 -6.6659656 -0.78120196 132.3194 -0.78487146 132.30019 -26.093109 7.5692139
12605000000 -25.551346 -7.4433122 -0.77864718 131.83459 -0.78661352 131.81937 -25.993937 7.8197856
12632500000 -25.508959 -6.3783631 -0.77990156 131.33623 -0.78533542 131.31331 -26.057405 6.0410662
12660000000 -25.337856 -7.1341391 -0.78114617 130.83809 -0.78555012 130.81342 -25.835455 6.648623
12687500000 -25.219471 -7.5692225 -0.78176749 130.34743 -0.78807539 130.33644 -25.643217 7.1562839
12715000000 -25.131811 -7.3082075 -0.78353125 129.85727 -0.78919566 129.83858 -25.772694 5.632895
12742500000 -25.031551 -7.2529778 -0.78230959 129.36473 -0.78829485 129.35632 -25.562698 5.6313152
12770000000 -24.922127 -7.7939205 -0.78603774 128.89328 -0.79069537 128.86407 -25.352291 6.7119403
12797500000 -24.867498 -7.9900527 -0.7858873 128.39938 -0.7901929 128.36348 -25.342373 5.4195189
12825000000 -24.770527 -7.5752358 -0.78406209 127.90305 -0.79100966 127.87685 -25.305761 4.6873522
12852500000 -24.623426 -8.2258778 -0.78549767 127.39799 -0.79292816 127.3846 -25.0543 5.7787461
12880000000 -24.601933 -8.595685 -0.78531963 126.92717 -0.79361928 126.89832 -24.990999 5.015667
12907500000 -24.550386 -7.8876624 -0.78747427 126.43477 -0.79380697 126.40603 -24.999121 3.9954579
12935000000 -24.389046 -8.4196739 -0.78812194 125.94238 -0.79395026 125.91406 -24.817726 4.7345243
12962500000 -24.284098 -8.9552708 -0.78880298 125.44831 -0.79321033 125.43298 -24.653969 4.7672234
12990000000 -24.272932 -8.5520945 -0.7897253 124.97485 -0.79418522 124.93827 -24.655205 3.3136883
13017500000 -24.136686 -8.537756 -0.78716487 124.48803 -0.79538786 124.44836 -24.544193 4.0997047
13045000000 -24.01404 -9.5502386 -0.79190791 123.98677 -0.79641765 123.95012 -24.38822 4.3527617
13072500000 -23.981781 -9.5208082 -0.79190826 123.4878 -0.79352975 123.46563 -24.375847 2.9547048
13100000000 -23.89229 -8.9242344 -0.7915203 122.99229 -0.79372925 122.96998 -24.310343 2.9692283
13127500000 -23.729328 -9.70049 -0.78956014 122.50407 -0.79719824 122.48614 -24.153193 3.769599
13155000000 -23.738718 -10.269599 -0.79013425 122.00758 -0.79746354 121.98919 -24.075544 2.6815989
13182500000 -23.65312 -9.3996744 -0.79027891 121.52705 -0.79590303 121.49834 -24.091728 2.0945504
13210000000 -23.492218 -10.268079 -0.79019445 121.05094 -0.7964164 121.01412 -23.959782 2.8158548
13237500000 -23.463955 -10.889047 -0.79205018 120.55351 -0.79579729 120.51638 -23.80814 2.2666671
13265000000 -23.41769 -10.56422 -0.79017645 120.05152 -0.79629385 120.04515 -23.820515 1.5559582
13292500000 -23.276377 -10.509802 -0.79099971 119.58633 -0.79676998 119.54144 -23.722639 2.0645168
13320000000 -23.205091 -11.484428 -0.79031962 119.07423 -0.7959615 119.0472 -23.605545 1.6941378
13347500000 -23.20751 -11.144383 -0.79067361 118.59584 -0.79540867 118.56158 -23.544191 0.7114169
13375000000 -23.0595 -10.825092 -0.79218131 118.11408 -0.79661977 118.0677 -23.506521 0.98157674
13402500000 -22.983477 -11.717152 -0.79121804 117.61163 -0.79660887 117.57475 -23.324656 0.8794843
13430000000 -22.990831 -11.860076 -0.79203963 117.12943 -0.79740226 117.08494 -23.317783 0.21735688
13457500000 -22.886288 -11.23846 -0.79054105 116.6247 -0.79676777 116.59212 -23.264076 0.094161786
13485000000 -22.742607 -12.266519 -0.79180634 116.1335 -0.79586911 116.09902 -23.099771 0.24912675
13512500000 -22.701963 -12.459332 -0.79060191 115.63062 -0.79444003 115.61304 -23.019207 -0.48280832
13540000000 -22.712761 -12.006047 -0.79183584 115.14285 -0.79458648 115.10995 -23.042168 -0.62523597
13567500000 -22.53618 -12.35276 -0.79087484 114.65726 -0.79497504 114.61687 -22.896889 -0.98308855
13595000000 -22.481394 -13.045309 -0.79119414 114.15572 -0.79719418 114.12988 -22.760603 -1.1473101
13622500000 -22.470005 -12.65531 -0.78895694 113.66336 -0.79461259 113.64436 -22.787117 -1.7032554
13650000000 -22.350895 -12.945657 -0.78898734 113.17731 -0.79436857 113.13493 -22.72394 -1.5667465
13677500000 -22.25523 -13.673227 -0.79069132 112.69869 -0.79373485 112.63972 -22.547068 -1.9474037
13705000000 -22.262373 -13.593865 -0.7905497 112.19336 -0.79483324 112.16586 -22.541618 -2.4793601
13732500000 -22.160408 -13.259509 -0.78868407 111.70429 -0.79524112 111.67215 -22.511978 -2.5904241
13760000000 -22.048487 -14.054101 -0.78735822 111.20387 -0.79297543 111.1714 -22.328831 -2.641896
13787500000 -22.058285 -14.342079 -0.78791493 110.71211 -0.79316962 110.67556 -22.309645 -3.023926
13815000000 -22.043888 -13.992494 -0.78958935 110.22756 -0.79348344 110.188 -22.298109 -3.1293306
13842500000 -21.862705 -14.689698 -0.78755093 109.72488 -0.79106897 109.69146 -22.151798 -3.5434504
13870000000 -21.82526 -15.288494 -0.78856796 109.23092 -0.79134852 109.19472 -22.11005 -4.0909066
13897500000 -21.847723 -14.66333 -0.78665978 108.74803 -0.79293782 108.69878 -22.105705 -4.0480337
13925000000 -21.707514 -14.883956 -0.78615683 108.23331 -0.7909019 108.21565 -21.994045 -4.2567391
13952500000 -21.601324 -15.534765 -0.78600979 107.7377 -0.78956169 107.71083 -21.869263 -4.9413881
13980000000 -21.662586 -15.556994 -0.78570551 107.25899 -0.79083949 107.21609 -21.899452 -5.2805357
14007500000 -21.581139 -15.462483 -0.78496605 106.76717 -0.78989577 106.71825 -21.791786 -5.3397613
14035000000 -21.415756 -16.443256 -0.78546447 106.25372 -0.79083759 106.21483 -21.662891 -5.5805869
14062500000 -21.462322 -16.34087 -0.78662157 105.74728 -0.78927016 105.72972 -21.667082 -6.1377358
14090000000 -21.397413 -16.132524 -0.78451729 105.26398 -0.79094911 105.23301 -21.591406 -6.2205973
14117500000 -21.248632 -16.771919 -0.78480822 104.76041 -0.78860492 104.71484 -21.454973 -6.524425
14145000000 -21.233126 -17.190882 -0.78515863 104.24444 -0.78795594 104.22046 -21.445564 -6.9554787
14172500000 -21.251953 -17.00341 -0.78529882 103.76183 -0.78883028 103.73224 -21.414856 -7.1579642
14200000000 -21.06498 -17.415197 -0.78383261 103.27035 -0.7882244 103.22116 -21.261831 -7.511611
14227500000 -21.026377 -18.021544 -0.78445154 102.75342 -0.78755307 102.71374 -21.213175 -8.1375179
14255000000 -21.079845 -17.777008 -0.78641683 102.26503 -0.79068452 102.22553 -21.213737 -8.163455
14282500000 -20.938169 -18.054047 -0.78446209 101.75304 -0.78995973 101.71858 -21.097721 -8.4670382
14310000000 -20.825068 -18.788958 -0.78479612 101.24484 -0.78675193 101.20469 -21.061378 -9.158392
14337500000 -20.884047 -19.059597 -0.78852516 100.77145 -0.79260755 100.72672 -21.035843 -9.5332718
14365000000 -20.835911 -18.876402 -0.78979701 100.26192 -0.79360247 100.22349 -20.913181 -9.5972366
14392500000 -20.674479 -19.572027 -0.79002899 99.760178 -0.79326564 99.721466 -20.855864 -10.168442
14420000000 -20.691282 -20.078125 -0.79155535 99.274803 -0.79622078 99.217377 -20.841019 -10.721976
14447500000 -20.659866 -20.007694 -0.79245311 98.787445 -0.79977858 98.73951 -20.729359 -10.749596
14475000000 -20.499025 -20.489592 -0.79376781 98.27993 -0.79647017 98.251717 -20.663227 -11.265715
14502500000 -20.507208 -21.165382 -0.79144979 97.784157 -0.79976207 97.757195 -20.711473 -11.897772
14530000000 -20.565483 -21.345287 -0.79669034 97.308525 -0.80173928 97.286995 -20.639122 -12.08842
14557500000 -20.424026 -21.513861 -0.79458088 96.81427 -0.80048847 96.782074 -20.569345 -12.371723
14585000000 -20.356066 -22.287491 -0.79530233 96.318207 -0.80170691 96.292183 -20.560822 -13.155912
14612500000 -20.395878 -22.507019 -0.79517829 95.83387 -0.80173272 95.79538 -20.514982 -13.202335
14640000000 -20.307131 -22.423208 -0.79576248 95.344383 -0.79921842 95.296844 -20.401621 -13.349069
14667500000 -20.248747 -22.972092 -0.79541892 94.846558 -0.8003425 94.79982 -20.446064 -14.0902
14695000000 -20.273687 -23.617094 -0.79545778 94.348328 -0.80025285 94.306313 -20.403481 -14.516296
14722500000 -20.213673 -23.371601 -0.79501981 93.861977 -0.80086541 93.821587 -20.285416 -14.277771
14750000000 -20.113016 -23.847408 -0.79369724 93.360786 -0.79911137 93.316475 -20.298506 -15.152291
14777500000 -20.098015 -24.363066 -0.79559147 92.866249 -0.80091333 92.823334 -20.261024 -15.722722
14805000000 -20.116934 -24.459562 -0.79774004 92.354858 -0.80085921 92.322105 -20.145575 -15.323002
14832500000 -19.986584 -24.629204 -0.79778016 91.844032 -0.80426776 91.823662 -20.117884 -16.190765
14860000000 -19.932508 -25.421833 -0.80070108 91.373238 -0.80521494 91.315727 -20.128223 -17.110064
14887500000 -19.994257 -25.703672 -0.79726666 90.874352 -0.80520213 90.850227 -20.066589 -16.799637
14915000000 -19.92177 -25.988243 -0.80018437 90.391823 -0.80619156 90.342751 -20.010702 -17.310286
14942500000 -19.834839 -26.637634 -0.80085081 89.89859 -0.80661541 89.856453 -20.027912 -18.428049
14970000000 -19.880064 -26.96748 -0.80118948 89.411263 -0.80372328 89.366951 -19.965851 -18.141645
14997500000 -19.876162 -27.039635 -0.80148864 88.911819 -0.80635613 88.870636 -19.91308 -18.243729
15025000000 -19.726837 -27.569273 -0.80028832 88.419083 -0.80530339 88.373634 -19.939888 -19.327511
15052500000 -19.717588 -28.123857 -0.80250365 87.932686 -0.8083179 87.88163 -19.885231 -19.329529
15080000000 -19.745161 -28.232607 -0.80092174 87.43158 -0.80641878 87.378418 -19.804897 -19.07942
15107500000 -19.636875 -28.634851 -0.80067587 86.930656 -0.80754441 86.892853 -19.81929 -20.304558
15135000000 -19.596708 -29.102699 -0.801323 86.426109 -0.8071472 86.410614 -19.765129 -20.705811
15162500000 -19.665142 -29.477495 -0.80448025 85.918427 -0.80756152 85.89624 -19.698833 -20.308281
15190000000 -19.569588 -29.907412 -0.80507749 85.434265 -0.80860233 85.379425 -19.676353 -21.203363
15217500000 -19.47464 -30.201895 -0.80614853 84.933769 -0.81043226 84.895042 -19.647123 -22.176792
15245000000 -19.538273 -30.652843 -0.80590612 84.452728 -0.81311315 84.40377 -19.592859 -21.622568
15272500000 -19.489605 -31.007126 -0.80575901 83.9505 -0.81365323 83.901375 -19.575279 -22.329866
15300000000 -19.359396 -31.312071 -0.80803764 83.455437 -0.8138209 83.427299 -19.571981 -23.491924
15327500000 -19.446852 -31.887247 -0.8073374 82.969673 -0.81341004 82.940399 -19.53261 -23.137091
15355000000 -19.444275 -32.270782 -0.80740225 82.491035 -0.81480569 82.444984 -19.499008 -23.262556
15382500000 -19.281763 -32.433464 -0.8084988 81.970093 -0.81398761 81.940422 -19.477547 -24.608185
15410000000 -19.315544 -32.859802 -0.80963492 81.492409 -0.81439728 81.442757 -19.453455 -24.431587
15437500000 -19.379543 -33.359203 -0.81182539 80.994354 -0.81522948 80.961105 -19.441206 -24.4447
15465000000 -19.252335 -33.662079 -0.81110084 80.515503 -0.81867468 80.462799 -19.417538 -25.626146
15492500000 -19.213097 -34.032974 -0.81115448 80.01841 -0.81907201 79.97467 -19.383312 -26.145294
15520000000 -19.295042 -34.862408 -0.81220645 79.517746 -0.821073 79.476967 -19.36886 -25.690613
15547500000 -19.182522 -34.955776 -0.81219393 79.026573 -0.81730527 78.98674 -19.32021 -26.69659
15575000000 -19.146389 -35.403919 -0.8116625 78.539474 -0.82050389 78.50164 -19.321377 -27.492855
15602500000 -19.210836 -36.162189 -0.81633461 78.057846 -0.82069647 78.002663 -19.297956 -26.917681
15630000000 -19.16889 -36.276768 -0.81541562 77.573456 -0.82144362 77.528648 -19.294483 -27.794226
15657500000 -19.089893 -36.556789 -0.81441784 77.084869 -0.81984478 77.036079 -19.265253 -28.630379
15685000000 -19.158886 -37.195709 -0.81421679 76.580948 -0.8220551 76.551132 -19.277916 -28.532087
15712500000 -19.172985 -37.593678 -0.81747246 76.118446 -0.82195061 76.079559 -19.230873 -28.765574
15740000000 -19.049366 -37.668781 -0.82030219 75.607132 -0.82391071 75.576866 -19.218588 -29.747068
15767500000 -19.07515 -38.319324 -0.81524509 75.141731 -0.82476729 75.092987 -19.214737 -29.757544
15795000000 -19.119991 -38.873875 -0.81792247 74.645546 -0.82272112 74.605637 -19.205315 -29.69265
15822500000 -19.02356 -38.729637 -0.81537378 74.148972 -0.82204229 74.113281 -19.166861 -30.741354
15850000000 -19.03488 -39.182785 -0.81639832 73.653267 -0.82206571 73.619362 -19.171074 -31.030481
15877500000 -19.068241 -40.093193 -0.81594568 73.176987 -0.82032281 73.13681 -19.143488 -30.853632
15905000000 -19.019564 -39.983196 -0.8153494 72.67038 -0.82043916 72.631859 -19.125998 -31.622824
15932500000 -18.989513 -40.209377 -0.81446469 72.200508 -0.81877351 72.154953 -19.154652 -32.173691
15960000000 -19.026731 -41.232948 -0.81466484 71.706673 -0.81982917 71.661469 -19.132019 -32.100285
15987500000 -19.006512 -41.035954 -0.81476104 71.207153 -0.81673855 71.169006 -19.063379 -32.486855
16015000000 -18.925495 -41.169857 -0.81325054 70.711433 -0.81895918 70.6903 -19.110334 -33.272511
16042500000 -18.973351 -42.219456 -0.812428 70.219765 -0.81655043 70.188156 -19.101715 -33.370884
16070000000 -19.016808 -42.280434 -0.81210876 69.723595 -0.81580794 69.695015 -19.021709 -33.62442
16097500000 -18.934885 -42.00388 -0.81100661 69.240448 -0.81629682 69.193283 -19.0509 -34.14373
16125000000 -18.928902 -42.959164 -0.81227601 68.722519 -0.81755805 68.698708 -19.071354 -34.297623
16152500000 -19.005074 -43.388927 -0.80991125 68.2603 -0.81318027 68.209694 -18.983883 -34.708813
16180000000 -18.948515 -43.136738 -0.81155545 67.749878 -0.81699157 67.72036 -18.981153 -35.113968
16207500000 -18.893116 -43.779839 -0.80737197 67.260727 -0.81450969 67.212196 -19.046833 -35.54649
16235000000 -18.95957 -44.346497 -0.8093729 66.77742 -0.81274951 66.722153 -18.939775 -35.683487
16262500000 -18.917654 -44.313732 -0.81003451 66.266594 -0.81333262 66.235992 -18.915939 -36.056419
16290000000 -18.842449 -44.416733 -0.80661666 65.763168 -0.81178325 65.725693 -18.975012 -36.533398
16317500000 -18.902805 -45.374474 -0.80558449 65.292152 -0.81336164 65.246475 -18.925455 -36.835419
16345000000 -18.963566 -45.284592 -0.80789638 64.791061 -0.81203979 64.741501 -18.86792 -37.171181
16372500000 -18.846718 -45.332558 -0.80361021 64.285614 -0.81408501 64.253983 -18.958405 -37.642979
16400000000 -18.856491 -46.200531 -0.80664629 63.775383 -0.81312782 63.743732 -18.921297 -37.917099
16427500000 -18.916895 -46.543232 -0.80657989 63.297474 -0.80901366 63.25021 -18.801428 -38.234455
16455000000 -18.824169 -46.484913 -0.80705649 62.796581 -0.81085432 62.750153 -18.87225 -38.71106
16482500000 -18.797085 -46.974266 -0.80481517 62.288231 -0.80901051 62.245979 -18.874258 -38.910057
16510000000 -18.9039 -47.500439 -0.80459553 61.799175 -0.80973381 61.752861 -18.767801 -39.402298
16537500000 -18.845079 -47.595741 -0.80494165 61.299931 -0.81117231 61.246124 -18.802689 -39.73
16565000000 -18.765755 -47.717316 -0.80340743 60.780502 -0.81066746 60.760345 -18.859308 -40.02021
16592500000 -18.857365 -48.559017 -0.80656743 60.324348 -0.80892473 60.277958 -18.746109 -40.54731
16620000000 -18.847584 -48.607964 -0.8037504 59.805882 -0.80751133 59.766914 -18.717363 -40.882462
16647500000 -18.754539 -48.654732 -0.80514514 59.30759 -0.80744869 59.263161 -18.858757 -41.136803
16675000000 -18.814915 -49.413414 -0.80665034 58.813271 -0.80927563 58.773335 -18.717556 -41.569553
16702500000 -18.822195 -49.922852 -0.80378556 58.324627 -0.80928904 58.278316 -18.67206 -41.955761
16730000000 -18.742704 -49.537903 -0.80280888 57.834663 -0.80843765 57.791592 -18.822622 -42.339661
16757500000 -18.764709 -50.383602 -0.8036893 57.321121 -0.81034178 57.281544 -18.743231 -42.914082
16785000000 -18.819101 -51.116096 -0.803011 56.832142 -0.80827242 56.805279 -18.624569 -43.158779
16812500000 -18.775227 -50.862164 -0.80612457 56.339188 -0.80917209 56.301735 -18.791775 -43.506748
16840000000 -18.724438 -50.973465 -0.80374759 55.817142 -0.81092983 55.791573 -18.750809 -44.14262
16867500000 -18.783554 -52.120071 -0.80217642 55.342819 -0.80901271 55.308598 -18.573917 -44.145798
16895000000 -18.775564 -51.857151 -0.80506694 54.863842 -0.80961746 54.816647 -18.719347 -44.69117
16922500000 -18.718359 -51.935951 -0.80590487 54.33987 -0.8075394 54.31876 -18.803064 -45.270283
16950000000 -18.795767 -53.300289 -0.80409086 53.86829 -0.80926812 53.825371 -18.591969 -45.514698
16977500000 -18.762669 -53.366318 -0.80542308 53.362942 -0.80985761 53.320366 -18.628618 -45.94173
17005000000 -18.733992 -52.882236 -0.80491489 52.848019 -0.8115567 52.810684 -18.775122 -46.530136
17032500000 -18.743319 -54.066608 -0.80448335 52.364277 -0.81324518 52.312855 -18.596388 -46.735569
17060000000 -18.7875 -54.678417 -0.80748701 51.865814 -0.8113445 51.81834 -18.60375 -47.008438
17087500000 -18.734528 -53.981693 -0.80371737 51.38385 -0.80945837 51.312 -18.80521 -47.852715
17115000000 -18.745085 -55.000832 -0.80716217 50.87648 -0.81125498 50.81739 -18.666203 -48.119511
17142500000 -18.743763 -56.013317 -0.80668432 50.379135 -0.8113389 50.330345 -18.555788 -48.285069
17170000000 -18.767986 -55.337231 -0.80650258 49.896908 -0.81153268 49.834473 -18.73839 -49.131721
17197500000 -18.752907 -55.820694 -0.80467278 49.383755 -0.81035048 49.333424 -18.69705 -49.275677
17225000000 -18.726479 -57.317406 -0.80544299 48.89093 -0.81551903 48.828594 -18.554716 -49.438881
17252500000 -18.78446 -56.693287 -0.80697328 48.417206 -0.8128469 48.338505 -18.723244 -50.281452
17280000000 -18.768841 -56.649426 -0.80631685 47.89798 -0.81137258 47.83466 -18.764166 -50.579983
17307500000 -18.742378 -58.192986 -0.81153297 47.413731 -0.81382775 47.335686 -18.570316 -50.58493
17335000000 -18.79624 -58.184368 -0.81271267 46.887424 -0.81220895 46.844826 -18.699282 -50.975388
17362500000 -18.813375 -57.775021 -0.80548728 46.424503 -0.81312162 46.346561 -18.846634 -51.948757
17390000000 -18.732088 -59.024933 -0.81141657 45.917355 -0.81707597 45.856407 -18.635876 -51.790058
17417500000 -18.781441 -59.580841 -0.81291431 45.413803 -0.81407756 45.382874 -18.651587 -52.302662
17445000000 -18.873196 -59.033627 -0.80958813 44.942181 -0.81508458 44.880974 -18.834074 -53.224159
17472500000 -18.777061 -59.782017 -0.80890012 44.438255 -0.81546342 44.384018 -18.703251 -53.110863
17500000000 -18.768309 -60.830566 -0.81092268 43.940987 -0.81860375 43.876614 -18.626465 -53.436619
17527500000 -18.891842 -60.558159 -0.81301826 43.46347 -0.81686288 43.415531 -18.84981 -54.643471
17555000000 -18.791254 -60.985462 -0.81086838 42.930672 -0.81875533 42.883331 -18.772408 -54.539375
17582500000 -18.774675 -61.903137 -0.81223297 42.443306 -0.81821686 42.394199 -18.65554 -54.646587
17610000000 -18.932171 -61.938869 -0.8142224 41.981945 -0.81945932 41.922539 -18.82963 -55.664558
17637500000 -18.879005 -61.849098 -0.81353676 41.468918 -0.81765461 41.414776 -18.88583 -56.158237
17665000000 -18.769775 -62.865582 -0.81676292 40.972984 -0.82193124 40.934784 -18.710033 -56.032742
17692500000 -18.959824 -63.337452 -0.81475419 40.501652 -0.82159907 40.443619 -18.81345 -56.880657
17720000000 -18.970129 -63.521629 -0.81643677 40.01239 -0.81890041 39.96624 -18.968353 -57.615711
17747500000 -18.847179 -64.111183 -0.81818342 39.483852 -0.8227061 39.445621 -18.815516 -57.068504
17775000000 -18.947046 -64.715309 -0.81671977 39.011898 -0.8254863 38.979843 -18.825649 -57.938168
17802500000 -19.065203 -64.706421 -0.81704599 38.524544 -0.82163125 38.499741 -18.999657 -58.816883
17830000000 -18.901831 -64.99263 -0.81831527 38.046402 -0.82420176 38.001637 -18.923801 -58.514313
17857500000 -18.988211 -65.727257 -0.81800431 37.530479 -0.82265228 37.507252 -18.887493 -58.919071
17885000000 -19.145864 -66.197052 -0.81648797 37.073906 -0.82012367 37.032616 -19.074522 -60.041313
17912500000 -19.034172 -65.860931 -0.81776899 36.586891 -0.82366884 36.540577 -19.062578 -59.88596
17940000000 -19.007315 -66.471741 -0.81578952 36.088638 -0.8175053 36.02549 -18.996555 -59.838326
17967500000 -19.247728 -67.178688 -0.81585824 35.626575 -0.81744432 35.56863 -19.171122 -61.002701
17995000000 -19.179148 -66.883713 -0.81246674 35.115913 -0.81592411 35.068508 -19.171436 -61.258389
18022500000 -19.08637 -67.234787 -0.80758899 34.630283 -0.81774336 34.556248 -19.057158 -60.960846
18050000000 -19.293194 -67.996666 -0.80764478 34.127827 -0.81577075 34.059811 -19.140886 -61.916683
18077500000 -19.292082 -67.878471 -0.80718899 33.611393 -0.81329018 33.551903 -19.275698 -62.372688
18105000000 -19.141891 -67.986214 -0.80378276 33.124046 -0.81068772 33.070034 -19.143234 -61.83828
18132500000 -19.311007 -69.238586 -0.80754906 32.611629 -0.81362796 32.570908 -19.153595 -62.460598
18160000000 -19.348974 -69.167694 -0.80997741 32.117352 -0.80936325 32.07975 -19.319229 -63.735214
18187500000 -19.216137 -68.944107 -0.80567765 31.635582 -0.81345844 31.549696 -19.171366 -63.257908
18215000000 -19.265553 -69.649796 -0.80499309 31.117723 -0.81099004 31.059984 -19.167603 -63.67366
18242500000 -19.438751 -70.230721 -0.8083145 30.617979 -0.81178385 30.543381 -19.314898 -64.78495
18270000000 -19.320971 -69.653473 -0.80738693 30.130827 -0.81790525 30.06695 -19.253271 -64.597771
18297500000 -19.337873 -70.478455 -0.80901241 29.641386 -0.81361419 29.575897 -19.210577 -64.73069
18325000000 -19.485178 -71.160904 -0.80858672 29.125036 -0.81511736 29.064487 -19.415609 -65.675613
18352500000 -19.442831 -70.791718 -0.80985951 28.627943 -0.81467515 28.595039 -19.386148 -66.154808
18380000000 -19.369289 -71.100723 -0.80633026 28.150475 -0.81230164 28.093426 -19.286842 -65.998718
18407500000 -19.498093 -72.303932 -0.80866998 27.64123 -0.81227762 27.578968 -19.391226 -66.854927
18435000000 -19.578527 -71.841698 -0.81052083 27.138941 -0.8168335 27.067532 -19.47332 -67.458481
18462500000 -19.450621 -71.96051 -0.80724072 26.627298 -0.81338257 26.599894 -19.36867 -67.183731
18490000000 -19.578526 -72.993774 -0.80605257 26.153685 -0.81386459 26.105513 -19.462284 -67.745872
18517500000 -19.706358 -73.218338 -0.81326205 25.630842 -0.81738687 25.586224 -19.590185 -68.650902
18545000000 -19.601221 -72.590607 -0.8062411 25.172316 -0.81526446 25.09878 -19.508253 -68.325264
18572500000 -19.602655 -73.59584 -0.80627507 24.662266 -0.81520575 24.627707 -19.526751 -68.95623
18600000000 -19.817812 -74.322289 -0.81136888 24.152851 -0.81946772 24.142811 -19.672588 -69.78994
18627500000 -19.752815 -73.735214 -0.81232721 23.659628 -0.81432045 23.61096 -19.63586 -69.746696
18655000000 -19.721619 -74.467796 -0.808119 23.17417 -0.81414807 23.146246 -19.606293 -70.006996
18682500000 -19.845978 -75.118637 -0.81234503 22.681335 -0.81764996 22.624983 -19.762089 -70.871178
18710000000 -19.914808 -74.788628 -0.8132143 22.207348 -0.81504494 22.156652 -19.783241 -70.880005
18737500000 -19.808168 -75.124245 -0.80750167 21.710688 -0.81645858 21.645458 -19.676992 -71.174988
18765000000 -19.957581 -76.109238 -0.81378341 21.201014 -0.81625932 21.172249 -19.828415 -71.849648
18792500000 -20.107294 -76.044891 -0.81333667 20.719149 -0.81576765 20.669546 -19.889948 -72.078964
18820000000 -19.956299 -75.746941 -0.80987728 20.193169 -0.81460458 20.164434 -19.772551 -72.075462
18847500000 -20.053947 -76.822975 -0.81052303 19.73336 -0.81457865 19.682247 -19.893169 -72.69136
18875000000 -20.166107 -76.963196 -0.81188595 19.20092 -0.81710595 19.148169 -20.070675 -73.370575
18902500000 -20.137768 -76.381706 -0.80926532 18.726971 -0.81299108 18.673107 -19.916517 -73.145401
18930000000 -20.163475 -77.536797 -0.80924851 18.249508 -0.8130554 18.180271 -19.978647 -73.740532
18957500000 -20.337627 -78.161598 -0.81123221 17.743694 -0.81594789 17.689198 -20.138224 -74.511604
18985000000 -20.304359 -77.438927 -0.81118661 17.241615 -0.81568235 17.197147 -20.022808 -74.178711
19012500000 -20.303837 -77.838341 -0.81154984 16.768467 -0.81521916 16.702873 -20.052229 -74.904297
19040000000 -20.484695 -78.849068 -0.81032085 16.254503 -0.81595474 16.204901 -20.240395 -75.405281
19067500000 -20.479092 -78.63485 -0.8112253 15.74603 -0.81340599 15.707236 -20.21744 -75.014259
19095000000 -20.433033 -78.577477 -0.81080908 15.276948 -0.81746495 15.231936 -20.148439 -75.508339
19122500000 -20.54887 -80.044952 -0.81218612 14.761168 -0.82111555 14.708821 -20.350742 -76.472389
19150000000 -20.681246 -79.917862 -0.81315434 14.2909 -0.81912386 14.223115 -20.43026 -76.393906
19177500000 -20.56146 -79.009705 -0.80820787 13.772401 -0.81361234 13.730294 -20.252956 -76.519577
19205000000 -20.691952 -80.946922 -0.81262654 13.299724 -0.81657261 13.246803 -20.411812 -77.557518
19232500000 -20.841152 -80.900375 -0.81121159 12.795594 -0.81644017 12.759578 -20.584347 -77.308159
19260000000 -20.789618 -79.908058 -0.80842113 12.292859 -0.81393796 12.242131 -20.45286 -77.42337
19287500000 -20.819979 -81.02166 -0.81247419 11.830419 -0.81779838 11.773643 -20.496702 -78.555969
19315000000 -20.979729 -82.488152 -0.81101412 11.306355 -0.81610686 11.247114 -20.708273 -78.624878
19342500000 -21.053911 -80.876869 -0.80653781 10.806501 -0.81593722 10.756671 -20.638243 -78.262939
19370000000 -20.97192 -81.168854 -0.80809218 10.328017 -0.81485879 10.264956 -20.578979 -79.541252
19397500000 -21.101894 -83.018272 -0.81161195 9.8558559 -0.81604749 9.7903957 -20.880112 -79.912003
19425000000 -21.257408 -81.857948 -0.80811524 9.3446693 -0.81569237 9.2902565 -20.862581 -79.314117
19452500000 -21.236143 -81.778152 -0.80867684 8.8150244 -0.814623 8.7958908 -20.775333 -79.978813
19480000000 -21.258474 -84.010521 -0.81173581 8.3471823 -0.81901729 8.3125 -20.979702 -80.960289
19507500000 -21.421455 -83.368996 -0.80908942 7.8634467 -0.8146714 7.8079343 -21.083292 -80.207756
19535000000 -21.464848 -82.371803 -0.80853093 7.3483634 -0.81738245 7.3093185 -20.889475 -80.650246
19562500000 -21.43191 -84.407257 -0.80879724 6.8752146 -0.81496495 6.8302736 -21.042276 -82.093178
19590000000 -21.607817 -84.652298 -0.81032056 6.3663855 -0.81594568 6.32061 -21.259468 -81.585854
19617500000 -21.719423 -82.94809 -0.80514824 5.8770118 -0.81234562 5.8100567 -21.115372 -81.567841
19645000000 -21.63954 -84.942589 -0.80896872 5.3831139 -0.81758994 5.3428502 -21.129152 -82.854767
19672500000 -21.734758 -85.712639 -0.80903113 4.8951378 -0.81533098 4.8460941 -21.453175 -82.664932
19700000000 -21.947414 -83.973465 -0.80495882 4.4101424 -0.81154203 4.3365393 -21.391188 -82.472488
19727500000 -21.892103 -84.964302 -0.80883902 3.8809965 -0.81316715 3.8270416 -21.22896 -83.402138
19755000000 -21.861263 -86.663567 -0.80855614 3.4065495 -0.81713343 3.3601372 -21.542797 -83.772667
19782500000 -22.172773 -85.316231 -0.80654252 2.9056175 -0.81264836 2.8677549 -21.682213 -82.957588
19810000000 -22.218889 -85.189095 -0.80748487 2.4062753 -0.81085807 2.3386686 -21.435726 -84.293823
19837500000 -22.026628 -87.547226 -0.80965459 1.9077543 -0.81657732 1.873234 -21.684502 -84.766312
19865000000 -22.338995 -86.494583 -0.80426002 1.415037 -0.81410092 1.3766174 -21.913788 -84.181396
19892500000 -22.51895 -85.747025 -0.80219167 0.90312958 -0.81025594 0.88831073 -21.706913 -84.751343
19920000000 -22.212934 -87.833557 -0.80721301 0.43406603 -0.81677037 0.38589853 -21.804737 -85.922005
19947500000 -22.470678 -87.350517 -0.80463445 -0.075800732 -0.81195927 -0.1165925 -22.148582 -85.619255
19975000000 -22.832413 -86.43615 -0.80167043 -0.57501948 -0.80639476 -0.5970549 -22.026356 -85.334564
20002500000 -22.470739 -87.852264 -0.81008536 -1.0513068 -0.8152045 -1.0858117 -21.894529 -86.707817
20030000000 -22.6185 -88.17469 -0.80553246 -1.5562168 -0.81181353 -1.5927252 -22.295254 -86.39817
20057500000 -23.12739 -87.148827 -0.80156678 -2.048552 -0.80975467 -2.0739524 -22.343117 -86.03981
20085000000 -22.827856 -88.113876 -0.80504072 -2.5727184 -0.809192 -2.5897408 -22.132324 -87.23101
20112500000 -22.721531 -88.861755 -0.80489242 -3.0405366 -0.81082064 -3.0840466 -22.533047 -87.66124
20140000000 -23.343626 -88.138191 -0.79735249 -3.5126085 -0.80716407 -3.5785389 -22.668739 -87.061852
20167500000 -23.165636 -88.67482 -0.80036706 -4.0397625 -0.80944842 -4.0969634 -22.370251 -88.048836
20195000000 -22.897341 -89.055779 -0.80446994 -4.5462456 -0.810781 -4.5861325 -22.642996 -88.486588
20222500000 -23.46484 -88.693382 -0.80343205 -5.0455379 -0.80519092 -5.0748825 -22.99802 -88.42086
20250000000 -23.617867 -89.047768 -0.79604667 -5.5292377 -0.80720085 -5.5762911 -22.686552 -88.709839
20277500000 -23.147116 -89.281799 -0.80438215 -6.0356336 -0.80848068 -6.0618963 -22.778923 -89.913109
20305000000 -23.643745 -89.246002 -0.80165458 -6.5186887 -0.80608463 -6.5690064 -23.274525 -89.272644
20332500000 -23.950556 -90.041809 -0.79775435 -7.0021768 -0.80329841 -7.0710649 -23.072559 -89.255745
20360000000 -23.52462 -89.480972 -0.79737675 -7.5289192 -0.80882591 -7.5689144 -22.951197 -90.284309
20387500000 -23.710155 -89.625885 -0.79758143 -8.0162067 -0.80285555 -8.056571 -23.55991 -90.657219
20415000000 -24.300547 -90.100479 -0.79560393 -8.499589 -0.80021614 -8.5573673 -23.484076 -90.439812
20442500000 -23.86648 -89.828773 -0.80009818 -9.04006 -0.805529 -9.0708179 -23.182739 -91.254349
20470000000 -23.863146 -89.622444 -0.79698831 -9.5219803 -0.80590671 -9.5694656 -23.713619 -91.117279
20497500000 -24.534687 -90.664307 -0.80076081 -10.006368 -0.80185044 -10.056211 -23.954599 -91.125229
20525000000 -24.368023 -89.830132 -0.79644066 -10.543258 -0.80226296 -10.57998 -23.53824 -91.63652
20552500000 -24.07855 -89.481812 -0.79434371 -10.997578 -0.80267775 -11.061684 -23.893583 -92.262833
20580000000 -24.714872 -90.8908 -0.79886901 -11.513463 -0.8015008 -11.556223 -24.335911 -91.927933
20607500000 -24.690186 -90.085541 -0.79414541 -12.010552 -0.80042344 -12.070609 -23.949415 -92.131371
20635000000 -24.420292 -88.773613 -0.79701692 -12.509255 -0.80455816 -12.566416 -24.161272 -93.074753
20662500000 -24.835451 -90.118889 -0.7975198 -13.034802 -0.80387563 -13.064566 -24.685638 -92.891014
20690000000 -25.135202 -90.87114 -0.79448575 -13.54704 -0.79889858 -13.562866 -24.381235 -92.68605
20717500000 -24.840746 -89.008347 -0.79838741 -14.025873 -0.8036716 -14.070486 -24.454321 -93.147537
20745000000 -25.013533 -89.655472 -0.7953257 -14.53544 -0.8006475 -14.590833 -25.059011 -93.352295
20772500000 -25.489668 -90.624542 -0.79590583 -15.013947 -0.80121094 -15.062213 -24.862253 -93.231636
20800000000 -25.244934 -88.734276 -0.79558372 -15.526855 -0.80277675 -15.585679 -24.707142 -94.19912
20827500000 -25.162411 -87.989906 -0.80075586 -16.039774 -0.80104375 -16.075729 -25.381725 -93.038704
20855000000 -25.719395 -89.848885 -0.79563409 -16.518261 -0.80243266 -16.560949 -25.422037 -93.211365
20882500000 -25.735846 -87.835426 -0.79702157 -17.028252 -0.80291533 -17.100994 -25.107843 -93.157524
20910000000 -25.406878 -86.749435 -0.79718328 -17.539978 -0.8020559 -17.569262 -25.727703 -93.056953
20937500000 -25.906784 -88.562553 -0.80002844 -18.028259 -0.804717 -18.071575 -25.811653 -93.053795
20965000000 -26.066216 -87.452469 -0.80052799 -18.53767 -0.8040902 -18.58444 -25.46513 -93.316399
20992500000 -25.779863 -85.482208 -0.79941076 -18.99169 -0.80398989 -19.078228 -25.837807 -93.633583
21020000000 -26.030766 -86.806976 -0.80364323 -19.483715 -0.8068617 -19.550449 -26.259903 -92.654198
21047500000 -26.396351 -86.806076 -0.7987147 -20.01886 -0.80625701 -20.060839 -25.877991 -93.19381
21075000000 -26.2019 -84.134399 -0.80143166 -20.470867 -0.80556703 -20.55109 -26.146206 -94.196274
21102500000 -26.18989 -84.953339 -0.80201793 -21.001333 -0.80513203 -21.040373 -26.697346 -93.042053
21130000000 -26.571617 -86.306435 -0.79989493 -21.467701 -0.80691278 -21.543266 -26.408279 -93.206764
21157500000 -26.590733 -83.831436 -0.79980779 -21.986217 -0.80578268 -22.041479 -26.488966 -94.54097
21185000000 -26.414494 -82.783752 -0.80046076 -22.466339 -0.80226392 -22.518282 -27.054245 -92.788887
21212500000 -26.863688 -84.892921 -0.79944122 -22.973747 -0.80359465 -23.032803 -26.998802 -92.869286
21240000000 -27.026264 -82.645966 -0.79911792 -23.481531 -0.80497563 -23.540493 -26.875498 -94.657951
21267500000 -26.693779 -81.161362 -0.79531604 -23.972128 -0.80115867 -24.012114 -27.427938 -93.866577
21295000000 -27.103727 -82.004898 -0.79685485 -24.451096 -0.80127007 -24.505508 -27.457651 -91.393509
21322500000 -27.526018 -81.655502 -0.79834539 -25.020496 -0.8028366 -25.055906 -27.323486 -93.413368
21350000000 -27.156446 -79.014893 -0.79665583 -25.460115 -0.80145782 -25.536066 -27.903271 -93.68779
21377500000 -27.238392 -80.171074 -0.79705578 -25.959724 -0.79965532 -26.018614 -28.146599 -90.527351
21405000000 -27.846275 -79.527374 -0.79791951 -26.506676 -0.80052674 -26.541035 -27.768192 -91.768723
21432500000 -27.62455 -77.196114 -0.79586667 -26.978401 -0.79521281 -27.012589 -28.544487 -92.63192
21460000000 -27.467653 -77.122452 -0.79204029 -27.477987 -0.8014192 -27.529718 -28.934559 -90.269333
21487500000 -28.004559 -77.573486 -0.79347634 -27.998888 -0.79964036 -28.029076 -28.491943 -89.714432
21515000000 -28.131609 -74.439842 -0.79678893 -28.509718 -0.80618221 -28.547806 -29.030701 -92.354782
21542500000 -27.681425 -73.485176 -0.79384083 -28.975336 -0.80033255 -29.042603 -29.573256 -88.578979
21570000000 -28.234045 -74.315971 -0.79506826 -29.508429 -0.80077046 -29.529091 -29.201096 -87.036934
21597500000 -28.469864 -71.305336 -0.79672581 -30.012411 -0.80340934 -30.075396 -29.319056 -90.000282
21625000000 -27.943769 -69.583504 -0.79704833 -30.504898 -0.7987116 -30.54645 -30.2008 -86.923195
21652500000 -28.282614 -70.888809 -0.79475743 -31.021105 -0.80347008 -31.057249 -29.727091 -83.281891
21680000000 -28.927309 -68.215881 -0.80084521 -31.519011 -0.80757493 -31.606071 -29.734571 -85.930954
21707500000 -28.312187 -66.031052 -0.7987144 -32.001976 -0.80291194 -32.048183 -30.720556 -84.661278
21735000000 -28.393932 -67.230087 -0.80104816 -32.503777 -0.80243796 -32.55106 -30.521801 -78.142609
21762500000 -29.031837 -64.954826 -0.80175108 -33.034203 -0.80472106 -33.099789 -30.174288 -80.910248
21790000000 -28.563324 -61.603218 -0.80411953 -33.519096 -0.80777073 -33.556049 -31.083572 -82.222771
21817500000 -28.373463 -62.666275 -0.80253172 -34.015812 -0.80673391 -34.075974 -31.005846 -75.402443
21845000000 -28.904039 -62.690865 -0.79981339 -34.534847 -0.80745894 -34.599422 -30.518896 -75.709129
21872500000 -28.752747 -58.136475 -0.80537194 -35.023201 -0.81080413 -35.069443 -31.164276 -79.374733
21900000000 -28.496813 -58.585129 -0.80214804 -35.495506 -0.80897999 -35.570713 -31.528339 -70.88723
21927500000 -28.875242 -59.14172 -0.80871707 -36.011524 -0.8106063 -36.066761 -30.808697 -69.077766
21955000000 -28.893177 -54.172947 -0.80769402 -36.514042 -0.81437069 -36.584091 -31.239651 -73.918877
21982500000 -28.449017 -54.171356 -0.81026971 -36.972942 -0.81708813 -37.045345 -32.015186 -67.140205
22010000000 -28.598476 -55.350063 -0.80913681 -37.492645 -0.81462646 -37.538647 -31.041498 -63.867653
22037500000 -28.967003 -51.777325 -0.81482822 -37.995033 -0.81705004 -38.049103 -31.197329 -68.690254
22065000000 -28.437443 -49.947861 -0.81203604 -38.4608 -0.8173278 -38.522549 -32.230694 -65.139404
22092500000 -28.37973 -51.758465 -0.80879283 -38.94989 -0.81998515 -39.00552 -31.25355 -58.38245
22120000000 -28.749533 -49.658497 -0.81417555 -39.493057 -0.82098824 -39.532856 -30.945477 -62.982349
22147500000 -28.436457 -45.468678 -0.81258786 -39.948452 -0.81859779 -40.018299 -32.196388 -62.977535
22175000000 -28.333447 -48.400738 -0.81545091 -40.431812 -0.82019967 -40.47945 -31.605865 -53.463829
22202500000 -28.587826 -47.07885 -0.81449997 -40.950527 -0.82138419 -40.994431 -31.080727 -57.628719
22230000000 -28.392809 -42.761955 -0.81584823 -41.424927 -0.82269293 -41.47702 -31.967495 -59.608974
22257500000 -28.030064 -44.377331 -0.81779027 -41.903942 -0.82255155 -41.963112 -31.868975 -49.774567
22285000000 -28.380407 -45.168812 -0.8140738 -42.436607 -0.82284063 -42.47797 -31.118013 -51.514927
22312500000 -28.302231 -39.365856 -0.81136042 -42.895786 -0.8195343 -42.963024 -31.65457 -56.07737
22340000000 -27.943506 -40.249748 -0.81526637 -43.385735 -0.82185835 -43.472893 -32.111233 -46.37022
22367500000 -27.963734 -42.239182 -0.81503057 -43.906841 -0.82225621 -43.966702 -31.119871 -45.14938
22395000000 -28.293219 -37.552635 -0.81327707 -44.421227 -0.82021403 -44.44585 -31.319746 -50.968948
22422500000 -27.68437 -35.861343 -0.81803966 -44.89278 -0.81758964 -44.951756 -32.220627 -43.965805
22450000000 -27.699265 -39.198013 -0.81570923 -45.401501 -0.82381558 -45.427795 -31.110167 -39.570393
22477500000 -27.9142 -36.320747 -0.81297487 -45.900719 -0.82315159 -45.960312 -30.829159 -46.026493
22505000000 -27.648655 -32.326019 -0.81986666 -46.394363 -0.82144922 -46.430649 -31.901361 -41.177631
22532500000 -27.293659 -35.933617 -0.82219678 -46.875046 -0.82791191 -46.913849 -31.170073 -35.331661
22560000000 -27.538771 -33.922237 -0.819942 -47.385563 -0.8267284 -47.438297 -30.485109 -40.363052
22587500000 -27.437393 -30.59766 -0.81515795 -47.879604 -0.82187021 -47.919392 -31.446949 -40.408882
22615000000 -27.008049 -32.850182 -0.82260287 -48.347084 -0.82789624 -48.413948 -30.91242 -31.481968
22642500000 -27.107733 -33.795982 -0.82052171 -48.851929 -0.82646847 -48.926224 -30.160328 -34.825008
22670000000 -27.292892 -28.928099 -0.81673288 -49.338257 -0.82489848 -49.39188 -30.794037 -37.721859
22697500000 -26.747467 -30.464243 -0.82475638 -49.848591 -0.82623583 -49.886116 -30.875246 -28.589361
22725000000 -26.69861 -32.160576 -0.82203788 -50.334068 -0.82836986 -50.426796 -30.05991 -29.643114
22752500000 -26.961382 -28.526808 -0.81698537 -50.80225 -0.82490724 -50.873863 -30.174696 -34.538979
22780000000 -26.543825 -27.790131 -0.81753963 -51.350937 -0.82619828 -51.385498 -30.754883 -27.372839
22807500000 -26.244165 -30.432226 -0.82238698 -51.810455 -0.82613254 -51.841457 -29.822901 -26.07897
22835000000 -26.732256 -27.767069 -0.81954306 -52.307655 -0.82674497 -52.343285 -29.739668 -30.504301
22862500000 -26.395473 -25.867504 -0.8171072 -52.814697 -0.82445526 -52.884808 -30.438566 -26.208511
22890000000 -25.871389 -28.614807 -0.82255089 -53.335396 -0.829238 -53.383526 -29.588974 -22.300623
22917500000 -26.206902 -27.743265 -0.82364565 -53.814369 -0.82712078 -53.873562 -29.14362 -26.325262
22945000000 -26.088884 -25.11816 -0.81888038 -54.299492 -0.82548887 -54.380157 -29.84938 -24.729328
22972500000 -25.446878 -27.031273 -0.82275331 -54.788441 -0.82922167 -54.86097 -29.352921 -19.225012
23000000000 -25.690481 -27.036345 -0.82355243 -55.326012 -0.83339989 -55.349369 -28.806076 -23.629181
23027500000 -25.840591 -24.40535 -0.81955248 -55.799641 -0.82562441 -55.834152 -29.144701 -23.995039
23055000000 -25.17568 -25.215275 -0.8237502 -56.278221 -0.83224374 -56.348801 -29.205414 -17.543558
23082500000 -25.193031 -26.114845 -0.82518709 -56.807022 -0.8286894 -56.855522 -28.428238 -20.459612
23110000000 -25.560572 -24.600883 -0.82058114 -57.260937 -0.82445306 -57.30835 -28.599081 -22.289131
23137500000 -25.00939 -24.156961 -0.82840872 -57.793865 -0.82746273 -57.854477 -28.945147 -16.745533
23165000000 -24.81946 -24.811838 -0.82101142 -58.286518 -0.82710695 -58.370205 -28.117416 -17.964376
23192500000 -25.300591 -25.276472 -0.82630312 -58.74675 -0.8295297 -58.78933 -27.873846 -19.473015
23220000000 -24.852114 -23.494919 -0.81968969 -59.301308 -0.82738823 -59.354275 -28.512539 -16.983564
23247500000 -24.405788 -24.524925 -0.82281369 -59.791981 -0.82960802 -59.847614 -27.798792 -16.294798
23275000000 -24.846561 -26.086605 -0.83180386 -60.284328 -0.82922196 -60.283962 -27.519611 -17.706219
23302500000 -24.661394 -24.456039 -0.82212925 -60.74081 -0.82880151 -60.833176 -28.130838 -16.076063
23330000000 -24.094854 -23.070162 -0.82253057 -61.261799 -0.82813865 -61.319969 -27.566801 -14.935906
23357500000 -24.284098 -25.324474 -0.82463557 -61.742249 -0.83140826 -61.82975 -27.103392 -17.810089
23385000000 -24.483055 -24.870987 -0.82460803 -62.227585 -0.82963997 -62.265549 -27.378315 -16.211458
23412500000 -23.809826 -23.342297 -0.8282721 -62.754421 -0.82776344 -62.817276 -27.324514 -12.809079
23440000000 -23.849745 -24.935051 -0.82865524 -63.275223 -0.83169103 -63.333046 -26.820581 -15.693442
23467500000 -24.155663 -26.412603 -0.82454413 -63.680859 -0.82715899 -63.785267 -26.93449 -14.889484
23495000000 -23.64657 -23.783068 -0.82922512 -64.259697 -0.83180106 -64.321396 -26.953943 -11.687345
23522500000 -23.417643 -24.443804 -0.82508188 -64.795128 -0.83190012 -64.826569 -26.346838 -14.585869
23550000000 -23.827124 -26.763336 -0.82659155 -65.199402 -0.83254379 -65.274361 -26.580345 -13.813583
23577500000 -23.5327 -23.562809 -0.8283658 -65.753578 -0.83166063 -65.796478 -26.749771 -11.982808
23605000000 -23.250208 -23.912046 -0.82625526 -66.271866 -0.83256388 -66.318871 -26.041504 -13.760917
23632500000 -23.381723 -26.232693 -0.8268677 -66.755623 -0.83323401 -66.765694 -26.04048 -13.080439
23660000000 -23.34038 -25.425589 -0.82636857 -67.231888 -0.83221334 -67.279099 -26.237803 -12.009567
23687500000 -22.925259 -23.532106 -0.82192373 -67.74929 -0.83561212 -67.793594 -25.731949 -12.704745
23715000000 -23.059992 -26.616678 -0.83127284 -68.229691 -0.8310619 -68.300896 -25.696243 -13.296523
23742500000 -23.13777 -25.932726 -0.82813489 -68.721886 -0.83632886 -68.758453 -25.916674 -11.093346
23770000000 -22.860706 -23.954838 -0.82749659 -69.225914 -0.83304024 -69.284767 -25.467855 -11.850279
23797500000 -22.652525 -25.9039 -0.82990038 -69.750267 -0.83217257 -69.809761 -25.135418 -13.86551
23825000000 -22.911709 -27.350515 -0.83125716 -70.239532 -0.82989472 -70.27034 -25.490768 -11.166941
23852500000 -22.678789 -24.507879 -0.83242846 -70.717606 -0.83410501 -70.780296 -25.249344 -11.352054
23880000000 -22.465895 -25.998327 -0.83048487 -71.230118 -0.83325469 -71.28112 -24.733467 -14.108292
23907500000 -22.426762 -27.970379 -0.83143049 -71.702087 -0.83685362 -71.761337 -25.07403 -12.020355
23935000000 -22.562897 -25.6691 -0.83151954 -72.23851 -0.83775389 -72.293686 -24.979456 -10.750913
23962500000 -22.243385 -25.504982 -0.826801 -72.748291 -0.83142424 -72.795609 -24.326567 -12.699278
23990000000 -22.133242 -28.492403 -0.83164716 -73.200371 -0.83565766 -73.26635 -24.634424 -11.579323
24017500000 -22.339544 -26.592192 -0.83360094 -73.738724 -0.84038043 -73.753845 -24.766697 -10.788969
24045000000 -22.089754 -25.456936 -0.8301934 -74.220688 -0.8315835 -74.240707 -24.033735 -12.027145
24072500000 -21.83552 -28.33456 -0.83045352 -74.718742 -0.83916306 -74.762657 -24.232378 -12.530721
24100000000 -22.0228 -27.735947 -0.83209419 -75.187271 -0.84033364 -75.273994 -24.401529 -10.309875
24127500000 -21.903997 -25.928921 -0.82685804 -75.711037 -0.83880913 -75.768539 -23.866119 -12.003612
24155000000 -21.533571 -27.748405 -0.82936549 -76.225471 -0.83701903 -76.256447 -23.695255 -13.277472
24182500000 -21.715052 -28.509947 -0.83442241 -76.701256 -0.84312737 -76.751701 -24.111763 -11.101987
24210000000 -21.748569 -26.578239 -0.836155 -77.201263 -0.84266031 -77.265915 -23.605436 -12.035527
24237500000 -21.379417 -27.382456 -0.83285707 -77.718056 -0.83560991 -77.776108 -23.264387 -13.079085
24265000000 -21.339464 -29.45698 -0.83599526 -78.210045 -0.83943534 -78.238434 -23.726658 -11.663546
24292500000 -21.532448 -27.533577 -0.83880007 -78.705124 -0.84482443 -78.784378 -23.502884 -11.631519
24320000000 -21.252131 -27.920626 -0.83451748 -79.215515 -0.83834255 -79.282639 -22.885786 -13.993503
24347500000 -21.043089 -29.379076 -0.83800131 -79.716682 -0.8360458 -79.747803 -23.2791 -12.498672
24375000000 -21.345413 -28.853109 -0.84405881 -80.199348 -0.84362119 -80.269577 -23.332846 -11.677562
24402500000 -21.15744 -27.805965 -0.83579195 -80.706841 -0.84228444 -80.758591 -22.481539 -13.989142
24430000000 -20.777674 -29.522284 -0.83805215 -81.18412 -0.84234542 -81.221313 -22.784559 -13.548725
24457500000 -20.998953 -29.742752 -0.84021616 -81.697701 -0.84910995 -81.76516 -23.07218 -12.168653
24485000000 -20.955839 -28.474985 -0.84180492 -82.198715 -0.84213835 -82.23893 -22.367937 -13.929218
24512500000 -20.577858 -29.257835 -0.83779693 -82.688873 -0.84137446 -82.746536 -22.351807 -14.435525
24540000000 -20.697729 -30.450077 -0.84198308 -83.193573 -0.84727716 -83.248085 -22.818535 -13.181599
24567500000 -20.804045 -29.347414 -0.84533072 -83.670883 -0.84745687 -83.758484 -22.174709 -14.327879
24595000000 -20.422201 -29.72662 -0.83879882 -84.175919 -0.8420673 -84.228874 -21.928459 -15.10921
24622500000 -20.357462 -30.977484 -0.8424356 -84.67807 -0.84817052 -84.743301 -22.465961 -14.240159
24650000000 -20.583809 -30.708656 -0.84685653 -85.2127 -0.84796405 -85.249474 -22.099125 -14.565907
24677500000 -20.307709 -29.989746 -0.83940268 -85.706078 -0.8509391 -85.702179 -21.611744 -16.128607
24705000000 -20.082457 -31.560398 -0.84207863 -86.16967 -0.84895569 -86.201614 -22.007397 -15.346045
24732500000 -20.377378 -31.495779 -0.85113716 -86.70517 -0.85351783 -86.749268 -22.042749 -15.184617
24760000000 -20.171297 -30.852907 -0.84415412 -87.163719 -0.85266125 -87.245644 -21.296131 -16.407671
24787500000 -19.885323 -31.615942 -0.84342098 -87.690567 -0.85273147 -87.719902 -21.647429 -16.121679
24815000000 -20.058929 -32.505291 -0.85101497 -88.204842 -0.85474837 -88.245514 -21.898636 -15.881324
24842500000 -20.094635 -31.736549 -0.85066134 -88.690674 -0.85507524 -88.722977 -21.122477 -16.894285
24870000000 -19.760035 -32.201866 -0.85027248 -89.150513 -0.85248893 -89.202675 -21.238249 -17.78067
24897500000 -19.809748 -33.46978 -0.84972221 -89.693405 -0.86175197 -89.726692 -21.64924 -17.289093
24925000000 -19.896841 -32.766312 -0.84790617 -90.158333 -0.85755712 -90.226479 -21.006533 -17.558023
24952500000 -19.584238 -32.540707 -0.8507942 -90.668083 -0.8532604 -90.698128 -20.933086 -18.120174
24980000000 -19.527454 -33.777111 -0.85314482 -91.167107 -0.86051154 -91.198959 -21.357117 -18.851166
25007500000 -19.687738 -33.863598 -0.84700471 -91.680603 -0.86018115 -91.729095 -20.954737 -18.265911
25035000000 -19.480242 -33.223721 -0.85762429 -92.122902 -0.85933965 -92.202721 -20.618128 -19.123461
25062500000 -19.26585 -34.373615 -0.85569775 -92.643867 -0.85858852 -92.663658 -21.032013 -19.623489
25090000000 -19.474358 -34.779579 -0.85378724 -93.157913 -0.86189783 -93.222298 -20.839539 -19.668879
25117500000 -19.437197 -34.052761 -0.85252357 -93.646408 -0.86073911 -93.694954 -20.339064 -19.806545
25145000000 -19.140036 -35.01128 -0.85538161 -94.116959 -0.85964948 -94.183807 -20.741997 -20.786922
25172500000 -19.22954 -35.85828 -0.85631472 -94.640533 -0.86747861 -94.696419 -20.719826 -21.575117
25200000000 -19.278275 -35.310837 -0.85776055 -95.136398 -0.86657119 -95.170563 -20.201227 -20.582024
25227500000 -19.028904 -35.38483 -0.86055255 -95.624069 -0.86573255 -95.675751 -20.391111 -22.157831
25255000000 -18.974174 -36.814205 -0.86611933 -96.124031 -0.86879724 -96.196945 -20.569248 -22.102228
25282500000 -19.184109 -36.393314 -0.86191171 -96.620255 -0.8653354 -96.675194 -20.146404 -21.498116
25310000000 -18.955494 -36.124371 -0.8655929 -97.124443 -0.86652726 -97.146217 -20.154997 -22.982809
25337500000 -18.838367 -37.522793 -0.8673898 -97.606949 -0.87432134 -97.676216 -20.354891 -23.709059
25365000000 -19.015192 -37.941429 -0.86651653 -98.107353 -0.86702377 -98.173416 -20.058102 -22.888845
25392500000 -18.880627 -37.040966 -0.86978859 -98.562614 -0.87250233 -98.628128 -19.855017 -23.751013
25420000000 -18.630524 -37.887077 -0.86868054 -99.105598 -0.8783325 -99.140923 -20.169771 -24.927999
25447500000 -18.795425 -38.839237 -0.86643249 -99.571342 -0.87471396 -99.657043 -19.941233 -24.335709
25475000000 -18.797035 -38.047962 -0.86632627 -100.10999 -0.87180269 -100.15292 -19.703943 -24.269232
25502500000 -18.545153 -38.732224 -0.87729645 -100.56822 -0.87907058 -100.63028 -19.988998 -26.130417
25530000000 -18.601156 -39.832127 -0.87166345 -101.07409 -0.87529343 -101.12057 -19.833509 -25.935238
25557500000 -18.690649 -39.552166 -0.86721313 -101.54963 -0.87459272 -101.58675 -19.495079 -25.315952
25585000000 -18.425373 -39.219559 -0.87447363 -102.01468 -0.88037527 -102.09138 -19.67305 -26.93701
25612500000 -18.462744 -40.853447 -0.87913966 -102.53004 -0.87989789 -102.6115 -19.790325 -27.16716
25640000000 -18.570091 -40.647102 -0.87057835 -103.01024 -0.87641895 -103.07418 -19.415819 -26.718102
25667500000 -18.378571 -39.92495 -0.87733096 -103.51379 -0.88236195 -103.5565 -19.524656 -28.0016
25695000000 -18.287111 -41.290943 -0.882819 -104.0302 -0.88838136 -104.04008 -19.586977 -28.946379
25722500000 -18.455791 -42.780861 -0.87951434 -104.49158 -0.8793847 -104.56606 -19.298382 -27.748909
25750000000 -18.304413 -41.341129 -0.87346447 -104.99481 -0.88508862 -105.04913 -19.326265 -28.505102
25777500000 -18.211845 -41.786755 -0.88019013 -105.46441 -0.88606244 -105.51569 -19.580715 -30.291363
25805000000 -18.271101 -43.713955 -0.88174951 -105.96008 -0.89121735 -106.02583 -19.291315 -29.26495
25832500000 -18.305527 -42.567055 -0.87490362 -106.47486 -0.88550913 -106.50594 -19.163462 -29.46435
25860000000 -18.128014 -42.594997 -0.88516003 -106.9269 -0.89007235 -106.9902 -19.407785 -31.296864
25887500000 -18.124523 -44.727551 -0.88509721 -107.39267 -0.89031672 -107.49857 -19.136179 -30.936571
25915000000 -18.242733 -44.153793 -0.88530695 -107.91482 -0.88945407 -107.9918 -19.090023 -30.215237
25942500000 -18.063644 -43.245682 -0.88737017 -108.44845 -0.89288497 -108.46547 -19.231775 -31.922785
25970000000 -18.017653 -45.468014 -0.88780367 -108.91343 -0.89482391 -108.95647 -19.191465 -31.894539
25997500000 -18.107641 -46.038525 -0.87820578 -109.40568 -0.88567328 -109.418 -18.969893 -31.853792
26025000000 -18.051085 -44.248962 -0.88653958 -109.86504 -0.8902576 -109.95444 -19.072016 -32.9631
26052500000 -17.9135 -45.921341 -0.89271611 -110.37408 -0.88948333 -110.42236 -19.076389 -33.311241
26080000000 -18.029325 -47.412937 -0.8828333 -110.82646 -0.89282548 -110.91699 -18.865366 -32.394054
26107500000 -18.037638 -45.234169 -0.88248181 -111.32262 -0.89472115 -111.40566 -18.972309 -33.834785
26135000000 -17.91773 -46.785873 -0.89135593 -111.82027 -0.89377594 -111.89435 -19.097181 -34.5788
26162500000 -17.879431 -48.322487 -0.88466716 -112.30851 -0.89121127 -112.33951 -18.853693 -33.725674
26190000000 -18.030437 -47.501366 -0.88212568 -112.79836 -0.88764107 -112.85834 -18.872843 -34.678394
26217500000 -17.863138 -47.099361 -0.88279462 -113.27229 -0.89035642 -113.36246 -19.011328 -35.620529
26245000000 -17.781998 -49.476387 -0.88691169 -113.80183 -0.896245 -113.86013 -18.792038 -34.754089
26272500000 -17.910009 -49.077545 -0.87858665 -114.27734 -0.88032997 -114.335 -18.754423 -35.379681
26300000000 -17.928865 -47.534752 -0.88211584 -114.76447 -0.89292723 -114.81816 -18.964506 -36.178234
26327500000 -17.655418 -49.862816 -0.88615865 -115.28918 -0.88911861 -115.3363 -18.765396 -35.677998
26355000000 -17.789841 -50.633789 -0.88232642 -115.72278 -0.8808499 -115.80936 -18.586248 -36.46249
26382500000 -17.904371 -48.58643 -0.88296592 -116.21612 -0.88615292 -116.30706 -18.841482 -37.203808
26410000000 -17.663372 -50.072662 -0.8846094 -116.76254 -0.88646942 -116.83305 -18.777637 -36.691177
26437500000 -17.726835 -51.774071 -0.88269055 -117.21788 -0.88575959 -117.26591 -18.530397 -37.112774
26465000000 -17.909668 -50.044155 -0.87818927 -117.73297 -0.88020855 -117.77574 -18.685053 -38.747799
26492500000 -17.692459 -50.746311 -0.87954319 -118.22102 -0.87999582 -118.31316 -18.734564 -38.042091
26520000000 -17.673742 -52.657356 -0.88764173 -118.74434 -0.8920415 -118.74824 -18.528824 -38.028545
26547500000 -17.889843 -50.964828 -0.86359119 -119.06742 -0.88759404 -119.28165 -18.546288 -38.881519
26575000000 -17.773327 -51.166256 -0.88532001 -119.64968 -0.88338655 -119.82648 -18.731144 -38.582542
26602500000 -17.599657 -53.77615 -0.88803041 -120.19794 -0.88807106 -120.28091 -18.488064 -38.114029
26630000000 -17.846937 -53.792034 -0.87419534 -120.70757 -0.88051575 -120.78262 -18.382076 -39.376606
26657500000 -17.641893 -52.841877 -0.86803591 -121.19548 -0.88366699 -121.26794 -18.675018 -40.980167
26685000000 -17.470821 -53.685524 -0.88065493 -121.69182 -0.89306462 -121.87396 -18.516891 -38.960552
26712500000 -17.716419 -55.007431 -0.86737651 -122.253 -0.87009567 -122.27631 -18.226479 -40.247753
26740000000 -17.845024 -53.425358 -0.88391447 -122.71062 -0.88865072 -122.70667 -18.587723 -41.389999
26767500000 -17.485796 -54.589722 -0.88060898 -123.23548 -0.88268518 -123.29391 -18.431877 -40.50135
26795000000 -17.571476 -56.364239 -0.87404275 -123.67117 -0.88798469 -123.77332 -18.284843 -41.425335
26822500000 -17.75769 -55.711864 -0.87076563 -124.15918 -0.88882893 -124.30565 -18.407444 -42.905361
26850000000 -17.501549 -55.446556 -0.8778553 -124.71681 -0.87767917 -124.83212 -18.482248 -41.014175
26877500000 -17.537746 -57.024498 -0.87902653 -125.23682 -0.88416576 -125.25449 -18.185602 -42.233479
26905000000 -17.708698 -57.432453 -0.87975299 -125.64234 -0.88689548 -125.68052 -18.149151 -43.539982
26932500000 -17.640753 -56.367653 -0.88060546 -126.17034 -0.88489246 -126.26695 -18.48 -43.585106
26960000000 -17.40897 -57.404942 -0.87837815 -126.66582 -0.90214133 -126.81161 -18.138273 -42.900791
26987500000 -17.655588 -58.340382 -0.87669361 -127.1584 -0.89204282 -127.22993 -18.072624 -44.873623
27015000000 -17.638006 -57.157276 -0.86711544 -127.62099 -0.87896538 -127.76863 -18.414343 -44.259521
27042500000 -17.400017 -57.332157 -0.89672458 -128.23584 -0.89137149 -128.32956 -18.295757 -43.85088
27070000000 -17.507626 -59.755318 -0.89636183 -128.72964 -0.8955667 -128.69524 -18.033009 -45.434452
27097500000 -17.792921 -58.293964 -0.88908941 -129.19775 -0.88321555 -129.16898 -18.307339 -45.982384
27125000000 -17.462374 -58.94297 -0.88378125 -129.67448 -0.88288343 -129.7132 -18.3522 -45.650677
27152500000 -17.520964 -60.483177 -0.89134479 -130.13737 -0.89961183 -130.13826 -17.927303 -45.323936
27180000000 -17.611916 -60.867004 -0.88754773 -130.65265 -0.894885 -130.62056 -18.159443 -47.79599
27207500000 -17.516703 -59.193802 -0.8912558 -131.13884 -0.88962817 -131.17079 -18.365026 -46.939682
27235000000 -17.358948 -61.110264 -0.88712853 -131.61339 -0.89119887 -131.66524 -17.906054 -46.654572
27262500000 -17.519907 -62.34771 -0.8859145 -132.05786 -0.90161592 -132.1102 -17.989449 -48.595802
27290000000 -17.531406 -60.270866 -0.88874853 -132.61688 -0.88338083 -132.65723 -18.290689 -48.272945
27317500000 -17.38084 -61.755062 -0.87941355 -133.0994 -0.8846513 -133.15771 -18.13014 -47.298584
27345000000 -17.470762 -63.437363 -0.88189572 -133.50517 -0.89626795 -133.65234 -17.912798 -49.278023
27372500000 -17.708433 -62.327732 -0.89144588 -134.14703 -0.88987601 -134.13277 -18.315443 -49.556934
27400000000 -17.352871 -62.899567 -0.89009905 -134.52618 -0.88228774 -134.60727 -18.126541 -48.604073
27427500000 -17.446825 -64.505615 -0.88809615 -135.04889 -0.88516861 -135.20485 -17.971203 -50.373863
27455000000 -17.582085 -63.786865 -0.8845107 -135.43369 -0.88400716 -135.62161 -18.178116 -51.699425
27482500000 -17.480713 -63.196331 -0.88606495 -136.05884 -0.88497561 -136.14191 -18.08256 -50.114639
27510000000 -17.418434 -64.978767 -0.88400966 -136.63437 -0.8859396 -136.537 -17.937017 -50.939594
27537500000 -17.548504 -65.71682 -0.89432806 -136.94337 -0.89090681 -137.13718 -18.060678 -52.732388
27565000000 -17.649111 -64.385979 -0.88053954 -137.48686 -0.90015197 -137.52667 -18.232428 -51.707878
27592500000 -17.342964 -65.55407 -0.88527268 -138.00714 -0.89370185 -138.1459 -18.012878 -52.023994
27620000000 -17.496786 -66.416901 -0.87971431 -138.50407 -0.88320982 -138.53105 -18.122948 -54.317142
27647500000 -17.755512 -66.17363 -0.88262457 -139.03154 -0.88857037 -139.06841 -18.251257 -53.066669
27675000000 -17.529573 -66.284218 -0.88612336 -139.44838 -0.89247322 -139.55894 -18.023312 -52.209194
27702500000 -17.534422 -68.664017 -0.89511847 -140.01831 -0.88962626 -140.05035 -18.095119 -54.267487
27730000000 -17.777672 -67.02977 -0.88415754 -140.57954 -0.88968885 -140.51688 -18.205856 -54.455662
27757500000 -17.59659 -67.334534 -0.87858415 -140.98035 -0.89467376 -141.05412 -18.20105 -53.018433
27785000000 -17.463037 -68.813576 -0.88827813 -141.44951 -0.89871711 -141.53665 -18.057264 -54.696934
27812500000 -17.786678 -69.020073 -0.89302516 -141.99461 -0.89364141 -141.96692 -18.152721 -56.228413
27840000000 -17.646969 -67.869743 -0.87709904 -142.40955 -0.87926358 -142.49295 -18.183868 -54.787487
27867500000 -17.494587 -69.486526 -0.88299447 -143.00468 -0.88135093 -143.08987 -17.94902 -56.32478
27895000000 -17.723715 -70.490753 -0.89339113 -143.42661 -0.89500457 -143.48572 -18.187296 -56.136589
27922500000 -17.870008 -69.270714 -0.88999164 -143.92331 -0.89790726 -143.93901 -18.277021 -55.846733
27950000000 -17.460659 -70.257629 -0.87851316 -144.43944 -0.88272732 -144.55565 -18.018993 -57.269485
27977500000 -17.618752 -71.034439 -0.89103138 -144.89241 -0.87786418 -145.0157 -18.167099 -58.013905
28005000000 -17.901609 -70.47039 -0.88437617 -145.37263 -0.88557899 -145.50049 -18.220371 -57.502796
28032500000 -17.592476 -71.245369 -0.86212921 -145.96498 -0.86452574 -146.0667 -18.021982 -57.647427
28060000000 -17.655067 -71.256355 -0.87825453 -146.43086 -0.87846625 -146.3958 -18.094084 -59.60247
28087500000 -17.938496 -72.936241 -0.87613708 -146.90094 -0.8881368 -147.02557 -18.22855 -59.546616
28115000000 -17.677238 -71.380913 -0.89162832 -147.33661 -0.88688248 -147.5094 -18.208519 -59.198917
28142500000 -17.649136 -72.813034 -0.87596607 -147.99939 -0.88416928 -147.93199 -18.057934 -60.077778
28170000000 -17.811903 -73.080467 -0.87736803 -148.48697 -0.8758226 -148.55042 -18.267254 -60.849178
28197500000 -17.879444 -72.680183 -0.88730222 -148.90883 -0.88636243 -148.99286 -18.275249 -59.168625
28225000000 -17.783314 -72.912125 -0.86993879 -149.46202 -0.89828736 -149.5015 -18.09502 -60.97797
28252500000 -17.910664 -74.140678 -0.8711006 -149.92741 -0.88396019 -150.19667 -18.135094 -61.963974
28280000000 -18.094568 -73.303505 -0.88015145 -150.48933 -0.89559436 -150.50354 -18.372494 -60.994888
28307500000 -17.907629 -72.774361 -0.87223113 -151.07411 -0.89195567 -151.05428 -18.23912 -62.054428
28335000000 -18.022854 -74.559486 -0.87553537 -151.46942 -0.88441712 -151.62639 -18.315702 -64.039688
28362500000 -18.192076 -75.611992 -0.88339323 -151.97157 -0.87234914 -152.0463 -18.410234 -61.850403
28390000000 -18.064281 -73.866241 -0.88897282 -152.44817 -0.88737875 -152.55649 -18.352905 -61.697243
28417500000 -17.958246 -75.545357 -0.87500209 -152.99443 -0.88617516 -153.08417 -18.349739 -63.532631
28445000000 -18.204227 -76.784294 -0.88725495 -153.4348 -0.88617289 -153.59172 -18.384928 -62.673409
28472500000 -18.063833 -74.542274 -0.89736646 -154.03156 -0.8955037 -153.95586 -18.548044 -62.301182
28500000000 -17.987 -76.443939 -0.88194776 -154.48241 -0.89571083 -154.50511 -18.392315 -64.042702
28527500000 -18.209352 -76.803062 -0.88884163 -155.00343 -0.90369421 -154.95406 -18.631243 -64.098099
28555000000 -18.150709 -76.920036 -0.89344937 -155.41072 -0.90006661 -155.4364 -18.519012 -62.844093
28582500000 -18.06772 -75.211891 -0.89480484 -155.94824 -0.90458614 -155.91185 -18.494196 -64.506317
28610000000 -18.266451 -77.154701 -0.8900609 -156.40697 -0.89521295 -156.43748 -18.549536 -65.193733
28637500000 -18.254053 -75.969559 -0.90388709 -156.87424 -0.90856123 -156.80537 -18.664032 -63.814739
28665000000 -18.189276 -76.910782 -0.90996516 -157.32814 -0.90248638 -157.44087 -18.438406 -64.686302
28692500000 -18.194378 -78.058029 -0.91665399 -157.90756 -0.90185297 -157.89902 -18.50448 -66.170326
28720000000 -18.464586 -77.839569 -0.91225696 -158.34073 -0.92834193 -158.40762 -18.63834 -64.518036
28747500000 -18.222471 -77.138687 -0.90207857 -158.89809 -0.89809823 -158.90628 -18.556475 -65.346962
28775000000 -18.306391 -79.091637 -0.90388548 -159.35582 -0.8970657 -159.39009 -18.439634 -66.224281
28802500000 -18.506115 -79.685707 -0.90144455 -159.7276 -0.92000371 -159.81793 -18.700863 -65.879608
28830000000 -18.385611 -77.566872 -0.88375205 -160.3317 -0.89963984 -160.2894 -18.552801 -65.938919
28857500000 -18.055361 -79.448242 -0.9021942 -160.75574 -0.90990001 -160.83711 -18.459999 -67.379333
28885000000 -18.4163 -81.172401 -0.89616293 -161.32558 -0.89046735 -161.32483 -18.494516 -66.844727
28912500000 -18.592554 -78.61676 -0.89203453 -161.73668 -0.9008947 -161.78165 -18.550938 -65.356041
28940000000 -18.37949 -79.443611 -0.88397002 -162.17744 -0.90500957 -162.31566 -18.513767 -67.931786
28967500000 -18.472448 -83.260559 -0.88549739 -162.63385 -0.89587152 -162.87634 -18.690828 -69.132645
28995000000 -18.628986 -80.620964 -0.89401859 -163.14668 -0.90257877 -163.23647 -18.633629 -67.90834
29022500000 -18.541395 -79.613914 -0.88074529 -163.7946 -0.88715774 -163.83961 -18.502266 -68.794632
29050000000 -18.479042 -83.391273 -0.88111371 -164.1487 -0.89564812 -164.26288 -18.670721 -70.122162
29077500000 -18.641838 -81.920486 -0.89422339 -164.74504 -0.85690874 -164.82629 -18.928865 -68.766449
29105000000 -18.650434 -80.285454 -0.87774253 -165.25807 -0.89196652 -165.2587 -18.708881 -69.640015
29132500000 -18.695202 -82.804115 -0.874928 -165.80594 -0.88591766 -165.711 -18.732296 -71.720657
29160000000 -18.720463 -84.58345 -0.87958628 -166.29506 -0.8935867 -166.23018 -19.020716 -70.242958
29187500000 -18.979637 -83.025482 -0.87769437 -166.77779 -0.87383133 -166.8295 -18.791039 -69.86145
29215000000 -18.808264 -83.609154 -0.88320476 -167.22736 -0.87683898 -167.36844 -18.823936 -71.692657
29242500000 -18.94158 -85.925941 -0.87874418 -167.75771 -0.89244306 -167.88635 -19.076551 -70.929459
29270000000 -19.091686 -82.982315 -0.87918627 -168.29478 -0.90194631 -168.33513 -19.099573 -69.896469
29297500000 -18.911839 -84.019623 -0.88743246 -168.88879 -0.88179708 -168.85481 -18.971104 -70.710983
29325000000 -19.017771 -85.390999 -0.8984707 -169.31244 -0.90799648 -169.47839 -19.345612 -70.919586
29352500000 -19.375254 -85.080864 -0.89365923 -169.84029 -0.90170705 -169.8544 -19.20405 -70.819893
29380000000 -19.252869 -82.881393 -0.88964504 -170.34592 -0.91043311 -170.38432 -18.939669 -70.432419
29407500000 -19.112658 -86.065178 -0.90930289 -170.7881 -0.90825266 -170.79532 -19.157608 -72.183075
29435000000 -19.469963 -85.763985 -0.90204191 -171.32216 -0.89008892 -171.32271 -19.323175 -71.937462
29462500000 -19.41993 -83.840782 -0.8857342 -171.78641 -0.90401775 -171.8532 -19.115347 -70.456642
29490000000 -19.221382 -85.29052 -0.89089954 -172.19475 -0.91821086 -172.29019 -19.284624 -72.574532
29517500000 -19.513708 -87.094063 -0.90782708 -172.89767 -0.91792083 -172.7907 -19.438108 -72.543045
29545000000 -19.697506 -84.624245 -0.88454878 -173.25462 -0.90362382 -173.26062 -19.238947 -70.544228
29572500000 -19.541973 -86.146599 -0.90869176 -173.66588 -0.91885084 -173.82031 -19.136677 -72.179008
29600000000 -19.250164 -87.275848 -0.90531629 -174.1358 -0.90949917 -174.22076 -19.634361 -73.25264
29627500000 -19.710945 -86.578835 -0.90962619 -174.6989 -0.90978831 -174.74313 -19.397644 -72.043961
29655000000 -19.686047 -85.314133 -0.89491361 -175.19521 -0.90602964 -175.20746 -19.187 -73.000893
29682500000 -19.331326 -88.434761 -0.91629785 -175.54832 -0.907888 -175.65964 -19.594656 -74.870392
29710000000 -19.804668 -87.078178 -0.90073609 -176.06418 -0.90411657 -176.09122 -19.529112 -73.560028
29737500000 -19.80002 -86.836311 -0.89523011 -176.69487 -0.89547318 -176.76604 -19.319365 -72.740433
29765000000 -19.692083 -87.799911 -0.89777452 -177.08725 -0.90091097 -177.26012 -19.541914 -75.324501
29792500000 -19.89716 -89.2202 -0.90287131 -177.50172 -0.89379913 -177.64825 -19.739979 -73.101013
29820000000 -20.048033 -87.186348 -0.89618587 -178.10936 -0.89266115 -178.18356 -19.384192 -73.38755
29847500000 -19.798513 -88.853104 -0.89726084 -178.65425 -0.91348958 -178.71994 -19.576677 -75.033188
29875000000 -19.997587 -90.150124 -0.90921545 -179.06409 -0.90080106 -179.13638 -19.838152 -76.526108
29902500000 -20.201982 -88.937561 -0.88389003 -179.62256 -0.89683086 -179.68991 -19.599319 -74.295319
29930000000 -19.968672 -88.685295 -0.90042204 179.95456 -0.89431214 179.7923 -19.743 -75.206802
29957500000 -20.05476 -89.94165 -0.90114349 179.45792 -0.90551686 179.46635 -20.075617 -76.996971
29985000000 -20.333336 -91.304565 -0.89462191 178.94206 -0.88971078 178.96848 -19.938564 -74.791641
30012500000 -20.204443 -88.126602 -0.89203358 178.42992 -0.88451296 178.40945 -19.747507 -76.325867
30040000000 -20.089935 -91.15435 -0.89115602 177.90727 -0.91001302 177.9131 -20.015556 -77.391106
30067500000 -20.458437 -91.481422 -0.89054966 177.52129 -0.88745785 177.50089 -20.125568 -76.090919
30095000000 -20.562033 -90.355751 -0.87873751 176.85223 -0.89358097 176.95589 -19.874189 -76.508018
30122500000 -20.201555 -89.581093 -0.90485364 176.38704 -0.92141938 176.54329 -20.135668 -77.907364
30150000000 -20.545294 -92.643806 -0.90432793 175.9673 -0.88737589 175.91289 -20.237513 -77.123955
30177500000 -20.658533 -90.921799 -0.89096719 175.47118 -0.91182554 175.38783 -20.113359 -76.89164
30205000000 -20.342497 -91.36364 -0.89135814 175.02492 -0.90836114 174.86507 -20.30958 -77.293343
30232500000 -20.620687 -90.613396 -0.89317811 174.45247 -0.89693332 174.50587 -20.469358 -78.634872
30260000000 -21.096533 -93.919861 -0.88549548 173.95711 -0.89051628 173.9153 -20.245371 -76.827614
30287500000 -20.570126 -90.457649 -0.89692503 173.38449 -0.88735938 173.32748 -20.547865 -77.792801
30315000000 -20.778883 -91.227211 -0.88776237 173.08585 -0.89586037 172.94241 -20.620665 -78.627182
30342500000 -21.197487 -92.359619 -0.87882817 172.55249 -0.87547451 172.5118 -20.431295 -78.878754
30370000000 -21.21356 -91.362671 -0.86520463 171.85727 -0.87817246 171.9539 -20.492281 -78.059868
30397500000 -20.84716 -91.631866 -0.88678086 171.47379 -0.89672267 171.45349 -20.862307 -79.805733
30425000000 -21.233263 -93.123718 -0.89556926 170.97551 -0.89484268 171.00723 -21.025665 -79.320778
30452500000 -21.453081 -91.765686 -0.89431149 170.44398 -0.88369972 170.42488 -20.767656 -79.23761
30480000000 -21.209101 -89.486397 -0.88391387 170.07018 -0.88621098 169.92598 -20.976324 -80.932838
30507500000 -21.321064 -93.471313 -0.89085692 169.46706 -0.90634888 169.36038 -20.997225 -79.49913
30535000000 -21.600742 -94.54155 -0.90101576 169.02573 -0.88242412 168.8887 -20.898882 -78.063431
30562500000 -21.470968 -91.053978 -0.88477826 168.34167 -0.88186622 168.40813 -21.327332 -80.621506
30590000000 -21.57822 -92.944656 -0.90505642 167.92606 -0.90104663 167.9621 -21.255884 -81.029877
30617500000 -22.163898 -94.07576 -0.86848867 167.4776 -0.87397504 167.46852 -21.129858 -80.121536
30645000000 -21.567917 -91.25116 -0.87867665 166.99651 -0.90231144 167.04613 -21.238045 -80.526985
30672500000 -21.420298 -91.004456 -0.8767994 166.59319 -0.90130848 166.47606 -21.387356 -81.565285
30700000000 -22.267088 -94.952782 -0.8766315 166.04379 -0.86664361 166.06125 -21.217819 -79.91468
30727500000 -22.153486 -92.623604 -0.89794672 165.44237 -0.88405156 165.54251 -21.463984 -82.144104
30755000000 -21.879305 -90.595535 -0.88874316 165.05836 -0.87927026 164.99825 -21.606262 -80.401398
30782500000 -22.462851 -94.748932 -0.86934334 164.62143 -0.90775496 164.50853 -21.395992 -79.438339
30810000000 -22.424025 -92.495407 -0.87117875 164.02629 -0.88010299 163.99626 -21.669838 -82.006889
30837500000 -22.215017 -89.984238 -0.86420733 163.54724 -0.8860364 163.47464 -21.993074 -81.403366
30865000000 -22.564117 -94.461082 -0.88242286 163.00969 -0.88957703 163.03705 -21.867029 -79.503807
30892500000 -22.517544 -92.684219 -0.85788035 162.64972 -0.88811076 162.58354 -21.981165 -79.732765
30920000000 -22.498537 -88.773964 -0.87391013 161.98058 -0.87918752 161.97894 -22.009624 -82.113365
30947500000 -22.663059 -92.581047 -0.87929279 161.45187 -0.86938727 161.41145 -22.134882 -81.473221
30975000000 -22.763144 -94.140076 -0.87081021 161.02579 -0.896106 160.97379 -21.742592 -80.431976
31002500000 -22.75877 -89.42704 -0.84768844 160.56151 -0.86682975 160.38565 -22.562803 -81.164413
31030000000 -22.892889 -89.71846 -0.86334705 160.04723 -0.88978451 160.03232 -22.420732 -82.976868
31057500000 -23.176678 -94.322594 -0.8689974 159.46413 -0.88919896 159.41057 -22.133324 -80.629158
31085000000 -23.288317 -87.624664 -0.86915863 159.04793 -0.89171445 159.03748 -22.68807 -81.748688
31112500000 -23.291121 -88.136421 -0.88029003 158.52995 -0.89410889 158.50784 -22.619848 -83.734756
31140000000 -23.421585 -93.215179 -0.87188971 158.05734 -0.86333001 158.07109 -22.26346 -77.696411
31167500000 -23.696495 -88.916092 -0.87445116 157.50168 -0.86363757 157.51913 -22.910378 -79.884995
31195000000 -23.288305 -86.582397 -0.8912555 156.97321 -0.87196279 157.03957 -23.013031 -82.334778
31222500000 -23.717537 -92.387924 -0.88745117 156.4082 -0.8766942 156.52713 -22.608452 -78.39695
31250000000 -24.143543 -89.969536 -0.88120759 156.07465 -0.88007569 156.01671 -22.956202 -79.549477
31277500000 -24.018181 -87.556145 -0.8734597 155.63594 -0.87404406 155.45151 -23.356209 -80.961655
31305000000 -23.924795 -88.853897 -0.86048001 154.98869 -0.86307895 154.93027 -23.000084 -76.203773
31332500000 -24.099897 -91.435188 -0.86490732 154.59296 -0.88029701 154.45491 -22.922415 -79.452766
31360000000 -24.360085 -84.789146 -0.85973811 154.0675 -0.89424437 153.94435 -23.390461 -81.954948
31387500000 -24.287472 -89.185158 -0.86627918 153.47026 -0.87174064 153.31664 -23.23896 -79.303528
31415000000 -24.469986 -89.328026 -0.87060875 152.91827 -0.88522857 153.01349 -23.278629 -77.522339
31442500000 -24.420193 -83.214508 -0.85630083 152.6154 -0.87578934 152.46159 -23.566107 -79.899414
31470000000 -24.891706 -84.910561 -0.86839789 152.03526 -0.869892 151.92728 -23.584383 -78.017006
31497500000 -24.671795 -89.925301 -0.84913731 151.46846 -0.86714262 151.48016 -23.224922 -76.227859
31525000000 -25.050714 -85.727631 -0.86630291 151.00375 -0.86010635 150.86856 -23.648438 -77.173447
31552500000 -25.271019 -79.676338 -0.86208284 150.59718 -0.88380247 150.39673 -24.2899 -78.456413
31580000000 -25.398674 -84.7323 -0.89192265 150.10638 -0.86414701 149.86418 -23.411915 -75.946045
31607500000 -25.353237 -85.419479 -0.8912456 149.47423 -0.86087513 149.43419 -24.091766 -75.776215
31635000000 -25.332928 -82.120155 -0.86076432 149.03427 -0.87531304 148.92133 -24.118036 -79.441566
31662500000 -25.601355 -81.164948 -0.84619373 148.44746 -0.87207323 148.40521 -23.80477 -73.000458
31690000000 -25.293367 -85.996178 -0.87490964 147.94176 -0.87762147 147.90103 -24.061171 -73.538559
31717500000 -25.990963 -73.809204 -0.86688316 147.55704 -0.85676843 147.50551 -24.374813 -76.425659
31745000000 -25.976723 -83.001877 -0.88459605 147.00275 -0.87927693 146.90088 -24.473572 -71.864021
31772500000 -25.983788 -80.669334 -0.87382782 146.60583 -0.87518036 146.51115 -24.241957 -70.73439
31800000000 -26.442234 -76.460213 -0.8838948 146.00215 -0.87684977 146.00883 -24.559681 -77.267616
31827500000 -26.378271 -74.441589 -0.86114842 145.46651 -0.86805111 145.45982 -24.548378 -71.856148
31855000000 -25.749159 -79.147079 -0.87541437 145.07811 -0.86949289 144.85028 -24.023096 -70.627892
31882500000 -26.375158 -74.559967 -0.87223238 144.4752 -0.871566 144.43298 -24.596125 -74.069336
31910000000 -26.700146 -70.138748 -0.8662135 143.99301 -0.87489694 143.90341 -24.769928 -70.764595
31937500000 -26.163391 -77.024399 -0.88690567 143.44804 -0.86935943 143.418 -24.377203 -67.385765
31965000000 -27.074438 -73.127983 -0.86732787 142.99013 -0.87454426 142.88985 -24.653376 -71.527489
31992500000 -26.747494 -69.328049 -0.87086844 142.43143 -0.87222952 142.43597 -25.315569 -73.512566
32020000000 -26.645393 -72.652412 -0.85757351 141.89113 -0.87651211 141.82498 -24.956083 -66.319954
32047500000 -26.763386 -72.479431 -0.87489599 141.61424 -0.88163632 141.43811 -24.379999 -68.70285
32075000000 -27.59782 -67.47039 -0.85730577 141.03401 -0.89586097 140.94214 -25.109884 -70.877075
32102500000 -26.166037 -67.698387 -0.86707813 140.47215 -0.85874087 140.396 -25.122545 -63.665073
32130000000 -26.978256 -67.637703 -0.86785823 140.00606 -0.88173777 139.94785 -24.880394 -63.541134
32157500000 -27.866316 -66.200417 -0.85722065 139.52164 -0.89968383 139.39935 -25.310314 -68.77227
32185000000 -27.166269 -64.106407 -0.86369854 139.01276 -0.88304931 138.90536 -24.894621 -62.846161
32212500000 -26.731337 -70.932045 -0.88032997 138.59619 -0.87679529 138.37906 -24.871731 -61.658932
32240000000 -27.332159 -62.523102 -0.87548339 137.89104 -0.8836984 137.95056 -25.073168 -64.89566
32267500000 -27.087713 -59.138443 -0.88439935 137.46716 -0.88508511 137.40401 -25.268923 -61.311985
32295000000 -26.692446 -63.722225 -0.89338577 137.11948 -0.87946838 137.06218 -24.905161 -59.487949
32322500000 -27.526188 -60.442471 -0.90099347 136.56032 -0.8999908 136.41664 -25.184296 -59.937675
32350000000 -27.970612 -55.502666 -0.88177711 136.00838 -0.87707025 135.9969 -25.393158 -61.036701
32377500000 -26.538979 -57.879059 -0.8745892 135.43163 -0.88020188 135.38518 -25.483747 -56.376434
32405000000 -27.521746 -58.880051 -0.90780091 134.99173 -0.88973814 134.92137 -25.005987 -58.130676
32432500000 -27.859079 -55.626007 -0.89751637 134.42528 -0.89680541 134.30479 -25.193882 -61.197479
32460000000 -26.447786 -54.665951 -0.87580264 133.89714 -0.89231682 133.86813 -25.291716 -56.818855
32487500000 -26.840303 -55.912495 -0.87520635 133.48337 -0.88599765 133.51595 -25.093296 -56.449589
32515000000 -27.38269 -52.094635 -0.85442978 133.00742 -0.88741845 132.96338 -24.987007 -58.236141
32542500000 -26.336075 -53.250832 -0.8836816 132.36418 -0.9053064 132.33292 -25.052998 -56.063911
32570000000 -26.214409 -51.258774 -0.89833254 131.92183 -0.88711774 131.80591 -24.973333 -52.04044
32597500000 -26.637501 -54.551601 -0.88900393 131.43509 -0.89513499 131.3923 -24.931499 -56.252975
32625000000 -26.517494 -48.310501 -0.86477119 131.00267 -0.88902396 130.8528 -24.956032 -54.120956
32652500000 -25.938353 -52.180706 -0.87851632 130.51723 -0.89791363 130.44678 -24.861567 -51.33638
32680000000 -26.6178 -49.384991 -0.89524633 129.98839 -0.91009414 129.98503 -24.823101 -55.153763
32707500000 -26.738688 -45.673615 -0.87480259 129.41365 -0.89603919 129.31902 -25.428177 -51.726143
32735000000 -25.848305 -43.224777 -0.91095924 128.81137 -0.90780187 128.86469 -24.760361 -50.122482
32762500000 -26.506289 -48.167927 -0.88590562 128.4619 -0.90378475 128.53322 -24.710726 -53.176907
32790000000 -26.473261 -44.130268 -0.87672877 127.9176 -0.89108926 127.95975 -24.795227 -49.456268
32817500000 -25.686348 -45.568272 -0.8869552 127.57094 -0.91608179 127.34319 -24.422119 -47.060665
32845000000 -25.977209 -44.809444 -0.89832491 127.08648 -0.89713573 126.83933 -24.76862 -48.256199
32872500000 -26.087679 -46.271412 -0.91283315 126.35728 -0.89474058 126.4406 -24.956488 -48.674797
32900000000 -25.401707 -41.230545 -0.89777297 125.95535 -0.91952676 125.81434 -24.562922 -44.882309
32927500000 -25.13641 -42.615036 -0.89442122 125.60176 -0.91644716 125.33366 -24.756927 -46.495457
32955000000 -25.874205 -43.99971 -0.90933448 124.98454 -0.90155858 124.82064 -24.417933 -47.118633
32982500000 -25.48945 -39.306511 -0.90606439 124.42423 -0.92178136 124.3669 -24.426865 -43.638924
33010000000 -24.491819 -40.43615 -0.91495425 124.0102 -0.91643888 124.01563 -24.292259 -43.893841
33037500000 -25.31942 -39.095985 -0.90452784 123.50089 -0.9105525 123.54996 -24.390928 -46.21756
33065000000 -24.800135 -38.27528 -0.89031196 122.9044 -0.89749157 122.98429 -24.208878 -44.6152
33092500000 -24.360529 -42.071419 -0.8917011 122.59799 -0.91780442 122.38493 -24.150938 -44.662415
33120000000 -24.694021 -41.27964 -0.90820611 122.0968 -0.90710127 121.96278 -24.251423 -44.376431
33147500000 -24.753851 -38.425606 -0.91186893 121.58298 -0.90200078 121.40424 -24.198828 -44.188545
33175000000 -23.985928 -36.618019 -0.91828823 120.98832 -0.90798879 121.00251 -23.797272 -40.915745
33202500000 -24.233969 -39.32383 -0.88751405 120.57191 -0.92980516 120.47243 -23.925783 -41.171082
33230000000 -24.33786 -39.625534 -0.90720975 120.02955 -0.91845649 119.94871 -24.192734 -42.908886
33257500000 -24.394636 -36.638039 -0.89745784 119.30567 -0.90764201 119.45848 -23.586084 -43.759285
33285000000 -24.031601 -37.262878 -0.91831893 119.09438 -0.90929043 118.93822 -23.898327 -40.158409
33312500000 -24.490889 -39.762074 -0.9126814 118.45301 -0.92382932 118.62013 -23.654985 -41.725258
33340000000 -23.93516 -36.490826 -0.88978702 118.00444 -0.92979109 118.03052 -23.370821 -40.236275
33367500000 -23.651638 -36.248585 -0.92122287 117.48868 -0.91545498 117.41583 -23.680944 -39.881569
33395000000 -23.641361 -37.06636 -0.904181 117.00909 -0.92428404 116.95701 -23.783926 -39.811119
33422500000 -23.467949 -35.476021 -0.90889311 116.39339 -0.92562068 116.50393 -23.412136 -37.98801
33450000000 -23.188623 -34.99707 -0.91610992 116.10277 -0.93256921 116.04978 -23.079954 -37.705875
33477500000 -23.177769 -38.460312 -0.92085069 115.55038 -0.9298507 115.3298 -23.393084 -41.266151
33505000000 -23.384054 -36.973988 -0.90336847 115.05225 -0.91127789 114.82425 -23.669262 -38.466057
33532500000 -22.998764 -32.596931 -0.89907819 114.6654 -0.9257437 114.57324 -22.665487 -38.339413
33560000000 -22.871885 -36.116154 -0.90916342 114.03484 -0.91679341 114.01852 -22.924456 -38.299358
33587500000 -22.756617 -35.728569 -0.89524317 113.62098 -0.91897368 113.55216 -23.170254 -36.049717
33615000000 -22.642521 -32.766273 -0.9177894 113.33948 -0.91591108 113.02684 -22.589643 -36.083157
33642500000 -22.254721 -35.24966 -0.90813524 112.63894 -0.92881703 112.44261 -22.468485 -40.653576
33670000000 -22.504847 -35.16906 -0.94912201 112.07349 -0.93442482 111.95264 -23.189861 -36.576427
33697500000 -22.771132 -30.832935 -0.9057321 111.64445 -0.92962945 111.52325 -22.363483 -35.092876
33725000000 -22.157337 -36.766636 -0.92152721 111.00323 -0.90321487 111.07992 -22.351851 -38.483902
33752500000 -22.226301 -33.096561 -0.93715036 110.54231 -0.93144727 110.47303 -22.717497 -36.369564
33780000000 -22.230137 -34.740868 -0.92248267 109.98331 -0.94491529 110.01823 -22.468685 -35.048145
33807500000 -22.065933 -32.112675 -0.91257888 109.55328 -0.92395836 109.53422 -22.202015 -38.716164
33835000000 -21.88586 -34.41983 -0.92815989 109.1725 -0.95879418 108.98703 -22.382589 -38.828068
33862500000 -22.096699 -33.423294 -0.9598434 108.54867 -0.93404508 108.70803 -22.27282 -34.623989
33890000000 -22.048685 -30.767855 -0.93978405 108.11069 -0.94970661 107.99068 -22.054552 -35.880436
33917500000 -21.405748 -32.004318 -0.91881883 107.56675 -0.9333111 107.51248 -22.029995 -36.322624
33945000000 -21.634361 -34.65572 -0.93235195 107.05763 -0.95438617 107.06113 -22.068485 -34.385193
33972500000 -21.513412 -30.295017 -0.90114224 106.69183 -0.94478208 106.62614 -21.672297 -34.423519
34000000000 -21.118137 -31.71875 -0.92930532 106.18656 -0.93248349 105.97796 -21.547714 -39.981899
34027500000 -21.225821 -33.874546 -0.95010865 105.62041 -0.91847438 105.56202 -22.034529 -33.648975
34055000000 -21.476486 -32.875309 -0.92848682 104.92641 -0.94620645 105.22285 -21.858898 -34.670193
34082500000 -21.05216 -30.284925 -0.90655428 104.81651 -0.93203497 104.54623 -21.175919 -37.770931
34110000000 -21.046761 -34.37397 -0.93950927 104.11112 -0.91413236 104.09235 -21.803171 -36.239048
34137500000 -21.255011 -31.527576 -0.93719625 103.64196 -0.94498348 103.55149 -21.651819 -33.681618
34165000000 -20.82925 -30.933033 -0.93063319 103.19144 -0.92992318 103.02486 -21.147804 -35.703911
34192500000 -20.889446 -33.874393 -0.9279781 102.53793 -0.92605639 102.43773 -21.564959 -37.733662
34220000000 -20.763477 -33.383816 -0.91077214 102.1205 -0.93974292 102.05383 -21.257214 -33.581818
34247500000 -20.789265 -29.607054 -0.90467477 101.5896 -0.9547835 101.61517 -20.998079 -34.463383
34275000000 -20.108925 -30.916767 -0.94535232 101.24359 -0.92838454 101.10162 -20.662859 -34.719952
34302500000 -20.483896 -34.242844 -0.92655301 100.85756 -0.94404435 100.71638 -21.267115 -33.422703
34330000000 -20.500435 -30.470684 -0.92898792 100.2751 -0.9231953 99.951065 -20.917118 -34.746288
34357500000 -20.079561 -30.53838 -0.91714478 99.748512 -0.92632675 99.701004 -20.565399 -37.336494
34385000000 -20.214746 -32.845154 -0.92923057 99.225418 -0.91701716 99.13755 -21.310436 -35.09882
34412500000 -20.438919 -32.529202 -0.92650843 98.604019 -0.9243471 98.722969 -20.617676 -34.356194
34440000000 -19.834873 -31.728575 -0.91789651 98.243034 -0.92270708 98.01506 -20.285841 -38.780792
34467500000 -19.949865 -32.964943 -0.9176442 97.758507 -0.94954908 97.51622 -20.808426 -33.021606
34495000000 -20.170914 -32.855247 -0.95105398 97.303009 -0.92110127 97.066422 -20.539555 -33.442242
34522500000 -20.011797 -31.250841 -0.91678029 96.576309 -0.92648667 96.622467 -20.266052 -36.75639
34550000000 -19.536684 -31.795736 -0.90250742 96.130409 -0.93596107 96.162163 -20.511288 -36.75367
34577500000 -19.80789 -34.466198 -0.94575715 95.682465 -0.90391994 95.532097 -20.733002 -33.651432
34605000000 -19.996248 -30.894861 -0.94692427 95.132011 -0.94388092 95.135666 -20.122169 -35.588062
34632500000 -19.396767 -31.828142 -0.90913022 94.670631 -0.9324553 94.538643 -20.316498 -34.176476
34660000000 -19.445736 -34.556427 -0.947375 94.171188 -0.94480169 94.095222 -20.598576 -32.786438
34687500000 -19.89283 -32.301498 -0.92778903 93.711403 -0.92309129 93.59359 -19.932833 -36.047756
34715000000 -19.259233 -31.030735 -0.91470498 93.288101 -0.94134408 93.208679 -20.061001 -35.956387
34742500000 -19.536459 -34.476643 -0.93355691 92.688255 -0.92244136 92.692245 -20.34004 -34.903439
34770000000 -19.692629 -31.797878 -0.92955637 92.05278 -0.92137873 92.087158 -20.224707 -33.447159
34797500000 -19.111078 -33.847374 -0.93877333 91.635551 -0.95927095 91.699036 -19.747494 -36.485512
34825000000 -19.048708 -33.350368 -0.89909381 91.153908 -0.92180055 91.137474 -20.212334 -36.215393
34852500000 -19.357294 -34.229332 -0.92618358 90.735237 -0.94494104 90.642403 -20.068361 -33.989384
34880000000 -19.273441 -32.688896 -0.93334287 90.22847 -0.94392914 90.161858 -19.439379 -36.782185
34907500000 -19.013321 -32.659794 -0.93006718 89.858902 -0.94192731 89.609291 -19.917196 -34.615852
34935000000 -19.066111 -35.096207 -0.92478496 89.152237 -0.95113552 89.140152 -20.08964 -35.690231
34962500000 -18.919098 -33.775955 -0.96244311 88.623314 -0.93758237 88.674149 -19.375729 -35.764465
34990000000 -18.702459 -33.384254 -0.92867535 88.279282 -0.92601889 88.160294 -19.578279 -35.419365
35017500000 -18.86829 -35.650806 -0.93637794 87.606537 -0.94457936 87.70356 -19.84584 -35.712208
35045000000 -18.987064 -35.158115 -0.94732803 87.09211 -0.9340573 86.982758 -19.313469 -36.767853
35072500000 -18.598757 -32.495125 -0.96602625 86.794876 -0.96246248 86.797523 -19.412199 -36.328735
35100000000 -18.734112 -35.3974 -0.9570052 86.304893 -0.94226563 86.241173 -19.741617 -35.665611
35127500000 -18.773285 -34.905125 -0.96290672 85.658012 -0.97251773 85.561737 -19.189297 -35.583012
35155000000 -18.572569 -33.567387 -0.94493586 85.32991 -0.94845372 85.096474 -19.071932 -35.814667
35182500000 -18.377451 -35.492126 -0.94498414 84.665359 -0.97766513 84.799141 -19.251223 -35.648319
35210000000 -18.580923 -38.454277 -0.9301098 84.503494 -0.94379723 84.238228 -19.223871 -37.988056
35237500000 -18.400429 -33.968643 -0.93141747 83.671661 -0.95054907 83.804123 -18.876274 -36.899727
35265000000 -18.213661 -35.466911 -0.93709445 83.343307 -0.93967575 83.370575 -18.823792 -37.555229
35292500000 -18.319279 -38.712715 -0.95808178 82.821518 -0.96612096 82.629265 -18.853804 -38.352283
35320000000 -18.29163 -36.649841 -0.93245655 82.241463 -0.9578113 82.176109 -18.713936 -38.38517
35347500000 -18.109451 -35.705818 -0.93385637 81.836708 -0.97953266 81.761505 -18.792425 -37.320103
35375000000 -18.066545 -39.803631 -0.94827563 81.419624 -0.94118041 81.307373 -19.068495 -35.999062
35402500000 -18.305592 -38.33564 -0.9627859 80.71463 -0.95375806 80.596573 -18.439295 -38.106564
35430000000 -17.869543 -36.940086 -0.93961304 80.150215 -0.96290481 80.240334 -18.480612 -37.600235
35457500000 -17.8468 -40.598946 -0.94416529 79.738167 -0.94375253 79.717834 -18.764076 -36.370926
35485000000 -17.861629 -38.974342 -0.95640862 79.398262 -0.96898776 79.18428 -18.557186 -39.350979
35512500000 -18.033785 -37.169514 -0.92510015 78.804176 -0.97624791 78.863396 -18.462376 -40.257607
35540000000 -17.691551 -39.731647 -0.93454164 78.371574 -0.97520697 78.247757 -18.744661 -37.077778
35567500000 -18.00631 -41.456116 -0.96786481 77.788048 -0.93264073 77.53389 -17.986671 -39.956673
35595000000 -17.838291 -39.343445 -0.94856644 77.329712 -0.95637476 77.198006 -18.419735 -40.69368
35622500000 -17.595331 -39.937584 -0.93822777 76.742981 -0.95692581 76.743011 -18.4245 -39.228115
35650000000 -17.512897 -44.023399 -0.93643606 76.374611 -0.95591408 76.436836 -18.108967 -40.381966
35677500000 -17.642975 -41.903316 -0.93439114 75.822144 -0.95991862 75.799385 -17.987455 -40.53141
35705000000 -17.463858 -40.641636 -0.93340898 75.294617 -0.97469145 75.185295 -18.144066 -41.091499
35732500000 -17.315123 -43.424931 -0.94696903 74.844986 -0.95940977 74.801392 -17.961901 -41.940559
35760000000 -17.613562 -42.825668 -0.94219774 74.426605 -0.93840575 74.265686 -17.777016 -42.116436
35787500000 -17.535896 -40.850574 -0.95557016 73.655098 -0.97359067 73.799843 -18.294308 -44.266785
35815000000 -17.510357 -44.313141 -0.94990504 73.221893 -0.98746544 73.239967 -17.955122 -41.510792
35842500000 -17.347507 -44.677101 -0.94465178 73.019592 -0.94595283 72.781853 -17.784241 -43.37801
35870000000 -17.518579 -40.825943 -0.97537321 72.281799 -0.96800262 72.46669 -17.966024 -43.062294
35897500000 -17.106979 -43.722057 -1.0152359 71.789284 -0.96734893 71.713501 -18.000198 -41.470078
35925000000 -17.172384 -45.811905 -0.95711911 71.315376 -0.95796174 71.255432 -17.763142 -44.218098
35952500000 -17.500113 -42.813129 -0.95981663 70.936806 -0.95071274 70.766884 -17.491066 -44.005665
35980000000 -17.209026 -43.852734 -0.97034568 70.188004 -0.95645732 70.203705 -18.258131 -44.624367
36007500000 -17.166502 -44.572723 -0.95219582 69.723717 -0.97918791 69.944244 -17.480135 -42.468468
36035000000 -17.351025 -45.214497 -0.98104864 69.386337 -0.98117483 69.411278 -17.689323 -45.777672
36062500000 -17.132057 -43.905708 -0.9602564 68.69062 -1.0324032 68.893982 -17.857525 -43.967815
36090000000 -17.048481 -46.98481 -1.0305961 68.402588 -1.0110708 68.486374 -17.482298 -43.118317
36117500000 -17.173733 -47.362663 -0.96157283 67.950462 -0.95033228 67.825699 -17.522728 -45.929089
36145000000 -17.132994 -45.612854 -0.98986554 67.376701 -0.98447603 67.230415 -17.98719 -47.27626
36172500000 -16.822699 -46.494492 -1.0038538 66.999664 -0.99214917 67.064148 -17.716869 -43.669586
36200000000 -16.913603 -48.105747 -1.0141979 66.623528 -0.9797039 66.469505 -17.254538 -44.013332
36227500000 -17.056044 -45.537792 -0.98290884 65.953407 -1.0108513 65.880699 -17.503822 -47.319565
36255000000 -16.843918 -46.528503 -0.99445254 65.268784 -0.95624214 65.610504 -17.628815 -43.429043
36282500000 -16.671545 -48.836803 -0.98697448 65.044991 -0.98633575 65.172943 -16.912996 -44.809662
36310000000 -16.836647 -47.688351 -0.98105025 64.73217 -0.98095357 64.349785 -17.341429 -47.804588
36337500000 -16.737648 -47.073864 -1.0031089 63.826302 -0.95611537 63.804977 -17.646902 -47.792072
36365000000 -16.625107 -49.406235 -1.0067904 63.763252 -1.0383618 63.555477 -17.143007 -44.422958
36392500000 -16.934301 -49.890648 -0.96906447 63.154518 -0.97521961 63.072365 -16.933456 -48.486298
36420000000 -16.667297 -48.232502 -0.98007923 62.529037 -0.98284006 62.698734 -17.233595 -50.332985
36447500000 -16.398537 -49.654816 -1.0099465 61.960743 -0.99184567 62.115887 -16.817223 -46.326775
36475000000 -16.364073 -49.92625 -0.98176771 61.525162 -0.96371394 61.652313 -16.871841 -47.336464
36502500000 -16.641308 -48.431004 -0.97109729 61.073509 -0.96099979 60.899872 -17.322134 -49.079315
36530000000 -16.384586 -50.41518 -0.97594386 60.491932 -0.99171555 60.6236 -16.986917 -46.751568
36557500000 -16.006172 -53.24752 -0.96511513 60.526165 -0.98291081 60.067814 -16.640862 -50.366196
36585000000 -16.606756 -49.766872 -0.96487236 59.811256 -0.97308606 59.480373 -16.948563 -53.493507
36612500000 -16.647615 -50.010651 -0.97484702 59.143715 -1.0191531 59.021255 -16.881487 -49.912155
36640000000 -16.261744 -52.510124 -1.0042925 58.620358 -0.98184788 58.614288 -16.728567 -49.155762
36667500000 -16.373697 -50.122913 -1.0164971 58.312119 -1.0117351 58.183495 -16.655088 -52.567646
36695000000 -16.403015 -49.511143 -0.96827209 57.532822 -0.97181994 57.40815 -17.11817 -51.213322
36722500000 -16.1465 -53.450684 -1.0028841 57.278725 -0.93204975 57.172009 -16.635241 -50.16404
36750000000 -16.269526 -52.895435 -0.98771143 56.55056 -0.98565459 56.611668 -16.510857 -55.159298
36777500000 -16.417814 -52.312744 -0.97783697 56.394196 -0.95186418 55.954102 -16.932049 -53.090771
36805000000 -16.247135 -54.457012 -0.95929098 55.385551 -0.96241921 55.620705 -16.550667 -51.934574
36832500000 -16.143318 -53.70285 -0.96701676 54.974995 -1.0081999 55.172077 -16.717974 -53.968582
36860000000 -16.564987 -52.045399 -0.962183 54.736225 -0.98357856 54.535961 -16.735552 -53.992214
36887500000 -16.055445 -54.174122 -0.98622632 54.088013 -1.0033652 54.158329 -16.641258 -52.508915
36915000000 -15.757339 -56.202648 -0.95534408 53.528172 -0.95907789 53.852402 -16.369041 -54.738895
36942500000 -16.368235 -52.072166 -0.98850965 53.208748 -0.97556245 53.041279 -16.473289 -57.127304
36970000000 -16.167307 -53.388634 -0.97422755 52.59901 -0.99543136 52.360649 -16.747276 -53.423382
36997500000 -15.873531 -56.581238 -0.99038249 52.36758 -1.0046158 51.955708 -16.448593 -52.367931
37025000000 -15.897441 -54.092304 -1.0091943 51.698891 -0.97323763 51.543335 -16.448484 -57.242489
37052500000 -16.242758 -56.328159 -0.94677365 51.21122 -1.0009332 51.147903 -16.470621 -55.110172
37080000000 -15.551372 -56.836475 -0.97326487 50.857162 -0.99702549 50.688015 -16.506601 -52.71616
37107500000 -15.880645 -55.108662 -0.95833516 50.354839 -1.0328455 50.124176 -16.350069 -57.249546
37135000000 -16.15579 -56.476845 -0.98497224 49.868919 -0.99113792 49.423038 -16.520826 -57.055069
37162500000 -15.804316 -57.705269 -0.97837812 49.461971 -0.97518075 49.257622 -16.406841 -54.828224
37190000000 -15.84409 -57.26675 -0.9905194 48.689793 -1.0167222 48.448372 -16.64419 -57.942455
37217500000 -16.175352 -57.825603 -0.96699053 48.23838 -0.98261642 48.174488 -16.36319 -57.742466
37245000000 -15.866945 -57.398006 -0.96113193 47.73465 -0.99345219 47.785625 -16.587669 -54.097546
37272500000 -15.497309 -58.129814 -0.96682429 47.286335 -0.98347795 47.115574 -16.422745 -58.539276
37300000000 -16.058601 -58.840679 -0.99013048 46.972382 -0.96428889 46.767838 -16.353104 -59.009686
37327500000 -15.984308 -57.768021 -0.97528893 46.309372 -0.96007299 46.432564 -16.359228 -57.736477
37355000000 -15.453463 -59.704185 -0.97541469 45.928204 -0.97299153 45.684189 -16.303391 -59.79834
37382500000 -15.94101 -59.14922 -0.96944726 45.338642 -0.99924737 45.434971 -16.199841 -59.932213
37410000000 -16.154337 -58.202282 -0.9585343 44.846607 -0.94624573 44.89159 -16.476765 -58.679447
37437500000 -15.499285 -58.955822 -0.9727211 44.442867 -0.97057617 44.436028 -16.508797 -59.809925
37465000000 -15.72571 -61.017414 -0.98971301 44.04678 -0.97157127 43.731159 -16.108667 -62.063438
37492500000 -16.222319 -62.562305 -0.97059137 43.193195 -0.97325122 43.338863 -16.294159 -59.380791
37520000000 -15.624115 -59.937035 -0.98848265 42.796501 -0.97567815 42.79483 -16.408321 -59.371449
37547500000 -15.768972 -61.979267 -0.97558415 42.090034 -0.96723312 42.032322 -16.196207 -62.403305
37575000000 -16.124201 -61.563644 -0.9624092 41.762005 -1.0073016 41.702721 -16.211716 -63.775005
37602500000 -15.587975 -61.314404 -1.0030228 41.459419 -0.96965438 41.442955 -16.233103 -61.218842
37630000000 -15.639511 -61.579205 -0.9905386 40.848705 -0.9612059 40.903374 -16.37232 -63.35463
37657500000 -16.026999 -63.568798 -0.962529 40.221336 -1.040372 40.30143 -16.26778 -64.219223
37685000000 -15.896488 -62.063934 -0.99182421 39.891861 -0.96870303 39.767517 -16.419987 -61.741749
37712500000 -15.522833 -61.621189 -0.96798617 39.255463 -0.97696972 39.276318 -16.079962 -62.530514
37740000000 -15.851303 -64.355873 -0.95560855 38.796486 -1.0125083 39.002106 -16.322847 -65.742386
37767500000 -15.949524 -63.488823 -0.97123617 38.109055 -0.93481165 38.363998 -16.197144 -63.470913
37795000000 -15.405646 -63.036972 -0.96564984 38.130451 -0.97675836 37.791527 -16.299015 -63.813419
37822500000 -15.64548 -64.985153 -0.97742587 37.198902 -0.97190279 37.413521 -16.247961 -66.500374
37850000000 -15.951431 -64.960739 -0.94436216 36.985004 -0.97084999 36.886581 -16.193369 -63.497967
37877500000 -15.595099 -64.627571 -0.97872055 36.642097 -0.9638235 36.40126 -16.340483 -63.297523
37905000000 -15.797342 -66.735664 -0.97686923 36.097015 -0.94567668 35.830242 -16.134466 -67.401848
37932500000 -15.771778 -68.491798 -0.97667962 35.307281 -0.97702712 35.540123 -16.440722 -65.847153
37960000000 -15.88704 -64.178543 -0.95469707 34.858315 -0.93706268 34.812561 -16.438377 -65.323463
37987500000 -15.735984 -65.536163 -0.92876059 34.286053 -0.96363217 34.216026 -16.019186 -68.556404
38015000000 -16.109678 -68.787773 -0.93960822 34.118095 -0.94702375 33.751881 -16.461313 -67.388474
38042500000 -15.948351 -65.7845 -0.95708394 33.544266 -0.98178297 33.425678 -16.548685 -65.376038
38070000000 -15.660155 -65.372139 -0.96488011 33.20882 -0.97784632 32.734936 -16.17845 -67.697174
38097500000 -15.785889 -67.38105 -0.93240237 32.652676 -0.95613956 32.483547 -16.541245 -68.661232
38125000000 -16.039404 -67.041611 -0.94895548 31.725523 -0.99936467 31.728558 -16.573486 -65.93161
38152500000 -15.723751 -67.410034 -0.94589394 31.389122 -0.97191638 31.570702 -16.141951 -68.770538
38180000000 -15.761977 -69.218132 -0.95706201 30.860252 -0.95589763 30.879519 -16.336226 -70.332176
38207500000 -15.963077 -69.26944 -0.96069169 30.278778 -0.92991453 30.284325 -16.529758 -66.960442
38235000000 -15.832155 -68.102829 -0.97472388 29.774448 -0.96353978 29.840666 -16.563929 -67.352562
38262500000 -15.957207 -70.160545 -0.95413464 29.381128 -0.97672433 29.501961 -16.176601 -70.676285
38290000000 -16.345661 -70.176407 -0.94795102 28.999611 -0.95938557 29.013063 -16.72077 -70.052841
38317500000 -15.867372 -68.922684 -0.95594049 28.152922 -0.99631757 28.545322 -16.522505 -68.718109
38345000000 -15.996783 -70.17688 -1.0013733 28.059206 -0.96495414 27.915901 -16.255402 -72.050629
38372500000 -15.893332 -71.646614 -0.96422231 27.575741 -0.94948757 27.448069 -16.707745 -72.283554
38400000000 -16.147247 -71.463112 -0.93831456 26.844273 -0.96494544 26.89032 -16.334478 -68.338478
38427500000 -15.851586 -71.973915 -0.96619272 26.45005 -0.9978013 26.287952 -16.164194 -71.271889
38455000000 -15.943963 -72.106781 -0.94184244 26.230406 -0.9538132 25.99745 -16.861485 -73.938042
38482500000 -16.38018 -73.012444 -0.95098728 25.368916 -0.98122352 25.434553 -16.79813 -73.415924
38510000000 -16.049953 -70.072258 -0.96044594 25.102993 -0.94688082 24.81673 -16.159521 -71.968124
38537500000 -15.747961 -73.730301 -0.95439458 24.590443 -0.97454762 24.415537 -16.567337 -74.095657
38565000000 -16.177908 -73.276649 -0.94858605 23.906666 -0.90299404 23.867804 -17.023283 -71.770676
38592500000 -16.094252 -72.278816 -0.94401765 23.323608 -0.95890486 23.379173 -16.673918 -70.242798
38620000000 -15.98997 -74.407135 -0.96940684 23.024637 -0.97461629 23.120287 -16.27121 -75.717934
38647500000 -16.132219 -74.572243 -0.94416338 22.623219 -0.92109263 22.643724 -17.156696 -75.273773
38675000000 -15.98877 -73.334755 -0.94091195 21.60593 -0.95353657 21.781956 -16.566029 -72.574097
38702500000 -16.140297 -73.180206 -0.93979913 21.467798 -0.98831367 21.383684 -16.235029 -75.723885
38730000000 -16.095261 -74.782104 -0.91226369 21.073225 -0.95392376 20.984575 -16.955624 -75.87413
38757500000 -16.615496 -74.735519 -0.92666864 20.243296 -0.95034355 20.188278 -16.895336 -72.30188
38785000000 -15.856128 -74.236412 -0.98259431 19.86145 -0.98936063 19.673719 -16.39716 -75.58445
38812500000 -16.141964 -76.209282 -0.94097531 19.793348 -0.92012149 19.610067 -16.854445 -78.710762
38840000000 -16.551569 -77.041153 -0.91843086 18.86585 -0.972588 19.0186 -17.125948 -76.03952
38867500000 -16.344839 -74.267883 -0.96179539 18.403738 -0.9631927 18.360731 -16.292902 -74.168526
38895000000 -16.161068 -76.431618 -0.98139775 18.212044 -0.97403252 17.914276 -16.820644 -79.830017
38922500000 -16.510483 -77.595024 -0.96637934 17.474886 -0.93803501 17.325947 -17.132202 -79.578354
38950000000 -16.36404 -75.346016 -0.98169112 16.68646 -0.95879674 16.683292 -16.389875 -74.914238
38977500000 -16.206409 -78.644882 -0.99147844 16.418997 -0.99236161 16.346807 -16.686432 -78.187599
39005000000 -16.54253 -77.364388 -0.92771721 15.861414 -0.91916782 15.97326 -17.271898 -80.897987
39032500000 -16.73514 -76.78595 -0.91912848 15.652558 -0.94444072 15.433938 -17.000452 -75.974014
39060000000 -16.691315 -76.052261 -0.94071585 15.016811 -0.99659663 14.847696 -16.733095 -77.9673
39087500000 -16.392139 -79.620804 -0.89965928 14.612372 -0.97268546 14.495895 -17.484175 -82.312363
39115000000 -16.632652 -77.484879 -0.90495408 13.899437 -0.96592599 13.692784 -17.482965 -77.126846
39142500000 -16.755827 -75.199074 -0.98114109 13.184191 -0.99346 13.131876 -16.80879 -79.155746
39170000000 -16.381624 -79.247063 -0.94641632 13.176397 -0.95900464 13.047688 -17.1381 -83.384552
39197500000 -16.410694 -77.380257 -0.91219115 12.573219 -0.96591401 12.315422 -17.684185 -78.271187
39225000000 -16.826359 -76.238937 -0.94824213 11.507928 -0.95596987 11.631564 -17.070995 -79.208878
39252500000 -16.291557 -80.226936 -1.0099947 11.483177 -0.94468617 11.530094 -17.397692 -86.095337
39280000000 -16.592413 -78.75061 -0.90917587 10.881128 -0.99153602 10.987818 -17.50182 -84.28405
39307500000 -17.168386 -79.264809 -0.93874091 10.49714 -0.90935838 10.024865 -17.10947 -75.672203
39335000000 -16.981478 -81.166389 -0.96047181 9.8777857 -1.0406737 10.085224 -17.147148 -81.526016
39362500000 -16.589842 -79.732933 -0.94249105 9.4607887 -0.97877181 9.4158669 -17.408075 -86.337418
39390000000 -17.275209 -80.425186 -0.90738648 8.9196053 -0.93075091 8.9482851 -17.131842 -78.368141
39417500000 -17.024151 -79.880264 -0.98031282 8.6377716 -0.97690135 8.3710737 -17.524761 -82.452087
39445000000 -16.717772 -80.059814 -0.96742004 7.8932538 -0.9487474 8.1416693 -17.439592 -86.997223
39472500000 -17.077431 -78.541176 -0.93694061 7.5869403 -0.95446485 7.1155272 -17.469646 -81.548256
39500000000 -17.225191 -79.712578 -0.95006776 6.6809459 -0.98478448 6.7279701 -17.23514 -82.655067
39527500000 -16.709732 -81.646706 -0.95915151 6.3808727 -0.97880036 6.3799067 -17.623198 -89.30867
39555000000 -17.521303 -80.860939 -0.9637078 5.7722788 -0.93508643 5.7976627 -17.596006 -84.817352
39582500000 -17.38537 -80.538147 -0.95651799 5.2418962 -0.97701967 5.4391632 -17.492821 -82.804932
39610000000 -16.881992 -81.232758 -0.92325586 5.1009445 -0.95889485 4.9436464 -17.348431 -85.696205
39637500000 -17.167006 -82.763962 -0.99175298 4.6803684 -0.999933 4.4809766 -18.179609 -86.8228
39665000000 -17.711102 -83.433258 -0.92586094 3.7423337 -0.94160903 3.8367474 -17.590464 -79.009399
39692500000 -16.761642 -80.865158 -1.0160179 3.3880551 -0.99632049 3.4506271 -17.421999 -86.098152
39720000000 -17.234835 -81.821312 -1.0018688 3.0327606 -1.0396014 3.0810511 -18.108727 -89.481483
39747500000 -17.354931 -83.265434 -0.8986783 2.1735668 -0.95123994 2.4196315 -17.869392 -82.995209
39775000000 -17.352724 -81.728691 -0.98970979 1.8960866 -1.0025594 1.8896888 -17.804022 -84.733894
39802500000 -16.954638 -80.089493 -1.019329 1.4561095 -1.0191634 1.479785 -17.945227 -91.883118
39830000000 -17.575893 -85.170074 -0.90915799 1.0768092 -0.95714462 1.0495437 -18.306393 -84.274673
39857500000 -17.148388 -83.256226 -0.94807404 0.59336853 -0.94759172 0.29888722 -18.173435 -85.809212
39885000000 -17.13172 -81.354996 -1.0107778 -0.13990402 -0.97332442 -0.081232421 -17.975626 -89.44532
39912500000 -17.71678 -85.664711 -0.97137344 -0.28015789 -0.99045402 -0.34836262 -18.516762 -87.743736
39940000000 -17.669565 -84.738571 -0.95062029 -0.90322191 -0.9546774 -1.000631 -17.993631 -85.257339
39967500000 -17.194344 -82.73027 -1.0089216 -1.4697999 -0.9966979 -1.4596736 -18.372324 -90.306267
39995000000 -17.597891 -83.461067 -0.96444666 -2.0694044 -1.024502 -1.8710831 -18.600492 -90.718307
40022500000 -17.84201 -88.548988 -0.96269381 -2.255373 -0.96832293 -2.5721421 -18.335512 -82.453964
40050000000 -17.448061 -82.807503 -1.0067581 -3.0372915 -0.99608082 -2.8051095 -18.151035 -88.610977
40077500000 -17.696388 -84.746048 -0.98780471 -3.4967017 -1.0299227 -3.5333772 -18.199741 -89.448975
40105000000 -17.997978 -86.545685 -0.92615342 -4.0477428 -0.98189396 -3.9456615 -18.578562 -85.856377
40132500000 -17.603783 -83.025749 -1.0129561 -4.496664 -0.98495597 -4.6491237 -18.357685 -89.466934
40160000000 -17.790102 -83.837059 -1.0159891 -5.0251098 -1.000948 -5.0602913 -18.863628 -90.890556
40187500000 -17.868891 -89.029732 -0.94224823 -5.3469758 -0.94848561 -5.5246844 -18.517235 -87.143211
40215000000 -17.986635 -86.485786 -0.99795407 -5.937304 -0.93285191 -6.131278 -18.450605 -88.343201
40242500000 -17.937992 -84.168182 -0.98617333 -6.4436679 -1.0065814 -6.2456131 -19.037109 -90.840935
40270000000 -18.012815 -86.658226 -0.98718959 -7.0436263 -0.92864102 -6.9058318 -18.840979 -90.72419
40297500000 -17.827188 -87.459572 -0.9639793 -7.3618364 -0.96678293 -7.6137571 -18.950506 -87.211517
40325000000 -18.240685 -82.569199 -0.97675449 -7.9440413 -0.97286391 -8.2233686 -18.894663 -89.38205
40352500000 -17.874456 -88.710541 -0.96152145 -8.3925953 -0.98676914 -8.2848845 -19.145926 -89.547104
40380000000 -17.999332 -88.100845 -0.95097411 -8.9246559 -0.9484911 -8.8140106 -18.850828 -89.648582
40407500000 -18.195982 -84.78643 -0.98525447 -9.5391521 -0.93880612 -9.4802561 -19.60014 -92.585663
40435000000 -18.181404 -89.441437 -0.99624461 -9.9686651 -0.99681383 -10.103065 -19.21629 -87.772682
40462500000 -18.352463 -87.875374 -0.97972405 -10.63796 -0.94062102 -10.462437 -18.945789 -89.964165
40490000000 -18.654024 -87.271484 -0.99376065 -10.83816 -0.95296818 -10.979339 -19.607824 -90.814224
40517500000 -18.609501 -86.121284 -0.98174143 -11.344744 -0.957497 -11.414612 -19.318062 -89.812675
40545000000 -18.308928 -91.131592 -0.94876707 -11.949742 -0.94681805 -11.896827 -19.481003 -87.597992
40572500000 -18.82098 -87.553406 -0.97056383 -12.362535 -0.97108632 -12.43667 -19.581585 -93.608345
40600000000 -18.598789 -85.102425 -0.97969157 -13.032799 -0.98487741 -13.03052 -19.434046 -90.980438
40627500000 -18.15547 -90.689117 -0.94969308 -13.406439 -0.94903535 -13.57309 -19.551636 -88.559639
40655000000 -18.965416 -86.223663 -0.96948677 -13.958967 -0.95030618 -13.991093 -19.465662 -91.251755
40682500000 -19.12978 -88.106194 -0.94182312 -14.341678 -0.99092847 -14.582726 -20.107147 -92.644707
40710000000 -18.225338 -89.474373 -0.93635064 -15.201928 -0.9360112 -14.984612 -19.787596 -89.137047
40737500000 -19.10815 -90.350822 -0.98934436 -15.43401 -0.97942662 -15.480839 -19.369593 -93.280762
40765000000 -19.360086 -87.038292 -0.96388298 -15.919383 -0.98233205 -16.023567 -20.228142 -91.477661
40792500000 -18.635706 -90.26606 -0.96332419 -16.563883 -0.9584617 -16.418356 -20.269594 -88.37291
40820000000 -18.696884 -89.715347 -0.98068327 -16.890839 -0.98535514 -17.115723 -19.659948 -86.03212
40847500000 -19.404358 -90.105125 -0.91506541 -17.270632 -0.96057737 -17.338732 -20.419813 -92.846764
40875000000 -18.660175 -87.500404 -0.97962284 -17.900263 -0.95983243 -17.881363 -21.109983 -90.846306
40902500000 -18.590311 -89.439903 -0.973809 -18.578802 -1.0048879 -18.305777 -19.828932 -91.156387
40930000000 -19.812086 -87.747261 -0.97868264 -18.83462 -0.96788228 -18.998028 -20.14797 -92.968964
40957500000 -19.52854 -86.888664 -0.93364906 -19.179493 -0.94596344 -19.577579 -20.644567 -93.134705
40985000000 -18.702118 -89.277382 -0.97263366 -19.968742 -0.94136852 -20.116114 -20.544115 -88.853851
41012500000 -19.812048 -88.294228 -1.0007846 -20.327555 -0.95912182 -20.515827 -20.174623 -91.314095
41040000000 -19.333668 -87.810593 -0.98710155 -20.820179 -0.97276253 -20.831373 -21.333897 -95.818245
41067500000 -19.130796 -88.417206 -0.94914198 -21.307671 -0.96243048 -21.541357 -20.604568 -84.761635
41095000000 -20.009169 -89.807823 -0.99770778 -21.441711 -0.96044528 -21.982296 -20.244915 -91.99807
41122500000 -20.053722 -86.133797 -0.98689491 -22.357126 -1.0118779 -22.42914 -21.523125 -98.301086
41150000000 -19.424528 -87.098633 -0.95951116 -22.869894 -0.96730167 -22.83029 -21.240185 -86.039078
41177500000 -19.623692 -88.723625 -0.94667929 -23.627062 -0.98180503 -23.496677 -20.620358 -92.453064
41205000000 -20.570784 -85.10746 -0.94635773 -23.740179 -0.96129048 -23.910597 -20.944487 -96.409233
41232500000 -19.184772 -84.882767 -0.96940422 -24.518179 -0.95211333 -24.53639 -21.571405 -88.063103
41260000000 -20.328482 -90.865761 -0.96596348 -24.805555 -1.0115821 -25.236593 -20.536896 -90.123688
41287500000 -20.236195 -90.121582 -0.99656111 -25.462376 -0.99707007 -25.663113 -21.035263 -95.192337
41315000000 -20.057734 -82.64418 -0.99038476 -25.90583 -0.97033793 -25.785686 -22.197908 -91.991882
41342500000 -19.802622 -85.71991 -0.99299401 -26.585428 -0.96245664 -26.694319 -21.295551 -85.643608
41370000000 -20.561045 -91.212494 -0.99957454 -26.81057 -1.0085073 -27.051006 -21.220795 -93.89843
41397500000 -20.621204 -83.501183 -1.0203835 -27.276495 -0.97059816 -27.114927 -22.018696 -94.259407
41425000000 -20.205307 -85.309097 -0.9274419 -27.817144 -0.97691494 -27.965218 -21.911768 -85.196091
41452500000 -20.634836 -87.713196 -0.95917219 -28.50701 -0.97107208 -28.630522 -20.98435 -91.6092
41480000000 -21.396132 -84.282654 -0.97429883 -28.827719 -0.9940812 -28.781069 -22.149765 -96.576248
41507500000 -19.855183 -82.146759 -0.95000494 -29.385929 -0.97015375 -29.481375 -22.612242 -84.040405
41535000000 -20.856936 -89.196594 -0.9576748 -29.8167 -0.94307673 -29.912899 -21.41522 -85.66082
41562500000 -20.827681 -84.733452 -1.0183009 -30.667055 -0.98729748 -30.46026 -22.322464 -99.252457
41590000000 -20.615902 -80.665581 -0.95901948 -30.659111 -0.97482526 -30.795527 -22.81119 -89.718071
41617500000 -20.482679 -86.342415 -0.98217499 -31.427979 -0.98971564 -31.650141 -21.820208 -87.744705
41645000000 -20.907076 -85.16066 -0.99858439 -31.625498 -0.98858213 -32.044201 -21.658039 -93.746246
41672500000 -20.867504 -78.332581 -0.98998809 -32.173756 -0.9382956 -32.648369 -23.605234 -93.986298
41700000000 -20.380989 -84.195526 -0.95008099 -32.697441 -0.9646244 -33.044746 -21.990791 -83.509254
41727500000 -21.168152 -88.951797 -0.96855134 -33.718464 -0.94328129 -33.326916 -21.676243 -91.254097
41755000000 -21.940691 -78.927933 -0.97302389 -33.67186 -0.97522801 -34.03717 -23.312635 -95.365753
41782500000 -20.662294 -82.352516 -0.97608227 -34.297321 -1.0172266 -34.094582 -23.031178 -84.435707
41810000000 -21.0665 -83.502037 -0.98154998 -34.765816 -0.96270609 -34.832336 -22.306448 -92.44178
41837500000 -22.021036 -78.492958 -0.97503555 -35.313328 -0.99170971 -35.410534 -23.597013 -90.393166
41865000000 -21.015085 -80.676231 -0.97390878 -35.788544 -0.97203428 -35.77581 -24.360107 -82.730194
41892500000 -21.357088 -88.863983 -0.98620647 -36.389252 -0.96651965 -36.09491 -22.39633 -84.725609
41920000000 -22.150089 -78.714447 -0.98252875 -36.669735 -0.96514809 -36.720192 -23.17186 -93.133377
41947500000 -21.588112 -80.725945 -0.99063063 -36.984261 -0.98380584 -37.586082 -25.014629 -83.730217
41975000000 -21.319103 -81.039421 -0.93207508 -37.474609 -0.96007138 -37.819187 -23.114613 -78.07457
42002500000 -22.667871 -83.077126 -0.96717167 -38.018757 -0.99168694 -38.625736 -23.353283 -91.473511
42030000000 -22.268465 -73.921593 -0.94784188 -38.912247 -0.9952116 -38.64946 -24.272234 -91.738052
42057500000 -21.53223 -79.64431 -0.96316618 -39.193104 -0.94345886 -39.416367 -24.037176 -80.469673
42085000000 -21.790281 -80.050476 -0.94720757 -39.861027 -0.91684806 -40.215961 -23.604321 -81.549706
42112500000 -22.612724 -77.028481 -0.9961375 -40.305 -0.99789017 -40.329456 -24.825073 -84.642235
42140000000 -21.521162 -72.666237 -0.96740484 -40.785881 -0.97089756 -40.88784 -24.940702 -75.160881
42167500000 -22.005705 -77.674263 -0.96753001 -41.131969 -0.9761461 -41.239037 -23.845198 -87.138405
42195000000 -23.054691 -71.901154 -0.95824701 -41.927734 -1.0102711 -42.179581 -24.877981 -89.900139
42222500000 -21.325529 -73.246513 -1.0162112 -42.604465 -0.98412794 -42.272572 -25.987629 -75.593254
42250000000 -21.801523 -75.505608 -0.97850525 -43.09684 -0.97139257 -42.973946 -24.564451 -76.030342
42277500000 -22.470394 -73.618416 -1.0102345 -43.768623 -0.93811888 -43.285892 -24.259556 -88.063545
42305000000 -22.709101 -71.554749 -0.97598177 -43.760029 -0.99891537 -43.830402 -26.028854 -76.814163
42332500000 -21.522367 -72.515869 -1.0015451 -44.374611 -0.97657365 -43.98867 -25.129587 -71.780289
42360000000 -23.30258 -75.242386 -0.97239888 -45.043804 -0.97423011 -45.060738 -24.724819 -84.108536
42387500000 -22.801571 -75.079895 -0.97468108 -45.483135 -0.955576 -45.329395 -24.478825 -71.109917
42415000000 -21.911274 -69.463905 -0.93449062 -45.714169 -1.0017965 -46.100735 -26.041111 -65.107056
42442500000 -23.25458 -75.147034 -0.93579346 -45.972218 -1.0015373 -46.02795 -24.476151 -82.506447
42470000000 -22.133999 -68.669167 -0.97890282 -46.89444 -1.0492886 -46.913826 -25.558868 -71.531906
42497500000 -21.874599 -66.790588 -0.9808147 -47.22464 -1.033031 -47.535164 -25.413099 -71.070786
42525000000 -22.263815 -72.526382 -0.96650612 -47.595634 -0.90688759 -47.952522 -25.454372 -69.109779
42552500000 -23.897659 -73.778908 -0.90620023 -48.065762 -0.95274991 -48.554993 -25.539574 -74.747154
42580000000 -22.079586 -68.404297 -1.0119197 -48.366634 -1.0201428 -48.720798 -26.392035 -64.471359
42607500000 -23.744102 -72.301109 -1.0137131 -49.303375 -0.95636827 -49.496124 -25.048758 -74.409004
42635000000 -23.071974 -69.200592 -0.93719691 -49.693581 -0.99131548 -49.750164 -26.187773 -74.994774
42662500000 -22.558117 -68.040092 -0.97498763 -50.558468 -0.94948822 -50.465572 -25.360207 -56.750713
42690000000 -24.151062 -66.005066 -0.96868688 -50.568104 -0.95916992 -50.751053 -25.360716 -63.423615
42717500000 -23.243965 -67.700882 -0.95405954 -51.353725 -1.0090287 -51.407276 -25.660175 -67.886642
42745000000 -22.212595 -57.988117 -0.94708914 -51.555595 -1.0089428 -51.61359 -26.127422 -52.87854
42772500000 -22.233709 -62.036957 -0.94916612 -52.425346 -1.0204853 -52.326885 -24.826456 -65.732872
42800000000 -23.417007 -70.879341 -0.987059 -52.768753 -0.97661608 -52.631496 -25.517515 -62.440346
42827500000 -22.964838 -55.461266 -0.93468517 -53.101227 -1.0011106 -53.157955 -25.699583 -55.65052
42855000000 -21.767895 -55.619625 -0.93491435 -53.944233 -0.95222515 -53.999092 -26.069717 -53.135914
42882500000 -22.821304 -64.727066 -0.94262999 -54.507416 -0.96498549 -54.191765 -26.165218 -68.337463
42910000000 -22.535503 -60.680912 -0.96686929 -54.590603 -0.99315149 -54.869404 -25.137547 -55.255478
42937500000 -22.863005 -54.564564 -0.95668191 -55.470673 -0.91091198 -55.70681 -25.727722 -45.632565
42965000000 -22.295769 -57.566708 -0.99230039 -55.795975 -1.0301354 -55.780479 -25.941813 -52.37912
42992500000 -23.434706 -60.798035 -0.95857173 -56.962543 -1.0562654 -55.844528 -25.494373 -52.713436
43020000000 -22.370487 -47.687988 -0.94733703 -57.201202 -0.99487633 -56.557575 -25.160473 -46.968937
43047500000 -22.42012 -58.442871 -0.98298776 -56.936405 -0.99395853 -57.733727 -24.934744 -56.487473
43075000000 -23.030243 -65.041153 -0.90853792 -57.701778 -0.9954229 -57.603844 -25.072731 -55.526249
43102500000 -22.196634 -50.788322 -0.91084528 -58.209148 -0.94268531 -58.344875 -25.070925 -45.344971
43130000000 -22.325035 -54.69733 -1.0021782 -58.719894 -1.0951675 -58.721706 -24.900402 -52.31781
43157500000 -22.681984 -59.748985 -0.9565112 -58.960873 -1.020631 -59.276173 -25.007078 -46.78989
43185000000 -22.636684 -46.504585 -0.9464308 -59.701134 -0.96778655 -59.933239 -25.358351 -39.224503
43212500000 -21.385746 -45.810795 -0.95025814 -60.605835 -0.94960839 -60.095448 -24.240026 -47.375481
43240000000 -21.952475 -58.573032 -1.0037194 -60.88311 -1.0003045 -60.961796 -25.590101 -47.8358
43267500000 -21.732359 -56.453602 -0.96594989 -61.015842 -0.95591146 -61.603821 -24.908009 -40.944599
43295000000 -21.729883 -45.437988 -0.99107969 -61.545734 -0.93336278 -61.701305 -23.899633 -43.29562
43322500000 -21.252905 -55.977543 -0.977314 -62.015415 -0.97514153 -62.318127 -25.275259 -49.387989
43350000000 -21.693441 -52.374733 -1.0233583 -62.858765 -0.99657905 -62.731499 -24.799479 -37.078415
43377500000 -21.79739 -46.138569 -0.98016453 -63.167797 -0.91912657 -63.386364 -23.828632 -33.702953
43405000000 -20.93417 -56.165062 -0.91032398 -63.875904 -0.97526658 -63.938152 -24.124668 -46.691208
43432500000 -21.47201 -49.23307 -1.0073531 -63.861546 -0.97462118 -64.352997 -23.996126 -35.435738
43460000000 -22.636631 -45.394726 -1.0617011 -65.235184 -0.96298718 -64.624176 -23.36694 -33.767052
43487500000 -21.609161 -50.762276 -0.93192685 -65.558723 -1.045565 -65.514671 -22.615461 -42.496048
43515000000 -21.019228 -56.541626 -1.0353079 -65.510223 -0.99967784 -65.633881 -24.478413 -42.285927
43542500000 -21.090435 -46.458858 -0.95213294 -66.242691 -0.96030903 -66.388626 -22.907938 -31.377985
43570000000 -21.469879 -46.194901 -0.93924475 -67.096207 -0.96997184 -66.992958 -23.572136 -33.7136
43597500000 -20.646942 -49.751591 -0.91482002 -67.238037 -1.0278658 -67.372101 -24.854498 -34.858757
43625000000 -21.278034 -44.689648 -0.99531966 -67.656975 -0.97269094 -67.783417 -22.280865 -26.965168
43652500000 -21.821943 -43.833366 -0.94342279 -68.101059 -0.98442763 -68.473534 -22.522926 -37.982868
43680000000 -20.367609 -48.761608 -1.0009006 -69.488441 -0.99794102 -69.04129 -23.285532 -43.314159
43707500000 -20.762772 -51.673519 -0.93324143 -69.34864 -0.95833254 -69.494408 -22.642984 -29.063213
43735000000 -20.668076 -41.672329 -0.98712069 -69.528259 -0.97627771 -69.664467 -21.395441 -34.601242
43762500000 -19.648621 -45.174923 -0.97165447 -70.440353 -0.92057806 -70.318855 -21.894484 -37.833176
43790000000 -20.570093 -46.945972 -0.92648536 -70.110512 -0.9813543 -70.759697 -22.505352 -32.679539
43817500000 -20.381971 -40.69413 -0.96140385 -70.842972 -1.012794 -71.123848 -22.158934 -28.27006
43845000000 -20.901348 -48.308777 -0.96513647 -71.405762 -0.97095424 -72.085197 -21.777664 -41.861526
43872500000 -19.884598 -44.366058 -0.98306435 -72.57164 -0.97816086 -72.613342 -23.204483 -34.485123
43900000000 -20.642723 -45.700111 -1.0103221 -72.705887 -0.9519605 -72.8713 -21.516073 -25.308901
43927500000 -19.690422 -42.453545 -0.9624247 -73.278831 -1.0226694 -73.212723 -21.490221 -37.836182
43955000000 -19.506927 -46.189457 -0.96618825 -73.964401 -0.99048722 -73.912193 -21.901062 -37.300449
43982500000 -20.75938 -42.742619 -0.96373945 -74.360863 -1.0191941 -74.648979 -21.919861 -25.669125
44010000000 -20.184912 -41.819176 -1.0298135 -74.692413 -0.99035484 -74.647102 -21.586803 -34.476204
44037500000 -19.334259 -42.559334 -0.94399476 -75.542854 -0.99006063 -75.410141 -21.930805 -39.076088
44065000000 -20.123915 -46.152393 -1.0054686 -75.811058 -0.9983713 -75.799629 -22.126474 -28.398342
44092500000 -20.383575 -40.58625 -0.99540269 -75.756989 -1.0207413 -76.2528 -21.317976 -34.557129
44120000000 -18.925625 -41.891224 -0.9425438 -76.822075 -1.0182561 -76.963013 -21.104876 -36.220993
44147500000 -19.309246 -44.075527 -0.97393143 -77.094551 -0.98244536 -77.276901 -21.737911 -28.700022
44175000000 -19.70368 -43.790787 -0.97779316 -77.430382 -0.97571117 -77.748497 -20.892515 -28.572338
44202500000 -19.417919 -41.849976 -0.9811427 -78.403343 -0.98621231 -78.536171 -21.336277 -34.272797
44230000000 -19.037323 -44.885109 -1.0226612 -79.125168 -0.96699214 -79.095856 -21.196283 -33.523735
44257500000 -19.754375 -40.476322 -1.0903951 -79.533638 -1.0300822 -79.23288 -20.663757 -28.800402
44285000000 -19.134533 -40.669395 -0.9919436 -79.480553 -1.0328753 -80.364517 -19.948996 -33.901169
44312500000 -18.879232 -41.531185 -1.0352306 -80.14856 -0.92493004 -80.332573 -20.863846 -27.969147
44340000000 -18.995613 -41.7747 -1.0297577 -80.798904 -1.0465515 -80.759521 -20.161964 -27.60103
44367500000 -19.241774 -40.459919 -1.0611029 -81.029541 -0.98326302 -81.196548 -19.794079 -31.92765
44395000000 -18.263405 -40.919071 -1.0542341 -82.171104 -0.99697632 -81.901268 -20.696707 -32.906727
44422500000 -19.480003 -46.10939 -1.0320963 -82.418472 -0.96717942 -82.184456 -20.941826 -27.058674
44450000000 -19.272697 -39.691208 -1.0319484 -82.796852 -1.0612998 -82.681465 -20.036575 -28.635956
44477500000 -18.18919 -44.203434 -0.98445588 -83.14975 -0.98603463 -83.238884 -20.101698 -36.800728
44505000000 -18.667591 -41.303963 -0.9803887 -84.027885 -0.9728775 -83.990082 -20.341913 -24.990524
44532500000 -18.997219 -42.838268 -0.98147762 -84.402191 -1.0034093 -84.249245 -19.788784 -28.46088
44560000000 -18.203308 -41.149677 -1.0221106 -84.596138 -1.0282617 -84.704231 -19.565903 -34.136444
44587500000 -17.886097 -44.930531 -0.98189002 -85.220497 -0.98600572 -85.362007 -19.954657 -27.480034
44615000000 -18.85799 -40.076687 -1.0018584 -85.688416 -0.97432148 -85.992737 -19.391821 -31.424868
44642500000 -18.302851 -42.775173 -1.0010645 -86.209915 -1.0590731 -86.507355 -18.891851 -35.589581
44670000000 -17.668055 -41.990295 -0.96086836 -87.055031 -0.98070437 -86.664833 -19.506475 -29.763315
44697500000 -18.398815 -42.802238 -0.96340019 -87.092537 -1.0275191 -87.451065 -19.480448 -32.164459
44725000000 -18.232046 -39.183033 -1.0128273 -88.039932 -1.0826674 -87.630386 -18.816751 -34.843498
44752500000 -17.250669 -40.951733 -0.99847168 -88.062973 -0.98479229 -88.286613 -19.189859 -33.387245
44780000000 -18.305361 -45.600498 -1.0168055 -88.884789 -1.0094209 -89.16671 -19.553816 -28.179104
44807500000 -17.965948 -38.554688 -1.0361007 -89.465157 -1.0426502 -89.501358 -18.837976 -32.063446
44835000000 -17.323936 -42.176167 -0.98359221 -89.829628 -0.97853023 -89.541321 -18.166595 -34.787998
44862500000 -17.887598 -44.181038 -1.0189378 -90.196533 -0.99617589 -90.864624 -19.189302 -29.225264
44890000000 -18.310957 -43.71133 -0.99295306 -90.743484 -1.0117116 -91.171455 -18.521904 -30.982721
44917500000 -17.333794 -41.450382 -1.0150001 -91.050201 -1.0179255 -91.025269 -18.698599 -33.459145
44945000000 -17.316839 -45.797138 -1.0028415 -91.40152 -0.98534995 -92.011574 -18.541395 -35.23428
44972500000 -18.058558 -42.941536 -0.98168367 -92.65789 -1.0204797 -92.702034 -18.379787 -33.267262
45000000000 -17.307751 -43.437912 -0.98610675 -92.706161 -1.0079077 -92.596909 -18.150566 -31.928328
