!Keysight Technologies,N5247B,MY61255062,A.19.80.06
!Date: Monday, May 18, 2026 11:49:44
!Correction: S11(Cdelta 2-Port  ) 
!S21(Cdelta 2-Port  ) 
!S12(Cdelta 2-Port  ) 
!S22(Cdelta 2-Port  ) 
!S2P File: Measurements: S11, S21, S12, S22:
# Hz S  dB   R 50
1000000000 -26.243368 -40.908363 -0.41163796 -22.110725 -0.41192201 -22.12446 -26.248343 -42.400215
1100000000 -26.035046 -45.790741 -0.41884392 -24.26774 -0.4208698 -24.273373 -25.961634 -46.818012
1200000000 -25.856035 -49.902069 -0.42678151 -26.434921 -0.42781886 -26.441738 -25.722759 -51.186096
1300000000 -25.641632 -54.358212 -0.43359101 -28.60671 -0.43583584 -28.619177 -25.458197 -55.278515
1400000000 -25.465488 -58.627476 -0.44094726 -30.762032 -0.44374749 -30.778021 -25.203466 -59.531841
1500000000 -25.278551 -62.76067 -0.44759968 -32.916626 -0.45006195 -32.930267 -24.964172 -63.533329
1600000000 -25.156498 -66.883751 -0.45754051 -35.085663 -0.45846185 -35.095692 -24.707819 -67.320282
1700000000 -24.976845 -70.789795 -0.46486083 -37.237228 -0.4651939 -37.26009 -24.463308 -71.113548
1800000000 -24.825806 -74.826973 -0.47212976 -39.400379 -0.47308883 -39.410275 -24.215689 -74.832771
1900000000 -24.637285 -78.445435 -0.47996476 -41.552933 -0.4802261 -41.562229 -23.948526 -78.336548
2000000000 -24.478687 -82.165695 -0.4866153 -43.711021 -0.4897511 -43.736748 -23.734859 -81.840599
2100000000 -24.349384 -85.588615 -0.49576026 -45.869698 -0.4979614 -45.880676 -23.493174 -85.222282
2200000000 -24.235237 -89.248787 -0.50493443 -48.020561 -0.50630766 -48.032272 -23.272306 -88.594498
2300000000 -24.090544 -92.676926 -0.51256496 -50.176418 -0.51655507 -50.195034 -23.041426 -91.77787
2400000000 -23.989511 -96.119537 -0.52412784 -52.319233 -0.52639836 -52.35223 -22.843498 -95.206772
2500000000 -23.846691 -99.368446 -0.53303349 -54.467407 -0.54015428 -54.495838 -22.571733 -98.457886
2600000000 -23.743242 -102.71521 -0.54387057 -56.611237 -0.54591483 -56.640652 -22.376362 -101.85471
2700000000 -23.631664 -106.08259 -0.55349779 -58.77634 -0.55956233 -58.779305 -22.146494 -104.88387
2800000000 -23.557741 -109.50721 -0.56470156 -60.901123 -0.56792438 -60.921185 -21.946814 -108.07917
2900000000 -23.527683 -112.79932 -0.57546848 -63.059956 -0.58185291 -63.07085 -21.769567 -111.02697
3000000000 -23.470779 -116.2762 -0.58897626 -65.20414 -0.59157819 -65.206703 -21.568827 -114.49574
3100000000 -23.453167 -119.29222 -0.60327893 -67.330933 -0.60462832 -67.349892 -21.361645 -117.78447
3200000000 -23.412287 -122.08544 -0.61895496 -69.450211 -0.62073207 -69.47197 -21.171417 -121.35804
3300000000 -23.465071 -124.72179 -0.63932592 -71.58992 -0.64123404 -71.592697 -20.957615 -124.89581
3400000000 -23.422361 -127.22827 -0.65261078 -73.654221 -0.65468705 -73.668121 -20.82876 -128.39937
3500000000 -23.432617 -130.05731 -0.66801786 -75.720238 -0.66970372 -75.745369 -20.78705 -132.13887
3600000000 -23.457603 -132.31728 -0.68332195 -77.799385 -0.68683052 -77.808411 -20.741552 -135.91179
3700000000 -23.451023 -134.48531 -0.69686878 -79.82914 -0.69817793 -79.835533 -20.724859 -139.63551
3800000000 -23.445591 -135.96086 -0.71022075 -81.843178 -0.71397054 -81.869911 -20.762278 -143.41797
3900000000 -23.418304 -137.37115 -0.71652567 -83.844559 -0.71924853 -83.862213 -20.831621 -146.92549
4000000000 -23.318754 -138.91982 -0.7184568 -85.849518 -0.72180378 -85.865578 -20.996355 -150.09995
4100000000 -23.14987 -140.76262 -0.71498239 -87.848343 -0.71926475 -87.874115 -21.141258 -152.84557
4200000000 -23.037228 -142.93732 -0.70922279 -89.881485 -0.71545666 -89.895088 -21.331093 -155.46298
4300000000 -22.813202 -145.72772 -0.69931412 -91.929817 -0.70287764 -91.93676 -21.503246 -157.64952
4400000000 -22.707121 -148.86752 -0.69015318 -94.026672 -0.69370949 -94.032074 -21.66573 -159.34859
4500000000 -22.615929 -151.74338 -0.68295538 -96.133568 -0.68586916 -96.145607 -21.743603 -160.9646
4600000000 -22.555285 -154.9601 -0.67481869 -98.247597 -0.68249679 -98.259552 -21.834175 -162.78943
4700000000 -22.48616 -157.72888 -0.67116451 -100.37648 -0.67519188 -100.38248 -21.905918 -164.29205
4800000000 -22.469664 -161.00436 -0.6684798 -102.50051 -0.67316353 -102.51728 -21.946497 -166.12543
4900000000 -22.499346 -164.01569 -0.6654374 -104.63619 -0.66784734 -104.64838 -22.002041 -167.57262
5000000000 -22.494886 -167.24489 -0.66272032 -106.76762 -0.66726226 -106.79269 -22.02803 -169.59581
5100000000 -22.550299 -170.25095 -0.66068661 -108.91149 -0.66805744 -108.92825 -22.115459 -171.34085
5200000000 -22.574156 -173.11053 -0.66223156 -111.03734 -0.66667193 -111.04706 -22.118149 -173.28293
5300000000 -22.674412 -176.36246 -0.6630258 -113.16941 -0.66582572 -113.18719 -22.18572 -175.16422
5400000000 -22.760994 -179.56766 -0.66328394 -115.30965 -0.66988677 -115.32916 -22.216412 -177.05093
5500000000 -22.864096 177.1965 -0.66674829 -117.43232 -0.6680209 -117.44409 -22.309193 -178.89545
5600000000 -22.936037 174.08328 -0.66640478 -119.55621 -0.67090714 -119.57297 -22.391329 179.36279
5700000000 -23.041716 170.99236 -0.66947478 -121.67825 -0.67213988 -121.71752 -22.515947 177.47728
5800000000 -23.189348 168.36215 -0.66971129 -123.81244 -0.67572051 -123.8304 -22.598238 175.41522
5900000000 -23.378025 165.3511 -0.67241853 -125.94294 -0.67445344 -125.96185 -22.72567 173.28552
6000000000 -23.572502 162.14743 -0.67634267 -128.06554 -0.68005055 -128.08456 -22.83156 171.26465
6100000000 -23.800417 158.91405 -0.67526746 -130.16986 -0.68119442 -130.20374 -22.912405 169.51372
6200000000 -23.985065 155.2321 -0.67966062 -132.31078 -0.681795 -132.3333 -23.044004 167.71677
6300000000 -24.158344 151.72829 -0.68053192 -134.42717 -0.68502742 -134.44595 -23.221394 166.17195
6400000000 -24.288527 148.51125 -0.68293631 -136.57851 -0.68563908 -136.5932 -23.373039 164.09828
6500000000 -24.569962 145.29871 -0.68500042 -138.6768 -0.68995357 -138.69333 -23.587305 162.43752
6600000000 -24.829126 142.61021 -0.68475401 -140.79742 -0.69078773 -140.81805 -23.732567 160.54445
6700000000 -25.173473 139.37811 -0.68698639 -142.90157 -0.69160694 -142.91458 -23.942453 159.09161
6800000000 -25.550398 136.3494 -0.68935883 -145.02727 -0.6942504 -145.04872 -24.08869 157.39528
6900000000 -25.842155 132.48407 -0.68877822 -147.14836 -0.69400412 -147.18152 -24.397753 155.57286
7000000000 -26.19355 129.2478 -0.69031101 -149.28209 -0.69225413 -149.31046 -24.61005 154.16219
7100000000 -26.434793 125.48087 -0.69054013 -151.41588 -0.69696969 -151.45473 -24.910084 152.31213
7200000000 -26.87981 121.89366 -0.69434613 -153.5403 -0.69641566 -153.56563 -25.088911 150.43063
7300000000 -27.152033 118.43739 -0.69744778 -155.64986 -0.70229125 -155.67726 -25.40382 149.17957
7400000000 -27.466448 113.26141 -0.69867802 -157.77881 -0.70355946 -157.80643 -25.698433 147.86247
7500000000 -27.884912 109.26463 -0.70065844 -159.91025 -0.70410067 -159.93669 -26.159012 146.66208
7600000000 -28.398144 103.55658 -0.7022602 -162.03279 -0.70360816 -162.05389 -26.472662 145.75421
7700000000 -28.869263 99.354202 -0.70225048 -164.14848 -0.7060436 -164.18253 -26.904879 143.98306
7800000000 -29.199644 94.041435 -0.70544428 -166.27774 -0.70915574 -166.321 -27.189566 142.43839
7900000000 -29.813667 88.767044 -0.70665216 -168.41487 -0.71174806 -168.42746 -27.497887 141.83202
8000000000 -30.193508 83.198936 -0.70770925 -170.54332 -0.71382684 -170.55888 -27.92935 142.55862
8100000000 -30.817644 75.754036 -0.71181542 -172.67171 -0.71543378 -172.71323 -28.552902 142.2009
8200000000 -31.150747 69.778732 -0.71230066 -174.80238 -0.71710825 -174.84116 -29.320272 142.2838
8300000000 -31.469936 61.578781 -0.71846962 -176.95419 -0.72203487 -176.97792 -29.985153 139.07745
8400000000 -31.751032 54.906952 -0.72439533 -179.0869 -0.72782373 -179.12288 -30.281755 134.65411
8500000000 -31.986628 46.198391 -0.74104971 178.76555 -0.74797273 178.73587 -29.422815 130.16464
8600000000 -33.134224 44.313873 -0.78408843 176.79501 -0.78781563 176.78424 -27.747416 128.12878
8700000000 -30.144167 45.400471 -0.73254859 175.44691 -0.73865592 175.40627 -26.235584 112.79504
8800000000 -30.956903 15.806772 -0.64808172 172.65269 -0.65500426 172.61829 -29.848946 110.03541
8900000000 -32.41703 10.699691 -0.6925016 170.25894 -0.69652689 170.22726 -31.235853 130.86583
9000000000 -32.328003 4.4401565 -0.71266055 168.13345 -0.7164402 168.11554 -31.947502 147.73549
9100000000 -32.08025 -3.8389978 -0.72317612 166.01048 -0.72814113 165.98264 -32.744064 159.05653
9200000000 -31.678961 -13.714429 -0.72775638 163.89589 -0.73329175 163.85959 -33.692245 168.86484
9300000000 -31.223433 -22.651583 -0.73006457 161.76953 -0.73509264 161.74379 -34.564594 174.58597
9400000000 -30.869738 -29.187683 -0.73394364 159.63971 -0.74026746 159.60376 -34.933205 -179.36955
9500000000 -30.323318 -35.36433 -0.73647594 157.51378 -0.74232769 157.49394 -34.891296 -176.94162
9600000000 -29.819908 -41.055 -0.74162328 155.3748 -0.7446667 155.32527 -34.150078 -171.00368
9700000000 -29.302446 -46.525475 -0.74515527 153.22679 -0.7501114 153.20177 -33.411175 -165.1183
9800000000 -28.851099 -53.500156 -0.74930012 151.08551 -0.75230557 151.05469 -32.855091 -160.09883
9900000000 -28.448776 -57.773285 -0.75265896 148.93633 -0.75770193 148.90738 -32.344772 -156.75574
10000000000 -28.023787 -63.209091 -0.75666064 146.78241 -0.7603144 146.76285 -31.605347 -154.1378
10100000000 -27.666458 -66.579445 -0.76398236 144.65862 -0.76962745 144.61351 -31.031191 -153.95081
10200000000 -27.119009 -71.364838 -0.77075225 142.49498 -0.77594966 142.46016 -30.038181 -154.08467
10300000000 -26.967266 -75.76239 -0.77874005 140.3461 -0.78515804 140.30867 -29.244459 -153.15128
10400000000 -26.433023 -80.064178 -0.79096061 138.20331 -0.79465109 138.1545 -28.273113 -151.53314
10500000000 -26.373587 -84.074852 -0.79844654 136.05031 -0.8074708 136.0173 -27.81904 -151.02725
10600000000 -26.015936 -87.045013 -0.81251603 133.92728 -0.81912792 133.90494 -27.225834 -150.93059
10700000000 -25.807428 -91.006294 -0.83020407 131.82591 -0.832636 131.78256 -26.886681 -152.91261
10800000000 -25.506264 -92.700233 -0.8421644 129.70857 -0.85062295 129.67821 -26.398952 -155.48256
10900000000 -25.233004 -95.763268 -0.85660762 127.6255 -0.86072427 127.61789 -25.926928 -159.8369
11000000000 -25.112793 -97.777634 -0.87329572 125.58431 -0.87742698 125.54686 -25.258589 -162.45557
11100000000 -24.784164 -100.15543 -0.8824054 123.55986 -0.88841504 123.51109 -24.830734 -165.1967
11200000000 -24.662569 -102.16635 -0.89017248 121.53023 -0.89712876 121.46445 -24.49234 -166.58099
11300000000 -24.247503 -103.95731 -0.89480418 119.50163 -0.89925551 119.464 -24.261839 -169.05641
11400000000 -23.892384 -106.71964 -0.89428031 117.47552 -0.89845127 117.41785 -24.256874 -169.98685
11500000000 -23.466803 -109.11855 -0.89234352 115.42408 -0.89348114 115.37878 -24.245869 -171.98363
11600000000 -23.092382 -112.33646 -0.88798022 113.34732 -0.89121413 113.31966 -24.175482 -174.12431
11700000000 -22.774244 -114.50052 -0.88502485 111.25493 -0.8888213 111.22206 -23.947933 -176.76494
11800000000 -22.533306 -117.74899 -0.88076937 109.18011 -0.88684088 109.13992 -23.750895 -178.21254
11900000000 -22.315119 -120.49178 -0.88218594 107.07908 -0.88623166 107.05759 -23.461512 179.98827
12000000000 -22.072493 -123.77166 -0.87829798 104.98103 -0.88679928 104.95533 -23.485262 179.05611
12100000000 -21.818241 -126.98653 -0.87808025 102.86873 -0.88358927 102.86478 -23.27478 177.67393
12200000000 -21.608358 -130.20224 -0.87739938 100.7744 -0.88355058 100.74145 -23.24185 176.4343
12300000000 -21.417097 -133.26843 -0.87793708 98.663795 -0.88338244 98.616356 -23.123178 174.75838
12400000000 -21.348866 -136.46718 -0.8817004 96.558487 -0.88767219 96.516312 -22.975769 172.99605
12500000000 -21.230368 -139.03529 -0.88557518 94.474503 -0.89002341 94.435669 -22.836697 170.89063
12600000000 -21.115641 -142.19806 -0.88437682 92.390923 -0.88611639 92.346581 -22.800064 169.70654
12700000000 -20.97106 -144.70189 -0.87612218 90.313683 -0.88471192 90.26899 -22.713478 168.33897
12800000000 -20.785793 -147.91513 -0.87504166 88.191345 -0.88229376 88.166313 -22.615492 167.26651
12900000000 -20.726494 -150.36562 -0.87494224 86.08744 -0.8769508 86.055962 -22.481352 165.57538
13000000000 -20.586338 -153.49921 -0.87520915 83.973862 -0.87826818 83.949142 -22.387197 164.43637
13100000000 -20.670975 -156.05986 -0.87454551 81.86821 -0.8792671 81.820671 -22.195368 162.81888
13200000000 -20.491966 -158.74844 -0.86984396 79.768768 -0.8729403 79.719513 -22.085842 161.24663
13300000000 -20.549383 -161.92107 -0.86730033 77.628937 -0.87223488 77.588745 -21.946552 160.10419
13400000000 -20.390772 -163.55815 -0.86249071 75.513626 -0.86670429 75.486374 -21.874092 158.17737
13500000000 -20.347157 -166.32834 -0.86064726 73.402878 -0.86476737 73.348251 -21.660252 156.26471
13600000000 -20.259899 -167.62477 -0.86016881 71.251297 -0.86429137 71.21209 -21.577858 153.98485
13700000000 -20.195051 -170.96297 -0.85928315 69.087067 -0.86235243 69.075531 -21.341457 152.19865
13800000000 -20.217474 -172.81459 -0.8605696 66.957512 -0.86451024 66.914925 -21.201307 150.30838
13900000000 -19.979979 -176.13268 -0.86072206 64.786514 -0.86634529 64.743698 -21.044516 148.61868
14000000000 -19.923094 -178.99889 -0.86796415 62.653194 -0.8710981 62.604687 -21.047279 146.4709
14100000000 -19.623854 178.40604 -0.8747735 60.51741 -0.88177836 60.464695 -21.012699 144.19792
14200000000 -19.667734 174.89998 -0.88411915 58.393105 -0.89098436 58.354324 -20.999767 141.64279
14300000000 -19.645729 172.45206 -0.89295936 56.329182 -0.89703709 56.275921 -20.906546 139.854
14400000000 -19.774677 168.41222 -0.89052391 54.280613 -0.89813775 54.221764 -20.791719 137.97997
14500000000 -19.816317 165.88753 -0.88541996 52.159908 -0.89151514 52.103683 -20.591825 136.77382
14600000000 -19.763395 162.62523 -0.88914818 50.010078 -0.89544994 49.942032 -20.477592 134.47565
14700000000 -19.810047 160.23709 -0.89238232 47.884209 -0.90052462 47.844734 -20.517754 132.41565
14800000000 -19.750572 157.8681 -0.89772421 45.775429 -0.90475255 45.720303 -20.482519 129.43005
14900000000 -19.817209 155.93083 -0.89697343 43.654167 -0.90436172 43.626129 -20.446123 127.36301
15000000000 -19.795332 153.44577 -0.89969975 41.532402 -0.90509754 41.473774 -20.362509 125.22392
15100000000 -19.833717 150.33368 -0.90610075 39.409924 -0.91077662 39.375454 -20.353472 123.35187
15200000000 -19.790495 147.13298 -0.90942162 37.299225 -0.91708016 37.257397 -20.390062 121.34122
15300000000 -19.805904 143.9314 -0.91253799 35.17802 -0.92042416 35.152958 -20.416012 119.17635
15400000000 -19.843117 141.64246 -0.91521978 33.094799 -0.91961664 33.052292 -20.392578 116.49347
15500000000 -19.840637 139.5889 -0.91863239 30.960091 -0.92377806 30.931837 -20.384605 114.14053
15600000000 -19.882641 136.94717 -0.91727871 28.864695 -0.92680067 28.821899 -20.293911 111.92307
15700000000 -19.938524 134.05283 -0.9232555 26.785105 -0.930825 26.705 -20.27846 110.02252
15800000000 -19.912638 130.62865 -0.92790151 24.646709 -0.93107903 24.589228 -20.303335 108.00729
15900000000 -20.016661 127.56364 -0.928994 22.504807 -0.93468326 22.484026 -20.348778 105.7211
16000000000 -19.968927 125.08231 -0.93033397 20.429873 -0.93997496 20.370697 -20.366074 103.04831
16100000000 -20.045296 122.06055 -0.93532372 18.318762 -0.94247335 18.274179 -20.356436 100.63496
16200000000 -20.056845 120.20277 -0.93920523 16.215435 -0.94328481 16.161728 -20.301756 98.040802
16300000000 -20.168648 116.07738 -0.94268399 14.107968 -0.94779134 14.057987 -20.283428 95.926918
16400000000 -20.26045 113.86138 -0.9434064 11.985944 -0.95512444 11.970728 -20.224855 93.707626
16500000000 -20.214376 110.14742 -0.94734508 9.8948412 -0.9563396 9.8365965 -20.326277 91.793816
16600000000 -20.375093 108.41442 -0.94962806 7.7901611 -0.95975655 7.7389092 -20.335157 89.262993
16700000000 -20.306705 105.65897 -0.95440072 5.6925883 -0.96186513 5.6247406 -20.446575 86.518814
16800000000 -20.706224 102.91211 -0.95630151 3.5975196 -0.96668559 3.5327744 -20.391979 84.251686
16900000000 -20.59939 100.47433 -0.96190196 1.4949843 -0.96814758 1.4300281 -20.460007 81.639236
17000000000 -20.837027 96.490837 -0.96183962 -0.60983193 -0.97041655 -0.65538603 -20.385769 79.89566
17100000000 -20.739355 95.572823 -0.96402711 -2.6908765 -0.96708369 -2.7413025 -20.501541 77.297539
17200000000 -20.835709 92.01265 -0.96302986 -4.8156657 -0.9789784 -4.8727069 -20.577425 76.071609
17300000000 -20.976894 92.32576 -0.97155315 -6.9171348 -0.97764045 -6.9561052 -20.735411 72.908508
17400000000 -20.999241 88.191284 -0.97383428 -9.0112915 -0.98303676 -9.0528946 -20.765165 70.827118
17500000000 -21.300663 86.648201 -0.97559905 -11.117932 -0.98385841 -11.152547 -20.792864 67.386177
17600000000 -21.066462 82.53801 -0.97907597 -13.191386 -0.98380291 -13.26287 -20.785109 66.203804
17700000000 -21.273487 80.698433 -0.98445684 -15.311968 -0.98842901 -15.357401 -20.8689 63.448544
17800000000 -21.125687 78.998352 -0.98326397 -17.385817 -0.9896636 -17.448124 -20.922644 62.087791
17900000000 -21.472166 75.816376 -0.98574978 -19.504374 -0.99229491 -19.54282 -21.145494 59.698963
18000000000 -21.472534 74.555084 -0.98885322 -21.591351 -0.996158 -21.676027 -21.257481 57.196114
18100000000 -21.672415 70.961311 -0.99117631 -23.695036 -0.99196112 -23.738472 -21.231482 53.878811
18200000000 -21.65579 69.327255 -0.98837733 -25.828672 -0.99887204 -25.834867 -21.249306 51.940125
18300000000 -21.571653 66.141602 -0.98985416 -27.865889 -0.99885088 -27.936815 -21.130064 49.539005
18400000000 -21.802057 64.400146 -0.99241751 -29.956387 -1.0001976 -30.005056 -21.198278 48.210773
18500000000 -21.787657 61.825924 -0.99546224 -32.071835 -1.0042495 -32.089722 -21.347586 46.047256
18600000000 -21.925755 58.709671 -0.99972898 -34.157974 -1.0043114 -34.22945 -21.56237 43.740353
18700000000 -22.020761 56.054092 -0.99852085 -36.245766 -1.0054725 -36.28896 -21.583929 40.448524
18800000000 -22.019794 53.73877 -0.99908185 -38.329967 -1.0076672 -38.394836 -21.598696 37.515125
18900000000 -22.086323 51.58173 -0.99656016 -40.412506 -1.0061092 -40.479824 -21.527969 34.658432
19000000000 -22.018703 49.517036 -0.99977851 -42.487103 -1.0069993 -42.565868 -21.455896 33.250469
19100000000 -22.280354 46.803646 -0.99758404 -44.644711 -1.0041833 -44.66906 -21.604973 31.081532
19200000000 -22.278364 45.810074 -0.99877954 -46.728893 -1.006682 -46.780632 -21.754604 29.889423
19300000000 -22.45326 41.800663 -1.0004845 -48.839523 -1.0091077 -48.877193 -21.951344 26.737804
19400000000 -22.682037 41.907021 -1.0015484 -50.946049 -1.0091186 -51.004005 -22.096766 24.619625
19500000000 -22.559855 37.566349 -0.99914247 -53.022099 -1.0101731 -53.091873 -22.082609 21.280352
19600000000 -22.812914 36.80764 -1.0044403 -55.136269 -1.0116067 -55.174747 -22.160343 19.621338
19700000000 -22.397161 34.590164 -0.99923629 -57.21804 -1.0080762 -57.230358 -22.067398 16.73535
19800000000 -22.821005 33.09314 -1.0023559 -59.253078 -1.0081261 -59.379902 -22.281191 14.735819
19900000000 -22.513256 32.786663 -0.99666762 -61.391819 -1.0061706 -61.439255 -22.258329 12.229887
20000000000 -23.089813 28.642359 -1.0043541 -63.485325 -1.010309 -63.535801 -22.520485 10.173594
20100000000 -22.800406 28.029442 -1.0022274 -65.576714 -1.0092175 -65.623146 -22.341709 7.2589145
20200000000 -22.791664 22.385956 -0.99951261 -67.625206 -1.0031852 -67.713974 -22.634018 4.4625549
20300000000 -22.734901 22.385195 -0.99884045 -69.735123 -1.0050634 -69.814819 -22.501534 2.1129429
20400000000 -22.464434 17.98666 -0.98699331 -71.854782 -0.99297649 -71.919922 -22.80105 -0.82244211
20500000000 -23.003761 17.156694 -0.98311269 -73.958817 -0.99248487 -73.999077 -22.814507 -3.2839494
20600000000 -22.864019 12.202714 -0.98715514 -76.090912 -0.99176925 -76.142639 -23.058378 -6.7115302
20700000000 -23.542511 7.2501912 -0.98183197 -78.186569 -0.98862505 -78.234703 -22.932096 -8.4269724
20800000000 -23.508875 4.3810496 -0.98689622 -80.29364 -0.99005705 -80.361763 -22.91729 -11.981393
20900000000 -24.080647 0.88008559 -0.98419124 -82.397537 -0.99342221 -82.45755 -22.81554 -12.612327
21000000000 -24.332321 3.3721564 -0.98274982 -84.435631 -0.98860031 -84.513466 -22.998455 -16.585905
21100000000 -24.365503 1.5812007 -0.97144985 -86.532791 -0.98162651 -86.605156 -23.123068 -18.857367
21200000000 -24.760954 0.63475901 -0.96022314 -88.653809 -0.97055316 -88.715149 -23.400356 -23.732294
21300000000 -24.680813 -2.8704658 -0.95333308 -90.776558 -0.95793039 -90.870628 -23.676245 -26.600164
21400000000 -25.152237 -7.9470901 -0.93841094 -92.984634 -0.9468686 -93.055237 -23.641136 -30.730947
21500000000 -25.269964 -9.3236189 -0.94478339 -95.188301 -0.95288563 -95.245232 -23.818306 -33.56675
21600000000 -25.602589 -12.953296 -0.94802862 -97.353371 -0.95351076 -97.421974 -23.927834 -35.436119
21700000000 -26.402431 -10.925223 -0.95585406 -99.479858 -0.95796108 -99.560402 -24.229942 -37.28257
21800000000 -26.451561 -12.888646 -0.95240694 -101.63305 -0.9617818 -101.70403 -24.592278 -40.227547
21900000000 -27.769243 -12.062277 -0.96117681 -103.77717 -0.96468323 -103.81707 -24.936392 -42.461395
22000000000 -27.509073 -10.254405 -0.96983236 -105.91197 -0.9789868 -105.98926 -25.309151 -46.245895
22100000000 -28.581432 -11.400893 -0.98466891 -108.01406 -0.99209648 -108.09246 -25.320032 -48.807648
22200000000 -27.681124 -5.197598 -0.98806375 -110.06285 -1.0004811 -110.1376 -25.307209 -53.301815
22300000000 -28.147633 -11.052222 -0.98422796 -112.09342 -0.9936949 -112.1983 -25.158882 -54.622787
22400000000 -27.601385 -3.5298338 -0.97113454 -114.12689 -0.97734964 -114.18234 -25.33032 -59.282619
22500000000 -28.077303 -14.362021 -0.96616268 -116.27736 -0.9695453 -116.39069 -25.663248 -61.241573
22600000000 -29.073565 -6.6855407 -0.95699263 -118.42372 -0.96405458 -118.51447 -25.996254 -68.396004
22700000000 -28.70212 -16.011389 -0.96047634 -120.6136 -0.96599132 -120.67237 -26.484711 -70.680794
22800000000 -30.269831 -12.139398 -0.96399772 -122.7913 -0.9664427 -122.84309 -26.37236 -76.653954
22900000000 -28.813435 -12.659244 -0.95637089 -124.88441 -0.9656505 -124.96386 -26.877081 -78.749901
23000000000 -30.630869 -9.6292515 -0.96395987 -127.04416 -0.97114003 -127.10358 -26.866009 -83.921242
23100000000 -29.511099 -3.6994998 -0.95380026 -129.13913 -0.96185189 -129.25691 -27.73642 -86.14856
23200000000 -31.813427 -8.3120089 -0.96808386 -131.31718 -0.97540301 -131.3614 -27.680584 -91.203156
23300000000 -31.083857 0.54730946 -0.965258 -133.43002 -0.97381645 -133.52583 -28.452682 -97.277046
23400000000 -31.779373 -10.355804 -0.97357774 -135.54501 -0.97809988 -135.62743 -27.885767 -101.07719
23500000000 -31.555733 1.6898478 -0.97755843 -137.67555 -0.98071671 -137.77066 -28.370617 -106.66184
23600000000 -31.141296 -4.3656693 -0.97576922 -139.84631 -0.98247975 -139.88431 -28.379198 -106.46715
23700000000 -31.939863 11.098856 -0.97267377 -141.93451 -0.98546135 -142.01324 -29.443855 -113.63289
23800000000 -31.483704 8.9242306 -0.98208249 -144.10927 -0.98927188 -144.12444 -29.983089 -117.60504
23900000000 -33.343182 12.67242 -0.9765963 -146.21277 -0.99381632 -146.26721 -30.570614 -129.75359
24000000000 -31.961889 17.730003 -0.98932064 -148.32626 -0.99496907 -148.37035 -30.324661 -134.68459
24100000000 -33.01276 11.699262 -0.985816 -150.39955 -0.99643576 -150.50507 -29.814108 -142.7283
24200000000 -31.385437 19.561861 -0.98937625 -152.55186 -0.99524319 -152.6519 -30.238131 -144.58209
24300000000 -31.422321 19.183651 -0.99088651 -154.69756 -0.99830717 -154.7411 -30.303709 -148.73141
24400000000 -31.058128 32.58778 -0.9950459 -156.80666 -1.0020866 -156.89723 -31.705318 -155.94514
24500000000 -30.493019 31.044563 -0.99409193 -158.91975 -1.0000659 -159.00357 -31.689802 -168.37907
24600000000 -30.954088 38.753071 -0.99653637 -161.09235 -1.0055242 -161.13405 -31.852274 179.86084
24700000000 -30.038755 36.001637 -1.0095205 -163.20126 -1.0110673 -163.24556 -30.960981 172.83386
24800000000 -30.329668 36.554634 -1.0105828 -165.30634 -1.0137763 -165.3838 -30.61158 167.89429
24900000000 -28.6607 38.592842 -1.0127169 -167.42194 -1.0243621 -167.5088 -30.39282 164.45029
25000000000 -28.662685 36.11771 -1.0110816 -169.5775 -1.0187048 -169.63234 -31.00802 157.67979
25100000000 -27.699827 43.294849 -1.0131221 -171.67714 -1.0223765 -171.7336 -30.773071 147.48181
25200000000 -27.228653 38.702808 -1.0180637 -173.80128 -1.0254995 -173.8679 -30.485752 139.17795
25300000000 -26.987213 44.191097 -1.0210212 -175.94394 -1.0268993 -175.9558 -29.499289 132.09579
25400000000 -26.013126 39.722424 -1.0255063 -178.05019 -1.0332862 -178.11189 -29.307034 126.4744
25500000000 -26.374176 41.398605 -1.0284736 179.81052 -1.0413524 179.73386 -28.442251 121.82376
25600000000 -25.042339 40.912651 -1.0310411 177.74249 -1.0408796 177.61307 -28.388485 117.20921
25700000000 -25.508326 37.401722 -1.0399455 175.54019 -1.0429187 175.48186 -27.993956 111.33102
25800000000 -24.702986 41.259415 -1.0374519 173.42664 -1.0521396 173.39635 -27.569317 106.19577
25900000000 -24.540226 33.941292 -1.0513415 171.35822 -1.0597496 171.26788 -26.952244 101.82187
26000000000 -24.253878 38.596622 -1.0487095 169.2186 -1.0605718 169.14101 -26.64126 96.363724
26100000000 -23.514679 31.543135 -1.0640274 167.13474 -1.0650039 167.05356 -26.187021 93.266586
26200000000 -24.064779 34.987743 -1.0643493 165.02052 -1.0796077 164.91426 -25.694199 89.241623
26300000000 -22.782822 32.589005 -1.0764676 162.95485 -1.0849721 162.84689 -25.534422 85.88681
26400000000 -23.412836 31.767145 -1.0740646 160.75725 -1.0844375 160.77032 -24.9548 79.97731
26500000000 -22.325638 33.591988 -1.0676279 158.74329 -1.0907258 158.62224 -24.856739 78.493713
26600000000 -22.681168 27.960407 -1.0938493 156.63298 -1.1067098 156.63676 -24.169106 73.265343
26700000000 -21.956522 33.521454 -1.1005348 154.4879 -1.0827467 154.42952 -24.133598 70.996735
26800000000 -21.88175 25.461535 -1.0816877 152.5029 -1.0922165 152.32809 -23.49444 65.189705
26900000000 -21.884008 31.929338 -1.0911291 150.30589 -1.0920218 150.25058 -23.703211 66.720413
27000000000 -21.234711 24.754492 -1.0968523 148.22174 -1.0940993 148.18155 -23.005909 61.122101
27100000000 -21.563189 26.539454 -1.0966017 146.13268 -1.1005675 146.08971 -23.038691 56.990116
27200000000 -20.335819 23.95672 -1.0840397 144.01584 -1.1121423 143.95284 -22.428936 52.959454
27300000000 -21.127291 22.825443 -1.0988045 141.88312 -1.0956448 141.86235 -22.621561 49.084351
27400000000 -19.992361 22.986126 -1.1311734 139.77332 -1.1265179 139.63455 -21.669157 47.177299
27500000000 -20.769554 18.533722 -1.1335251 137.74718 -1.1207134 137.66016 -21.889057 43.739372
27600000000 -19.939762 21.039948 -1.1225902 135.64265 -1.1181883 135.54878 -21.483057 43.26635
27700000000 -20.135288 13.309272 -1.1209221 133.4044 -1.1236951 133.5132 -21.626333 36.976757
27800000000 -19.832392 16.755039 -1.1138566 131.53372 -1.1465151 131.30385 -21.154314 37.001003
27900000000 -19.264784 12.451642 -1.118422 129.41246 -1.1405448 129.36688 -21.216948 32.269863
28000000000 -19.80183 13.672208 -1.1215893 127.20046 -1.1445862 127.35086 -20.860415 30.81864
28100000000 -19.180586 12.081613 -1.1181377 125.25397 -1.131916 125.28003 -20.523148 25.073706
28200000000 -19.336731 12.003322 -1.123022 123.18065 -1.1360924 122.9982 -20.253529 25.195601
28300000000 -18.86725 8.7917595 -1.1261268 121.03979 -1.1252066 120.93092 -20.211824 22.415545
28400000000 -18.684677 7.2686009 -1.1078175 119.07763 -1.1212119 118.81786 -19.972897 19.964661
28500000000 -18.723997 5.5412364 -1.1242859 116.91998 -1.1313295 116.67874 -19.823708 15.785119
28600000000 -18.411705 3.0549819 -1.11256 114.65083 -1.1023768 114.55809 -19.731985 13.593499
28700000000 -18.625235 0.35252509 -1.0989355 112.56033 -1.1200455 112.44369 -19.526039 11.206984
28800000000 -18.636766 -1.3377967 -1.1327218 110.31516 -1.104445 110.33246 -19.399105 9.7515411
28900000000 -18.67346 -3.6016729 -1.1174402 108.33622 -1.1401641 108.25816 -19.398457 5.6049275
29000000000 -18.801172 -2.4961488 -1.1243647 106.22212 -1.1168507 106.16407 -19.184216 2.3685839
29100000000 -18.393824 -5.2681789 -1.0929865 104.15484 -1.1263402 104.04333 -19.199001 -2.5498607
29200000000 -18.75655 -4.9187417 -1.1171848 102.03768 -1.130771 101.89085 -18.937353 -2.646143
29300000000 -18.481529 -6.0864348 -1.1305864 99.965172 -1.1415176 99.878372 -18.636238 -5.1843305
29400000000 -18.955359 -6.4447465 -1.1249362 97.94062 -1.120646 97.814888 -18.696404 -4.7373648
29500000000 -18.230278 -7.0032125 -1.1077063 95.803909 -1.1344475 95.772148 -18.714334 -10.424229
29600000000 -18.677067 -12.886908 -1.130217 93.658798 -1.1254977 93.586006 -18.914774 -11.928996
29700000000 -18.36717 -8.293189 -1.0978571 91.587959 -1.1122283 91.302879 -18.747919 -17.881622
29800000000 -18.647619 -14.812469 -1.1183424 89.35453 -1.1409211 89.344849 -18.802187 -20.154104
29900000000 -18.767748 -9.587657 -1.105514 87.36721 -1.133292 87.388542 -18.408455 -23.37908
30000000000 -18.385571 -15.463721 -1.114532 85.189247 -1.1494166 85.201744 -18.431921 -23.506353
30100000000 -19.410015 -12.047388 -1.1406544 82.988014 -1.1225536 82.900383 -18.242918 -26.848269
30200000000 -18.213295 -17.705912 -1.1397185 81.085915 -1.1225837 81.006279 -18.657133 -28.488214
30300000000 -19.134739 -17.639891 -1.135883 78.715019 -1.1115284 78.78244 -18.316593 -32.768703
30400000000 -18.017082 -18.744392 -1.1184194 76.779648 -1.1254853 76.651283 -18.885637 -36.766533
30500000000 -19.199894 -20.93589 -1.1239252 74.48938 -1.1151644 74.422058 -18.541571 -38.89455
30600000000 -18.696194 -17.109386 -1.1032284 72.436653 -1.1350694 72.312462 -18.792437 -42.904358
30700000000 -19.280615 -24.527344 -1.1174225 70.329247 -1.1321566 70.222107 -18.406879 -42.439339
30800000000 -19.208233 -20.831314 -1.138598 68.329346 -1.1289669 68.04628 -19.016582 -48.202217
30900000000 -18.937363 -25.815413 -1.1454464 66.12381 -1.1350448 65.900421 -18.679247 -47.790073
31000000000 -19.403168 -22.02663 -1.1305242 63.970222 -1.1772944 63.777084 -18.885311 -53.145752
31100000000 -18.763126 -25.500216 -1.1205311 61.905579 -1.1340165 61.759403 -19.028524 -54.636391
31200000000 -19.176451 -22.751587 -1.1519481 59.869484 -1.1364762 59.599045 -18.842142 -58.792957
31300000000 -19.062202 -22.413795 -1.1199152 57.839684 -1.1305742 57.502003 -18.956652 -60.026791
31400000000 -19.56291 -22.784151 -1.1241424 55.716995 -1.17105 55.577187 -18.892153 -63.416519
31500000000 -19.630417 -23.866001 -1.1294252 53.444366 -1.1532782 53.461857 -19.303164 -64.102463
31600000000 -19.657158 -28.593225 -1.1501529 51.230774 -1.1451213 51.343056 -19.366102 -67.784996
31700000000 -19.337461 -26.375797 -1.1426719 49.142166 -1.1428022 48.946991 -19.383331 -70.255043
31800000000 -19.449953 -25.273069 -1.1493063 46.925987 -1.1511408 46.841961 -19.584423 -74.814232
31900000000 -19.887558 -24.968708 -1.1142666 44.917618 -1.1168665 44.886417 -19.795019 -78.321213
32000000000 -19.935274 -23.085791 -1.1172588 42.755062 -1.135811 42.703331 -19.725142 -81.318832
32100000000 -20.390759 -28.120621 -1.140535 40.521687 -1.141054 40.654705 -19.889833 -81.00943
32200000000 -20.361959 -24.643663 -1.1465725 38.648079 -1.1383927 38.580883 -20.124466 -86.870476
32300000000 -19.905869 -27.754438 -1.1428784 36.391582 -1.1530051 36.275082 -20.719688 -89.794075
32400000000 -20.49876 -24.588892 -1.1420578 34.196789 -1.1460676 34.239952 -20.839127 -95.503593
32500000000 -20.315472 -25.892618 -1.1399844 32.035583 -1.1770622 31.967587 -20.858511 -97.843071
32600000000 -21.18638 -23.360451 -1.1270816 29.903921 -1.1352549 29.783266 -20.691259 -103.12545
32700000000 -20.574217 -22.261791 -1.1687984 27.93372 -1.1870085 27.836994 -20.912714 -103.32316
32800000000 -21.447973 -25.923687 -1.1220907 25.773994 -1.1737745 25.683006 -21.092913 -107.06979
32900000000 -20.653553 -19.310314 -1.112646 23.561197 -1.1723688 23.561775 -21.969522 -109.06567
33000000000 -21.012281 -23.915449 -1.1652073 21.646261 -1.170289 21.403479 -22.335981 -114.03
33100000000 -21.138575 -18.815548 -1.1752692 19.250135 -1.1682998 19.389116 -22.656252 -121.17403
33200000000 -20.795349 -23.644434 -1.1485468 17.253937 -1.1811184 17.172089 -22.467438 -124.6485
33300000000 -21.087774 -14.909615 -1.1580598 15.150271 -1.1831027 15.014651 -23.436127 -129.14053
33400000000 -20.686808 -20.52055 -1.1616776 12.978782 -1.1759143 12.84408 -22.947466 -130.31046
33500000000 -21.333735 -16.77598 -1.1956277 11.063893 -1.1688544 10.926677 -23.807451 -139.07889
33600000000 -20.412022 -15.789418 -1.1771691 8.8146801 -1.1951327 8.6547279 -24.056572 -139.9693
33700000000 -21.056608 -14.574759 -1.2026109 6.8592939 -1.226122 6.6985044 -24.371025 -145.60419
33800000000 -20.284883 -12.941335 -1.2441957 4.5575986 -1.2007617 4.5196924 -24.377441 -150.61055
33900000000 -20.391466 -16.357979 -1.1979973 2.4845831 -1.1912374 2.2245216 -25.364927 -155.79427
34000000000 -19.979206 -11.251516 -1.2188498 0.36043769 -1.1982248 0.28364781 -25.574329 -162.19087
34100000000 -20.073608 -13.550479 -1.1840893 -1.7329494 -1.190253 -1.8645102 -24.785736 -167.45619
34200000000 -20.432358 -8.6183844 -1.2304195 -3.845695 -1.2151215 -3.8414798 -25.185177 -177.07365
34300000000 -20.134491 -9.8735151 -1.2320298 -6.0019631 -1.2137349 -6.1162477 -25.798431 175.17508
34400000000 -19.877401 -8.6813459 -1.2125214 -7.734725 -1.2309347 -8.0482264 -25.615381 166.19525
34500000000 -19.343344 -6.6170688 -1.1938847 -10.180369 -1.2091341 -10.24001 -24.992453 160.2305
34600000000 -19.562958 -10.042232 -1.2210534 -12.137046 -1.2239255 -12.594776 -26.072479 153.98294
34700000000 -19.398163 -5.9713049 -1.2302446 -14.157446 -1.2229971 -14.500195 -26.27018 144.49277
34800000000 -19.137615 -8.160738 -1.2278942 -16.560598 -1.1983739 -16.57267 -25.355984 135.00232
34900000000 -19.130533 -6.7956595 -1.2188615 -18.773727 -1.2322495 -18.924767 -25.295225 126.87064
35000000000 -18.256844 -9.0262938 -1.2661825 -20.811666 -1.2396011 -20.670956 -24.053652 123.15204
35100000000 -18.866041 -5.2811313 -1.2275038 -22.707649 -1.2608219 -22.994883 -24.239071 123.54912
35200000000 -18.341986 -4.9432874 -1.2477785 -24.75699 -1.243965 -24.888973 -24.674522 117.26506
35300000000 -18.434834 -8.2654219 -1.2323575 -27.002169 -1.25486 -27.207333 -24.861855 109.6348
35400000000 -17.871178 -2.7974865 -1.2416564 -29.263802 -1.2167422 -29.344416 -24.352594 100.26163
35500000000 -17.929518 -9.0833311 -1.2506535 -31.157473 -1.2529135 -31.370287 -22.681252 97.053215
35600000000 -17.766056 -2.9422483 -1.2859873 -33.519176 -1.2639749 -33.60265 -22.749784 91.296951
35700000000 -16.696589 -10.68152 -1.2399024 -35.454597 -1.2487469 -36.029102 -22.631161 89.750916
35800000000 -17.324654 -5.3685188 -1.2239275 -37.543789 -1.2480832 -37.766602 -22.05514 82.542282
35900000000 -16.127775 -8.668644 -1.2482351 -39.827549 -1.2956812 -40.146168 -21.892458 80.907959
36000000000 -17.108938 -10.517447 -1.2116184 -41.761196 -1.2833511 -41.948696 -21.390598 73.521416
36100000000 -16.350054 -8.3346853 -1.2952183 -43.832855 -1.3120925 -44.022663 -21.316963 69.057907
36200000000 -16.806719 -14.213685 -1.2826575 -45.84346 -1.2624785 -45.968559 -20.442667 63.766689
36300000000 -15.699583 -9.6930151 -1.2844191 -48.139416 -1.2323898 -48.343517 -20.515711 62.633102
36400000000 -16.011333 -17.812595 -1.2675887 -50.396915 -1.2531345 -50.712852 -20.504385 60.239887
36500000000 -15.919395 -9.8453913 -1.3012755 -52.20982 -1.2912413 -52.517605 -19.715189 55.48357
36600000000 -15.55018 -17.729334 -1.2119223 -54.592171 -1.295024 -54.702717 -19.298965 48.774967
36700000000 -16.009012 -13.087532 -1.2734641 -56.518711 -1.3062967 -56.79847 -19.178347 46.871273
36800000000 -15.159029 -18.309271 -1.2633886 -58.550949 -1.3491493 -58.727444 -18.318865 44.630295
36900000000 -15.920012 -18.368441 -1.2632139 -60.84922 -1.3137443 -60.989971 -18.510759 44.209198
37000000000 -14.706711 -18.357244 -1.26261 -62.947269 -1.3150196 -63.109673 -18.206396 42.055305
37100000000 -15.167318 -18.96888 -1.2945693 -65.281662 -1.2912549 -65.221283 -18.489872 34.156162
37200000000 -14.481656 -16.643013 -1.2762425 -67.344215 -1.3232653 -67.188568 -17.978813 31.283278
37300000000 -15.34737 -18.496279 -1.3498207 -69.303215 -1.3328453 -69.380196 -17.62307 26.684237
37400000000 -14.909262 -20.004549 -1.3001184 -71.260536 -1.3560547 -71.44265 -17.038115 26.786222
37500000000 -14.628862 -22.794983 -1.3297262 -73.332855 -1.3265259 -73.647736 -16.829111 23.759031
37600000000 -14.357216 -24.191702 -1.3213279 -75.570908 -1.3103312 -75.533775 -16.746273 22.71233
37700000000 -14.140343 -24.389977 -1.3031271 -77.468369 -1.2796844 -77.799522 -17.204439 19.912125
37800000000 -14.393456 -25.846109 -1.3606622 -79.764961 -1.2531711 -79.824799 -17.458397 16.608168
37900000000 -14.486759 -23.705627 -1.3458728 -81.738449 -1.3066796 -81.830452 -16.872198 9.9838858
38000000000 -14.297127 -26.486633 -1.344714 -84.060646 -1.3206278 -83.785332 -16.335915 7.4397674
38100000000 -14.346908 -28.033398 -1.3137439 -86.053162 -1.3320069 -85.966026 -16.203131 7.8096666
38200000000 -13.801976 -28.425852 -1.3037856 -88.260437 -1.3002354 -88.213814 -16.118124 7.6249099
38300000000 -14.491162 -33.559856 -1.3635728 -90.196556 -1.3758067 -89.85479 -16.037577 5.3957849
38400000000 -13.690094 -28.7225 -1.3173892 -92.27253 -1.3435901 -92.638855 -16.247 1.5138958
38500000000 -14.159838 -33.926731 -1.3078524 -94.5784 -1.3761529 -94.663986 -16.338449 -0.75476712
38600000000 -13.914399 -29.83218 -1.3294208 -96.599602 -1.3535933 -96.504639 -15.814739 -5.5568428
38700000000 -13.893323 -37.114822 -1.330996 -98.648636 -1.3633146 -98.919968 -15.384365 -6.6842518
38800000000 -14.411684 -30.741779 -1.3046569 -100.5557 -1.3147891 -100.774 -15.348518 -9.9038391
38900000000 -13.593574 -37.736897 -1.3516314 -102.83434 -1.3494837 -102.93215 -15.79702 -10.15016
39000000000 -14.692846 -34.86425 -1.3241237 -104.80025 -1.389329 -104.85868 -15.276041 -12.344012
39100000000 -13.115008 -37.643517 -1.3967962 -107.23642 -1.3820702 -106.97671 -15.607128 -18.017302
39200000000 -14.795372 -39.765446 -1.3802273 -108.85901 -1.3591459 -109.2887 -15.217072 -19.005713
39300000000 -13.272554 -38.963226 -1.3469058 -111.008 -1.4436178 -111.39402 -15.244087 -23.306683
39400000000 -14.613531 -46.69981 -1.3264601 -113.02181 -1.3746285 -113.46515 -14.601809 -23.906664
39500000000 -13.766587 -39.108807 -1.3501959 -115.06905 -1.4072865 -115.57295 -15.43295 -24.176325
39600000000 -14.440341 -49.179451 -1.4005791 -117.61523 -1.3779112 -117.43706 -15.33657 -26.303699
39700000000 -14.2051 -39.238625 -1.3506067 -119.28944 -1.3786418 -119.86263 -15.780163 -29.954672
39800000000 -14.073183 -48.003319 -1.4105219 -121.90755 -1.3542811 -121.92916 -15.584749 -33.883694
39900000000 -15.359705 -42.096451 -1.3123521 -123.83484 -1.3961511 -123.80098 -15.407278 -39.556572
40000000000 -13.907563 -50.065506 -1.3444297 -125.47826 -1.3757769 -125.69813 -14.944475 -38.811832
40100000000 -14.98335 -49.274963 -1.3482972 -127.91252 -1.3626287 -127.83227 -14.911051 -39.330654
40200000000 -13.758154 -50.624794 -1.3444829 -129.86685 -1.3550621 -129.65599 -15.289367 -41.301544
40300000000 -14.780693 -52.260201 -1.3208408 -132.11601 -1.3421583 -132.0078 -15.503654 -44.697674
40400000000 -14.427184 -49.16135 -1.3786454 -134.0246 -1.3354599 -133.94054 -16.010605 -46.986481
40500000000 -15.274632 -51.74041 -1.3633755 -136.08107 -1.3429708 -136.23203 -15.589266 -53.7925
40600000000 -14.986701 -49.270805 -1.3676721 -138.10384 -1.3466545 -138.55064 -15.389779 -56.662895
40700000000 -14.864495 -55.145962 -1.2442808 -140.05209 -1.3214012 -140.4872 -15.422097 -56.959545
40800000000 -15.403202 -54.228779 -1.298002 -142.25412 -1.2808187 -142.65895 -15.525078 -56.715721
40900000000 -14.927958 -52.775051 -1.2920754 -144.41086 -1.3094018 -144.43498 -16.23151 -57.9384
41000000000 -15.544554 -55.989231 -1.3450012 -146.81219 -1.3014358 -146.28867 -15.923338 -63.471939
41100000000 -15.155898 -51.69268 -1.3036367 -148.62161 -1.2982279 -148.89827 -16.694771 -67.293106
41200000000 -15.633659 -59.126598 -1.341645 -151.10191 -1.333896 -151.15245 -16.635204 -69.662552
41300000000 -16.307108 -50.887383 -1.3173609 -153.0993 -1.2753758 -153.22522 -16.868656 -70.443146
41400000000 -15.414534 -56.934399 -1.3000607 -155.21001 -1.3443295 -155.4301 -16.672441 -71.974823
41500000000 -16.88822 -55.404682 -1.2724615 -157.27219 -1.3261759 -157.63631 -16.728033 -75.293732
41600000000 -15.484286 -56.130917 -1.2737691 -160.05624 -1.2722269 -159.85023 -17.082819 -76.984207
41700000000 -16.666031 -60.595493 -1.3580999 -161.26917 -1.4090772 -161.67732 -17.680811 -84.857513
41800000000 -15.689931 -53.463619 -1.3436737 -163.73674 -1.3170475 -163.77635 -17.667322 -82.155258
41900000000 -16.911884 -62.257416 -1.3252237 -165.8821 -1.3207426 -165.75899 -18.079357 -88.791107
42000000000 -16.6954 -47.286434 -1.2476541 -168.17815 -1.3363768 -168.01108 -18.746672 -89.305145
42100000000 -16.980352 -62.288361 -1.2831131 -169.91656 -1.3311156 -170.39259 -18.291773 -94.535355
42200000000 -17.645287 -48.468719 -1.2696893 -172.36772 -1.3548868 -172.68579 -19.125458 -93.489944
42300000000 -16.64785 -59.106483 -1.2553705 -174.00526 -1.3190069 -174.43266 -18.401402 -96.979378
42400000000 -18.518484 -51.393833 -1.27539 -176.69594 -1.3693898 -176.3335 -20.157877 -102.55832
42500000000 -16.279549 -50.776546 -1.2781972 -178.59319 -1.2953656 -179.09033 -20.363842 -105.1798
42600000000 -19.078131 -46.78952 -1.295534 179.16489 -1.2086953 178.88634 -21.042231 -115.93248
42700000000 -17.092857 -50.67252 -1.2801338 176.46596 -1.2806894 176.853 -20.504972 -111.49398
42800000000 -18.629831 -57.498112 -1.2665983 174.63542 -1.2508286 175.1333 -21.742727 -119.91608
42900000000 -18.141436 -45.49205 -1.3213559 172.76047 -1.2948002 172.35283 -21.629929 -119.30188
43000000000 -18.169701 -55.489655 -1.2674723 170.09183 -1.2418046 170.41898 -22.263935 -123.468
43100000000 -18.666292 -44.757397 -1.2913815 168.71724 -1.3182929 168.52435 -23.537121 -132.07837
43200000000 -17.656322 -42.189659 -1.3864455 166.1236 -1.2436448 166.41101 -24.436808 -144.25551
43300000000 -19.67536 -38.756622 -1.2888942 164.9138 -1.3579146 164.23016 -24.918175 -152.17508
43400000000 -17.9231 -42.495235 -1.2902399 162.0287 -1.3443658 162.22127 -24.849249 -139.06479
43500000000 -18.026209 -58.925648 -1.2561779 159.47197 -1.2514029 159.52676 -26.564152 -147.71407
43600000000 -17.340752 -38.602291 -1.3209257 157.83444 -1.2722825 157.4241 -27.117188 -146.31367
43700000000 -18.50087 -43.189247 -1.2618917 155.64978 -1.3295202 155.07466 -29.431391 -159.91675
43800000000 -17.995148 -34.513332 -1.3471522 153.4765 -1.3482029 153.54515 -33.587132 177.9133
43900000000 -18.071941 -44.720047 -1.3326339 151.71938 -1.2960995 151.20045 -28.50576 153.50105
44000000000 -18.989481 -33.569603 -1.2558253 149.55759 -1.3070073 149.28194 -30.351257 159.85747
44100000000 -16.242884 -40.267002 -1.4203349 146.97978 -1.3855102 146.86235 -32.164459 145.61073
44200000000 -18.713972 -39.693146 -1.3253529 145.28989 -1.3505183 145.09099 -32.020409 154.54182
44300000000 -16.741652 -33.654633 -1.2503614 143.18958 -1.358255 142.99619 -31.906746 128.87309
44400000000 -17.599638 -34.646667 -1.2938641 140.61386 -1.3505043 140.55093 -31.747269 93.222702
44500000000 -16.508713 -25.277346 -1.394765 138.96545 -1.3273649 138.77235 -28.150705 89.633247
44600000000 -17.145031 -40.250065 -1.3535399 136.57076 -1.3795736 136.2236 -28.178722 84.897408
44700000000 -17.331226 -21.58819 -1.296744 134.70821 -1.3779372 134.509 -28.820812 78.261497
44800000000 -16.023323 -44.864491 -1.3188161 132.9657 -1.3391944 132.11125 -25.733744 84.912926
44900000000 -17.066214 -26.504969 -1.3333164 129.75137 -1.4279413 130.36682 -26.417635 65.987869
45000000000 -16.064716 -36.154301 -1.3965063 128.17455 -1.3493072 128.12769 -23.628784 68.557701
