!Keysight Technologies,N5247B,MY61255062,A.19.80.06
!Date: Monday, May 18, 2026 11:51:04
!Correction: S11(Cdelta 2-Port  ) 
!S21(Cdelta 2-Port  ) 
!S12(Cdelta 2-Port  ) 
!S22(Cdelta 2-Port  ) 
!S2P File: Measurements: S11, S21, S12, S22:
# Hz S  dB   R 50
1000000000 -1.7401004 139.73637 -34.658901 -15.32264 -34.672733 -15.236589 -0.26465294 177.47842
1100000000 -1.7577887 135.90193 -34.620277 -16.847017 -34.678265 -16.977365 -0.26821122 177.24306
1200000000 -1.7692691 132.0302 -34.648911 -18.781031 -34.643578 -18.617123 -0.26693928 177.01224
1300000000 -1.7807707 128.15897 -34.606632 -20.263786 -34.610218 -20.683708 -0.27222493 176.75891
1400000000 -1.7883196 124.29647 -34.579037 -21.839994 -34.612091 -21.787966 -0.27250385 176.53001
1500000000 -1.792564 120.42483 -34.581173 -23.399254 -34.59663 -23.266712 -0.27469808 176.27754
1600000000 -1.7953955 116.5332 -34.550613 -25.14093 -34.562386 -24.850349 -0.274277 176.03644
1700000000 -1.7986922 112.65793 -34.562592 -26.496254 -34.593498 -26.614388 -0.27641338 175.78896
1800000000 -1.8010073 108.75679 -34.484005 -27.996267 -34.530224 -28.151028 -0.27669808 175.55815
1900000000 -1.8016708 104.86017 -34.510941 -29.630491 -34.512135 -29.550056 -0.27899161 175.33148
2000000000 -1.8027606 100.93079 -34.484364 -31.325344 -34.492283 -31.210649 -0.27884477 175.0755
2100000000 -1.7994643 97.014931 -34.521423 -32.759636 -34.493721 -32.594143 -0.28211772 174.83035
2200000000 -1.7950574 93.081848 -34.434738 -34.377991 -34.437664 -34.571247 -0.28167826 174.60115
2300000000 -1.7909986 89.16153 -34.403503 -36.52644 -34.38126 -36.033298 -0.28453296 174.35216
2400000000 -1.7827585 85.213982 -34.379333 -37.84161 -34.386093 -37.93055 -0.28560242 174.11249
2500000000 -1.779766 81.262199 -34.388176 -38.873898 -34.433651 -38.743744 -0.28566518 173.87325
2600000000 -1.7686568 77.324142 -34.339863 -40.89082 -34.403057 -40.731628 -0.28661326 173.63351
2700000000 -1.7557877 73.337814 -34.311337 -42.227341 -34.333916 -42.758343 -0.28881961 173.40878
2800000000 -1.7417674 69.381302 -34.254745 -43.733803 -34.289482 -43.722305 -0.28984809 173.17506
2900000000 -1.7236722 65.41304 -34.233116 -45.534172 -34.203754 -45.786083 -0.29229808 172.9317
3000000000 -1.7104093 61.422539 -34.170773 -46.883865 -34.206928 -47.208706 -0.29116827 172.68988
3100000000 -1.6928442 57.411758 -34.183823 -48.929867 -34.171162 -48.813404 -0.29155719 172.46779
3200000000 -1.6759007 53.389751 -34.048874 -49.838757 -34.118126 -50.433971 -0.29273805 172.21321
3300000000 -1.6563693 49.344452 -34.016518 -51.897701 -34.025021 -51.744843 -0.29133296 171.99541
3400000000 -1.6361401 45.319107 -34.021534 -53.588509 -33.975391 -53.685432 -0.29162005 171.76878
3500000000 -1.6155916 41.244995 -33.981201 -55.567226 -33.906116 -55.314556 -0.29560474 171.52684
3600000000 -1.5932984 37.162113 -33.797882 -57.196697 -33.92992 -57.202221 -0.29919958 171.26718
3700000000 -1.5747651 33.110222 -33.744434 -58.705715 -33.727863 -59.37373 -0.29810983 171.04094
3800000000 -1.5511143 28.968065 -33.697021 -60.848789 -33.71682 -60.828655 -0.29827341 170.79727
3900000000 -1.5275534 24.860741 -33.792049 -62.466553 -33.735607 -62.759857 -0.29852906 170.57704
4000000000 -1.5011038 20.714703 -33.704872 -64.820938 -33.680031 -64.727753 -0.30176279 170.32529
4100000000 -1.4850453 16.593824 -33.508995 -66.076889 -33.618092 -66.569603 -0.30270413 170.09906
4200000000 -1.4621087 12.489165 -33.526981 -67.840996 -33.501984 -68.394234 -0.30476928 169.84041
4300000000 -1.4466248 8.3765488 -33.550816 -70.706566 -33.545631 -70.53199 -0.30555546 169.60056
4400000000 -1.4256719 4.2735853 -33.447781 -72.373405 -33.534794 -72.207932 -0.30412093 169.35745
4500000000 -1.4067382 0.12503201 -33.456665 -74.015526 -33.433979 -74.221565 -0.30719796 169.13948
4600000000 -1.3855484 -3.9893367 -33.392406 -76.018517 -33.427624 -75.987457 -0.30707267 168.88557
4700000000 -1.3650709 -8.1378279 -33.416885 -77.644691 -33.390198 -77.729988 -0.3094148 168.66129
4800000000 -1.3434808 -12.262203 -33.412128 -79.747208 -33.375374 -79.90583 -0.31118196 168.40334
4900000000 -1.3238151 -16.404015 -33.388058 -81.585953 -33.400227 -81.971596 -0.31266332 168.1732
5000000000 -1.3070972 -20.540203 -33.395695 -83.567802 -33.307987 -83.197388 -0.31318495 167.92642
5100000000 -1.2900678 -24.684036 -33.267868 -85.401291 -33.32478 -85.823921 -0.31431049 167.68652
5200000000 -1.2731098 -28.842117 -33.333836 -87.492958 -33.294975 -87.410019 -0.31276709 167.43584
5300000000 -1.2536451 -32.969288 -33.24744 -89.339661 -33.320259 -88.637596 -0.31479642 167.21855
5400000000 -1.2401294 -37.090584 -33.215294 -91.14798 -33.190479 -91.089622 -0.31532162 166.96732
5500000000 -1.2278863 -41.198353 -33.253273 -93.115753 -33.24741 -92.932861 -0.31869102 166.73235
5600000000 -1.2177587 -45.333965 -33.253948 -95.002953 -33.262684 -94.656174 -0.31991354 166.50772
5700000000 -1.2073251 -49.464626 -33.148067 -96.660469 -33.196495 -96.697662 -0.32255676 166.25739
5800000000 -1.1963004 -53.564758 -33.144714 -98.607315 -33.194031 -99.026985 -0.32161057 166.02341
5900000000 -1.1858423 -57.687347 -33.184612 -100.4892 -33.127155 -100.3823 -0.32320645 165.77827
6000000000 -1.1756778 -61.776905 -33.053474 -102.1342 -33.137375 -102.34956 -0.32199833 165.52658
6100000000 -1.1685985 -65.831047 -33.129627 -103.34986 -33.188622 -103.88271 -0.32400602 165.31377
6200000000 -1.1681185 -69.894485 -33.088337 -105.80327 -33.049103 -106.09026 -0.32598785 165.07729
6300000000 -1.1683902 -73.956169 -33.109287 -107.34312 -33.05986 -107.30193 -0.32839942 164.8421
6400000000 -1.1735818 -78.040161 -33.064938 -109.37537 -33.057121 -109.43773 -0.32611844 164.55612
6500000000 -1.1734866 -82.069901 -33.050129 -110.81995 -33.004341 -110.78289 -0.33342192 164.34044
6600000000 -1.1695974 -86.098984 -32.918243 -112.68428 -32.975517 -112.47843 -0.33129478 164.10298
6700000000 -1.1701101 -90.094872 -32.870544 -115.16174 -32.887932 -114.77277 -0.33318937 163.87779
6800000000 -1.1670015 -94.085106 -32.857735 -116.70708 -32.826576 -116.88671 -0.32961491 163.61696
6900000000 -1.176157 -98.100235 -32.758186 -119.27914 -32.775627 -119.30306 -0.33483651 163.38791
7000000000 -1.1766006 -102.06573 -32.81282 -121.58147 -32.843281 -121.82362 -0.33356476 163.14513
7100000000 -1.1859457 -106.07079 -32.851898 -123.98473 -32.840942 -123.83596 -0.33421332 162.89034
7200000000 -1.1927497 -110.00583 -32.876759 -125.593 -32.886528 -125.85894 -0.33513513 162.63657
7300000000 -1.2048364 -113.98971 -32.89296 -127.43509 -32.910084 -127.29259 -0.34070972 162.40305
7400000000 -1.2187648 -117.90203 -32.918381 -129.40329 -32.873524 -128.90196 -0.34214124 162.18857
7500000000 -1.2267668 -121.83839 -32.927433 -131.14069 -32.937988 -130.91411 -0.34853619 161.94901
7600000000 -1.2426137 -125.71802 -32.983738 -132.6154 -32.973118 -132.47147 -0.34867251 161.7356
7700000000 -1.2554255 -129.62328 -32.83812 -133.85591 -32.947891 -134.0217 -0.34906045 161.44286
7800000000 -1.2758567 -133.54059 -32.939144 -135.96069 -32.946972 -135.8405 -0.34385619 161.18164
7900000000 -1.2925358 -137.39966 -32.855824 -137.77138 -32.986282 -137.48541 -0.34288126 160.94994
8000000000 -1.3123342 -141.286 -32.870243 -139.4037 -32.82888 -140.12407 -0.34284455 160.74925
8100000000 -1.3276734 -145.09256 -32.860996 -141.62848 -32.844494 -141.32707 -0.35319987 160.5058
8200000000 -1.3422525 -148.94667 -32.893559 -143.96083 -32.796001 -143.60472 -0.36703995 160.26714
8300000000 -1.3648221 -152.76913 -32.872032 -145.18785 -32.905056 -145.44899 -0.38568175 159.87843
8400000000 -1.3780648 -156.61967 -32.852871 -146.84393 -32.841499 -147.37157 -0.39555994 159.44751
8500000000 -1.4012867 -160.41917 -32.817337 -148.75809 -32.867153 -148.56151 -0.39906511 158.93536
8600000000 -1.4165071 -164.2453 -32.917667 -150.8476 -32.786346 -150.61885 -0.38906398 158.57138
8700000000 -1.4424543 -168.05722 -32.990067 -151.5605 -32.991276 -152.04462 -0.34527951 158.31876
8800000000 -1.4587728 -171.84674 -32.733688 -153.44066 -32.734692 -153.13701 -0.28785115 158.13438
8900000000 -1.4818788 -175.66809 -32.821148 -155.09724 -32.888466 -155.46451 -0.29140607 157.8965
9000000000 -1.5021276 -179.44106 -32.879154 -157.15895 -32.830544 -157.3221 -0.29723519 157.95901
9100000000 -1.5225151 176.73975 -32.839081 -159.20436 -32.826046 -159.08374 -0.32832932 157.92776
9200000000 -1.5430747 172.96513 -32.772293 -160.27145 -32.917248 -160.91658 -0.34915781 157.87836
9300000000 -1.5645038 169.19475 -32.785522 -162.3591 -32.725166 -162.28813 -0.36142194 157.65967
9400000000 -1.5854532 165.37622 -32.738903 -163.54907 -32.770535 -163.42978 -0.37181973 157.37682
9500000000 -1.6129199 161.56859 -32.696182 -165.47934 -32.757896 -165.87976 -0.3712225 157.08807
9600000000 -1.629813 157.79712 -32.731148 -167.46236 -32.712898 -167.17801 -0.37167028 156.85469
9700000000 -1.648223 153.99411 -32.63282 -168.67944 -32.683662 -169.06111 -0.37316084 156.6077
9800000000 -1.6682203 150.24103 -32.656605 -170.41869 -32.634098 -170.34732 -0.37601846 156.39583
9900000000 -1.6893414 146.42688 -32.633694 -172.44746 -32.604836 -172.24893 -0.38033879 156.1378
10000000000 -1.7099426 142.66959 -32.649899 -174.48543 -32.537235 -173.59164 -0.38300434 155.87712
10100000000 -1.7262557 138.79839 -32.642532 -175.52994 -32.602173 -175.87094 -0.3837426 155.56413
10200000000 -1.7541789 135.03711 -32.51223 -177.62363 -32.479332 -176.93806 -0.37726656 155.35065
10300000000 -1.7663631 131.18887 -32.601303 -178.60052 -32.471897 -179.54872 -0.38163844 155.12445
10400000000 -1.7928441 127.39725 -32.423954 179.40176 -32.486259 -179.8936 -0.38262635 154.96062
10500000000 -1.800802 123.54785 -32.595673 177.44159 -32.455063 177.70853 -0.39118707 154.71402
10600000000 -1.8243045 119.69675 -32.470051 176.38136 -32.447872 176.29585 -0.40172204 154.49977
10700000000 -1.8329322 115.89893 -32.274448 173.99973 -32.443287 175.06882 -0.40801799 154.16809
10800000000 -1.8559858 111.98545 -32.282341 173.07521 -32.350368 172.39177 -0.412218 153.9071
10900000000 -1.8687338 108.20271 -32.275833 171.03175 -32.338234 170.84679 -0.41437551 153.60358
11000000000 -1.8784658 104.27224 -32.283848 169.71658 -32.299145 169.38139 -0.40994921 153.41281
11100000000 -1.8970023 100.44319 -32.181984 168.16739 -32.217762 168.62018 -0.40198016 153.19107
11200000000 -1.901491 96.493713 -32.236416 166.69934 -32.146912 166.92886 -0.40683779 153.03523
11300000000 -1.9151664 92.610046 -32.095913 164.5809 -32.154716 165.45634 -0.40791875 152.78947
11400000000 -1.9128826 88.711113 -32.113186 163.93941 -31.976557 163.61952 -0.42525786 152.59523
11500000000 -1.9281883 84.744301 -31.955698 162.09883 -31.90369 161.33676 -0.42899394 152.35704
11600000000 -1.9289742 80.84996 -31.893503 159.86151 -31.905279 160.11989 -0.43205553 152.08807
11700000000 -1.9322809 76.787842 -31.751268 158.11092 -31.78734 158.22835 -0.42567897 151.80959
11800000000 -1.9356958 72.800575 -31.685156 156.67484 -31.689768 156.77141 -0.42571437 151.59952
11900000000 -1.9409362 68.770882 -31.61697 154.88559 -31.637655 154.37744 -0.41749063 151.38324
12000000000 -1.9411038 64.730789 -31.538469 152.87927 -31.479637 153.26118 -0.4243207 151.16573
12100000000 -1.9413742 60.705627 -31.397453 151.25467 -31.579502 150.7514 -0.42562699 150.95833
12200000000 -1.9426007 56.646427 -31.487526 149.62946 -31.474382 149.39905 -0.43459511 150.7153
12300000000 -1.9461542 52.554077 -31.333315 148.06175 -31.374971 147.58333 -0.43828341 150.46303
12400000000 -1.9414268 48.452023 -31.246962 145.63815 -31.211191 145.76796 -0.43963519 150.21718
12500000000 -1.943426 44.348164 -31.172199 144.04778 -31.207933 144.4655 -0.4342232 149.98441
12600000000 -1.9387311 40.277439 -31.021671 141.8864 -31.015944 142.59775 -0.4376432 149.75238
12700000000 -1.9378072 36.12215 -30.959698 140.80699 -30.856604 140.26463 -0.43894377 149.53148
12800000000 -1.9456222 32.029999 -30.767216 139.2502 -30.853992 138.73254 -0.44251969 149.30298
12900000000 -1.9312845 27.835142 -30.661989 136.94168 -30.654562 136.59323 -0.44497937 149.06496
13000000000 -1.9351364 23.698277 -30.492359 134.86835 -30.510822 134.9028 -0.44483626 148.83316
13100000000 -1.9131166 19.542805 -30.276726 132.53087 -30.353096 132.59294 -0.43738496 148.57127
13200000000 -1.9190602 15.364411 -30.205118 130.0547 -30.194889 130.36922 -0.43813136 148.34241
13300000000 -1.9034587 11.259267 -30.043488 127.58591 -30.071955 127.94233 -0.43679237 148.09944
13400000000 -1.8971741 6.9790883 -29.909679 124.96684 -29.875725 125.2058 -0.43792808 147.81905
13500000000 -1.8885272 2.8420632 -29.844614 122.25796 -29.852005 121.77614 -0.43657655 147.51105
13600000000 -1.8635383 -1.5334593 -29.841059 119.06342 -29.748037 118.92672 -0.44266787 147.24071
13700000000 -1.8571457 -5.6363926 -29.698994 115.45779 -29.681116 115.61236 -0.43680868 146.97093
13800000000 -1.8203911 -9.9313202 -29.775015 112.97353 -29.697535 112.52998 -0.44241565 146.7002
13900000000 -1.8297459 -14.112348 -29.824991 109.64637 -29.777203 109.25137 -0.44838345 146.47238
14000000000 -1.8078041 -18.360985 -29.948492 106.67216 -29.960068 106.84584 -0.4617084 146.19533
14100000000 -1.8181388 -22.770191 -30.117699 104.23398 -30.087444 104.22948 -0.46953151 145.99678
14200000000 -1.7875632 -27.03528 -30.330242 102.74703 -30.317085 102.53371 -0.48179778 145.72342
14300000000 -1.7825868 -31.416842 -30.443733 101.48862 -30.407129 101.73204 -0.48236096 145.56415
14400000000 -1.7677642 -35.561905 -30.429184 100.26466 -30.489206 100.30392 -0.48236039 145.3623
14500000000 -1.76245 -39.811943 -30.349792 99.473038 -30.352131 99.078217 -0.47739562 145.23824
14600000000 -1.7656479 -44.022762 -30.206089 98.003716 -30.22801 97.457718 -0.46828315 145.0208
14700000000 -1.7506222 -48.297611 -30.051382 95.564865 -30.133104 95.64315 -0.46765578 144.81747
14800000000 -1.7489282 -52.639244 -30.160309 92.93 -30.128895 92.961601 -0.46670222 144.49826
14900000000 -1.7290219 -56.928764 -30.042482 91.445702 -30.069912 91.807289 -0.466297 144.30872
15000000000 -1.7229623 -61.173748 -30.08515 89.550354 -30.071188 89.516685 -0.45796391 144.03493
15100000000 -1.7125909 -65.357292 -29.926716 87.43911 -29.872478 86.809143 -0.44638312 143.83885
15200000000 -1.7095459 -69.594765 -29.938112 84.407471 -29.90202 84.887894 -0.44549617 143.53549
15300000000 -1.7083702 -73.858543 -30.022072 82.226936 -29.952681 81.798164 -0.45787358 143.24265
15400000000 -1.7023355 -78.115044 -30.13105 80.548027 -30.092567 80.741997 -0.46212643 142.99667
15500000000 -1.6952151 -82.348373 -30.051435 78.647011 -30.023289 78.215576 -0.45960408 142.7618
15600000000 -1.6873562 -86.562645 -29.967373 77.204597 -30.084492 76.732201 -0.45368236 142.43427
15700000000 -1.6863275 -90.745865 -30.015404 74.652618 -30.067627 74.800835 -0.45283875 142.20531
15800000000 -1.6968715 -94.944542 -30.121311 73.207275 -30.030325 73.315155 -0.45555437 141.95271
15900000000 -1.7007996 -99.070396 -29.961052 72.405151 -29.990261 72.132149 -0.45898804 141.70181
16000000000 -1.7063199 -103.27747 -29.831326 70.365303 -29.847755 70.795433 -0.46616125 141.40421
16100000000 -1.7071053 -107.34175 -29.809624 68.613686 -29.768511 67.853569 -0.46680138 141.1377
16200000000 -1.6988317 -111.55348 -29.781124 65.682007 -29.787643 65.45311 -0.47095564 140.8073
16300000000 -1.7092749 -115.56347 -29.748234 63.577873 -29.72901 63.732243 -0.4764922 140.5719
16400000000 -1.7051736 -119.71379 -29.720242 60.796913 -29.698914 61.340824 -0.47249311 140.30026
16500000000 -1.7341403 -123.82865 -29.660133 58.91045 -29.68647 59.429375 -0.47887146 140.10875
16600000000 -1.7146922 -127.8796 -29.670231 57.698944 -29.693453 57.009754 -0.48898968 139.83626
16700000000 -1.7340535 -132.09204 -29.664783 55.094391 -29.639303 55.905647 -0.4940562 139.6124
16800000000 -1.7267083 -135.91673 -29.656889 53.888435 -29.645924 54.013702 -0.49352658 139.31297
16900000000 -1.7471539 -140.08553 -29.627848 51.158455 -29.632866 51.211887 -0.5015645 139.1115
17000000000 -1.7653968 -143.94888 -29.631348 49.686752 -29.641479 49.349083 -0.49761596 138.87604
17100000000 -1.7669246 -148.1369 -29.627403 48.072876 -29.603016 47.452885 -0.49970651 138.69449
17200000000 -1.7942333 -152.06592 -29.578384 45.197922 -29.517942 45.684822 -0.49068481 138.46786
17300000000 -1.7607362 -156.0452 -29.615332 43.755455 -29.49284 43.721237 -0.49967283 138.25642
17400000000 -1.805285 -159.89676 -29.558674 41.39447 -29.486542 41.250069 -0.49689668 137.97678
17500000000 -1.802961 -163.71387 -29.401901 40.113281 -29.485617 39.356243 -0.50540084 137.72797
17600000000 -1.8416257 -167.79959 -29.422052 38.18914 -29.471844 37.593937 -0.49306142 137.47604
17700000000 -1.8477868 -171.60223 -29.430752 35.632092 -29.351934 35.665852 -0.49585718 137.2437
17800000000 -1.8462659 -175.65097 -29.369818 34.216564 -29.416412 33.566772 -0.48717359 137.01039
17900000000 -1.8587489 -179.24281 -29.371828 32.000069 -29.376778 31.659044 -0.49457887 136.80775
18000000000 -1.8559651 176.87 -29.401798 30.473001 -29.364584 30.166075 -0.49835625 136.57191
18100000000 -1.8910203 173.13293 -29.314814 28.477274 -29.202494 27.92297 -0.50649643 136.26941
18200000000 -1.8902394 169.24083 -29.269775 26.356222 -29.29331 26.078175 -0.502159 136.02933
18300000000 -1.9103115 165.35742 -29.236691 24.021725 -29.268505 24.145647 -0.50014973 135.65875
18400000000 -1.9127841 161.63618 -29.2391 22.720129 -29.308435 22.06851 -0.48556146 135.44244
18500000000 -1.9197921 157.8087 -29.209364 20.689507 -29.222158 20.780081 -0.4941954 135.22757
18600000000 -1.9311182 154.06276 -29.22669 19.080284 -29.266088 19.099487 -0.4951295 135.02615
18700000000 -1.9461656 150.31839 -29.14032 16.813044 -29.139141 16.491867 -0.5095768 134.7608
18800000000 -1.9558232 146.44261 -29.16135 15.40676 -29.171381 15.396778 -0.50855201 134.50713
18900000000 -1.9708685 142.71489 -29.085848 13.238827 -29.098322 13.454327 -0.512133 134.16229
19000000000 -1.9721544 138.8559 -29.016947 11.130272 -28.901896 11.362922 -0.5010078 133.89044
19100000000 -1.9891598 135.17653 -28.908575 9.1758537 -28.881187 9.6274462 -0.5014686 133.63425
19200000000 -1.9774884 131.4187 -28.81139 7.3899951 -28.841246 7.7185187 -0.49428737 133.41165
19300000000 -2.0134528 127.67488 -28.722692 5.4181933 -28.795856 5.5051832 -0.49827349 133.22575
19400000000 -1.9976488 124.03957 -28.669462 3.2791727 -28.735319 3.3550498 -0.49162567 132.96524
19500000000 -2.0379033 120.1871 -28.694502 1.6596352 -28.64694 0.51227462 -0.50551689 132.68683
19600000000 -2.0287981 116.56923 -28.664902 -0.87427241 -28.622725 -0.9342339 -0.494663 132.41978
19700000000 -2.0319088 112.58071 -28.540499 -3.2081268 -28.547831 -3.4600537 -0.50045413 132.12852
19800000000 -2.040926 109.11703 -28.561047 -5.4235854 -28.518738 -5.1709476 -0.48460135 131.90265
19900000000 -2.0188737 105.26235 -28.474514 -7.7255359 -28.417681 -7.6259723 -0.49217707 131.57121
20000000000 -2.0637829 101.79357 -28.411211 -9.8855228 -28.360928 -9.6946478 -0.48685214 131.35159
20100000000 -2.0456471 97.968483 -28.30448 -11.666054 -28.377203 -11.989135 -0.49728677 131.00301
20200000000 -2.098639 94.172737 -28.302208 -14.808226 -28.263037 -14.046506 -0.48894563 130.74455
20300000000 -2.064918 90.453773 -28.314562 -17.186655 -28.288755 -17.321325 -0.49415714 130.38011
20400000000 -2.0870023 86.552193 -28.224287 -19.059252 -28.303587 -19.077976 -0.49102798 130.15311
20500000000 -2.0766208 83.139328 -28.255865 -21.670082 -28.26273 -21.623989 -0.50806254 129.82542
20600000000 -2.0838034 79.2258 -28.352612 -24.976017 -28.380951 -24.552896 -0.52313787 129.61612
20700000000 -2.113991 75.648079 -28.445024 -26.539433 -28.435087 -27.267502 -0.54095227 129.24622
20800000000 -2.108398 71.728493 -28.532581 -28.581488 -28.61574 -28.791576 -0.56204116 129.06015
20900000000 -2.1215641 67.941673 -28.739594 -29.739391 -28.730881 -29.916458 -0.56334978 128.74667
21000000000 -2.1097229 64.226921 -28.726433 -30.53907 -28.810135 -30.351875 -0.56832296 128.65773
21100000000 -2.120482 60.433029 -28.62756 -30.833172 -28.629314 -31.264891 -0.55749369 128.42365
21200000000 -2.1366754 56.863754 -28.408564 -32.487282 -28.36314 -31.977547 -0.54461408 128.33846
21300000000 -2.1333442 53.042564 -28.102282 -34.812618 -28.133217 -35.073586 -0.53090781 128.02513
21400000000 -2.1511383 49.284756 -27.992704 -38.817768 -28.098219 -38.975365 -0.54360121 127.66323
21500000000 -2.1200564 45.470268 -28.231586 -41.998482 -28.203362 -41.921562 -0.56037712 127.37523
21600000000 -2.1242373 41.473221 -28.427063 -43.002033 -28.360964 -43.225479 -0.57081211 127.1273
21700000000 -2.1165686 37.944984 -28.355244 -43.445152 -28.381153 -43.925278 -0.55489153 126.9031
21800000000 -2.1097846 33.912239 -28.329273 -45.346912 -28.28042 -44.960392 -0.54371095 126.70097
21900000000 -2.1375132 30.325691 -28.041924 -47.63839 -28.182009 -47.955021 -0.5272336 126.44725
22000000000 -2.1003058 26.26429 -28.191895 -49.874279 -28.132681 -50.192509 -0.53098446 126.2368
22100000000 -2.1536336 22.348688 -28.081095 -50.610653 -28.219522 -50.988518 -0.53179425 126.03228
22200000000 -2.0933676 18.599718 -27.846619 -53.215935 -27.898647 -53.228546 -0.52883202 125.75546
22300000000 -2.1321986 14.454632 -27.80822 -55.380733 -27.842796 -55.488552 -0.52451396 125.38088
22400000000 -2.0860803 11.173738 -27.752792 -57.913803 -27.715326 -57.973766 -0.51919127 125.04741
22500000000 -2.1114223 6.7046523 -27.750368 -60.391937 -27.72184 -60.796585 -0.51666212 124.68761
22600000000 -2.1192293 3.1691184 -27.780546 -63.804287 -27.795887 -63.551067 -0.51580411 124.53204
22700000000 -2.0912626 -1.4175858 -27.844591 -65.573112 -27.833315 -65.27774 -0.51911831 124.23975
22800000000 -2.1329477 -5.1982307 -27.836147 -66.998573 -27.849627 -67.300194 -0.52774739 124.05214
22900000000 -2.0372348 -9.3072338 -27.802557 -69.288139 -27.842093 -69.573837 -0.5282461 123.66377
23000000000 -2.1056821 -13.235568 -27.909048 -71.513214 -27.854969 -70.933075 -0.53953755 123.44149
23100000000 -2.0419061 -17.058144 -27.814367 -73.201859 -27.854549 -73.001205 -0.52929223 123.04295
23200000000 -2.1184237 -21.533279 -27.870525 -74.798553 -27.793032 -75.499626 -0.52810347 122.89294
23300000000 -2.0929468 -25.459093 -27.773008 -76.750107 -27.89761 -76.88401 -0.51328188 122.59037
23400000000 -2.0875723 -30.036392 -27.744404 -78.664223 -27.83954 -78.641655 -0.53874362 122.44534
23500000000 -2.0854304 -33.912354 -27.702892 -80.909912 -27.677839 -80.693169 -0.53747666 122.15359
23600000000 -2.0365267 -38.257652 -27.649948 -81.784355 -27.633713 -81.969887 -0.56532836 121.80824
23700000000 -2.1071587 -42.234344 -27.602962 -84.220627 -27.615408 -84.118477 -0.53690481 121.43667
23800000000 -2.0762341 -46.480316 -27.445433 -86.309692 -27.62919 -86.452766 -0.55147052 121.11829
23900000000 -2.1107459 -50.981781 -27.591946 -88.113045 -27.571493 -88.4543 -0.52729088 120.84838
24000000000 -2.0983477 -55.112888 -27.507652 -89.716568 -27.49823 -90.266968 -0.5414865 120.73351
24100000000 -2.0769825 -59.611629 -27.564779 -92.873055 -27.491842 -92.614883 -0.53111959 120.53304
24200000000 -2.0818377 -63.618801 -27.341665 -94.284363 -27.352619 -94.708298 -0.54900622 120.24782
24300000000 -2.0609791 -67.967003 -27.349072 -95.999802 -27.399239 -96.180046 -0.56276131 119.92299
24400000000 -2.1166182 -72.306503 -27.321486 -97.842171 -27.230675 -97.811386 -0.57095265 119.40797
24500000000 -2.1009092 -76.568619 -27.298065 -100.33305 -27.226961 -100.3396 -0.55746126 119.15612
24600000000 -2.1138141 -81.248802 -27.096706 -102.51878 -27.158913 -102.44793 -0.54973418 118.79144
24700000000 -2.117172 -85.428131 -27.111959 -104.5293 -27.077204 -104.21352 -0.53958499 118.5961
24800000000 -2.0864067 -90.040771 -27.086771 -107.18301 -27.033436 -106.92092 -0.55547631 118.43309
24900000000 -2.1357503 -94.223167 -27.123941 -109.1173 -26.912775 -109.06507 -0.56107134 118.2548
25000000000 -2.1075969 -98.673531 -26.869991 -110.67086 -27.011869 -111.00584 -0.58088166 117.9157
25100000000 -2.1706743 -103.21317 -26.919516 -113.80246 -26.85006 -114.04148 -0.58242536 117.58067
25200000000 -2.1560228 -107.50108 -26.929241 -115.35233 -26.825672 -115.96615 -0.57822996 117.24469
25300000000 -2.170939 -112.18953 -26.755283 -118.87931 -26.90132 -118.3268 -0.56624365 117.00277
25400000000 -2.1885989 -116.28653 -26.833296 -120.78751 -26.859312 -120.69924 -0.57811344 116.71162
25500000000 -2.1557372 -121.03636 -26.774734 -123.5009 -26.798626 -123.34843 -0.57270253 116.50666
25600000000 -2.2359402 -125.33691 -26.773113 -125.43729 -26.801687 -125.486 -0.58404249 116.2337
25700000000 -2.1953964 -129.70491 -26.880543 -126.69598 -26.704315 -127.71737 -0.58410376 115.89825
25800000000 -2.2338715 -134.32544 -26.771385 -130.45169 -26.719011 -129.4239 -0.58378577 115.5506
25900000000 -2.2242949 -138.33826 -26.70163 -131.90387 -26.84103 -132.22118 -0.57669836 115.28589
26000000000 -2.2307374 -143.22435 -26.669174 -134.32011 -26.766346 -134.02826 -0.59061688 115.0621
26100000000 -2.2861049 -147.11765 -26.635801 -135.19167 -26.631727 -136.00494 -0.5822522 114.91483
26200000000 -2.2331982 -151.79396 -26.685059 -138.63708 -26.776749 -138.19382 -0.58037865 114.55466
26300000000 -2.3290346 -156.11626 -26.640141 -140.414 -26.71364 -140.94646 -0.59193534 114.37548
26400000000 -2.2596262 -160.29205 -26.739342 -143.21391 -26.741644 -143.09019 -0.60047716 113.9402
26500000000 -2.328084 -165.03641 -26.709286 -145.66093 -26.846754 -144.77707 -0.59028769 113.85637
26600000000 -2.3233619 -168.81082 -26.608305 -150.3665 -26.578959 -148.29123 -0.60217321 113.25423
26700000000 -2.3020732 -173.78674 -26.730385 -148.30878 -26.604036 -150.31981 -0.58839291 113.29256
26800000000 -2.349797 -177.20622 -26.957157 -151.89821 -26.727077 -151.18016 -0.59238511 112.83595
26900000000 -2.2981753 177.97514 -26.598768 -152.78807 -26.735798 -155.17537 -0.60766953 112.6797
27000000000 -2.4070914 174.02257 -26.704466 -153.74872 -26.461241 -156.88866 -0.57931036 112.37728
27100000000 -2.3004634 169.8174 -26.716043 -159.1424 -26.654816 -156.06537 -0.62441552 112.136
27200000000 -2.4158993 165.37389 -26.950788 -161.72043 -26.946009 -158.64966 -0.59653747 111.71715
27300000000 -2.3316998 161.81702 -26.790237 -161.93013 -26.759697 -161.88411 -0.61973476 111.55498
27400000000 -2.3789506 157.0358 -26.601305 -164.2693 -26.826004 -164.53905 -0.60254943 111.06313
27500000000 -2.3733928 153.76508 -26.785143 -163.645 -26.534725 -166.12067 -0.6315468 110.97169
27600000000 -2.3905582 149.19366 -26.76602 -168.07353 -26.614172 -169.24254 -0.59632367 110.64013
27700000000 -2.4236286 145.61641 -26.972197 -170.44771 -26.98189 -171.09056 -0.64077139 110.47178
27800000000 -2.3633959 141.00273 -26.43191 -172.13374 -27.194237 -173.18268 -0.62733811 110.16428
27900000000 -2.4340875 137.46831 -26.13434 -176.15553 -26.912798 -171.6651 -0.66437453 109.8725
28000000000 -2.3343701 133.44351 -26.948126 -175.87096 -26.78915 -178.1389 -0.64120078 109.39581
28100000000 -2.4245834 129.73491 -26.688437 -178.69672 -26.568796 179.05745 -0.63648874 109.27824
28200000000 -2.3889596 125.85883 -26.42421 176.85176 -26.56839 178.33043 -0.64865935 108.94659
28300000000 -2.4006336 121.74949 -26.798119 174.86555 -26.875481 178.09311 -0.65828943 108.60634
28400000000 -2.4049382 118.19183 -26.814577 175.33662 -26.801092 175.59439 -0.63818455 108.47695
28500000000 -2.3957312 114.37262 -27.19161 174.4651 -26.835653 173.02104 -0.63371032 108.14809
28600000000 -2.3707266 110.65376 -26.840582 169.83023 -26.893518 170.00438 -0.64267331 107.756
28700000000 -2.3693655 107.22719 -26.728256 168.25441 -26.682585 167.18016 -0.65177393 107.60677
28800000000 -2.3516872 103.45728 -26.864861 164.88196 -27.103825 168.40465 -0.63997883 107.35409
28900000000 -2.4004273 99.664032 -26.960518 166.59724 -26.736149 166.59572 -0.64428389 107.20148
29000000000 -2.3303394 96.107582 -27.191326 164.13416 -26.68046 162.28319 -0.64238042 106.7026
29100000000 -2.3658252 92.317657 -27.184456 161.45692 -27.358538 160.82062 -0.67504913 106.58715
29200000000 -2.340905 89.235161 -26.845821 160.47255 -26.861347 160.31274 -0.63328803 106.25945
29300000000 -2.337178 85.261436 -26.584686 157.97125 -26.463003 158.21825 -0.63229948 105.90234
29400000000 -2.3248203 82.294449 -26.733856 156.17404 -26.97962 155.29137 -0.58004522 105.53542
29500000000 -2.2736852 78.195732 -27.353683 152.7715 -27.325891 155.12445 -0.6385687 105.40705
29600000000 -2.3604984 74.702766 -27.072014 149.90175 -27.213167 152.13191 -0.60572159 105.23605
29700000000 -2.2134411 71.1633 -27.034344 151.65465 -26.818846 150.04768 -0.63890064 104.71523
29800000000 -2.3462064 67.743454 -27.135164 148.36543 -26.776232 149.7137 -0.60874689 104.59834
29900000000 -2.190383 64.654182 -27.15159 146.98709 -27.233448 145.6355 -0.6773237 104.15962
30000000000 -2.296622 60.786785 -26.839144 144.1539 -27.012526 145.50365 -0.62230945 103.78094
30100000000 -2.2170959 58.058556 -26.54483 141.40387 -26.919249 142.19736 -0.6573506 103.35229
30200000000 -2.2637806 53.630051 -27.063406 140.50005 -26.730766 140.75681 -0.60984683 103.36766
30300000000 -2.2654881 50.793964 -26.789194 139.23572 -26.773695 139.76648 -0.65700608 102.7259
30400000000 -2.1827824 46.505077 -26.948771 136.78859 -26.83007 138.14442 -0.61829203 102.90304
30500000000 -2.2689795 43.892029 -27.145567 135.11536 -26.890833 136.75882 -0.67246962 102.50153
30600000000 -2.0908799 40.528946 -26.513783 132.96388 -27.061176 132.52924 -0.64918476 102.21226
30700000000 -2.2554827 37.084816 -27.083815 131.28458 -26.732483 129.84854 -0.68562818 101.62438
30800000000 -2.2100463 33.708469 -26.928387 129.69 -26.803856 130.63058 -0.67096847 101.67671
30900000000 -2.2206204 29.635727 -26.321836 128.58257 -26.28754 127.04971 -0.67583752 100.9191
31000000000 -2.1716542 27.087795 -26.451883 126.43257 -26.442574 128.01517 -0.66831464 100.98765
31100000000 -2.1425328 22.730326 -26.384968 124.94178 -26.561707 122.2094 -0.67522693 100.66753
31200000000 -2.119616 19.844784 -26.864702 123.70441 -26.571114 120.90314 -0.70880044 100.41614
31300000000 -2.073159 16.223024 -26.375553 120.25613 -26.856947 121.26858 -0.69965291 100.02216
31400000000 -2.1755714 13.034046 -26.542273 122.17551 -26.676102 120.71442 -0.71472973 99.993744
31500000000 -2.1600401 9.3050632 -26.374643 116.28546 -26.64229 116.19141 -0.65616059 99.525299
31600000000 -2.1691034 5.3086257 -26.414663 116.4946 -26.723045 116.46706 -0.6917417 99.351303
31700000000 -2.1095326 1.9226469 -26.487202 113.30051 -26.73646 117.41388 -0.68674624 99.025002
31800000000 -2.0977597 -1.5255629 -26.655649 111.94875 -26.553242 110.4942 -0.6725288 98.855171
31900000000 -2.0733032 -4.7924137 -26.480925 111.70075 -26.533541 110.49411 -0.7092405 98.379822
32000000000 -2.1032207 -8.5911303 -26.424408 109.49595 -25.831911 109.87406 -0.69476712 98.26297
32100000000 -2.1637411 -12.375484 -26.406565 107.4902 -26.118265 106.60909 -0.68896353 97.624374
32200000000 -2.1501958 -15.951499 -26.205032 104.9361 -26.394205 103.545 -0.69149101 97.575851
32300000000 -2.1315236 -20.156248 -26.092602 99.72242 -25.771114 104.27894 -0.63496161 97.088379
32400000000 -2.1617823 -23.23147 -25.678707 103.41673 -25.764769 99.521332 -0.64636129 96.988457
32500000000 -2.1259787 -27.290073 -26.028421 99.586342 -25.776836 98.579407 -0.68421793 96.761475
32600000000 -2.2063293 -30.88909 -25.576492 94.965851 -26.017023 97.914284 -0.70881963 96.54052
32700000000 -2.1565006 -35.021748 -25.738867 92.662064 -25.845699 92.839478 -0.71520609 96.165619
32800000000 -2.2602134 -39.104668 -25.654509 92.456635 -25.773621 93.04023 -0.71643043 95.84404
32900000000 -2.2320926 -42.434593 -25.678242 88.786842 -25.624094 88.331734 -0.67796487 95.263954
33000000000 -2.2473233 -47.12529 -25.485346 89.500633 -25.58604 87.051003 -0.69092977 95.063698
33100000000 -2.2882481 -50.398655 -25.211151 87.780296 -25.770529 87.695992 -0.69469208 94.692909
33200000000 -2.2713108 -55.076241 -25.749725 81.600212 -25.169352 83.53772 -0.70466936 94.67691
33300000000 -2.3893566 -59.130302 -25.732204 79.941216 -25.402233 82.188606 -0.68733877 94.25412
33400000000 -2.279424 -63.62624 -25.318422 77.493988 -25.202364 78.297562 -0.75834733 93.860146
33500000000 -2.422323 -67.886971 -25.406149 74.894073 -25.271513 76.679352 -0.72176951 93.681717
33600000000 -2.3466835 -71.515999 -25.085453 74.30265 -25.024012 73.343819 -0.72797155 93.526047
33700000000 -2.4797707 -76.850616 -25.519602 74.217255 -25.067368 72.224274 -0.74411303 93.436012
33800000000 -2.5210624 -80.197472 -24.839315 68.769646 -25.021009 70.85376 -0.72276062 92.728714
33900000000 -2.448945 -85.323341 -24.984303 67.689575 -25.029356 65.927666 -0.68777788 92.500229
34000000000 -2.585875 -89.601456 -25.296585 66.730904 -25.600958 65.795929 -0.70985526 92.406395
34100000000 -2.6052761 -94.429733 -24.744909 64.972511 -25.087765 64.061913 -0.7296499 92.011826
34200000000 -2.7114508 -99.442795 -24.825701 60.039993 -24.775829 63.461254 -0.72426504 91.746185
34300000000 -2.6378596 -103.66511 -24.294054 55.964817 -24.083082 57.626724 -0.70837742 91.400291
34400000000 -2.7364876 -108.65473 -24.934526 58.221775 -24.570602 56.361801 -0.72827184 91.495354
34500000000 -2.7671437 -113.10178 -24.518543 53.746677 -24.524466 55.318935 -0.75245118 91.011177
34600000000 -2.7976105 -118.14423 -24.233154 49.231586 -24.707617 51.015739 -0.68981701 90.173553
34700000000 -2.8978524 -123.18446 -24.03853 48.690544 -24.703899 47.829597 -0.73206264 90.377182
34800000000 -2.8853204 -127.81203 -24.76317 44.268223 -24.633991 43.471958 -0.69897538 89.814339
34900000000 -2.9351728 -133.32915 -24.533447 45.33239 -24.776896 45.703011 -0.69451803 89.95343
35000000000 -2.9847956 -137.5778 -24.423521 43.054863 -24.695326 40.23246 -0.66243386 89.708946
35100000000 -2.9372947 -143.18469 -24.161821 39.014423 -24.495642 38.604092 -0.71561176 89.235359
35200000000 -3.043889 -148.12953 -24.503222 35.689068 -24.418272 36.223923 -0.74999386 89.025459
35300000000 -2.9621887 -153.24239 -24.410606 35.955402 -24.098825 34.028374 -0.77456051 88.532333
35400000000 -3.1338427 -158.56194 -24.442162 33.040287 -24.292206 32.400021 -0.7743873 88.438774
35500000000 -3.0024006 -162.66273 -23.806232 28.055002 -24.302561 29.314459 -0.73844081 88.076813
35600000000 -3.0820532 -169.22075 -24.139406 23.913235 -24.044567 26.303282 -0.69689125 87.601318
35700000000 -3.1843603 -172.98982 -23.865078 23.187376 -24.440027 22.111296 -0.71273255 87.479156
35800000000 -3.0440209 -179.07143 -24.135111 20.194756 -24.327778 19.931755 -0.70584291 87.216934
35900000000 -3.2666233 176.52756 -24.174742 16.892948 -24.399635 15.824621 -0.72385859 87.036934
36000000000 -2.9580827 171.50751 -24.443336 13.388595 -24.00931 16.818033 -0.72841907 86.232635
36100000000 -3.2543278 165.63249 -24.514957 11.677295 -24.441206 10.774509 -0.71721417 85.990891
36200000000 -3.0157869 162.60684 -24.373816 13.631401 -24.570772 8.7504673 -0.72194403 85.592735
36300000000 -3.1962056 155.78607 -24.612297 6.1429844 -24.856447 3.7617011 -0.68110996 85.584473
36400000000 -3.1487806 153.10593 -24.512943 6.5655284 -24.928934 6.9111743 -0.71784902 85.169548
36500000000 -3.1000128 145.81436 -24.889938 4.9607253 -24.935177 0.16123547 -0.72370571 84.975655
36600000000 -3.1528161 142.37514 -24.449638 0.57599789 -24.362324 -0.56597757 -0.70176667 84.381844
36700000000 -2.9586828 137.49495 -25.293499 1.5359142 -25.113146 -1.6630367 -0.72162956 84.103081
36800000000 -3.1186218 133.4304 -25.047556 -5.0774913 -25.170219 -3.7887979 -0.64588064 83.586609
36900000000 -2.916424 128.54634 -25.75194 -6.2192421 -25.454262 -6.7213402 -0.72603655 83.704956
37000000000 -3.0757666 123.67744 -24.727959 -8.0896931 -25.468603 -4.9608293 -0.68267399 83.191139
37100000000 -3.0001202 119.47415 -24.548607 -11.083732 -25.135178 -9.4816895 -0.75179583 83.056854
37200000000 -2.9482458 114.60677 -25.1476 -11.179875 -25.183201 -11.797671 -0.72609097 82.789024
37300000000 -2.8778102 111.27363 -24.936058 -14.560196 -25.364422 -15.155888 -0.71381491 81.900383
37400000000 -2.8058155 106.59032 -24.925869 -20.605316 -24.815771 -12.043595 -0.6445322 81.56208
37500000000 -2.9113452 102.64989 -25.489351 -20.020649 -25.365263 -16.525732 -0.71073419 81.596245
37600000000 -2.830025 98.546318 -24.836447 -23.047934 -25.101753 -19.657547 -0.66432238 81.501205
37700000000 -2.8449297 94.493187 -25.174614 -21.894608 -24.896528 -20.817795 -0.72209352 81.611504
37800000000 -2.7670057 90.451485 -24.960102 -24.995583 -25.492994 -26.231848 -0.68061548 81.075989
37900000000 -2.6121171 87.231606 -25.805603 -29.887777 -25.21913 -28.306854 -0.75156844 80.800491
38000000000 -2.6356425 82.780823 -25.916626 -29.82896 -25.067802 -27.480909 -0.78738648 80.253754
38100000000 -2.6617656 80.029152 -26.018913 -35.326107 -25.837654 -27.497742 -0.7348063 79.554657
38200000000 -2.5329287 75.136971 -25.176424 -28.143259 -25.742266 -31.45056 -0.72466385 79.478302
38300000000 -2.6700823 72.576157 -26.101995 -36.0989 -25.473049 -38.009869 -0.69953185 79.225922
38400000000 -2.3819637 67.824677 -25.739885 -38.848961 -25.267565 -37.78278 -0.65593958 79.270248
38500000000 -2.5840926 65.074379 -25.335691 -40.576199 -24.846521 -32.981186 -0.71641731 79.044594
38600000000 -2.3509417 61.536747 -25.362654 -45.316109 -25.43932 -39.050034 -0.73433787 78.143318
38700000000 -2.5354209 58.420071 -26.183233 -41.360325 -25.340002 -44.489811 -0.71607971 77.902977
38800000000 -2.2023258 56.031067 -25.350546 -42.712032 -25.573719 -47.260624 -0.69793141 77.13266
38900000000 -2.4459999 50.944542 -25.377705 -45.784454 -25.372545 -45.187592 -0.69159752 77.827057
39000000000 -2.2606282 49.711697 -26.525389 -53.299458 -25.423342 -41.334183 -0.70261323 77.425758
39100000000 -2.1915028 43.531101 -25.654827 -49.381195 -25.757927 -49.701382 -0.76202816 76.939789
39200000000 -2.3094654 43.339317 -26.04003 -50.18256 -25.495007 -44.321198 -0.73541278 76.261909
39300000000 -2.0767112 37.986687 -25.743053 -56.988926 -24.961018 -50.111668 -0.77392507 75.74292
39400000000 -2.3161876 36.401241 -25.382002 -54.816372 -25.791616 -53.132156 -0.70790207 75.676933
39500000000 -2.0598121 32.092308 -25.917431 -54.769348 -25.385933 -53.563759 -0.74729192 75.647858
39600000000 -2.3520555 29.211384 -24.82885 -61.77446 -25.542845 -55.591038 -0.69739187 75.251358
39700000000 -1.8434774 27.052773 -26.865137 -58.89793 -25.293968 -58.293049 -0.76306331 75.499763
39800000000 -2.1368213 22.754635 -26.333883 -57.687061 -25.485306 -64.472496 -0.75899839 75.230186
39900000000 -2.046988 21.947659 -26.502316 -60.879391 -25.750092 -65.917099 -0.78338307 74.270874
40000000000 -2.100801 16.564939 -26.446665 -64.11425 -26.243639 -63.902805 -0.75826472 73.993195
40100000000 -2.1373084 15.110612 -25.823957 -69.66671 -25.881021 -66.756554 -0.71806437 73.042
40200000000 -1.9490666 10.91559 -25.557957 -71.066917 -25.054104 -67.110405 -0.66123009 73.355194
40300000000 -2.0166218 7.9287996 -25.710178 -68.965408 -25.580856 -69.277557 -0.684551 73.296356
40400000000 -1.8519427 6.1088605 -25.90683 -70.235336 -25.8857 -73.230446 -0.74748629 73.291702
40500000000 -2.0948756 3.2205589 -25.565508 -72.696167 -26.125324 -73.62648 -0.71520185 73.002831
40600000000 -1.9547276 0.18016674 -26.062777 -76.53006 -26.477627 -74.463951 -0.73327029 72.410957
40700000000 -1.9738847 -3.5910566 -25.54215 -72.7444 -25.509575 -78.481827 -0.7191664 72.137451
40800000000 -1.9960648 -6.0661197 -25.69342 -75.24511 -25.391819 -74.332588 -0.68347859 71.207321
40900000000 -1.8321991 -8.720789 -26.427969 -79.994431 -25.588428 -77.445999 -0.68591309 71.200333
41000000000 -1.8839575 -12.504848 -25.957727 -88.213463 -26.019323 -82.079399 -0.72273463 71.23188
41100000000 -1.8588169 -14.43324 -25.389988 -80.719009 -26.718826 -82.121872 -0.67035192 70.960052
41200000000 -1.9013238 -18.90519 -25.940977 -81.301323 -26.442802 -86.391663 -0.74589354 70.64064
41300000000 -1.921235 -20.046459 -25.521019 -90.648178 -25.124136 -87.154831 -0.67069626 70.27636
41400000000 -1.8561739 -25.320873 -25.081383 -89.890755 -26.025391 -83.762619 -0.68846059 70.239296
41500000000 -2.0549212 -26.971899 -26.600212 -90.509674 -25.420103 -98.295593 -0.7734614 69.433098
41600000000 -1.79216 -30.986677 -25.568316 -90.015007 -25.209505 -95.052223 -0.70372927 68.955589
41700000000 -2.0927982 -33.769997 -24.434938 -96.354385 -24.306244 -91.728943 -0.72594869 68.915375
41800000000 -1.7365127 -36.887623 -25.552328 -94.845184 -25.986448 -101.31718 -0.70176607 68.531815
41900000000 -2.0796945 -40.927738 -24.830809 -98.116669 -24.498846 -100.66214 -0.71924579 68.425537
42000000000 -1.8620019 -42.528511 -25.524351 -102.85368 -25.177183 -105.2137 -0.69268465 67.751091
42100000000 -2.0352952 -47.149872 -24.207155 -99.781464 -25.055105 -100.86529 -0.73348087 67.591331
42200000000 -2.069046 -48.732952 -25.832195 -102.81871 -24.984632 -105.75006 -0.6871168 67.121773
42300000000 -1.9529586 -54.17469 -24.623381 -110.39127 -24.308153 -106.37199 -0.75308686 66.680786
42400000000 -2.266782 -55.629215 -24.344494 -98.553368 -25.583498 -104.67534 -0.7174136 66.590691
42500000000 -1.9753457 -60.024475 -25.470861 -105.84116 -25.168003 -116.47868 -0.7419911 66.801895
42600000000 -2.2839415 -64.155174 -23.591253 -117.106 -23.860634 -106.28297 -0.66897291 66.21653
42700000000 -2.2337379 -66.719368 -24.941294 -105.28982 -24.505493 -114.47853 -0.79969019 64.870522
42800000000 -2.1428792 -72.508865 -23.519091 -115.47797 -24.312313 -116.60713 -0.76765525 65.625252
42900000000 -2.2369339 -73.883675 -24.708361 -122.43575 -24.690681 -120.72962 -0.76273161 64.961411
43000000000 -2.1571445 -80.276543 -24.076435 -121.40791 -24.08399 -124.28188 -0.74821472 64.992744
43100000000 -2.5686901 -82.93441 -22.922924 -119.13251 -24.434139 -117.77715 -0.74110836 64.324844
43200000000 -2.3888006 -86.749313 -24.126034 -132.85297 -23.499149 -120.20683 -0.80701005 64.055328
43300000000 -2.7083621 -91.715614 -24.783226 -122.31281 -24.687105 -124.61864 -0.71582448 64.555336
43400000000 -2.61217 -96.049034 -23.786982 -128.61789 -23.61599 -127.70854 -0.83190984 64.305954
43500000000 -2.5495481 -101.98586 -24.760342 -131.25745 -23.607523 -132.30815 -0.69319934 62.703335
43600000000 -2.8660543 -103.39114 -23.757261 -130.6656 -24.019766 -129.18666 -0.85340786 62.749161
43700000000 -2.621357 -109.1886 -22.706533 -126.1819 -23.383112 -134.29904 -0.6249879 62.692188
43800000000 -2.9577155 -113.3862 -24.197701 -132.94719 -22.93045 -139.03928 -0.75538671 62.282192
43900000000 -2.9655688 -118.22835 -22.957705 -137.54338 -23.415363 -139.79941 -0.67782384 63.520828
44000000000 -3.191824 -124.95715 -23.68029 -145.88548 -23.749611 -143.8717 -0.68215662 62.060883
44100000000 -3.1237171 -127.60542 -23.368557 -143.02719 -23.733427 -147.34256 -0.72971022 61.500526
44200000000 -3.162936 -135.1198 -23.468016 -151.29666 -23.191462 -158.35744 -0.81664544 61.340672
44300000000 -3.5924127 -137.56334 -22.943094 -144.66823 -22.883488 -151.32971 -0.63913906 60.25399
44400000000 -3.398257 -144.71765 -23.844646 -149.91342 -23.365675 -161.44931 -0.69331896 60.440193
44500000000 -3.9001036 -149.29373 -23.472076 -152.64098 -22.971558 -156.96609 -0.66236031 60.183224
44600000000 -3.5171926 -154.4209 -24.04421 -164.46875 -23.221626 -154.43652 -0.75056767 59.99818
44700000000 -3.962199 -161.59048 -23.170851 -165.89056 -22.86298 -166.02788 -0.72075027 59.689434
44800000000 -3.6661351 -164.35234 -22.857096 -166.03925 -23.46171 -164.12404 -0.72225463 59.543583
44900000000 -4.0806613 -172.4053 -23.240061 -165.47719 -24.335562 -166.29549 -0.73551577 59.160503
45000000000 -4.0653577 -175.21176 -22.615818 -170.71741 -23.861115 -168.52483 -0.66584653 58.709206
