!Keysight Technologies,N5247B,MY61255062,A.19.80.06
!Date: Monday, May 18, 2026 11:52:20
!Correction: S11(Cdelta 2-Port  ) 
!S21(Cdelta 2-Port  ) 
!S12(Cdelta 2-Port  ) 
!S22(Cdelta 2-Port  ) 
!S2P File: Measurements: S11, S21, S12, S22:
# Hz S  dB   R 50
1000000000 -1.6995245 140.20949 -35.626751 -15.213731 -35.632992 -14.54448 -0.24844071 177.36172
1100000000 -1.7178044 136.40538 -35.56422 -16.407156 -35.664356 -16.275805 -0.25120068 177.10637
1200000000 -1.7298377 132.5744 -35.623253 -17.806053 -35.645325 -18.127186 -0.25144726 176.86536
1300000000 -1.7419568 128.74222 -35.627033 -19.146746 -35.581497 -19.473204 -0.254897 176.5946
1400000000 -1.7513156 124.90362 -35.580269 -20.642841 -35.576202 -20.892252 -0.25548941 176.3515
1500000000 -1.7580587 121.07529 -35.588692 -22.31661 -35.555809 -22.071878 -0.26014131 176.09445
1600000000 -1.7634246 117.20508 -35.5298 -23.856672 -35.552265 -23.54077 -0.25851595 175.84451
1700000000 -1.7693255 113.35677 -35.512241 -25.358963 -35.547867 -25.414043 -0.25974447 175.58006
1800000000 -1.7724588 109.489 -35.495205 -26.777258 -35.511887 -26.827341 -0.26054397 175.33638
1900000000 -1.774312 105.60272 -35.484989 -28.576389 -35.44471 -28.574345 -0.26235572 175.08739
2000000000 -1.7771207 101.71778 -35.462177 -29.981689 -35.430923 -29.616287 -0.26215553 174.83681
2100000000 -1.7769598 97.808556 -35.450592 -31.254324 -35.425095 -31.194086 -0.26666567 174.58989
2200000000 -1.7733372 93.902824 -35.427879 -32.616035 -35.422729 -32.676022 -0.26548776 174.3407
2300000000 -1.7719543 89.982849 -35.341526 -34.732384 -35.410149 -34.569126 -0.26735139 174.08105
2400000000 -1.7678128 86.072388 -35.329018 -35.467426 -35.402916 -35.882633 -0.26730293 173.83359
2500000000 -1.7647835 82.123596 -35.363186 -36.925797 -35.304585 -37.825512 -0.26906902 173.57491
2600000000 -1.7581158 78.191994 -35.251225 -38.801033 -35.259792 -38.732506 -0.27045947 173.32584
2700000000 -1.7459878 74.226761 -35.303383 -40.468334 -35.208004 -39.923218 -0.27333659 173.08215
2800000000 -1.7331907 70.287849 -35.101414 -41.578362 -35.216026 -41.681278 -0.27535692 172.84758
2900000000 -1.7187711 66.298447 -35.227203 -43.426964 -35.167175 -43.102634 -0.27749908 172.59048
3000000000 -1.7059146 62.328159 -35.069782 -44.363792 -35.169025 -44.245575 -0.27570254 172.33629
3100000000 -1.6897899 58.315788 -34.956551 -46.301994 -35.044224 -46.378967 -0.27261135 172.08699
3200000000 -1.674548 54.307373 -34.980835 -48.206909 -34.850845 -48.319103 -0.27731559 171.81392
3300000000 -1.6528311 50.264282 -34.904716 -50.062637 -34.907333 -49.505905 -0.27756089 171.58766
3400000000 -1.6341168 46.217995 -34.862171 -51.137066 -34.750057 -51.342319 -0.27816525 171.35884
3500000000 -1.6125563 42.134487 -34.759697 -52.243778 -34.735546 -52.928562 -0.28043386 171.0979
3600000000 -1.5920815 38.0481 -34.669067 -54.484779 -34.6576 -54.734074 -0.28235143 170.84113
3700000000 -1.5711943 33.955997 -34.522182 -55.792503 -34.64193 -55.966057 -0.28169042 170.60538
3800000000 -1.5485741 29.817327 -34.499062 -58.132465 -34.591198 -58.30022 -0.28395119 170.35127
3900000000 -1.5281692 25.681927 -34.539436 -59.914864 -34.464348 -59.98275 -0.28221691 170.11378
4000000000 -1.5043422 21.507959 -34.446957 -62.080513 -34.417843 -62.162052 -0.28582996 169.85049
4100000000 -1.4893129 17.371958 -34.491348 -64.237755 -34.431564 -63.934635 -0.28541222 169.61182
4200000000 -1.4675061 13.245551 -34.381432 -65.463051 -34.362843 -65.730667 -0.28856814 169.34952
4300000000 -1.4506614 9.1266413 -34.356075 -67.509979 -34.312893 -67.401962 -0.28998783 169.09911
4400000000 -1.430553 5.0057011 -34.239872 -69.320305 -34.23568 -69.015022 -0.28944686 168.81938
4500000000 -1.4149263 0.84554547 -34.237488 -71.014397 -34.272724 -71.547943 -0.29072013 168.60378
4600000000 -1.3936862 -3.2870128 -34.196075 -73.202782 -34.15266 -73.362206 -0.29171363 168.33171
4700000000 -1.3730686 -7.4450727 -34.190544 -74.957375 -34.126087 -74.629738 -0.29500628 168.09456
4800000000 -1.3512536 -11.570283 -34.096519 -76.539078 -34.190983 -76.729416 -0.29686791 167.82425
4900000000 -1.3302766 -15.727382 -34.097404 -78.879768 -34.141075 -78.694664 -0.29784119 167.59749
5000000000 -1.3148948 -19.866955 -34.06382 -80.517555 -34.095455 -80.695251 -0.29966024 167.3259
5100000000 -1.295885 -24.022144 -34.007374 -82.439194 -34.036484 -82.425964 -0.30020997 167.07568
5200000000 -1.2788771 -28.187317 -34.057323 -84.2724 -33.944592 -84.306343 -0.29950851 166.82332
5300000000 -1.2606364 -32.321823 -33.929848 -86.367371 -33.979301 -86.146225 -0.30244988 166.59349
5400000000 -1.2457042 -36.469501 -33.956459 -88.249985 -33.939976 -88.266609 -0.29947275 166.33492
5500000000 -1.2312936 -40.578178 -33.943119 -89.912956 -33.865448 -89.818031 -0.3027105 166.08395
5600000000 -1.2200204 -44.704113 -33.938858 -91.427612 -33.879368 -91.670578 -0.30471152 165.84128
5700000000 -1.2084786 -48.848057 -33.867081 -93.810394 -33.854103 -93.582909 -0.30832472 165.5972
5800000000 -1.1968132 -52.963535 -33.885777 -95.420639 -33.85952 -95.36441 -0.30862626 165.33339
5900000000 -1.1860158 -57.080528 -33.90752 -97.072411 -33.819569 -97.048584 -0.30933225 165.0786
6000000000 -1.1761855 -61.165936 -33.899429 -99.328873 -33.814144 -98.70005 -0.30752081 164.82414
6100000000 -1.1649923 -65.23011 -33.817696 -100.91177 -33.759663 -100.46683 -0.30909708 164.57137
6200000000 -1.1655232 -69.301521 -33.811497 -102.36188 -33.84972 -102.68022 -0.31266111 164.34451
6300000000 -1.1638236 -73.351646 -33.751953 -104.02324 -33.705685 -104.21993 -0.31272593 164.10263
6400000000 -1.1679853 -77.419121 -33.717651 -105.66634 -33.71106 -105.76206 -0.31158134 163.80919
6500000000 -1.1689407 -81.434204 -33.649632 -107.6538 -33.705181 -107.59453 -0.31843054 163.56612
6600000000 -1.1657364 -85.488739 -33.589466 -109.71728 -33.513969 -109.74415 -0.31759971 163.3212
6700000000 -1.1648573 -89.460167 -33.477989 -111.38109 -33.489883 -111.04176 -0.31625283 163.07658
6800000000 -1.1608084 -93.488396 -33.415134 -113.77748 -33.396805 -114.04896 -0.31624696 162.82475
6900000000 -1.1677361 -97.464706 -33.382805 -115.70422 -33.335941 -115.96665 -0.32017437 162.58224
7000000000 -1.1662182 -101.43755 -33.45797 -118.52501 -33.395168 -118.34866 -0.32043853 162.32289
7100000000 -1.1769933 -105.4491 -33.476418 -120.12331 -33.500465 -120.29584 -0.31991801 162.03394
7200000000 -1.1831062 -109.3992 -33.391907 -122.53072 -33.471386 -122.53725 -0.32060045 161.77461
7300000000 -1.1939843 -113.37357 -33.490528 -123.97523 -33.450867 -124.16046 -0.32722306 161.53456
7400000000 -1.2109067 -117.28433 -33.469353 -126.19122 -33.511806 -125.85925 -0.32744971 161.31642
7500000000 -1.2191459 -121.21233 -33.539673 -127.53138 -33.493671 -127.36279 -0.33606946 161.07837
7600000000 -1.233161 -125.10587 -33.467514 -128.89322 -33.467617 -129.54132 -0.33536386 160.82959
7700000000 -1.243395 -128.98677 -33.400387 -130.95074 -33.330284 -131.49933 -0.33341911 160.53476
7800000000 -1.2694227 -132.92191 -33.374866 -133.07404 -33.329979 -133.57707 -0.33094278 160.25554
7900000000 -1.2841265 -136.7718 -33.419296 -134.40242 -33.378109 -135.81601 -0.33027014 160.01411
8000000000 -1.3086458 -140.64775 -33.336437 -136.87733 -33.42915 -137.15607 -0.33066985 159.80246
8100000000 -1.3214644 -144.43372 -33.45565 -139.15009 -33.389046 -138.85899 -0.33870268 159.56361
8200000000 -1.3304 -148.3181 -33.356277 -140.0081 -33.346951 -140.61899 -0.35469422 159.32143
8300000000 -1.3490497 -152.15773 -33.34021 -142.33389 -33.445259 -141.91582 -0.37314108 158.92253
8400000000 -1.3641491 -156.02014 -33.486393 -144.23686 -33.402641 -143.60643 -0.38814113 158.45633
8500000000 -1.3910391 -159.84709 -33.44281 -145.85703 -33.350754 -146.05341 -0.38555443 157.88394
8600000000 -1.4051427 -163.68111 -33.422028 -147.07799 -33.415958 -147.24048 -0.37046352 157.5202
8700000000 -1.4317057 -167.51924 -33.258923 -149.24716 -33.488838 -148.8651 -0.32818082 157.28329
8800000000 -1.4492294 -171.33913 -33.345989 -149.94606 -33.201382 -150.48628 -0.25945127 157.00151
8900000000 -1.473609 -175.18179 -33.383278 -151.42068 -33.222565 -152.50829 -0.26722667 156.81332
9000000000 -1.4930087 -178.99643 -33.270451 -154.09406 -33.36306 -153.49536 -0.28461725 156.88931
9100000000 -1.5148456 177.18881 -33.258526 -156.65996 -33.238125 -156.14383 -0.31490883 156.89758
9200000000 -1.5376673 173.38083 -33.280254 -157.80408 -33.225403 -157.79387 -0.33878076 156.81187
9300000000 -1.5596596 169.56169 -33.169945 -159.30058 -33.197796 -159.60156 -0.35295644 156.58223
9400000000 -1.5805197 165.73915 -33.248585 -161.25063 -33.212437 -161.08992 -0.36035529 156.30009
9500000000 -1.6076392 161.91092 -33.214005 -163.29797 -33.189148 -163.04814 -0.36201981 155.98897
9600000000 -1.6244334 158.08925 -33.167889 -164.50319 -33.225819 -164.32263 -0.36168864 155.74266
9700000000 -1.6480427 154.26788 -33.182091 -165.9776 -33.18087 -166.71605 -0.36287493 155.51469
9800000000 -1.6676893 150.46146 -33.16737 -167.67943 -33.226131 -167.88698 -0.36597982 155.28453
9900000000 -1.6883019 146.62979 -33.08992 -169.0405 -33.085613 -169.33206 -0.36741152 155.00803
10000000000 -1.7074312 142.82826 -33.048069 -171.15369 -33.144821 -170.84517 -0.37089065 154.72661
10100000000 -1.7276896 138.93259 -33.12859 -173.15776 -33.180325 -173.20738 -0.37075925 154.4157
10200000000 -1.7484396 135.12326 -32.950596 -174.36339 -33.142044 -175.22195 -0.36418512 154.18642
10300000000 -1.7662151 131.26822 -33.05687 -176.70656 -33.002262 -176.70712 -0.36651802 153.95549
10400000000 -1.7880055 127.42928 -33.019676 -177.70074 -33.058792 -178.25467 -0.36773381 153.78679
10500000000 -1.7967253 123.56009 -33.044518 -179.86327 -32.95068 -179.60553 -0.37921128 153.52467
10600000000 -1.8202707 119.66578 -33.043713 178.96617 -32.952248 179.35651 -0.38909656 153.30159
10700000000 -1.8287046 115.85602 -32.912785 177.53305 -32.986755 177.54614 -0.39405119 152.93874
10800000000 -1.8471799 111.92366 -32.889107 176.36539 -32.946815 175.63895 -0.40138358 152.66708
10900000000 -1.8563129 108.06243 -32.91571 174.87561 -32.78278 174.29234 -0.39740649 152.36151
11000000000 -1.8671517 104.11053 -32.762527 172.12895 -32.863964 172.51346 -0.39810067 152.15581
11100000000 -1.8829199 100.2336 -32.582951 171.32613 -32.781479 171.54919 -0.3909038 151.93657
11200000000 -1.8869923 96.260277 -32.673126 169.70941 -32.647392 170.0598 -0.39431933 151.75529
11300000000 -1.8989583 92.33519 -32.554226 168.02608 -32.524769 168.26204 -0.39687863 151.51221
11400000000 -1.8992076 88.425957 -32.565426 166.53249 -32.401058 166.80548 -0.41407081 151.33057
11500000000 -1.9124624 84.435333 -32.472099 164.9567 -32.41468 165.17757 -0.4158375 151.04102
11600000000 -1.9144121 80.520325 -32.293053 163.3504 -32.34343 163.14478 -0.42155692 150.74898
11700000000 -1.9173001 76.47757 -32.304562 161.92036 -32.279293 161.34175 -0.41539654 150.46759
11800000000 -1.9191086 72.523872 -32.215351 159.57152 -32.215046 159.49162 -0.41219497 150.25497
11900000000 -1.9212385 68.465538 -32.055775 157.85463 -32.127026 157.98997 -0.4058108 150.03555
12000000000 -1.9205767 64.487198 -31.94879 155.67285 -32.027332 156.22307 -0.41281494 149.78946
12100000000 -1.9224197 60.464653 -32.050282 154.09903 -31.975819 154.23897 -0.41475058 149.58588
12200000000 -1.9242021 56.458122 -31.886671 152.75671 -31.923815 152.59975 -0.42260048 149.3242
12300000000 -1.9239343 52.373528 -31.873499 150.93784 -31.839603 150.50342 -0.42313889 149.07861
12400000000 -1.9182191 48.340164 -31.702812 149.02626 -31.749685 148.79538 -0.43070611 148.8278
12500000000 -1.9171077 44.269077 -31.655481 147.52634 -31.626419 147.92131 -0.4271045 148.58005
12600000000 -1.9134834 40.285484 -31.508936 145.82831 -31.515036 145.63321 -0.42725959 148.36786
12700000000 -1.9104303 36.18713 -31.387577 143.44196 -31.421581 144.00026 -0.42316428 148.10092
12800000000 -1.9119457 32.182487 -31.301464 142.42738 -31.298927 141.91537 -0.43273956 147.87106
12900000000 -1.9000475 28.107685 -31.0445 140.89966 -31.130693 139.96741 -0.4306784 147.61652
13000000000 -1.9022352 24.039644 -30.883976 138.13705 -30.946085 138.14706 -0.43392539 147.39093
13100000000 -1.8784518 20.003317 -30.80994 136.15544 -30.765076 135.76611 -0.42804885 147.11617
13200000000 -1.8809512 15.917719 -30.605053 133.03357 -30.644451 133.42334 -0.42874536 146.88173
13300000000 -1.8635411 11.942253 -30.446581 130.71536 -30.4251 130.69901 -0.42522731 146.62471
13400000000 -1.8555286 7.7893467 -30.409081 127.94693 -30.347084 127.65699 -0.42844081 146.31311
13500000000 -1.8438296 3.7944131 -30.212439 124.56657 -30.175894 125.056 -0.42721704 146.01535
13600000000 -1.821021 -0.42377734 -30.154261 122.0267 -30.194654 121.5257 -0.43230316 145.70612
13700000000 -1.808139 -4.4297657 -30.236998 118.63486 -30.150978 118.40876 -0.42412803 145.43257
13800000000 -1.7745075 -8.5628405 -30.167488 114.88276 -30.236378 115.10556 -0.42953116 145.16577
13900000000 -1.7763289 -12.578061 -30.278313 112.19952 -30.259476 112.36665 -0.43534935 144.92026
14000000000 -1.7543592 -16.682165 -30.393297 109.26617 -30.466564 109.21204 -0.4498736 144.65211
14100000000 -1.7636678 -20.891813 -30.637865 107.17487 -30.58075 107.23596 -0.45724773 144.42497
14200000000 -1.7359922 -24.985765 -30.768652 105.40843 -30.709524 105.39418 -0.47021973 144.13261
14300000000 -1.7266737 -29.240238 -30.932096 104.10708 -30.897013 104.4506 -0.46890223 143.94669
14400000000 -1.7118906 -33.203709 -30.956013 102.97231 -30.901421 103.06371 -0.47048309 143.71878
14500000000 -1.7021596 -37.324104 -30.926113 101.87502 -30.978403 102.007 -0.47108203 143.57695
14600000000 -1.7081248 -41.340813 -30.800694 100.47986 -30.861565 100.3942 -0.46560422 143.39099
14700000000 -1.6999599 -45.475845 -30.728867 99.302299 -30.769144 99.358711 -0.46259809 143.21466
14800000000 -1.6998545 -49.597195 -30.56509 96.770309 -30.70397 97.53022 -0.4604139 142.89394
14900000000 -1.679683 -53.726212 -30.616892 95.618774 -30.640396 95.179916 -0.45813018 142.68427
15000000000 -1.6692604 -57.815071 -30.356979 93.874634 -30.501205 93.078583 -0.44554093 142.4162
15100000000 -1.660893 -61.825649 -30.311842 91.231331 -30.356197 91.708298 -0.43551016 142.17197
15200000000 -1.6587921 -65.915634 -30.270515 88.100288 -30.353146 88.183388 -0.43189028 141.8549
15300000000 -1.6594297 -70.01236 -30.406586 85.601784 -30.379354 85.510155 -0.44513479 141.53285
15400000000 -1.6568192 -74.129425 -30.476315 83.168732 -30.429604 83.569466 -0.45645344 141.18658
15500000000 -1.6506482 -78.261215 -30.427982 82.232391 -30.539783 81.869499 -0.46149966 140.98869
15600000000 -1.6405287 -82.359108 -30.493458 79.868034 -30.465216 80.391068 -0.46317863 140.70714
15700000000 -1.6403701 -86.404411 -30.470549 78.238724 -30.492224 77.919144 -0.45874694 140.50468
15800000000 -1.6487112 -90.472343 -30.494532 76.078133 -30.427832 76.726677 -0.45904848 140.25029
15900000000 -1.6527183 -94.535782 -30.430147 75.246376 -30.439678 75.060799 -0.46648577 140.02888
16000000000 -1.6595325 -98.711029 -30.386641 72.857956 -30.382259 72.897644 -0.47300801 139.74149
16100000000 -1.6690159 -102.7613 -30.337749 71.102913 -30.33309 71.455101 -0.47813103 139.47879
16200000000 -1.6648096 -106.92166 -30.169266 69.498108 -30.232077 69.731972 -0.47426206 139.14931
16300000000 -1.6802462 -110.8676 -30.296465 67.672958 -30.238222 67.053528 -0.47582611 138.91534
16400000000 -1.6777002 -114.97247 -30.179485 65.155853 -30.150101 65.590576 -0.47377241 138.65828
16500000000 -1.7137519 -119.06998 -30.168766 62.866482 -30.127848 62.781158 -0.47790015 138.46864
16600000000 -1.7023922 -123.15079 -30.136995 60.93388 -30.152847 61.161961 -0.48343658 138.18219
16700000000 -1.7307723 -127.33826 -30.222427 59.103123 -30.203144 59.060707 -0.48599946 137.98389
16800000000 -1.7245507 -131.23766 -30.131094 57.861458 -30.194252 57.579109 -0.482072 137.67586
16900000000 -1.7455831 -135.42314 -30.14786 55.821865 -30.182547 55.4445 -0.48693785 137.47047
17000000000 -1.7680221 -139.33797 -30.146235 54.181934 -30.032164 54.159878 -0.47555056 137.23425
17100000000 -1.7735316 -143.58913 -30.056839 51.855465 -30.116686 52.139271 -0.472498 136.99939
17200000000 -1.8107854 -147.6257 -29.954222 49.688751 -30.022274 50.293056 -0.46466437 136.76839
17300000000 -1.7838552 -151.69441 -30.055971 48.586063 -30.030106 48.238323 -0.47523606 136.50119
17400000000 -1.8282356 -155.67548 -29.97183 45.795948 -29.839069 47.04995 -0.46589583 136.22939
17500000000 -1.8242694 -159.68292 -29.947439 44.982338 -29.958975 44.028847 -0.47221375 135.90991
17600000000 -1.8675098 -163.85747 -29.872917 42.713005 -29.851452 42.487896 -0.46351734 135.62054
17700000000 -1.8782476 -167.8 -29.805084 41.209129 -29.794712 41.346031 -0.46380275 135.34831
17800000000 -1.890041 -172.04594 -29.743286 39.569141 -29.699488 39.483707 -0.45826882 135.14355
17900000000 -1.9045318 -175.92023 -29.743042 37.511032 -29.663582 37.424786 -0.46860379 134.91193
18000000000 -1.9078169 179.98024 -29.606504 35.923306 -29.524172 35.940403 -0.46953583 134.65964
18100000000 -1.937618 176.02933 -29.439442 33.875706 -29.468025 33.575298 -0.48320454 134.33559
18200000000 -1.9484576 171.92862 -29.487677 31.053247 -29.323111 31.427677 -0.47906515 134.07288
18300000000 -1.9804522 167.84157 -29.308701 30.010305 -29.355244 29.241224 -0.47539404 133.70352
18400000000 -1.9828101 163.8519 -29.231876 27.239086 -29.227804 26.581299 -0.46936625 133.4623
18500000000 -2.0006547 159.81708 -29.162916 24.928228 -29.111082 24.608265 -0.47403398 133.22008
18600000000 -2.0175869 155.81169 -29.14534 22.916174 -29.092987 22.850758 -0.47962883 133.03685
18700000000 -2.0421538 151.78963 -29.107204 20.262373 -29.075726 20.118147 -0.48988989 132.78494
18800000000 -2.0591912 147.71353 -29.057096 17.852167 -29.122427 18.037193 -0.49721655 132.51605
18900000000 -2.0732574 143.76665 -28.951252 15.576909 -28.982897 16.184114 -0.4986437 132.16393
19000000000 -2.0769682 139.66345 -28.981073 14.061951 -28.943346 13.900281 -0.48370743 131.82907
19100000000 -2.0887368 135.68938 -28.930695 12.364631 -29.04916 11.233447 -0.48355174 131.59779
19200000000 -2.0806582 131.70357 -28.930305 9.5199404 -28.878052 9.3271189 -0.47551447 131.36943
19300000000 -2.105705 127.69312 -28.94702 7.0973973 -28.854345 6.9684334 -0.48662108 131.18483
19400000000 -2.0929077 123.801 -28.906151 4.9922729 -28.843445 5.1882358 -0.47737452 130.94373
19500000000 -2.1226122 119.6963 -28.820948 2.5172961 -28.81867 2.724122 -0.49087206 130.62581
19600000000 -2.1197848 115.81898 -28.821163 0.62592328 -28.789766 0.69767195 -0.47955829 130.36635
19700000000 -2.1176164 111.59879 -28.668783 -1.9239506 -28.77388 -1.3501532 -0.47856656 130.04515
19800000000 -2.1208253 107.83694 -28.626682 -3.928849 -28.694412 -3.8073533 -0.46625376 129.83163
19900000000 -2.093879 103.77828 -28.627535 -6.1132216 -28.623453 -6.3137527 -0.47272745 129.50043
20000000000 -2.1378856 100.05685 -28.623173 -8.3050861 -28.548347 -8.408884 -0.46591657 129.25781
20100000000 -2.1098361 96.050377 -28.624174 -10.937512 -28.535797 -10.383557 -0.47930911 128.86652
20200000000 -2.158396 92.082245 -28.641661 -13.672421 -28.452791 -13.284227 -0.47477603 128.62967
20300000000 -2.1246049 88.205338 -28.535229 -15.615191 -28.58095 -15.22854 -0.47411308 128.21124
20400000000 -2.1318464 84.137634 -28.480042 -18.579975 -28.48201 -18.789682 -0.47501138 128.01353
20500000000 -2.1154149 80.58445 -28.507862 -21.367786 -28.482069 -21.507874 -0.48801318 127.68566
20600000000 -2.1108885 76.493042 -28.665632 -23.18148 -28.590563 -23.939022 -0.50997651 127.45624
20700000000 -2.1304202 72.874313 -28.791763 -26.055883 -28.828791 -26.682798 -0.52693605 127.11719
20800000000 -2.112931 68.805115 -28.92305 -28.35265 -28.906866 -28.860168 -0.54979086 126.85573
20900000000 -2.1222785 64.984177 -29.092064 -30.28846 -29.066856 -30.157141 -0.55580461 126.52771
21000000000 -2.096431 61.225079 -29.255104 -30.954681 -29.255688 -31.276983 -0.55880618 126.40477
21100000000 -2.0954051 57.393909 -29.186504 -31.573021 -29.237011 -31.815981 -0.55554456 126.18304
21200000000 -2.0924885 53.711887 -29.309698 -32.800541 -29.221901 -32.786026 -0.54818559 126.12766
21300000000 -2.0843318 49.898579 -29.059937 -34.15839 -29.076927 -33.870907 -0.54507333 125.93886
21400000000 -2.0958767 46.206425 -28.826437 -36.123295 -28.9252 -35.979687 -0.54166448 125.72017
21500000000 -2.0666783 42.513729 -28.69953 -37.806679 -28.737421 -37.8022 -0.54123139 125.41824
21600000000 -2.0558205 38.684025 -28.515245 -40.449425 -28.575739 -40.27523 -0.53241253 125.06573
21700000000 -2.0339429 35.278412 -28.592583 -42.456997 -28.551308 -42.629265 -0.51811081 124.69141
21800000000 -2.0034683 31.456211 -28.422873 -45.302658 -28.605482 -45.649288 -0.50645894 124.43199
21900000000 -2.0144274 27.953094 -28.529331 -49.041943 -28.5114 -48.89959 -0.50143546 124.09878
22000000000 -1.9637362 24.201992 -28.729784 -51.690262 -28.63792 -51.492821 -0.51016253 123.88503
22100000000 -1.9787302 20.453016 -28.873795 -53.872242 -28.929335 -54.066936 -0.52873552 123.65264
22200000000 -1.9223278 16.872011 -29.180676 -54.084038 -29.066456 -54.65144 -0.53813207 123.48533
22300000000 -1.9417895 12.948537 -28.99122 -54.333088 -29.069149 -54.023643 -0.53743619 123.17877
22400000000 -1.908478 9.9607716 -28.941759 -56.326824 -28.942192 -56.553886 -0.52295858 122.90421
22500000000 -1.9042614 5.8805766 -28.765499 -58.716534 -28.739685 -58.974449 -0.5062902 122.51289
22600000000 -1.9061483 2.6473973 -28.713305 -61.354424 -28.830553 -61.328331 -0.50669074 122.33733
22700000000 -1.8643061 -1.4194814 -28.810009 -63.222458 -28.702242 -63.128223 -0.50356477 122.02547
22800000000 -1.8920099 -4.8746791 -28.895052 -65.497017 -28.797686 -65.286194 -0.51487666 121.85825
22900000000 -1.7953317 -8.4845266 -28.832542 -67.86647 -28.985167 -67.346947 -0.51980627 121.46961
23000000000 -1.8525358 -12.111805 -28.949699 -67.893723 -29.006617 -68.968277 -0.52896619 121.19144
23100000000 -1.7735962 -15.429592 -29.000494 -70.711037 -29.056253 -70.093124 -0.5185504 120.79327
23200000000 -1.8266349 -19.327906 -28.906971 -71.431541 -28.884035 -71.17498 -0.51429003 120.65869
23300000000 -1.8028367 -22.734509 -28.971781 -71.984329 -28.929453 -72.37455 -0.49455073 120.38148
23400000000 -1.7932724 -26.739994 -28.802645 -74.708275 -28.857866 -74.556778 -0.51862824 120.21445
23500000000 -1.7861413 -30.067377 -28.831022 -75.573509 -28.802425 -76.266243 -0.51230836 119.93694
23600000000 -1.7343514 -33.830261 -28.720116 -77.909882 -28.612259 -77.209564 -0.53807229 119.51537
23700000000 -1.7791089 -37.21608 -28.594017 -79.618919 -28.599392 -80.108986 -0.50974071 119.06873
23800000000 -1.7437561 -40.891148 -28.529861 -80.688004 -28.537682 -81.072632 -0.51938087 118.76542
23900000000 -1.7782106 -44.695259 -28.522875 -83.114746 -28.453312 -83.037804 -0.49135929 118.49068
24000000000 -1.7545927 -48.197468 -28.49976 -84.744087 -28.517191 -85.42675 -0.50685805 118.3217
24100000000 -1.7374499 -52.071865 -28.36615 -87.237968 -28.452808 -87.002197 -0.49765193 118.14557
24200000000 -1.7422457 -55.499874 -28.319065 -88.777527 -28.362076 -88.326187 -0.52864403 117.82112
24300000000 -1.7180005 -59.19997 -28.200726 -90.759499 -28.228794 -90.668343 -0.54569352 117.45007
24400000000 -1.7601651 -62.779842 -28.27248 -93.248405 -28.132036 -92.587631 -0.55429476 116.95583
24500000000 -1.7417585 -66.380432 -28.204405 -94.781708 -28.170593 -95.22802 -0.53210616 116.66601
24600000000 -1.7593759 -70.319267 -28.075857 -97.03183 -28.12174 -96.570419 -0.52912354 116.30956
24700000000 -1.7575675 -73.916229 -27.952744 -98.81337 -28.030602 -98.938637 -0.51761997 116.18547
24800000000 -1.7453014 -77.911255 -28.126806 -100.71016 -27.9774 -101.12404 -0.53290123 115.96808
24900000000 -1.7755512 -81.491241 -27.967995 -102.77679 -27.906914 -102.64238 -0.54278457 115.81354
25000000000 -1.753818 -85.266991 -27.901388 -105.50809 -27.782642 -105.68063 -0.57587427 115.43259
25100000000 -1.8091031 -89.128372 -27.869263 -107.0558 -27.86763 -107.11034 -0.57429922 115.07935
25200000000 -1.7960966 -92.878647 -27.720121 -109.65045 -27.725821 -108.89849 -0.57627803 114.71725
25300000000 -1.8320819 -96.939995 -27.692114 -110.98727 -27.758389 -111.18897 -0.5512228 114.47861
25400000000 -1.846005 -100.57852 -27.682676 -113.18228 -27.650204 -113.02829 -0.56995463 114.20178
25500000000 -1.8454471 -104.77502 -27.637312 -115.36069 -27.710217 -115.54022 -0.56707186 113.96884
25600000000 -1.9057637 -108.48286 -27.570608 -117.21847 -27.619625 -117.35858 -0.57433641 113.75467
25700000000 -1.8861278 -112.50065 -27.41573 -118.76048 -27.530689 -118.99009 -0.58153862 113.43376
25800000000 -1.9437103 -116.60587 -27.534683 -121.77244 -27.467079 -122.12232 -0.58092868 113.1139
25900000000 -1.9477352 -120.36784 -27.472143 -124.36069 -27.54521 -123.56548 -0.57944882 112.8542
26000000000 -1.9781982 -124.74819 -27.570902 -125.35549 -27.412128 -124.80338 -0.58296031 112.55379
26100000000 -2.0330215 -128.42152 -27.318613 -127.72227 -27.393764 -127.64339 -0.5730986 112.36581
26200000000 -2.0207217 -132.88568 -27.346931 -129.7252 -27.383139 -129.56792 -0.57923734 112.03391
26300000000 -2.1111882 -136.87149 -27.372494 -131.13266 -27.42259 -131.76797 -0.58397734 111.9224
26400000000 -2.0701938 -141.0183 -27.228136 -133.47369 -27.222439 -134.34163 -0.59173185 111.4179
26500000000 -2.1674721 -145.45013 -27.211103 -136.43346 -27.108795 -136.05974 -0.58854556 111.33672
26600000000 -2.1803577 -149.17711 -27.282606 -137.28435 -27.158386 -136.50188 -0.58770674 110.8438
26700000000 -2.2073293 -154.07719 -26.687647 -138.017 -27.013369 -141.79755 -0.58548599 110.68971
26800000000 -2.2459085 -157.59445 -27.028828 -141.86409 -27.112682 -144.01947 -0.58448547 110.30078
26900000000 -2.2509351 -162.65259 -27.025461 -145.453 -26.893232 -145.02507 -0.59383583 110.3212
27000000000 -2.3725791 -166.49918 -26.76454 -149.46278 -27.113749 -149.52272 -0.5707705 109.91232
27100000000 -2.3056786 -170.98087 -26.788197 -149.58185 -26.940128 -150.28171 -0.60805243 109.57605
27200000000 -2.4548311 -175.45586 -26.800545 -151.1814 -27.025078 -153.28296 -0.60357881 109.23387
27300000000 -2.3595297 -179.39224 -26.894421 -154.05902 -26.729757 -151.75453 -0.62672353 109.0854
27400000000 -2.4971631 175.58986 -26.870012 -157.2122 -26.790636 -155.88202 -0.60726225 108.5243
27500000000 -2.4586029 171.82747 -26.551512 -159.07103 -26.823095 -159.29543 -0.63117379 108.40987
27600000000 -2.5367582 166.86934 -26.808626 -161.17012 -26.826591 -160.38669 -0.58722162 108.153
27700000000 -2.5668843 163.25395 -26.577724 -159.85213 -26.495199 -163.29108 -0.63963211 107.94238
27800000000 -2.5573108 157.81041 -26.918177 -167.01822 -27.126789 -165.16525 -0.61010331 107.61411
27900000000 -2.6472259 153.90659 -26.9214 -165.87479 -26.741051 -165.43602 -0.6502105 107.32991
28000000000 -2.5750067 149.29828 -26.902514 -168.76997 -26.671658 -168.09636 -0.63578773 106.99837
28100000000 -2.6920586 144.88069 -26.613218 -172.67134 -26.74122 -171.96172 -0.64198571 106.76477
28200000000 -2.6151464 140.5768 -26.717308 -174.09644 -26.78339 -174.22424 -0.64157796 106.39235
28300000000 -2.7156448 135.8526 -26.399746 -175.17058 -26.514294 -176.6384 -0.65177304 106.10171
28400000000 -2.705646 131.44994 -26.705946 179.38623 -26.694963 -178.53505 -0.61770469 106.0912
28500000000 -2.6943045 127.0322 -26.320515 179.37979 -26.375975 178.73007 -0.62907404 105.52831
28600000000 -2.7012169 122.62244 -26.51309 175.10287 -26.485712 174.53682 -0.61263323 105.29827
28700000000 -2.7260013 118.41104 -26.440607 174.58144 -26.407566 174.56874 -0.61804402 105.05521
28800000000 -2.7182734 114.05186 -26.759501 171.60257 -26.68841 171.84886 -0.61554915 104.63931
28900000000 -2.7140913 109.68085 -26.507633 167.88547 -26.564127 168.23851 -0.62871981 104.45638
29000000000 -2.6698277 105.40665 -26.940403 166.3069 -26.541225 166.02469 -0.61439943 104.27415
29100000000 -2.7111032 100.63927 -26.512638 165.30003 -26.607637 163.83818 -0.65787041 103.89643
29200000000 -2.6454399 97.035561 -26.666319 161.87886 -26.556696 161.55663 -0.63242078 103.53741
29300000000 -2.6674125 92.337746 -27.007893 161.64299 -27.06286 161.20706 -0.63801247 103.27676
29400000000 -2.646553 88.703125 -26.964943 159.05754 -26.910311 162.15291 -0.60112727 103.02469
29500000000 -2.5999429 83.967018 -26.856297 158.86462 -26.985619 156.88675 -0.63485348 102.93479
29600000000 -2.669307 80.177376 -26.485693 154.6291 -26.723333 154.44107 -0.59180331 102.78322
29700000000 -2.4976413 75.897827 -26.721161 152.45255 -26.649105 154.38921 -0.64585 102.35788
29800000000 -2.5971656 71.691734 -26.96328 149.58855 -26.506664 149.13319 -0.6042648 102.06772
29900000000 -2.4503756 68.021835 -26.808992 150.95093 -26.630232 148.22537 -0.66373599 101.61592
30000000000 -2.528898 63.770355 -26.600409 145.66335 -26.874454 144.54585 -0.58567142 101.30769
30100000000 -2.4582942 60.622696 -26.973654 143.64662 -26.801979 145.42766 -0.62017936 100.91894
30200000000 -2.4772601 55.576397 -26.89011 144.50719 -27.302517 142.16057 -0.59269398 100.83229
30300000000 -2.4643025 52.513405 -26.679659 140.90224 -27.139038 139.33391 -0.62971675 100.23139
30400000000 -2.3482933 47.743782 -27.128426 138.54012 -27.034922 137.01355 -0.63645458 100.25351
30500000000 -2.4355834 44.649353 -26.822063 138.19133 -26.936371 136.17128 -0.66808099 99.854225
30600000000 -2.2457712 40.72649 -26.649839 134.39116 -26.990055 134.59531 -0.63417524 99.732651
30700000000 -2.3661594 37.059734 -27.432514 133.55557 -26.892914 134.41273 -0.65305543 99.011581
30800000000 -2.278594 33.645149 -26.528507 132.88155 -26.931982 129.69048 -0.63245159 99.212433
30900000000 -2.2779653 29.08606 -26.869534 131.53062 -26.709063 127.95056 -0.64430612 98.521973
31000000000 -2.2201164 25.972231 -27.067715 125.5194 -26.718521 125.69386 -0.64395905 98.458313
31100000000 -2.1610687 21.96666 -26.939722 122.85928 -26.745045 126.32104 -0.65148222 98.286942
31200000000 -2.145088 19.096836 -27.075422 124.43507 -27.160643 124.50063 -0.66945457 97.800293
31300000000 -2.0537181 15.286431 -27.215681 121.24803 -27.072382 123.72672 -0.67429894 97.480583
31400000000 -2.10973 12.05088 -27.017954 118.14082 -27.004864 121.25296 -0.66954035 97.248299
31500000000 -2.0338967 8.4059229 -26.855516 117.9557 -26.922995 118.15269 -0.63209021 96.677315
31600000000 -2.082931 4.7580147 -26.64327 117.8194 -26.686836 118.47601 -0.6435138 96.664742
31700000000 -2.0163658 1.2656893 -26.738604 118.1376 -26.769072 117.20281 -0.65008664 96.255547
31800000000 -1.9406959 -2.2068846 -26.996979 112.52825 -27.061378 111.61858 -0.6858322 96.156975
31900000000 -1.893193 -5.2650495 -26.584553 106.25962 -26.489737 111.74288 -0.67004019 95.739059
32000000000 -1.8724965 -8.6242104 -26.486 110.25094 -26.682684 107.00468 -0.67926377 95.550415
32100000000 -1.9486161 -12.310989 -26.939932 108.75989 -26.852987 106.86359 -0.70742404 94.975876
32200000000 -1.922493 -15.422505 -26.640635 103.59717 -27.127962 105.62331 -0.67167968 94.866928
32300000000 -1.8753456 -19.173382 -26.559389 103.23072 -27.046841 100.16692 -0.65566415 94.601418
32400000000 -1.8905598 -22.174334 -26.349747 102.78761 -26.682291 100.41458 -0.66510129 94.4403
32500000000 -1.7986958 -25.692436 -27.163826 98.615433 -27.162897 99.71244 -0.67347395 94.181992
32600000000 -1.8558624 -28.84087 -26.726059 96.651978 -26.839727 97.036018 -0.717125 93.969772
32700000000 -1.8137099 -32.24715 -26.715666 95.155167 -26.807062 94.874298 -0.72309446 93.400551
32800000000 -1.89153 -35.786606 -26.884731 94.24588 -26.631451 94.089203 -0.70682365 93.196754
32900000000 -1.7928957 -38.427059 -27.029778 93.477676 -26.766975 93.256454 -0.67257357 92.902054
33000000000 -1.793164 -42.703609 -27.283541 91.143005 -27.424713 92.442574 -0.67212749 92.480827
33100000000 -1.8442357 -45.275688 -26.495428 88.221283 -26.631424 88.959343 -0.67185825 92.212578
33200000000 -1.7748055 -49.299824 -26.565918 86.959282 -26.671104 85.415825 -0.70838231 92.197945
33300000000 -1.8406266 -52.240646 -26.803848 87.138863 -26.600193 85.263985 -0.68990469 91.817093
33400000000 -1.7566391 -55.647778 -26.726971 83.265076 -26.368961 82.034775 -0.72268599 91.458328
33500000000 -1.8217218 -59.178692 -26.676096 81.36882 -26.64974 80.89225 -0.69325918 91.203903
33600000000 -1.7813137 -62.307617 -26.18652 81.009262 -26.904385 77.227859 -0.71965641 90.841576
33700000000 -1.8793579 -65.958588 -26.54763 80.128395 -27.131021 79.637688 -0.6504817 90.545441
33800000000 -1.8075846 -68.71933 -26.86804 76.208679 -25.994099 78.160919 -0.68834049 90.228523
33900000000 -1.8204741 -72.667465 -26.752798 75.541718 -25.682795 77.136223 -0.68731815 90.069313
34000000000 -1.8514228 -75.818062 -26.433277 72.805061 -26.819168 74.670753 -0.69750553 89.504791
34100000000 -1.8550647 -79.727264 -26.595604 68.270393 -26.123941 71.916641 -0.68632632 89.484291
34200000000 -1.9648637 -83.078392 -26.132059 69.955795 -26.310837 70.395424 -0.66961914 89.206833
34300000000 -1.8853674 -86.770073 -26.225399 65.163307 -26.54578 64.957123 -0.69303262 88.893204
34400000000 -1.9780619 -90.379585 -26.464085 64.360672 -25.59075 64.336235 -0.66423911 88.684677
34500000000 -1.9901147 -93.55056 -25.784933 62.945629 -26.547426 61.168701 -0.72109652 88.369843
34600000000 -1.9890702 -97.568474 -25.826658 60.668774 -25.500874 60.790569 -0.72753996 88.154999
34700000000 -2.0625174 -101.01545 -25.518448 58.892147 -25.730478 57.526669 -0.7063719 87.651321
34800000000 -2.0771458 -104.47961 -25.599169 55.276493 -25.602951 56.08242 -0.66056579 87.361931
34900000000 -2.1297455 -108.8615 -25.767841 52.872002 -25.862019 55.716969 -0.63746864 87.205269
35000000000 -2.1149998 -112.26661 -25.198219 51.967972 -25.812342 51.408401 -0.64878798 86.978249
35100000000 -2.1855986 -116.42851 -25.516161 47.871777 -25.388159 49.157757 -0.67631817 86.726097
35200000000 -2.243346 -120.46315 -25.748297 45.713402 -25.74151 46.350903 -0.68970233 86.367973
35300000000 -2.1827705 -124.40844 -25.638428 43.705101 -26.303875 45.524914 -0.74060053 85.949814
35400000000 -2.3921061 -128.55415 -25.59898 39.931129 -25.691965 39.891083 -0.72273767 85.657196
35500000000 -2.3286397 -132.21559 -25.454147 41.509777 -25.321569 41.304626 -0.73545688 85.296875
35600000000 -2.4338386 -136.95911 -25.830793 38.988194 -25.428093 40.392845 -0.66066462 84.93544
35700000000 -2.5135033 -140.01262 -25.83284 35.767292 -25.188534 40.5452 -0.70509076 84.794182
35800000000 -2.4806623 -145.21014 -25.156229 35.189274 -24.940948 34.65416 -0.69769639 84.514099
35900000000 -2.6663313 -148.99641 -25.368614 33.60577 -24.897732 32.344711 -0.73454267 84.385414
36000000000 -2.4871454 -153.64467 -25.121916 31.236813 -25.059885 27.922794 -0.73156112 83.626884
36100000000 -2.7644076 -158.05548 -25.488199 24.498423 -24.650757 25.462299 -0.70298904 83.46611
36200000000 -2.5184119 -161.91571 -24.626125 24.144869 -24.980997 22.472498 -0.69235647 82.993103
36300000000 -2.8301744 -167.21458 -25.5767 22.272715 -25.358324 15.715918 -0.6765154 83.020332
36400000000 -2.7745278 -170.56151 -25.238335 17.314125 -25.567228 18.407234 -0.73513681 82.519516
36500000000 -2.8878827 -176.5632 -24.781069 18.410736 -25.199314 17.265995 -0.70579845 82.250389
36600000000 -2.9694459 179.69357 -25.194794 14.965933 -24.98918 16.096376 -0.6670323 81.590233
36700000000 -2.8969693 174.02751 -24.690998 9.81042 -25.195471 11.165821 -0.73031014 81.580254
36800000000 -3.0940938 170.96202 -24.733112 8.829442 -25.176071 11.729043 -0.64401698 80.887947
36900000000 -3.0028687 165.32053 -24.700424 12.52574 -24.55418 8.6942015 -0.70442551 81.363258
37000000000 -3.1855903 160.83742 -24.937626 10.336207 -24.735748 4.3185143 -0.67729497 81.064514
37100000000 -3.1246171 156.09088 -24.978798 4.2565513 -24.808855 6.8290358 -0.74988955 80.777016
37200000000 -3.242856 151.11739 -25.235359 1.0493572 -25.245251 0.24920568 -0.63684124 80.045135
37300000000 -3.1512251 146.48656 -25.105974 0.54840362 -25.670383 1.4945852 -0.74278045 79.435402
37400000000 -3.2017577 141.4037 -24.923998 -0.72634763 -25.055822 -3.1762719 -0.62134284 79.12941
37500000000 -3.3022904 137.12822 -24.713486 -8.7245312 -24.328642 -1.8867357 -0.69434762 78.942368
37600000000 -3.3158381 132.41702 -24.760563 -4.8547521 -24.311749 -4.4048853 -0.60200137 79.081512
37700000000 -3.36079 127.36854 -24.807796 -7.4388871 -25.046053 -8.0338202 -0.67329228 78.840485
37800000000 -3.3268571 122.30932 -25.330952 -12.271129 -24.249054 -10.97962 -0.71138275 78.969238
37900000000 -3.2531967 117.34435 -24.272371 -16.873207 -24.410366 -14.94595 -0.75245458 78.358162
38000000000 -3.2651143 112.86508 -25.180426 -14.425075 -24.228502 -14.240892 -0.73603189 77.61821
38100000000 -3.2919824 108.93086 -24.963152 -13.845488 -24.309055 -18.192432 -0.70603538 76.73455
38200000000 -3.2763431 103.23276 -25.004164 -20.779108 -24.222771 -18.79129 -0.67326266 76.811684
38300000000 -3.3282132 100.19682 -25.554125 -25.541052 -25.11367 -22.45322 -0.66664082 77.063179
38400000000 -3.1610296 94.011948 -24.669615 -32.136681 -24.905577 -25.504379 -0.65776229 76.71431
38500000000 -3.3130071 90.871956 -25.020702 -30.425608 -24.414543 -25.838791 -0.6935941 76.539848
38600000000 -2.9602256 85.817223 -24.948736 -30.770533 -24.899014 -30.946802 -0.73973584 75.54184
38700000000 -3.3128943 81.76545 -25.19558 -34.510426 -25.677393 -34.105213 -0.74816245 75.545799
38800000000 -2.9480555 77.870872 -24.787764 -36.024399 -25.252913 -31.239708 -0.67799056 74.692589
38900000000 -3.1738532 72.586929 -24.769884 -37.534756 -25.009914 -35.858158 -0.6991396 75.042809
39000000000 -2.9007082 70.022469 -25.097858 -32.54697 -24.993954 -41.760189 -0.68449402 74.843117
39100000000 -2.9303141 63.065979 -25.772087 -41.790325 -25.618574 -41.55537 -0.76484758 74.67128
39200000000 -2.9199739 62.00021 -25.095512 -44.071453 -25.575558 -45.147797 -0.75388527 74.088043
39300000000 -2.8285263 55.544132 -25.832075 -47.478024 -24.665756 -40.533955 -0.80343455 73.709785
39400000000 -3.0218687 54.323536 -24.60059 -46.805733 -25.432154 -42.988041 -0.7444126 73.193436
39500000000 -2.728744 48.300434 -25.803398 -51.129364 -24.976131 -46.499607 -0.69238561 73.339722
39600000000 -2.9471931 44.988693 -24.930954 -49.110256 -25.129385 -50.757973 -0.6659956 72.994591
39700000000 -2.4820769 41.651031 -25.052464 -54.720371 -25.201586 -49.305195 -0.69501376 73.022888
39800000000 -2.734638 36.614643 -24.957382 -58.10524 -25.583612 -57.222683 -0.73084891 72.629692
39900000000 -2.5345862 34.831745 -25.080603 -55.849483 -25.029568 -56.200268 -0.80487001 71.867554
40000000000 -2.6161919 29.728863 -25.201036 -60.34734 -25.374718 -56.690815 -0.73528886 71.515228
40100000000 -2.6203024 27.519947 -25.327522 -62.148041 -26.007452 -64.361931 -0.70446235 70.970764
40200000000 -2.4920933 22.02319 -25.034168 -62.59486 -24.940073 -62.166176 -0.67406619 70.884056
40300000000 -2.5894401 19.153639 -25.470509 -69.24604 -25.546446 -64.55172 -0.68800443 70.974335
40400000000 -2.3294713 15.948419 -25.46913 -63.686611 -25.330574 -66.343216 -0.65431446 70.865753
40500000000 -2.5026302 12.640098 -25.493137 -68.369339 -25.380577 -70.896378 -0.80506098 70.774445
40600000000 -2.2927268 9.7267675 -25.581547 -66.156898 -25.179922 -66.563522 -0.73881698 70.011009
40700000000 -2.4114904 5.4426279 -26.267973 -72.541397 -24.96917 -73.736916 -0.69858927 69.31057
40800000000 -2.3191907 2.9860115 -25.722738 -76.43679 -25.481609 -68.870804 -0.66658771 69.001808
40900000000 -2.1274445 -1.1477957 -25.880247 -71.216095 -24.8866 -72.585754 -0.61471552 68.998825
41000000000 -2.2267113 -4.2644372 -25.824171 -81.587555 -25.285643 -69.534325 -0.64673018 68.558006
41100000000 -2.0687835 -6.4058371 -26.289974 -80.710838 -24.972425 -81.444389 -0.62642986 68.781929
41200000000 -2.1692362 -10.960232 -25.856577 -80.308983 -25.401537 -82.372643 -0.70930022 68.471039
41300000000 -2.1038408 -12.826263 -24.392775 -83.8554 -24.242725 -82.920509 -0.70898086 67.807007
41400000000 -2.029444 -17.567968 -25.029419 -85.992271 -25.794876 -80.799675 -0.65841234 67.244911
41500000000 -2.1777434 -18.945276 -25.670189 -87.165115 -24.721632 -89.081291 -0.72646058 67.120293
41600000000 -1.8745536 -24.103662 -24.437271 -85.137314 -25.372381 -84.52018 -0.67373151 66.706947
41700000000 -2.2425129 -26.391077 -25.354786 -89.225395 -24.412086 -93.649788 -0.68757379 67.140137
41800000000 -1.798599 -30.228359 -25.155098 -95.864769 -24.402269 -93.491982 -0.6602183 66.157341
41900000000 -2.075949 -33.476063 -25.910669 -96.939705 -24.491163 -90.948502 -0.74866498 66.188362
42000000000 -1.8982701 -35.583565 -25.662035 -99.408859 -25.608017 -99.226334 -0.76347774 65.634003
42100000000 -1.9019599 -40.321991 -24.611496 -101.08944 -24.986925 -99.071404 -0.73330307 65.460258
42200000000 -1.9509046 -42.143044 -24.755535 -100.44509 -24.846264 -101.92735 -0.66898346 65.561485
42300000000 -1.9348955 -46.478046 -25.608774 -102.12192 -25.178568 -104.65563 -0.73770875 64.333977
42400000000 -2.139699 -48.763123 -25.506586 -98.555069 -25.523113 -101.30437 -0.65058333 64.55986
42500000000 -1.8615409 -52.153046 -24.644184 -107.60104 -25.407835 -103.78306 -0.6805622 64.558807
42600000000 -2.0514965 -55.97266 -25.590179 -111.37782 -24.210627 -105.02045 -0.69644088 63.971218
42700000000 -1.9774492 -58.812206 -24.593697 -113.50603 -24.456556 -114.02258 -0.7524786 63.335785
42800000000 -1.9530454 -63.406742 -25.501101 -112.33584 -24.032913 -107.98228 -0.76321667 63.618904
42900000000 -2.0183527 -65.851837 -24.534086 -121.3938 -24.109671 -112.8617 -0.74900395 62.569519
43000000000 -1.9051567 -70.53418 -24.633385 -123.88365 -23.160601 -115.20163 -0.69839376 62.675953
43100000000 -2.3029525 -73.069557 -23.619518 -122.46678 -24.815411 -124.28091 -0.63006485 61.793861
43200000000 -2.1519618 -75.213715 -25.162624 -111.95692 -23.499813 -123.26269 -0.69021088 62.340496
43300000000 -2.2919548 -81.009438 -24.064695 -120.8381 -23.439165 -119.72849 -0.62694269 61.708267
43400000000 -2.1962626 -83.916206 -24.181002 -117.55235 -24.040876 -124.15752 -0.73617172 61.655857
43500000000 -2.3244689 -89.116173 -23.727001 -126.12181 -24.028183 -121.08001 -0.76596898 61.109367
43600000000 -2.2973847 -90.405823 -24.414082 -122.17467 -24.189262 -127.12768 -0.79206264 60.841728
43700000000 -2.2233319 -95.830681 -24.294653 -124.75201 -24.123213 -125.14325 -0.61432785 60.340767
43800000000 -2.4143138 -100.01458 -25.194176 -126.63872 -24.423313 -131.96948 -0.7012248 60.114845
43900000000 -2.4651389 -104.28066 -24.066809 -130.21899 -23.00695 -139.90186 -0.71228266 60.190845
44000000000 -2.6193559 -108.4543 -23.65279 -138.39088 -23.769215 -142.32256 -0.70250183 59.565971
44100000000 -2.503546 -111.20531 -24.143719 -137.79092 -23.47851 -140.92462 -0.7967093 59.663574
44200000000 -2.7955024 -118.19144 -23.712715 -144.29088 -23.58181 -138.66722 -0.81220955 58.994865
44300000000 -2.8689756 -118.70585 -24.86265 -141.36188 -22.725758 -148.29709 -0.72680545 58.645103
44400000000 -2.7729235 -125.81375 -23.046305 -146.32979 -22.813444 -140.64894 -0.72032768 58.012157
44500000000 -3.1324987 -128.46573 -23.55879 -149.30643 -22.238939 -148.88522 -0.75744057 58.436634
44600000000 -2.7947502 -134.34776 -23.780094 -152.10338 -22.989994 -149.46523 -0.74777561 58.094852
44700000000 -3.3718426 -139.41525 -23.978941 -158.55228 -24.109648 -154.46341 -0.70350218 57.560619
44800000000 -3.0334196 -143.06544 -23.046949 -155.6076 -24.713095 -158.20309 -0.67867237 57.294212
44900000000 -3.3898189 -149.51282 -22.408464 -160.44005 -23.028442 -161.01376 -0.69739217 56.510609
45000000000 -3.3372912 -153.16107 -22.968594 -158.77307 -23.165722 -157.49361 -0.68870902 56.10498
