!Keysight Technologies,N5247B,MY61255062,A.19.80.06
!Date: Monday, May 18, 2026 11:53:56
!Correction: S11(Cdelta 2-Port  ) 
!S21(Cdelta 2-Port  ) 
!S12(Cdelta 2-Port  ) 
!S22(Cdelta 2-Port  ) 
!S2P File: Measurements: S11, S21, S12, S22:
# Hz S  dB   R 50
1000000000 -1.6979643 140.13614 -35.469494 -14.318766 -35.498291 -14.720933 -0.25455031 177.32259
1100000000 -1.7153447 136.32675 -35.484512 -15.852908 -35.456902 -16.275988 -0.25832859 177.0788
1200000000 -1.7301441 132.48486 -35.419735 -17.651991 -35.434212 -17.575855 -0.25775966 176.82018
1300000000 -1.7407237 128.64072 -35.425938 -19.151882 -35.408161 -19.449547 -0.26066768 176.55835
1400000000 -1.7472309 124.80607 -35.450924 -20.559683 -35.414303 -20.378208 -0.26255783 176.30565
1500000000 -1.7534137 120.95929 -35.358845 -22.036016 -35.426182 -21.751223 -0.26487607 176.03679
1600000000 -1.7581065 117.07658 -35.362316 -23.380241 -35.400024 -23.873983 -0.26453328 175.78813
1700000000 -1.7621765 113.21899 -35.373425 -25.0711 -35.359776 -25.059673 -0.26742765 175.52876
1800000000 -1.7648251 109.33688 -35.349136 -26.471275 -35.346237 -26.5005 -0.26804546 175.27428
1900000000 -1.7661011 105.44916 -35.293442 -27.633621 -35.317055 -28.10412 -0.2693246 175.02672
2000000000 -1.7671957 101.54912 -35.259384 -29.450003 -35.265259 -29.427481 -0.26916182 174.77124
2100000000 -1.7648189 97.625893 -35.265209 -31.210451 -35.257946 -31.045977 -0.27403328 174.51117
2200000000 -1.7604295 93.694916 -35.162136 -32.716022 -35.189953 -32.283676 -0.27321446 174.2683
2300000000 -1.7556252 89.792519 -35.152897 -33.738094 -35.18935 -33.909874 -0.27399439 174.0014
2400000000 -1.7504343 85.863892 -35.192543 -35.254158 -35.155895 -35.60178 -0.27569923 173.7505
2500000000 -1.746554 81.910812 -35.189945 -36.965118 -35.215004 -37.204609 -0.27686337 173.48572
2600000000 -1.7353201 77.969795 -35.107941 -38.186237 -35.105877 -38.714367 -0.27790555 173.2428
2700000000 -1.7236429 74.00843 -35.039745 -39.787354 -35.071274 -39.930042 -0.28188652 172.99608
2800000000 -1.7110326 70.058105 -35.07869 -41.244682 -35.062939 -41.364464 -0.28320676 172.75159
2900000000 -1.6973563 66.083328 -34.954777 -42.933891 -35.006516 -43.102516 -0.28489807 172.48203
3000000000 -1.6798027 62.106377 -34.998043 -44.212601 -34.876614 -43.92643 -0.28454235 172.23656
3100000000 -1.6628875 58.091988 -34.815712 -45.784943 -34.844097 -46.209259 -0.28281832 171.98663
3200000000 -1.6482862 54.088642 -34.781673 -47.67627 -34.824905 -47.51757 -0.28342339 171.72701
3300000000 -1.6278269 50.05098 -34.722633 -48.782948 -34.743126 -48.820145 -0.28460535 171.48708
3400000000 -1.6078 46.011486 -34.709179 -50.716423 -34.738365 -50.683983 -0.2860586 171.24283
3500000000 -1.5844698 41.963806 -34.607376 -52.469555 -34.526173 -52.39312 -0.2858308 170.98848
3600000000 -1.5620996 37.883648 -34.53083 -54.348949 -34.539188 -54.149662 -0.28916019 170.7271
3700000000 -1.538713 33.812515 -34.503792 -55.758755 -34.478271 -55.835972 -0.28961593 170.48285
3800000000 -1.5157244 29.688961 -34.45644 -57.910175 -34.38765 -57.535282 -0.29237533 170.21228
3900000000 -1.4912053 25.58349 -34.39233 -59.31216 -34.334717 -59.318535 -0.2910988 169.98891
4000000000 -1.4661951 21.436678 -34.310452 -61.210182 -34.242325 -61.210655 -0.2944029 169.7187
4100000000 -1.4508679 17.317884 -34.196537 -62.632957 -34.261509 -62.835144 -0.29505947 169.47945
4200000000 -1.4259015 13.242354 -34.161488 -65.124092 -34.159054 -64.915306 -0.29652452 169.20923
4300000000 -1.4105881 9.1351862 -34.172371 -66.547958 -34.139786 -66.834297 -0.29631969 168.9608
4400000000 -1.3887587 5.0584617 -34.156898 -68.557777 -34.124306 -68.420044 -0.29963389 168.69666
4500000000 -1.3702701 0.93588328 -34.081486 -70.457565 -34.08786 -70.495964 -0.29804525 168.46146
4600000000 -1.3487304 -3.1401513 -34.045269 -71.945175 -34.086029 -72.220451 -0.29870263 168.19313
4700000000 -1.327458 -7.2595572 -34.020454 -74.107552 -34.087124 -73.806023 -0.30330339 167.94522
4800000000 -1.3047985 -11.321936 -33.952053 -75.580818 -34.025993 -75.784683 -0.3049753 167.68103
4900000000 -1.2829083 -15.428484 -34.003468 -77.598381 -33.974884 -77.66227 -0.30652484 167.44406
5000000000 -1.2659688 -19.530392 -33.912964 -79.867752 -33.954151 -79.322441 -0.30614009 167.17784
5100000000 -1.2459521 -23.613495 -33.852222 -81.252625 -33.984318 -81.516396 -0.30722797 166.93233
5200000000 -1.2302089 -27.711107 -33.916088 -82.793869 -33.914654 -83.373024 -0.30791429 166.66206
5300000000 -1.2089983 -31.776529 -33.801365 -85.047066 -33.85799 -85.203705 -0.31114277 166.42552
5400000000 -1.1957028 -35.853161 -33.872581 -86.423248 -33.816452 -86.624176 -0.30809462 166.16612
5500000000 -1.1769502 -39.886669 -33.794949 -88.010948 -33.824322 -89.053177 -0.31225109 165.91548
5600000000 -1.1676426 -43.948448 -33.761272 -90.283669 -33.835609 -90.088524 -0.31211311 165.66924
5700000000 -1.1557492 -48.010475 -33.767906 -91.977798 -33.798237 -92.084534 -0.31651956 165.41798
5800000000 -1.1457427 -52.047928 -33.733627 -93.524223 -33.789646 -93.765366 -0.3165226 165.15533
5900000000 -1.1337554 -56.075397 -33.690147 -95.36422 -33.7342 -95.765381 -0.31604347 164.88985
6000000000 -1.1219174 -60.095863 -33.6661 -97.556389 -33.697639 -97.266396 -0.31593126 164.65288
6100000000 -1.1123865 -64.074265 -33.692081 -99.265701 -33.644367 -99.212029 -0.31763145 164.3886
6200000000 -1.1099735 -68.043884 -33.629593 -100.677 -33.659943 -100.88774 -0.31840104 164.14854
6300000000 -1.1080136 -72.000648 -33.571423 -102.70316 -33.59412 -102.38503 -0.32219431 163.90665
6400000000 -1.1104522 -75.986191 -33.598843 -103.98618 -33.553326 -103.92113 -0.31977201 163.6154
6500000000 -1.1103512 -79.919411 -33.541542 -105.62154 -33.513802 -105.72415 -0.32677397 163.38065
6600000000 -1.108135 -83.864975 -33.450603 -107.50693 -33.360542 -107.30646 -0.32565916 163.11568
6700000000 -1.1058229 -87.773399 -33.28331 -109.60793 -33.314907 -109.71658 -0.32591474 162.8894
6800000000 -1.1012533 -91.685532 -33.216061 -111.7645 -33.249237 -111.91632 -0.32320422 162.61887
6900000000 -1.1070058 -95.583534 -33.219925 -114.12749 -33.234291 -113.85045 -0.32823861 162.36557
7000000000 -1.1072088 -99.464645 -33.253487 -116.01386 -33.214256 -116.61931 -0.32884169 162.11601
7100000000 -1.1145374 -103.38355 -33.275417 -117.92846 -33.280037 -117.93782 -0.32938227 161.84605
7200000000 -1.1197753 -107.23257 -33.339043 -120.16252 -33.20055 -120.49969 -0.33048716 161.5625
7300000000 -1.1333599 -111.12975 -33.459305 -122.0138 -33.309013 -122.31881 -0.33359832 161.33591
7400000000 -1.1456915 -114.94962 -33.356239 -123.35547 -33.300575 -123.95193 -0.33502218 161.10448
7500000000 -1.1539127 -118.80356 -33.298382 -124.98772 -33.303368 -124.98475 -0.34118402 160.85616
7600000000 -1.1694199 -122.59785 -33.250343 -126.46549 -33.243904 -126.67836 -0.34305689 160.61165
7700000000 -1.1775538 -126.42015 -33.177227 -128.44684 -33.186913 -128.821 -0.34302974 160.31084
7800000000 -1.2004439 -130.26263 -33.215279 -129.64561 -33.138988 -130.56435 -0.33918181 160.04176
7900000000 -1.2124691 -134.05977 -33.149414 -132.33896 -33.233219 -132.35335 -0.33653826 159.76717
8000000000 -1.2314155 -137.89136 -33.182404 -133.68126 -33.206421 -134.14117 -0.33489943 159.57701
8100000000 -1.2476772 -141.66 -33.201817 -136.21564 -33.242134 -135.91508 -0.34712696 159.31816
8200000000 -1.2666378 -145.4877 -33.125431 -137.71642 -33.139603 -137.62766 -0.36193624 159.07689
8300000000 -1.2880245 -149.24332 -33.170715 -139.13336 -33.174492 -139.4232 -0.38260317 158.66249
8400000000 -1.30468 -153.06073 -33.128773 -140.5977 -33.113167 -141.31143 -0.39700511 158.21132
8500000000 -1.3296651 -156.82195 -33.152748 -142.85471 -33.106415 -142.90675 -0.39530194 157.60765
8600000000 -1.3455721 -160.62033 -33.124073 -144.92929 -33.11047 -144.53392 -0.37985933 157.26891
8700000000 -1.372526 -164.39494 -32.969994 -145.78171 -33.135635 -145.47562 -0.33036369 156.99756
8800000000 -1.3923655 -168.18073 -32.987255 -147.72954 -33.01189 -147.33484 -0.26362467 156.75038
8900000000 -1.4160749 -171.9743 -33.010548 -149.74969 -33.045937 -149.45552 -0.27159521 156.52475
9000000000 -1.4401907 -175.75473 -32.929508 -151.45871 -32.999958 -151.58594 -0.28939676 156.61681
9100000000 -1.4613085 -179.54156 -32.91021 -153.04361 -32.9827 -152.53166 -0.32009521 156.61555
9200000000 -1.484427 176.66411 -32.974236 -154.7886 -33.06863 -154.75111 -0.34350178 156.5584
9300000000 -1.5092844 172.85808 -32.912788 -156.75967 -32.908028 -156.80669 -0.35946324 156.31905
9400000000 -1.5313183 169.04572 -32.787659 -157.86305 -32.888229 -158.33908 -0.36769381 156.02646
9500000000 -1.5607941 165.22279 -32.858246 -159.56654 -32.836849 -159.70364 -0.36986873 155.69524
9600000000 -1.5802269 161.40637 -32.743946 -161.74484 -32.844368 -161.20958 -0.36608991 155.45039
9700000000 -1.6020497 157.5813 -32.775181 -163.32578 -32.751312 -163.02492 -0.36788145 155.21448
9800000000 -1.6266623 153.77101 -32.745049 -164.82022 -32.809708 -164.85246 -0.36912128 154.99977
9900000000 -1.6489776 149.91765 -32.727043 -166.5549 -32.68618 -166.7478 -0.3769269 154.69333
10000000000 -1.6695112 146.1133 -32.639675 -168.79857 -32.564362 -168.36087 -0.37765735 154.43396
10100000000 -1.6904248 142.1839 -32.685478 -169.6017 -32.604393 -169.64088 -0.37768078 154.11681
10200000000 -1.7198021 138.36996 -32.578598 -171.93059 -32.593624 -171.48883 -0.37254819 153.87891
10300000000 -1.7339369 134.47026 -32.570343 -173.32404 -32.524006 -174.00584 -0.37509918 153.623
10400000000 -1.7630296 130.58977 -32.535385 -174.83096 -32.60918 -174.92802 -0.37743965 153.45636
10500000000 -1.7716227 126.68464 -32.528988 -177.25134 -32.499218 -176.79538 -0.38661852 153.20662
10600000000 -1.7986715 122.76399 -32.468353 -178.0441 -32.464855 -178.22298 -0.39470175 152.97929
10700000000 -1.8083494 118.92701 -32.408592 179.61066 -32.488453 179.72353 -0.4030906 152.6178
10800000000 -1.8288449 114.92823 -32.473755 178.20299 -32.428539 178.20384 -0.4090583 152.35274
10900000000 -1.8415941 111.05967 -32.310715 176.90483 -32.381435 176.86624 -0.40802994 152.02039
11000000000 -1.853523 107.05509 -32.345627 174.71252 -32.270664 175.64299 -0.40631703 151.82709
11100000000 -1.8702664 103.13141 -32.244793 173.52042 -32.271683 174.19911 -0.39590845 151.59845
11200000000 -1.8736477 99.089165 -32.134605 172.0704 -32.173409 172.38512 -0.39965624 151.42377
11300000000 -1.8854522 95.130348 -32.104645 169.76424 -32.059258 170.30824 -0.40135717 151.18301
11400000000 -1.8863217 91.140236 -32.003452 169.24011 -31.976961 168.64452 -0.42083845 150.97031
11500000000 -1.8989863 87.081055 -31.922869 167.32593 -31.912142 167.00552 -0.42220163 150.71788
11600000000 -1.8973192 83.101799 -31.95175 165.31981 -31.843737 165.57094 -0.42760521 150.42628
11700000000 -1.9023932 78.980614 -31.796072 163.12137 -31.783171 163.66899 -0.42004937 150.1411
11800000000 -1.9050753 74.950691 -31.782345 161.5862 -31.701748 161.60602 -0.42033482 149.91234
11900000000 -1.9064286 70.821686 -31.677944 160.37431 -31.6516 159.69865 -0.41175979 149.6915
12000000000 -1.9078494 66.790001 -31.504938 157.84192 -31.644796 157.99948 -0.4159503 149.44226
12100000000 -1.905457 62.681946 -31.541904 156.39851 -31.437305 156.18239 -0.42059118 149.24916
12200000000 -1.9058419 58.614082 -31.448801 154.41902 -31.313869 154.31734 -0.43078473 149.00002
12300000000 -1.9061764 54.485069 -31.40073 152.90782 -31.411671 152.84641 -0.4312996 148.70903
12400000000 -1.9006686 50.41338 -31.318954 150.73134 -31.341753 151.13457 -0.43423235 148.45856
12500000000 -1.8973886 46.267273 -31.177328 149.02502 -31.202686 149.59084 -0.42784944 148.21794
12600000000 -1.8940929 42.224007 -31.097174 147.91464 -31.123177 147.74146 -0.43413335 147.99135
12700000000 -1.8870791 38.092434 -31.003481 145.91277 -30.979803 146.04965 -0.42979866 147.76529
12800000000 -1.8870832 34.027359 -30.83835 144.35651 -30.843325 143.83513 -0.43502602 147.52122
12900000000 -1.8686453 29.895994 -30.573803 142.37944 -30.60667 142.53658 -0.43483487 147.24982
13000000000 -1.8684241 25.80937 -30.555807 140.21941 -30.519642 140.07066 -0.43764919 147.0098
13100000000 -1.8458648 21.7285 -30.335442 137.32137 -30.357756 137.76627 -0.43066639 146.73326
13200000000 -1.8436974 17.624861 -30.130768 135.18373 -30.178909 135.24586 -0.43052632 146.48405
13300000000 -1.8220778 13.606152 -30.035275 132.23389 -30.030685 132.15691 -0.43022963 146.2207
13400000000 -1.8138902 9.4560423 -29.905077 129.86295 -29.960241 129.60214 -0.43017134 145.91217
13500000000 -1.801623 5.4306588 -29.884224 126.401 -29.8405 126.59035 -0.42870307 145.61885
13600000000 -1.7730895 1.2289944 -29.74618 123.07125 -29.787052 123.49802 -0.43560144 145.3136
13700000000 -1.7611004 -2.7770662 -29.874954 120.34895 -29.850857 120.27113 -0.42650476 145.03159
13800000000 -1.7219051 -6.899631 -29.827259 116.8261 -29.783842 116.87524 -0.43612203 144.75577
13900000000 -1.7191406 -10.905066 -29.934601 114.1751 -29.931602 114.48724 -0.43880603 144.51741
14000000000 -1.6955467 -14.982112 -30.072542 111.67528 -30.05802 111.24409 -0.45491132 144.23875
14100000000 -1.7037202 -19.170847 -30.236397 109.52646 -30.28978 109.61945 -0.46062633 144.00331
14200000000 -1.6731693 -23.222486 -30.4454 108.21285 -30.378078 107.74089 -0.47466314 143.71196
14300000000 -1.6648529 -27.430521 -30.595266 107.03588 -30.575083 106.72413 -0.47419047 143.54654
14400000000 -1.6457188 -31.327152 -30.472132 106.48416 -30.549845 106.67617 -0.47375625 143.33621
14500000000 -1.6351148 -35.377548 -30.279297 105.61473 -30.342978 105.75991 -0.46358097 143.23064
14600000000 -1.6351864 -39.308083 -30.13541 103.22669 -30.143679 103.55401 -0.45132318 142.98061
14700000000 -1.6194645 -43.343662 -30.086771 100.76203 -30.015862 100.32889 -0.44909099 142.70567
14800000000 -1.6106775 -47.450718 -30.151794 97.535255 -30.053104 97.081505 -0.45196542 142.31967
14900000000 -1.591962 -51.530552 -30.258633 96.080589 -30.275915 95.533607 -0.46674198 142.11063
15000000000 -1.5814204 -55.549469 -30.288794 95.331329 -30.289948 94.743004 -0.46296206 141.93454
15100000000 -1.5733566 -59.447857 -30.061934 93.336128 -30.057369 93.74334 -0.44398659 141.72394
15200000000 -1.569185 -63.445698 -29.879442 90.266846 -29.952997 90.41851 -0.43862188 141.40936
15300000000 -1.5649186 -67.409958 -30.014357 87.619652 -29.998659 87.630234 -0.4498578 141.06844
15400000000 -1.5606577 -71.459221 -30.140345 85.997101 -30.087444 85.614532 -0.456496 140.72906
15500000000 -1.5515742 -75.499146 -30.109631 83.867668 -30.126892 84.025139 -0.46720952 140.48712
15600000000 -1.5440462 -79.483994 -30.106874 81.511971 -30.074335 82.280586 -0.46846712 140.17819
15700000000 -1.5384164 -83.427689 -30.016291 80.990944 -30.142311 80.493088 -0.46922639 139.99255
15800000000 -1.5479622 -87.395218 -30.095955 78.707176 -30.061695 79.181412 -0.46765867 139.78059
15900000000 -1.5499316 -91.319565 -30.072939 76.857254 -30.047274 77.339706 -0.47093573 139.53548
16000000000 -1.5548061 -95.389809 -29.939102 74.938835 -29.994669 75.408714 -0.47617677 139.24216
16100000000 -1.5622524 -99.307976 -30.035648 73.846855 -29.999754 73.357895 -0.47880992 138.98123
16200000000 -1.5561016 -103.36224 -30.008003 71.629944 -29.914341 71.548752 -0.47667623 138.63199
16300000000 -1.567392 -107.20451 -29.852995 69.866112 -29.851959 69.502411 -0.47944555 138.42146
16400000000 -1.5711638 -111.23389 -29.810684 67.842636 -29.792166 67.363281 -0.47852176 138.10617
16500000000 -1.6061649 -115.19994 -29.73962 65.872879 -29.804743 65.959419 -0.48467371 137.9304
16600000000 -1.5956894 -119.18354 -29.817999 64.070641 -29.721384 63.777206 -0.48969489 137.65378
16700000000 -1.6238759 -123.26653 -29.780781 62.423359 -29.722231 61.887547 -0.49842882 137.42867
16800000000 -1.6125315 -127.06541 -29.858742 60.057259 -29.774611 59.704056 -0.49859431 137.13815
16900000000 -1.643191 -131.12599 -29.746107 58.307869 -29.641935 57.981728 -0.5035494 136.91182
17000000000 -1.6650317 -134.91679 -29.667183 56.199123 -29.695055 56.612061 -0.49071497 136.70758
17100000000 -1.6768298 -139.09398 -29.666466 54.662674 -29.647299 54.48542 -0.48890305 136.50873
17200000000 -1.7066611 -142.98941 -29.681082 52.881653 -29.659678 52.914501 -0.47175375 136.21933
17300000000 -1.6912378 -147.01923 -29.493727 50.791866 -29.478098 51.135426 -0.48595083 135.99963
17400000000 -1.7330035 -150.91913 -29.430813 48.379128 -29.537937 49.299477 -0.4830541 135.72253
17500000000 -1.7305321 -154.79694 -29.435581 47.352829 -29.479258 46.912327 -0.4882116 135.40964
17600000000 -1.7793643 -158.87007 -29.434437 45.518845 -29.395508 45.324947 -0.47320053 135.17487
17700000000 -1.7908117 -162.80579 -29.454781 43.7127 -29.390253 42.875343 -0.47445869 134.88873
17800000000 -1.8060849 -166.94124 -29.215193 41.433643 -29.34614 41.558453 -0.47136649 134.67459
17900000000 -1.8245102 -170.72037 -29.2691 39.831898 -29.356573 40.013237 -0.47883794 134.45561
18000000000 -1.8298638 -174.8076 -29.24025 37.72842 -29.141094 37.486671 -0.47774151 134.15974
18100000000 -1.8645192 -178.6655 -29.216084 36.65424 -29.073996 36.291996 -0.48920465 133.83902
18200000000 -1.8746684 177.2139 -29.031467 34.259747 -29.064888 34.239941 -0.48725641 133.57068
18300000000 -1.9067156 173.2016 -28.964777 31.929443 -29.115641 32.175556 -0.4852798 133.17686
18400000000 -1.9168211 169.19958 -28.868332 29.986092 -28.878319 29.832071 -0.47109875 132.95517
18500000000 -1.9404911 165.18875 -28.793728 28.523386 -28.781364 27.33894 -0.47863564 132.71811
18600000000 -1.9605289 161.20436 -28.7966 26.245644 -28.847622 26.650805 -0.47990635 132.53053
18700000000 -1.9840779 157.17448 -28.811028 23.983713 -28.786634 23.589386 -0.49364087 132.25626
18800000000 -1.9986233 153.11119 -28.686113 22.219437 -28.671909 21.872604 -0.49677393 132.00302
18900000000 -2.0228064 149.08868 -28.659773 20.230982 -28.613142 19.419296 -0.50076002 131.64761
19000000000 -2.0305731 145.00328 -28.607677 18.196068 -28.550325 17.804447 -0.48842072 131.30186
19100000000 -2.0518887 141.0441 -28.492214 15.653534 -28.584118 15.400856 -0.48878571 131.05034
19200000000 -2.0429075 136.97191 -28.38711 13.73423 -28.430519 13.2939 -0.47622702 130.82193
19300000000 -2.0818508 132.96935 -28.334944 11.40871 -28.369461 11.270402 -0.48547113 130.62799
19400000000 -2.0670841 129.02185 -28.337851 8.6284504 -28.373501 8.6157131 -0.4826757 130.3786
19500000000 -2.1098599 124.88593 -28.238413 6.4682884 -28.223343 6.580719 -0.49340245 130.117
19600000000 -2.1101234 120.96905 -28.159115 4.2689724 -28.217323 4.626317 -0.48346263 129.80634
19700000000 -2.1176584 116.6857 -28.069216 2.6156433 -28.174271 1.8988914 -0.48850358 129.48538
19800000000 -2.1180363 112.89266 -28.090858 -0.39121395 -28.023932 -0.24024646 -0.47307035 129.28288
19900000000 -2.0939765 108.74158 -28.046007 -2.1396701 -28.031975 -2.7835081 -0.47927788 128.92705
20000000000 -2.1431384 105.01397 -27.944458 -4.8329496 -27.961452 -5.1122098 -0.46667367 128.68988
20100000000 -2.119282 100.93318 -28.045961 -7.3894582 -27.852921 -7.4229231 -0.48060951 128.29131
20200000000 -2.1684654 96.903122 -27.821371 -9.7141809 -27.958334 -10.685855 -0.48311082 128.04866
20300000000 -2.1347477 92.943405 -27.894938 -12.790806 -27.956238 -12.98147 -0.47971958 127.61465
20400000000 -2.1490951 88.791817 -27.904165 -16.16564 -27.936708 -15.433943 -0.48194212 127.4255
20500000000 -2.1230135 85.157326 -28.008078 -18.51379 -27.979252 -18.382797 -0.49427894 127.08807
20600000000 -2.1266482 81.0215 -28.100903 -20.82366 -28.078722 -21.061279 -0.51207852 126.92261
20700000000 -2.1455526 77.305321 -28.210678 -23.509026 -28.229897 -23.049061 -0.53290617 126.50606
20800000000 -2.1288474 73.17215 -28.3433 -25.132347 -28.434433 -25.23196 -0.55418974 126.3058
20900000000 -2.1416473 69.285194 -28.599751 -27.003769 -28.513651 -26.311903 -0.56544983 125.96713
21000000000 -2.119029 65.438454 -28.535021 -27.090883 -28.555168 -26.935297 -0.55557513 125.88535
21100000000 -2.1214869 61.531815 -28.574808 -27.144169 -28.53743 -27.575737 -0.54346919 125.71284
21200000000 -2.1209426 57.836403 -28.253469 -28.864811 -28.256659 -28.829205 -0.53230804 125.60489
21300000000 -2.1058493 53.984943 -27.97336 -31.567577 -28.035345 -31.754421 -0.5217073 125.31317
21400000000 -2.1096854 50.262074 -28.006104 -35.097572 -27.965158 -35.450901 -0.52993035 124.95303
21500000000 -2.0729671 46.403709 -28.159641 -37.410213 -28.182096 -37.389896 -0.54665518 124.66172
21600000000 -2.0669074 42.496441 -28.230238 -38.78791 -28.286711 -38.760525 -0.54493397 124.40037
21700000000 -2.0495746 38.971409 -28.103764 -40.18251 -28.210773 -40.158779 -0.52252907 124.06178
21800000000 -2.0196948 35.116016 -27.967941 -42.553097 -27.930227 -42.41087 -0.50530255 123.79091
21900000000 -2.0259311 31.618101 -27.793413 -46.02084 -27.803493 -45.461807 -0.49900606 123.43551
22000000000 -1.9724683 27.801086 -28.010265 -48.341599 -27.980753 -48.924061 -0.50991654 123.2422
22100000000 -1.9919804 24.035507 -28.107584 -50.873272 -28.176956 -51.278145 -0.52758342 122.96678
22200000000 -1.9298779 20.452673 -28.318298 -53.057533 -28.36183 -52.830753 -0.53741539 122.76308
22300000000 -1.9405822 16.467075 -28.432617 -53.752892 -28.537664 -54.059353 -0.54388845 122.41001
22400000000 -1.8967443 13.336391 -28.556992 -55.265274 -28.534327 -55.357487 -0.53513092 122.18227
22500000000 -1.9014975 9.2030649 -28.501102 -57.006222 -28.452623 -56.399162 -0.52676219 121.85742
22600000000 -1.8998246 5.9436235 -28.370295 -57.787739 -28.433971 -57.893188 -0.52069396 121.74848
22700000000 -1.8636436 1.8426241 -28.44404 -59.38092 -28.432455 -59.239876 -0.51540363 121.43283
22800000000 -1.8964719 -1.6045465 -28.424076 -61.02462 -28.295706 -61.456013 -0.51800638 121.3173
22900000000 -1.8034377 -5.2840343 -28.263098 -63.011452 -28.421019 -63.013584 -0.51853639 120.87105
23000000000 -1.8526204 -8.8154821 -28.240288 -63.911427 -28.403418 -64.056877 -0.52707487 120.61592
23100000000 -1.7714475 -12.163602 -28.250814 -65.121086 -28.186235 -66.599098 -0.51132745 120.19895
23200000000 -1.8343887 -16.046005 -28.18429 -67.80294 -28.102123 -67.621391 -0.50634319 120.03349
23300000000 -1.8021765 -19.435093 -28.228237 -68.960846 -28.023092 -69.028801 -0.48843434 119.68314
23400000000 -1.7982908 -23.452377 -28.088871 -71.498726 -28.095695 -70.438705 -0.51369619 119.56231
23500000000 -1.7862628 -26.778831 -28.086174 -73.06205 -27.889027 -73.207695 -0.51165187 119.23385
23600000000 -1.7281467 -30.551079 -27.953888 -74.559151 -27.882008 -74.564186 -0.5421927 118.84893
23700000000 -1.7786562 -33.8787 -27.882097 -76.73214 -27.905008 -76.706902 -0.51385117 118.40321
23800000000 -1.7335391 -37.557724 -27.832575 -78.661964 -27.740318 -78.679642 -0.52037877 118.04586
23900000000 -1.7700566 -41.37138 -27.696983 -80.637154 -27.763819 -80.597664 -0.4872871 117.79688
24000000000 -1.7485448 -44.899326 -27.727177 -82.822769 -27.734724 -82.27742 -0.50423837 117.67173
24100000000 -1.7340966 -48.795399 -27.718073 -84.657265 -27.609791 -83.651245 -0.49887219 117.52139
24200000000 -1.7322263 -52.212902 -27.642876 -86.881126 -27.661776 -86.658409 -0.53362733 117.15421
24300000000 -1.7074841 -55.970516 -27.543747 -87.879539 -27.519482 -88.383408 -0.55133772 116.79095
24400000000 -1.7530997 -59.509766 -27.465416 -90.406731 -27.533745 -89.948273 -0.55796283 116.27408
24500000000 -1.7274376 -63.175499 -27.421501 -92.325729 -27.505308 -92.658592 -0.53746259 115.98504
24600000000 -1.7510688 -67.13652 -27.387669 -94.277519 -27.363623 -93.758377 -0.52817857 115.61414
24700000000 -1.7567532 -70.717766 -27.232342 -95.667953 -27.317938 -95.804993 -0.51474464 115.48932
24800000000 -1.7396158 -74.726486 -27.268553 -98.218956 -27.263508 -98.111115 -0.52952033 115.29354
24900000000 -1.7699399 -78.360764 -27.20776 -100.40555 -27.27647 -100.08167 -0.54554617 115.13355
25000000000 -1.7520584 -82.200638 -27.098047 -102.04248 -27.131767 -101.98919 -0.57041568 114.7523
25100000000 -1.8083799 -86.106949 -27.079016 -103.97338 -27.097166 -104.7815 -0.5650323 114.39714
25200000000 -1.8044746 -89.84198 -26.869055 -105.58 -26.963463 -105.55195 -0.56774205 114.02103
25300000000 -1.8446549 -93.959274 -26.854815 -109.35249 -26.935417 -109.26495 -0.55214334 113.7578
25400000000 -1.8624002 -97.683228 -26.832754 -110.24875 -26.773123 -109.85757 -0.5586437 113.54957
25500000000 -1.8609246 -101.98242 -26.745426 -112.41044 -26.789621 -113.35169 -0.56321275 113.25764
25600000000 -1.9262216 -105.81445 -26.811235 -114.99339 -26.721973 -115.69601 -0.56645745 113.07557
25700000000 -1.8999521 -109.91861 -26.660271 -116.72398 -26.68516 -116.47071 -0.57143271 112.74252
25800000000 -1.9645532 -114.08597 -26.43191 -119.23817 -26.508471 -119.62923 -0.57864225 112.37253
25900000000 -1.9726093 -117.98308 -26.413441 -121.34103 -26.58246 -121.32469 -0.56574649 112.17272
26000000000 -2.024534 -122.50819 -26.322031 -123.98855 -26.438074 -123.57704 -0.57231772 111.82304
26100000000 -2.0693188 -126.30919 -26.368956 -125.57372 -26.484686 -126.14659 -0.56591779 111.64999
26200000000 -2.0663333 -130.94098 -26.432201 -127.76783 -26.346869 -128.44174 -0.56721842 111.32487
26300000000 -2.1745317 -135.06908 -26.284632 -131.0535 -26.200024 -130.36388 -0.57403952 111.20154
26400000000 -2.1367159 -139.47121 -26.276525 -132.26582 -26.291334 -132.87213 -0.5862835 110.64384
26500000000 -2.2442169 -144.08385 -26.165234 -134.3766 -26.191509 -135.42758 -0.5779103 110.59766
26600000000 -2.2345793 -147.90823 -26.181067 -138.20306 -25.975285 -137.85112 -0.58106893 110.14806
26700000000 -2.2769461 -153.08972 -26.356874 -140.17264 -26.323885 -139.39017 -0.58387786 109.97747
26800000000 -2.3442345 -156.89279 -25.969273 -142.13411 -26.178455 -142.5219 -0.57137543 109.65833
26900000000 -2.3435805 -162.14842 -26.136087 -144.17259 -25.97131 -144.20232 -0.59674954 109.48917
27000000000 -2.4675648 -166.20731 -26.049503 -148.14516 -26.619339 -148.75951 -0.56881839 109.04152
27100000000 -2.4199009 -171.07564 -26.170933 -148.55931 -25.649975 -149.3692 -0.59690011 108.91271
27200000000 -2.5521491 -175.84254 -25.596239 -152.58664 -26.260607 -153.17334 -0.58543712 108.37604
27300000000 -2.4897633 179.81493 -25.66448 -155.28485 -26.132261 -153.79944 -0.63209975 108.28481
27400000000 -2.590029 174.5322 -26.253866 -156.27397 -25.808449 -156.16451 -0.59060681 107.72653
27500000000 -2.566824 170.54846 -25.934271 -157.21957 -26.023039 -158.81613 -0.62007904 107.608
27600000000 -2.637104 165.2814 -25.969364 -159.34964 -26.025404 -162.18954 -0.5942502 107.2678
27700000000 -2.6994228 161.19603 -25.894745 -164.87041 -26.168516 -164.42598 -0.61921918 107.17781
27800000000 -2.6645262 155.53709 -25.681822 -166.15033 -26.190767 -166.17696 -0.61167353 106.86957
27900000000 -2.7683785 151.46237 -26.195732 -167.35132 -25.930338 -169.42447 -0.62999153 106.69038
28000000000 -2.7017903 146.46077 -25.754848 -170.81329 -26.04541 -169.60518 -0.60482085 106.24851
28100000000 -2.7843115 141.95276 -25.814564 -173.15944 -25.874813 -172.2683 -0.63401079 105.85139
28200000000 -2.7336075 137.12334 -25.690748 -175.09723 -25.98385 -176.6785 -0.61663765 105.51436
28300000000 -2.7865202 132.04945 -25.937025 -177.00655 -25.868168 -178.72165 -0.61932129 105.26726
28400000000 -2.7968943 127.50301 -26.092628 177.32718 -26.082073 179.69012 -0.60565698 105.04908
28500000000 -2.8118997 122.56369 -25.820951 178.00607 -25.96874 177.43068 -0.63698721 104.65092
28600000000 -2.7791243 117.92005 -25.925793 174.73085 -26.015919 176.46945 -0.62837124 104.47315
28700000000 -2.766784 113.58566 -25.919613 173.14438 -25.953238 174.98462 -0.62802666 104.11767
28800000000 -2.7658193 109.08588 -25.940201 171.72777 -26.084534 171.02751 -0.61083978 103.91431
28900000000 -2.7627807 104.22423 -26.10923 166.18475 -25.846867 168.30554 -0.64160615 103.64122
29000000000 -2.7083466 99.854973 -26.138437 164.6503 -26.116428 167.0101 -0.61932397 103.30883
29100000000 -2.7290311 94.988777 -26.231434 162.68864 -26.198717 162.56863 -0.65383083 103.09718
29200000000 -2.6976678 90.945435 -26.312931 162.12309 -26.542793 160.50345 -0.6280697 102.72408
29300000000 -2.6308115 86.457672 -26.681761 157.80305 -26.516512 157.99509 -0.63475251 102.32668
29400000000 -2.6462929 82.535728 -26.452314 157.47588 -26.132618 155.22108 -0.57702386 102.16834
29500000000 -2.556752 77.923645 -26.508078 155.95996 -26.454725 155.50066 -0.64298159 101.9974
29600000000 -2.6394646 73.980247 -26.579029 151.55707 -26.488005 152.64334 -0.61276621 101.95613
29700000000 -2.467171 69.564468 -26.677103 151.4854 -26.551416 151.34468 -0.64423794 101.54419
29800000000 -2.5506215 65.496025 -26.349936 150.06717 -26.471624 151.35649 -0.6179148 101.35889
29900000000 -2.3911889 61.784286 -26.944273 149.4615 -26.702465 144.29192 -0.68885559 100.69391
30000000000 -2.4478016 57.436749 -26.622362 145.92067 -26.144855 144.94992 -0.59980512 100.54551
30100000000 -2.3779309 54.424633 -26.725718 146.48216 -26.316093 140.94302 -0.64507335 100.00858
30200000000 -2.3548594 49.595474 -26.982594 141.42831 -26.705721 140.23499 -0.58692497 100.14147
30300000000 -2.34726 46.612926 -26.846464 140.61406 -26.41828 140.56975 -0.66499203 99.574287
30400000000 -2.1966434 42.035988 -26.623241 138.81737 -26.598129 136.66916 -0.59883577 99.5028
30500000000 -2.2619894 38.855747 -27.020067 135.35074 -26.524572 136.65091 -0.66723329 99.125046
30600000000 -2.0514019 35.058163 -26.586014 131.38101 -26.750977 132.53264 -0.63232672 99.035194
30700000000 -2.1677029 31.35367 -27.289057 132.42262 -26.744873 131.00739 -0.63935441 98.263969
30800000000 -2.0986633 28.256235 -26.905447 131.37111 -26.845495 128.82457 -0.6315881 98.271255
30900000000 -2.0861385 24.044762 -26.80781 129.48604 -26.677015 131.12779 -0.62328643 97.640457
31000000000 -2.0502656 21.387339 -26.899124 127.68061 -26.773239 127.28933 -0.63569456 97.726814
31100000000 -1.920542 17.309021 -26.852501 126.29796 -26.953112 126.21541 -0.64093852 97.396545
31200000000 -1.9206915 14.778794 -26.986679 126.18344 -26.54961 123.45966 -0.67644185 96.924561
31300000000 -1.8347403 11.003221 -27.188002 120.78003 -27.0112 122.22359 -0.6566149 96.667221
31400000000 -1.9178793 7.9638896 -26.846001 116.83134 -26.395845 116.90759 -0.66530526 96.230988
31500000000 -1.8312057 4.6660023 -26.722782 120.02335 -26.602528 118.23078 -0.61369991 95.807358
31600000000 -1.8376687 1.1523697 -26.690119 115.19831 -26.99967 117.80576 -0.62182999 95.800095
31700000000 -1.7900302 -1.8378521 -26.671606 114.72774 -27.340517 114.61842 -0.65837556 95.628311
31800000000 -1.748232 -4.9932771 -27.047831 114.86093 -26.765947 114.89043 -0.67385548 95.309433
31900000000 -1.6770512 -7.9447336 -26.732349 109.71506 -26.798738 106.46691 -0.67904615 94.985817
32000000000 -1.6738001 -10.937927 -26.617514 108.35735 -26.630817 109.14533 -0.6873036 94.824669
32100000000 -1.7128717 -14.347021 -27.398151 105.69484 -26.639063 107.77089 -0.6885941 94.059387
32200000000 -1.6823487 -17.083529 -26.856321 104.83562 -26.902836 104.38313 -0.66465718 93.94133
32300000000 -1.6558989 -20.564928 -26.58658 103.98571 -27.116856 104.03667 -0.6108973 93.577278
32400000000 -1.6391467 -23.151798 -27.185286 100.93992 -26.753637 102.87528 -0.64311963 93.694702
32500000000 -1.5605627 -26.45652 -26.758266 99.936089 -27.306211 101.02457 -0.66737455 93.266586
32600000000 -1.6221756 -29.213816 -27.451569 94.661362 -26.748264 98.671913 -0.68384159 92.946381
32700000000 -1.5708565 -32.267147 -26.691763 96.062302 -26.78059 98.177185 -0.69319993 92.686646
32800000000 -1.5953469 -35.360218 -27.086269 92.703857 -26.852627 94.910225 -0.71758246 92.284615
32900000000 -1.5488211 -37.991867 -27.025499 94.180588 -26.502396 93.601723 -0.63731992 92.000946
33000000000 -1.5321803 -41.548004 -26.819736 91.726791 -26.957071 89.664459 -0.69525313 91.511192
33100000000 -1.5691051 -43.961193 -26.719902 91.627037 -27.084675 90.338539 -0.67491424 91.263
33200000000 -1.4834441 -47.589081 -27.208967 89.093025 -27.396278 86.73703 -0.68791074 91.033936
33300000000 -1.5755467 -50.003777 -26.651707 87.018906 -26.578943 87.16378 -0.67489278 90.707054
33400000000 -1.5032842 -53.158382 -26.388561 84.728027 -27.050484 84.268044 -0.694583 90.356644
33500000000 -1.590894 -56.415009 -26.789965 80.791229 -26.807148 81.874924 -0.68610501 90.277306
33600000000 -1.5004166 -59.218781 -26.89225 79.681114 -26.518019 81.594681 -0.67641008 89.872482
33700000000 -1.6113144 -62.315403 -26.897318 83.29866 -25.991085 81.037849 -0.67930704 89.677811
33800000000 -1.5250405 -64.704559 -26.973703 79.116463 -26.454676 77.421272 -0.71542406 89.264702
33900000000 -1.5410017 -68.571777 -26.598888 77.095184 -26.470844 77.153603 -0.69014078 89.151024
34000000000 -1.5706713 -71.274681 -26.461157 76.417419 -26.710464 73.101593 -0.69742525 88.59137
34100000000 -1.5843352 -74.460258 -26.575014 75.053299 -26.947638 78.392403 -0.73961002 88.555496
34200000000 -1.6973969 -77.705177 -25.764206 71.732986 -25.955002 71.548836 -0.66252917 88.142349
34300000000 -1.6292894 -80.894806 -26.663198 70.55513 -26.178263 66.916603 -0.66838926 88.007607
34400000000 -1.6821963 -84.454987 -25.914263 70.206589 -25.920399 68.715729 -0.70501947 87.579994
34500000000 -1.6838373 -87.338356 -26.256083 63.614967 -25.937065 66.764343 -0.69936615 87.591843
34600000000 -1.7266024 -91.006592 -25.677109 63.400883 -25.888151 61.655518 -0.69716811 86.946251
34700000000 -1.7960273 -94.068214 -25.453779 59.035286 -25.468992 62.327934 -0.70193827 86.64846
34800000000 -1.7528745 -97.607971 -25.380947 59.528446 -26.120384 60.05991 -0.65740842 86.417488
34900000000 -1.8833708 -101.5536 -25.715723 60.199532 -25.365608 54.526649 -0.65234578 86.421036
35000000000 -1.8546742 -104.38264 -25.710094 56.434929 -25.59923 57.584381 -0.59929782 86.050491
35100000000 -1.9619777 -108.75148 -25.464188 53.363556 -25.118547 50.646336 -0.69354701 85.722893
35200000000 -1.9949898 -112.18475 -25.203194 51.163994 -25.40167 49.213379 -0.66857731 85.45887
35300000000 -1.9947062 -116.11842 -25.392811 47.580742 -25.461845 47.736351 -0.70388877 84.829575
35400000000 -2.1720254 -120.07835 -25.306276 46.342396 -24.901091 47.303913 -0.69339275 84.600044
35500000000 -2.1509664 -123.55707 -25.166771 47.166542 -25.085979 42.638191 -0.67859459 84.158699
35600000000 -2.2888145 -128.40399 -25.120384 43.046337 -25.272047 43.738075 -0.66905987 84.059387
35700000000 -2.3229027 -131.70935 -25.427605 40.719952 -25.417885 40.525543 -0.66834998 83.826202
35800000000 -2.3457243 -136.48157 -24.71574 37.705776 -25.267677 38.432121 -0.71018696 83.579308
35900000000 -2.5286176 -139.74072 -24.915897 34.500439 -24.89529 35.309063 -0.71725571 83.381355
36000000000 -2.3939588 -144.85796 -24.753048 33.659134 -25.138758 39.765179 -0.71004122 82.628059
36100000000 -2.7712376 -149.28888 -24.22463 32.755833 -24.563831 33.456089 -0.71273685 82.435295
36200000000 -2.527483 -153.4035 -24.782211 30.903414 -24.649099 29.979921 -0.73081249 82.005943
36300000000 -2.9035017 -158.85687 -24.4154 26.215258 -24.605795 28.647034 -0.68705797 82.03186
36400000000 -2.7755301 -161.90256 -24.666788 21.724472 -24.741629 28.699539 -0.71649516 81.425842
36500000000 -3.0309672 -168.45349 -24.012383 19.968288 -24.56838 19.136032 -0.69152498 81.310562
36600000000 -3.0239713 -172.31053 -24.765278 19.18362 -24.465626 21.677704 -0.69046122 80.666069
36700000000 -3.0704186 -178.49168 -24.239513 20.101568 -24.249001 21.410595 -0.71670091 80.596375
36800000000 -3.2109282 178.01488 -24.149994 19.111206 -23.675882 15.103021 -0.63003278 80.07251
36900000000 -3.2143245 171.66014 -23.750515 10.710229 -24.526466 12.872198 -0.68186402 80.488945
37000000000 -3.4460838 166.98506 -23.823246 8.9869347 -24.19066 9.5851049 -0.6580804 80.014641
37100000000 -3.4261463 161.39909 -23.875694 3.8809502 -24.373055 6.5048971 -0.71450514 79.83812
37200000000 -3.5794868 155.76758 -23.973028 4.9588299 -24.348911 6.6473665 -0.69963741 79.469292
37300000000 -3.5016556 150.53773 -24.770376 2.167206 -24.566229 -1.0038559 -0.73445129 78.560875
37400000000 -3.5447969 144.37302 -24.540533 -2.8270056 -24.362043 3.6007721 -0.65285808 78.241333
37500000000 -3.6726484 140.01149 -23.69425 -4.9097428 -24.204361 -4.1043601 -0.64473128 78.192871
37600000000 -3.6746414 134.14209 -23.632542 -6.8039756 -23.830294 -6.474719 -0.63233602 78.088799
37700000000 -3.7811813 128.52252 -23.696173 -8.6052485 -23.783268 -7.771853 -0.69406301 77.953873
37800000000 -3.7452202 122.77056 -24.430887 -11.200985 -24.258951 -11.648006 -0.67701238 77.740723
37900000000 -3.6441467 116.97455 -23.985331 -15.228716 -23.75037 -14.536111 -0.7169562 77.416161
38000000000 -3.6448436 111.70001 -23.993578 -16.937742 -24.38456 -18.245724 -0.69957811 76.635353
38100000000 -3.6201117 106.72832 -24.849859 -21.207273 -24.487623 -18.246798 -0.67026645 75.886337
38200000000 -3.6848156 100.8604 -24.089977 -21.542553 -24.723742 -26.291645 -0.65376043 76.114914
38300000000 -3.6215992 96.653656 -24.26462 -22.815207 -24.378281 -24.245325 -0.63080859 76.183586
38400000000 -3.458447 89.774811 -24.54784 -30.099916 -24.54558 -25.141806 -0.65866715 76.076775
38500000000 -3.6055591 85.63736 -24.250826 -32.850983 -24.09761 -30.039675 -0.66579795 75.532753
38600000000 -3.2812142 80.141472 -23.826134 -34.268005 -24.557358 -29.342316 -0.76942289 74.764389
38700000000 -3.5054889 75.818329 -24.678024 -35.780945 -23.866207 -31.835318 -0.70130056 74.608376
38800000000 -3.083102 71.414185 -24.947493 -34.41264 -23.743792 -39.036118 -0.6716156 74.038445
38900000000 -3.3518772 65.637619 -24.731419 -37.837208 -24.924994 -34.615704 -0.71107203 73.822533
39000000000 -3.0224111 62.54855 -24.183914 -41.787159 -24.049129 -39.885036 -0.68287116 73.766769
39100000000 -2.9970071 55.92625 -24.856659 -38.134754 -24.18763 -43.093903 -0.80148488 73.692871
39200000000 -3.04316 53.872131 -24.67963 -42.324844 -24.591572 -44.600697 -0.7208389 72.759727
39300000000 -2.8060446 47.032864 -24.616375 -44.283569 -24.517384 -44.085041 -0.83770776 72.528664
39400000000 -2.96556 45.694427 -25.142237 -51.657299 -25.328995 -49.259995 -0.62511343 72.179672
39500000000 -2.6609046 39.907341 -25.608822 -51.648628 -25.342775 -50.364063 -0.70134103 72.243927
39600000000 -2.8204591 36.435974 -25.006197 -53.067474 -25.235216 -48.802052 -0.63410962 71.973732
39700000000 -2.3896134 32.829983 -24.581696 -53.992958 -24.956875 -54.566143 -0.68626416 72.17469
39800000000 -2.5909078 27.813114 -24.613556 -59.365643 -25.295765 -56.830215 -0.69458908 71.56163
39900000000 -2.4575644 26.397295 -25.479637 -57.048241 -24.778339 -56.190048 -0.7642132 71.085678
40000000000 -2.3922696 20.616413 -24.614283 -60.351772 -25.180061 -62.687756 -0.71118575 70.71489
40100000000 -2.4077916 18.386206 -25.33386 -65.203392 -24.501499 -63.243343 -0.6712597 69.522423
40200000000 -2.2078629 13.612377 -25.411201 -64.765457 -25.677988 -65.056587 -0.61945444 70.020538
40300000000 -2.2539549 10.736603 -25.412823 -64.096771 -24.891514 -70.421967 -0.67050236 69.944061
40400000000 -2.07389 7.67872 -26.097586 -66.522522 -25.577492 -67.782143 -0.67075276 69.991493
40500000000 -2.1968467 5.030993 -24.900314 -73.156471 -24.975037 -72.416039 -0.73697776 69.669945
40600000000 -2.0030372 1.7578537 -25.953947 -79.628288 -25.054869 -72.254807 -0.75042278 69.110588
40700000000 -1.97069 -1.9837687 -25.101927 -76.248718 -25.29932 -78.657227 -0.72282052 68.473106
40800000000 -1.9977337 -4.46804 -26.063232 -82.318672 -25.141499 -74.314156 -0.68742001 68.047676
40900000000 -1.7833966 -7.4590492 -26.508451 -77.506248 -25.080997 -79.942184 -0.60896814 67.93457
41000000000 -1.8449644 -11.142721 -25.899502 -83.630646 -25.40897 -82.200737 -0.64388096 67.647072
41100000000 -1.6490366 -13.420429 -24.915813 -90.680267 -25.321892 -88.347015 -0.64978451 67.907883
41200000000 -1.7660918 -17.094751 -25.67367 -85.203941 -25.478388 -83.154526 -0.6948567 67.378235
41300000000 -1.6275355 -18.530485 -25.437004 -81.088165 -25.765734 -85.179016 -0.67922956 67.011551
41400000000 -1.6358693 -22.985949 -26.578653 -86.83699 -26.025776 -90.258873 -0.67301542 66.272949
41500000000 -1.7759275 -24.400524 -24.956049 -83.50061 -26.39677 -96.030838 -0.68684506 66.26683
41600000000 -1.5217062 -27.753 -26.372215 -86.175507 -25.4562 -90.274681 -0.66264641 65.76799
41700000000 -1.6853939 -30.115944 -25.518797 -89.560272 -25.784058 -90.682312 -0.67609555 65.898026
41800000000 -1.4150465 -32.689041 -25.173595 -97.992661 -25.671041 -93.980202 -0.67039996 65.265015
41900000000 -1.6055553 -36.323997 -25.126072 -97.480499 -27.041351 -92.719452 -0.68853158 64.986298
42000000000 -1.4355589 -37.792946 -25.747549 -93.975807 -25.397442 -98.36158 -0.68462914 64.898247
42100000000 -1.5202637 -41.469711 -25.938265 -97.840576 -25.178246 -93.929741 -0.66411996 64.041641
42200000000 -1.5140814 -42.832932 -26.097504 -107.27861 -25.896139 -96.162979 -0.7051757 63.99823
42300000000 -1.3902782 -46.995087 -26.578516 -103.69195 -25.507145 -100.85658 -0.71747434 63.517059
42400000000 -1.6378322 -47.817154 -25.988438 -102.23361 -26.87114 -102.81264 -0.61443609 63.468269
42500000000 -1.2525687 -50.80286 -25.398472 -105.89751 -25.927368 -102.60407 -0.70341396 63.132
42600000000 -1.5505158 -53.94698 -25.592705 -106.65775 -26.062128 -111.96616 -0.67183894 63.012028
42700000000 -1.4679459 -55.554974 -26.526176 -110.09107 -25.063482 -111.75611 -0.69831413 62.09161
42800000000 -1.5048432 -59.583763 -25.959661 -108.2807 -27.045767 -100.61341 -0.77037913 62.211632
42900000000 -1.4158422 -61.386673 -26.10902 -116.10572 -25.938528 -106.78873 -0.66889226 61.75771
43000000000 -1.2166997 -65.0438 -25.289413 -106.61721 -25.078169 -109.19897 -0.6521737 61.665653
43100000000 -1.369559 -65.730408 -24.822271 -118.90259 -25.806702 -117.85157 -0.61528456 61.336227
43200000000 -1.3896266 -69.252922 -26.009911 -115.7149 -25.846695 -118.48911 -0.70102346 61.77626
43300000000 -1.5949594 -72.497658 -27.488546 -111.6209 -26.828981 -116.22642 -0.65036869 60.797966
43400000000 -1.4381247 -75.102577 -25.57263 -117.6961 -24.958708 -110.56155 -0.7428652 60.690659
43500000000 -1.5590917 -79.717888 -24.126232 -122.86047 -25.584007 -108.56944 -0.73183745 60.504078
43600000000 -1.4366271 -79.467911 -25.07497 -118.86546 -25.378204 -124.71478 -0.76590228 59.197777
43700000000 -1.5753841 -84.529312 -25.236399 -112.65696 -25.16012 -123.66795 -0.59889579 59.298542
43800000000 -1.6901914 -86.040771 -25.521072 -132.55983 -24.714405 -129.81323 -0.69079047 59.016235
43900000000 -1.5359577 -89.395836 -26.171459 -135.33733 -25.577997 -128.2661 -0.66654664 59.705006
44000000000 -1.7835972 -92.204018 -24.973967 -125.02433 -25.476706 -132.42067 -0.69368094 58.338093
44100000000 -1.6127222 -94.892601 -24.656336 -124.71352 -24.877548 -129.64455 -0.77055597 58.613071
44200000000 -1.8545331 -99.557884 -23.644295 -135.11519 -25.360641 -138.90451 -0.71662307 57.645294
44300000000 -1.7782336 -99.987488 -24.154083 -131.43262 -25.125225 -130.98802 -0.60224342 57.566578
44400000000 -1.8611233 -105.28025 -24.307022 -138.52684 -25.306465 -138.0401 -0.72999072 57.695797
44500000000 -2.1716068 -107.21906 -24.538912 -145.6281 -24.969307 -141.51991 -0.66248363 57.035034
44600000000 -1.7562675 -111.85506 -24.572931 -137.55931 -24.618505 -142.47495 -0.71398425 57.032814
44700000000 -2.2248547 -115.20567 -24.167803 -138.5459 -23.770252 -144.40349 -0.76897514 56.682808
44800000000 -1.8793974 -117.62818 -24.655205 -151.32401 -23.455854 -141.54584 -0.67036492 56.075661
44900000000 -2.2887454 -122.34571 -23.805883 -140.06706 -24.817295 -143.71745 -0.75624377 55.641815
45000000000 -2.1680799 -124.46702 -24.539757 -148.91919 -24.213364 -149.78551 -0.67538965 55.46093
