!Keysight Technologies,N5247B,MY61255062,A.19.80.06
!Date: Thursday, May 21, 2026 11:49:51
!Correction: S11(Cdelta 2-Port  ) 
!S21(Cdelta 2-Port  ) 
!S12(Cdelta 2-Port  ) 
!S22(Cdelta 2-Port  ) 
!S2P File: Measurements: S11, S21, S12, S22:
# Hz S  dB   R 50
1000000000 -25.505899 -20.024492 -0.48359343 -21.127691 -0.48479092 -21.134855 -25.6287 -20.297092
1027500000 -25.476795 -20.862232 -0.48618039 -21.700245 -0.48694307 -21.703554 -25.617769 -20.93145
1055000000 -25.493517 -21.677008 -0.49077031 -22.269556 -0.49298343 -22.280407 -25.645058 -22.293833
1082500000 -25.455988 -22.134083 -0.49503317 -22.828409 -0.4955737 -22.82844 -25.692177 -22.686031
1110000000 -25.486004 -23.014601 -0.49957177 -23.395 -0.5011043 -23.394274 -25.754204 -23.532839
1137500000 -25.52774 -23.30064 -0.50525606 -23.929235 -0.50779223 -23.933666 -25.822515 -23.480726
1165000000 -25.407671 -23.515581 -0.50551307 -24.469885 -0.50748152 -24.48591 -25.773727 -23.936728
1192500000 -25.331791 -24.390001 -0.50688744 -25.020914 -0.50871438 -25.032629 -25.756872 -24.246977
1220000000 -25.259201 -25.270983 -0.50533515 -25.590878 -0.50714141 -25.602909 -25.693596 -25.182091
1247500000 -25.296497 -26.27879 -0.50891495 -26.173508 -0.510548 -26.181025 -25.669725 -26.032244
1275000000 -25.306293 -26.89831 -0.51016045 -26.732416 -0.51286238 -26.741165 -25.635929 -26.752802
1302500000 -25.365644 -27.654198 -0.52039629 -27.316517 -0.5202533 -27.323833 -25.739868 -28.280689
1330000000 -25.32972 -27.78838 -0.52164221 -27.833 -0.52260643 -27.839121 -25.721056 -28.116417
1357500000 -25.272863 -28.288734 -0.5213086 -28.386026 -0.52199191 -28.397831 -25.662678 -28.660933
1385000000 -25.207567 -29.143618 -0.52066648 -28.953665 -0.52182025 -28.958082 -25.63039 -29.265455
1412500000 -25.195091 -30.273817 -0.52306396 -29.520618 -0.52447075 -29.532631 -25.630285 -29.782187
1440000000 -25.195789 -30.750195 -0.52479261 -30.067879 -0.52697957 -30.079071 -25.572067 -30.187206
1467500000 -25.152073 -31.536079 -0.52584082 -30.627436 -0.52666366 -30.636732 -25.523806 -30.75676
1495000000 -25.157164 -32.113846 -0.52760535 -31.189913 -0.52913344 -31.200577 -25.472498 -31.534632
1522500000 -25.15402 -32.573952 -0.52863526 -31.730528 -0.52989024 -31.745573 -25.438334 -32.163414
1550000000 -25.075161 -33.095509 -0.52707839 -32.295959 -0.52899867 -32.310001 -25.36297 -32.823551
1577500000 -25.067923 -34.134232 -0.52972037 -32.891182 -0.5319587 -32.903877 -25.360701 -34.20068
1605000000 -25.084787 -34.41777 -0.53196454 -33.429176 -0.53522348 -33.441166 -25.377155 -34.668537
1632500000 -25.126514 -35.023106 -0.53679615 -34.005947 -0.53829908 -34.014545 -25.390949 -35.666698
1660000000 -25.03496 -35.425743 -0.53705215 -34.528412 -0.53913367 -34.543671 -25.376507 -35.659855
1687500000 -24.985489 -36.175945 -0.53510988 -35.095852 -0.53799665 -35.102009 -25.310663 -36.263401
1715000000 -24.962797 -36.874424 -0.53626013 -35.660709 -0.53898156 -35.667492 -25.274416 -37.221664
1742500000 -24.927019 -37.751793 -0.53702694 -36.219959 -0.53901613 -36.23193 -25.250078 -37.890511
1770000000 -24.880133 -38.623131 -0.53835768 -36.792915 -0.53936458 -36.798813 -25.224165 -38.57922
1797500000 -24.889771 -39.217533 -0.54031259 -37.359196 -0.54123932 -37.363537 -25.218182 -39.310333
1825000000 -24.85638 -39.816486 -0.54159087 -37.912548 -0.54248595 -37.925911 -25.213633 -40.085255
1852500000 -24.816383 -40.86285 -0.5409584 -38.475266 -0.54263788 -38.487202 -25.175772 -40.648285
1880000000 -24.809565 -41.5438 -0.54321283 -39.040588 -0.545304 -39.055107 -25.172512 -41.645798
1907500000 -24.792084 -42.188591 -0.54323334 -39.613464 -0.54642093 -39.617916 -25.139771 -42.424557
1935000000 -24.736158 -42.956299 -0.54521453 -40.175915 -0.54676145 -40.184216 -25.125904 -43.031109
1962500000 -24.746412 -43.892448 -0.54546428 -40.745182 -0.5482825 -40.76012 -25.107967 -43.935112
1990000000 -24.79744 -44.60067 -0.55044109 -41.318867 -0.55262309 -41.329197 -25.141609 -45.092953
2017500000 -24.772982 -45.244038 -0.55282652 -41.86235 -0.55503356 -41.878963 -25.153149 -45.576168
2045000000 -24.756044 -46.053421 -0.55339283 -42.423649 -0.55520242 -42.433125 -25.132175 -45.921509
2072500000 -24.739372 -46.661388 -0.5550136 -42.983345 -0.55710518 -42.996731 -25.123751 -46.685951
2100000000 -24.711536 -47.408821 -0.5551998 -43.544338 -0.55762285 -43.550922 -25.094496 -47.329037
2127500000 -24.703493 -48.132565 -0.55595171 -44.097755 -0.5586375 -44.115334 -25.074369 -48.042465
2155000000 -24.705872 -48.908443 -0.55667937 -44.670708 -0.56115502 -44.682587 -25.073925 -48.966694
2182500000 -24.696686 -49.627785 -0.55849737 -45.234806 -0.56208771 -45.23616 -25.054777 -49.451149
2210000000 -24.668333 -50.448284 -0.56100982 -45.79007 -0.56302971 -45.809765 -25.029373 -50.148132
2237500000 -24.695486 -51.151806 -0.56098092 -46.358009 -0.56547225 -46.36697 -25.036716 -51.085518
2265000000 -24.667759 -51.787388 -0.56355667 -46.919662 -0.56736654 -46.92952 -25.022976 -51.8008
2292500000 -24.640799 -52.573177 -0.56496334 -47.484871 -0.56755263 -47.498768 -24.993658 -52.267876
2320000000 -24.671766 -53.473923 -0.56683528 -48.059353 -0.56975156 -48.063419 -24.966896 -53.038879
2347500000 -24.656702 -54.052948 -0.56989586 -48.603779 -0.5721851 -48.614922 -25.025423 -53.891003
2375000000 -24.624388 -54.73177 -0.56973326 -49.168041 -0.57476962 -49.182575 -24.995924 -54.55587
2402500000 -24.667301 -55.408699 -0.57272351 -49.726601 -0.57698512 -49.740726 -24.96895 -55.418522
2430000000 -24.684494 -56.226933 -0.57399487 -50.2873 -0.5769946 -50.304199 -24.959829 -55.847572
2457500000 -24.64924 -56.884647 -0.57439077 -50.853828 -0.57885396 -50.857063 -24.943441 -56.832352
2485000000 -24.642206 -57.667973 -0.57872504 -51.414772 -0.58152324 -51.430912 -24.9184 -57.532475
2512500000 -24.709261 -58.400623 -0.58046979 -51.979542 -0.58409399 -51.984474 -24.925011 -58.423172
2540000000 -24.696981 -59.133545 -0.58224601 -52.531601 -0.58506006 -52.538109 -24.940884 -59.35548
2567500000 -24.655575 -59.871662 -0.58350414 -53.09412 -0.58650094 -53.09832 -24.952311 -59.866016
2595000000 -24.700174 -60.627869 -0.5843395 -53.645027 -0.58896977 -53.659199 -24.937031 -60.465096
2622500000 -24.698912 -61.279182 -0.58612293 -54.201092 -0.58805913 -54.203735 -24.894464 -61.317219
2650000000 -24.680157 -62.174252 -0.58672911 -54.757809 -0.59048253 -54.782497 -24.906584 -62.254162
2677500000 -24.670683 -62.829838 -0.59001637 -55.328346 -0.59441465 -55.337765 -24.890224 -62.686951
2705000000 -24.700871 -63.124855 -0.59060264 -55.879009 -0.59502763 -55.890488 -24.900213 -63.487114
2732500000 -24.684759 -64.103096 -0.59108281 -56.449062 -0.59448737 -56.458149 -24.899117 -64.215965
2760000000 -24.662552 -64.935356 -0.59388721 -57.00666 -0.59694642 -57.022751 -24.926756 -64.905334
2787500000 -24.707411 -65.360878 -0.59552073 -57.563919 -0.59847444 -57.573483 -24.921854 -65.919685
2815000000 -24.721148 -66.095512 -0.59548455 -58.121845 -0.60076964 -58.127129 -24.899363 -66.380226
2842500000 -24.690393 -67.031425 -0.5986985 -58.674938 -0.60259134 -58.689808 -24.911533 -67.038193
2870000000 -24.725159 -67.348991 -0.60121614 -59.234367 -0.60532165 -59.244789 -24.911106 -67.992455
2897500000 -24.768703 -67.984756 -0.60393631 -59.791641 -0.60662162 -59.809452 -24.905771 -68.622383
2925000000 -24.723701 -69.066444 -0.6049009 -60.349026 -0.60719436 -60.362938 -24.94137 -69.240105
2952500000 -24.707077 -69.456032 -0.6057722 -60.903877 -0.61010271 -60.909374 -24.968294 -69.961205
2980000000 -24.738083 -69.989685 -0.60715479 -61.457962 -0.60958946 -61.47464 -24.911299 -70.954597
3007500000 -24.755857 -70.950592 -0.60845089 -62.026665 -0.61233282 -62.017456 -24.974699 -71.202087
3035000000 -24.750099 -71.572403 -0.60990644 -62.565102 -0.61521536 -62.58704 -24.991148 -71.968857
3062500000 -24.783628 -71.876572 -0.61020964 -63.127186 -0.61564547 -63.140789 -24.955805 -73.027435
3090000000 -24.787189 -72.987907 -0.61253339 -63.688538 -0.61717117 -63.703289 -24.956902 -73.359314
3117500000 -24.793653 -73.870934 -0.61402339 -64.247627 -0.61838394 -64.251686 -25.030462 -74.043823
3145000000 -24.770859 -74.098267 -0.61631191 -64.810997 -0.61874634 -64.804489 -25.008959 -75.073982
3172500000 -24.773783 -74.805984 -0.61888486 -65.36367 -0.62013304 -65.37001 -24.965696 -75.68911
3200000000 -24.790894 -75.908173 -0.61819327 -65.907898 -0.623348 -65.924881 -25.071201 -76.163429
3227500000 -24.779026 -76.145958 -0.61876303 -66.461853 -0.62278479 -66.479271 -25.07527 -77.056702
3255000000 -24.787392 -76.952599 -0.62184048 -67.016502 -0.624385 -67.030418 -24.988598 -77.81237
3282500000 -24.790199 -77.775322 -0.62248212 -67.579727 -0.62435395 -67.593513 -25.105957 -78.031425
3310000000 -24.772142 -78.281281 -0.62325209 -68.132729 -0.62554961 -68.140823 -25.104959 -79.114838
3337500000 -24.803663 -79.02137 -0.62498045 -68.688072 -0.62818611 -68.703712 -25.045786 -80.075264
3365000000 -24.830622 -80.062859 -0.62550056 -69.247833 -0.62996697 -69.253044 -25.108358 -80.003937
3392500000 -24.800571 -80.173119 -0.6273303 -69.792206 -0.63065624 -69.794937 -25.20023 -80.561295
3420000000 -24.799757 -81.082466 -0.62721968 -70.349373 -0.63124233 -70.355766 -25.128729 -82.048981
3447500000 -24.897099 -81.862526 -0.62840778 -70.910072 -0.6318363 -70.912804 -25.105997 -82.346138
3475000000 -24.814892 -82.547508 -0.62765151 -71.46492 -0.63202822 -71.471512 -25.230936 -82.377434
3502500000 -24.861914 -83.138527 -0.62763751 -72.009758 -0.63179767 -72.029289 -25.244394 -83.681572
3530000000 -24.92663 -83.642899 -0.6290977 -72.577866 -0.63195604 -72.590973 -25.14814 -84.549629
3557500000 -24.850908 -84.399887 -0.62890142 -73.133774 -0.63348001 -73.142715 -25.195309 -84.259636
3585000000 -24.883434 -85.113754 -0.63020641 -73.699745 -0.6335243 -73.707397 -25.269291 -84.988205
3612500000 -24.972351 -85.56282 -0.63238692 -74.257896 -0.63364112 -74.269547 -25.246929 -86.499825
3640000000 -24.929888 -86.24514 -0.63269866 -74.821243 -0.63433427 -74.82724 -25.209778 -86.364243
3667500000 -24.906937 -87.328262 -0.63246417 -75.382744 -0.63789493 -75.391273 -25.247845 -86.861755
3695000000 -24.995338 -87.57753 -0.63370192 -75.941505 -0.63715893 -75.950172 -25.27383 -88.285881
3722500000 -24.986422 -88.140419 -0.63565952 -76.497986 -0.63851857 -76.507294 -25.248617 -88.69648
3750000000 -24.975574 -89.116135 -0.63693535 -77.05307 -0.64062709 -77.064186 -25.303638 -88.924088
3777500000 -25.017225 -89.40818 -0.63844395 -77.623291 -0.64170575 -77.625687 -25.333302 -90.15596
3805000000 -25.035196 -89.893799 -0.63915074 -78.167755 -0.64160496 -78.182083 -25.336517 -90.801964
3832500000 -25.000023 -90.845955 -0.64035922 -78.737656 -0.64281112 -78.738907 -25.367146 -90.917709
3860000000 -25.024061 -91.431763 -0.64145458 -79.284554 -0.64511061 -79.299088 -25.37155 -92.129448
3887500000 -25.107412 -91.460434 -0.64423859 -79.844574 -0.6473341 -79.86097 -25.436672 -92.851959
3915000000 -25.079466 -92.66053 -0.64522409 -80.407509 -0.64743686 -80.409897 -25.433174 -93.052315
3942500000 -24.998825 -93.270622 -0.64692545 -80.965729 -0.64904767 -80.964859 -25.426687 -93.9767
3970000000 -25.09074 -93.16497 -0.64732659 -81.514099 -0.65059537 -81.522858 -25.506214 -94.68502
3997500000 -25.172947 -94.162552 -0.64742965 -82.068192 -0.65025622 -82.079239 -25.475609 -95.163376
4025000000 -25.094208 -95.282333 -0.64787406 -82.632614 -0.65191352 -82.634453 -25.464785 -95.914345
4052500000 -25.092112 -95.29538 -0.64833236 -83.187271 -0.65245587 -83.184196 -25.553724 -96.544022
4080000000 -25.220852 -95.658577 -0.64978057 -83.740227 -0.65254819 -83.7481 -25.532396 -97.277107
4107500000 -25.190008 -97.058975 -0.65053254 -84.301811 -0.65349531 -84.311668 -25.561104 -97.931755
4135000000 -25.125492 -97.390625 -0.65005594 -84.864365 -0.65405834 -84.868858 -25.603428 -98.193283
4162500000 -25.234951 -97.397308 -0.65234965 -85.41951 -0.65603083 -85.425819 -25.612469 -99.078308
4190000000 -25.297338 -98.49485 -0.65253377 -85.979866 -0.65554851 -85.99321 -25.607983 -99.638222
4217500000 -25.231472 -99.331497 -0.65386546 -86.5317 -0.65742677 -86.548637 -25.682667 -99.816978
4245000000 -25.249523 -99.316986 -0.65496272 -87.104042 -0.65888983 -87.112358 -25.729635 -100.60356
4272500000 -25.355581 -99.876282 -0.6558249 -87.657593 -0.65947855 -87.661011 -25.713514 -101.61434
4300000000 -25.317472 -101.04755 -0.65810567 -88.204781 -0.6614815 -88.216606 -25.767174 -101.66322
4327500000 -25.310747 -101.29388 -0.65910792 -88.779922 -0.66048771 -88.782188 -25.763515 -102.4583
4355000000 -25.381187 -101.69634 -0.65882987 -89.338936 -0.66262805 -89.340309 -25.790098 -103.64382
4382500000 -25.442572 -102.58055 -0.66137868 -89.887238 -0.66457301 -89.896965 -25.838032 -103.69004
4410000000 -25.427511 -103.22259 -0.66209435 -90.447166 -0.66437304 -90.455383 -25.846359 -104.11485
4437500000 -25.480631 -103.45758 -0.6625632 -91.005524 -0.66600859 -91.010033 -25.867151 -104.92052
4465000000 -25.498486 -104.1603 -0.66410094 -91.561867 -0.66756928 -91.574165 -25.916777 -105.52876
4492500000 -25.507954 -105.12423 -0.66543227 -92.126045 -0.66913235 -92.12648 -25.948685 -105.93553
4520000000 -25.567715 -105.50686 -0.66722333 -92.675064 -0.66941983 -92.688126 -25.988365 -106.84934
4547500000 -25.615305 -105.77473 -0.66826606 -93.233307 -0.66973209 -93.239746 -25.989317 -107.11684
4575000000 -25.61235 -106.69322 -0.66839135 -93.79007 -0.67028695 -93.798187 -26.043072 -107.60686
4602500000 -25.639366 -107.33192 -0.6693821 -94.349518 -0.67373514 -94.353653 -26.084562 -108.33858
4630000000 -25.684406 -107.61936 -0.67019969 -94.900368 -0.67296582 -94.914902 -26.10474 -109.12139
4657500000 -25.714949 -108.33527 -0.67269623 -95.460747 -0.6746881 -95.46714 -26.109388 -109.28509
4685000000 -25.751129 -109.19791 -0.67215019 -96.015038 -0.67599332 -96.027557 -26.166681 -110.09514
4712500000 -25.792999 -109.26504 -0.67390263 -96.570183 -0.67682028 -96.581757 -26.158159 -110.70406
4740000000 -25.850666 -109.93152 -0.67532158 -97.136116 -0.67731643 -97.149849 -26.21394 -110.96292
4767500000 -25.880318 -111.02649 -0.67570716 -97.687576 -0.67863154 -97.70015 -26.273607 -111.88381
4795000000 -25.908571 -111.25345 -0.67693889 -98.238762 -0.67965066 -98.25428 -26.271027 -112.49088
4822500000 -25.968029 -111.71538 -0.67683208 -98.801361 -0.68119293 -98.806381 -26.307261 -112.89085
4850000000 -26.010019 -112.59516 -0.67803174 -99.338951 -0.68309021 -99.365486 -26.385714 -113.4795
4877500000 -26.030813 -112.90843 -0.67917871 -99.903702 -0.68290085 -99.919342 -26.34853 -114.05671
4905000000 -26.089031 -113.21915 -0.6792447 -100.45924 -0.68434882 -100.48443 -26.370331 -114.25867
4932500000 -26.130348 -113.97224 -0.68222141 -101.02119 -0.68443096 -101.033 -26.462069 -114.91122
4960000000 -26.165146 -114.83496 -0.68352741 -101.57737 -0.68644488 -101.59184 -26.497908 -115.72895
4987500000 -26.202738 -115.17175 -0.68371677 -102.14296 -0.68700218 -102.1536 -26.484921 -116.06843
5015000000 -26.237803 -115.81349 -0.68691605 -102.69353 -0.6893158 -102.69849 -26.558723 -116.62657
5042500000 -26.309317 -116.48586 -0.68736303 -103.24793 -0.68853915 -103.26498 -26.658915 -117.48544
5070000000 -26.362698 -116.79759 -0.68701851 -103.80863 -0.68958759 -103.82092 -26.577522 -117.83754
5097500000 -26.424557 -117.16817 -0.68813574 -104.3672 -0.69124424 -104.36341 -26.646061 -118.25546
5125000000 -26.452183 -118.00846 -0.6893155 -104.91869 -0.69386137 -104.92228 -26.729313 -118.96564
5152500000 -26.506975 -118.53401 -0.69053948 -105.46976 -0.69207048 -105.47647 -26.72847 -119.3919
5180000000 -26.580294 -118.86221 -0.69199187 -106.0297 -0.69560075 -106.05084 -26.726301 -119.62457
5207500000 -26.599871 -119.79677 -0.69306815 -106.59497 -0.69642568 -106.59246 -26.862564 -120.55284
5235000000 -26.649679 -120.07349 -0.69453895 -107.14556 -0.69868141 -107.17083 -26.882292 -121.33359
5262500000 -26.692909 -120.5812 -0.69433367 -107.70135 -0.69992298 -107.70895 -26.807041 -121.24634
5290000000 -26.744715 -121.28557 -0.69483757 -108.24809 -0.69945008 -108.24831 -26.899654 -122.14007
5317500000 -26.786394 -121.74344 -0.6964339 -108.81094 -0.70158929 -108.8102 -26.958635 -122.7538
5345000000 -26.863718 -122.21362 -0.69674355 -109.35674 -0.70190877 -109.37303 -26.940538 -122.9293
5372500000 -26.946188 -122.86649 -0.69837463 -109.91881 -0.70422274 -109.925 -27.013634 -123.50624
5400000000 -26.976358 -123.49791 -0.69992751 -110.47145 -0.70333296 -110.48632 -27.120031 -124.75726
5427500000 -27.051189 -124.03168 -0.70045036 -111.02836 -0.70525581 -111.03052 -27.066538 -124.80538
5455000000 -27.147812 -124.55854 -0.70086342 -111.5817 -0.70663112 -111.58263 -27.124546 -125.18257
5482500000 -27.123281 -124.90082 -0.70207977 -112.12328 -0.70704812 -112.14451 -27.267593 -126.13116
5510000000 -27.228113 -125.56981 -0.7022112 -112.69107 -0.70673168 -112.69199 -27.239237 -126.72523
5537500000 -27.319284 -126.06109 -0.70254505 -113.24258 -0.70868337 -113.24744 -27.269472 -126.755
5565000000 -27.339493 -126.95528 -0.70532978 -113.80452 -0.71024364 -113.81277 -27.398792 -127.79346
5592500000 -27.380161 -127.40549 -0.70323312 -114.34461 -0.70777899 -114.35081 -27.411896 -128.66792
5620000000 -27.517221 -127.9179 -0.70554507 -114.91639 -0.70969343 -114.9166 -27.382877 -128.6983
5647500000 -27.550303 -128.54889 -0.70753282 -115.45973 -0.71068329 -115.47517 -27.530575 -129.48837
5675000000 -27.583591 -128.68494 -0.70750511 -116.01172 -0.71185446 -116.02296 -27.598001 -130.07298
5702500000 -27.713301 -129.42941 -0.7057007 -116.56495 -0.71145988 -116.58563 -27.596451 -130.46704
5730000000 -27.750067 -129.929 -0.706972 -117.12426 -0.71343297 -117.12856 -27.650549 -130.8203
5757500000 -27.802225 -130.3161 -0.70793504 -117.68539 -0.71282804 -117.68333 -27.765877 -131.80934
5785000000 -27.956991 -130.90448 -0.71033543 -118.23775 -0.71497661 -118.23946 -27.806829 -132.22325
5812500000 -27.980968 -131.4698 -0.70958614 -118.79137 -0.71577263 -118.7892 -27.85984 -132.47108
5840000000 -28.018229 -131.84924 -0.71125251 -119.33453 -0.7143544 -119.35499 -27.922871 -133.52856
5867500000 -28.198555 -132.47162 -0.71115893 -119.89664 -0.71553147 -119.9096 -28.055307 -133.99269
5895000000 -28.279169 -133.22487 -0.71212745 -120.45645 -0.71517104 -120.45937 -28.074522 -134.21292
5922500000 -28.316008 -133.49368 -0.71274322 -121.0019 -0.71654218 -121.0224 -28.177118 -134.85255
5950000000 -28.434767 -133.9539 -0.71155804 -121.56476 -0.71694213 -121.56429 -28.263083 -135.55788
5977500000 -28.57299 -134.60538 -0.71280426 -122.11719 -0.71727008 -122.13123 -28.333639 -135.75034
6005000000 -28.541956 -135.13667 -0.71483165 -122.67394 -0.71581352 -122.68381 -28.368368 -136.47131
6032500000 -28.661535 -135.0704 -0.71474653 -123.23747 -0.71696806 -123.23514 -28.489031 -137.08575
6060000000 -28.874205 -135.81572 -0.71328682 -123.78449 -0.71710426 -123.79749 -28.637476 -136.85582
6087500000 -28.856003 -136.39775 -0.71419054 -124.34989 -0.71899104 -124.35182 -28.657581 -137.71802
6115000000 -28.881126 -136.29826 -0.71432358 -124.90039 -0.71911657 -124.90449 -28.679317 -138.59665
6142500000 -29.184692 -136.87546 -0.71660537 -125.45536 -0.71996433 -125.46793 -28.879229 -138.28069
6170000000 -29.223059 -137.73659 -0.71543258 -126.01248 -0.72077316 -126.01331 -28.907188 -138.89026
6197500000 -29.1598 -137.54475 -0.71594447 -126.56688 -0.72188812 -126.57722 -28.96632 -140.04755
6225000000 -29.403614 -137.55424 -0.71809059 -127.12613 -0.72051406 -127.1378 -29.18713 -139.15817
6252500000 -29.588501 -138.87726 -0.71862262 -127.6739 -0.72186214 -127.68592 -29.228876 -139.98456
6280000000 -29.469776 -138.91852 -0.72053391 -128.24039 -0.72264683 -128.24733 -29.186502 -141.27786
6307500000 -29.649323 -138.34319 -0.71975046 -128.78584 -0.72241974 -128.79555 -29.385204 -140.76926
6335000000 -30.039305 -139.41411 -0.71922016 -129.34822 -0.72216046 -129.35194 -29.518538 -140.51857
6362500000 -29.870598 -139.94621 -0.71888411 -129.9005 -0.72418582 -129.89838 -29.460922 -142.34117
6390000000 -29.885565 -139.44057 -0.71908081 -130.44238 -0.72389835 -130.46773 -29.609894 -141.81262
6417500000 -30.326199 -139.57288 -0.72121292 -131.01027 -0.72335649 -131.02242 -29.792616 -140.96696
6445000000 -30.320148 -141.37703 -0.72131836 -131.56183 -0.72488379 -131.57458 -29.743876 -143.44267
6472500000 -30.199062 -141.0472 -0.72028673 -132.11632 -0.72382867 -132.13853 -29.777468 -143.30025
6500000000 -30.576597 -140.49869 -0.72221857 -132.6752 -0.72619009 -132.69463 -29.991438 -142.19981
6527500000 -30.767756 -141.4449 -0.72084254 -133.2326 -0.72609282 -133.25452 -30.144812 -144.30292
6555000000 -30.592081 -143.05898 -0.72186673 -133.78885 -0.72377849 -133.79425 -30.141468 -145.07576
6582500000 -30.812927 -141.40698 -0.72147274 -134.34868 -0.72468865 -134.36726 -30.207058 -143.06854
6610000000 -31.160328 -141.46036 -0.72010124 -134.90077 -0.72356808 -134.92171 -30.486805 -144.24893
6637500000 -31.120855 -143.24614 -0.72087741 -135.46957 -0.72571957 -135.47643 -30.424402 -145.9895
6665000000 -31.187172 -142.63667 -0.72184318 -136.02972 -0.72637677 -136.03986 -30.405745 -143.88965
6692500000 -31.432863 -141.17545 -0.72133124 -136.58521 -0.72399563 -136.59428 -30.821165 -143.49864
6720000000 -31.583637 -142.94632 -0.72006762 -137.14671 -0.72582972 -137.16063 -30.944601 -146.20831
6747500000 -31.635975 -143.04282 -0.72209203 -137.72121 -0.72420847 -137.72404 -30.662786 -146.04689
6775000000 -31.820009 -141.79524 -0.72177225 -138.27147 -0.72644961 -138.28459 -30.872448 -144.18372
6802500000 -32.053635 -142.83141 -0.72265267 -138.84044 -0.72600532 -138.85759 -31.341671 -145.51186
6830000000 -32.087029 -142.9978 -0.72229284 -139.39728 -0.72751641 -139.40726 -31.244143 -147.632
6857500000 -32.192169 -142.39575 -0.72371489 -139.9617 -0.72842979 -139.98102 -31.111923 -145.5307
6885000000 -32.568432 -142.72205 -0.72383964 -140.51901 -0.72911006 -140.54613 -31.421354 -145.34308
6912500000 -32.567284 -142.6024 -0.726206 -141.08202 -0.73068595 -141.09647 -31.575872 -147.52977
6940000000 -32.582932 -142.76727 -0.72672927 -141.64786 -0.73102164 -141.67134 -31.417086 -146.41118
6967500000 -33.006363 -142.53038 -0.72766334 -142.216 -0.73182487 -142.22411 -31.631805 -145.36612
6995000000 -33.055279 -141.83936 -0.72779435 -142.77983 -0.73179305 -142.79041 -31.974174 -146.62315
7022500000 -33.042606 -142.41498 -0.7312842 -143.34991 -0.73309159 -143.34917 -31.823017 -147.34325
7050000000 -33.439594 -142.10164 -0.73246831 -143.89348 -0.73422813 -143.90764 -31.760801 -145.70778
7077500000 -33.483246 -141.32909 -0.73318356 -144.46098 -0.73627013 -144.47478 -32.109123 -145.16745
7105000000 -33.492813 -141.61417 -0.73385417 -145.00981 -0.7381978 -145.02576 -32.251682 -147.34201
7132500000 -33.793713 -141.96255 -0.73547226 -145.57867 -0.73765355 -145.58453 -32.079407 -146.47089
7160000000 -34.027485 -140.24721 -0.7356329 -146.13127 -0.73948169 -146.14668 -32.357269 -145.4731
7187500000 -33.951672 -140.94629 -0.73711914 -146.69598 -0.74206328 -146.70628 -32.597996 -146.87234
7215000000 -34.220108 -140.59026 -0.73707098 -147.25113 -0.74288487 -147.27094 -32.46719 -146.89539
7242500000 -34.536648 -139.25621 -0.74088359 -147.81453 -0.74433851 -147.82506 -32.579086 -145.78442
7270000000 -34.460377 -138.50902 -0.74103433 -148.36789 -0.7446323 -148.38084 -32.930252 -146.49554
7297500000 -34.652657 -139.44258 -0.74272358 -148.9164 -0.7465083 -148.94884 -32.830132 -146.80074
7325000000 -35.042889 -138.56787 -0.74427128 -149.48807 -0.74711454 -149.50595 -32.814964 -144.9491
7352500000 -34.959991 -136.61751 -0.7447558 -150.05006 -0.74892211 -150.05678 -33.131226 -145.65971
7380000000 -34.993446 -137.96992 -0.74735498 -150.60136 -0.75207996 -150.62051 -33.311314 -147.23917
7407500000 -35.365334 -136.78531 -0.74759698 -151.1512 -0.75178444 -151.16739 -33.043301 -145.89047
7435000000 -35.402161 -136.00595 -0.74973142 -151.71353 -0.75469488 -151.73853 -33.336613 -145.11221
7462500000 -35.318943 -136.74231 -0.75046891 -152.27951 -0.75565904 -152.2905 -33.505741 -146.53618
7490000000 -35.562099 -135.60411 -0.75250196 -152.81909 -0.75798178 -152.84387 -33.240353 -145.95645
7517500000 -35.768105 -133.25838 -0.75504851 -153.37161 -0.7614494 -153.40358 -33.541779 -145.47173
7545000000 -35.764671 -134.94569 -0.75677127 -153.9371 -0.75959468 -153.95049 -33.85408 -146.80878
7572500000 -35.899784 -134.793 -0.75728989 -154.48224 -0.76093674 -154.50618 -33.632267 -146.52484
7600000000 -36.142155 -133.1853 -0.75871724 -155.04608 -0.76264733 -155.05452 -33.770756 -145.12277
7627500000 -36.212616 -133.74246 -0.76078689 -155.58501 -0.76428485 -155.59843 -34.166267 -146.68773
7655000000 -36.316944 -133.90575 -0.76042575 -156.11908 -0.76568305 -156.13783 -34.052063 -147.00848
7682500000 -36.717178 -131.96637 -0.76182944 -156.683 -0.76548326 -156.70714 -34.083103 -146.08438
7710000000 -36.947163 -131.59077 -0.76142073 -157.24988 -0.76667953 -157.24419 -34.561089 -146.47668
7737500000 -37.102654 -131.28918 -0.76190227 -157.80322 -0.76649421 -157.79506 -34.498188 -146.72498
7765000000 -37.220345 -129.70766 -0.76192415 -158.35994 -0.76525384 -158.36121 -34.439323 -144.84825
7792500000 -37.486248 -127.49693 -0.76367652 -158.90637 -0.76506305 -158.92603 -34.965111 -145.17082
7820000000 -37.440372 -127.28779 -0.76475251 -159.47318 -0.76724011 -159.49403 -35.072083 -146.17238
7847500000 -37.762016 -125.6845 -0.76564503 -160.02879 -0.76764077 -160.04124 -34.664295 -144.31267
7875000000 -38.116089 -123.42283 -0.76526374 -160.57942 -0.76946181 -160.59047 -35.11552 -143.35184
7902500000 -38.035656 -123.31406 -0.76631266 -161.13707 -0.77042431 -161.15614 -35.477039 -144.98647
7930000000 -38.021931 -121.65942 -0.76908821 -161.69507 -0.77103728 -161.71069 -35.170666 -142.81593
7957500000 -38.446968 -119.64266 -0.76839948 -162.26236 -0.77349198 -162.25537 -35.468121 -142.43098
7985000000 -38.463085 -119.03565 -0.76804698 -162.79897 -0.77432847 -162.82274 -35.805023 -144.29597
8012500000 -38.481804 -118.02499 -0.77129978 -163.35985 -0.77369988 -163.37404 -35.519665 -141.28578
8040000000 -38.883919 -115.80661 -0.77155113 -163.909 -0.77515805 -163.9301 -35.879253 -140.57024
8067500000 -38.995144 -114.76292 -0.77276486 -164.46538 -0.77629012 -164.47638 -36.181038 -142.81122
8095000000 -38.666523 -113.94389 -0.77205575 -165.0246 -0.77764142 -165.04767 -35.917114 -140.4957
8122500000 -39.055325 -111.53956 -0.77571476 -165.57285 -0.77899528 -165.58611 -36.099205 -137.98787
8150000000 -39.326759 -108.27627 -0.77570266 -166.13016 -0.78007293 -166.14975 -36.523579 -141.23555
8177500000 -38.905338 -107.72569 -0.77539045 -166.70061 -0.7809782 -166.69894 -36.067825 -140.65111
8205000000 -39.032639 -105.73479 -0.77887076 -167.24335 -0.7814604 -167.26918 -36.245388 -133.48979
8232500000 -39.560642 -103.03027 -0.77846754 -167.80919 -0.78234088 -167.82072 -37.278961 -139.8381
8260000000 -38.987083 -101.18908 -0.78021693 -168.37086 -0.78471208 -168.38553 -36.486137 -141.09093
8287500000 -38.966373 -100.79809 -0.78216821 -168.9241 -0.78496945 -168.93866 -36.129993 -130.63376
8315000000 -39.681911 -96.897774 -0.78357464 -169.48236 -0.78698832 -169.48691 -37.911228 -134.36554
8342500000 -38.849586 -95.148689 -0.78849506 -170.04099 -0.7905966 -170.05075 -36.935513 -143.186
8370000000 -38.748524 -95.566429 -0.78894979 -170.5939 -0.79340577 -170.61758 -35.492245 -128.01965
8397500000 -39.653023 -89.461098 -0.79273057 -171.14531 -0.79660606 -171.16792 -38.526974 -121.84579
8425000000 -38.503159 -88.572372 -0.79707104 -171.70837 -0.80140954 -171.7242 -38.22583 -152.60196
8452500000 -38.411736 -91.418091 -0.80307573 -172.24089 -0.80303276 -172.27173 -34.478981 -133.68391
8480000000 -39.168533 -81.238541 -0.81116509 -172.76172 -0.81372911 -172.76379 -35.863796 -103.0836
8507500000 -37.731705 -84.269005 -0.81778777 -173.24658 -0.82284468 -173.27765 -47.262287 -155.83417
8535000000 -38.663387 -89.929199 -0.81698787 -173.74448 -0.82040912 -173.7598 -34.147179 -160.86124
8562500000 -37.567459 -77.150948 -0.80708736 -174.16826 -0.8124302 -174.18446 -31.238426 -116.15388
8590000000 -37.713043 -88.213409 -0.78953248 -174.63008 -0.7962954 -174.64195 -35.440544 -68.96991
8617500000 -39.554302 -80.726974 -0.77220511 -175.24446 -0.7787537 -175.2424 -47.848526 115.1767
8645000000 -36.988461 -80.737946 -0.75812602 -175.90126 -0.76103669 -175.91673 -33.066071 -161.99872
8672500000 -38.148701 -83.46006 -0.75113416 -176.53658 -0.75521326 -176.57217 -32.016106 -115.40199
8700000000 -38.070946 -68.988068 -0.75542396 -177.14755 -0.76345152 -177.15939 -37.434685 -74.127731
8727500000 -37.41663 -77.343994 -0.76742947 -177.76642 -0.77247632 -177.78705 -41.332298 -156.55569
8755000000 -37.775051 -77.000633 -0.77057666 -178.38098 -0.7705946 -178.40019 -34.494251 -136.0497
8782500000 -36.930359 -69.196869 -0.77387834 -178.90244 -0.77727795 -178.92259 -35.463123 -99.13063
8810000000 -36.878059 -72.996002 -0.77936757 -179.46597 -0.78492266 -179.49475 -41.081924 -110.22114
8837500000 -37.185513 -72.108238 -0.78357869 179.94998 -0.78735667 179.92946 -36.807659 -135.94424
8865000000 -36.357384 -68.576271 -0.78464353 179.40919 -0.78724682 179.40465 -35.654675 -109.82233
8892500000 -36.205406 -68.487152 -0.78827655 178.87859 -0.79345423 178.87622 -38.525356 -101.10133
8920000000 -36.449245 -69.351791 -0.78964615 178.30602 -0.79387969 178.29581 -38.167522 -126.68695
8947500000 -35.906143 -67.106262 -0.79038423 177.7644 -0.79399097 177.74342 -36.233208 -115.71906
8975000000 -35.553005 -65.260246 -0.79391015 177.2141 -0.79510152 177.1998 -37.432762 -102.68407
9002500000 -35.82196 -66.344437 -0.79302448 176.65115 -0.79770428 176.63661 -38.474159 -116.2246
9030000000 -35.512856 -66.055084 -0.79476362 176.10477 -0.79827821 176.08371 -36.510693 -116.30931
9057500000 -35.07671 -63.96204 -0.79570931 175.54784 -0.79764205 175.53716 -36.579483 -102.69157
9085000000 -35.2346 -64.597008 -0.79699045 175.00664 -0.80045176 174.96677 -38.07991 -108.80415
9112500000 -35.078358 -64.877724 -0.79418737 174.4408 -0.80112439 174.41757 -36.80257 -114.69073
9140000000 -34.601021 -63.085266 -0.79679298 173.88936 -0.80195284 173.8681 -36.100578 -103.81734
9167500000 -34.525612 -62.793739 -0.80082744 173.33351 -0.80407774 173.31955 -37.424854 -101.54763
9195000000 -34.460316 -63.777416 -0.80136907 172.76863 -0.80327696 172.74524 -37.140053 -112.44187
9222500000 -34.103554 -62.671127 -0.80130094 172.23172 -0.8040086 172.2133 -36.171471 -105.11046
9250000000 -33.947872 -62.16927 -0.8016063 171.66846 -0.80488712 171.66426 -36.546551 -99.558472
9277500000 -33.996632 -62.758339 -0.80254263 171.11743 -0.80576462 171.10239 -37.235405 -106.30833
9305000000 -33.663788 -61.663094 -0.80099332 170.56204 -0.8060993 170.54134 -36.209267 -105.77248
9332500000 -33.385757 -60.875195 -0.80279922 170.00842 -0.80527878 169.98686 -36.234333 -100.85966
9360000000 -33.460106 -61.510109 -0.80366939 169.45633 -0.80649918 169.43732 -36.777901 -102.1026
9387500000 -33.145775 -61.79258 -0.80229098 168.895 -0.80748266 168.88606 -36.307098 -104.7673
9415000000 -32.906113 -60.023941 -0.8052389 168.34387 -0.80803198 168.32535 -35.884819 -99.893181
9442500000 -32.857773 -60.905609 -0.80533332 167.78242 -0.80944157 167.77565 -36.247044 -99.982826
9470000000 -32.747585 -61.254578 -0.80705929 167.2426 -0.81076699 167.20514 -36.123737 -102.0195
9497500000 -32.515995 -59.985073 -0.80809438 166.67715 -0.8104834 166.65829 -35.657322 -99.826355
9525000000 -32.38102 -60.372433 -0.8069998 166.12746 -0.81089616 166.1124 -35.816589 -97.22541
9552500000 -32.36858 -61.123184 -0.80784869 165.57755 -0.8127901 165.56128 -35.917114 -100.82726
9580000000 -32.137878 -60.321457 -0.80848193 165.0251 -0.81273639 164.99838 -35.55608 -99.772415
9607500000 -31.922234 -60.123348 -0.80877787 164.47313 -0.81405503 164.43709 -35.32336 -96.846947
9635000000 -31.934698 -61.423988 -0.81071675 163.90756 -0.81325084 163.89415 -35.736736 -97.84343
9662500000 -31.709898 -60.947098 -0.81149554 163.35353 -0.81440663 163.33568 -35.408615 -99.724258
9690000000 -31.500082 -60.550121 -0.81252199 162.80748 -0.81671977 162.78387 -35.023872 -97.349281
9717500000 -31.334064 -61.194118 -0.81255847 162.2536 -0.81656516 162.22829 -35.257484 -96.529564
9745000000 -31.350542 -61.653511 -0.8137325 161.69145 -0.81726158 161.67378 -35.375103 -97.898811
9772500000 -31.097168 -59.989929 -0.8113308 161.13565 -0.81613904 161.1077 -34.801281 -97.139565
9800000000 -30.947159 -61.122498 -0.81322336 160.57288 -0.81938773 160.56291 -34.768826 -95.579903
9827500000 -30.979607 -62.25296 -0.81293118 160.01282 -0.81732184 159.9971 -35.065048 -96.916763
9855000000 -30.730345 -60.446724 -0.81514424 159.47398 -0.81909043 159.45052 -34.76965 -97.316422
9882500000 -30.596018 -61.471313 -0.81657797 158.90887 -0.8191492 158.8878 -34.369385 -95.344322
9910000000 -30.557291 -62.520863 -0.81725717 158.35002 -0.81927299 158.33946 -34.782772 -95.478294
9937500000 -30.441889 -61.838074 -0.81906295 157.81323 -0.82109708 157.7814 -34.558083 -97.060005
9965000000 -30.19593 -61.406406 -0.81652576 157.24751 -0.8209945 157.22939 -34.051723 -95.229942
9992500000 -30.15641 -62.627079 -0.81790966 156.70665 -0.82075495 156.68179 -34.401951 -94.818161
10020000000 -30.140596 -62.221378 -0.81773871 156.12822 -0.82192904 156.12552 -34.604485 -96.990875
10047500000 -29.888037 -61.994034 -0.81883818 155.57451 -0.82218087 155.56998 -33.775333 -95.882393
10075000000 -29.812073 -63.687347 -0.82033849 155.02077 -0.82218337 155.01106 -33.975658 -94.065483
10102500000 -29.781841 -63.201359 -0.82049543 154.47835 -0.82518333 154.45001 -34.33968 -95.003822
10130000000 -29.635866 -62.242935 -0.82099044 153.93379 -0.82531977 153.90738 -33.779865 -95.670715
10157500000 -29.4632 -63.821083 -0.82084537 153.37791 -0.82419521 153.34889 -33.738857 -93.598991
10185000000 -29.449327 -64.137245 -0.82157058 152.82097 -0.82547474 152.79832 -34.293633 -94.956421
10212500000 -29.32864 -63.538723 -0.82471722 152.26001 -0.82557338 152.22668 -33.69619 -96.055069
10240000000 -29.191849 -64.390709 -0.82238108 151.69295 -0.82556897 151.67941 -33.262791 -94.781746
10267500000 -29.133774 -65.07048 -0.82287627 151.14502 -0.82469034 151.1261 -33.909485 -94.094345
10295000000 -29.04142 -63.872433 -0.82444149 150.59613 -0.82605612 150.56816 -33.635944 -95.832169
10322500000 -28.922405 -64.282372 -0.82533294 150.0285 -0.82743174 150.00781 -33.02903 -95.282524
10350000000 -28.786469 -65.772217 -0.82396519 149.49187 -0.82623023 149.44336 -33.623547 -93.442467
10377500000 -28.736397 -64.801964 -0.82390791 148.91832 -0.82917374 148.90068 -33.587177 -96.73748
10405000000 -28.627844 -65.887886 -0.82795358 148.35655 -0.83054096 148.33244 -32.839504 -95.883125
10432500000 -28.541119 -66.64164 -0.82681638 147.81927 -0.83167976 147.7943 -33.042286 -93.427521
10460000000 -28.491478 -66.112862 -0.82755482 147.25504 -0.82975811 147.22908 -33.331894 -95.239449
10487500000 -28.458939 -66.569504 -0.83086878 146.67902 -0.83387285 146.66808 -32.724937 -96.119637
10515000000 -28.298767 -67.707451 -0.82946265 146.125 -0.83460343 146.13206 -32.601421 -94.629066
10542500000 -28.186291 -67.692215 -0.82890993 145.57692 -0.83337986 145.56442 -33.178383 -94.839752
10570000000 -28.166897 -67.454269 -0.83041275 145.0327 -0.83514464 144.99431 -32.719105 -96.476852
10597500000 -28.045683 -68.456352 -0.83123207 144.45862 -0.83688688 144.42104 -32.265083 -94.658737
10625000000 -27.944216 -68.379532 -0.83124995 143.91743 -0.83340997 143.90779 -32.961224 -94.566689
10652500000 -27.942516 -68.261711 -0.83064908 143.36285 -0.83602631 143.33734 -32.616943 -96.775185
10680000000 -27.82493 -69.066307 -0.83313835 142.81604 -0.83739668 142.7838 -32.164757 -96.167549
10707500000 -27.737396 -69.371292 -0.83439797 142.24655 -0.84040618 142.22354 -32.505688 -94.692551
10735000000 -27.681908 -69.267174 -0.83313239 141.6841 -0.8418954 141.67395 -32.649303 -96.524323
10762500000 -27.637018 -69.583054 -0.83365583 141.13785 -0.83997649 141.093 -31.966166 -97.470459
10790000000 -27.449842 -70.705536 -0.83608061 140.57324 -0.84100181 140.54446 -32.11208 -96.144279
10817500000 -27.381531 -70.454025 -0.83875167 140.03181 -0.84269994 140.00375 -32.529682 -96.260857
10845000000 -27.418514 -70.593094 -0.84003019 139.4782 -0.842462 139.44559 -31.947899 -97.266891
10872500000 -27.267464 -71.091011 -0.83877432 138.92918 -0.84334743 138.89516 -31.817842 -96.397209
10900000000 -27.106653 -71.702209 -0.84104645 138.36792 -0.84252834 138.34491 -32.441074 -96.989342
10927500000 -27.260534 -72.026085 -0.8400594 137.81265 -0.84496939 137.79414 -32.00972 -98.305557
10955000000 -27.116959 -72.757599 -0.84150642 137.26259 -0.84340024 137.23938 -31.545034 -97.753334
10982500000 -26.938416 -72.64257 -0.84356183 136.70831 -0.84712178 136.69418 -31.95178 -96.432579
11010000000 -27.02293 -73.285133 -0.8466832 136.13847 -0.84870613 136.12683 -31.956938 -98.860214
11037500000 -26.962507 -73.345131 -0.84359699 135.59157 -0.85031813 135.56001 -31.342785 -98.798103
11065000000 -26.733572 -73.571335 -0.84606922 135.03152 -0.84894627 135.00244 -31.462275 -97.129829
11092500000 -26.835569 -74.591385 -0.8480078 134.48793 -0.85193866 134.46503 -31.81172 -98.718605
11120000000 -26.862621 -74.282097 -0.84981567 133.94478 -0.85282254 133.91576 -31.204155 -100.06586
11147500000 -26.596205 -74.905853 -0.84767365 133.38029 -0.8527472 133.36369 -31.23996 -99.211678
11175000000 -26.548206 -75.659882 -0.84896451 132.82309 -0.85057002 132.80507 -31.537367 -98.719612
11202500000 -26.673584 -75.828514 -0.84931928 132.26353 -0.85273492 132.2437 -31.167591 -100.72797
11230000000 -26.457298 -75.440994 -0.85275447 131.70314 -0.85188985 131.6875 -30.95385 -99.996773
11257500000 -26.400511 -76.584305 -0.85139 131.15791 -0.85553193 131.14337 -31.472256 -99.430855
11285000000 -26.525127 -77.081833 -0.85112327 130.60344 -0.85389596 130.59305 -31.190964 -101.33402
11312500000 -26.307501 -77.04644 -0.85070795 130.04521 -0.85695636 130.02565 -30.740082 -101.47071
11340000000 -26.173847 -77.343353 -0.85211945 129.50191 -0.85692734 129.48045 -31.137424 -99.940689
11367500000 -26.303459 -78.17308 -0.8545599 128.93576 -0.85987914 128.93066 -31.234051 -101.22193
11395000000 -26.184376 -77.97522 -0.85452712 128.40918 -0.86030012 128.38412 -30.805595 -102.38085
11422500000 -25.972448 -78.33741 -0.85425454 127.84975 -0.85905313 127.82493 -30.979671 -101.46484
11450000000 -26.056475 -79.331009 -0.85655969 127.29717 -0.86114937 127.27916 -31.224926 -102.60021
11477500000 -26.0532 -79.529381 -0.85725659 126.75054 -0.86080378 126.71603 -30.729113 -104.42587
11505000000 -25.875853 -79.724274 -0.85799235 126.19419 -0.8617447 126.17769 -30.615576 -103.81833
11532500000 -25.92791 -80.741051 -0.8578971 125.64374 -0.86222965 125.61825 -30.896442 -103.26106
11560000000 -25.959314 -81.085648 -0.86025816 125.0784 -0.86354536 125.0657 -30.571104 -104.76954
11587500000 -25.796597 -80.628349 -0.86017418 124.53555 -0.86478221 124.51406 -30.477474 -104.75661
11615000000 -25.736179 -81.740372 -0.86180818 123.97139 -0.86644512 123.94952 -30.775278 -104.22132
11642500000 -25.799778 -82.117996 -0.8603667 123.41849 -0.86460316 123.40738 -30.645552 -105.8487
11670000000 -25.682436 -82.029274 -0.86278433 122.86778 -0.86665273 122.86234 -30.399336 -106.57285
11697500000 -25.604679 -82.598488 -0.86146379 122.32388 -0.86769766 122.30605 -30.622141 -105.85617
11725000000 -25.672628 -83.693153 -0.86309505 121.77811 -0.86745298 121.74465 -30.574781 -106.65863
11752500000 -25.633583 -83.150383 -0.86398059 121.22137 -0.86820632 121.21255 -30.318163 -107.22473
11780000000 -25.491909 -83.849991 -0.86497998 120.67244 -0.87036705 120.6347 -30.559237 -107.54674
11807500000 -25.542917 -84.891121 -0.86594045 120.11068 -0.86856323 120.09258 -30.475121 -108.08658
11835000000 -25.511234 -84.790512 -0.86685121 119.56186 -0.87091744 119.54216 -30.228178 -108.72708
11862500000 -25.390932 -85.097275 -0.86585832 119.00059 -0.86770177 118.98691 -30.302269 -108.9053
11890000000 -25.370087 -85.759262 -0.86499453 118.47404 -0.87012827 118.43981 -30.452024 -108.69118
11917500000 -25.408989 -86.409752 -0.86762494 117.9207 -0.87010515 117.88551 -30.185528 -110.51009
11945000000 -25.348572 -86.408066 -0.86671972 117.3504 -0.87123317 117.33501 -30.225903 -110.19382
11972500000 -25.239916 -87.201691 -0.86837608 116.81144 -0.87317485 116.77375 -30.455645 -110.20119
12000000000 -25.238472 -87.741623 -0.86716127 116.24911 -0.87315297 116.22664 -30.221909 -111.70044
12027500000 -25.217215 -87.580139 -0.86765534 115.70284 -0.87278807 115.67312 -30.219656 -112.08034
12055000000 -25.125237 -88.18499 -0.86831379 115.15813 -0.87196374 115.12849 -30.583841 -111.91757
12082500000 -25.079357 -88.836151 -0.86806595 114.61256 -0.87308937 114.5743 -30.351011 -113.18225
12110000000 -25.145441 -88.867233 -0.86968768 114.0452 -0.87330776 114.03369 -30.266443 -114.10619
12137500000 -25.033566 -89.425285 -0.86856455 113.50781 -0.87293303 113.47674 -30.430107 -114.28247
12165000000 -24.9746 -90.238762 -0.86859393 112.9446 -0.87314826 112.92247 -30.349146 -114.87426
12192500000 -25.056604 -90.369164 -0.87076753 112.40623 -0.87312359 112.38306 -30.050816 -114.97462
12220000000 -24.999115 -90.832054 -0.87237793 111.85256 -0.87218142 111.81786 -30.344343 -115.68823
12247500000 -24.896955 -91.705017 -0.87007415 111.29475 -0.87281311 111.27961 -30.375389 -116.24122
12275000000 -24.981947 -91.699196 -0.86957669 110.73889 -0.87364584 110.7135 -30.012867 -116.19361
12302500000 -25.005373 -92.299858 -0.86752826 110.19238 -0.8724792 110.17516 -30.217028 -116.82175
12330000000 -24.861259 -92.67363 -0.86919785 109.63548 -0.87382495 109.6059 -30.453173 -117.12376
12357500000 -24.900579 -93.427124 -0.86916053 109.07353 -0.87303495 109.05775 -29.935583 -117.16442
12385000000 -24.955393 -93.541527 -0.86845511 108.52019 -0.87195486 108.50462 -30.138195 -117.5788
12412500000 -24.838242 -93.809746 -0.86913306 107.96871 -0.87302953 107.95219 -30.644819 -118.31261
12440000000 -24.847708 -94.529907 -0.86685246 107.42748 -0.87186629 107.40227 -30.240362 -119.59388
12467500000 -24.890053 -95.065964 -0.87062424 106.86508 -0.87308401 106.85374 -30.118629 -119.65855
12495000000 -24.798168 -95.088371 -0.86949795 106.31448 -0.87391931 106.29007 -30.61907 -119.92423
12522500000 -24.732325 -95.790337 -0.86748809 105.75883 -0.87324572 105.7329 -30.425928 -121.39506
12550000000 -24.794157 -96.424255 -0.8682996 105.20234 -0.87323052 105.18208 -30.174141 -121.3109
12577500000 -24.76132 -96.579811 -0.86845386 104.64578 -0.87441701 104.63133 -30.696024 -121.46358
12605000000 -24.608406 -96.890144 -0.86843866 104.08818 -0.87367243 104.08528 -30.692867 -123.07829
12632500000 -24.749163 -97.214905 -0.86816394 103.54507 -0.87274849 103.51693 -30.248991 -123.05839
12660000000 -24.7222 -97.64724 -0.86815637 102.98469 -0.87338877 102.96824 -30.549557 -123.26503
12687500000 -24.610193 -97.9422 -0.86818606 102.43254 -0.87144041 102.40945 -30.911964 -125.02458
12715000000 -24.67741 -98.744942 -0.86790222 101.86835 -0.87296438 101.85807 -30.425022 -124.74203
12742500000 -24.739969 -99.261497 -0.86764991 101.31996 -0.87198555 101.30714 -30.525507 -124.87751
12770000000 -24.697159 -99.230789 -0.8704322 100.77596 -0.87348247 100.75542 -30.97555 -125.95065
12797500000 -24.619211 -99.820557 -0.86739862 100.23176 -0.87347871 100.18812 -30.731514 -125.84978
12825000000 -24.754139 -100.36581 -0.86822402 99.656181 -0.8722381 99.638672 -30.602833 -126.05807
12852500000 -24.669506 -100.41311 -0.8684991 99.098503 -0.87420422 99.089508 -31.034075 -126.76013
12880000000 -24.679379 -101.08987 -0.86912102 98.545761 -0.87361956 98.534821 -30.900076 -126.47502
12907500000 -24.779062 -101.94949 -0.8677277 98.00824 -0.87174982 97.964569 -30.724823 -126.89643
12935000000 -24.76182 -101.79278 -0.86773431 97.439285 -0.87347615 97.414444 -31.067986 -128.43492
12962500000 -24.722305 -101.99247 -0.86696595 96.891235 -0.86994892 96.854927 -31.173012 -127.9216
12990000000 -24.774437 -103.07864 -0.86995935 96.334328 -0.87218744 96.301796 -30.893232 -128.02875
13017500000 -24.796244 -103.03997 -0.86748433 95.779449 -0.87028736 95.751694 -31.228279 -129.24788
13045000000 -24.710436 -102.89297 -0.86731744 95.204659 -0.87113637 95.200935 -31.440878 -129.67868
13072500000 -24.743271 -103.94632 -0.86702281 94.639664 -0.87031901 94.61544 -31.133402 -128.92503
13100000000 -24.816832 -104.12758 -0.86850476 94.094345 -0.87084848 94.079597 -31.274658 -130.44958
13127500000 -24.793013 -103.74698 -0.86773086 93.539146 -0.87331855 93.513901 -31.643961 -130.75941
13155000000 -24.750618 -104.94391 -0.86610699 92.976891 -0.87131673 92.96051 -31.486897 -130.08485
13182500000 -24.862309 -105.14124 -0.86547065 92.430283 -0.87032533 92.40638 -31.497992 -131.46185
13210000000 -24.825111 -104.94801 -0.86666256 91.860001 -0.87194002 91.852547 -31.870739 -132.69621
13237500000 -24.753784 -105.30578 -0.86522138 91.311714 -0.87015009 91.29599 -31.866531 -130.60222
13265000000 -24.819189 -106.30761 -0.86525738 90.75045 -0.87181884 90.730957 -31.619959 -131.64728
13292500000 -24.894524 -105.88723 -0.86532593 90.182419 -0.87152898 90.180359 -31.941416 -133.48828
13320000000 -24.840313 -106.28194 -0.86655414 89.637756 -0.86997205 89.616478 -32.068077 -132.00989
13347500000 -24.868641 -107.23626 -0.86531234 89.086052 -0.8711946 89.057144 -31.893463 -132.41115
13375000000 -24.961363 -106.8346 -0.86677665 88.525055 -0.87107408 88.504242 -32.055618 -134.34912
13402500000 -24.924109 -107.06622 -0.86607921 87.959572 -0.87109399 87.937752 -32.338394 -132.25763
13430000000 -24.904377 -107.87381 -0.86726528 87.403717 -0.86879879 87.378197 -32.215858 -132.43062
13457500000 -25.027111 -107.73816 -0.86686546 86.847351 -0.87105125 86.82251 -32.196648 -133.89978
13485000000 -24.98204 -107.50105 -0.8655594 86.290794 -0.87157458 86.262306 -32.438026 -133.65945
13512500000 -24.962008 -108.07803 -0.8672232 85.731453 -0.87101614 85.680443 -32.467789 -132.58453
13540000000 -25.086082 -108.74557 -0.86827838 85.1632 -0.86995399 85.132729 -32.380795 -134.99794
13567500000 -25.1026 -108.4071 -0.86830872 84.606575 -0.8711465 84.589851 -32.571037 -134.00896
13595000000 -25.029327 -108.46458 -0.86674756 84.03756 -0.87094623 84.003021 -32.799503 -131.97458
13622500000 -25.100119 -109.6814 -0.86668438 83.495659 -0.87172294 83.468544 -32.695229 -134.01306
13650000000 -25.131115 -109.19161 -0.86900371 82.929375 -0.87567091 82.906776 -32.853344 -135.03242
13677500000 -25.061205 -109.19925 -0.86809063 82.361168 -0.87283808 82.334511 -33.070343 -132.87135
13705000000 -25.115181 -110.10324 -0.87123793 81.809891 -0.87431216 81.777885 -33.087368 -133.84343
13732500000 -25.191452 -110.06852 -0.869084 81.247353 -0.87476683 81.218391 -32.998604 -135.37914
13760000000 -25.141563 -109.89112 -0.87054485 80.694489 -0.87493688 80.670601 -33.326286 -133.53943
13787500000 -25.099213 -110.73362 -0.87353534 80.142311 -0.87559581 80.113304 -33.310078 -133.43092
13815000000 -25.210245 -111.19646 -0.87281215 79.574966 -0.87688208 79.562904 -33.324715 -135.41631
13842500000 -25.21637 -110.7884 -0.87218398 79.023575 -0.87671071 78.991081 -33.491814 -135.31253
13870000000 -25.115696 -111.34634 -0.8725751 78.452744 -0.87523419 78.426941 -33.521667 -133.02936
13897500000 -25.290543 -112.19947 -0.87250358 77.917938 -0.87717414 77.882195 -33.511898 -135.52699
13925000000 -25.308149 -111.83226 -0.87462687 77.334648 -0.87853593 77.327332 -33.542355 -135.92035
13952500000 -25.258966 -111.75343 -0.87343341 76.799866 -0.8791644 76.768829 -33.827812 -133.42914
13980000000 -25.266335 -112.95391 -0.87529278 76.252213 -0.88114762 76.212128 -33.5942 -136.26344
14007500000 -25.377115 -112.98676 -0.87576872 75.694572 -0.88017398 75.648354 -33.801064 -135.67079
14035000000 -25.276205 -112.73657 -0.87702399 75.124893 -0.88265216 75.089737 -34.213223 -134.06087
14062500000 -25.319874 -113.81742 -0.87699705 74.562958 -0.88031316 74.553978 -33.970722 -135.74992
14090000000 -25.378202 -113.82748 -0.87756538 74.01329 -0.8821339 73.984436 -34.014069 -136.04625
14117500000 -25.399267 -113.52927 -0.87629354 73.448135 -0.88130939 73.423683 -34.364029 -134.91219
14145000000 -25.359777 -114.10339 -0.87758726 72.904938 -0.88283396 72.87014 -34.341446 -135.06859
14172500000 -25.504063 -115.06351 -0.87837559 72.346275 -0.88485599 72.320618 -34.241676 -136.60669
14200000000 -25.550655 -114.50048 -0.87815315 71.795128 -0.88191032 71.766823 -34.592144 -135.02663
14227500000 -25.496916 -114.59405 -0.88009346 71.231979 -0.88394177 71.195251 -34.767879 -135.20482
14255000000 -25.569984 -116.14981 -0.88057345 70.685875 -0.88382155 70.648003 -34.702961 -137.15323
14282500000 -25.683388 -115.7653 -0.88129824 70.116791 -0.88346457 70.085846 -35.009186 -136.04662
14310000000 -25.663357 -115.47503 -0.87921292 69.540451 -0.88236958 69.52536 -35.165184 -136.64577
14337500000 -25.656525 -116.53374 -0.88111752 68.994041 -0.88509589 68.974396 -34.874699 -137.38528
14365000000 -25.862946 -116.89275 -0.88003927 68.444008 -0.88614148 68.413567 -35.201744 -135.96664
14392500000 -25.79888 -116.22276 -0.88093042 67.871864 -0.88574946 67.839409 -35.618717 -135.48613
14420000000 -25.78437 -116.76958 -0.88236797 67.320053 -0.88644022 67.2855 -35.450367 -136.55164
14447500000 -25.901663 -117.18952 -0.88450122 66.736557 -0.88778621 66.726349 -35.771435 -135.79265
14475000000 -25.870966 -116.70724 -0.88402426 66.196251 -0.88711333 66.160103 -36.056786 -135.69971
14502500000 -25.868258 -116.97675 -0.88358706 65.63073 -0.88777697 65.606758 -35.860748 -136.59854
14530000000 -25.950552 -118.04391 -0.8847779 65.078827 -0.8892473 65.062935 -36.05035 -135.80719
14557500000 -26.027561 -117.53794 -0.88655961 64.518806 -0.89023411 64.479523 -36.483288 -134.86784
14585000000 -25.957787 -117.37685 -0.88731462 63.961716 -0.88888991 63.917908 -36.294796 -134.74576
14612500000 -26.020435 -118.18806 -0.88819176 63.397511 -0.89205742 63.353695 -36.425159 -135.2601
14640000000 -26.145454 -117.95591 -0.89033258 62.826416 -0.89309448 62.800217 -36.913197 -133.46259
14667500000 -26.100065 -117.8346 -0.88978195 62.259502 -0.89536816 62.233543 -36.701565 -133.60956
14695000000 -26.06039 -118.44615 -0.89194202 61.705997 -0.89683849 61.669388 -36.715591 -133.77794
14722500000 -26.280411 -119.0162 -0.89527178 61.14658 -0.90100431 61.127884 -37.379795 -132.57703
14750000000 -26.260258 -118.11818 -0.89380139 60.604858 -0.89935774 60.540436 -37.097385 -133.20232
14777500000 -26.219896 -117.89766 -0.89791965 60.027145 -0.90296441 60.004112 -36.923645 -131.58984
14805000000 -26.357988 -119.13055 -0.9021461 59.468914 -0.90558028 59.443302 -37.825466 -130.70949
14832500000 -26.369995 -117.86728 -0.90305811 58.930191 -0.90738583 58.89957 -37.497635 -130.47424
14860000000 -26.255106 -117.58728 -0.9041456 58.376221 -0.90857941 58.336723 -37.315388 -130.39229
14887500000 -26.298769 -118.9671 -0.9051438 57.830864 -0.90924126 57.798599 -38.191429 -128.88943
14915000000 -26.343401 -118.8717 -0.90513772 57.271687 -0.91017646 57.241173 -38.287197 -127.859
14942500000 -26.234776 -118.15615 -0.90767837 56.722015 -0.91007239 56.686752 -37.564388 -128.77338
14970000000 -26.241016 -119.30947 -0.90785831 56.149174 -0.91150463 56.142265 -38.085163 -125.52488
14997500000 -26.359911 -119.93953 -0.90969515 55.60524 -0.91254151 55.571686 -38.514477 -125.59622
15025000000 -26.296803 -118.59458 -0.91047013 55.046082 -0.915223 55.017349 -37.702347 -126.74834
15052500000 -26.315434 -119.10607 -0.91131622 54.473354 -0.91782773 54.468746 -37.890701 -125.34109
15080000000 -26.34239 -120.21082 -0.91656321 53.935806 -0.92110157 53.901711 -38.805576 -123.99467
15107500000 -26.265341 -119.07693 -0.91784662 53.379677 -0.92287678 53.363781 -37.862034 -124.95071
15135000000 -26.239676 -119.38521 -0.91921806 52.838562 -0.92717755 52.810188 -37.787098 -124.94895
15162500000 -26.217726 -121.21245 -0.9205038 52.29332 -0.92538363 52.258854 -39.21489 -123.70789
15190000000 -26.199291 -120.61813 -0.92477566 51.752018 -0.92794317 51.724319 -38.595844 -123.85372
15217500000 -26.196671 -120.48283 -0.92679906 51.210369 -0.93040425 51.172989 -38.12492 -124.55069
15245000000 -26.242453 -122.13206 -0.92562002 50.662346 -0.93169683 50.637451 -39.503654 -122.51965
15272500000 -26.309708 -122.20771 -0.92584234 50.124821 -0.9319458 50.088642 -39.372108 -123.38726
15300000000 -26.371813 -121.44704 -0.92607176 49.561554 -0.93021888 49.527042 -38.28019 -122.80593
15327500000 -26.337431 -123.39827 -0.92523658 49.014362 -0.93033624 48.991108 -39.546345 -120.9189
15355000000 -26.389772 -124.18403 -0.92491978 48.485207 -0.93177575 48.45034 -40.291054 -121.49679
15382500000 -26.501251 -122.80379 -0.92587215 47.937424 -0.93149859 47.901104 -38.814404 -122.62801
15410000000 -26.520206 -123.89359 -0.92607176 47.388977 -0.93162405 47.343506 -39.68996 -119.72433
15437500000 -26.542315 -125.34595 -0.92680293 46.843536 -0.93087566 46.809017 -41.087872 -118.57255
15465000000 -26.629789 -124.10654 -0.92739034 46.282074 -0.93120992 46.240471 -39.6078 -119.09652
15492500000 -26.714052 -124.44311 -0.92761368 45.741676 -0.92965448 45.695862 -39.961113 -116.96306
15520000000 -26.65514 -126.52378 -0.92768931 45.186028 -0.93155569 45.14188 -41.634968 -113.24117
15547500000 -26.764471 -125.22314 -0.92592597 44.624306 -0.92954928 44.587776 -40.504601 -114.49264
15575000000 -26.871994 -125.10534 -0.92457068 44.074142 -0.931557 44.039078 -40.020588 -114.13505
15602500000 -26.854694 -126.94247 -0.92794514 43.51746 -0.93318462 43.498478 -41.857903 -108.37955
15630000000 -26.969633 -126.55296 -0.92586285 42.957996 -0.93202537 42.941349 -41.623127 -107.385
15657500000 -27.140686 -124.98042 -0.92478174 42.418957 -0.92996585 42.392288 -40.307476 -111.18667
15685000000 -27.072332 -126.9342 -0.92604548 41.857731 -0.9323526 41.825531 -41.811646 -105.05254
15712500000 -27.145466 -127.2576 -0.92372972 41.307182 -0.93241549 41.261963 -42.245998 -101.3165
15740000000 -27.313635 -125.58853 -0.92715287 40.743317 -0.93292505 40.712925 -40.68425 -102.6258
15767500000 -27.242559 -126.41692 -0.92369127 40.203876 -0.93181556 40.169949 -41.1875 -99.292992
15795000000 -27.256138 -127.13807 -0.9259724 39.64661 -0.93392795 39.610558 -42.347095 -91.092888
15822500000 -27.57955 -126.16424 -0.92687535 39.067783 -0.93197662 39.055168 -40.950436 -95.855598
15850000000 -27.544519 -126.31953 -0.92795086 38.526161 -0.9316994 38.49741 -40.784855 -93.56649
15877500000 -27.374603 -127.47592 -0.92788935 37.959145 -0.93312979 37.946934 -41.9245 -87.141716
15905000000 -27.664293 -126.57673 -0.9287138 37.406742 -0.93236804 37.382645 -41.382076 -88.273834
15932500000 -27.772705 -126.06689 -0.93140298 36.86623 -0.93334866 36.833221 -40.576218 -89.521866
15960000000 -27.557476 -127.39527 -0.93224996 36.292412 -0.93232954 36.269318 -41.574986 -83.612885
15987500000 -27.737833 -126.95349 -0.93089718 35.763638 -0.93395233 35.724449 -41.226284 -79.972305
16015000000 -27.961802 -126.34584 -0.93011558 35.194691 -0.93417031 35.15987 -40.373516 -84.859604
16042500000 -27.781908 -127.20625 -0.93001813 34.64603 -0.9343186 34.607662 -40.886147 -79.110306
16070000000 -27.890728 -127.37807 -0.93091387 34.086666 -0.93525279 34.064255 -40.6329 -73.989082
16097500000 -28.099436 -126.42303 -0.93033463 33.539772 -0.93421972 33.502026 -40.07592 -78.227814
16125000000 -28.033442 -126.83671 -0.92897189 32.978481 -0.93587375 32.94109 -40.571327 -76.024704
16152500000 -27.983738 -127.59454 -0.93174815 32.437012 -0.93431985 32.399021 -40.285641 -70.085251
16180000000 -28.316175 -126.79118 -0.93307137 31.866924 -0.93560338 31.830431 -39.590775 -70.452194
16207500000 -28.230209 -126.00964 -0.93298727 31.309366 -0.93588978 31.267473 -39.841389 -72.168465
16235000000 -28.218081 -127.46443 -0.93350589 30.766508 -0.938739 30.71813 -39.674217 -66.713158
16262500000 -28.489424 -127.02056 -0.93480873 30.180626 -0.93814522 30.169697 -39.239807 -65.373734
16290000000 -28.515383 -125.8552 -0.9345876 29.650549 -0.93746608 29.600685 -39.072449 -67.894775
16317500000 -28.351824 -126.49216 -0.93428838 29.090889 -0.93763953 29.060078 -39.169048 -66.244614
16345000000 -28.567852 -127.01633 -0.93358999 28.534809 -0.94063419 28.505646 -38.575027 -61.259365
16372500000 -28.736053 -125.60382 -0.93366188 27.998365 -0.94167298 27.956917 -38.575798 -63.335777
16400000000 -28.576647 -126.26463 -0.93663645 27.428204 -0.94284803 27.394514 -38.347775 -63.655575
16427500000 -28.696415 -126.82152 -0.93526238 26.893082 -0.93903589 26.836622 -37.985531 -60.591354
16455000000 -28.791059 -125.32956 -0.93915802 26.314663 -0.9400897 26.274361 -37.902245 -60.614216
16482500000 -28.860762 -125.77605 -0.9388476 25.756109 -0.94132382 25.721817 -37.788795 -61.385746
16510000000 -28.82749 -126.58458 -0.93763185 25.199533 -0.9444204 25.18495 -37.339546 -58.907642
16537500000 -29.054874 -125.88524 -0.94139004 24.64756 -0.94573009 24.608747 -37.140022 -59.334393
16565000000 -29.112827 -124.64344 -0.94224793 24.098804 -0.9435367 24.066408 -37.190029 -60.379745
16592500000 -28.970348 -125.98895 -0.93982649 23.537729 -0.94599855 23.527708 -36.905468 -58.596119
16620000000 -29.061228 -125.96346 -0.94180804 22.985781 -0.94826275 22.949963 -36.538338 -57.564693
16647500000 -29.312225 -124.08704 -0.94073647 22.447638 -0.94691783 22.41497 -36.886223 -58.431477
16675000000 -29.151772 -125.27772 -0.94274867 21.895926 -0.94889492 21.874113 -36.294601 -58.823196
16702500000 -29.155308 -125.99071 -0.94486833 21.350691 -0.94865566 21.307417 -35.912365 -56.751091
16730000000 -29.510466 -123.90727 -0.94390565 20.797966 -0.94839382 20.755556 -36.299347 -57.188972
16757500000 -29.374031 -124.73588 -0.94399959 20.245607 -0.94757497 20.187998 -35.859524 -57.782433
16785000000 -29.21826 -125.40217 -0.94318992 19.679193 -0.95004582 19.648108 -35.529938 -57.160305
16812500000 -29.620035 -124.39489 -0.94681674 19.136272 -0.95063931 19.101505 -35.836437 -57.406696
16840000000 -29.59263 -123.21886 -0.9464485 18.561535 -0.95309579 18.541515 -35.494518 -59.274601
16867500000 -29.378426 -124.96552 -0.94593835 18.039768 -0.95327085 18.001947 -34.978973 -55.668438
16895000000 -29.695234 -123.65021 -0.94708204 17.477942 -0.95364583 17.448172 -35.32291 -56.542671
16922500000 -29.884079 -122.54752 -0.94877285 16.911827 -0.94844145 16.873878 -35.434654 -58.290215
16950000000 -29.606043 -124.25266 -0.94770437 16.358742 -0.95348853 16.333408 -34.568344 -58.762886
16977500000 -29.725191 -123.96113 -0.95062965 15.819418 -0.95499378 15.785916 -34.698006 -57.144424
17005000000 -29.991665 -122.32432 -0.94852263 15.283472 -0.95375061 15.230696 -34.997982 -57.108418
17032500000 -29.708668 -123.38953 -0.95059967 14.719572 -0.95644087 14.68333 -34.409962 -58.345737
17060000000 -29.819462 -123.68458 -0.95118481 14.163896 -0.95643896 14.122489 -34.457081 -56.524418
17087500000 -30.192911 -122.04961 -0.95006198 13.620017 -0.95548117 13.585482 -34.945313 -57.360687
17115000000 -30.034346 -123.01521 -0.95502895 13.050677 -0.95986247 13.0406 -34.370228 -58.302292
17142500000 -29.800171 -123.61543 -0.95312709 12.521822 -0.95993352 12.478155 -34.041748 -57.702858
17170000000 -30.548304 -122.93936 -0.95468676 11.998792 -0.95589149 11.935433 -34.510303 -57.874237
17197500000 -30.364824 -122.31929 -0.9528476 11.420061 -0.95755994 11.380407 -34.063374 -57.749187
17225000000 -29.955395 -122.40414 -0.9537155 10.868532 -0.95838809 10.852106 -33.765499 -56.998466
17252500000 -30.568222 -122.78097 -0.95210171 10.343497 -0.95754635 10.287368 -34.230286 -56.009659
17280000000 -30.619061 -121.425 -0.95213521 9.7750683 -0.95721751 9.7454596 -34.05854 -56.295254
17307500000 -30.255249 -121.03766 -0.95399666 9.2129307 -0.95656574 9.1746912 -33.502995 -56.532024
17335000000 -30.555914 -120.68018 -0.95139754 8.674365 -0.95691419 8.6267939 -33.545021 -56.525047
17362500000 -30.908693 -120.02821 -0.94975013 8.1143723 -0.95806307 8.0522547 -33.893024 -56.175407
17390000000 -30.508341 -120.06567 -0.95562923 7.563972 -0.95857561 7.5418572 -33.140934 -56.654873
17417500000 -30.576244 -120.31847 -0.95318317 7.0095787 -0.95961064 6.9511671 -33.126457 -56.007042
17445000000 -31.135073 -119.89926 -0.95330763 6.4712973 -0.95488638 6.4221673 -33.572105 -56.26947
17472500000 -30.751064 -117.7483 -0.95005715 5.895792 -0.95839614 5.8570318 -33.030735 -56.655499
17500000000 -30.654652 -118.52053 -0.95250845 5.3373628 -0.95650411 5.2875676 -32.748569 -56.066864
17527500000 -31.164543 -119.15636 -0.95306581 4.8058176 -0.95778519 4.7854562 -33.278248 -56.386871
17555000000 -30.877098 -117.34731 -0.95628536 4.2310596 -0.95857108 4.192791 -32.928638 -56.834751
17582500000 -30.792889 -117.31306 -0.9549309 3.6641612 -0.95602888 3.6397328 -32.351391 -56.692753
17610000000 -31.310081 -118.43137 -0.95580858 3.1310439 -0.95901978 3.1083748 -32.85532 -57.3465
17637500000 -31.239 -116.96602 -0.95451581 2.5872753 -0.95936978 2.5259058 -32.832958 -57.215858
17665000000 -30.842358 -114.90923 -0.95248526 2.0339112 -0.9578504 1.9766412 -32.092472 -57.374691
17692500000 -31.32032 -117.50462 -0.95436555 1.4745885 -0.95929903 1.4324282 -32.386227 -57.053997
17720000000 -31.388134 -116.13177 -0.95462418 0.92858046 -0.95881128 0.88271683 -32.733677 -56.66853
17747500000 -31.070295 -114.01628 -0.95175201 0.37219086 -0.95914251 0.32306063 -32.042358 -56.470295
17775000000 -31.403364 -115.57211 -0.95472032 -0.18048215 -0.96148044 -0.20678884 -32.0438 -57.754837
17802500000 -31.623873 -115.15493 -0.95491028 -0.73982656 -0.95800853 -0.77496254 -32.54372 -57.972584
17830000000 -31.289495 -111.32994 -0.95751214 -1.2889789 -0.9572643 -1.3138188 -31.973785 -56.7994
17857500000 -31.434179 -112.8842 -0.9562583 -1.8597325 -0.96123558 -1.8875266 -31.708172 -58.000206
17885000000 -31.675928 -113.86721 -0.95225835 -2.4048502 -0.9588545 -2.4334009 -32.296181 -58.456326
17912500000 -31.379761 -110.61868 -0.95487702 -2.9454412 -0.95935941 -2.9772859 -31.965597 -57.711983
17940000000 -31.348478 -109.32574 -0.95622665 -3.4941635 -0.96045017 -3.5416477 -31.475948 -57.86153
17967500000 -31.811636 -112.52035 -0.95606887 -4.0765715 -0.9588784 -4.1039672 -31.974205 -58.123314
17995000000 -31.591791 -109.12428 -0.95645475 -4.5963159 -0.95955378 -4.6555667 -31.917467 -58.263599
18022500000 -31.49156 -107.74459 -0.95490026 -5.1521993 -0.95755279 -5.2106476 -31.180195 -57.498711
18050000000 -31.70435 -110.48403 -0.9544239 -5.6995854 -0.95756477 -5.7448797 -31.475605 -59.021263
18077500000 -31.683821 -108.22907 -0.95842874 -6.2660131 -0.96311933 -6.3025064 -31.765396 -58.413109
18105000000 -31.543926 -105.13454 -0.95532537 -6.8260717 -0.96015632 -6.8469114 -31.028681 -58.227985
18132500000 -31.750137 -108.3434 -0.95412242 -7.3710036 -0.9589178 -7.4155636 -31.095461 -58.830086
18160000000 -31.854046 -106.75639 -0.9554221 -7.9244361 -0.96051764 -7.9507375 -31.757053 -60.249428
18187500000 -31.523129 -102.81109 -0.95389187 -8.4663086 -0.96414381 -8.5343523 -31.02235 -60.01223
18215000000 -31.659969 -104.64885 -0.95582694 -9.0230322 -0.9625423 -9.0480614 -30.757374 -58.880054
18242500000 -31.84671 -105.40527 -0.95485771 -9.5965757 -0.96164417 -9.619586 -31.431522 -61.71653
18270000000 -31.697969 -101.62852 -0.95414436 -10.161384 -0.96001291 -10.197208 -30.897696 -60.192142
18297500000 -31.634836 -101.5819 -0.95892489 -10.702866 -0.96072757 -10.741214 -30.552334 -59.52512
18325000000 -31.788387 -103.57163 -0.95457453 -11.253505 -0.96088421 -11.288983 -30.976593 -61.464031
18352500000 -31.708767 -100.34991 -0.95890552 -11.800369 -0.96191168 -11.845886 -30.953484 -60.051426
18380000000 -31.537931 -98.452049 -0.9549706 -12.349377 -0.96073824 -12.377369 -30.462349 -60.34343
18407500000 -31.72349 -101.09408 -0.95420659 -12.905401 -0.96050149 -12.956541 -30.695297 -61.562641
18435000000 -31.665846 -98.434013 -0.95615214 -13.44542 -0.96287638 -13.498848 -30.874222 -62.487583
18462500000 -31.326935 -96.470398 -0.95463419 -14.031164 -0.95765382 -14.04584 -30.263775 -60.344334
18490000000 -31.630026 -99.182503 -0.95727432 -14.547861 -0.95932841 -14.581107 -30.159927 -61.118385
18517500000 -31.714741 -98.104088 -0.95524472 -15.143512 -0.96320856 -15.164798 -30.718641 -63.039162
18545000000 -31.436337 -95.059525 -0.95466739 -15.700344 -0.96237266 -15.716752 -30.194141 -61.824406
18572500000 -31.324501 -96.015045 -0.95446974 -16.212755 -0.96097237 -16.282763 -30.098909 -62.202255
18600000000 -31.718266 -96.518387 -0.95504409 -16.777954 -0.95962125 -16.837265 -30.393261 -63.341618
18627500000 -31.474573 -92.87233 -0.95320606 -17.341827 -0.96181732 -17.393465 -30.196115 -62.94072
18655000000 -31.238138 -93.925552 -0.95434618 -17.885782 -0.95920444 -17.946928 -29.778219 -63.086605
18682500000 -31.474813 -95.173485 -0.95527858 -18.448801 -0.96257395 -18.481903 -30.135916 -63.936607
18710000000 -31.469896 -92.531784 -0.95409048 -18.992788 -0.96526802 -19.026024 -30.244513 -64.416801
18737500000 -31.126419 -90.239273 -0.95159799 -19.530529 -0.95809472 -19.588579 -29.636263 -63.900558
18765000000 -31.402548 -92.890625 -0.95606697 -20.080572 -0.96025187 -20.133783 -29.888525 -64.758484
18792500000 -31.615246 -92.649429 -0.95941013 -20.668407 -0.96190292 -20.683489 -29.97613 -65.850601
18820000000 -31.023348 -89.479897 -0.95372355 -21.225267 -0.95980918 -21.270926 -29.461687 -65.331207
18847500000 -31.083822 -90.833725 -0.95262289 -21.729425 -0.96005589 -21.779549 -29.553114 -64.388664
18875000000 -31.232777 -91.026276 -0.95792073 -22.344215 -0.96363479 -22.365664 -30.039345 -66.14196
18902500000 -30.941898 -88.930214 -0.95263356 -22.897198 -0.95845747 -22.919586 -29.377708 -66.393425
18930000000 -30.81642 -88.281151 -0.95485061 -23.416578 -0.96002972 -23.475676 -29.425768 -65.48423
18957500000 -31.088346 -89.938057 -0.95684385 -23.970648 -0.96160996 -24.020702 -29.737934 -66.743828
18985000000 -31.082245 -87.954666 -0.95303941 -24.534512 -0.95668447 -24.579351 -29.486736 -66.809624
19012500000 -30.813702 -87.124687 -0.95157057 -25.070711 -0.95775837 -25.120571 -29.112673 -66.281982
19040000000 -31.064966 -88.819153 -0.95294398 -25.656567 -0.96083707 -25.679689 -29.435509 -67.052238
19067500000 -31.099455 -86.685364 -0.95788556 -26.195549 -0.9551096 -26.232489 -29.316055 -67.428665
19095000000 -30.846254 -85.753365 -0.95407891 -26.763954 -0.95832193 -26.790279 -29.035547 -67.22216
19122500000 -30.832867 -88.080215 -0.95466417 -27.313885 -0.95823926 -27.339874 -29.235527 -67.640442
19150000000 -30.887367 -87.414833 -0.95665157 -27.857178 -0.96083444 -27.896179 -29.38476 -68.356117
19177500000 -30.516979 -83.696396 -0.95165724 -28.410675 -0.95696586 -28.454811 -29.013239 -68.289055
19205000000 -30.657961 -86.899216 -0.95587629 -28.974308 -0.95948499 -28.996859 -29.09557 -68.838257
19232500000 -30.691408 -86.383423 -0.95428783 -29.540613 -0.95780355 -29.559328 -29.286095 -68.977592
19260000000 -30.533781 -83.915359 -0.94970983 -30.070663 -0.95519185 -30.12011 -28.955627 -69.257469
19287500000 -30.396816 -84.369431 -0.95400953 -30.633224 -0.95671737 -30.673639 -28.892981 -68.960846
19315000000 -30.512461 -86.285248 -0.95346755 -31.180309 -0.95474416 -31.225767 -29.199902 -69.206337
19342500000 -30.536896 -82.964996 -0.94988251 -31.752003 -0.95393509 -31.793577 -28.913866 -69.852661
19370000000 -30.168194 -82.896484 -0.94813973 -32.296585 -0.95635796 -32.34346 -28.767094 -70.555405
19397500000 -30.365707 -85.943298 -0.95370036 -32.834545 -0.95858598 -32.88826 -29.145851 -69.951263
19425000000 -30.428709 -82.474403 -0.94377315 -33.414978 -0.95450097 -33.44162 -28.844776 -70.701721
19452500000 -30.351334 -81.781731 -0.9485603 -33.980286 -0.95692194 -34.009232 -28.661764 -71.294662
19480000000 -30.226128 -85.433968 -0.95049721 -34.503296 -0.95344627 -34.566883 -28.954189 -70.687431
19507500000 -30.260731 -82.926071 -0.94923604 -35.052422 -0.95478994 -35.109219 -28.990389 -70.898827
19535000000 -30.214664 -79.886421 -0.94843858 -35.627991 -0.95508444 -35.69574 -28.61693 -72.050789
19562500000 -29.957378 -83.98436 -0.95076656 -36.17474 -0.95525217 -36.232452 -28.714706 -71.746178
19590000000 -30.059002 -83.624062 -0.94713229 -36.733917 -0.95211589 -36.793964 -28.958677 -71.410881
19617500000 -30.244795 -79.971626 -0.94574493 -37.302246 -0.95112616 -37.346878 -28.712425 -72.738091
19645000000 -29.889109 -82.75013 -0.94551611 -37.843201 -0.95545632 -37.901077 -28.540051 -72.843063
19672500000 -29.796818 -84.413254 -0.94750541 -38.421082 -0.95314646 -38.440121 -28.933273 -71.931847
19700000000 -30.215017 -79.86763 -0.94662493 -38.985329 -0.95312709 -39.032429 -28.699886 -72.846725
19727500000 -29.972424 -81.712883 -0.94910783 -39.543625 -0.95234603 -39.588345 -28.431635 -73.587181
19755000000 -29.695992 -83.815468 -0.94879544 -40.08197 -0.95285726 -40.124691 -28.761694 -73.200935
19782500000 -30.037102 -80.333534 -0.94478178 -40.646145 -0.95014089 -40.677078 -28.785154 -72.577438
19810000000 -29.960905 -80.569588 -0.94749802 -41.200184 -0.9520247 -41.249413 -28.325573 -74.080894
19837500000 -29.527035 -83.683617 -0.94874293 -41.768791 -0.95230925 -41.78421 -28.808214 -73.401848
19865000000 -29.770258 -80.623001 -0.94726813 -42.33971 -0.95288885 -42.35606 -28.909348 -72.750542
19892500000 -29.899435 -79.286301 -0.94368786 -42.878506 -0.95087868 -42.934204 -28.463139 -74.717323
19920000000 -29.326256 -82.385521 -0.94927019 -43.459068 -0.95139045 -43.482121 -28.718712 -73.853119
19947500000 -29.420698 -80.580521 -0.94785506 -44.009224 -0.9480145 -44.053875 -28.934055 -73.522774
19975000000 -29.83437 -79.081726 -0.94384003 -44.571926 -0.94701505 -44.593235 -28.440125 -74.641594
20002500000 -29.369335 -81.165092 -0.94976461 -45.120388 -0.95245337 -45.162048 -28.535902 -75.135208
20030000000 -29.239841 -80.321861 -0.94970596 -45.684986 -0.95089549 -45.721924 -28.958805 -73.560524
20057500000 -29.846403 -78.597832 -0.94373935 -46.224434 -0.94828302 -46.2663 -28.564194 -74.21096
20085000000 -29.212408 -80.199226 -0.94705337 -46.810486 -0.95465678 -46.843708 -28.308437 -75.443787
20112500000 -28.893681 -80.894051 -0.95109296 -47.341084 -0.95258904 -47.387131 -28.913843 -74.137657
20140000000 -29.616827 -77.943581 -0.94437861 -47.925346 -0.95304519 -47.950172 -28.677313 -74.152885
20167500000 -29.262331 -79.718712 -0.94510967 -48.476063 -0.95368838 -48.52235 -28.328053 -75.530304
20195000000 -28.641104 -80.633499 -0.94703764 -49.007732 -0.954521 -49.08807 -28.757984 -74.850433
20222500000 -29.001474 -78.373474 -0.95052075 -49.605358 -0.95440233 -49.636192 -28.90099 -74.340332
20250000000 -29.269361 -78.869301 -0.94586915 -50.165752 -0.95148969 -50.19305 -28.270517 -75.914696
20277500000 -28.41906 -79.808334 -0.9498964 -50.691856 -0.95433491 -50.748005 -28.597519 -75.476288
20305000000 -28.70204 -77.574425 -0.94706273 -51.282925 -0.95683354 -51.324383 -28.797245 -73.891006
20332500000 -29.297527 -78.227875 -0.94678456 -51.832836 -0.95116806 -51.865948 -28.303757 -75.325958
20360000000 -28.387615 -79.170319 -0.95596761 -52.38961 -0.9574002 -52.434715 -28.297577 -76.138397
20387500000 -28.33556 -78.650978 -0.95148516 -52.945774 -0.95658058 -52.986111 -28.93852 -74.128723
20415000000 -29.067173 -78.534279 -0.95043278 -53.48399 -0.9551515 -53.530544 -28.52693 -75.804276
20442500000 -28.458054 -79.5709 -0.95088255 -54.072189 -0.95961839 -54.122345 -28.259817 -77.119331
20470000000 -28.081869 -78.530159 -0.95417821 -54.589596 -0.96058124 -54.664688 -28.816753 -74.709915
20497500000 -28.79187 -78.909233 -0.95568472 -55.158413 -0.95642442 -55.208534 -28.611124 -74.895462
20525000000 -28.513065 -79.088112 -0.953493 -55.741116 -0.95705616 -55.777618 -28.077927 -76.697136
20552500000 -27.780575 -78.417389 -0.95814049 -56.286819 -0.96285987 -56.322933 -28.699999 -75.921402
20580000000 -28.291788 -78.742538 -0.95850462 -56.854755 -0.96160799 -56.884174 -28.651703 -75.206146
20607500000 -28.328573 -79.255928 -0.95314968 -57.402672 -0.95919383 -57.449181 -28.116705 -76.948723
20635000000 -27.693344 -78.234161 -0.95402312 -57.954697 -0.9635191 -57.992905 -28.435863 -76.912064
20662500000 -27.970856 -78.743813 -0.95542955 -58.524975 -0.95979398 -58.538506 -28.730692 -76.076851
20690000000 -28.20418 -79.935448 -0.95670128 -59.058392 -0.9619385 -59.10194 -28.06665 -77.59745
20717500000 -27.655483 -77.819931 -0.96092361 -59.615593 -0.96373463 -59.655262 -28.226997 -77.448051
20745000000 -27.546223 -78.715004 -0.95747083 -60.193268 -0.96283692 -60.231285 -28.755394 -76.105415
20772500000 -28.007193 -79.504509 -0.95866632 -60.718933 -0.96151662 -60.767376 -28.305273 -77.421463
20800000000 -27.47806 -78.684555 -0.96084058 -61.27597 -0.96267056 -61.335167 -28.187439 -78.253761
20827500000 -27.30271 -78.633331 -0.95997775 -61.865074 -0.96166134 -61.888077 -28.581245 -77.359894
20855000000 -27.719778 -79.960716 -0.95868987 -62.393894 -0.96312195 -62.411259 -28.368 -77.07019
20882500000 -27.565805 -78.835373 -0.95962 -62.983574 -0.96429086 -63.006195 -27.982637 -78.50634
20910000000 -26.993731 -78.732506 -0.95969909 -63.494308 -0.96149462 -63.554939 -28.538862 -78.032555
20937500000 -27.390867 -80.106026 -0.96186161 -64.065796 -0.96599972 -64.133278 -28.436586 -77.943092
20965000000 -27.399334 -79.446838 -0.96040303 -64.630898 -0.96252841 -64.694565 -28.050152 -79.074341
20992500000 -26.971102 -78.104866 -0.9579075 -65.184181 -0.96351808 -65.237251 -28.444643 -78.808762
21020000000 -27.111771 -79.353592 -0.96150047 -65.70842 -0.96782601 -65.783585 -28.508715 -77.781204
21047500000 -27.469437 -79.922234 -0.96091616 -66.323662 -0.96475697 -66.35968 -28.074162 -78.823189
21075000000 -26.91036 -78.044365 -0.96046245 -66.838821 -0.96770245 -66.891899 -28.424252 -79.116234
21102500000 -26.832272 -79.866577 -0.96312809 -67.410957 -0.96781051 -67.464005 -28.58527 -78.41716
21130000000 -27.165958 -80.207756 -0.96392822 -67.96759 -0.96341145 -68.006943 -28.210304 -77.997467
21157500000 -26.965755 -78.670067 -0.96322566 -68.543213 -0.96928191 -68.587776 -28.289446 -79.970901
21185000000 -26.62929 -79.211861 -0.9637059 -69.092926 -0.96747118 -69.132553 -28.421396 -78.671486
21212500000 -26.966158 -80.240669 -0.96333653 -69.644951 -0.96781147 -69.680626 -28.3276 -78.671661
21240000000 -26.93766 -79.007904 -0.96489596 -70.226051 -0.96805859 -70.256012 -28.188663 -80.528709
21267500000 -26.473335 -79.355461 -0.96576434 -70.744614 -0.96942753 -70.800339 -28.384892 -79.823982
21295000000 -26.663858 -79.800438 -0.96484679 -71.300629 -0.96917969 -71.355408 -28.272549 -78.716141
21322500000 -26.858089 -80.03347 -0.96796578 -71.922798 -0.9665556 -71.957924 -28.129566 -79.614433
21350000000 -26.341192 -78.989182 -0.96436357 -72.43927 -0.97158778 -72.463516 -28.324425 -80.801353
21377500000 -26.380756 -80.263115 -0.96975338 -72.96077 -0.97223532 -73.026123 -28.226383 -79.26786
21405000000 -26.623774 -80.285973 -0.96906579 -73.544342 -0.97360432 -73.620369 -27.99176 -80.329109
21432500000 -26.358309 -78.993172 -0.96854162 -74.096245 -0.97259802 -74.149857 -28.339428 -79.935455
21460000000 -26.18932 -80.166229 -0.96805471 -74.650673 -0.97362149 -74.709953 -28.328943 -79.595757
21487500000 -26.462423 -80.731087 -0.96869433 -75.203041 -0.97380316 -75.270485 -28.077106 -79.713913
21515000000 -26.444973 -79.395317 -0.97154504 -75.75499 -0.97770274 -75.807144 -28.341526 -81.419624
21542500000 -26.05007 -79.885826 -0.96875387 -76.28817 -0.97508675 -76.343895 -28.269346 -79.89798
21570000000 -26.355341 -80.999092 -0.97102576 -76.851868 -0.97584635 -76.912788 -28.094273 -80.074326
21597500000 -26.420961 -80.375587 -0.97230721 -77.419365 -0.9764722 -77.472412 -28.124475 -81.901566
21625000000 -26.046371 -79.99263 -0.96897584 -77.957016 -0.97466165 -78.002426 -28.405348 -81.209953
21652500000 -26.147348 -81.471848 -0.96795797 -78.52964 -0.97653407 -78.552063 -28.111893 -80.514313
21680000000 -26.408663 -80.298042 -0.97335261 -79.067322 -0.97402346 -79.151947 -28.282255 -81.276093
21707500000 -26.08655 -80.026245 -0.96662545 -79.613426 -0.97323734 -79.670166 -28.463871 -82.247208
21735000000 -26.063126 -81.298584 -0.96682495 -80.143456 -0.97192806 -80.224861 -28.263496 -79.771881
21762500000 -26.409716 -80.909912 -0.96818024 -80.742752 -0.97101122 -80.798782 -28.34318 -80.860092
21790000000 -26.199791 -79.420334 -0.96895093 -81.293198 -0.97138739 -81.356972 -28.693047 -82.767502
21817500000 -25.929058 -80.749588 -0.96538866 -81.839317 -0.96918422 -81.899529 -28.395947 -80.719284
21845000000 -26.230642 -81.139984 -0.96835589 -82.444878 -0.9687975 -82.470299 -28.329775 -81.013054
21872500000 -26.285727 -79.851547 -0.9713906 -82.988754 -0.97453403 -83.026649 -28.627615 -83.449257
21900000000 -25.953989 -80.63591 -0.96723342 -83.548744 -0.97145534 -83.589172 -28.592016 -80.318077
21927500000 -26.080486 -81.321045 -0.9679305 -84.116814 -0.96954596 -84.166931 -28.368666 -79.406151
21955000000 -26.268183 -80.054161 -0.97012591 -84.688431 -0.97287202 -84.735321 -28.715368 -83.219498
21982500000 -25.910938 -79.911545 -0.96717101 -85.221504 -0.97508836 -85.27639 -28.728306 -80.410614
22010000000 -25.901949 -81.943443 -0.96566731 -85.79364 -0.97344977 -85.834572 -28.389629 -78.716179
22037500000 -26.192129 -80.522491 -0.97387964 -86.370224 -0.9737857 -86.429794 -28.60738 -81.387077
22065000000 -25.991703 -79.49369 -0.9734475 -86.886353 -0.97701055 -86.954102 -28.849672 -80.552338
22092500000 -25.72687 -81.046181 -0.97148418 -87.454231 -0.97623587 -87.521439 -28.337353 -77.477455
22120000000 -25.978605 -80.764229 -0.97502035 -88.05455 -0.97900528 -88.087326 -28.408218 -80.0392
22147500000 -26.106878 -79.728714 -0.97673571 -88.589676 -0.98010159 -88.644669 -28.828735 -80.542557
22175000000 -25.744961 -81.11998 -0.97749585 -89.146217 -0.98084646 -89.190392 -28.503426 -76.745689
22202500000 -25.811558 -81.704605 -0.97590435 -89.71019 -0.980196 -89.755852 -28.297579 -79.192215
22230000000 -26.031849 -79.595253 -0.98171186 -90.256042 -0.98225647 -90.289314 -28.718874 -81.176964
22257500000 -25.781374 -80.676231 -0.97843808 -90.793968 -0.98638809 -90.842873 -28.466005 -77.001312
22285000000 -25.726978 -81.909966 -0.98044157 -91.372414 -0.98572052 -91.412735 -28.197784 -77.628586
22312500000 -26.018177 -79.690643 -0.98019797 -91.916634 -0.98485792 -91.947678 -28.439571 -81.618393
22340000000 -25.816473 -79.832779 -0.9839763 -92.46553 -0.98665935 -92.529091 -28.543999 -77.531532
22367500000 -25.615564 -81.209862 -0.98444319 -92.994972 -0.98991334 -93.067177 -28.175217 -77.203163
22395000000 -26.084482 -80.249092 -0.98624092 -93.580475 -0.98705411 -93.630516 -28.279266 -81.088478
22422500000 -25.718803 -79.114861 -0.98194653 -94.120483 -0.98689812 -94.150871 -28.684252 -78.054443
22450000000 -25.388868 -80.37989 -0.98083901 -94.650993 -0.99047095 -94.711868 -28.016832 -76.36068
22477500000 -25.639717 -80.654175 -0.98138672 -95.22892 -0.98574752 -95.269264 -27.936668 -80.735023
22505000000 -25.748766 -79.449669 -0.98304909 -95.764282 -0.99004436 -95.828239 -28.578318 -80.437073
22532500000 -25.213018 -80.854431 -0.98360944 -96.32254 -0.98860812 -96.37265 -28.18222 -76.94278
22560000000 -25.365692 -81.153275 -0.98569584 -96.898804 -0.99207759 -96.97139 -27.889812 -79.514557
22587500000 -25.741814 -80.136002 -0.98443317 -97.459496 -0.98625064 -97.524071 -28.409626 -81.744644
22615000000 -25.261484 -81.019516 -0.98603916 -98.012268 -0.98882067 -98.066803 -28.241562 -77.26458
22642500000 -25.2771 -81.83329 -0.98701739 -98.565941 -0.99156594 -98.618942 -27.80759 -78.900902
22670000000 -25.686378 -81.283989 -0.98809201 -99.119576 -0.99247867 -99.176277 -28.206409 -82.454567
22697500000 -25.271599 -80.704002 -0.99024886 -99.681206 -0.99742311 -99.711426 -28.437878 -78.432564
22725000000 -25.083118 -81.090363 -0.99179006 -100.25722 -0.99381334 -100.28156 -27.964918 -78.086464
22752500000 -25.379539 -81.607056 -0.98633122 -100.79873 -0.99540335 -100.83405 -28.021231 -82.562256
22780000000 -25.24679 -81.325676 -0.99372613 -101.32835 -1.0017909 -101.37354 -28.591438 -80.056396
22807500000 -24.811012 -81.604012 -0.99442226 -101.85954 -0.99818826 -101.90943 -28.069374 -77.393654
22835000000 -25.121729 -83.527451 -0.99372 -102.43272 -1.0006382 -102.48702 -27.870089 -81.2715
22862500000 -25.15416 -83.26532 -0.99010515 -102.96733 -0.9945606 -103.04723 -28.573067 -81.169167
22890000000 -24.643484 -82.291656 -0.99254638 -103.53425 -1.0002719 -103.59884 -28.104982 -77.599785
22917500000 -24.845915 -84.1735 -0.99277282 -104.09386 -0.99774528 -104.14275 -27.775801 -80.163193
22945000000 -25.134907 -84.797638 -0.99503779 -104.65258 -0.99813384 -104.70773 -28.282402 -82.549004
22972500000 -24.613894 -83.436615 -0.99678582 -105.19114 -1.0029664 -105.25912 -28.23805 -77.764359
23000000000 -24.74617 -85.125069 -0.99355042 -105.78027 -1.00301 -105.81699 -27.81513 -79.464951
23027500000 -24.967535 -86.636108 -0.99268299 -106.33691 -0.99833387 -106.3581 -27.983734 -83.053925
23055000000 -24.723095 -84.378464 -0.99926758 -106.88929 -1.0039778 -106.94434 -28.492075 -78.691948
23082500000 -24.684721 -85.53965 -0.99895549 -107.46465 -1.003286 -107.48046 -27.760698 -78.498146
23110000000 -24.978695 -88.298782 -0.99798304 -107.96979 -1.0025702 -108.01707 -27.827496 -83.216309
23137500000 -24.810307 -86.59977 -1.0015939 -108.54315 -1.0043323 -108.5891 -28.470943 -80.577538
23165000000 -24.643658 -85.753624 -0.99928027 -109.09302 -1.0041816 -109.15818 -27.888094 -78.382927
23192500000 -24.856939 -89.584122 -1.0043678 -109.61285 -1.0031669 -109.65398 -27.805655 -82.022385
23220000000 -24.818134 -88.590126 -0.99740195 -110.19992 -1.0067241 -110.26536 -28.410639 -82.931473
23247500000 -24.640505 -86.9002 -0.99753517 -110.79002 -1.0061938 -110.82841 -27.947773 -79.09893
23275000000 -24.720213 -90.37854 -1.0029533 -111.32566 -1.0076619 -111.34277 -27.64535 -81.015907
23302500000 -24.832638 -90.740158 -0.99845666 -111.8622 -1.0057003 -111.90926 -28.197435 -83.667953
23330000000 -24.684628 -87.445152 -1.002696 -112.40569 -1.0097678 -112.47205 -28.268652 -79.12072
23357500000 -24.680901 -90.290138 -1.0010649 -112.97588 -1.0071046 -113.03815 -27.682577 -80.688782
23385000000 -24.747183 -92.583916 -1.0003742 -113.54023 -1.0032947 -113.53386 -28.069889 -83.732071
23412500000 -24.702742 -89.175484 -1.011507 -114.08984 -1.0103717 -114.13885 -28.405783 -80.035339
23440000000 -24.597967 -90.696663 -1.0062377 -114.68878 -1.0130002 -114.70441 -27.634333 -80.499023
23467500000 -24.669992 -93.57106 -1.0006976 -115.18944 -1.0059721 -115.19834 -27.913483 -83.412331
23495000000 -24.78636 -90.543213 -1.0060965 -115.75448 -1.0100422 -115.81995 -28.263508 -81.304756
23522500000 -24.718586 -90.273064 -1.0066967 -116.34048 -1.0098588 -116.37005 -27.736952 -79.718132
23550000000 -24.583836 -94.324501 -1.0101352 -116.83746 -1.0106997 -116.8933 -27.819555 -82.608124
23577500000 -24.843357 -93.14238 -1.0130169 -117.44277 -1.0129924 -117.46061 -28.306608 -83.149788
23605000000 -24.871004 -90.83535 -1.0100719 -117.97537 -1.0139096 -118.01955 -27.818699 -79.330978
23632500000 -24.648809 -94.279152 -1.0119969 -118.48493 -1.0117733 -118.56709 -27.776695 -81.609932
23660000000 -24.786461 -94.878815 -1.012241 -119.08698 -1.0143517 -119.12361 -28.02562 -83.566383
23687500000 -24.916059 -91.341286 -1.0114875 -119.65092 -1.0198514 -119.68042 -27.922625 -79.902527
23715000000 -24.714516 -94.347168 -1.0153432 -120.17702 -1.0204463 -120.23885 -27.723097 -81.627182
23742500000 -24.837212 -95.058212 -1.0132025 -120.7093 -1.0200586 -120.75541 -28.062063 -83.361404
23770000000 -25.002707 -93.038918 -1.0152565 -121.29524 -1.0173051 -121.32042 -28.081469 -81.731384
23797500000 -24.831133 -94.169319 -1.0196608 -121.82999 -1.0191371 -121.87531 -27.558025 -81.184319
23825000000 -24.681616 -96.7285 -1.0113564 -122.34158 -1.0176886 -122.41622 -27.981476 -83.396408
23852500000 -25.042957 -94.349213 -1.0189329 -122.9545 -1.023688 -122.98842 -28.052061 -82.947777
23880000000 -24.914772 -93.872185 -1.0181925 -123.49724 -1.0231903 -123.56908 -27.752506 -80.23468
23907500000 -24.697552 -96.802628 -1.0206188 -124.0312 -1.0198625 -124.08167 -27.934467 -83.226921
23935000000 -25.067299 -95.915771 -1.0221194 -124.58511 -1.026282 -124.64069 -28.157757 -83.899086
23962500000 -25.080915 -94.174988 -1.0151241 -125.1704 -1.0189689 -125.17017 -27.626656 -80.432007
23990000000 -24.735682 -96.796898 -1.0194036 -125.6925 -1.0233459 -125.74001 -27.917921 -82.952209
24017500000 -24.995964 -97.255249 -1.0204905 -126.2311 -1.0247865 -126.31163 -28.219814 -83.988007
24045000000 -25.265474 -95.146538 -1.0138842 -126.80244 -1.0206398 -126.81213 -27.825155 -81.540863
24072500000 -24.781662 -96.269493 -1.0170165 -127.35209 -1.0235556 -127.42859 -27.794754 -82.195099
24100000000 -24.971497 -97.833786 -1.0192677 -127.89383 -1.0272198 -127.9495 -28.09564 -83.711693
24127500000 -25.335348 -96.288544 -1.019805 -128.45447 -1.0260609 -128.50719 -27.80328 -82.506233
24155000000 -24.971889 -96.028564 -1.017884 -129.01186 -1.0219533 -129.05469 -27.554729 -82.261162
24182500000 -24.951908 -98.146538 -1.0164964 -129.54979 -1.0242909 -129.61472 -28.079947 -84.74826
24210000000 -25.262066 -97.454597 -1.019751 -130.08133 -1.0225118 -130.1602 -27.79656 -83.568016
24237500000 -25.120813 -95.862564 -1.0172057 -130.65814 -1.0210452 -130.73021 -27.66679 -81.366737
24265000000 -24.887094 -97.643555 -1.0220218 -131.21266 -1.0216439 -131.27069 -28.098841 -84.751839
24292500000 -25.257511 -98.07769 -1.0199471 -131.78059 -1.0269042 -131.83868 -28.047297 -83.988106
24320000000 -25.299198 -95.808716 -1.0157284 -132.34567 -1.0194992 -132.37766 -27.598667 -82.501595
24347500000 -24.95211 -97.116417 -1.0186367 -132.87541 -1.0210432 -132.93005 -27.999084 -83.944801
24375000000 -25.143053 -98.094315 -1.0212895 -133.42842 -1.0253539 -133.51292 -28.174826 -84.671844
24402500000 -25.449854 -96.610756 -1.0193578 -133.99622 -1.0229839 -134.04565 -27.476973 -82.407303
24430000000 -24.974257 -96.42437 -1.0174177 -134.5392 -1.0211238 -134.58461 -27.896082 -83.303268
24457500000 -25.104582 -98.403 -1.0186472 -135.09241 -1.0245427 -135.15453 -28.265379 -85.913956
24485000000 -25.411156 -97.47979 -1.017211 -135.64909 -1.0200862 -135.72845 -27.573404 -82.506195
24512500000 -25.199987 -96.272026 -1.0162727 -136.19212 -1.021843 -136.22888 -27.786556 -83.508865
24540000000 -25.118551 -98.120773 -1.024698 -136.73042 -1.0257496 -136.82443 -28.365519 -85.81543
24567500000 -25.450922 -98.265152 -1.0178529 -137.3378 -1.0252991 -137.39951 -27.790304 -82.434631
24595000000 -25.290089 -96.576149 -1.0189356 -137.85185 -1.0210786 -137.89708 -27.691992 -83.164993
24622500000 -25.073669 -97.720795 -1.0193233 -138.4093 -1.0228961 -138.49173 -28.299419 -86.347527
24650000000 -25.362549 -99.314445 -1.0197666 -138.97734 -1.0267285 -139.04369 -28.035681 -83.924103
24677500000 -25.463774 -97.366196 -1.0163306 -139.52211 -1.0233512 -139.57602 -27.507193 -82.185913
24705000000 -25.13278 -97.047218 -1.0178987 -140.0638 -1.0199941 -140.10709 -28.201584 -85.662964
24732500000 -25.337179 -99.000298 -1.019891 -140.67603 -1.0264226 -140.70401 -28.199949 -85.944809
24760000000 -25.458614 -97.975723 -1.0197964 -141.17787 -1.025261 -141.22937 -27.473631 -82.165535
24787500000 -25.208651 -97.388298 -1.0191803 -141.7164 -1.0229129 -141.77727 -28.048452 -85.683792
24815000000 -25.247253 -99.290512 -1.0221233 -142.2935 -1.0305424 -142.36461 -28.402153 -85.707924
24842500000 -25.528803 -99.468353 -1.0159802 -142.84311 -1.023684 -142.92813 -27.630482 -82.139771
24870000000 -25.394112 -97.469635 -1.0196059 -143.40173 -1.0210681 -143.43268 -27.922644 -85.232117
24897500000 -25.224157 -99.038696 -1.0180355 -143.97896 -1.024447 -144.01378 -28.424047 -87.33696
24925000000 -25.529739 -99.891617 -1.0189486 -144.5314 -1.0202384 -144.55707 -27.910303 -81.005768
24952500000 -25.466522 -97.800217 -1.018149 -145.03766 -1.0207033 -145.10849 -27.789764 -83.601189
24980000000 -25.297028 -98.148613 -1.0205998 -145.60811 -1.0251726 -145.66672 -28.396608 -88.356987
25007500000 -25.581537 -100.13428 -1.0184115 -146.16331 -1.0240659 -146.21695 -28.070675 -82.668991
25035000000 -25.682051 -98.93412 -1.0168183 -146.6989 -1.0202243 -146.74191 -27.649971 -82.333168
25062500000 -25.393034 -98.651932 -1.0235071 -147.27707 -1.0222832 -147.30753 -28.367464 -87.492172
25090000000 -25.590136 -100.2414 -1.0124743 -147.8373 -1.0209895 -147.91438 -28.287842 -84.236008
25117500000 -25.89752 -100.01488 -1.0148542 -148.37695 -1.0218076 -148.46062 -27.62545 -80.738098
25145000000 -25.664072 -98.500793 -1.0119227 -148.95111 -1.022065 -148.95801 -28.010611 -87.941315
25172500000 -25.569582 -99.732353 -1.0146152 -149.51488 -1.0226822 -149.58356 -28.326149 -86.217468
25200000000 -25.953419 -100.85667 -1.0082574 -150.04915 -1.0230229 -150.10635 -27.946657 -80.314362
25227500000 -25.849733 -98.384979 -1.0187918 -150.63435 -1.0222161 -150.63818 -27.875151 -85.440811
25255000000 -25.648592 -99.534531 -1.020777 -151.20799 -1.020559 -151.24329 -28.475996 -86.421165
25282500000 -26.106218 -101.38006 -1.0141176 -151.78517 -1.0205131 -151.79663 -28.07361 -81.297081
25310000000 -26.062859 -98.813087 -1.0145966 -152.26141 -1.0184691 -152.32135 -27.885767 -84.336502
25337500000 -25.806129 -99.353378 -1.0179785 -152.8557 -1.0167385 -152.91321 -28.310139 -87.48983
25365000000 -26.052216 -101.10944 -1.0107906 -153.40749 -1.0207819 -153.4483 -28.343111 -81.327713
25392500000 -26.285215 -99.716331 -1.0110198 -153.94273 -1.0177331 -153.99428 -27.700329 -83.315773
25420000000 -26.024851 -98.005432 -1.0192245 -154.50531 -1.0214949 -154.5448 -28.283791 -88.912498
25447500000 -26.227291 -100.84604 -1.0122544 -155.07933 -1.0183131 -155.13692 -28.341784 -83.483322
25475000000 -26.396816 -99.709663 -1.0118501 -155.66986 -1.0154936 -155.66982 -27.991261 -81.779518
25502500000 -26.192713 -98.345497 -1.0190952 -156.20563 -1.023284 -156.24728 -28.077309 -88.657135
25530000000 -26.106472 -100.12375 -1.0145806 -156.75543 -1.0235491 -156.78711 -28.408428 -85.25853
25557500000 -26.419785 -100.24323 -1.0075722 -157.29883 -1.0130855 -157.3322 -28.094261 -80.991592
25585000000 -26.317577 -97.868317 -1.0128205 -157.86919 -1.0216101 -157.90918 -27.896881 -86.115959
25612500000 -26.228817 -99.696564 -1.0162691 -158.42393 -1.0217189 -158.45071 -28.434402 -86.066833
25640000000 -26.491749 -100.99606 -1.0118762 -158.95091 -1.0153222 -159.00388 -28.308594 -80.848183
25667500000 -26.582422 -98.494644 -1.0177751 -159.51974 -1.0188668 -159.57985 -28.111805 -83.32177
25695000000 -26.368528 -98.934814 -1.0187614 -160.06204 -1.0207292 -160.10857 -28.404972 -88.445831
25722500000 -26.557732 -101.79169 -1.0145195 -160.60419 -1.0170807 -160.65546 -28.542053 -82.239586
25750000000 -26.719936 -99.306374 -1.0144399 -161.19124 -1.0180384 -161.21446 -28.233727 -82.308731
25777500000 -26.580595 -97.93248 -1.0134088 -161.72643 -1.0207905 -161.79199 -28.287178 -88.64962
25805000000 -26.410288 -100.71194 -1.0169244 -162.29572 -1.023921 -162.37868 -28.628721 -83.555687
25832500000 -26.969152 -99.215027 -1.0135249 -162.8669 -1.0259324 -162.88754 -28.388374 -81.471146
25860000000 -26.855858 -97.007492 -1.0153402 -163.42406 -1.0236323 -163.43552 -28.190428 -87.695145
25887500000 -26.488726 -99.948547 -1.0204508 -163.9716 -1.0226481 -164.03156 -28.719353 -84.350914
25915000000 -27.016418 -100.83688 -1.0143827 -164.55975 -1.0233115 -164.57458 -28.754656 -80.739426
25942500000 -27.14274 -97.610962 -1.0212387 -165.08446 -1.0255259 -165.15686 -28.110086 -85.725304
25970000000 -26.662411 -99.278519 -1.0143409 -165.66614 -1.0209162 -165.68248 -28.682732 -85.603371
25997500000 -26.951912 -100.6543 -1.0154995 -166.198 -1.0185317 -166.22136 -28.571589 -81.163887
26025000000 -27.384453 -97.899612 -1.0144281 -166.75958 -1.0153922 -166.80298 -28.36829 -84.212807
26052500000 -26.908415 -97.717049 -1.016838 -167.27187 -1.0212666 -167.38101 -28.454769 -86.718697
26080000000 -26.831484 -100.72991 -1.0152862 -167.86179 -1.0224355 -167.91615 -28.924742 -80.588318
26107500000 -27.621254 -97.197319 -1.0130866 -168.4469 -1.0196055 -168.46008 -28.586264 -83.829613
26135000000 -27.310801 -98.298691 -1.0152565 -169.01387 -1.0192075 -169.01016 -28.526337 -86.451469
26162500000 -26.879398 -99.653488 -1.0120214 -169.5457 -1.02228 -169.55899 -28.835033 -81.411613
26190000000 -27.4727 -99.950142 -1.0132084 -170.10919 -1.0144861 -170.13344 -28.633173 -80.748505
26217500000 -27.710514 -97.237152 -1.0099027 -170.60143 -1.0202234 -170.68716 -28.461166 -85.298126
26245000000 -27.056761 -99.294304 -1.0124962 -171.23997 -1.01801 -171.25853 -28.85401 -82.00824
26272500000 -27.470219 -98.894791 -1.0091736 -171.73422 -1.0173578 -171.81523 -28.884932 -79.635735
26300000000 -27.963223 -97.653099 -1.0160846 -172.35475 -1.0205959 -172.36374 -28.619892 -84.074173
26327500000 -27.271978 -97.278267 -1.0138144 -172.86774 -1.0182272 -172.9619 -28.684593 -82.282623
26355000000 -27.509722 -99.42775 -1.0066473 -173.39304 -1.0200118 -173.49324 -28.946678 -79.628044
26382500000 -28.372553 -96.733894 -1.0116286 -174.00502 -1.0228696 -174.04153 -28.687399 -82.740768
26410000000 -27.555914 -96.573196 -1.0175495 -174.56767 -1.0166711 -174.63422 -28.926033 -83.577171
26437500000 -27.579018 -98.827095 -1.0165936 -175.08543 -1.0225253 -175.13266 -28.981276 -80.041199
26465000000 -28.48196 -97.158607 -1.0161448 -175.65283 -1.0225885 -175.7028 -28.782171 -81.565109
26492500000 -27.968887 -95.151535 -1.0106615 -176.25169 -1.019358 -176.27368 -28.885015 -81.841255
26520000000 -27.745047 -97.233253 -1.02192 -176.82855 -1.0243975 -176.79376 -28.773092 -80.84201
26547500000 -28.458876 -98.368172 -1.0092462 -177.39432 -1.0128725 -177.39072 -28.959839 -80.796036
26575000000 -28.611904 -93.701942 -1.0077598 -177.8844 -1.0122592 -177.95929 -29.099245 -80.114861
26602500000 -27.82548 -96.206604 -1.0231467 -178.45119 -1.0220634 -178.51894 -29.006897 -81.662422
26630000000 -28.528799 -97.302223 -1.0025548 -178.97751 -1.0156019 -179.04823 -28.658657 -79.46077
26657500000 -28.422373 -95.176735 -1.02258 -179.55737 -1.0079936 -179.58437 -29.443373 -82.639046
26685000000 -28.114189 -94.086403 -1.0236818 179.88509 -1.0133035 179.70926 -28.96629 -80.820786
26712500000 -28.411486 -97.597794 -1.0102003 179.34222 -1.0120935 179.2477 -29.044065 -79.509789
26740000000 -29.076689 -95.235268 -1.018188 178.79669 -1.0285678 178.7193 -29.365822 -81.50367
26767500000 -28.305202 -91.725571 -1.008677 178.2233 -1.0171472 178.19987 -29.451923 -79.594933
26795000000 -28.268599 -97.323677 -1.0218679 177.66164 -1.016397 177.51482 -29.186914 -80.708321
26822500000 -29.029154 -94.88102 -1.0125839 177.06435 -1.0292389 177.04353 -28.962696 -81.066002
26850000000 -28.978874 -90.676804 -1.0071517 176.52054 -1.0213082 176.4677 -29.417351 -76.937347
26877500000 -28.588531 -90.845093 -1.0208775 175.96886 -1.0282938 175.8676 -29.132769 -80.890633
26905000000 -29.046215 -94.580223 -1.0275614 175.47656 -1.0242294 175.36984 -29.304968 -78.676476
26932500000 -29.197144 -89.33017 -1.0107 174.88629 -1.0191863 174.74939 -29.676334 -80.298409
26960000000 -28.9967 -87.992683 -1.0101928 174.24481 -1.0269308 174.21021 -29.249664 -76.933533
26987500000 -28.950058 -93.620895 -1.0192294 173.67108 -1.0227412 173.67131 -29.164251 -79.899071
27015000000 -29.164446 -91.835846 -1.0221561 173.14017 -1.0252035 173.06264 -29.82226 -75.799179
27042500000 -28.919254 -85.680603 -1.0180908 172.61856 -1.0360892 172.45522 -29.595791 -78.003601
27070000000 -28.549212 -91.287994 -1.0191823 172.0078 -1.0214638 172.00957 -29.496788 -77.270805
27097500000 -29.856701 -89.738152 -1.0292915 171.4675 -1.0245768 171.49214 -30.148731 -77.433998
27125000000 -29.072485 -84.603874 -1.0131855 170.86563 -1.0345417 170.74084 -29.796848 -74.680344
27152500000 -28.934944 -89.013519 -1.0211273 170.40211 -1.0331784 170.26543 -29.37142 -76.570892
27180000000 -29.394253 -89.036171 -1.0294666 169.7619 -1.0264494 169.79094 -29.555258 -76.522171
27207500000 -29.415037 -84.388832 -1.0108618 169.30522 -1.0371025 169.21172 -29.946869 -73.858315
27235000000 -28.819786 -85.577888 -1.034778 168.63033 -1.0260442 168.68297 -29.518431 -75.926773
27262500000 -29.336887 -88.237511 -1.0271899 168.24606 -1.037681 168.07401 -29.640512 -77.494888
27290000000 -29.547865 -81.680107 -1.0361868 167.47795 -1.0408158 167.4716 -29.840296 -76.116592
27317500000 -29.36474 -83.998474 -1.0212492 167.03349 -1.0321764 166.9953 -29.472006 -71.692955
27345000000 -29.325768 -85.686081 -1.0314419 166.59593 -1.0425406 166.33572 -29.483942 -77.544838
27372500000 -29.534298 -81.863014 -1.0219839 165.89218 -1.0291477 165.80698 -30.427048 -72.78862
27400000000 -29.609682 -80.871193 -1.0159172 165.33899 -1.0376481 165.2494 -29.433405 -71.783249
27427500000 -28.928635 -83.081047 -1.0373707 164.80542 -1.0291193 164.72229 -29.060944 -74.812042
27455000000 -29.434372 -78.328468 -1.0353322 164.29767 -1.0450368 164.28906 -30.687263 -74.997269
27482500000 -29.459352 -77.995583 -1.0445067 163.72226 -1.0448583 163.6624 -29.777098 -70.514458
27510000000 -28.99939 -78.422943 -1.0458021 163.10104 -1.0367291 163.05225 -29.053795 -73.505608
27537500000 -29.468538 -79.562012 -1.0439247 162.61914 -1.0345149 162.46713 -30.014437 -76.194199
27565000000 -29.506775 -78.400795 -1.0213534 162.07585 -1.0473849 161.95311 -29.922592 -67.357819
27592500000 -28.915108 -77.744141 -1.0461143 161.44719 -1.0350792 161.41673 -29.218983 -70.987968
27620000000 -28.789665 -78.699036 -1.0340176 160.92717 -1.0396975 160.88718 -29.782932 -73.013786
27647500000 -29.525217 -75.731361 -1.0219805 160.35504 -1.0349718 160.34369 -30.006779 -70.574287
27675000000 -29.067511 -74.518143 -1.0418166 159.76642 -1.0491222 159.79863 -29.180618 -68.115685
27702500000 -28.570866 -77.677811 -1.0633224 159.25066 -1.0395893 159.19904 -29.221672 -67.922104
27730000000 -29.179968 -75.955795 -1.0481467 158.79715 -1.0468298 158.63533 -30.012022 -72.331406
27757500000 -29.305044 -74.571022 -1.0273108 158.06699 -1.0357866 158.14221 -29.493385 -67.543015
27785000000 -28.451811 -76.697655 -1.0331506 157.54674 -1.0321116 157.55812 -28.899122 -72.552574
27812500000 -28.929527 -74.44136 -1.0428519 157.00398 -1.0427067 157.07343 -29.323395 -74.112183
27840000000 -28.978075 -69.569374 -1.0406113 156.52316 -1.0460405 156.49104 -29.579515 -66.031425
27867500000 -28.564093 -72.086136 -1.0330287 155.9314 -1.0455936 155.94695 -28.994934 -70.281792
27895000000 -28.866831 -75.320839 -1.042019 155.37692 -1.0347537 155.40797 -29.857189 -71.94104
27922500000 -29.489338 -70.550911 -1.0261236 154.82346 -1.0447707 154.79555 -30.195599 -69.133705
27950000000 -28.496737 -69.144226 -1.0336277 154.24477 -1.0244286 154.16046 -29.489706 -66.107384
27977500000 -28.63135 -72.48159 -1.0261042 153.5724 -1.0348433 153.71579 -29.556063 -72.413559
28005000000 -29.26737 -70.944641 -1.0440208 153.14285 -1.0334822 153.13898 -30.340656 -68.575745
28032500000 -28.797758 -67.042221 -1.0379663 152.69478 -1.0539973 152.53793 -29.658627 -63.554913
28060000000 -28.169859 -69.042664 -1.0457919 151.94211 -1.0384502 151.91035 -29.640734 -71.008263
28087500000 -29.203684 -71.399239 -1.0356042 151.47707 -1.0488163 151.34662 -29.90324 -69.430862
28115000000 -28.357723 -66.785942 -1.0463278 150.86493 -1.0454116 150.92879 -29.841871 -62.750275
28142500000 -28.049332 -69.397942 -1.0378273 150.25256 -1.0346742 150.34544 -29.49394 -68.220016
28170000000 -28.649532 -71.86084 -1.0342584 149.75455 -1.0372648 149.71066 -30.007635 -67.505463
28197500000 -28.78598 -62.553749 -1.0348598 149.24838 -1.0384732 149.13252 -29.802412 -60.293823
28225000000 -27.696507 -62.380527 -1.0387501 148.61884 -1.0420282 148.62003 -29.364511 -67.229134
28252500000 -28.300663 -66.571365 -1.0197716 147.98875 -1.0518346 147.90404 -29.291302 -70.08754
28280000000 -28.334232 -63.549694 -1.0604317 147.47914 -1.048291 147.49718 -29.675894 -58.828323
28307500000 -27.435314 -59.952602 -1.03537 146.93214 -1.0554097 146.92938 -29.472294 -62.047359
28335000000 -27.954336 -64.295784 -1.0218105 146.3231 -1.0716949 146.37804 -29.615685 -64.156349
28362500000 -28.197102 -61.052841 -1.0484581 145.80225 -1.0616106 145.86504 -29.968685 -62.216324
28390000000 -27.302706 -60.808479 -1.0534205 145.33127 -1.0504087 145.19606 -29.502083 -59.528946
28417500000 -27.908823 -63.250099 -1.046014 144.73657 -1.0454645 144.74355 -29.022173 -63.497292
28445000000 -28.14827 -62.362675 -1.0603074 144.14603 -1.048007 144.11971 -29.282595 -62.909069
28472500000 -27.842617 -60.693417 -1.0434335 143.67374 -1.0445383 143.67203 -29.200939 -59.196274
28500000000 -27.429333 -61.458767 -1.0466892 143.01292 -1.0669419 143.09753 -28.855085 -63.042747
28527500000 -27.79318 -60.970093 -1.0614347 142.56406 -1.0549103 142.48357 -29.014704 -63.477749
28555000000 -27.813047 -58.114643 -1.0524497 141.98358 -1.0517874 141.95381 -29.065834 -58.259144
28582500000 -26.773205 -56.595821 -1.0558534 141.49312 -1.047629 141.39622 -28.86166 -57.496185
28610000000 -27.202547 -63.071888 -1.0571687 140.79332 -1.0631813 140.83188 -29.082224 -63.609261
28637500000 -27.185152 -59.877815 -1.0499262 140.3477 -1.0597979 140.28535 -28.752157 -56.429413
28665000000 -26.632469 -57.969223 -1.051001 139.76279 -1.0618985 139.67746 -28.722277 -60.715553
28692500000 -26.85671 -61.244587 -1.0593764 139.19086 -1.0438324 139.10884 -28.763235 -59.866997
28720000000 -26.975172 -59.44516 -1.071728 138.7433 -1.0567566 138.64619 -28.745512 -58.549412
28747500000 -26.70318 -56.808651 -1.0697197 138.13289 -1.0549206 138.05626 -28.441969 -56.728092
28775000000 -26.790007 -59.709755 -1.0606391 137.61076 -1.0585208 137.54234 -28.236341 -60.917713
28802500000 -26.833866 -59.95256 -1.0730653 136.97025 -1.0700873 136.9223 -28.787533 -60.810276
28830000000 -26.737179 -54.716766 -1.06002 136.4684 -1.0633042 136.40076 -28.125965 -57.788414
28857500000 -26.349127 -59.37439 -1.0639352 135.99503 -1.0581 135.87137 -28.129732 -61.999458
28885000000 -27.070356 -59.103607 -1.0612876 135.35062 -1.0753832 135.38243 -28.851545 -63.182903
28912500000 -26.595842 -58.935673 -1.0579435 134.82845 -1.0703712 134.79706 -28.561413 -58.736008
28940000000 -26.006466 -58.187374 -1.0471371 134.21062 -1.0439049 134.12892 -28.599558 -59.061905
28967500000 -26.213133 -61.994095 -1.0462961 133.67873 -1.0670086 133.64232 -28.211996 -61.361431
28995000000 -26.19751 -57.313927 -1.0567381 133.21797 -1.0765506 133.14526 -28.081837 -56.506489
29022500000 -25.656012 -55.659317 -1.0668806 132.6212 -1.0707865 132.47993 -28.550629 -58.539612
29050000000 -25.947088 -58.619205 -1.0653952 132.01175 -1.0599592 132.01172 -29.003817 -59.011826
29077500000 -26.279551 -58.0746 -1.0462471 131.49716 -1.0614622 131.47346 -28.532623 -56.565262
29105000000 -26.115774 -56.021851 -1.0450414 130.88745 -1.0599294 130.84784 -28.256477 -56.145569
29132500000 -25.807299 -58.761845 -1.0537353 130.26859 -1.0433538 130.31866 -28.453825 -58.772377
29160000000 -26.23741 -58.76429 -1.0783632 129.79492 -1.0634633 129.75467 -28.487413 -54.823189
29187500000 -26.179155 -56.397453 -1.0386752 129.24725 -1.0601647 129.07513 -28.06678 -55.67622
29215000000 -25.848213 -56.393974 -1.059122 128.66661 -1.0592462 128.54517 -28.097002 -56.207146
29242500000 -26.083511 -57.964088 -1.0508815 128.13821 -1.0754744 128.08389 -28.568346 -55.390324
29270000000 -25.776796 -55.47971 -1.0302562 127.55567 -1.0535882 127.5197 -27.734188 -52.787464
29297500000 -25.829966 -57.551781 -1.041261 126.99351 -1.0576792 126.83142 -28.35088 -55.02364
29325000000 -25.590845 -57.804192 -1.0604866 126.32722 -1.070495 126.5037 -28.464355 -55.502106
29352500000 -25.68763 -56.274887 -1.0708733 125.86919 -1.0584863 125.77435 -28.783037 -53.145882
29380000000 -25.481384 -56.416996 -1.0565724 125.26232 -1.0502748 125.19782 -27.844025 -56.14307
29407500000 -25.572189 -58.73035 -1.0536373 124.75945 -1.0611931 124.64874 -28.015438 -54.986225
29435000000 -25.627348 -58.098476 -1.0526661 124.20654 -1.0852367 124.1116 -27.984819 -49.377769
29462500000 -25.462351 -54.432667 -1.0567896 123.55184 -1.0725514 123.38467 -27.736944 -54.596169
29490000000 -24.948395 -57.231239 -1.0563079 123.10555 -1.0683959 123.02533 -27.990587 -53.681606
29517500000 -25.308388 -57.61533 -1.0578377 122.4218 -1.0677673 122.41036 -27.774881 -49.817036
29545000000 -25.03598 -54.581482 -1.0484699 122.07256 -1.0530365 121.95544 -27.290506 -49.792625
29572500000 -25.193893 -55.329819 -1.0643264 121.4136 -1.0805919 121.3385 -27.935839 -51.368469
29600000000 -25.091581 -60.694202 -1.0635324 120.8987 -1.0614532 120.76501 -27.71253 -48.767029
29627500000 -25.490175 -54.425297 -1.0695094 120.26622 -1.0727339 120.23341 -27.357315 -48.975285
29655000000 -24.853203 -54.967754 -1.0568005 119.64056 -1.065344 119.56009 -27.44079 -52.085651
29682500000 -24.87875 -57.74892 -1.0652732 119.23888 -1.0765648 119.25196 -27.541113 -46.506969
29710000000 -25.593634 -55.533764 -1.0771048 118.63363 -1.072387 118.64217 -27.107992 -47.470879
29737500000 -24.946186 -54.586269 -1.085601 117.95275 -1.0674144 117.99628 -27.056164 -51.609127
29765000000 -24.313829 -56.53125 -1.07029 117.52562 -1.0685141 117.45943 -27.788635 -46.579861
29792500000 -25.132833 -56.330925 -1.0947521 116.91052 -1.0732168 116.91626 -26.760159 -47.443344
29820000000 -24.923395 -52.86446 -1.0630655 116.39069 -1.0817597 116.17905 -27.078993 -49.270008
29847500000 -24.485489 -56.315887 -1.0827425 115.80893 -1.0834098 115.81127 -26.850283 -50.150993
29875000000 -24.761267 -58.472355 -1.0816185 115.36524 -1.0706434 115.28417 -26.880802 -46.814281
29902500000 -24.779226 -54.05888 -1.0646315 114.70216 -1.0915225 114.76784 -26.2533 -48.889366
29930000000 -24.394457 -55.344433 -1.0745821 114.12189 -1.0736884 114.08794 -26.44883 -48.860348
29957500000 -24.141155 -55.955112 -1.0872651 113.69263 -1.092593 113.58769 -26.768953 -46.792084
29985000000 -24.65424 -54.126053 -1.0840945 113.02999 -1.0898969 113.04963 -25.650547 -48.834854
30012500000 -24.245903 -54.695065 -1.0778294 112.48029 -1.0821928 112.46559 -26.347462 -49.430801
30040000000 -23.880793 -56.29546 -1.0843118 112.05914 -1.0983962 111.85322 -26.597849 -47.090916
30067500000 -24.495146 -56.438301 -1.0646169 111.46326 -1.0920328 111.38517 -25.850218 -47.716949
30095000000 -24.636404 -53.42889 -1.0692633 110.75389 -1.0858884 110.74304 -26.021275 -51.131294
30122500000 -23.629343 -53.950703 -1.0784091 110.32794 -1.0896058 110.30829 -26.474361 -48.270813
30150000000 -24.139277 -55.901119 -1.0801027 109.84224 -1.0820838 109.68883 -25.969021 -46.096382
30177500000 -24.06691 -53.723274 -1.0689183 109.16961 -1.0804628 109.08704 -25.476698 -50.672989
30205000000 -23.703632 -55.850708 -1.0782195 108.55108 -1.0901042 108.62091 -25.898785 -47.315681
30232500000 -23.625799 -55.231712 -1.0899365 108.11476 -1.0853516 107.98969 -26.066589 -45.870453
30260000000 -23.999285 -58.191902 -1.0892586 107.56458 -1.0868109 107.3209 -25.486347 -50.444328
30287500000 -23.471001 -55.466148 -1.0774578 106.89509 -1.0934993 106.88239 -25.717319 -49.949142
30315000000 -23.299604 -55.104275 -1.0700614 106.33913 -1.0938948 106.33141 -25.913816 -48.551746
30342500000 -23.701521 -55.416122 -1.0707699 105.79402 -1.0839241 105.77428 -25.410837 -49.455811
30370000000 -23.449593 -55.934013 -1.0839649 105.25973 -1.0749704 105.31325 -25.61315 -50.332932
30397500000 -23.110815 -57.000866 -1.0948054 104.6039 -1.104615 104.63263 -25.737265 -49.41222
30425000000 -23.588875 -57.31358 -1.0981951 104.22598 -1.0887001 104.13699 -25.265673 -48.088303
30452500000 -23.51437 -56.786854 -1.0719042 103.62699 -1.0806082 103.64358 -25.00025 -50.215652
30480000000 -22.849407 -54.44648 -1.1037635 103.11423 -1.0920165 102.99135 -25.751343 -47.999596
30507500000 -23.04019 -56.495697 -1.1044887 102.6146 -1.1115097 102.49791 -25.408241 -47.862198
30535000000 -23.189846 -55.63747 -1.0955002 102.04784 -1.0953643 101.90211 -24.741003 -50.998734
30562500000 -22.571112 -55.526493 -1.1082669 101.39936 -1.103084 101.4431 -25.561848 -47.961987
30590000000 -22.647263 -54.996601 -1.1089907 100.84917 -1.0999328 100.82345 -25.35537 -46.764278
30617500000 -22.957182 -55.956169 -1.0772285 100.36776 -1.0887077 100.3278 -24.452032 -51.09584
30645000000 -22.524866 -56.348232 -1.0899003 99.658691 -1.0782995 99.741203 -25.303356 -51.624218
30672500000 -22.292286 -57.556435 -1.0908296 99.294456 -1.1158241 99.163422 -25.246599 -48.642223
30700000000 -22.709984 -60.036461 -1.0842338 98.610199 -1.1020592 98.555519 -24.627968 -51.642254
30727500000 -22.670439 -57.346741 -1.1148077 98.075897 -1.0651414 97.923546 -25.198402 -51.175655
30755000000 -22.005682 -57.218464 -1.0930132 97.620003 -1.1050316 97.47628 -25.052647 -50.401463
30782500000 -22.617754 -60.488266 -1.0890949 96.916649 -1.1095859 96.896278 -24.477264 -49.376759
30810000000 -22.161516 -58.271194 -1.0939618 96.313759 -1.0962582 96.435936 -24.326395 -50.044746
30837500000 -22.098558 -57.637917 -1.1098633 95.953644 -1.094452 95.823288 -24.918797 -53.705566
30865000000 -22.197187 -61.079227 -1.0957944 95.247551 -1.1189231 95.33345 -24.59796 -51.585636
30892500000 -22.608747 -59.580036 -1.0758723 94.836464 -1.0796641 94.705467 -24.24424 -51.261864
30920000000 -22.049114 -58.917049 -1.0938359 94.155464 -1.1003116 94.120934 -24.880438 -54.093853
30947500000 -22.248013 -60.484592 -1.1069374 93.588814 -1.1029271 93.550606 -24.941936 -51.028999
30975000000 -22.281301 -60.740635 -1.0799811 93.047699 -1.0974388 92.95256 -23.946053 -51.653065
31002500000 -21.806452 -61.245556 -1.0776615 92.576614 -1.0912672 92.659615 -24.535543 -53.287853
31030000000 -21.908953 -59.807983 -1.0818819 92.067802 -1.1117233 91.941833 -24.661802 -53.583954
31057500000 -22.175035 -62.317268 -1.0901172 91.434372 -1.1055487 91.356598 -24.010265 -51.966698
31085000000 -21.68041 -60.005638 -1.0915105 90.938339 -1.1051714 90.903191 -24.192389 -53.476658
31112500000 -21.665905 -58.090672 -1.0901529 90.381401 -1.1033996 90.332153 -24.38065 -52.257149
31140000000 -21.909159 -61.27203 -1.0754433 89.830017 -1.0974205 90.036362 -23.703661 -51.498741
31167500000 -21.73073 -61.786327 -1.1007116 89.389763 -1.1072279 89.314178 -23.824917 -53.475555
31195000000 -21.62421 -58.42556 -1.0985501 88.704308 -1.1250644 88.605698 -24.28652 -54.997513
31222500000 -22.027634 -60.950729 -1.0946668 88.125465 -1.1032722 88.060928 -23.936359 -53.275387
31250000000 -21.787533 -62.295204 -1.1069256 87.543579 -1.1217555 87.516907 -23.704643 -54.744404
31277500000 -21.622976 -61.09605 -1.093428 87.090027 -1.109791 86.956512 -24.315739 -54.793491
31305000000 -21.730625 -61.808807 -1.1047381 86.549614 -1.1104058 86.303452 -23.973742 -54.839893
31332500000 -22.107656 -63.236725 -1.0852765 85.91555 -1.0893048 85.848946 -23.813236 -55.9062
31360000000 -21.625597 -60.137043 -1.0986681 85.401337 -1.0917648 85.300446 -24.045261 -55.348061
31387500000 -21.511263 -61.282219 -1.110743 84.784256 -1.1108079 84.838669 -23.931339 -55.311066
31415000000 -21.871557 -65.371704 -1.1024415 84.183479 -1.0922269 84.061287 -23.749762 -53.594311
31442500000 -21.289965 -61.32642 -1.0951432 83.78112 -1.0962782 83.695602 -24.111588 -56.656391
31470000000 -21.615768 -62.312424 -1.096988 83.121155 -1.1069043 82.95253 -23.804708 -56.882568
31497500000 -21.6157 -63.886135 -1.0892309 82.531738 -1.1059535 82.372116 -23.337517 -55.574276
31525000000 -21.46097 -63.391403 -1.1062133 81.905792 -1.1075062 81.984383 -23.773457 -55.528786
31552500000 -21.537937 -61.642574 -1.0835686 81.497993 -1.1041045 81.414467 -23.691017 -55.945438
31580000000 -21.525013 -64.794395 -1.1033258 80.882011 -1.0914193 80.935341 -23.4095 -56.059425
31607500000 -21.462357 -63.372772 -1.0973392 80.341881 -1.0902972 80.349182 -23.78245 -57.999947
31635000000 -21.348515 -61.739529 -1.0738827 79.759888 -1.1113037 79.853645 -23.727276 -60.307373
31662500000 -21.459755 -66.096825 -1.0843999 79.21962 -1.1011928 79.198395 -23.220087 -59.580296
31690000000 -21.58959 -66.445366 -1.1180685 78.574036 -1.1124865 78.641045 -23.170719 -57.64362
31717500000 -21.218637 -62.860424 -1.1011198 78.001884 -1.120515 78.039848 -23.603916 -59.768242
31745000000 -21.538879 -65.474586 -1.1113274 77.514496 -1.1043159 77.576736 -23.487492 -56.508003
31772500000 -21.415119 -67.076286 -1.110935 77.038025 -1.1086271 76.940849 -23.203852 -57.296783
31800000000 -21.408678 -65.052757 -1.1265072 76.530724 -1.1217819 76.433052 -23.607752 -58.813744
31827500000 -21.436411 -64.049812 -1.1046326 75.949806 -1.1098214 75.942764 -23.046305 -58.423439
31855000000 -21.411907 -68.469345 -1.0896903 75.372696 -1.1118153 75.287064 -23.19471 -57.874222
31882500000 -21.206936 -66.302589 -1.1039944 74.864098 -1.1073579 74.866165 -23.347813 -58.468243
31910000000 -21.492708 -65.149757 -1.0960863 74.35659 -1.114616 74.087601 -23.510469 -58.984154
31937500000 -21.209261 -68.731689 -1.107892 73.695152 -1.1120006 73.681435 -23.229746 -58.156113
31965000000 -21.412231 -66.473465 -1.0970836 73.200783 -1.1176955 73.074417 -23.312483 -58.133259
31992500000 -21.333477 -65.804153 -1.1068058 72.637856 -1.1166184 72.437691 -23.379219 -60.421589
32020000000 -21.195206 -69.270874 -1.0980978 72.101906 -1.1064688 72.009087 -22.990883 -59.062401
32047500000 -21.162605 -68.403725 -1.116145 71.428566 -1.1123627 71.513252 -22.999651 -60.297401
32075000000 -21.415962 -66.197578 -1.1045839 70.908333 -1.1163381 70.87616 -23.451006 -61.134018
32102500000 -20.764414 -68.272591 -1.1040381 70.483276 -1.0943128 70.254417 -23.219257 -58.970222
32130000000 -21.201166 -69.584084 -1.1023351 69.961624 -1.1167967 69.898254 -22.946087 -61.368656
32157500000 -21.329496 -66.18924 -1.0791138 69.416969 -1.1127775 69.174599 -23.120657 -61.907906
32185000000 -21.229303 -70.54744 -1.0879455 68.695099 -1.12122 68.554718 -23.465611 -60.82547
32212500000 -21.139578 -71.624672 -1.1196536 68.347153 -1.0990926 68.191574 -22.92086 -61.899704
32240000000 -21.266205 -70.895119 -1.1004471 67.578575 -1.122559 67.52829 -23.034819 -62.218632
32267500000 -21.043373 -69.921318 -1.114252 67.115013 -1.1000562 67.055473 -23.178486 -61.336494
32295000000 -20.873499 -73.342102 -1.0823994 66.507454 -1.1071414 66.489777 -23.028343 -62.009186
32322500000 -21.14813 -70.106743 -1.0868415 65.952133 -1.1109437 66.020088 -22.820423 -63.637165
32350000000 -20.929611 -70.064232 -1.1099815 65.344688 -1.1180744 65.348816 -23.224659 -62.059536
32377500000 -20.824793 -71.206535 -1.1108881 64.881065 -1.112031 64.813866 -22.997189 -58.987701
32405000000 -21.209736 -73.167091 -1.1010652 64.441635 -1.1132383 64.254425 -22.839121 -61.587421
32432500000 -21.169891 -72.560974 -1.0798829 63.738655 -1.1176475 63.668373 -23.453283 -64.34478
32460000000 -20.931494 -73.151672 -1.0974948 63.164894 -1.1262734 63.057384 -22.981985 -61.653381
32487500000 -21.056108 -73.437149 -1.1186991 62.502773 -1.1001499 62.614464 -22.65419 -63.585976
32515000000 -21.305948 -73.073212 -1.1143744 62.058472 -1.0959101 62.142742 -23.166811 -64.13195
32542500000 -21.106998 -73.981567 -1.0882195 61.503059 -1.1040294 61.339565 -22.976696 -62.347919
32570000000 -20.761192 -73.890274 -1.08557 61.027206 -1.0837035 60.959827 -22.667162 -63.597652
32597500000 -21.130644 -75.579277 -1.1137575 60.395073 -1.0953474 60.434914 -22.903112 -66.394264
32625000000 -21.277964 -74.012131 -1.0873508 59.89481 -1.0936089 59.850285 -23.169762 -63.921589
32652500000 -20.714535 -74.716438 -1.0943607 59.367908 -1.0972946 59.24511 -22.734697 -64.251411
32680000000 -21.418648 -74.619499 -1.0901022 58.755932 -1.1203274 58.551655 -22.706656 -65.469009
32707500000 -21.330568 -76.168159 -1.0877 58.154972 -1.1007829 57.999039 -23.334324 -65.927551
32735000000 -20.990236 -75.226677 -1.0944071 57.656887 -1.0906769 57.524639 -22.711193 -63.44297
32762500000 -21.057095 -77.395462 -1.1043726 56.83725 -1.1096563 57.051098 -22.563841 -66.130836
32790000000 -21.386402 -76.820183 -1.0918906 56.380524 -1.1062551 56.480347 -23.20233 -66.713974
32817500000 -20.9527 -75.930656 -1.0849867 55.789139 -1.0987592 55.878963 -22.73509 -66.705093
32845000000 -21.140732 -77.549629 -1.1011091 55.40395 -1.101446 55.403389 -22.537962 -65.928467
32872500000 -21.100161 -79.482018 -1.1000625 54.709103 -1.0911508 54.863544 -22.862333 -69.702324
32900000000 -20.99367 -77.833733 -1.0947394 54.146156 -1.1035604 54.329113 -23.053957 -66.0532
32927500000 -20.798492 -76.952385 -1.1108433 53.785748 -1.0931966 53.539352 -22.489693 -67.43396
32955000000 -21.147444 -78.777412 -1.0741783 53.054771 -1.1082318 53.21278 -22.713022 -69.15963
32982500000 -20.997417 -76.720345 -1.1038245 52.612816 -1.0948913 52.416836 -22.953663 -67.380409
33010000000 -20.754484 -76.739464 -1.0979815 51.981667 -1.1079793 52.062397 -22.44824 -67.125061
33037500000 -21.375099 -78.401894 -1.1164925 51.56073 -1.0972179 51.335308 -22.910192 -69.247505
33065000000 -21.306112 -79.816948 -1.0856508 50.816212 -1.106079 50.731693 -22.949673 -69.512192
33092500000 -21.114555 -77.662384 -1.1174757 50.363491 -1.1078857 50.297787 -22.594419 -67.98378
33120000000 -20.931692 -81.193596 -1.0934772 49.755329 -1.1120784 49.706589 -22.500509 -69.716805
33147500000 -21.164455 -80.655159 -1.0943304 49.348766 -1.1148047 49.083939 -22.93368 -70.248146
33175000000 -21.158646 -76.760353 -1.0926756 48.647938 -1.1062334 48.672455 -22.389627 -69.094086
33202500000 -21.121038 -78.548943 -1.1100338 48.096188 -1.1082451 48.017105 -22.614563 -69.336006
33230000000 -21.274847 -81.634102 -1.0797517 47.591988 -1.0957168 47.457413 -23.179918 -73.808075
33257500000 -21.146595 -80.226067 -1.0913202 46.921352 -1.0925604 46.802334 -22.977749 -71.607544
33285000000 -21.066349 -80.114334 -1.1094368 46.465603 -1.1042391 46.268017 -22.409523 -70.305283
33312500000 -21.286232 -81.243538 -1.0983148 45.936821 -1.1279622 45.775986 -22.635548 -73.015305
33340000000 -21.63504 -81.368385 -1.0872205 45.249496 -1.0886592 45.339302 -22.920483 -71.537743
33367500000 -21.254189 -79.19696 -1.105451 44.861149 -1.1095231 44.657368 -22.48085 -70.943863
33395000000 -20.933516 -81.517845 -1.1152551 44.264713 -1.113153 44.117809 -22.510265 -73.222015
33422500000 -21.46324 -80.553612 -1.0958908 43.633076 -1.1062651 43.585072 -22.39645 -74.008362
33450000000 -21.162218 -80.579086 -1.1074618 42.993752 -1.1239557 42.924572 -22.892889 -72.933594
33477500000 -21.188248 -82.513817 -1.1174644 42.640984 -1.1195964 42.354786 -22.502405 -74.156219
33505000000 -21.471725 -80.946167 -1.1228731 41.956985 -1.1291372 41.951992 -22.815317 -74.447411
33532500000 -21.242268 -78.940971 -1.1428716 41.388977 -1.1157036 41.213058 -22.629042 -74.140739
33560000000 -21.05459 -81.491447 -1.1200231 40.786732 -1.114772 40.599594 -22.660564 -75.828461
33587500000 -21.537598 -81.637688 -1.1101142 40.450684 -1.117226 40.2407 -22.524479 -74.144661
33615000000 -21.444849 -81.758827 -1.0970945 39.875648 -1.1274534 39.674053 -22.621384 -74.617447
33642500000 -21.462383 -83.240005 -1.1075072 39.132198 -1.1088467 39.081989 -22.375048 -76.375053
33670000000 -20.997942 -83.158699 -1.111397 38.65752 -1.1063592 38.53558 -22.852516 -75.668091
33697500000 -21.743551 -82.38932 -1.1151407 38.146812 -1.121165 37.999996 -22.622231 -73.274925
33725000000 -21.069242 -81.76091 -1.1137147 37.492294 -1.1125025 37.557957 -22.633533 -76.949142
33752500000 -21.268164 -81.55883 -1.1018103 36.81617 -1.112164 36.763569 -22.541105 -73.590195
33780000000 -21.623039 -84.520004 -1.103723 36.297455 -1.0810601 36.540714 -22.561729 -74.198669
33807500000 -21.81679 -81.006615 -1.1072487 35.696041 -1.106428 35.67226 -22.762552 -78.01992
33835000000 -21.023949 -82.033363 -1.1121407 35.230942 -1.1220354 35.015091 -22.838804 -77.795914
33862500000 -21.434046 -82.41964 -1.1458974 34.773857 -1.1435163 34.693905 -22.655001 -74.298302
33890000000 -21.608112 -81.410217 -1.0896714 34.124138 -1.1164131 34.224583 -22.451082 -77.855797
33917500000 -21.213301 -80.475792 -1.1051431 33.623257 -1.1341408 33.591743 -22.33477 -76.989113
33945000000 -21.360174 -83.719505 -1.1182191 33.065647 -1.1231198 33.041214 -22.900129 -76.750999
33972500000 -21.648823 -81.732948 -1.1008503 32.48634 -1.0965377 32.525963 -22.839046 -76.140877
34000000000 -21.41254 -81.420731 -1.094447 31.983864 -1.1130279 31.732933 -22.489016 -78.838455
34027500000 -21.452343 -84.180748 -1.1026669 31.411409 -1.0995927 31.332319 -23.123592 -77.517044
34055000000 -21.946068 -84.557358 -1.0950319 30.733294 -1.1288068 30.644989 -23.162729 -78.135841
34082500000 -21.413363 -81.977234 -1.077629 30.245131 -1.122802 30.190191 -22.443258 -79.455414
34110000000 -21.464911 -82.734306 -1.0868667 29.616381 -1.1186793 29.574734 -23.143854 -81.494072
34137500000 -22.179642 -83.893135 -1.1149405 29.233801 -1.1060419 29.071468 -22.964314 -81.832794
34165000000 -22.016344 -80.599586 -1.1091875 28.516563 -1.0886661 28.591673 -22.506714 -80.287712
34192500000 -21.619091 -82.803108 -1.1035582 28.001232 -1.1028961 28.017748 -22.931536 -80.730217
34220000000 -21.910578 -85.842751 -1.1161089 27.427229 -1.1202389 27.488462 -23.271278 -79.019897
34247500000 -22.171835 -82.238663 -1.1129172 27.052351 -1.1351985 26.814936 -22.692841 -81.834862
34275000000 -21.868126 -83.459015 -1.115054 26.301346 -1.1203316 26.3332 -22.792118 -78.690231
34302500000 -21.935921 -84.835136 -1.106028 25.951998 -1.1232244 25.733059 -24.023617 -80.775436
34330000000 -21.969391 -84.198593 -1.0833637 25.09137 -1.1286141 25.124712 -22.964447 -81.658623
34357500000 -21.758101 -81.890152 -1.1292385 24.77729 -1.1049284 24.653404 -22.971273 -83.075226
34385000000 -21.940315 -85.851227 -1.1270458 24.215984 -1.0981234 24.127367 -23.91432 -81.982925
34412500000 -22.29122 -84.713387 -1.1228992 23.484259 -1.0995123 23.440378 -23.234522 -81.768135
34440000000 -22.257933 -83.503067 -1.1190195 22.931934 -1.1142114 22.895309 -22.730581 -82.099243
34467500000 -22.032459 -83.552307 -1.1136277 22.388699 -1.1073936 22.285774 -23.754255 -83.663162
34495000000 -22.397345 -86.069481 -1.1088326 21.815536 -1.1344814 21.819315 -23.433226 -81.968201
34522500000 -22.425303 -84.751495 -1.1080277 21.472019 -1.1086706 21.287008 -22.91622 -80.350739
34550000000 -22.31636 -82.717743 -1.0931976 20.697166 -1.1124851 20.819677 -23.802038 -84.136002
34577500000 -22.545658 -84.953285 -1.1075302 20.315714 -1.1140418 20.079 -24.203634 -78.870804
34605000000 -22.867281 -86.404106 -1.1193556 19.715076 -1.1291677 19.489258 -23.057089 -83.709435
34632500000 -22.291378 -82.832588 -1.1266719 19.127279 -1.1106836 18.963701 -23.790255 -83.39032
34660000000 -22.472237 -86.733047 -1.1395674 18.613937 -1.1303788 18.376564 -24.357588 -83.367416
34687500000 -22.614332 -85.02446 -1.1254601 17.799929 -1.1183769 17.885263 -23.164944 -80.047424
34715000000 -22.594099 -83.094009 -1.114526 17.246332 -1.1117655 17.32802 -23.353224 -83.930573
34742500000 -22.701677 -83.228455 -1.1259456 16.781281 -1.1114585 16.805374 -24.052799 -81.95858
34770000000 -22.880487 -85.485374 -1.1276783 16.026644 -1.1486423 16.282448 -23.805576 -80.991508
34797500000 -22.902731 -81.256966 -1.1181703 15.592481 -1.1023121 15.7385 -23.482061 -88.183884
34825000000 -22.76898 -82.440041 -1.1172059 15.329804 -1.1385418 15.115176 -24.42057 -83.290611
34852500000 -22.819118 -86.809914 -1.1302572 14.634754 -1.1525322 14.409609 -24.079685 -81.159836
34880000000 -23.392424 -83.016273 -1.1218809 14.168009 -1.1380166 14.039272 -23.413767 -83.023392
34907500000 -22.908657 -80.711914 -1.1232811 13.749247 -1.1283569 13.489934 -24.280861 -85.092735
34935000000 -23.193201 -85.190666 -1.1446506 12.952016 -1.137886 12.841056 -24.494257 -83.266052
34962500000 -23.176891 -82.245941 -1.1062313 12.446448 -1.1513166 12.49785 -23.873632 -79.600685
34990000000 -23.070381 -84.816139 -1.137917 11.88561 -1.1382036 11.77359 -24.411366 -84.873375
35017500000 -22.905407 -83.3265 -1.1118885 11.513319 -1.1377307 11.197015 -24.898256 -85.322784
35045000000 -23.405939 -86.143257 -1.1155349 10.761191 -1.1497508 10.691199 -23.821169 -81.543503
35072500000 -23.152998 -81.575813 -1.1306239 10.197489 -1.137023 10.113705 -23.696268 -82.579468
35100000000 -23.217461 -85.228737 -1.1291109 9.6184254 -1.1249295 9.5748978 -24.858686 -85.139801
35127500000 -23.060144 -83.715157 -1.1164463 9.0529385 -1.1176224 8.9441462 -24.72121 -82.926537
35155000000 -23.40925 -85.324654 -1.1420681 8.5346346 -1.1419541 8.4823446 -23.994865 -81.765656
35182500000 -23.475647 -80.53418 -1.1228768 7.9886832 -1.1288044 7.9571466 -24.934435 -85.995102
35210000000 -23.105776 -87.138618 -1.1279992 7.5482512 -1.1514527 7.4610777 -25.184505 -84.408737
35237500000 -23.540787 -85.71093 -1.1167871 6.7530308 -1.1464015 6.7003899 -24.273964 -86.089775
35265000000 -23.462534 -82.819283 -1.1185068 6.229033 -1.1307993 6.1900754 -24.214252 -87.812271
35292500000 -23.486593 -83.52562 -1.122674 5.5954804 -1.1384866 5.6944613 -25.248062 -88.932693
35320000000 -24.173473 -86.408447 -1.1346542 5.1695323 -1.1404331 5.0416818 -24.267187 -80.869324
35347500000 -23.802118 -82.002762 -1.1324576 4.6036353 -1.123032 4.4275126 -24.550411 -86.197197
35375000000 -23.486858 -87.192902 -1.1259983 4.0350914 -1.1333464 3.9040763 -25.291319 -87.359207
35402500000 -23.883219 -85.643364 -1.1406347 3.4828718 -1.1003103 3.3709927 -24.11434 -83.580093
35430000000 -23.813433 -83.523041 -1.1165009 2.9451425 -1.1442194 2.8624351 -24.631086 -86.17794
35457500000 -23.788054 -85.087555 -1.1210631 2.3887491 -1.1558555 2.4451375 -25.839512 -86.046364
35485000000 -23.632246 -82.785889 -1.1376591 1.844296 -1.1617358 1.6130167 -26.074024 -85.013451
35512500000 -24.574646 -83.470757 -1.1047928 1.5253445 -1.1448749 1.0666476 -24.375927 -84.453789
35540000000 -23.690037 -81.862923 -1.1692321 0.71442837 -1.166418 0.73490196 -25.606926 -88.755936
35567500000 -24.232866 -86.794441 -1.1288719 0.23405103 -1.1175594 0.24928649 -24.914799 -81.216629
35595000000 -23.917551 -82.003044 -1.1491748 -0.24420978 -1.1352448 -0.45814726 -24.946508 -84.01857
35622500000 -24.198776 -80.16507 -1.1497169 -0.65934551 -1.1734293 -0.92919207 -25.274296 -90.353607
35650000000 -24.374271 -83.094078 -1.1281946 -1.6979998 -1.1235708 -1.6414108 -25.954617 -87.838982
35677500000 -24.793905 -83.641434 -1.1345644 -1.94584 -1.1462641 -2.096885 -24.951952 -80.04612
35705000000 -24.968906 -80.547783 -1.106089 -2.5881214 -1.1602718 -2.643703 -25.075146 -86.366058
35732500000 -24.020115 -82.580231 -1.1315274 -3.0253792 -1.1501536 -3.2292964 -25.302248 -89.68232
35760000000 -24.213541 -79.604782 -1.1355612 -3.7526896 -1.1256541 -3.7362814 -25.614237 -85.898499
35787500000 -24.058979 -79.986649 -1.1407262 -4.3201475 -1.1494726 -4.1984119 -24.982553 -88.429451
35815000000 -24.101557 -83.881088 -1.1371424 -4.7600451 -1.1608828 -4.7102804 -26.02257 -87.942749
35842500000 -24.236601 -85.113983 -1.1474115 -5.1427031 -1.1189877 -5.4477315 -25.837202 -84.913773
35870000000 -24.916059 -80.82737 -1.1423281 -6.0071821 -1.1270428 -6.091002 -25.490526 -85.942245
35897500000 -24.670904 -80.163536 -1.1508942 -6.3629823 -1.1304896 -6.5013604 -25.909676 -91.588875
35925000000 -24.515347 -81.311432 -1.110146 -7.0841789 -1.121539 -7.2448707 -25.534575 -93.863754
35952500000 -24.641418 -79.287262 -1.1174014 -7.7068815 -1.1113424 -7.7575788 -25.982145 -90.807877
35980000000 -24.518238 -80.551048 -1.135034 -7.9376688 -1.1336226 -8.2138853 -25.304966 -92.712624
36007500000 -24.598589 -80.493073 -1.1126208 -8.654397 -1.1408464 -8.5954504 -25.909475 -88.839233
36035000000 -24.721779 -81.196548 -1.1163914 -9.0585194 -1.0936631 -9.4826193 -26.319155 -88.410385
36062500000 -24.778555 -74.010513 -1.0954922 -9.8858356 -1.1252412 -9.7560863 -25.95759 -93.034073
36090000000 -24.379448 -79.389099 -1.143591 -10.399807 -1.1265012 -10.353872 -26.206854 -91.799118
36117500000 -24.541159 -79.932915 -1.1136895 -10.858502 -1.1114428 -10.888105 -27.195065 -87.509979
36145000000 -25.011795 -75.467377 -1.0871501 -11.702305 -1.1233102 -11.701876 -26.312 -85.93119
36172500000 -24.86521 -77.581802 -1.117294 -12.226034 -1.1357319 -12.215829 -26.470881 -94.405739
36200000000 -25.331055 -78.217407 -1.125894 -12.531416 -1.1089011 -12.591354 -27.299006 -90.549057
36227500000 -25.406359 -76.123535 -1.08522 -13.309365 -1.1521981 -13.408375 -26.56242 -88.289612
36255000000 -24.42845 -73.594688 -1.144563 -13.950793 -1.1246693 -13.849936 -27.033577 -91.079803
36282500000 -24.955738 -78.482414 -1.1350358 -14.28752 -1.1306025 -14.342369 -28.053255 -87.903809
36310000000 -25.108107 -76.883453 -1.0954369 -15.155257 -1.1306001 -14.842174 -28.75848 -91.456688
36337500000 -25.200047 -74.642838 -1.1480805 -15.730544 -1.127143 -15.549623 -28.30435 -91.787399
36365000000 -24.415632 -73.615456 -1.158795 -16.214443 -1.1119708 -16.112638 -28.73679 -90.528061
36392500000 -24.670174 -75.143471 -1.1229119 -17.017248 -1.1460682 -16.68029 -28.137766 -90.157219
36420000000 -25.35372 -68.288467 -1.149085 -17.64834 -1.1235135 -17.178072 -27.536652 -88.264534
36447500000 -25.257383 -75.815369 -1.1374565 -17.586699 -1.1434674 -17.687092 -28.432228 -86.10659
36475000000 -24.384342 -74.351746 -1.1235265 -18.349113 -1.1196734 -18.388615 -29.299482 -92.732651
36502500000 -25.796223 -67.763466 -1.124936 -18.942211 -1.1570559 -19.019526 -28.544922 -73.129745
36530000000 -25.363974 -67.090614 -1.1742996 -19.418938 -1.1547632 -19.568268 -27.911631 -82.335014
36557500000 -24.716961 -72.170341 -1.1273035 -19.90324 -1.1706202 -19.964867 -30.157602 -84.111816
36585000000 -24.855169 -69.047859 -1.1352072 -20.52174 -1.1739651 -20.617107 -28.986553 -83.906265
36612500000 -25.737741 -67.154861 -1.1216041 -21.523602 -1.1316316 -21.162142 -26.379486 -81.607788
36640000000 -24.361763 -70.17186 -1.1181806 -21.6863 -1.1886361 -21.717951 -29.848045 -85.24823
36667500000 -24.862574 -65.791893 -1.134589 -22.143217 -1.1807777 -22.394693 -30.133852 -79.25267
36695000000 -25.598064 -65.324562 -1.149622 -22.893074 -1.1273857 -22.798067 -29.30957 -73.794586
36722500000 -24.653793 -68.680473 -1.1538793 -23.212818 -1.1661234 -23.28059 -28.415022 -77.125595
36750000000 -23.973597 -64.66906 -1.1468434 -23.892498 -1.2093967 -24.01679 -30.124111 -89.963272
36777500000 -25.315559 -62.003994 -1.1516254 -24.512938 -1.1447291 -24.635267 -28.651314 -72.890633
36805000000 -24.818338 -65.817459 -1.1644247 -25.061865 -1.1480235 -25.02919 -29.335686 -71.668404
36832500000 -24.368345 -67.363205 -1.1463271 -25.592436 -1.1387844 -25.635258 -30.264883 -82.513794
36860000000 -25.970495 -62.41312 -1.1632768 -26.099049 -1.1561579 -26.023237 -29.019619 -69.579117
36887500000 -24.329945 -67.406639 -1.1324123 -26.527435 -1.1755319 -26.672207 -29.174372 -72.272621
36915000000 -23.933441 -63.485283 -1.1420439 -27.026026 -1.1815886 -26.894402 -30.421368 -76.91394
36942500000 -24.617426 -59.265526 -1.1292307 -27.735155 -1.1335077 -27.810514 -29.474592 -69.650528
36970000000 -24.625546 -63.756096 -1.1274686 -28.340925 -1.2035586 -28.312496 -28.825781 -71.516518
36997500000 -23.940935 -61.567844 -1.1776295 -28.826206 -1.1652797 -29.054871 -30.600719 -79.351593
37025000000 -24.496098 -60.929092 -1.1644362 -29.422132 -1.1572735 -29.566681 -30.747107 -79.565155
37052500000 -25.175102 -56.38575 -1.1524712 -29.90098 -1.1511915 -29.945555 -29.643929 -63.082535
37080000000 -23.833025 -61.567509 -1.1666012 -30.570871 -1.1735642 -30.556559 -30.034876 -65.391052
37107500000 -24.42268 -55.767445 -1.1427777 -31.104204 -1.1863573 -31.161304 -31.31004 -67.104851
37135000000 -24.663609 -57.933113 -1.146955 -31.899637 -1.1841546 -31.710796 -29.917461 -52.8153
37162500000 -23.966753 -61.198845 -1.1392931 -32.292049 -1.1612713 -32.289829 -30.380377 -53.589775
37190000000 -23.676744 -60.432434 -1.1801196 -32.808407 -1.1570721 -33.151482 -30.416792 -64.468849
37217500000 -25.440857 -54.585838 -1.1595546 -33.208187 -1.1707853 -33.420746 -30.210602 -51.987606
37245000000 -23.984673 -59.701221 -1.1901424 -33.985619 -1.1706303 -34.014725 -30.5112 -51.082748
37272500000 -23.670429 -54.84248 -1.1668897 -34.261799 -1.1770561 -34.586651 -30.860041 -59.25396
37300000000 -25.071836 -57.681652 -1.201685 -34.993668 -1.1840421 -35.042831 -29.239618 -49.598392
37327500000 -24.039639 -56.977757 -1.1697336 -35.58971 -1.1499708 -35.544498 -29.830833 -43.42358
37355000000 -22.864853 -55.228546 -1.1446762 -36.161289 -1.1864921 -36.237766 -29.384428 -52.800011
37382500000 -24.548943 -51.461399 -1.1903324 -36.908852 -1.1839652 -36.825947 -29.868643 -55.408001
37410000000 -24.186525 -57.38311 -1.1676934 -37.209167 -1.1574925 -37.408211 -28.718439 -45.422482
37437500000 -23.24637 -54.066135 -1.1570063 -37.755863 -1.1854414 -37.993267 -28.992105 -44.477341
37465000000 -24.186295 -53.132111 -1.1850747 -38.258892 -1.1879489 -38.224998 -29.103626 -53.534531
37492500000 -24.907597 -52.128345 -1.1685007 -38.810326 -1.1702772 -38.869141 -28.344397 -46.923218
37520000000 -23.280203 -52.958458 -1.1730311 -39.281368 -1.1699417 -39.419258 -28.943205 -39.391697
37547500000 -23.554243 -54.013268 -1.199501 -40.023315 -1.2013317 -40.106232 -28.847469 -53.054966
37575000000 -24.616539 -56.400757 -1.142211 -40.475197 -1.2001795 -40.767139 -29.128973 -46.991817
37602500000 -23.400852 -51.550381 -1.1729134 -40.980507 -1.1676182 -41.166512 -28.160139 -38.380768
37630000000 -23.090303 -51.389977 -1.1524023 -41.684464 -1.1786484 -41.738132 -28.055475 -44.416431
37657500000 -24.031565 -56.954803 -1.152131 -42.2831 -1.1979431 -42.355423 -29.202887 -49.339371
37685000000 -23.350922 -51.687729 -1.1742145 -42.67503 -1.1607462 -42.972069 -30.037079 -33.744495
37712500000 -22.685966 -49.810982 -1.1815354 -43.409843 -1.2085644 -43.354767 -28.40937 -41.965313
37740000000 -23.8999 -49.808914 -1.1790593 -44.058716 -1.2006968 -43.713242 -28.752726 -35.425858
37767500000 -22.862438 -50.223049 -1.1589127 -44.618782 -1.1723152 -44.369061 -29.444986 -36.419544
37795000000 -23.086201 -49.483784 -1.1692172 -45.012978 -1.1742253 -45.128502 -28.07119 -31.427374
37822500000 -23.21232 -49.778347 -1.2012665 -45.361259 -1.2024289 -45.828758 -28.465656 -43.669151
37850000000 -23.807404 -49.468727 -1.1599755 -46.178261 -1.1955463 -46.100189 -28.718729 -31.706039
37877500000 -22.978174 -48.264858 -1.1628389 -46.726753 -1.1965609 -46.741074 -28.082968 -31.546738
37905000000 -23.217731 -49.205067 -1.2027564 -47.382217 -1.1765137 -47.273933 -27.19434 -39.821598
37932500000 -23.035427 -53.011608 -1.1646413 -47.518688 -1.1749592 -47.710438 -27.880106 -32.560574
37960000000 -22.572903 -45.355343 -1.1716168 -48.277203 -1.1936711 -48.554832 -27.622581 -34.089333
37987500000 -22.671881 -50.059792 -1.1607113 -49.046734 -1.2095892 -48.744473 -26.381308 -33.442581
38015000000 -23.05801 -50.336102 -1.1772509 -49.501202 -1.2173342 -49.390423 -26.96958 -42.398628
38042500000 -22.717503 -49.072586 -1.192232 -49.932652 -1.2150434 -50.065163 -27.474527 -27.872265
38070000000 -22.722357 -46.427284 -1.1904876 -50.507221 -1.1903136 -50.538864 -26.023623 -30.207014
38097500000 -22.857306 -48.474922 -1.1485893 -51.011017 -1.2075726 -51.178352 -28.146311 -32.455353
38125000000 -22.590528 -45.204342 -1.1786382 -51.792023 -1.198918 -51.656063 -27.475767 -30.408102
38152500000 -22.093939 -45.598118 -1.2090468 -52.179996 -1.2023022 -52.310234 -27.092386 -30.541834
38180000000 -22.161785 -49.720242 -1.1818962 -52.792831 -1.2093751 -52.865009 -26.655245 -35.3036
38207500000 -22.651726 -43.887363 -1.1516227 -53.334694 -1.1957078 -53.281006 -27.614689 -30.002733
38235000000 -22.589025 -44.478413 -1.1755763 -53.861839 -1.1921066 -54.258305 -26.989384 -28.824837
38262500000 -21.963146 -46.123783 -1.1789781 -54.469299 -1.196717 -54.588768 -26.714563 -29.359592
38290000000 -22.389002 -47.290482 -1.1749351 -54.89249 -1.2261581 -55.16399 -26.562014 -28.555687
38317500000 -21.907125 -43.212833 -1.1729717 -55.474625 -1.2112455 -55.625454 -26.828377 -24.643799
38345000000 -22.228642 -40.262444 -1.1878214 -56.03043 -1.2016188 -56.213238 -26.247652 -25.440081
38372500000 -21.996536 -48.655064 -1.2026945 -56.626297 -1.1659186 -56.579025 -26.830288 -29.506958
38400000000 -21.665787 -43.984627 -1.2209022 -57.257236 -1.173514 -57.44952 -26.318594 -32.493584
38427500000 -21.450567 -44.819927 -1.1730999 -57.64481 -1.2200811 -58.035892 -25.688911 -30.394541
38455000000 -21.355436 -42.576653 -1.1870159 -58.487827 -1.1790124 -58.497032 -26.02117 -28.917034
38482500000 -21.769712 -43.895885 -1.1770618 -58.861191 -1.1844878 -58.951862 -26.399431 -31.034571
38510000000 -21.444256 -41.095509 -1.1758349 -59.670116 -1.1736836 -59.73489 -26.02792 -28.333332
38537500000 -21.77726 -45.209774 -1.1943274 -59.91552 -1.2059437 -60.164986 -25.712053 -27.78517
38565000000 -21.582142 -48.280636 -1.1800021 -60.544533 -1.2226362 -60.375862 -26.060867 -32.487804
38592500000 -21.332209 -46.200287 -1.1792674 -61.291161 -1.206336 -61.361664 -25.51959 -27.602404
38620000000 -20.799549 -43.11322 -1.1820821 -61.841141 -1.2309444 -61.760696 -25.344049 -27.417986
38647500000 -21.290022 -46.648026 -1.1703806 -62.21273 -1.1759859 -62.137962 -25.86389 -27.215311
38675000000 -21.403191 -42.422436 -1.2079849 -62.879787 -1.1862001 -62.975826 -25.275547 -30.497417
38702500000 -20.947733 -42.729454 -1.205713 -63.553032 -1.2190218 -63.67149 -24.96549 -25.310719
38730000000 -20.764357 -45.852249 -1.1871166 -63.77586 -1.1978002 -64.073341 -25.514853 -27.509995
38757500000 -20.825184 -47.027103 -1.2014818 -64.510956 -1.1925621 -64.252296 -24.306641 -35.372421
38785000000 -20.977596 -42.544975 -1.1936533 -65.231834 -1.1989739 -65.076927 -24.750439 -26.536558
38812500000 -20.981077 -48.42046 -1.2059669 -65.611244 -1.2183422 -65.273643 -25.018047 -29.20727
38840000000 -21.040451 -45.166763 -1.1952251 -66.111488 -1.1885425 -66.325996 -25.315594 -26.187222
38867500000 -20.552479 -42.621704 -1.2081012 -66.867447 -1.2341807 -66.740524 -24.740419 -22.669165
38895000000 -20.647327 -43.664719 -1.2089316 -66.958237 -1.2212626 -67.292244 -24.627354 -26.060598
38922500000 -20.454357 -46.844547 -1.1737936 -67.671707 -1.2167593 -67.8871 -24.744608 -32.927254
38950000000 -20.569336 -43.187832 -1.2300447 -68.521034 -1.211159 -68.779938 -24.126841 -23.298576
38977500000 -20.64023 -44.159538 -1.2209448 -68.811684 -1.1916697 -68.951965 -24.535164 -22.006031
39005000000 -20.274734 -46.15102 -1.1945558 -69.514931 -1.2121954 -69.295006 -25.057617 -31.967485
39032500000 -20.196596 -43.943611 -1.2034571 -70.098015 -1.1890087 -70.273094 -23.895638 -27.723824
39060000000 -20.533232 -43.299583 -1.2200581 -70.755371 -1.2340767 -70.668625 -23.955608 -24.555908
39087500000 -20.001347 -46.071068 -1.1678915 -71.038643 -1.2285615 -70.98304 -24.169544 -24.012611
39115000000 -20.59066 -47.671268 -1.1978923 -71.832626 -1.1828257 -71.53875 -23.889015 -26.028332
39142500000 -20.245972 -43.938065 -1.1964681 -72.29895 -1.2486653 -72.331528 -24.366442 -26.015865
39170000000 -19.837641 -45.499168 -1.210682 -72.612442 -1.1945486 -72.830803 -23.653725 -23.267641
39197500000 -19.567671 -45.789322 -1.1452752 -73.266045 -1.1652442 -73.477333 -23.537527 -29.744036
39225000000 -20.161638 -43.99651 -1.2021626 -73.979012 -1.2032989 -73.982834 -24.229404 -29.553587
39252500000 -19.833519 -48.662018 -1.225104 -74.404732 -1.2137879 -74.455208 -23.672476 -24.313587
39280000000 -19.351536 -52.487869 -1.1843501 -75.323753 -1.208763 -74.877808 -23.456028 -31.623264
39307500000 -20.11784 -43.001858 -1.2036132 -75.561371 -1.2297567 -75.82373 -22.927847 -29.538254
39335000000 -19.143278 -46.383286 -1.2048897 -76.107407 -1.2327137 -76.230034 -23.369658 -25.62211
39362500000 -19.137726 -45.960041 -1.2345682 -76.609459 -1.2286021 -76.377602 -23.197887 -24.407103
39390000000 -19.980713 -46.101532 -1.2032379 -77.504478 -1.1602294 -77.410538 -22.610004 -28.494162
39417500000 -19.466911 -48.458645 -1.2078795 -77.849365 -1.2184906 -77.963852 -23.028091 -23.516785
39445000000 -18.924929 -47.650257 -1.2167405 -78.344185 -1.201858 -78.543968 -23.052473 -27.138355
39472500000 -19.013771 -45.089943 -1.191106 -78.724419 -1.1641963 -79.071953 -23.081699 -29.953335
39500000000 -19.999495 -49.426666 -1.2214793 -79.783966 -1.1926551 -79.438141 -22.894184 -26.985741
39527500000 -19.121628 -47.268982 -1.2369829 -79.941925 -1.2362427 -79.971069 -23.26329 -26.916309
39555000000 -19.428268 -48.07806 -1.203216 -80.777412 -1.2119684 -80.838287 -22.218376 -35.179413
39582500000 -19.245867 -49.876755 -1.1622469 -81.325912 -1.1559633 -81.02047 -22.649172 -31.552694
39610000000 -18.780699 -49.60862 -1.1977575 -81.922256 -1.2337958 -81.813049 -22.868608 -26.038794
39637500000 -18.9158 -48.112293 -1.2162236 -82.296623 -1.2262336 -81.97023 -22.140602 -27.386795
39665000000 -19.60849 -48.669914 -1.1773398 -83.05542 -1.2159448 -83.323822 -21.95681 -30.632992
39692500000 -18.495487 -51.246178 -1.2337115 -83.260628 -1.2249416 -83.415581 -23.104046 -31.269583
39720000000 -18.979095 -50.059132 -1.2085675 -83.870224 -1.1944027 -84.128929 -22.012949 -26.281586
39747500000 -19.525919 -50.129326 -1.1248041 -84.55806 -1.1969452 -84.553612 -21.264668 -35.973656
39775000000 -19.013927 -52.753269 -1.215313 -85.07943 -1.2215089 -85.048401 -22.497902 -30.955969
39802500000 -18.457233 -49.532532 -1.2327855 -85.949371 -1.2249818 -85.416817 -22.238522 -28.390705
39830000000 -18.782396 -48.669819 -1.1844273 -85.892723 -1.2185478 -86.356361 -21.449806 -33.387222
39857500000 -18.942329 -51.664593 -1.1830813 -86.863106 -1.2136328 -86.902061 -22.286312 -31.543461
39885000000 -18.818165 -49.27673 -1.2392237 -87.460052 -1.2207147 -87.285225 -22.214785 -27.532169
39912500000 -18.751005 -50.123569 -1.2256136 -87.620018 -1.2159996 -88.031364 -21.059193 -33.877949
39940000000 -18.665894 -53.369221 -1.2205065 -88.363419 -1.2281487 -88.513702 -21.489691 -37.233955
39967500000 -18.376404 -50.891384 -1.2327446 -88.939743 -1.2276568 -89.254341 -22.368549 -29.611053
39995000000 -18.752966 -51.639915 -1.2417959 -89.431923 -1.1909651 -89.689117 -21.437565 -27.581266
40022500000 -19.045904 -53.895569 -1.2383826 -89.694084 -1.220417 -90.238792 -21.403032 -33.885109
40050000000 -18.167212 -51.769554 -1.2167771 -90.650703 -1.2131287 -90.872124 -21.672869 -31.581972
40077500000 -18.825127 -49.412735 -1.2503711 -91.347717 -1.2864084 -91.167862 -21.42555 -31.046715
40105000000 -18.694355 -55.206257 -1.2141021 -91.831818 -1.2077876 -91.649132 -20.965843 -32.897186
40132500000 -18.486359 -51.380016 -1.2121453 -92.2659 -1.224849 -92.490639 -21.52574 -32.871319
40160000000 -18.577291 -53.438782 -1.2174842 -93.239929 -1.2470521 -93.107437 -21.06139 -34.22747
40187500000 -18.621876 -57.723488 -1.2026246 -93.493507 -1.2451948 -93.64167 -20.269203 -34.925858
40215000000 -18.102221 -53.370125 -1.2044681 -93.90345 -1.2055757 -94.132103 -20.772551 -33.194061
40242500000 -18.261818 -51.368027 -1.2504381 -94.669884 -1.2740943 -94.761505 -22.085667 -30.780565
40270000000 -18.563253 -55.321655 -1.2332398 -95.050453 -1.2451618 -95.078232 -20.549601 -34.203079
40297500000 -18.334675 -57.058723 -1.2304078 -95.9916 -1.2466819 -95.567963 -21.007523 -36.202671
40325000000 -18.15675 -54.596386 -1.2295681 -96.501518 -1.2128658 -96.420769 -21.162664 -34.745388
40352500000 -18.172832 -57.026749 -1.210039 -96.769562 -1.2381811 -96.784126 -20.494362 -35.739708
40380000000 -18.410742 -56.231106 -1.219503 -97.485428 -1.2247895 -97.467323 -20.499088 -37.604885
40407500000 -18.041124 -54.638939 -1.2642953 -97.912041 -1.2210606 -97.953621 -21.203255 -35.822887
40435000000 -18.405632 -55.592556 -1.2481484 -98.286697 -1.2331889 -98.682617 -20.951218 -35.579082
40462500000 -18.248882 -59.406761 -1.2245195 -98.960327 -1.2483963 -99.049911 -20.629353 -37.973381
40490000000 -17.931801 -54.319588 -1.2298849 -99.671806 -1.2511491 -99.505295 -20.615208 -36.897678
40517500000 -18.077835 -57.884346 -1.2256497 -100.35751 -1.2479818 -100.10385 -20.891506 -33.931259
40545000000 -17.996822 -58.196552 -1.2518932 -100.72803 -1.2433549 -100.76747 -20.353451 -37.989361
40572500000 -18.1696 -55.963989 -1.2360483 -101.32427 -1.2345184 -101.04158 -20.479952 -38.953247
40600000000 -17.937361 -56.636051 -1.2425147 -101.7164 -1.2644197 -101.84653 -20.827305 -34.59869
40627500000 -17.982603 -58.887371 -1.2028145 -102.26821 -1.2358636 -102.51485 -20.311905 -37.915176
40655000000 -18.22817 -55.106125 -1.2375811 -102.96669 -1.2566702 -102.81879 -20.041357 -40.813358
40682500000 -17.921776 -56.994747 -1.2316067 -103.29889 -1.2759095 -103.63425 -20.747929 -38.644802
40710000000 -17.475836 -61.651619 -1.2218912 -104.11459 -1.2544684 -104.15796 -20.175161 -36.394962
40737500000 -17.858665 -57.915073 -1.2742013 -104.65443 -1.245589 -104.67233 -20.003571 -39.657879
40765000000 -17.810009 -57.617344 -1.2984622 -105.03271 -1.2285581 -105.16298 -20.082977 -36.892387
40792500000 -17.559494 -61.788773 -1.2511356 -105.73425 -1.2480584 -105.64828 -20.17889 -37.331692
40820000000 -17.50415 -60.355556 -1.2555208 -106.29036 -1.2449965 -106.02074 -19.823187 -38.610428
40847500000 -17.835312 -57.688679 -1.2368839 -106.44859 -1.2388412 -106.81422 -20.208937 -41.69677
40875000000 -17.329657 -57.377586 -1.2562619 -107.51728 -1.2194732 -107.23196 -20.414835 -38.257866
40902500000 -18.033407 -60.290436 -1.2662934 -107.96423 -1.266017 -107.85011 -20.007263 -41.768742
40930000000 -17.496572 -57.815422 -1.3172648 -108.3914 -1.2626817 -108.48306 -20.053545 -42.963341
40957500000 -17.509809 -60.046173 -1.2715279 -108.4855 -1.2406712 -109.06676 -20.357109 -40.141628
40985000000 -17.357653 -61.991543 -1.2171245 -109.52381 -1.2455759 -109.64297 -19.606152 -40.041725
41012500000 -17.988663 -61.314342 -1.2700632 -110.21547 -1.2460421 -110.19699 -20.161285 -43.161995
41040000000 -17.374693 -59.084034 -1.258026 -110.33498 -1.2715682 -110.7126 -20.452421 -40.342384
41067500000 -17.578075 -60.965633 -1.2134922 -110.92077 -1.2494178 -111.25347 -19.505753 -38.431767
41095000000 -17.438114 -59.549736 -1.2397182 -111.86436 -1.2370865 -111.62492 -19.169672 -43.554741
41122500000 -17.752913 -57.450054 -1.2694203 -112.4074 -1.2337981 -112.22771 -19.824854 -42.627178
41150000000 -17.208216 -63.264259 -1.2302072 -112.81088 -1.259668 -112.99473 -19.438009 -42.354378
41177500000 -17.778379 -63.328442 -1.3287475 -113.43591 -1.2835995 -113.31273 -20.06469 -46.383366
41205000000 -17.661896 -61.357727 -1.2947747 -113.95961 -1.3035856 -114.08797 -19.43821 -43.326378
41232500000 -16.917849 -59.815907 -1.2428321 -114.49956 -1.2507958 -114.58537 -19.608427 -44.422176
41260000000 -17.466707 -65.234192 -1.2274337 -114.96443 -1.2313153 -115.11903 -19.616354 -42.879971
41287500000 -17.722216 -62.742329 -1.2370298 -115.73253 -1.2791624 -115.63718 -19.651661 -43.182674
41315000000 -17.158175 -61.017475 -1.2868227 -116.15783 -1.2537636 -116.2387 -19.649429 -45.160259
41342500000 -17.273315 -61.316772 -1.2593306 -116.73694 -1.266345 -116.60433 -19.812967 -44.081108
41370000000 -17.620731 -64.447044 -1.2477973 -117.45187 -1.2580651 -117.3987 -19.395472 -44.89661
41397500000 -17.395681 -61.728943 -1.3064911 -117.89001 -1.250524 -117.75537 -19.523108 -42.755398
41425000000 -17.054804 -63.53968 -1.2801614 -118.563 -1.2538742 -118.68003 -19.143045 -43.933174
41452500000 -17.509779 -68.773575 -1.2093382 -118.93007 -1.2757821 -119.15589 -19.446104 -44.934772
41480000000 -17.172512 -61.722263 -1.2607825 -119.43056 -1.2402734 -119.33795 -19.633808 -44.453102
41507500000 -16.890335 -64.78791 -1.266381 -120.24004 -1.2352591 -119.83192 -19.223438 -45.439236
41535000000 -16.911276 -67.476364 -1.1764451 -120.71962 -1.2345618 -120.58808 -19.355556 -47.798298
41562500000 -17.370806 -67.905342 -1.2876774 -121.05656 -1.2728099 -121.11324 -19.133705 -47.315037
41590000000 -16.861958 -63.86681 -1.244276 -121.63728 -1.2774609 -121.60021 -19.344868 -46.460598
41617500000 -17.066841 -67.859558 -1.2349044 -122.47073 -1.2067724 -122.52433 -19.393574 -49.273888
41645000000 -17.59866 -68.155457 -1.2601603 -122.92876 -1.2870479 -122.83505 -19.413542 -49.806553
41672500000 -17.238211 -64.524765 -1.2450117 -123.14521 -1.276917 -123.30557 -19.406744 -46.537334
41700000000 -16.993202 -69.53511 -1.2403119 -123.9994 -1.2221237 -123.8282 -19.121798 -50.333744
41727500000 -17.284372 -71.216103 -1.2642409 -124.46517 -1.3021894 -124.65709 -19.537241 -50.17173
41755000000 -17.513044 -65.975143 -1.240182 -124.93649 -1.3123279 -125.04337 -19.593803 -46.62117
41782500000 -17.288391 -68.058495 -1.1913658 -125.48502 -1.2567321 -125.55519 -18.884754 -50.649647
41810000000 -17.039454 -69.205223 -1.2177029 -126.46355 -1.2403284 -126.20407 -19.409313 -53.345062
41837500000 -17.584499 -66.536133 -1.2880312 -126.8652 -1.2242055 -126.84832 -19.311684 -50.346474
41865000000 -16.766998 -67.71727 -1.2615895 -126.93732 -1.2385998 -127.21118 -18.823351 -49.303299
41892500000 -16.820597 -73.485764 -1.1965139 -127.83858 -1.2272049 -127.73174 -18.988365 -51.915592
41920000000 -17.493803 -69.144936 -1.2684952 -128.60684 -1.255378 -128.63805 -19.768965 -51.96381
41947500000 -17.492764 -68.01873 -1.2627581 -128.84802 -1.26735 -129.18637 -19.026569 -52.485283
41975000000 -17.088661 -71.471489 -1.1796998 -129.32831 -1.2191751 -129.16658 -19.014589 -53.250561
42002500000 -17.418713 -71.682091 -1.2265512 -130.00955 -1.2221457 -130.02611 -19.757742 -51.156132
42030000000 -17.475296 -67.8451 -1.2563515 -130.30518 -1.2713395 -130.90356 -19.583939 -52.922375
42057500000 -16.803308 -73.476021 -1.1646856 -131.13875 -1.2950778 -131.03152 -19.009375 -52.126225
42085000000 -17.213833 -73.928185 -1.2368057 -131.53522 -1.2572068 -132.04179 -19.719784 -55.508331
42112500000 -17.306095 -72.240654 -1.3089429 -132.15717 -1.277685 -132.33868 -19.464882 -52.877674
42140000000 -16.956184 -67.924004 -1.2547221 -132.82709 -1.2873957 -132.74905 -18.837576 -56.339016
42167500000 -17.175022 -75.615021 -1.2523878 -133.5264 -1.227061 -133.56772 -19.134972 -58.223431
42195000000 -17.80024 -72.979645 -1.2310327 -133.78148 -1.2588326 -134.4071 -19.573864 -55.560013
42222500000 -17.579384 -71.384193 -1.2962855 -134.55539 -1.2385126 -134.50294 -18.404123 -55.010651
42250000000 -17.29793 -74.611252 -1.1906995 -135.17603 -1.249181 -135.11041 -19.085529 -57.277557
42277500000 -17.903425 -75.345016 -1.2572119 -135.74371 -1.2418128 -135.9026 -19.452837 -58.533642
42305000000 -17.556395 -74.062172 -1.2602751 -136.33109 -1.2815433 -136.42242 -18.619007 -53.590538
42332500000 -16.894398 -73.114342 -1.2430772 -136.84106 -1.2337164 -136.57759 -18.788673 -56.051952
42360000000 -18.234859 -75.001137 -1.2535446 -137.42334 -1.254287 -137.4783 -19.58979 -58.99604
42387500000 -17.170349 -76.954102 -1.2865143 -138.20126 -1.2266487 -138.27393 -19.236317 -54.150536
42415000000 -17.021675 -76.297714 -1.2676296 -138.43878 -1.2357177 -138.42776 -18.927977 -57.362839
42442500000 -17.662407 -76.880913 -1.2208138 -138.99393 -1.2701329 -139.12093 -19.551615 -60.694782
42470000000 -17.543171 -76.853394 -1.2341325 -139.57042 -1.2680945 -140.11679 -19.656702 -56.014584
42497500000 -17.537844 -73.102158 -1.2484956 -139.93372 -1.2887009 -140.13365 -18.625919 -60.837471
42525000000 -17.771402 -77.374252 -1.3011483 -140.68774 -1.2223713 -140.58638 -19.648077 -59.854061
42552500000 -18.370594 -79.025719 -1.2494509 -141.22668 -1.2480022 -141.27248 -19.892273 -56.006702
42580000000 -17.676022 -75.51236 -1.2038465 -141.70369 -1.2939444 -142.08072 -18.993526 -53.3377
42607500000 -17.705832 -79.607399 -1.2545714 -142.56084 -1.2776128 -142.42557 -19.032135 -58.097767
42635000000 -18.026114 -79.059143 -1.2015897 -142.80249 -1.2129034 -142.78357 -20.00979 -63.326447
42662500000 -17.7215 -75.081924 -1.2787371 -143.68102 -1.2457386 -143.57811 -19.537338 -54.649426
42690000000 -17.873453 -77.669563 -1.323997 -143.92 -1.2587482 -143.80521 -19.590584 -56.269814
42717500000 -18.026337 -82.23111 -1.2328126 -144.46782 -1.2545099 -144.73689 -19.90521 -65.207664
42745000000 -17.572578 -76.43438 -1.2367781 -144.59621 -1.2387871 -145.26599 -19.223433 -56.555229
42772500000 -17.229797 -75.869377 -1.2819418 -145.39206 -1.2572991 -145.54837 -18.779257 -62.921635
42800000000 -17.577885 -79.504112 -1.1604242 -146.23524 -1.2917511 -145.99069 -20.070744 -63.816692
42827500000 -18.016697 -81.028488 -1.2344517 -146.96402 -1.2688797 -147.1635 -19.290073 -59.935757
42855000000 -18.322758 -75.910126 -1.2708213 -147.0896 -1.2655728 -147.3308 -19.398136 -59.05571
42882500000 -17.720137 -81.350365 -1.2709656 -147.72279 -1.252472 -147.99391 -19.856323 -66.422165
42910000000 -17.523746 -80.025223 -1.2151417 -148.49908 -1.2298664 -148.3542 -19.987358 -65.906334
42937500000 -17.988754 -76.622734 -1.2267627 -149.05222 -1.2426002 -148.83463 -19.573637 -59.032074
42965000000 -17.732512 -81.096962 -1.259541 -150.0038 -1.2369674 -149.4174 -19.624146 -65.515549
42992500000 -18.247931 -82.820724 -1.1620047 -150.23969 -1.2527997 -150.1153 -19.456717 -63.572136
43020000000 -18.20553 -74.915703 -1.2140892 -150.60422 -1.2884355 -150.69603 -19.388924 -58.792492
43047500000 -17.867464 -78.085472 -1.2798141 -151.37468 -1.2847044 -151.29877 -19.745579 -65.531944
43075000000 -18.162077 -81.884766 -1.2489849 -151.94456 -1.2735748 -152.03229 -20.007353 -65.92453
43102500000 -18.092449 -77.803574 -1.2432508 -152.59528 -1.2417277 -152.61183 -19.79458 -65.296799
43130000000 -18.600704 -81.114662 -1.2721757 -152.58118 -1.293101 -152.97838 -19.724508 -64.501122
43157500000 -18.070192 -85.993729 -1.2879584 -152.87741 -1.2577493 -153.00171 -19.311001 -68.740387
43185000000 -18.044085 -81.219223 -1.2445184 -153.61354 -1.2378672 -154.09315 -19.38201 -60.48196
43212500000 -18.767241 -81.07106 -1.1946315 -154.50554 -1.2698884 -154.78246 -19.378412 -64.504547
43240000000 -17.662333 -83.312202 -1.258185 -155.16945 -1.301704 -155.35892 -20.446198 -66.871185
43267500000 -18.138233 -83.74469 -1.2592722 -155.3152 -1.2469393 -155.77203 -19.831799 -69.282761
43295000000 -18.413221 -83.919586 -1.2124746 -156.08752 -1.2565713 -156.64587 -19.369726 -65.137161
43322500000 -18.641041 -86.636101 -1.2532353 -156.85442 -1.2001303 -156.79422 -20.037401 -69.01873
43350000000 -18.194984 -79.78392 -1.2362165 -157.30203 -1.2939848 -157.48965 -19.785601 -72.136894
43377500000 -18.483438 -81.525246 -1.2121824 -158.32108 -1.257694 -157.90848 -20.341667 -65.14135
43405000000 -18.13142 -82.726852 -1.2277369 -158.73889 -1.2960356 -158.56462 -20.856277 -68.988419
43432500000 -18.62578 -85.936707 -1.202881 -158.63042 -1.2519063 -159.07736 -20.094967 -71.871803
43460000000 -19.121138 -83.511238 -1.2434087 -159.29518 -1.2357696 -159.43388 -20.154106 -63.84634
43487500000 -18.997929 -84.794228 -1.2312461 -160.09793 -1.3048394 -160.27875 -20.161329 -69.819382
43515000000 -18.106373 -82.909485 -1.2602205 -160.78236 -1.2993995 -160.79065 -20.127541 -69.516335
43542500000 -19.02091 -84.314857 -1.2914832 -161.56004 -1.2302271 -161.13824 -20.190506 -67.73896
43570000000 -19.2068 -84.357552 -1.2932878 -161.92532 -1.2675954 -161.79086 -20.67128 -68.531677
43597500000 -18.393454 -85.237373 -1.278003 -162.70465 -1.2572459 -162.62762 -20.506952 -72.963364
43625000000 -18.9834 -83.698112 -1.2167069 -162.83719 -1.2408775 -162.93535 -19.888529 -67.118576
43652500000 -19.774137 -83.279251 -1.2324486 -163.58104 -1.2371196 -163.8349 -20.424488 -71.815773
43680000000 -18.941652 -88.479012 -1.294351 -163.72012 -1.2656448 -164.24219 -20.871246 -73.708832
43707500000 -19.553524 -83.216827 -1.2636006 -165.02454 -1.2440647 -164.6282 -20.109026 -70.427689
43735000000 -19.79394 -83.972115 -1.2354929 -164.96432 -1.2570522 -165.02356 -20.788113 -70.179733
43762500000 -18.696758 -85.202858 -1.2586544 -165.90259 -1.2122484 -165.79961 -21.162691 -75.005013
43790000000 -18.768066 -87.896309 -1.2318779 -166.38707 -1.1997982 -166.50427 -21.055372 -68.272507
43817500000 -20.144009 -83.538254 -1.191328 -166.87851 -1.2463533 -166.69798 -20.327362 -71.026886
43845000000 -18.775465 -83.513657 -1.2031674 -167.52919 -1.2142549 -167.97546 -20.680464 -74.223442
43872500000 -18.697023 -85.45858 -1.2287875 -168.37704 -1.1670346 -168.52109 -21.041197 -73.835014
43900000000 -19.881359 -88.661774 -1.2963204 -168.33279 -1.2456541 -168.10008 -20.46891 -72.599564
43927500000 -19.649801 -83.490791 -1.1952729 -169.09798 -1.2314991 -168.94025 -20.730654 -77.450752
43955000000 -19.396944 -86.15255 -1.2421271 -169.80635 -1.2197046 -169.84741 -21.281006 -74.284096
43982500000 -20.541609 -86.602356 -1.2454255 -170.08522 -1.2119684 -169.99843 -20.552752 -71.988693
44010000000 -20.390499 -87.162338 -1.1979785 -170.84224 -1.2761925 -170.66342 -20.667696 -74.357193
44037500000 -19.18918 -85.546715 -1.222404 -171.31725 -1.2205223 -171.61626 -22.368694 -81.868523
44065000000 -20.281378 -87.825523 -1.3304197 -172.17599 -1.2617062 -172.08705 -21.42156 -67.641846
44092500000 -20.395781 -85.037689 -1.2361192 -172.33018 -1.2982024 -172.56271 -21.364519 -73.385101
44120000000 -20.064939 -83.26506 -1.2397805 -173.11446 -1.1998488 -173.29155 -21.342672 -75.633682
44147500000 -19.430706 -86.730003 -1.2787256 -174.25473 -1.2604091 -173.70879 -22.028645 -68.069931
44175000000 -21.087507 -87.066582 -1.239368 -173.93158 -1.2473035 -174.26343 -21.114 -72.775688
44202500000 -20.24264 -83.669945 -1.2107197 -175.0838 -1.2957423 -174.53485 -21.673958 -78.346992
44230000000 -19.985046 -88.724251 -1.2593182 -175.71146 -1.2542045 -175.70988 -21.79587 -68.834625
44257500000 -20.481855 -90.401649 -1.3180951 -176.26051 -1.2540154 -176.1909 -20.811634 -69.449333
44285000000 -20.288673 -81.946709 -1.2060459 -176.83289 -1.2852292 -176.61427 -22.003319 -79.800789
44312500000 -20.077871 -86.962944 -1.2600489 -176.79768 -1.3086259 -177.25777 -22.813801 -73.830246
44340000000 -20.735981 -85.783875 -1.2053522 -177.81383 -1.2283205 -178.0331 -22.060867 -67.866852
44367500000 -21.273159 -80.379105 -1.2500435 -178.14746 -1.2617803 -178.36156 -22.295908 -81.783463
44395000000 -19.730555 -80.392746 -1.29018 -178.85678 -1.2985936 -179.08511 -22.806263 -77.819748
44422500000 -20.990118 -88.363914 -1.2536976 -179.74141 -1.3210924 -179.53882 -22.677982 -74.998055
44450000000 -21.21067 -81.975853 -1.2657522 -179.82622 -1.2794676 -179.96558 -21.950666 -80.448029
44477500000 -21.30061 -83.84362 -1.2721403 179.489 -1.2593009 179.5955 -22.923225 -77.623314
44505000000 -21.055414 -84.787842 -1.2822266 178.13834 -1.3506166 178.56105 -23.493137 -69.228523
44532500000 -22.132469 -88.963242 -1.3058004 178.03371 -1.289324 178.71446 -21.587507 -67.925034
44560000000 -20.416473 -80.614128 -1.3648525 177.86014 -1.3067048 177.53723 -23.069399 -77.92025
44587500000 -20.367136 -81.67923 -1.2749921 177.50861 -1.2428466 177.67957 -23.720737 -69.350342
44615000000 -22.003014 -86.702637 -1.2876301 176.74457 -1.2790867 176.65694 -22.191027 -66.257309
44642500000 -21.542719 -82.760216 -1.3154314 176.09497 -1.3016255 176.35109 -22.317629 -74.201591
44670000000 -20.897991 -82.220421 -1.2836652 175.89642 -1.3089055 175.483 -24.209644 -66.438828
44697500000 -22.364458 -90.001015 -1.2957863 175.06522 -1.3323728 175.0312 -22.779137 -68.955536
44725000000 -22.428003 -83.97757 -1.2976719 174.6597 -1.3085798 174.53282 -22.263088 -75.593987
44752500000 -21.259333 -73.358925 -1.28777 173.97473 -1.3033161 173.70973 -24.281441 -73.790192
44780000000 -21.530739 -90.654999 -1.2489833 173.27567 -1.2792611 173.40193 -23.826586 -62.367607
44807500000 -22.375069 -78.892738 -1.3513929 172.79172 -1.2993327 172.70966 -21.902452 -73.02861
44835000000 -21.974075 -76.721634 -1.2954371 172.11469 -1.2657636 172.2623 -23.695715 -77.399742
44862500000 -21.399178 -79.285683 -1.250331 171.37244 -1.2474149 171.66202 -25.017948 -67.141365
44890000000 -22.371733 -81.289597 -1.2933426 171.04286 -1.3264 170.69865 -22.709414 -74.390724
44917500000 -22.337723 -71.785431 -1.2938683 170.59906 -1.2936504 170.47632 -22.974035 -79.709023
44945000000 -21.519985 -80.125412 -1.3038163 170.19859 -1.2563704 170.02039 -24.767815 -66.392357
44972500000 -22.555857 -83.099617 -1.2786551 169.38667 -1.333725 169.37469 -23.341114 -67.577972
45000000000 -21.749298 -78.589844 -1.2694508 168.81886 -1.3044332 168.92026 -24.139498 -76.258873
