!Keysight Technologies,N5224A,MY55441802,A.10.65.16
!Date: Wednesday, May 13, 2026 18:36:04
!Correction: S11(Full 2 Port(1,2)) 
!S21(Full 2 Port(1,2)) 
!S12(Full 2 Port(1,2)) 
!S22(Full 2 Port(1,2)) 
!S2P File: Measurements: S11, S21, S12, S22:
# Hz S  dB   R 50
1000000000 -2.3508656 -78.698341 -4.0476851 -15.025805 5.610137 -12.195641 -8.0230865 -77.391144
1100000000 -0.66033071 153.604 -6.9595013 30.498404 0.12328126 1.3855733 -1.3929794 39.443165
1200000000 1.7343515 0.6224364 -12.408797 -140.76448 -15.699128 -77.874413 -0.42087424 -26.721197
1300000000 5.2380576 -56.679649 1.5169513 -27.323582 9.0463724 -21.092524 -10.937648 -62.523777
1400000000 1.0766672 161.65405 -6.1385636 50.877697 -0.94142419 8.879961 -2.021786 42.156399
1500000000 3.7660413 -2.0390806 -6.6121774 -165.24788 -10.524414 -140.19856 -0.11103105 -28.204372
1600000000 8.7579765 -35.155209 4.8037901 -17.867332 10.452827 -12.14727 -6.72825 20.679874
1700000000 3.4048786 164.63068 -3.5835886 69.368668 -2.2993701 19.718462 -2.052171 37.227631
1800000000 7.3525634 -6.5282774 -0.93050307 176.22095 -2.2895241 -178.04703 1.9786648 -34.525768
1900000000 7.6540108 -36.243519 4.85642 -11.870028 8.6002607 -11.451478 -4.8365355 52.798264
2000000000 6.9819436 162.72885 1.80495 75.071144 -1.2378242 38.341854 0.40729621 24.28162
2100000000 14.427569 -1.9088298 9.0442553 179.37823 8.7208166 174.35577 7.6626816 -24.986441
2200000000 8.0498323 -42.881588 5.1031246 -16.86871 8.0817118 -18.869133 -3.6727033 45.677658
2300000000 13.582415 142.46539 11.447455 68.346916 6.4321313 49.329792 7.0778017 6.9157758
2400000000 18.320854 49.999115 14.342098 -128.86909 14.706998 -133.79813 10.441629 25.909668
2500000000 5.4966383 -65.792542 4.8397374 -38.070824 6.5708575 -40.429287 -6.252161 13.930765
2600000000 21.738873 -16.719042 21.15789 -81.326897 16.941225 -86.507408 14.544019 -157.18349
2700000000 7.8664379 121.24878 7.0171928 -61.281303 8.1452198 -66.136017 -1.9386169 101.97258
2800000000 5.0787458 -76.690323 5.18924 -47.247746 6.5381079 -49.699554 -5.5214901 -5.203228
2900000000 5.7403316 -14.342803 7.835186 -72.10952 5.7293148 -73.525421 -2.0658112 -145.48132
3000000000 5.3289547 112.76488 5.450387 -70.576881 6.7122755 -72.138123 -4.5114942 87.860268
3100000000 1.0353606 -101.1824 4.0908432 -60.730804 4.7694516 -63.599751 -7.5360646 -29.545179
3200000000 3.0142899 -21.409891 6.0343709 -77.978249 4.5099173 -74.856506 -4.6749105 -146.56978
3300000000 0.87683487 104.44154 3.4693956 -76.131752 4.388854 -75.155663 -9.2654982 81.348633
3400000000 -0.062937543 -104.27937 3.4278791 -65.897774 3.8057263 -67.056702 -9.1287365 -27.522976
3500000000 -0.4801065 -39.540916 3.7202189 -86.512863 2.6120543 -80.194992 -9.8770514 -148.85571
3600000000 0.66427886 106.02826 3.3942449 -79.679176 4.143971 -78.414558 -10.048215 85.181152
3700000000 -1.0835975 -128.58583 3.0310011 -78.201973 3.1165195 -79.169601 -10.588984 -42.724209
3800000000 -2.6458771 -40.519073 3.005764 -88.811104 1.770476 -83.870644 -13.120361 -142.89384
3900000000 -2.4955983 104.18192 2.2074277 -82.92099 2.7011194 -81.883118 -15.197431 92.542114
4000000000 -1.8229694 -136.40945 2.7542174 -87.316689 2.7105532 -88.728691 -12.019492 -63.797321
4100000000 -2.6599 -52.20401 2.946022 -93.807709 1.7524233 -91.616005 -13.357287 -145.54945
4200000000 -6.2132883 79.36763 1.2249808 -92.953529 1.5476696 -93.549637 -20.873995 54.736095
4300000000 -4.6676745 -149.3759 2.054327 -94.570404 1.9043269 -95.801704 -14.140594 -83.731636
4400000000 -6.4879756 -55.894669 1.7563375 -97.722443 0.97125512 -96.830162 -17.529621 -158.25548
4500000000 -7.8748198 80.797188 0.94778168 -97.070335 1.3791536 -96.385803 -23.072208 64.138916
4600000000 -6.2751107 -151.85913 1.552122 -99.915649 1.5039495 -101.27856 -14.540951 -96.809296
4700000000 -7.148581 -68.319473 1.3984138 -103.17434 0.99867272 -103.13304 -17.109526 -158.63472
4800000000 -8.796793 70.981804 0.70632881 -104.34588 1.1993082 -103.44781 -23.727257 45.566135
4900000000 -8.2297783 -166.84521 1.1312408 -105.9347 1.0440918 -106.65018 -16.394157 -102.09194
5000000000 -8.7206373 -75.953094 0.95816422 -110.54675 0.72933751 -109.2893 -19.111917 -171.02965
5100000000 -11.224414 61.899582 0.61055791 -110.29769 0.91752088 -107.36665 -23.738987 56.818043
5200000000 -9.2337561 -176.84174 0.71706599 -112.79617 0.69160795 -113.23068 -18.329197 -117.03259
5300000000 -9.670269 -88.902908 0.76204568 -115.92547 0.58875865 -115.26325 -19.781069 -168.29752
5400000000 -12.979552 58.452747 0.27845964 -115.6639 0.64001143 -114.14877 -28.767092 55.733204
5500000000 -9.8905125 169.69777 0.74638367 -118.55826 0.65174276 -118.74354 -20.059471 -119.75237
5600000000 -11.538101 -87.989708 0.4721044 -120.60548 0.37444675 -120.10904 -22.5714 -173.65732
5700000000 -10.875019 32.161617 0.44912815 -125.12326 0.8006593 -122.76712 -24.456156 20.686895
5800000000 -12.52214 166.38133 0.31309 -123.67335 0.3039487 -123.68675 -21.901669 -138.25386
5900000000 -11.820005 -102.22112 0.28641969 -127.06438 0.28358898 -126.76684 -22.784084 178.19615
6000000000 -14.928419 32.063213 0.028638504 -129.33485 0.33721888 -128.02097 -30.292322 14.16096
6100000000 -11.946115 156.94283 0.46173698 -129.3573 0.41954678 -129.70293 -22.452602 -132.06505
6200000000 -14.62309 -109.74729 0.017952189 -132.4211 0.026940322 -132.29933 -23.22764 177.85628
6300000000 -15.331255 30.721067 0.097957864 -135.05687 0.24175991 -133.76714 -29.915041 27.19705
6400000000 -13.47543 148.50183 0.14113232 -136.65337 0.12906978 -136.95146 -25.652758 -145.22517
6500000000 -15.108134 -121.19524 -0.084821194 -137.88535 -0.097489841 -138.06282 -25.037092 163.82695
6600000000 -19.700768 27.464111 -0.24669755 -140.05194 -0.14825015 -139.59441 -37.070889 92.518867
6700000000 -14.069354 144.44254 0.060859106 -141.86848 0.11044633 -142.29466 -24.709665 -145.34068
6800000000 -15.786044 -126.87294 -0.06852182 -143.39972 -0.028611152 -143.89114 -25.988417 -176.35428
6900000000 -19.410715 8.9882946 -0.26779363 -146.36864 -0.16213505 -146.39755 -38.099564 80.612083
7000000000 -16.475098 137.33177 -0.11332359 -148.35092 -0.050219234 -148.71143 -24.819347 179.15346
7100000000 -16.889259 -131.09627 -0.079535007 -149.41357 -0.047897559 -149.78093 -25.664148 172.11794
7200000000 -20.514999 10.288409 -0.30516618 -152.33646 -0.18769895 -152.01677 -39.36607 71.525116
7300000000 -15.57014 124.7188 -0.088766992 -155.00186 0.0023841897 -155.21124 -24.041101 170.26265
7400000000 -17.707794 -135.62297 -0.19324629 -155.87558 -0.10268691 -156.30128 -26.149673 149.18118
7500000000 -20.072372 -10.453288 -0.23891096 -158.86885 -0.13717063 -158.29306 -33.462181 27.467699
7600000000 -18.338205 117.57295 -0.3605893 -160.15689 -0.27411184 -160.5544 -26.638552 159.0432
7700000000 -17.590282 -148.73332 -0.18318395 -162.73366 -0.10483479 -163.21501 -25.33457 140.02528
7800000000 -21.489874 1.1612082 -0.25132045 -163.88982 -0.21537706 -163.55525 -30.346149 47.34417
7900000000 -17.076908 112.75497 -0.33664531 -166.57108 -0.24716648 -166.76489 -28.031317 155.13155
8000000000 -18.875187 -155.18497 -0.26128688 -169.26154 -0.1931529 -169.54146 -27.079506 130.55806
8100000000 -20.206236 -7.9772954 -0.22609717 -170.33206 -0.1711847 -170.01559 -28.399349 37.02824
8200000000 -19.049782 104.95506 -0.47118592 -172.37122 -0.37243795 -172.69786 -31.355019 125.2472
8300000000 -19.113913 -148.52246 -0.25594819 -174.78867 -0.16717905 -175.23508 -28.646198 126.02527
8400000000 -21.271612 -16.823217 -0.32521099 -176.71123 -0.26137343 -176.74625 -31.040363 30.12319
8500000000 -19.362167 95.111084 -0.42753968 -178.41248 -0.35797682 -178.77873 -31.422855 107.56245
8600000000 -21.581511 -162.41621 -0.43372491 179.18236 -0.36869687 178.83179 -31.150942 107.37447
8700000000 -22.095341 -15.69069 -0.374773 177.18924 -0.30342442 177.18517 -31.315836 16.470846
8800000000 -19.981306 86.376419 -0.46305421 175.52704 -0.36923572 175.32225 -32.710911 97.79557
8900000000 -22.632118 -167.31049 -0.51327312 173.17642 -0.41791558 172.8156 -31.874119 100.26055
9000000000 -21.692017 -25.603119 -0.41701287 170.86682 -0.33772832 170.56406 -31.956814 -5.0243402
9100000000 -20.459232 72.983772 -0.470052 169.37366 -0.39820611 169.01299 -34.66011 91.857018
9200000000 -23.091223 177.96667 -0.51962233 167.06648 -0.44340822 166.64587 -31.72732 98.211662
9300000000 -22.887182 -35.698227 -0.47352108 164.87067 -0.41707885 164.60428 -31.577658 -6.1218925
9400000000 -20.126308 71.176857 -0.45316485 162.88503 -0.38406453 162.73364 -37.368229 74.756935
9500000000 -23.210127 167.92612 -0.5286504 160.80621 -0.44774646 160.50008 -33.142078 93.576302
9600000000 -22.670309 -42.257248 -0.55268127 158.79535 -0.46281123 158.47083 -33.294472 -16.114834
9700000000 -20.835739 52.918381 -0.51424289 156.36734 -0.44742689 156.1653 -35.159397 69.249725
9800000000 -25.099121 178.80836 -0.55896711 155.15942 -0.46832454 154.74583 -36.670685 91.00341
9900000000 -21.606941 -45.68589 -0.51258534 153.10042 -0.42838293 152.60028 -32.192692 -22.338297
10000000000 -20.79661 50.93832 -0.50655073 150.21921 -0.46009538 149.9283 -35.909584 64.249069
10100000000 -22.870535 166.73737 -0.47668344 148.64815 -0.41687876 148.21135 -35.444138 78.184502
10200000000 -22.17939 -61.89167 -0.54499775 146.68268 -0.48311499 146.17661 -31.946932 -40.287243
10300000000 -23.802555 40.423412 -0.60556275 144.44333 -0.55966949 144.25374 -37.736111 34.708378
10400000000 -24.790625 179.99388 -0.54059404 142.35194 -0.45195773 142.11328 -37.520348 50.266464
10500000000 -22.165157 -67.109993 -0.53873992 141.10675 -0.42933288 140.45171 -30.639496 -39.724007
10600000000 -23.532892 36.877731 -0.63283718 138.35185 -0.56798559 137.94632 -39.33168 -4.0668888
10700000000 -24.776957 167.72424 -0.55248755 136.15254 -0.46842685 135.69495 -40.693043 37.215767
10800000000 -22.691235 -75.100609 -0.543275 134.85513 -0.46811551 134.10881 -30.131744 -48.113735
10900000000 -25.477024 12.506673 -0.6107676 132.22528 -0.58188909 132.08163 -36.112415 -41.742962
11000000000 -25.314346 -178.44478 -0.5837875 130.02592 -0.49719536 129.86734 -44.122494 -34.538204
11100000000 -21.280161 -86.979362 -0.53373843 128.28937 -0.42133567 127.69058 -29.635988 -64.289139
11200000000 -24.780849 0.23343973 -0.59221452 125.99194 -0.55510885 125.7701 -34.39904 -56.88345
11300000000 -28.25049 159.5341 -0.69192696 123.91146 -0.60559171 123.62569 -40.402584 -92.853981
11400000000 -21.880281 -90.799873 -0.54378772 122.04604 -0.47049707 121.3923 -29.63884 -81.70369
11500000000 -24.027988 -14.129907 -0.49183941 119.84544 -0.52118152 119.61297 -32.89122 -77.365707
11600000000 -26.960115 164.40224 -0.68422353 117.72988 -0.60285544 117.45349 -37.022846 -102.82623
11700000000 -20.37015 -102.23995 -0.50689858 115.53201 -0.43078628 114.88907 -27.938866 -98.983765
11800000000 -23.521379 -22.334208 -0.47827432 113.20637 -0.49726385 113.10555 -34.70892 -105.78418
11900000000 -27.907919 140.78998 -0.70748389 111.35104 -0.62302423 111.15271 -36.477554 -122.35635
12000000000 -22.069622 -108.90171 -0.58512378 109.37728 -0.51207519 108.80666 -27.749952 -108.76138
12100000000 -23.26358 -26.082159 -0.47498003 106.83478 -0.44982526 106.66492 -31.77693 -128.50317
12200000000 -26.713877 146.90535 -0.67861432 105.29097 -0.59532237 105.01962 -34.368809 -141.08176
12300000000 -21.328613 -123.64742 -0.61666656 103.44753 -0.52010125 102.61832 -27.921629 -120.40971
12400000000 -25.459904 -44.815651 -0.52251315 100.24974 -0.51897126 100.10803 -31.433718 -143.55801
12500000000 -28.126453 143.23758 -0.67800951 98.831482 -0.60894835 98.850327 -33.537575 -156.94325
12600000000 -21.569197 -128.54214 -0.66107172 96.895493 -0.55669808 96.329918 -28.098385 -131.0313
12700000000 -26.873585 -47.874008 -0.54989105 94.123909 -0.5311107 94.026299 -30.648636 -145.07956
12800000000 -27.224081 137.25679 -0.71112436 92.604164 -0.61420274 92.38929 -30.75839 -159.83598
12900000000 -22.459349 -146.38681 -0.71026182 90.932266 -0.60584718 90.219887 -27.609356 -148.26132
13000000000 -27.553947 -80.6838 -0.68118006 88.136978 -0.63496637 87.604012 -29.963737 -155.79022
13100000000 -28.079376 144.77469 -0.72407669 86.170708 -0.64165413 86.183212 -30.324678 -165.71489
13200000000 -21.942755 -150.35019 -0.67174459 84.722397 -0.57848996 84.113976 -27.510757 -154.13095
13300000000 -26.377289 -94.229622 -0.65723306 81.621262 -0.65188682 81.257164 -29.443533 -161.66592
13400000000 -29.201496 130.69173 -0.74629915 79.719925 -0.66833353 79.552589 -29.533035 -166.41983
13500000000 -22.040485 -167.30162 -0.69584787 78.363884 -0.60105145 77.823402 -26.364098 -162.7187
13600000000 -26.357346 -113.80125 -0.7266885 75.853203 -0.6784395 75.255676 -27.192835 -163.81758
13700000000 -28.197887 131.35065 -0.75392151 73.415787 -0.68669695 73.271118 -28.24991 -176.70224
13800000000 -20.939308 -173.22003 -0.70150733 71.831711 -0.59053314 71.318718 -25.825859 -169.98535
13900000000 -24.278608 -122.98473 -0.6570757 69.506844 -0.68544948 68.860191 -26.025209 -169.11395
14000000000 -29.509232 142.8056 -0.82536298 67.220055 -0.78710067 67.196182 -26.6471 179.4241
14100000000 -21.037745 -176.3309 -0.70662469 65.702835 -0.59904933 65.299782 -24.590437 -178.9209
14200000000 -24.447851 -134.54059 -0.65510005 63.394115 -0.65599859 62.78405 -25.187798 179.43753
14300000000 -26.495337 139.07178 -0.83561474 61.095524 -0.76881796 60.925507 -26.169012 168.63416
14400000000 -19.781181 174.83588 -0.72650236 58.992008 -0.59416592 58.458687 -24.05183 173.19174
14500000000 -24.240467 -151.13866 -0.68049049 57.11837 -0.68349844 56.567837 -24.84013 168.0677
14600000000 -26.936354 133.776 -0.81174839 54.847942 -0.79584581 54.747925 -25.5907 161.27744
14700000000 -21.2041 168.34723 -0.76696891 53.109997 -0.66081405 52.56303 -23.621447 164.94725
14800000000 -24.831322 -157.58099 -0.67637396 50.756413 -0.66423923 50.040325 -23.752014 158.32352
14900000000 -26.576244 134.13809 -0.85530156 48.474926 -0.80366117 48.48399 -25.176361 149.64668
15000000000 -20.670094 156.62836 -0.83681518 46.541733 -0.71529949 45.979008 -23.638485 153.07265
15100000000 -24.185427 179.71716 -0.74822146 44.113384 -0.73878717 43.694687 -23.727783 148.45471
15200000000 -26.090048 131.82475 -0.86079174 42.391689 -0.83999884 42.363224 -24.927217 142.98994
15300000000 -21.576635 146.57462 -0.88793457 40.53286 -0.79495674 40.002636 -23.520126 144.64964
15400000000 -24.751793 174.541 -0.78304344 37.863029 -0.74645138 37.289192 -23.208515 141.09131
15500000000 -26.732197 125.44992 -0.86842406 35.975731 -0.85938919 35.990467 -24.627754 133.97043
15600000000 -20.992119 137.93033 -0.94291842 34.200005 -0.83640581 33.723034 -23.094397 134.51384
15700000000 -23.205505 156.63835 -0.86186504 31.742731 -0.84072846 31.275324 -23.361206 135.38449
15800000000 -25.363012 114.86081 -0.92659038 29.915508 -0.88705438 29.919008 -24.067507 127.9649
15900000000 -20.685894 126.91606 -0.96731567 28.452175 -0.87112838 27.895163 -22.405855 127.38551
16000000000 -24.337856 150.298 -0.92235488 25.85202 -0.88475454 25.120584 -23.090378 127.5319
16100000000 -24.919584 103.82769 -0.91774601 23.917484 -0.87855101 23.701227 -23.889835 117.87102
16200000000 -20.240721 119.47487 -0.96099669 22.286295 -0.88163936 21.814941 -22.276876 119.90231
16300000000 -23.451075 139.80473 -0.92557079 19.964439 -0.90762424 19.357956 -23.156248 122.11011
16400000000 -23.533237 94.732506 -0.9236151 17.705973 -0.88346195 17.675159 -23.795263 111.41727
16500000000 -20.242687 112.84104 -0.96495539 16.422918 -0.87804931 16.013935 -21.868414 115.93095
16600000000 -24.375168 131.17007 -0.93954933 13.927408 -0.90093267 13.20398 -22.745319 115.67171
16700000000 -23.997074 91.384155 -0.94671875 11.823288 -0.90599728 11.501657 -23.28492 104.57707
16800000000 -20.279058 107.19849 -0.94710338 10.233572 -0.87328202 9.7097979 -21.998411 109.49943
16900000000 -23.482929 118.19181 -0.94269067 8.1452227 -0.91300577 7.4777603 -22.705858 111.03896
17000000000 -22.745083 84.032074 -0.92837816 5.7087579 -0.90932018 5.4325781 -22.90584 100.59412
17100000000 -20.671324 98.314011 -0.93188798 3.9852631 -0.8774693 3.5676219 -21.754519 103.43414
17200000000 -23.653193 108.07513 -0.93217164 1.8072042 -0.90032077 1.2651398 -22.552553 103.65902
17300000000 -23.681398 81.959839 -0.95767081 -0.32903463 -0.92658687 -0.67142683 -22.791559 95.423073
17400000000 -21.16803 91.299004 -0.94464511 -2.2855287 -0.87973851 -2.7019262 -21.720188 97.572205
17500000000 -23.558399 98.898216 -0.9339664 -4.1996846 -0.88301849 -4.7207508 -22.472807 98.774567
17600000000 -22.900366 73.723564 -0.93432683 -6.4372244 -0.90770757 -6.8370495 -22.757448 88.419296
17700000000 -20.86138 80.095734 -0.93045443 -8.5254068 -0.89697766 -8.9682274 -21.696892 90.259697
17800000000 -23.885111 92.351746 -0.90900213 -10.654184 -0.87184733 -11.135834 -22.317366 90.968445
17900000000 -23.900759 63.008877 -0.91883808 -12.650034 -0.89412105 -13.010375 -23.159889 80.431534
18000000000 -21.467154 75.467911 -0.94707584 -14.904544 -0.90751731 -15.216171 -21.911718 84.273949
18100000000 -24.305285 84.047249 -0.92237818 -16.863098 -0.85369706 -17.232965 -22.423424 87.108078
18200000000 -23.569479 54.991589 -0.92965835 -18.791567 -0.88837165 -19.274574 -22.718647 74.300827
18300000000 -21.013813 66.394379 -0.94070017 -20.944366 -0.90445054 -21.373999 -21.656881 75.180412
18400000000 -25.044256 76.780968 -0.91164815 -23.120787 -0.85353953 -23.648899 -22.680853 77.226334
18500000000 -23.652819 44.445671 -0.88648194 -24.914541 -0.87399012 -25.442411 -22.927366 64.950035
18600000000 -21.642279 59.406773 -0.92842907 -27.295975 -0.91536933 -27.655561 -22.141041 70.869492
18700000000 -25.470898 67.751968 -0.92286241 -29.455366 -0.86384708 -29.762259 -23.297951 72.754387
18800000000 -23.184692 33.495224 -0.88688058 -31.455961 -0.85749602 -31.877842 -23.092644 60.585136
18900000000 -21.447433 50.094513 -0.91836023 -33.538891 -0.9144429 -33.858097 -21.878195 64.531006
19000000000 -24.978567 51.014397 -0.94764358 -35.690048 -0.89020932 -36.033531 -23.166182 62.414036
19100000000 -23.413118 28.835413 -0.87245965 -37.550114 -0.85906911 -38.132114 -23.300329 50.814102
19200000000 -22.150621 42.362045 -0.9158141 -39.818798 -0.92681015 -40.220146 -23.050732 59.129864
19300000000 -25.219244 43.256126 -0.96648395 -42.002335 -0.90548408 -42.318794 -23.81654 59.629757
19400000000 -23.809658 18.602514 -0.90944552 -44.194771 -0.86780602 -44.613949 -23.944981 50.377701
19500000000 -22.582952 30.086117 -0.92962587 -46.41029 -0.93590826 -46.588615 -23.218328 55.334354
19600000000 -25.025642 34.840321 -0.97795397 -48.384075 -0.92650133 -48.59288 -23.862537 51.588032
19700000000 -24.604053 12.914018 -0.93395734 -50.421383 -0.89377445 -50.87476 -24.385099 42.902546
19800000000 -23.036936 21.831808 -0.9601959 -52.762802 -0.95687389 -52.993546 -24.369652 46.809464
19900000000 -25.646158 27.239904 -1.0121198 -54.625618 -0.94768912 -54.850151 -24.98778 49.377365
20000000000 -25.594023 1.7676146 -1.0027368 -56.701645 -0.94032973 -57.266582 -25.502041 43.787437
20100000000 -23.339882 7.4884205 -0.97408217 -59.117023 -0.97505957 -59.231628 -24.661194 43.682339
20200000000 -26.395802 17.435822 -1.0333382 -60.998425 -0.96106571 -61.049133 -25.324554 44.696136
20300000000 -26.153839 -13.869008 -1.0119613 -62.841995 -0.94975334 -63.350758 -26.38014 35.431305
20400000000 -23.595095 -0.39882109 -1.0187091 -65.303802 -1.0018548 -65.497307 -25.834126 36.923119
20500000000 -27.455158 7.3223052 -1.0812336 -67.063751 -0.98274952 -67.256523 -26.845018 42.840961
20600000000 -26.344505 -29.031939 -1.0532122 -69.005165 -0.94753897 -69.708199 -27.249498 35.115444
20700000000 -24.00672 -14.157481 -1.015031 -71.352325 -1.0108626 -71.771194 -26.392956 31.493433
20800000000 -29.608847 -8.9700794 -1.0542008 -73.404915 -0.98210835 -73.618935 -27.519506 36.105209
20900000000 -26.905045 -43.38821 -1.0387034 -75.045334 -0.96698177 -75.848358 -29.102493 26.395657
21000000000 -25.242014 -26.340799 -1.0667109 -77.468254 -1.0564414 -78.003105 -28.634983 31.003073
21100000000 -30.027048 -22.3326 -1.1116133 -79.405617 -1.0411333 -79.735237 -29.894323 36.902538
21200000000 -26.888189 -57.450893 -1.0700309 -81.262794 -0.98640907 -82.049164 -30.538698 30.95215
21300000000 -25.853617 -40.522099 -1.0582303 -83.676498 -1.0597174 -84.116409 -29.374792 29.938465
21400000000 -29.944269 -49.722977 -1.0984995 -85.690826 -1.0282301 -85.919601 -30.535376 28.827415
21500000000 -27.275757 -70.473953 -1.0453731 -87.310829 -0.99183685 -88.242706 -33.106255 16.334784
21600000000 -26.676222 -55.137096 -1.0239784 -89.631302 -1.0583153 -90.33596 -34.380943 28.924212
21700000000 -31.042728 -56.001915 -1.1073872 -91.979034 -1.0681865 -92.305336 -33.172958 37.802048
21800000000 -27.774118 -89.358994 -1.0865805 -93.955894 -1.0240197 -94.634911 -36.374767 36.601875
21900000000 -26.935867 -76.77562 -1.0558227 -96.115669 -1.0828927 -96.448051 -37.850651 42.058201
22000000000 -31.083214 -77.742081 -1.0830907 -98.235641 -1.0658325 -98.298386 -34.400833 46.777298
22100000000 -27.605133 -104.84995 -1.0706253 -100.2754 -1.0163895 -100.91749 -37.282867 69.714935
22200000000 -26.504072 -85.588745 -1.0489663 -102.57705 -1.0809988 -103.01987 -39.230133 58.225464
22300000000 -32.683178 -99.864395 -1.1362206 -104.46095 -1.1203973 -104.67393 -36.116478 66.41716
22400000000 -27.382198 -130.05414 -1.1361724 -106.68657 -1.0723466 -107.35183 -34.904064 100.94893
22500000000 -26.738518 -109.46023 -1.0982609 -108.98666 -1.1141894 -109.16733 -37.674549 79.360138
22600000000 -30.153591 -129.6113 -1.1700478 -111.04551 -1.13465 -110.82749 -33.846958 75.529701
22700000000 -25.789316 -140.1183 -1.2052326 -112.9104 -1.1198177 -113.36701 -33.315674 114.92889
22800000000 -26.639734 -118.22357 -1.1566393 -115.25155 -1.1414574 -115.47957 -35.7701 107.46162
22900000000 -29.664835 -147.86763 -1.2305406 -117.00968 -1.2018238 -116.99028 -31.992634 101.90047
23000000000 -25.49531 -156.12723 -1.2423311 -118.74553 -1.1684948 -119.42973 -30.326569 121.81854
23100000000 -26.584827 -141.65726 -1.2307184 -120.95535 -1.1932865 -121.42754 -31.910543 116.05155
23200000000 -26.49719 -166.33994 -1.265291 -122.90457 -1.2045051 -122.953 -29.454863 108.3878
23300000000 -23.859941 -163.99319 -1.3067719 -124.67538 -1.1916938 -125.23975 -28.06904 121.02049
23400000000 -25.707342 -161.9577 -1.2522506 -127.00484 -1.229534 -127.44199 -29.476545 119.1218
23500000000 -25.314493 179.62122 -1.2921792 -128.86208 -1.2324359 -129.01048 -27.804461 113.86318
23600000000 -23.752775 178.76633 -1.2902845 -130.46179 -1.2128332 -131.17584 -26.250031 125.7176
23700000000 -24.871252 177.29242 -1.2475286 -132.6205 -1.2320672 -133.42244 -26.662579 126.36241
23800000000 -24.027491 166.52019 -1.2857574 -134.51825 -1.2114396 -134.97453 -24.797846 117.06538
23900000000 -23.138725 166.65573 -1.2557157 -136.41429 -1.1821254 -137.25237 -23.635893 120.03421
24000000000 -23.231014 168.02034 -1.2464567 -138.60391 -1.2388362 -139.43356 -24.439638 118.32858
24100000000 -23.040514 159.53592 -1.2574421 -140.9144 -1.2235464 -141.16786 -23.785971 109.72736
24200000000 -22.242025 158.27771 -1.2481052 -142.61909 -1.1956015 -143.2765 -22.637053 115.01256
24300000000 -22.88998 153.30595 -1.215089 -144.64798 -1.2163663 -145.48218 -23.255404 116.94094
24400000000 -22.435202 146.79414 -1.2195673 -146.84088 -1.2136471 -147.35858 -22.37203 108.57614
24500000000 -21.824587 146.38222 -1.2022395 -148.63373 -1.1548572 -149.58374 -21.02322 111.96662
24600000000 -21.851322 146.89932 -1.1797165 -150.93892 -1.1964359 -151.72226 -21.851019 110.12216
24700000000 -21.270571 140.29556 -1.1922932 -153.19276 -1.2059735 -153.51442 -21.180773 99.985939
24800000000 -20.945906 141.4969 -1.1811578 -155.20581 -1.1435186 -155.7747 -20.448732 104.02189
24900000000 -21.400949 135.38062 -1.1592587 -157.4559 -1.1857015 -157.93617 -21.290894 103.20589
25000000000 -21.112488 128.18486 -1.1894351 -159.52898 -1.2067472 -159.93028 -20.478914 95.891151
25100000000 -20.697603 128.06738 -1.1961071 -161.5369 -1.1650255 -162.17339 -19.760176 100.32083
25200000000 -20.98691 123.95276 -1.1713374 -163.60695 -1.1909047 -164.20187 -20.356197 97.437897
25300000000 -20.06827 122.1527 -1.2042987 -165.85722 -1.215345 -166.09518 -19.570456 89.108627
25400000000 -19.989157 122.22668 -1.20237 -167.96132 -1.1722522 -168.39984 -19.231419 92.453964
25500000000 -20.170828 116.95911 -1.1789367 -170.05869 -1.1949548 -170.5742 -19.763323 88.248932
25600000000 -19.911007 112.1494 -1.2220976 -172.1813 -1.2359966 -172.44133 -19.113409 83.763206
25700000000 -19.980318 108.89985 -1.2319942 -174.26913 -1.2161571 -174.63788 -18.810936 86.87558
25800000000 -19.710575 104.5298 -1.2185485 -176.28448 -1.216814 -176.65405 -19.150988 82.223892
25900000000 -19.320545 105.42799 -1.2461187 -178.36646 -1.2346721 -178.57622 -18.42976 78.104279
26000000000 -19.254356 101.95207 -1.2476517 179.53044 -1.2202758 179.11246 -18.408245 79.965981
26100000000 -19.118853 98.953941 -1.2327515 177.47054 -1.2341291 176.97922 -18.674654 76.727531
26200000000 -19.064087 97.339882 -1.255878 175.37279 -1.263342 175.07721 -18.034651 73.386108
26300000000 -19.07897 91.76738 -1.2571505 173.37263 -1.2489693 173.03336 -17.894413 73.876808
26400000000 -18.841187 89.030708 -1.2567848 171.20503 -1.2451971 170.80954 -18.136305 71.696022
26500000000 -18.606836 87.248322 -1.2548909 169.17064 -1.2537395 168.94705 -17.602997 66.633591
26600000000 -18.431992 85.095627 -1.2778538 167.0708 -1.2677017 166.72777 -17.720388 67.965683
26700000000 -18.304899 84.173164 -1.2822263 164.96803 -1.278389 164.50478 -17.998463 65.01815
26800000000 -18.567842 80.854065 -1.2808235 162.83681 -1.2910185 162.64362 -17.469473 63.103313
26900000000 -18.255705 76.246574 -1.2929344 160.88235 -1.2959687 160.5811 -17.29143 63.929539
27000000000 -18.393305 74.532272 -1.295403 158.66679 -1.2709697 158.33759 -17.362514 59.49614
27100000000 -18.098612 69.900803 -1.296424 156.57805 -1.2865922 156.46355 -17.142902 56.710659
27200000000 -17.845697 68.445702 -1.3155179 154.51398 -1.3409048 154.36397 -17.524761 56.56572
27300000000 -17.844706 67.972443 -1.3286918 152.5845 -1.322338 152.0154 -17.531094 53.364594
27400000000 -18.262232 63.823433 -1.3277475 150.51089 -1.229966 149.58765 -17.408222 57.818932
27500000000 -17.906332 60.114792 -1.3446791 148.37537 -1.2970036 147.73936 -17.734816 59.632252
27600000000 -18.214525 58.682446 -1.3670604 146.08302 -1.301302 145.80652 -17.8552 43.736565
27700000000 -18.15192 54.140007 -1.3537358 144.00638 -1.311231 143.92166 -16.149302 44.395042
27800000000 -17.939121 50.524696 -1.3640919 142.01692 -1.3823705 141.88673 -17.088484 51.964996
27900000000 -18.165047 50.705235 -1.4196392 140.0352 -1.3928994 139.6217 -18.50703 39.191555
28000000000 -18.392776 45.186031 -1.4341332 137.83597 -1.3733808 137.58072 -16.139824 34.242432
28100000000 -18.197037 44.406235 -1.4202212 135.78038 -1.4043796 135.83904 -15.721844 52.501583
28200000000 -18.485523 44.952785 -1.5183189 134.12833 -1.4430418 133.40814 -24.932714 72.663101
28300000000 -18.9935 33.885841 -1.7103987 135.14432 -1.6820798 135.75656 -19.246832 -125.00697
28400000000 -18.226137 36.20977 -1.2042866 130.71349 -1.3345371 130.38457 -25.550314 24.756058
28500000000 -18.873697 33.291027 -1.3942325 128.12636 -1.3214363 127.65742 -17.385456 22.43866
28600000000 -18.708382 30.032749 -1.4067711 126.19485 -1.3737833 125.89506 -17.284548 29.646116
28700000000 -18.796946 27.853672 -1.4222277 124.21654 -1.4367964 123.89679 -17.526691 27.108137
28800000000 -19.05764 27.656483 -1.4238495 122.24503 -1.4027264 121.76674 -17.606884 28.289349
28900000000 -19.196457 22.866438 -1.4256359 120.22051 -1.3959955 119.66758 -18.071247 25.123657
29000000000 -19.129927 20.374096 -1.4074482 118.39983 -1.4357897 118.05937 -17.795212 21.353352
29100000000 -19.708231 18.270699 -1.3800001 116.28028 -1.3643327 115.94842 -18.024921 25.227201
29200000000 -19.174465 14.733827 -1.3252771 114.17642 -1.3154541 113.57957 -18.559719 21.080965
29300000000 -19.028952 15.034237 -1.3159349 111.74949 -1.3735993 111.53036 -17.819801 18.360319
29400000000 -19.534061 12.688828 -1.3764703 109.6069 -1.4045722 109.2794 -18.076097 19.619482
29500000000 -19.280672 10.205205 -1.3558182 107.51202 -1.3605683 107.11847 -19.011333 15.123075
29600000000 -19.244741 7.9554868 -1.3675578 105.28687 -1.3972512 105.29581 -18.318378 13.840465
29700000000 -19.572231 -0.33810902 -1.409498 103.05696 -1.4013582 103.03173 -18.22883 17.248066
29800000000 -19.616119 -5.1864686 -1.4276772 101.03726 -1.3947461 100.83842 -18.853201 11.944956
29900000000 -20.229588 -6.4973841 -1.4065082 98.965584 -1.438659 99.074814 -18.155773 6.6469717
30000000000 -20.833147 -9.333065 -1.4541839 96.997147 -1.4735961 97.082199 -18.674446 6.9462662
30100000000 -20.855452 -6.5269809 -1.4651253 95.194756 -1.4649448 94.972878 -19.95417 -0.11422391
30200000000 -21.192165 -10.473532 -1.4476991 92.981979 -1.4253373 93.181412 -19.77807 -0.75015986
30300000000 -21.044495 -18.585648 -1.4671401 90.926857 -1.4329785 91.049721 -20.221752 5.1770077
30400000000 -21.457291 -21.004049 -1.5261643 89.029976 -1.457146 88.83168 -21.30566 2.6448705
30500000000 -22.614859 -27.073027 -1.4885055 86.757477 -1.4504747 86.882645 -20.577562 -3.9341078
30600000000 -22.674877 -30.177374 -1.5145404 84.804764 -1.4589307 85.003456 -21.023638 2.0361412
30700000000 -23.28133 -24.898264 -1.534651 82.918922 -1.4934082 82.661514 -22.515188 -5.995872
30800000000 -24.072847 -35.281612 -1.5442426 80.833778 -1.4760898 80.688995 -21.832628 -13.837041
30900000000 -23.29179 -41.214077 -1.5767742 78.980675 -1.475298 78.941093 -23.217987 -1.9996145
31000000000 -24.681305 -42.679916 -1.559564 77.181839 -1.493836 76.985474 -26.028646 -8.5119667
31100000000 -25.557737 -55.927307 -1.5593972 75.28907 -1.4671078 74.906105 -24.549051 -10.471498
31200000000 -26.32144 -47.987156 -1.5121607 73.404228 -1.433439 73.15728 -25.84115 5.3639655
31300000000 -31.13933 -35.411919 -1.4939735 71.503502 -1.451241 70.90316 -30.011629 -7.7229915
31400000000 -25.854965 -105.3808 -1.5564736 69.13942 -1.467154 68.105278 -26.08473 -4.5843077
31500000000 -20.888557 -68.312996 -1.5309485 66.846542 -1.3957098 65.550552 -26.093517 24.494276
31600000000 -20.957602 -23.233418 -1.5522107 65.524612 -1.5105159 65.048767 -32.901264 36.566532
31700000000 -54.459747 -66.856102 -1.4512544 63.487434 -1.4280261 62.743103 -30.657433 -2.4722321
31800000000 -24.890413 -127.31921 -1.4359204 61.472904 -1.448819 60.836407 -28.743727 32.676155
31900000000 -26.597593 -83.864639 -1.4602101 59.171452 -1.378337 58.456291 -30.931 49.054306
32000000000 -36.595673 -113.38215 -1.4132425 57.164074 -1.4238167 56.076591 -32.178604 25.792538
32100000000 -27.106215 -129.46407 -1.4223456 54.832241 -1.4224293 54.312092 -28.472223 45.389221
32200000000 -28.063625 -107.28262 -1.4252901 52.766514 -1.3779707 52.202377 -29.862835 56.803158
32300000000 -30.890682 -159.13107 -1.3440695 50.79586 -1.4083178 49.984032 -31.563164 45.43861
32400000000 -26.305096 -157.87349 -1.3828163 48.422188 -1.420494 48.082096 -28.656588 55.627438
32500000000 -30.503761 -147.33496 -1.3618538 46.270378 -1.3690654 45.660332 -29.361757 76.844215
32600000000 -29.994982 170.9574 -1.3538494 44.286716 -1.395746 43.534119 -29.934908 69.482239
32700000000 -27.143665 -169.19427 -1.3904585 41.885178 -1.3999848 41.648602 -26.454332 68.665665
32800000000 -29.616945 -164.27405 -1.3740661 39.909424 -1.3515694 39.504372 -26.549452 79.209747
32900000000 -26.529654 158.79417 -1.3583446 37.697777 -1.3795063 37.28429 -27.351282 73.261467
33000000000 -24.454901 163.98543 -1.3445498 35.409515 -1.408469 35.375996 -25.46418 70.694412
33100000000 -26.743002 152.62129 -1.3746948 33.305035 -1.3741913 32.950691 -25.119255 83.226456
33200000000 -24.882248 136.97977 -1.3641237 31.192467 -1.395656 30.784142 -25.592047 86.209999
33300000000 -24.774305 150.70486 -1.3982619 28.806671 -1.3962078 28.735569 -23.171629 82.245918
33400000000 -25.921251 141.01744 -1.4483858 26.92981 -1.3925269 26.744995 -21.721708 84.842529
33500000000 -23.101397 132.43318 -1.4282987 24.749664 -1.4085317 24.402039 -22.481924 80.1651
33600000000 -21.909079 136.97801 -1.4407408 22.540009 -1.4194303 22.483919 -21.552866 74.353783
33700000000 -22.458397 127.87119 -1.4562963 20.367393 -1.4246986 20.18166 -21.35214 80.355614
33800000000 -20.815861 118.81854 -1.4687707 18.47983 -1.4701976 17.982635 -21.63899 81.224716
33900000000 -20.846813 125.31239 -1.5055482 16.322443 -1.4833078 16.015482 -20.09437 79.186386
34000000000 -21.714247 114.5268 -1.5290848 14.296727 -1.4682965 14.065773 -19.412376 82.735329
34100000000 -20.004498 110.70765 -1.5268207 12.364425 -1.4831772 11.8309 -19.262369 78.288177
34200000000 -19.649525 114.3915 -1.5269129 10.146708 -1.4965732 9.8445225 -18.601053 72.778603
34300000000 -19.931089 107.49831 -1.5497266 8.0801821 -1.5004052 7.6289058 -18.664366 75.205406
34400000000 -18.538338 103.84811 -1.5517728 6.171597 -1.5561005 5.5504265 -18.744169 76.343414
34500000000 -18.486649 107.55472 -1.5902991 4.1362362 -1.5875356 3.6615057 -17.897436 75.631241
34600000000 -18.729164 98.296638 -1.5855862 2.2030785 -1.5536813 1.6459671 -17.040289 76.091156
34700000000 -17.855282 93.958061 -1.5633301 0.24931356 -1.5531968 -0.4023861 -16.743368 73.029594
34800000000 -17.88003 95.621948 -1.5681123 -2.0727732 -1.5704564 -2.5962455 -16.781879 68.082489
34900000000 -18.008543 90.20932 -1.5941038 -4.2170215 -1.57546 -4.7132282 -16.398338 67.636513
35000000000 -17.136885 89.432304 -1.5981495 -6.066288 -1.6123656 -6.7092013 -16.510479 67.615669
35100000000 -17.051386 91.01638 -1.6127703 -8.0393553 -1.6288556 -8.5448532 -16.346046 65.586716
35200000000 -17.12229 85.447662 -1.6044078 -10.195648 -1.6055677 -10.744626 -15.729919 64.547729
35300000000 -16.331913 80.048927 -1.6039811 -12.261472 -1.6265045 -12.932168 -15.566756 64.154846
35400000000 -16.354397 79.891891 -1.6263421 -14.275425 -1.6516172 -14.834073 -15.540205 60.392532
35500000000 -16.978407 76.174408 -1.6563165 -16.400179 -1.6744798 -16.845701 -15.255554 58.413013
35600000000 -16.66061 73.285263 -1.6370919 -18.201054 -1.6587867 -18.697748 -15.346035 59.92054
35700000000 -16.026827 76.296021 -1.6103712 -20.088982 -1.6359222 -20.556931 -15.298016 57.167419
35800000000 -16.269926 74.607613 -1.6109517 -22.404072 -1.6242883 -22.835615 -14.549944 55.881939
35900000000 -15.595011 67.581551 -1.6079633 -24.579796 -1.6285541 -25.115393 -14.639253 54.7048
36000000000 -15.28667 69.484329 -1.5813637 -26.542391 -1.6231112 -27.058485 -14.991352 52.292606
36100000000 -15.570884 66.528091 -1.5991135 -28.909094 -1.6293862 -29.304705 -14.445797 51.868671
36200000000 -15.004181 59.627525 -1.621969 -31.209639 -1.6492717 -31.636251 -14.139812 53.09444
36300000000 -14.44719 60.438358 -1.6578102 -33.233879 -1.6884569 -33.575405 -14.332981 49.86636
36400000000 -14.891448 57.701378 -1.6870421 -35.179737 -1.7084175 -35.444016 -13.665689 46.884174
36500000000 -14.402292 50.574978 -1.6896498 -37.281178 -1.7144297 -37.65564 -13.403648 47.508457
36600000000 -14.089366 51.624413 -1.6851842 -39.291218 -1.7194554 -39.724987 -13.591949 43.228188
36700000000 -14.673404 48.80217 -1.7045379 -41.373112 -1.7366253 -41.697121 -13.148472 39.693558
36800000000 -14.116671 41.926773 -1.7441783 -43.616333 -1.7689128 -43.928387 -13.154262 42.415909
36900000000 -13.584865 43.102715 -1.7755018 -45.677551 -1.8090541 -45.936115 -13.424925 39.946465
37000000000 -14.200545 39.892094 -1.808141 -47.515392 -1.8434255 -47.682228 -12.58369 36.007839
37100000000 -13.732708 32.415607 -1.8465379 -49.388672 -1.877045 -49.536064 -12.610225 36.04248
37200000000 -13.658628 34.826942 -1.835615 -51.218765 -1.8739177 -51.412819 -13.152749 30.442099
37300000000 -14.755026 33.055367 -1.8220437 -53.009731 -1.8482083 -53.12059 -12.772997 27.708231
37400000000 -14.056781 26.966963 -1.8161983 -55.061749 -1.8378453 -55.126984 -12.978368 32.993259
37500000000 -13.261645 30.668558 -1.798878 -57.212555 -1.8347962 -57.328175 -13.300694 28.763702
37600000000 -13.998468 25.960287 -1.8243208 -59.430939 -1.8365523 -59.374748 -12.620891 25.238895
37700000000 -13.303374 17.756609 -1.8401251 -61.349155 -1.867875 -61.096424 -12.667445 28.448273
37800000000 -13.332362 21.476355 -1.8645546 -63.280994 -1.8831524 -63.150223 -13.265287 23.354786
37900000000 -14.696038 18.867363 -1.8461523 -65.333893 -1.8411663 -65.220886 -12.499352 19.154476
38000000000 -13.874239 12.027919 -1.8677398 -67.379845 -1.8508023 -67.166496 -12.732882 23.397945
38100000000 -13.490335 17.006351 -1.903242 -69.291084 -1.9041229 -69.236862 -13.472905 18.929922
38200000000 -14.583398 12.108689 -1.929682 -71.23037 -1.9038064 -71.210091 -12.643326 14.011303
38300000000 -13.656365 2.0112216 -1.9199783 -73.085472 -1.8821964 -72.808716 -12.813358 18.556719
38400000000 -13.627844 8.4857635 -1.9292258 -74.61084 -1.8986237 -74.509659 -13.996905 15.576718
38500000000 -15.216998 3.711653 -1.929266 -76.710983 -1.876803 -76.793678 -13.083248 10.240026
38600000000 -14.309562 -3.3206105 -1.8835512 -78.876442 -1.8244215 -78.629204 -13.075514 15.003568
38700000000 -14.026949 4.7776074 -1.8689436 -80.350052 -1.8216599 -80.428474 -14.023063 12.362257
38800000000 -15.567321 -0.99327421 -1.8948549 -82.462524 -1.8350888 -82.776466 -13.213095 6.0024137
38900000000 -14.039281 -10.010545 -1.8476534 -84.643738 -1.7688689 -84.756111 -13.440716 11.906537
39000000000 -14.140031 -1.1173633 -1.8219962 -86.12912 -1.7651601 -86.524315 -14.730862 8.1331434
39100000000 -15.515362 -8.155673 -1.8220954 -88.413376 -1.7687218 -88.964516 -13.447155 6.0763807
39200000000 -14.13541 -17.091648 -1.78772 -90.811806 -1.7390249 -90.985954 -13.381124 10.056666
39300000000 -14.1389 -10.426928 -1.7793251 -92.617867 -1.721248 -93.038681 -14.380928 5.2279615
39400000000 -15.774305 -19.276779 -1.7525576 -94.465988 -1.7545233 -95.140701 -13.461249 -0.53560978
39500000000 -14.342071 -25.53635 -1.7962933 -96.8815 -1.7355915 -97.229225 -13.60014 3.9464109
39600000000 -14.738807 -16.621243 -1.7427913 -98.650337 -1.7111167 -99.269264 -14.882339 -2.3948362
39700000000 -15.975529 -24.198105 -1.7388117 -100.50354 -1.7364694 -101.36391 -14.224289 -5.2784395
39800000000 -14.598592 -30.795872 -1.7263657 -103.11652 -1.6981809 -103.38417 -14.026852 2.9587731
39900000000 -14.614278 -24.690643 -1.6918962 -105.11373 -1.6921668 -105.44546 -14.84146 -2.2322223
40000000000 -16.187691 -35.818321 -1.6678053 -107.03045 -1.6931058 -107.68126 -14.111065 -7.6604142
