!Keysight Technologies,N5247B,MY61255062,A.19.80.06
!Date: Monday, May 18, 2026 11:59:10
!Correction: S11(Cdelta 2-Port  ) 
!S21(Cdelta 2-Port  ) 
!S12(Cdelta 2-Port  ) 
!S22(Cdelta 2-Port  ) 
!S2P File: Measurements: S11, S21, S12, S22:
# Hz S  dB   R 50
1000000000 -26.306934 -4.2467561 -0.42155519 -20.955063 -0.42194003 -20.956575 -26.676968 -5.2027812
1100000000 -26.251911 -6.1269073 -0.43427926 -22.992395 -0.43418971 -22.990589 -26.723562 -6.5855784
1200000000 -26.112185 -6.9369802 -0.4436374 -24.97226 -0.44383922 -24.990459 -26.628227 -6.619195
1300000000 -26.029497 -8.7182922 -0.44977596 -27.038214 -0.44905165 -27.0457 -26.519489 -8.6041527
1400000000 -25.883623 -9.7214088 -0.45507056 -29.000532 -0.45457098 -29.026167 -26.351238 -8.6203604
1500000000 -25.768749 -11.32377 -0.45684049 -31.034576 -0.45665157 -31.044474 -26.150074 -10.445686
1600000000 -25.696257 -12.839227 -0.46123511 -33.073032 -0.46086869 -33.08252 -26.081488 -12.466139
1700000000 -25.569336 -14.817689 -0.46258828 -35.091682 -0.4639295 -35.100033 -25.962637 -14.11024
1800000000 -25.493788 -16.667812 -0.46719107 -37.126595 -0.46702936 -37.135731 -25.855515 -15.95615
1900000000 -25.402653 -18.756611 -0.46863261 -39.168148 -0.46966562 -39.164722 -25.773798 -18.108234
2000000000 -25.409977 -20.701633 -0.47432849 -41.2206 -0.4749265 -41.228481 -25.777252 -20.403345
2100000000 -25.292624 -22.626192 -0.47814405 -43.236023 -0.47664186 -43.243896 -25.68103 -21.890322
2200000000 -25.29637 -24.537477 -0.48174921 -45.270943 -0.48208299 -45.281734 -25.646046 -24.063803
2300000000 -25.295412 -26.548899 -0.48574036 -47.318218 -0.48735139 -47.32951 -25.617813 -26.161816
2400000000 -25.317677 -28.613134 -0.49228436 -49.344749 -0.49212635 -49.358959 -25.628292 -28.138102
2500000000 -25.306095 -30.738949 -0.49805257 -51.387405 -0.49832606 -51.39806 -25.611317 -30.442966
2600000000 -25.335424 -32.838543 -0.50463694 -53.411736 -0.50428951 -53.41869 -25.646553 -32.336899
2700000000 -25.317636 -34.752842 -0.51004404 -55.4258 -0.51001781 -55.428726 -25.74222 -34.381096
2800000000 -25.415442 -36.62952 -0.51270682 -57.452213 -0.51415831 -57.457943 -25.70838 -36.650879
2900000000 -25.4781 -38.637531 -0.51785475 -59.471161 -0.51989847 -59.483376 -25.808786 -38.773338
3000000000 -25.523491 -40.897228 -0.52114105 -61.48494 -0.52245986 -61.492153 -25.856909 -40.327065
3100000000 -25.560253 -42.739723 -0.52417487 -63.496075 -0.52632266 -63.500427 -25.97036 -42.166985
3200000000 -25.601234 -44.974995 -0.52830899 -65.507904 -0.52953613 -65.511398 -25.998184 -44.303997
3300000000 -25.6378 -47.090584 -0.53164327 -67.529205 -0.5339154 -67.542526 -26.056377 -46.426361
3400000000 -25.716187 -49.36924 -0.53536165 -69.543297 -0.53595054 -69.56662 -26.092287 -48.055695
3500000000 -25.866045 -51.223087 -0.53806466 -71.564369 -0.54071391 -71.567764 -26.164181 -49.98077
3600000000 -25.871889 -53.614113 -0.53979516 -73.576447 -0.53966415 -73.585861 -26.236673 -51.770329
3700000000 -26.002249 -55.588318 -0.54041666 -75.600914 -0.54333776 -75.598763 -26.275259 -54.41087
3800000000 -26.042263 -57.604858 -0.54403603 -77.614975 -0.54497766 -77.626625 -26.359257 -56.370895
3900000000 -26.160473 -59.987988 -0.54674208 -79.645203 -0.5475055 -79.653801 -26.427528 -58.883648
4000000000 -26.199095 -61.909332 -0.54975766 -81.6689 -0.55306059 -81.687233 -26.526917 -60.650108
4100000000 -26.307503 -64.606415 -0.55416119 -83.696426 -0.55497593 -83.713821 -26.62191 -63.126472
4200000000 -26.439974 -66.366158 -0.55574167 -85.70752 -0.55853713 -85.737602 -26.735304 -64.787338
4300000000 -26.5404 -69.0382 -0.55798137 -87.729393 -0.56099421 -87.744919 -26.828718 -67.260612
4400000000 -26.763393 -71.281837 -0.56115383 -89.756615 -0.56322688 -89.762177 -27.031902 -69.323105
4500000000 -26.8612 -73.454254 -0.56289685 -91.762833 -0.56653917 -91.772636 -27.077608 -71.803139
4600000000 -27.041353 -75.724815 -0.56654239 -93.790024 -0.56880099 -93.794075 -27.269812 -74.088722
4700000000 -27.132227 -78.28344 -0.56814593 -95.8116 -0.56983185 -95.830086 -27.385721 -76.696808
4800000000 -27.365103 -80.725937 -0.57152486 -97.838089 -0.57193798 -97.850449 -27.603594 -79.081467
4900000000 -27.533216 -83.005119 -0.57427025 -99.856789 -0.57619202 -99.877167 -27.662413 -81.295937
5000000000 -27.70929 -85.72419 -0.5752424 -101.87769 -0.57785261 -101.89826 -27.917433 -83.762115
5100000000 -27.8895 -87.936829 -0.5765692 -103.9071 -0.580302 -103.91534 -28.081062 -85.839714
5200000000 -28.051046 -91.075897 -0.5785473 -105.92467 -0.58496231 -105.9418 -28.357897 -88.586884
5300000000 -28.311634 -93.291489 -0.58432555 -107.94481 -0.58568329 -107.96458 -28.554384 -91.203712
5400000000 -28.53311 -96.234489 -0.58766377 -109.97054 -0.58915919 -109.9894 -28.80039 -94.602043
5500000000 -28.838472 -98.899605 -0.59109408 -111.98395 -0.5925349 -112.0007 -28.990005 -96.840683
5600000000 -29.046371 -102.34946 -0.59465712 -114.00541 -0.59361595 -114.01781 -29.195534 -99.642654
5700000000 -29.271103 -105.37901 -0.59820116 -116.01358 -0.59909308 -116.03575 -29.432968 -101.98384
5800000000 -29.546267 -108.12763 -0.59858859 -118.01538 -0.59981728 -118.02512 -29.782644 -104.69613
5900000000 -29.778151 -111.27935 -0.60036451 -120.03812 -0.60086268 -120.0475 -30.109629 -107.44936
6000000000 -30.082664 -114.13802 -0.60169512 -122.04691 -0.6040985 -122.06014 -30.507551 -111.47641
6100000000 -30.484102 -116.89885 -0.60280311 -124.05624 -0.60356361 -124.07744 -30.876249 -114.81847
6200000000 -31.008553 -120.56139 -0.60325933 -126.08347 -0.6062097 -126.10262 -31.197607 -118.45586
6300000000 -31.531446 -124.20612 -0.60360795 -128.08958 -0.60635972 -128.11354 -31.54965 -120.58974
6400000000 -31.793585 -127.74722 -0.60368019 -130.13576 -0.60725629 -130.16289 -32.033356 -124.06872
6500000000 -32.235653 -131.05403 -0.60896009 -132.15746 -0.60841215 -132.17255 -32.565376 -126.2762
6600000000 -32.435696 -134.48828 -0.61037588 -134.18845 -0.61005324 -134.19875 -33.056122 -129.32466
6700000000 -32.939583 -138.16406 -0.61199927 -136.19948 -0.61280972 -136.21713 -33.398026 -132.74606
6800000000 -33.229111 -140.17393 -0.61178023 -138.23584 -0.61520463 -138.26111 -33.892727 -136.54623
6900000000 -33.708038 -145.60223 -0.61420023 -140.28931 -0.6170342 -140.28542 -34.455067 -138.39912
7000000000 -34.119007 -147.88931 -0.61710548 -142.28917 -0.6190362 -142.30742 -34.833652 -142.61812
7100000000 -34.461418 -153.46399 -0.62158686 -144.32275 -0.62127024 -144.33009 -35.346134 -146.77916
7200000000 -34.919163 -158.04892 -0.62161821 -146.34859 -0.62661225 -146.34731 -35.953354 -154.16144
7300000000 -35.348946 -163.28462 -0.62357807 -148.36534 -0.62667745 -148.37102 -36.68829 -157.56297
7400000000 -36.220943 -168.26923 -0.62726659 -150.38676 -0.63169765 -150.41133 -37.049339 -162.3544
7500000000 -36.267681 -173.58134 -0.6302309 -152.4071 -0.63173658 -152.41759 -38.126835 -166.43007
7600000000 -37.094234 -178.62758 -0.63277739 -154.43323 -0.63394606 -154.46825 -38.491055 -170.91109
7700000000 -37.319633 177.07042 -0.63631791 -156.43755 -0.63731605 -156.48291 -39.788788 -178.91423
7800000000 -37.827419 167.60107 -0.64159834 -158.49188 -0.64259136 -158.50858 -40.074661 173.0883
7900000000 -37.999458 164.33217 -0.64339674 -160.50795 -0.64564365 -160.54031 -40.214226 161.73181
8000000000 -38.255577 155.7912 -0.64510697 -162.53233 -0.64761835 -162.54948 -40.066734 158.8994
8100000000 -38.675655 149.76611 -0.65106207 -164.56888 -0.65487695 -164.59059 -41.325497 150.8447
8200000000 -38.56794 140.65862 -0.65474755 -166.59789 -0.65725303 -166.62708 -43.339127 145.20168
8300000000 -38.756802 130.80821 -0.66055465 -168.6225 -0.66184294 -168.65138 -43.402248 108.92274
8400000000 -37.861053 122.85705 -0.67095786 -170.67027 -0.67158419 -170.69006 -39.650837 89.844223
8500000000 -38.364796 113.97913 -0.69363511 -172.7058 -0.69609505 -172.74759 -34.798363 92.202133
8600000000 -37.553566 125.48888 -0.74919832 -174.52165 -0.74962133 -174.55675 -30.326685 101.08901
8700000000 -32.278233 103.45572 -0.68646091 -175.58661 -0.69106209 -175.59212 -26.10511 85.724083
8800000000 -36.605 74.10347 -0.58172774 -178.38641 -0.58360809 -178.43822 -29.005941 66.891129
8900000000 -37.68198 89.676338 -0.6320504 179.24979 -0.63797736 179.23174 -32.376656 76.682434
9000000000 -36.620922 88.653893 -0.65888077 177.23077 -0.66382045 177.2067 -35.402882 87.461472
9100000000 -36.222668 82.009293 -0.67445678 175.25024 -0.67446858 175.2149 -38.170383 79.562897
9200000000 -36.35062 76.102943 -0.67783052 173.25627 -0.68089193 173.22905 -39.750088 60.529846
9300000000 -36.356834 70.263695 -0.68042356 171.26068 -0.68388128 171.22675 -38.157982 45.385902
9400000000 -36.174557 66.372253 -0.68699521 169.2486 -0.69051796 169.22545 -36.717579 38.775593
9500000000 -35.501701 61.107307 -0.68772453 167.25543 -0.69112068 167.22942 -35.367069 38.594772
9600000000 -35.270134 56.469254 -0.69148004 165.24086 -0.69533306 165.20813 -35.14164 36.994961
9700000000 -34.924904 51.681927 -0.69408214 163.23262 -0.69778001 163.21742 -34.979465 34.203388
9800000000 -34.782356 48.282753 -0.69623244 161.2231 -0.69837493 161.19072 -34.83783 28.764143
9900000000 -34.573967 45.151825 -0.69921076 159.2104 -0.70249665 159.18864 -34.163612 22.797915
10000000000 -34.439346 40.743382 -0.70288038 157.19148 -0.70668411 157.1698 -33.781357 18.512384
10100000000 -33.969341 38.313503 -0.70626229 155.18311 -0.70642948 155.16498 -33.214409 18.949011
10200000000 -33.749054 31.979752 -0.70732296 153.16452 -0.70929015 153.13513 -33.320503 16.257984
10300000000 -33.664776 30.627415 -0.70960623 151.15562 -0.71263373 151.12662 -33.077015 12.985794
10400000000 -33.608349 24.34795 -0.71572101 149.1405 -0.71400529 149.11487 -33.068268 7.2719345
10500000000 -33.607956 23.221817 -0.71564138 147.12424 -0.71947861 147.10057 -32.527966 1.7957665
10600000000 -33.257214 19.086283 -0.71653759 145.11342 -0.71934479 145.09534 -31.975183 -2.1742532
10700000000 -33.394985 14.33329 -0.72304219 143.09953 -0.72170746 143.09158 -31.490557 -3.1062477
10800000000 -32.85091 11.12811 -0.72363907 141.09085 -0.72493428 141.07693 -31.124258 -6.8682265
10900000000 -32.95776 5.0480046 -0.72650862 139.10065 -0.72739917 139.07622 -31.027998 -6.6256142
11000000000 -32.74585 3.177608 -0.72706223 137.08087 -0.73179919 137.04546 -31.060175 -10.928179
11100000000 -32.803848 -1.6884549 -0.73179948 135.0704 -0.73530239 135.07301 -31.269894 -14.293054
11200000000 -32.717239 -2.2448967 -0.73395193 133.06895 -0.73838127 133.0524 -30.903257 -19.784056
11300000000 -32.672798 -7.3202906 -0.73907232 131.03772 -0.7395066 131.02881 -30.804558 -23.904169
11400000000 -32.790115 -11.354364 -0.73923957 129.05035 -0.74224544 129.03209 -30.277943 -28.513096
11500000000 -32.804073 -15.965438 -0.74070674 127.05473 -0.74448723 127.02584 -29.99909 -30.713394
11600000000 -33.046543 -20.650995 -0.74255651 125.04787 -0.74571955 125.02309 -29.883118 -33.494171
11700000000 -32.66407 -24.821968 -0.74455303 123.04776 -0.74824458 123.00649 -30.108175 -36.085804
11800000000 -33.071178 -28.260899 -0.74649203 121.03593 -0.75291908 121.0184 -29.973259 -40.139679
11900000000 -32.891113 -31.981518 -0.75026214 119.04871 -0.75311708 119.03281 -30.064087 -44.517178
12000000000 -33.317822 -35.882004 -0.75109911 117.05405 -0.75493699 117.02534 -29.734236 -48.254498
12100000000 -33.24675 -40.639538 -0.75152779 115.03992 -0.75611991 115.02768 -29.723328 -52.628502
12200000000 -33.708736 -47.334824 -0.75286829 113.07448 -0.75826782 113.02981 -29.58289 -56.388954
12300000000 -33.744148 -51.239609 -0.75381786 111.0555 -0.75403368 111.03119 -29.569811 -59.850483
12400000000 -34.028004 -56.233093 -0.75539351 109.06985 -0.75576806 109.02892 -29.543909 -63.94281
12500000000 -34.313892 -59.72773 -0.75003141 107.06978 -0.75380677 107.0413 -29.760374 -67.812408
12600000000 -34.744869 -65.365189 -0.74808437 105.07385 -0.751818 105.02753 -29.566589 -71.916809
12700000000 -35.060764 -69.04409 -0.74635059 103.04384 -0.75245023 103.02527 -29.608301 -75.903946
12800000000 -35.218544 -77.987488 -0.74536091 101.03481 -0.74766064 101.01535 -29.480639 -78.820023
12900000000 -35.323112 -83.158028 -0.7414332 98.997482 -0.74544728 98.993942 -29.642199 -83.012871
13000000000 -35.415005 -90.029213 -0.73896307 96.996536 -0.74412501 96.962791 -29.644241 -85.74369
13100000000 -35.915119 -91.803291 -0.73840797 94.967018 -0.74478072 94.943642 -29.757776 -91.409943
13200000000 -35.931126 -100.33966 -0.73704797 92.952843 -0.74059039 92.927589 -29.694668 -94.23214
13300000000 -36.593166 -106.59576 -0.73915428 90.913429 -0.74012077 90.871758 -29.536291 -98.123451
13400000000 -36.118168 -112.41931 -0.73945379 88.880508 -0.73742807 88.861404 -29.633677 -100.39618
13500000000 -36.286324 -120.83945 -0.73462451 86.839714 -0.73891211 86.816574 -29.758253 -104.6154
13600000000 -35.724007 -122.46323 -0.7335912 84.805779 -0.73865128 84.767952 -29.920628 -107.49326
13700000000 -36.045265 -130.68172 -0.7383104 82.738235 -0.74301541 82.733002 -29.892187 -112.63574
13800000000 -36.066841 -130.16759 -0.74434716 80.687683 -0.74956375 80.656609 -29.746975 -115.87498
13900000000 -35.123863 -143.88512 -0.75940287 78.68615 -0.76302749 78.671265 -29.093489 -120.30253
14000000000 -34.973652 -153.24542 -0.75494128 76.756317 -0.75829619 76.722511 -29.039553 -124.88582
14100000000 -33.861301 -161.44536 -0.75210583 74.745102 -0.75485539 74.69593 -29.001522 -129.99002
14200000000 -34.034496 -166.4399 -0.74649417 72.701691 -0.75319248 72.654022 -29.364634 -133.88747
14300000000 -33.439007 -169.11926 -0.75162411 70.652168 -0.75325191 70.620659 -29.226599 -139.33812
14400000000 -33.652737 -178.20595 -0.75078827 68.647743 -0.75378644 68.596962 -29.30777 -144.77803
14500000000 -33.230438 177.95657 -0.75332302 66.602959 -0.75866175 66.556511 -28.896566 -148.23346
14600000000 -32.785206 168.67844 -0.75460005 64.562195 -0.75990027 64.531258 -28.755501 -152.02914
14700000000 -32.314781 165.99185 -0.75929284 62.551113 -0.7641722 62.486206 -28.590721 -154.96129
14800000000 -31.48184 161.61432 -0.76077175 60.508408 -0.76539153 60.44973 -28.706802 -159.95464
14900000000 -31.271763 159.75674 -0.76659709 58.469563 -0.77049816 58.451305 -28.597113 -164.40337
15000000000 -30.729006 156.07625 -0.76822245 56.448101 -0.77242124 56.414005 -28.443373 -168.60027
15100000000 -30.670443 150.67216 -0.7712568 54.433243 -0.77307379 54.387981 -28.042019 -171.93393
15200000000 -30.075342 146.64204 -0.77399063 52.395184 -0.7769801 52.352509 -27.787601 -175.56833
15300000000 -29.577063 142.23099 -0.77861309 50.373322 -0.78321785 50.331871 -27.701292 -178.4877
15400000000 -29.026417 139.86028 -0.77966988 48.343441 -0.78293264 48.311592 -27.684574 176.62737
15500000000 -28.727085 137.58296 -0.78629458 46.337158 -0.79069817 46.295307 -27.471395 172.94676
15600000000 -28.40947 136.036 -0.79042768 44.303089 -0.79088914 44.284164 -27.217686 168.06506
15700000000 -28.189106 131.99214 -0.79274362 42.300713 -0.79829872 42.252068 -26.945744 164.83467
15800000000 -27.585655 128.39339 -0.79699606 40.245941 -0.8008405 40.245632 -26.66275 161.59332
15900000000 -27.254429 123.48222 -0.80026782 38.249516 -0.80741066 38.212448 -26.463287 158.3748
16000000000 -26.688519 122.66869 -0.80728561 36.225304 -0.81178576 36.179699 -26.336828 154.46695
16100000000 -26.315683 119.05923 -0.81036484 34.223015 -0.8164736 34.171257 -26.170704 150.78862
16200000000 -26.049538 118.48764 -0.81543845 32.219147 -0.81705034 32.186596 -25.971561 146.0472
16300000000 -25.745405 113.45191 -0.81965691 30.208441 -0.82446122 30.183443 -25.577496 142.83492
16400000000 -25.471323 111.51167 -0.82269454 28.183533 -0.8297177 28.179401 -25.313143 138.83366
16500000000 -24.884861 107.57172 -0.82595408 26.192343 -0.83065253 26.143957 -25.075733 136.82457
16600000000 -24.681797 105.9771 -0.83042592 24.207628 -0.8385793 24.140041 -24.956541 133.02051
16700000000 -24.106529 103.83584 -0.83577186 22.181627 -0.84165943 22.125885 -24.850536 130.18594
16800000000 -24.215292 101.10382 -0.84276718 20.178921 -0.84396732 20.154022 -24.542562 125.68013
16900000000 -23.748501 98.661484 -0.84037352 18.17276 -0.84929752 18.11853 -24.414072 122.72379
17000000000 -23.619581 94.034317 -0.84675556 16.17577 -0.85497153 16.139282 -23.984879 119.98221
17100000000 -23.240608 93.484192 -0.85130501 14.189652 -0.85521615 14.148505 -23.887432 117.40852
17200000000 -22.9874 89.774193 -0.85739565 12.161579 -0.85700589 12.138308 -23.60211 115.02193
17300000000 -22.829046 90.322899 -0.85402989 10.194125 -0.86016697 10.151893 -23.656555 111.61946
17400000000 -22.588058 86.836418 -0.86343455 8.1710234 -0.86607695 8.1422405 -23.350014 108.56483
17500000000 -22.647236 85.00721 -0.86353874 6.1987681 -0.86945873 6.1463494 -23.240171 104.33292
17600000000 -22.1581 81.261864 -0.86552054 4.1818414 -0.87102693 4.1482496 -22.820465 102.68498
17700000000 -22.14032 79.465065 -0.87140179 2.1861331 -0.8770563 2.1491334 -22.667875 99.473381
17800000000 -21.71529 77.52742 -0.87187767 0.16955528 -0.87651998 0.12467778 -22.461376 98.123161
17900000000 -21.767906 75.25071 -0.87273651 -1.7804996 -0.87650228 -1.8287283 -22.414915 95.153603
18000000000 -21.498316 74.091507 -0.87410259 -3.841944 -0.88270199 -3.8452847 -22.347702 92.404518
18100000000 -21.433975 71.138428 -0.88291228 -5.8023887 -0.88453263 -5.8379464 -22.238371 88.403999
18200000000 -21.153191 69.433449 -0.87933236 -7.7970948 -0.8873648 -7.8167539 -21.943245 86.089676
18300000000 -20.97678 66.691727 -0.88048244 -9.7843676 -0.88642496 -9.8349142 -21.638767 82.522118
18400000000 -20.835936 65.241447 -0.88513052 -11.781768 -0.8907724 -11.843794 -21.421783 81.154381
18500000000 -20.633883 62.383419 -0.88751501 -13.796388 -0.89097863 -13.820446 -21.370991 78.710693
18600000000 -20.519093 60.273628 -0.88283426 -15.786927 -0.89064145 -15.81635 -21.402338 76.671333
18700000000 -20.391565 57.692097 -0.88612849 -17.796339 -0.89155835 -17.78508 -21.258774 73.079002
18800000000 -20.242111 56.291134 -0.89309001 -19.762684 -0.89360577 -19.82601 -21.13254 70.172333
18900000000 -20.063442 53.558197 -0.88469189 -21.785295 -0.89009458 -21.802605 -20.881414 66.458809
19000000000 -19.905363 52.049236 -0.89176559 -23.737337 -0.8921445 -23.807392 -20.630861 64.725235
19100000000 -19.8002 49.810566 -0.88834959 -25.775759 -0.89342457 -25.79669 -20.473534 62.439205
19200000000 -19.70796 48.309429 -0.88948554 -27.755993 -0.89876235 -27.823095 -20.430525 61.326302
19300000000 -19.581583 45.228745 -0.89268214 -29.77314 -0.89558995 -29.800335 -20.476315 58.119247
19400000000 -19.634993 44.485474 -0.89109051 -31.756067 -0.894885 -31.823393 -20.404959 56.114002
19500000000 -19.421682 41.796341 -0.89203483 -33.782997 -0.89405799 -33.810905 -20.296986 52.51572
19600000000 -19.427599 39.726936 -0.88796371 -35.781662 -0.8954137 -35.80378 -20.135838 50.726021
19700000000 -19.124344 38.138538 -0.88496614 -37.784821 -0.89241791 -37.803493 -19.95023 47.846439
19800000000 -19.248728 36.194157 -0.88955414 -39.808098 -0.89346236 -39.822876 -19.958483 46.506538
19900000000 -19.026979 35.623981 -0.88643765 -41.805729 -0.88990843 -41.833534 -19.83621 43.452118
20000000000 -19.2152 32.475338 -0.89194489 -43.798206 -0.89431751 -43.853149 -19.883808 41.938419
20100000000 -19.042522 31.480995 -0.89111435 -45.792751 -0.89265382 -45.847485 -19.647457 38.824265
20200000000 -18.932404 27.825422 -0.89538282 -47.860489 -0.89827621 -47.856445 -19.710014 36.479748
20300000000 -18.867676 26.757092 -0.89578462 -49.827766 -0.90031695 -49.886974 -19.457529 34.420464
20400000000 -18.631042 23.968182 -0.89813328 -51.864223 -0.90198106 -51.878258 -19.541435 32.063145
20500000000 -18.919502 22.956863 -0.90565968 -53.859196 -0.90961725 -53.891655 -19.416994 29.704718
20600000000 -18.761848 20.455635 -0.91077918 -55.837749 -0.91185939 -55.880871 -19.594511 26.121572
20700000000 -19.032352 18.040834 -0.90101385 -57.752392 -0.90848786 -57.831799 -19.431078 24.042839
20800000000 -18.732481 16.599159 -0.90390813 -59.764709 -0.90561795 -59.818176 -19.458921 21.146563
20900000000 -18.834328 13.998548 -0.89494288 -61.746326 -0.89777899 -61.801159 -19.222536 19.949579
21000000000 -18.734482 13.467317 -0.89903903 -63.752522 -0.89835614 -63.822018 -19.357122 17.446421
21100000000 -18.673481 10.578985 -0.89170712 -65.809837 -0.90002269 -65.863426 -19.276819 16.422523
21200000000 -18.756861 9.912468 -0.89025795 -67.845276 -0.89463049 -67.863403 -19.40263 13.364717
21300000000 -18.752226 7.0220332 -0.89479494 -69.844719 -0.89666218 -69.908409 -19.390799 11.683806
21400000000 -18.904797 5.2077751 -0.89329988 -71.884392 -0.89797062 -71.951714 -19.320219 7.9535675
21500000000 -18.808558 2.9136114 -0.89705652 -73.875267 -0.90269417 -73.897064 -19.269234 5.3834481
21600000000 -18.831917 0.97895873 -0.89814508 -75.903732 -0.89950389 -75.917885 -19.227093 2.920239
21700000000 -18.87636 0.015371019 -0.89613396 -77.835632 -0.89713001 -77.913979 -19.218096 1.665489
21800000000 -18.831171 -1.8376522 -0.89317268 -79.842773 -0.89661032 -79.923965 -19.273273 -0.28943551
21900000000 -18.99943 -3.7661536 -0.89193249 -81.86908 -0.89827526 -81.924736 -19.367577 -1.658137
22000000000 -19.022402 -5.291317 -0.89534432 -83.911743 -0.90079087 -83.952065 -19.578871 -4.6627932
22100000000 -19.193586 -7.9116039 -0.89776433 -85.886612 -0.9049812 -85.955109 -19.540699 -7.1870394
22200000000 -19.270283 -8.5755882 -0.90033573 -87.892624 -0.90201771 -87.95945 -19.614185 -10.653943
22300000000 -19.289431 -11.587409 -0.89837712 -89.896271 -0.90175927 -89.95208 -19.534988 -12.395101
22400000000 -19.523848 -10.877638 -0.89805782 -91.87912 -0.89673096 -91.898682 -19.557465 -14.898451
22500000000 -19.429796 -13.748681 -0.88988203 -93.903038 -0.88963675 -93.947609 -19.638786 -15.539576
22600000000 -19.803942 -13.935476 -0.88522285 -95.927307 -0.89110833 -95.958992 -19.810602 -18.297346
22700000000 -19.621719 -17.107685 -0.89020997 -97.948578 -0.89742219 -97.999016 -20.002651 -19.968731
22800000000 -20.040049 -19.041828 -0.89290369 -100.01255 -0.89290786 -100.05412 -20.036037 -23.916574
22900000000 -19.754028 -19.646248 -0.88702631 -101.98227 -0.89652473 -102.01118 -20.080061 -25.235247
23000000000 -20.122313 -21.943977 -0.89281565 -104.00314 -0.8974731 -104.0611 -20.034613 -29.319353
23100000000 -20.061657 -22.1126 -0.88855577 -106.00311 -0.88881779 -106.08721 -20.278605 -29.591774
23200000000 -20.43292 -25.876766 -0.89587915 -108.01649 -0.89856368 -108.07899 -20.408768 -32.805054
23300000000 -20.629389 -25.762104 -0.89455134 -110.03799 -0.89581645 -110.10968 -20.775064 -34.430737
23400000000 -20.676689 -29.820114 -0.89253014 -112.04204 -0.90432888 -112.09846 -20.673487 -38.761982
23500000000 -21.040104 -29.704168 -0.89987105 -114.06942 -0.90126425 -114.1244 -20.954945 -41.057526
23600000000 -20.83902 -32.090126 -0.88780558 -116.09874 -0.89926189 -116.12598 -20.743916 -43.489403
23700000000 -21.556366 -33.060097 -0.89002913 -118.06076 -0.89886612 -118.14912 -21.00247 -44.582172
23800000000 -21.417294 -34.150784 -0.89656067 -120.10909 -0.89677423 -120.17419 -21.2383 -45.980312
23900000000 -22.030285 -37.700535 -0.89299399 -122.09649 -0.89193791 -122.16378 -21.824257 -48.119617
24000000000 -22.122557 -36.574749 -0.90038192 -124.14067 -0.89789009 -124.16358 -21.955109 -52.476643
24100000000 -22.381483 -41.146465 -0.89557499 -126.17181 -0.89767361 -126.2447 -22.382267 -57.110271
24200000000 -22.664772 -39.142349 -0.89416045 -128.14133 -0.89132541 -128.22261 -22.155506 -59.480007
24300000000 -22.766758 -42.417427 -0.89114136 -130.1738 -0.8925311 -130.22372 -22.302767 -62.549984
24400000000 -23.453257 -41.214561 -0.88690311 -132.17885 -0.89604968 -132.20744 -22.359964 -61.775505
24500000000 -23.553318 -42.79211 -0.88641733 -134.2159 -0.89146429 -134.23567 -23.009645 -63.775833
24600000000 -24.327597 -44.045223 -0.88687199 -136.23637 -0.89269453 -136.26591 -23.572638 -64.700592
24700000000 -24.493631 -45.03767 -0.88753724 -138.21938 -0.89469665 -138.30333 -24.182592 -70.533768
24800000000 -25.140768 -47.011372 -0.888861 -140.26547 -0.89203006 -140.33716 -24.372398 -74.955666
24900000000 -25.400427 -45.042023 -0.88484931 -142.34494 -0.89179325 -142.37114 -24.54579 -79.783966
25000000000 -25.739792 -46.418083 -0.88366449 -144.33472 -0.88914275 -144.37572 -24.606991 -80.11335
25100000000 -26.374235 -44.686905 -0.88162297 -146.35121 -0.89359242 -146.40935 -25.181318 -82.573265
25200000000 -26.776188 -43.219528 -0.88149679 -148.33534 -0.88911223 -148.42572 -25.5952 -82.500168
25300000000 -27.570902 -42.468185 -0.88276035 -150.37305 -0.89476794 -150.40489 -26.678537 -87.657166
25400000000 -28.277166 -39.649429 -0.88901252 -152.36504 -0.88839251 -152.45845 -27.044785 -90.604301
25500000000 -28.901274 -41.428265 -0.88635737 -154.45036 -0.89139342 -154.49849 -27.780653 -97.705292
25600000000 -29.440964 -35.169762 -0.88142765 -156.48639 -0.89421225 -156.54361 -28.239311 -99.65004
25700000000 -29.657185 -35.334198 -0.88816571 -158.48108 -0.88633829 -158.55983 -28.686304 -103.59231
25800000000 -30.989164 -31.624937 -0.88657802 -160.53473 -0.89607799 -160.57216 -29.851679 -106.81252
25900000000 -29.982891 -25.545496 -0.88608944 -162.5914 -0.9055146 -162.61909 -30.605865 -111.76624
26000000000 -31.563478 -20.184958 -0.89790505 -164.61145 -0.90038127 -164.60751 -31.656721 -113.35085
26100000000 -30.113548 -12.752968 -0.8877157 -166.60336 -0.90078479 -166.63046 -32.579468 -123.41622
26200000000 -31.643024 -10.766645 -0.89432263 -168.63646 -0.89524251 -168.70413 -33.872116 -127.4545
26300000000 -30.186426 1.7773105 -0.89909601 -170.65906 -0.89641654 -170.71156 -34.15213 -138.68129
26400000000 -31.051174 -2.3279994 -0.89927304 -172.66472 -0.90979087 -172.7751 -36.460236 -143.37538
26500000000 -30.183668 12.963564 -0.8931511 -174.6669 -0.90509117 -174.80927 -36.07827 -161.49657
26600000000 -29.644579 4.0539417 -0.89881521 -176.77454 -0.90648121 -176.78926 -37.991093 -177.72487
26700000000 -29.643047 20.479618 -0.90697211 -178.6732 -0.91194689 -178.84627 -37.180538 168.26424
26800000000 -28.820244 8.6600933 -0.90354699 179.16585 -0.8948589 179.12845 -38.94923 144.83936
26900000000 -28.903194 22.800436 -0.92193305 177.17984 -0.91033286 177.08089 -36.690292 149.15872
27000000000 -27.201872 17.221426 -0.91331196 175.1723 -0.9300614 175.14206 -36.005566 116.1027
27100000000 -27.73818 22.847876 -0.91769373 173.17139 -0.92548579 173.1348 -35.076469 118.86041
27200000000 -25.892254 23.045271 -0.94289309 170.98384 -0.93581593 171.02754 -33.971306 98.555557
27300000000 -27.103546 21.20541 -0.9212411 169.16068 -0.93722677 169.05824 -34.64724 99.032745
27400000000 -24.934166 24.674702 -0.92384273 167.11081 -0.93621993 167.04787 -31.306265 88.880249
27500000000 -26.111502 19.342428 -0.93810475 165.02661 -0.94578934 165.16452 -31.500858 86.516251
27600000000 -25.058512 21.895716 -0.94819611 163.21645 -0.94648683 163.08612 -29.022285 83.149902
27700000000 -24.704788 17.475954 -0.93816125 161.15553 -0.95341051 161.00667 -30.83695 78.447845
27800000000 -23.922211 24.109879 -0.93470025 159.16263 -0.95424849 159.10916 -28.560621 75.691689
27900000000 -23.704088 20.820889 -0.94567156 157.15268 -0.93906671 157.08382 -28.934193 71.908653
28000000000 -23.44198 23.33534 -0.92222244 154.89594 -0.94072902 154.94463 -27.558475 65.242569
28100000000 -23.025917 19.210138 -0.94742686 152.98373 -0.95177072 153.05865 -27.517372 63.089741
28200000000 -22.822577 20.364422 -0.95712656 150.9295 -0.96348679 150.9933 -26.192217 58.260353
28300000000 -22.260061 15.421833 -0.9700861 148.83682 -0.96940845 148.90875 -26.428612 54.333908
28400000000 -21.915146 15.857051 -0.9592784 147.12805 -0.96158671 147.04439 -25.180559 54.162354
28500000000 -21.694054 14.368476 -0.9660728 145.04959 -0.94880408 145.08414 -25.341621 48.093628
28600000000 -21.495808 15.360853 -0.94722015 143.06146 -0.95369327 142.91612 -24.787292 49.486683
28700000000 -21.392525 13.117845 -0.96026158 141.11053 -0.96799845 140.85442 -24.255508 45.342712
28800000000 -21.240517 13.970927 -0.95416886 139.00809 -0.95681351 138.91597 -23.798635 43.964577
28900000000 -20.841082 9.142849 -0.96282178 136.82614 -0.96407914 136.78737 -24.052822 40.410603
29000000000 -20.57552 9.9213066 -0.96959937 134.94417 -0.97129673 134.77303 -23.171753 37.680885
29100000000 -20.232809 6.0442586 -0.96478927 132.69704 -0.98906547 132.81155 -23.461744 32.398209
29200000000 -20.502941 5.4500074 -0.97875202 130.99873 -0.9815467 130.91673 -22.496738 31.432913
29300000000 -20.17033 5.0927095 -0.97633344 128.84457 -0.98326302 128.99619 -21.923641 29.292215
29400000000 -20.527842 5.3460088 -0.97679824 127.05649 -0.96794343 126.97868 -21.766315 31.506247
29500000000 -19.659698 4.5298495 -0.96639323 124.89809 -0.98858178 124.83726 -21.824877 26.461527
29600000000 -19.969748 -3.9332764 -0.97333676 122.83585 -0.97888398 122.78082 -21.929674 28.365685
29700000000 -19.455696 1.5757331 -0.97297496 120.83154 -0.9774161 120.8018 -21.902372 18.589262
29800000000 -19.602644 -4.7107162 -0.98430783 118.84529 -0.98714018 118.8222 -21.636698 20.602615
29900000000 -19.576132 -0.51457953 -0.98324227 116.86933 -0.98620683 116.68143 -21.01276 13.657474
30000000000 -19.293732 -5.5738559 -1.0050983 114.85783 -1.0013998 114.7517 -21.140354 16.264711
30100000000 -19.778553 -2.7942452 -0.98399645 112.813 -0.98614246 112.81902 -20.32885 11.923778
30200000000 -18.86813 -8.8042164 -1.0168635 110.79315 -1.0183399 110.76717 -20.714205 14.502488
30300000000 -19.537563 -9.038022 -0.99259418 108.81349 -0.9923411 108.85166 -20.350708 7.9385247
30400000000 -18.445484 -10.981333 -0.99901706 106.87329 -1.0016608 106.73272 -20.781143 7.6583581
30500000000 -19.533827 -12.021255 -0.98418218 104.76868 -1.0034519 104.79739 -20.291206 0.89235687
30600000000 -18.74164 -12.469416 -1.0100908 103.04998 -0.99272007 102.70497 -20.587812 0.13150138
30700000000 -19.418329 -16.797844 -1.000545 100.91762 -1.0092096 100.76746 -19.756149 -1.8322439
30800000000 -19.200001 -16.330715 -1.0361924 98.835274 -1.0151168 98.747643 -20.597809 -2.5128369
30900000000 -18.867456 -20.478151 -1.0261921 96.921043 -1.0147009 96.851349 -19.869534 -3.6069615
31000000000 -19.091311 -19.563465 -1.0017743 94.973969 -1.0203739 94.73645 -20.322899 -8.7974806
31100000000 -18.96818 -23.861614 -0.99579072 92.976013 -1.018714 92.825012 -20.284592 -10.245856
31200000000 -18.945274 -21.314014 -1.0360018 91.060593 -1.0176435 90.728508 -19.902672 -15.452002
31300000000 -18.679287 -23.770092 -0.99938524 89.04155 -1.016361 88.778664 -20.022051 -14.839335
31400000000 -19.153088 -24.985893 -1.0118887 86.885323 -1.0004411 86.790764 -19.837532 -18.58725
31500000000 -19.14468 -27.203947 -1.0126145 85.089661 -1.0161222 84.630005 -19.867859 -16.328506
31600000000 -19.178076 -29.659908 -0.98701221 82.696152 -1.0149292 82.854172 -20.238153 -20.790232
31700000000 -19.36132 -29.595156 -1.0169034 80.711174 -1.0047427 80.803108 -20.365902 -22.965046
31800000000 -19.368073 -31.035858 -0.99236941 78.833344 -1.0230311 78.692619 -20.207285 -26.268593
31900000000 -19.135534 -33.167141 -1.0062182 76.814079 -0.99994928 76.808487 -19.865648 -29.650839
32000000000 -19.737814 -33.50206 -0.99163944 74.959961 -1.009496 74.639 -20.321018 -32.161213
32100000000 -19.685144 -37.378262 -1.0064774 72.866753 -0.99219304 72.899918 -19.781034 -32.992893
32200000000 -19.963724 -36.618172 -0.98645079 70.893211 -1.0158801 70.77478 -20.276957 -33.090874
32300000000 -19.896393 -37.936798 -1.0296733 68.75071 -1.0308774 68.688171 -20.373695 -34.34943
32400000000 -20.516823 -39.007282 -1.0097988 66.691971 -0.99598086 66.681252 -20.857098 -39.885715
32500000000 -20.193176 -41.478416 -1.001491 64.692001 -1.0055916 64.69268 -20.938065 -42.485447
32600000000 -20.720436 -43.489811 -1.0005281 62.707428 -0.96644694 62.68169 -20.861662 -47.997284
32700000000 -20.793251 -41.603409 -1.0266498 60.623783 -1.0002888 60.569523 -20.496161 -45.831249
32800000000 -21.230322 -48.170425 -0.99840164 58.656662 -1.0084181 58.700142 -20.299417 -49.560211
32900000000 -21.5177 -42.260967 -1.0037174 56.48716 -0.99108326 56.478992 -21.091612 -47.757484
33000000000 -21.607807 -48.354492 -1.0150619 54.58046 -1.0023572 54.460564 -21.239405 -51.613979
33100000000 -21.701412 -46.528946 -1.0414188 52.784847 -1.008103 52.565907 -21.619957 -52.195023
33200000000 -21.536343 -49.725483 -1.0048239 50.680923 -1.0195519 50.494591 -21.35602 -59.404869
33300000000 -22.721184 -48.39621 -1.012525 48.652134 -1.0287511 48.444851 -21.725643 -59.599659
33400000000 -21.966999 -50.587688 -0.98415941 46.653473 -1.0394627 46.391529 -21.612324 -63.551422
33500000000 -23.105616 -50.301914 -1.0218921 44.54221 -1.0005476 44.636074 -22.043295 -64.653519
33600000000 -22.942533 -46.323994 -0.98844886 42.646736 -1.0084507 42.314697 -22.359467 -67.515282
33700000000 -23.933676 -51.161144 -1.0214729 40.458187 -1.0057663 40.350178 -22.83511 -72.309563
33800000000 -23.078682 -47.014557 -1.0246645 38.439255 -1.026657 38.390999 -22.770649 -74.065552
33900000000 -24.231157 -56.297539 -0.9992044 36.698444 -1.0216272 36.486038 -23.005728 -73.182457
34000000000 -23.748844 -46.418613 -0.99552214 34.816719 -0.99797064 34.452072 -23.366024 -77.982544
34100000000 -24.856369 -53.155663 -0.96911949 32.148705 -1.0020651 32.475292 -23.591753 -81.911324
34200000000 -25.73485 -47.552757 -0.9895277 30.591991 -1.0029739 30.402088 -24.819838 -80.255516
34300000000 -25.623343 -45.677353 -1.0211002 28.703785 -0.98626071 28.195019 -25.593201 -87.227295
34400000000 -26.58886 -46.80304 -1.0059907 26.277151 -1.0388089 26.128531 -25.49708 -88.837654
34500000000 -25.566517 -46.726391 -1.0096763 24.148497 -1.0288554 24.1651 -25.56875 -89.931602
34600000000 -26.616728 -42.884064 -0.98458153 22.185154 -1.0373329 22.256443 -26.260908 -88.81395
34700000000 -26.514996 -35.857544 -0.9958272 20.28459 -1.0203629 20.122793 -26.802694 -92.373619
34800000000 -26.592037 -34.801414 -1.0243503 18.397383 -0.9785046 18.17108 -27.10236 -95.986801
34900000000 -27.383121 -34.679005 -1.0287747 16.157652 -1.0278596 16.293001 -29.012966 -101.02295
35000000000 -26.938259 -31.130325 -0.99109954 14.349657 -1.0043567 14.013004 -29.723362 -108.28101
35100000000 -28.403591 -26.898916 -1.0083224 12.252072 -1.0143471 12.233037 -28.680332 -114.44942
35200000000 -27.523634 -20.843868 -1.0237674 10.19048 -1.0157186 10.019147 -29.3638 -118.66884
35300000000 -28.201849 -26.792383 -1.023479 8.1167879 -1.0375186 7.9565105 -29.2782 -107.89413
35400000000 -28.37343 -8.8955603 -1.0245364 5.8819909 -1.0567659 6.1097722 -30.478039 -113.8293
35500000000 -28.367107 -14.93504 -1.0159469 4.2456188 -1.0429022 4.0183606 -32.371437 -116.77773
35600000000 -27.675583 -6.8783522 -1.0375199 1.9521083 -1.048786 1.9875337 -35.717587 -125.38382
35700000000 -26.333994 -12.536221 -1.0461625 0.019819904 -1.0230995 -0.28487468 -35.892544 -131.13348
35800000000 -28.331299 -8.0418673 -1.0344826 -1.7483747 -1.0198541 -2.012737 -34.640938 -149.12714
35900000000 -26.16802 -7.0096455 -1.0530379 -4.0509105 -1.0521178 -3.9211245 -35.454266 -160.1282
36000000000 -27.648506 -6.0386877 -1.0170369 -5.8214478 -1.0082741 -5.8602715 -39.859558 -166.2473
36100000000 -25.851782 4.0070219 -0.98556656 -7.9733701 -1.0201012 -8.111145 -37.358723 164.8244
36200000000 -27.375404 -8.1663361 -1.018852 -10.013362 -0.99220508 -10.109488 -39.070858 156.9256
36300000000 -25.069569 6.8160038 -1.0165831 -12.225144 -1.0186946 -12.617991 -34.628963 123.94372
36400000000 -26.236744 -3.9814765 -0.97081923 -14.205606 -1.0283532 -14.279054 -39.205612 138.32304
36500000000 -24.24271 10.800512 -1.064781 -16.331215 -1.0531378 -16.18644 -34.735138 114.24039
36600000000 -24.142488 1.871392 -1.0262078 -18.23266 -1.0466483 -18.312195 -35.349854 73.462166
36700000000 -24.145372 10.363954 -1.0476521 -20.131859 -1.0549034 -20.472357 -33.302902 81.048805
36800000000 -22.908792 -1.9684492 -1.0419065 -22.033745 -1.0592647 -22.247839 -29.765764 69.912498
36900000000 -23.940897 4.3337736 -1.0780643 -24.212442 -1.0376964 -24.640306 -31.838242 81.456245
37000000000 -21.731947 1.906829 -1.0945356 -26.282333 -1.0678034 -25.982885 -29.020767 77.640648
37100000000 -22.574776 0.49602991 -1.0883712 -28.418182 -1.0730053 -28.361889 -29.976072 80.203445
37200000000 -21.089069 4.2110672 -1.0101993 -30.125799 -1.0318211 -30.33325 -29.029613 58.213367
37300000000 -22.593924 3.8286805 -1.0640662 -32.45974 -1.0652236 -32.599598 -28.79809 46.143814
37400000000 -21.626427 6.0861635 -1.0891787 -34.318939 -1.0705658 -34.31657 -26.158207 52.790886
37500000000 -21.737455 -1.5013405 -1.0647064 -36.559891 -1.0722163 -36.582031 -26.410969 49.807549
37600000000 -20.77356 -0.61936897 -1.0434184 -38.381855 -1.0821164 -38.421932 -25.422668 50.693966
37700000000 -20.842272 -4.5982375 -1.0864339 -40.236401 -1.0925344 -40.527557 -26.071154 48.652843
37800000000 -20.502163 -1.36185 -1.0602212 -42.436062 -1.1250339 -42.633591 -26.197102 47.735191
37900000000 -20.439049 1.2593496 -1.0762404 -44.388519 -1.0891109 -44.369781 -25.991447 35.238987
38000000000 -20.400246 -3.6220126 -1.0714947 -46.380283 -1.0447608 -46.402821 -26.851618 36.843292
38100000000 -21.319351 -5.711905 -1.0753152 -48.470108 -1.1177838 -48.415485 -24.092768 34.098469
38200000000 -19.790346 -6.7909598 -1.0593247 -50.440655 -1.0453374 -50.602722 -23.846504 26.223118
38300000000 -20.820898 -12.947718 -1.1327244 -52.337399 -1.0985972 -52.430023 -24.013451 37.943466
38400000000 -19.418556 -6.4976821 -1.0189433 -54.495518 -1.0694773 -54.198341 -23.927324 26.931398
38500000000 -20.324581 -13.293039 -1.0725414 -56.351711 -1.0920597 -56.638828 -24.877127 28.435375
38600000000 -19.721996 -8.4087858 -1.0827202 -58.558121 -1.1048594 -58.612114 -23.536446 19.8048
38700000000 -19.745663 -15.535472 -1.1129714 -60.772018 -1.1037331 -60.383476 -23.613836 17.19595
38800000000 -19.831575 -6.3001971 -1.0585921 -62.175999 -1.0879806 -62.56913 -22.727238 10.026317
38900000000 -19.01454 -18.946213 -1.095787 -64.515007 -1.0917048 -64.729965 -23.088858 19.815105
39000000000 -21.122047 -12.660889 -1.1235459 -66.293732 -1.1196606 -66.677628 -22.132849 16.480711
39100000000 -18.6703 -18.370274 -1.102228 -68.486633 -1.074068 -68.84034 -23.858494 6.2681193
39200000000 -20.600359 -16.782267 -1.1199569 -70.518127 -1.1090331 -70.626465 -22.032808 5.6850495
39300000000 -18.612612 -17.637735 -1.1331874 -72.834114 -1.1072003 -72.857979 -23.050371 -5.0304427
39400000000 -20.90822 -26.828714 -1.1189097 -74.564423 -1.1093626 -74.623589 -21.956663 6.1810155
39500000000 -19.266926 -18.957798 -1.0983578 -76.512917 -1.1296028 -76.69574 -22.629189 4.0935216
39600000000 -20.443405 -31.261209 -1.1408958 -78.541992 -1.0932409 -78.563675 -22.103477 8.3886471
39700000000 -19.831314 -16.422293 -1.1292311 -80.46508 -1.1855444 -80.560486 -23.664171 -1.4499992
39800000000 -19.605833 -30.402288 -1.1041737 -82.766777 -1.117602 -82.665459 -22.586639 -2.7147186
39900000000 -20.918823 -17.750555 -1.1654785 -84.723183 -1.0974565 -84.98362 -22.204927 -14.990235
40000000000 -19.754623 -31.663647 -1.1136571 -86.691948 -1.0930604 -86.717369 -21.929422 -13.101926
40100000000 -21.446825 -28.128328 -1.1279253 -88.482292 -1.0923983 -88.602692 -21.003721 -12.750005
40200000000 -19.283762 -37.326218 -1.10255 -90.425179 -1.1083825 -90.495796 -22.050791 -8.5802174
40300000000 -21.040915 -34.485882 -1.1367031 -92.712685 -1.141482 -92.781525 -22.167875 -14.534342
40400000000 -19.169775 -31.453451 -1.1261455 -94.505127 -1.0573781 -94.452721 -22.694117 -17.822275
40500000000 -21.289072 -41.367424 -1.1880258 -96.759209 -1.1396172 -96.811653 -22.827526 -25.677944
40600000000 -20.763163 -36.872955 -1.0978155 -98.553085 -1.1228971 -98.578659 -22.680351 -29.953678
40700000000 -20.928738 -44.215912 -1.1145818 -100.53552 -1.1120912 -100.69585 -21.783619 -28.874887
40800000000 -22.348629 -37.346714 -1.1413325 -102.71999 -1.145339 -102.87827 -21.847986 -26.50116
40900000000 -20.632952 -40.707897 -1.1365235 -104.50135 -1.1336381 -105.14294 -22.401625 -20.954172
41000000000 -21.600935 -45.210442 -1.0972422 -106.72942 -1.1620659 -106.73341 -22.844803 -31.317234
41100000000 -21.443071 -37.651695 -1.0746346 -109.01102 -1.1213195 -108.51044 -24.400095 -32.86232
41200000000 -22.787533 -49.232773 -1.1301074 -110.67489 -1.1771237 -110.7828 -24.127773 -41.303497
41300000000 -22.746519 -34.11108 -1.1151714 -112.89513 -1.1437222 -112.63638 -24.376143 -44.397919
41400000000 -22.834713 -45.922421 -1.0889981 -114.81847 -1.0646466 -115.04958 -23.30851 -44.631176
41500000000 -24.502007 -49.379982 -1.122906 -116.66547 -1.0884968 -116.76509 -23.466642 -56.365597
41600000000 -23.415512 -49.922092 -1.1390266 -118.95601 -1.1308486 -119.02226 -23.705198 -51.818932
41700000000 -25.830969 -55.460567 -1.1446674 -120.81329 -1.1145096 -121.22118 -25.095152 -59.349857
41800000000 -23.346104 -38.278355 -1.0838473 -122.89066 -1.0840098 -123.33926 -25.605782 -56.083832
41900000000 -26.39551 -52.878094 -1.1120547 -124.87765 -1.1356231 -125.15694 -25.088133 -69.615723
42000000000 -25.786905 -37.527626 -1.1238964 -126.83586 -1.1753612 -126.99076 -26.372999 -66.417114
42100000000 -27.465111 -54.049965 -1.0822413 -129.22301 -1.0616941 -129.35843 -25.845537 -71.389526
42200000000 -28.848948 -33.635426 -1.0910013 -130.80251 -1.1449636 -131.4001 -27.347181 -73.921822
42300000000 -26.788834 -47.156269 -1.1443443 -133.39578 -1.1683872 -133.1637 -26.350903 -79.605774
42400000000 -30.063744 -24.975147 -1.1551676 -135.28757 -1.1640899 -134.89545 -29.532478 -88.819923
42500000000 -28.23567 -18.117533 -1.1154412 -137.05388 -1.1310699 -137.29959 -28.949539 -85.017006
42600000000 -31.069441 -10.00515 -1.1253777 -138.80023 -1.1067754 -139.26077 -28.895168 -113.00267
42700000000 -30.202877 -16.836609 -1.145061 -141.13812 -1.1389953 -141.18228 -29.251295 -89.138535
42800000000 -37.974194 -45.406502 -1.0943817 -143.17719 -1.1280116 -143.36389 -30.219177 -113.33297
42900000000 -30.122711 9.6163368 -1.1700447 -145.45851 -1.1373059 -145.29103 -33.044296 -104.63499
43000000000 -35.950783 -9.4529181 -1.1481891 -147.65968 -1.1582204 -147.38026 -30.112106 -145.65358
43100000000 -28.423964 26.188837 -1.093812 -149.70862 -1.1142426 -149.90773 -32.566132 -153.26227
43200000000 -29.108387 27.29731 -1.1399567 -150.8735 -1.1255665 -151.82814 -29.188923 -171.99535
43300000000 -28.750875 60.818192 -1.1089188 -153.33562 -1.1464622 -153.82861 -30.698208 -166.44095
43400000000 -28.535145 44.0951 -1.0649986 -155.7363 -1.1496385 -155.73337 -31.340099 179.9184
43500000000 -31.052855 59.184601 -1.0443658 -157.82043 -1.1155801 -157.24142 -29.613907 177.55139
43600000000 -24.301338 37.828487 -1.0826863 -159.96626 -1.1143951 -159.97267 -28.680799 177.74794
43700000000 -25.569733 57.318279 -1.1901006 -162.07298 -1.1575601 -161.94354 -31.35239 149.5489
43800000000 -25.288548 58.949677 -1.2026139 -164.17845 -1.1123768 -163.58199 -26.811377 128.92049
43900000000 -25.239588 50.547089 -1.1530548 -165.67482 -1.1199182 -166.51016 -25.374548 123.37796
44000000000 -23.079432 57.137596 -1.1736263 -167.85284 -1.1528252 -168.18033 -25.04484 136.1109
44100000000 -23.519579 45.495087 -1.1443305 -169.9301 -1.1377684 -170.41054 -26.678478 124.35072
44200000000 -21.425426 60.458317 -1.2090534 -172.3387 -1.2187377 -172.08308 -25.624018 126.70188
44300000000 -20.915533 48.814316 -1.1435416 -174.56444 -1.1863917 -174.29965 -23.56105 116.09319
44400000000 -21.939608 59.382725 -1.1810908 -176.25864 -1.2366412 -176.25206 -23.779016 109.2086
44500000000 -19.126312 48.552555 -1.1733329 -178.55881 -1.2356206 -178.39853 -22.372145 108.22684
44600000000 -20.406641 49.214092 -1.2123363 179.97197 -1.2996966 179.6199 -21.981937 102.4072
44700000000 -18.305052 49.651134 -1.2491434 177.69475 -1.2436424 178.16025 -21.52318 105.24815
44800000000 -19.895966 42.298832 -1.2266803 175.81076 -1.2814612 175.31567 -20.809301 100.23429
44900000000 -17.362808 47.650753 -1.248418 173.9099 -1.270489 173.77434 -20.891308 93.485298
45000000000 -18.231962 42.581997 -1.2877575 171.76427 -1.2586634 171.1944 -19.845255 89.366425
