!Keysight Technologies,N5247B,MY61255062,A.19.80.06
!Date: Monday, May 18, 2026 12:00:06
!Correction: S11(Cdelta 2-Port  ) 
!S21(Cdelta 2-Port  ) 
!S12(Cdelta 2-Port  ) 
!S22(Cdelta 2-Port  ) 
!S2P File: Measurements: S11, S21, S12, S22:
# Hz S  dB   R 50
1000000000 -26.278574 -6.0907531 -0.42216739 -20.960541 -0.42011353 -20.972725 -26.8325 -6.7774954
1100000000 -26.212875 -8.0894337 -0.43567187 -22.990412 -0.4343093 -22.989328 -26.922888 -8.0366411
1200000000 -26.059343 -9.1116228 -0.44265643 -24.983767 -0.44138223 -24.991711 -26.815044 -7.9808702
1300000000 -25.965408 -11.016738 -0.44860646 -27.048616 -0.44849825 -27.054852 -26.733038 -10.266914
1400000000 -25.823641 -12.301056 -0.45457846 -29.018835 -0.45494983 -29.024712 -26.581676 -10.305151
1500000000 -25.700836 -14.187149 -0.45664781 -31.055334 -0.45509642 -31.046612 -26.422499 -11.979462
1600000000 -25.611757 -15.620711 -0.45985991 -33.092152 -0.45880449 -33.093567 -26.364155 -14.135611
1700000000 -25.441555 -17.657688 -0.46291828 -35.103859 -0.46118271 -35.103886 -26.27524 -15.695993
1800000000 -25.352486 -19.684135 -0.46611542 -37.13224 -0.46541059 -37.147449 -26.201427 -17.519009
1900000000 -25.245472 -21.88323 -0.46855995 -39.172649 -0.46808764 -39.188065 -26.125931 -19.627977
2000000000 -25.223766 -23.917065 -0.47517049 -41.240063 -0.4732089 -41.240421 -26.174255 -22.043694
2100000000 -25.119967 -25.968206 -0.47768545 -43.263615 -0.477018 -43.253746 -26.113823 -23.555134
2200000000 -25.063427 -27.965799 -0.48249057 -45.285725 -0.48144698 -45.300434 -26.084051 -25.64179
2300000000 -25.055634 -30.250187 -0.4858909 -47.334637 -0.48566452 -47.341595 -26.099983 -27.442488
2400000000 -25.022154 -32.222492 -0.49181643 -49.347042 -0.4911961 -49.367626 -26.157677 -29.533724
2500000000 -25.020128 -34.525162 -0.49721307 -51.393597 -0.49574953 -51.41304 -26.152222 -31.823502
2600000000 -25.016262 -36.444763 -0.50464422 -53.42448 -0.50284946 -53.429886 -26.237429 -33.623501
2700000000 -24.970949 -38.598072 -0.50632602 -55.444977 -0.5072909 -55.454445 -26.302443 -35.869591
2800000000 -25.022869 -40.765465 -0.512761 -57.455566 -0.51459134 -57.483223 -26.334944 -37.967346
2900000000 -25.051865 -42.496811 -0.51867086 -59.487152 -0.518448 -59.496727 -26.476274 -39.694473
3000000000 -25.076326 -44.945869 -0.52210838 -61.50267 -0.5213626 -61.506386 -26.595196 -41.305851
3100000000 -25.083923 -46.87431 -0.52566379 -63.508392 -0.524037 -63.530098 -26.732677 -43.14962
3200000000 -25.066057 -49.312946 -0.52971625 -65.543701 -0.52962297 -65.531967 -26.795523 -44.969196
3300000000 -25.095322 -51.382889 -0.53165907 -67.553726 -0.53156251 -67.560051 -26.91851 -46.925659
3400000000 -25.136198 -53.517712 -0.53608674 -69.572952 -0.5356636 -69.580055 -26.964552 -48.767788
3500000000 -25.181597 -55.585293 -0.54025334 -71.560936 -0.53812325 -71.589676 -27.049196 -50.333851
3600000000 -25.157455 -57.68803 -0.53956157 -73.586067 -0.54218888 -73.610367 -27.157372 -51.872948
3700000000 -25.247934 -59.940765 -0.54287457 -75.60714 -0.54459471 -75.637352 -27.228594 -53.921986
3800000000 -25.238167 -61.883537 -0.54399908 -77.632294 -0.54503459 -77.645386 -27.345171 -55.60741
3900000000 -25.325335 -64.005043 -0.54602814 -79.674881 -0.5472703 -79.68383 -27.491688 -58.327301
4000000000 -25.30337 -66.219734 -0.5489971 -81.698074 -0.55103028 -81.714317 -27.611551 -60.220085
4100000000 -25.400822 -68.442062 -0.5532549 -83.726021 -0.55579317 -83.725716 -27.776854 -61.85957
4200000000 -25.450584 -70.166107 -0.55660111 -85.744743 -0.55874348 -85.743233 -27.91044 -63.6105
4300000000 -25.517672 -72.880882 -0.55928874 -87.757988 -0.56111348 -87.759964 -28.053585 -65.826485
4400000000 -25.674488 -74.944679 -0.56152767 -89.768745 -0.56211364 -89.788658 -28.260767 -67.202972
4500000000 -25.691435 -77.174294 -0.56405157 -91.796417 -0.56424314 -91.80246 -28.35721 -69.454483
4600000000 -25.803667 -79.403053 -0.56426525 -93.822502 -0.56900841 -93.820999 -28.642164 -71.448608
4700000000 -25.870285 -81.677078 -0.5675689 -95.829071 -0.57182252 -95.848671 -28.770655 -73.761314
4800000000 -26.027891 -83.789253 -0.57068521 -97.863289 -0.57242256 -97.885284 -29.015963 -75.845085
4900000000 -26.105715 -85.839897 -0.57302004 -99.889397 -0.57539076 -99.888649 -29.151196 -77.311577
5000000000 -26.217632 -88.359428 -0.57623756 -101.90323 -0.5781939 -101.91682 -29.450695 -79.680061
5100000000 -26.321802 -90.328011 -0.57953191 -103.93311 -0.58130246 -103.93894 -29.648731 -81.403984
5200000000 -26.421278 -92.856689 -0.58160818 -105.9551 -0.58261925 -105.97181 -30.014362 -83.373352
5300000000 -26.556459 -94.839211 -0.58411264 -107.96464 -0.58500081 -107.97865 -30.319372 -85.787071
5400000000 -26.741604 -97.404503 -0.58846968 -109.9808 -0.58907324 -109.99098 -30.613209 -88.394646
5500000000 -26.929314 -99.675194 -0.58960509 -111.99845 -0.59085059 -112.01434 -30.859976 -90.458168
5600000000 -27.040449 -102.40156 -0.59301591 -114.0179 -0.59466398 -114.02492 -31.141573 -92.149796
5700000000 -27.255121 -104.95365 -0.59596199 -116.03325 -0.59871036 -116.04467 -31.312519 -93.768295
5800000000 -27.395121 -107.11036 -0.59707028 -118.03719 -0.59973854 -118.06572 -31.845892 -95.845673
5900000000 -27.595165 -109.70285 -0.59967285 -120.04999 -0.60060942 -120.07276 -32.385746 -97.47683
6000000000 -27.755419 -112.024 -0.60073012 -122.07428 -0.60273975 -122.073 -32.8881 -100.34393
6100000000 -28.070896 -114.0909 -0.60279655 -124.07338 -0.60267252 -124.09368 -33.277664 -104.21972
6200000000 -28.395527 -116.41479 -0.6016041 -126.10413 -0.60390127 -126.10976 -33.788788 -106.32161
6300000000 -28.771225 -118.55087 -0.60169572 -128.11809 -0.60475212 -128.13864 -34.265827 -106.72887
6400000000 -29.035807 -121.28059 -0.60313022 -130.15718 -0.60466939 -130.16597 -34.922951 -108.67211
6500000000 -29.337494 -123.54789 -0.6056174 -132.18037 -0.60487407 -132.2001 -35.625671 -107.74792
6600000000 -29.564682 -125.54678 -0.60489732 -134.1949 -0.60885054 -134.21736 -36.235126 -109.33836
6700000000 -29.853842 -127.68002 -0.60764098 -136.23276 -0.61059457 -136.26425 -37.086449 -109.75678
6800000000 -30.056536 -128.80528 -0.61016381 -138.25455 -0.61244369 -138.27913 -37.610912 -111.90375
6900000000 -30.406918 -131.46767 -0.61323959 -140.30327 -0.61321932 -140.3125 -38.28289 -110.87657
7000000000 -30.604259 -132.72908 -0.61620152 -142.30971 -0.61767608 -142.34094 -38.650185 -111.07777
7100000000 -31.032515 -135.46558 -0.61858875 -144.34276 -0.62237579 -144.37112 -39.755653 -112.30608
7200000000 -31.383757 -137.91554 -0.62109196 -146.38188 -0.62358946 -146.37971 -40.607876 -116.34607
7300000000 -31.676764 -141.18288 -0.624654 -148.37404 -0.62666667 -148.40002 -41.5089 -115.93443
7400000000 -32.431305 -143.6866 -0.62596965 -150.38861 -0.6269843 -150.42831 -41.963882 -119.17295
7500000000 -32.802399 -145.40718 -0.6253469 -152.4211 -0.62997621 -152.42644 -43.533661 -111.07142
7600000000 -33.50959 -146.28139 -0.62770212 -154.45224 -0.63001186 -154.46559 -44.594688 -107.96531
7700000000 -33.771145 -147.53889 -0.63080919 -156.48663 -0.63274145 -156.51643 -46.346874 -94.828438
7800000000 -34.382729 -150.82788 -0.63599873 -158.51299 -0.63648093 -158.54271 -48.506546 -92.819817
7900000000 -34.732986 -151.32628 -0.63990629 -160.54355 -0.64208657 -160.56076 -51.729076 -89.178322
8000000000 -35.290592 -154.89093 -0.64243048 -162.57802 -0.64403862 -162.58055 -50.271587 -94.547989
8100000000 -36.108688 -155.4623 -0.64835912 -164.60265 -0.64825273 -164.61864 -48.871216 -69.364487
8200000000 -36.714058 -159.39388 -0.65230608 -166.62669 -0.6524381 -166.65439 -45.915806 -56.077175
8300000000 -37.87027 -161.5842 -0.65536851 -168.66943 -0.65728372 -168.66763 -44.175331 -23.026234
8400000000 -38.780651 -168.51704 -0.66529769 -170.70865 -0.66657203 -170.71887 -42.330505 8.5154276
8500000000 -40.231812 -167.89702 -0.68829775 -172.73627 -0.6922071 -172.76762 -39.933094 53.345428
8600000000 -37.995884 -168.51918 -0.74599713 -174.55225 -0.74878651 -174.58316 -33.500443 90.231354
8700000000 -36.490482 135.49287 -0.68315232 -175.55168 -0.68310475 -175.58934 -27.186829 77.239334
8800000000 -60.557465 137.98267 -0.56974447 -178.42905 -0.57193118 -178.47487 -30.520826 49.737076
8900000000 -45.693108 -172.02263 -0.62570149 179.22137 -0.62701929 179.19411 -36.361958 49.65802
9000000000 -45.462349 169.72662 -0.64872128 177.19655 -0.65465635 177.16563 -44.118008 48.284386
9100000000 -49.305874 158.00941 -0.66641027 175.20123 -0.66943526 175.17719 -46.530697 -6.6318941
9200000000 -53.908985 165.15298 -0.67213261 173.21637 -0.6748426 173.18959 -42.383205 -29.201859
9300000000 -66.887215 -174.53026 -0.67584932 171.20746 -0.67681092 171.16821 -39.555141 -23.730175
9400000000 -66.99984 -39.21822 -0.67865849 169.21286 -0.68028277 169.17834 -38.257015 -18.943159
9500000000 -53.79121 4.4777622 -0.68149573 167.1825 -0.68345708 167.17633 -37.762413 -11.210828
9600000000 -49.758553 -5.4709725 -0.68451917 165.1989 -0.68697029 165.15691 -38.091866 -13.32757
9700000000 -46.891277 -7.0590281 -0.68843848 163.18388 -0.68718958 163.15021 -37.874294 -16.666082
9800000000 -44.349483 -19.846289 -0.69102508 161.16461 -0.69262213 161.13274 -37.537243 -22.45093
9900000000 -43.358238 -17.484859 -0.69202435 159.159 -0.69515139 159.11545 -36.602329 -23.495655
10000000000 -41.913353 -21.536526 -0.69337153 157.13922 -0.69437039 157.10942 -36.067799 -25.555256
10100000000 -40.809395 -19.283781 -0.69753742 155.13165 -0.69836795 155.095 -36.02422 -22.956041
10200000000 -39.040531 -24.613773 -0.69824785 153.10875 -0.70068336 153.07834 -36.030743 -26.778965
10300000000 -38.519146 -27.539762 -0.70157772 151.09418 -0.70436978 151.05768 -36.036003 -27.496601
10400000000 -37.310539 -32.967552 -0.70461911 149.07257 -0.70924413 149.05228 -35.734192 -36.457249
10500000000 -37.383316 -35.350071 -0.70636493 147.0571 -0.70762241 147.04848 -34.988213 -36.862564
10600000000 -36.056099 -38.77676 -0.71185875 145.03217 -0.7130971 145.02057 -34.276234 -40.389473
10700000000 -35.744648 -42.51775 -0.71368802 143.02776 -0.71438551 142.98611 -34.313259 -39.005867
10800000000 -34.750851 -42.556156 -0.71264136 141.00703 -0.71734947 140.98608 -33.795322 -39.486423
10900000000 -33.95546 -46.670322 -0.71643746 139.00179 -0.71965057 138.98358 -34.218342 -40.390423
11000000000 -33.633327 -47.921227 -0.72235429 137.00153 -0.72307152 136.9673 -34.136875 -45.419884
11100000000 -33.159447 -52.722927 -0.72509515 134.98573 -0.72481835 134.9585 -34.380707 -49.986702
11200000000 -32.910851 -53.926167 -0.72765595 132.97916 -0.72959602 132.95 -33.731766 -54.243267
11300000000 -32.30162 -57.655224 -0.73047465 130.95381 -0.72982657 130.94823 -33.75864 -58.304531
11400000000 -32.200066 -60.608612 -0.73302847 128.95868 -0.73246282 128.92548 -32.777557 -60.54158
11500000000 -31.503222 -64.439606 -0.73286176 126.95705 -0.73518831 126.93816 -32.770767 -62.76952
11600000000 -31.252052 -68.672157 -0.73541397 124.93439 -0.74043971 124.90761 -32.732288 -64.584389
11700000000 -30.693787 -69.985222 -0.74018675 122.93983 -0.7394501 122.92056 -33.057674 -68.286034
11800000000 -30.587515 -73.570335 -0.74098217 120.94785 -0.74282497 120.91645 -32.715645 -72.256119
11900000000 -30.260361 -75.548409 -0.74534583 118.9431 -0.74560952 118.92425 -32.836517 -78.25296
12000000000 -30.216103 -79.943428 -0.74661463 116.94856 -0.74615937 116.91589 -32.420292 -80.170708
12100000000 -29.942726 -82.788078 -0.74402916 114.95427 -0.74775535 114.933 -32.349319 -85.449532
12200000000 -29.63587 -87.541534 -0.74620706 112.96712 -0.74564147 112.91906 -32.147381 -89.293457
12300000000 -29.419636 -90.145432 -0.74603522 110.95737 -0.74771196 110.91356 -32.237648 -92.832611
12400000000 -29.249037 -93.555717 -0.74479699 108.94962 -0.74800134 108.92213 -32.105923 -96.599319
12500000000 -29.193167 -96.110535 -0.74637395 106.94093 -0.74584436 106.9127 -32.233818 -102.20881
12600000000 -29.10074 -100.0489 -0.74311858 104.95637 -0.74588615 104.90321 -32.017315 -106.04624
12700000000 -29.057734 -102.61059 -0.73922455 102.92966 -0.74140096 102.90079 -32.015759 -110.23618
12800000000 -28.760321 -106.75197 -0.73853683 100.9276 -0.74005014 100.89162 -32.087032 -113.00587
12900000000 -28.683533 -109.38892 -0.73510367 98.877586 -0.73854697 98.860504 -32.160667 -118.34879
13000000000 -28.472263 -112.6321 -0.73515093 96.854393 -0.73720133 96.852631 -32.180431 -122.13831
13100000000 -28.591671 -114.61903 -0.73385662 94.827377 -0.73715013 94.795113 -31.966509 -127.86168
13200000000 -28.359632 -118.06247 -0.73213464 92.811241 -0.73467141 92.777374 -32.144253 -130.43114
13300000000 -28.484978 -121.82653 -0.73220265 90.78125 -0.7323513 90.734634 -31.895674 -134.30446
13400000000 -28.241371 -123.67336 -0.73319674 88.72802 -0.73289824 88.708237 -32.174263 -136.52875
13500000000 -28.119242 -127.70454 -0.7343998 86.701233 -0.7349838 86.672279 -32.098145 -141.83644
13600000000 -27.929668 -128.17912 -0.73428637 84.658974 -0.73546427 84.645149 -32.478241 -146.26384
13700000000 -27.938793 -132.44978 -0.7360239 82.612679 -0.73923433 82.580132 -32.121967 -152.23131
13800000000 -27.974937 -133.07227 -0.74350411 80.561905 -0.74388385 80.537186 -32.040375 -155.53915
13900000000 -27.710028 -137.8627 -0.74867946 78.497475 -0.75585371 78.465836 -31.535521 -156.50314
14000000000 -27.476782 -139.94658 -0.76292813 76.50576 -0.76496488 76.474808 -31.271021 -156.97842
14100000000 -26.847456 -145.57298 -0.76661098 74.600319 -0.76846004 74.559013 -30.704411 -162.3102
14200000000 -27.043156 -149.4055 -0.7587049 72.610268 -0.7620309 72.551254 -30.866274 -169.62045
14300000000 -26.74321 -151.57703 -0.75592577 70.56752 -0.75794262 70.550659 -30.576887 -175.1544
14400000000 -27.100969 -155.76791 -0.75464255 68.563911 -0.7605207 68.516869 -30.493084 178.59204
14500000000 -26.970833 -158.46582 -0.76009423 66.516159 -0.7618193 66.477562 -30.092243 176.50383
14600000000 -27.045605 -163.87802 -0.75629395 64.474884 -0.75974393 64.463684 -29.857199 172.12677
14700000000 -26.890791 -166.10326 -0.76005781 62.456615 -0.76392895 62.42881 -29.850101 170.29048
14800000000 -26.601952 -170.39307 -0.76041061 60.438068 -0.76668847 60.396049 -29.825706 164.76698
14900000000 -26.568481 -171.66762 -0.76339352 58.394279 -0.76820332 58.35162 -29.569475 161.43507
15000000000 -26.402512 -174.62703 -0.7644552 56.376537 -0.77180159 56.329914 -29.337553 157.24702
15100000000 -26.576893 -178.12775 -0.77043569 54.364342 -0.77246827 54.324425 -28.985813 155.08965
15200000000 -26.470636 177.72751 -0.76946306 52.320648 -0.77272743 52.266724 -28.808926 152.11749
15300000000 -26.464418 174.00388 -0.77255827 50.309254 -0.7794078 50.24551 -28.862232 149.68988
15400000000 -26.156603 171.23552 -0.77558571 48.27319 -0.78055215 48.226223 -28.581661 145.34915
15500000000 -26.124287 169.09183 -0.78253305 46.246643 -0.78376967 46.196552 -28.45072 141.69006
15600000000 -25.912098 166.68527 -0.78653038 44.225731 -0.79190081 44.178223 -28.005135 137.96295
15700000000 -25.948385 163.78568 -0.78757852 42.17577 -0.7946443 42.181305 -27.788286 135.52243
15800000000 -25.851768 159.79762 -0.79248542 40.170025 -0.79693699 40.145172 -27.655321 133.67259
15900000000 -25.798454 155.63963 -0.79853767 38.161072 -0.80115491 38.148682 -27.451654 131.18039
16000000000 -25.507008 153.03036 -0.80314362 36.184711 -0.80728096 36.10088 -27.291363 127.29937
16100000000 -25.329891 148.89371 -0.80624455 34.146545 -0.80923384 34.096069 -27.074417 124.14461
16200000000 -25.099319 147.6787 -0.80863971 32.124084 -0.81667197 32.085045 -26.789253 119.71841
16300000000 -25.185101 142.58379 -0.8155846 30.137312 -0.81823027 30.113127 -26.479166 117.61115
16400000000 -25.067028 140.90639 -0.8179993 28.096699 -0.82147455 28.091286 -26.092539 114.90913
16500000000 -24.755985 134.99246 -0.81996512 26.132151 -0.82669926 26.075499 -25.997622 113.43682
16600000000 -24.730062 133.1844 -0.82619232 24.097836 -0.82752162 24.073053 -25.779051 109.77344
16700000000 -24.318304 130.01328 -0.82926399 22.112301 -0.83545935 22.0509 -25.792374 106.69624
16800000000 -24.536232 127.6581 -0.83267832 20.086277 -0.83683258 20.065485 -25.439814 103.33282
16900000000 -24.243505 124.07428 -0.8330245 18.073874 -0.83978051 18.053658 -25.314032 100.79768
17000000000 -24.426226 119.78433 -0.84034967 16.092848 -0.84548765 16.061127 -24.929647 98.668243
17100000000 -24.082592 117.68073 -0.83693898 14.109454 -0.84466851 14.073778 -24.921091 96.485565
17200000000 -23.981493 113.1263 -0.84492415 12.08892 -0.84890097 12.058161 -24.709887 94.933014
17300000000 -23.796 113.34668 -0.84552228 10.094237 -0.85440993 10.078881 -24.777386 91.789482
17400000000 -23.764727 108.95703 -0.84681123 8.1003399 -0.85335809 8.060957 -24.526478 89.232262
17500000000 -23.905579 107.97926 -0.84968913 6.0876265 -0.85306352 6.0572662 -24.35738 85.092659
17600000000 -23.586269 102.68033 -0.85152042 4.0888486 -0.85839421 4.0711665 -24.019939 83.801773
17700000000 -23.712517 100.51159 -0.85678548 2.1049349 -0.85809928 2.0477805 -23.849171 81.029869
17800000000 -23.322273 97.638115 -0.85592443 0.10477547 -0.8616538 0.0349463 -23.742332 80.346642
17900000000 -23.551819 94.823807 -0.86016315 -1.8589246 -0.8634181 -1.924132 -23.835663 77.418015
18000000000 -23.248388 93.53952 -0.86138833 -3.8853524 -0.86693686 -3.9399498 -23.739437 74.757668
18100000000 -23.375814 89.911179 -0.86016631 -5.8816886 -0.86605614 -5.9414415 -23.668585 70.73851
18200000000 -23.102341 88.080833 -0.86054498 -7.8985682 -0.86589909 -7.9146729 -23.333666 68.611877
18300000000 -23.0672 83.879379 -0.860753 -9.8550501 -0.86348665 -9.941638 -23.057072 66.353783
18400000000 -22.948235 82.050415 -0.85903484 -11.851886 -0.86620402 -11.914157 -22.978521 65.512886
18500000000 -22.923573 78.712517 -0.86530858 -13.863665 -0.86582232 -13.934457 -22.935658 63.420597
18600000000 -22.802837 76.330566 -0.86510921 -15.900661 -0.87019086 -15.920871 -23.056578 61.388805
18700000000 -22.760145 72.934311 -0.86404848 -17.883493 -0.86961752 -17.953661 -22.943863 57.380733
18800000000 -22.648329 70.968353 -0.86473262 -19.867006 -0.86961621 -19.933571 -22.819994 54.547874
18900000000 -22.657854 67.974472 -0.86057627 -21.87936 -0.86529338 -21.930042 -22.539574 51.135532
19000000000 -22.47756 65.628181 -0.86424303 -23.889811 -0.86421365 -23.911831 -22.292334 49.899734
19100000000 -22.418581 62.416332 -0.86282539 -25.87677 -0.86644131 -25.923988 -22.226454 48.210835
19200000000 -22.369537 60.832348 -0.86298388 -27.898314 -0.86317462 -27.917679 -22.284271 47.399132
19300000000 -22.346182 57.177052 -0.86072266 -29.896461 -0.86678833 -29.929934 -22.358408 44.266212
19400000000 -22.463505 56.228809 -0.86106449 -31.917738 -0.86754847 -31.964415 -22.426041 42.478664
19500000000 -22.303856 52.49847 -0.86010981 -33.920921 -0.85933965 -33.962204 -22.277893 38.190399
19600000000 -22.390211 50.485279 -0.85753721 -35.911537 -0.86465716 -35.967468 -22.220982 36.72142
19700000000 -21.994545 47.947285 -0.86067784 -37.943317 -0.86179745 -37.983402 -21.958477 34.273964
19800000000 -22.240601 45.601978 -0.85476291 -39.954788 -0.8612116 -39.993565 -22.127426 33.222584
19900000000 -21.967522 45.028534 -0.85267854 -41.947739 -0.86406714 -42.002098 -21.942286 30.265985
20000000000 -22.346664 41.396957 -0.856969 -43.988228 -0.85904431 -44.049 -22.212337 28.538254
20100000000 -22.195959 40.298271 -0.85731238 -46.013226 -0.86067379 -46.073753 -21.951147 25.329149
20200000000 -22.180349 35.162449 -0.85808253 -48.041351 -0.86258668 -48.057945 -22.071974 23.382528
20300000000 -22.116735 34.583305 -0.86272216 -50.062325 -0.86297286 -50.105091 -21.810783 21.47859
20400000000 -21.905537 30.350397 -0.86140287 -52.089012 -0.86400962 -52.116413 -22.077692 19.426531
20500000000 -22.28606 29.674673 -0.8633616 -54.131577 -0.87020004 -54.143368 -21.927948 17.481863
20600000000 -22.068497 25.956688 -0.87482733 -56.097458 -0.87509012 -56.149033 -22.159969 12.884835
20700000000 -22.660557 22.96199 -0.87420106 -58.064362 -0.87676483 -58.150776 -22.003557 10.629507
20800000000 -22.507484 20.818546 -0.88164455 -60.032478 -0.8775214 -60.086391 -22.06554 6.7380095
20900000000 -22.808071 17.764929 -0.86877638 -62.01783 -0.87313366 -62.027153 -21.959702 6.1385236
21000000000 -22.695345 17.808254 -0.8617602 -63.986824 -0.86436373 -64.064995 -22.17708 4.2155542
21100000000 -22.702169 14.461224 -0.8610096 -66.009659 -0.8589052 -66.078941 -22.254459 3.7990324
21200000000 -22.886703 14.269042 -0.85388994 -68.064346 -0.85663033 -68.174049 -22.466892 0.21596238
21300000000 -22.864491 10.312099 -0.85091138 -70.125031 -0.85858756 -70.178902 -22.61241 -1.5504102
21400000000 -23.193254 8.4302444 -0.85453063 -72.206474 -0.85733443 -72.267258 -22.518169 -5.6962509
21500000000 -23.107265 4.9582143 -0.86114562 -74.180397 -0.86222047 -74.243095 -22.506443 -8.224391
21600000000 -23.351131 2.7831771 -0.85697246 -76.19194 -0.86341465 -76.266937 -22.432753 -11.14345
21700000000 -23.440048 1.2342809 -0.85923582 -78.160896 -0.85883361 -78.231384 -22.598475 -11.946947
21800000000 -23.561285 -0.39284617 -0.85534537 -80.183472 -0.85634154 -80.242386 -22.812977 -13.945252
21900000000 -23.864822 -2.3903167 -0.85237896 -82.20295 -0.85764319 -82.266914 -23.110872 -15.02623
22000000000 -23.951014 -4.0485287 -0.8548032 -84.243019 -0.85778415 -84.314468 -23.471712 -19.09128
22100000000 -24.317913 -7.0040441 -0.85624188 -86.280396 -0.85671073 -86.323105 -23.467043 -22.074465
22200000000 -24.497868 -7.8715839 -0.85836798 -88.308609 -0.85864466 -88.366341 -23.583641 -26.39793
22300000000 -24.809761 -12.034413 -0.85830206 -90.318794 -0.85794914 -90.38031 -23.548136 -28.225491
22400000000 -25.281721 -8.9582424 -0.84779948 -92.255295 -0.85494697 -92.335297 -23.723127 -30.87528
22500000000 -25.293438 -12.419703 -0.85233015 -94.355606 -0.85166621 -94.387108 -24.068209 -30.417459
22600000000 -26.06669 -12.254491 -0.84746689 -96.378815 -0.85255599 -96.429352 -24.381807 -34.542114
22700000000 -25.784069 -16.067072 -0.85366559 -98.394394 -0.85308874 -98.455772 -24.780376 -36.549664
22800000000 -26.774546 -19.174051 -0.85101652 -100.43699 -0.85627848 -100.51128 -24.784792 -41.896458
22900000000 -26.202078 -18.933846 -0.84851384 -102.48082 -0.85163158 -102.54044 -25.161726 -44.129135
23000000000 -27.116848 -23.177113 -0.8535071 -104.50143 -0.85840046 -104.59246 -25.149097 -47.683098
23100000000 -27.109991 -19.467752 -0.84751946 -106.5201 -0.84803611 -106.59762 -25.607559 -48.215416
23200000000 -28.080914 -26.574615 -0.8548376 -108.57275 -0.85465193 -108.60064 -25.806189 -52.794205
23300000000 -28.658091 -22.891352 -0.85522968 -110.60934 -0.85754925 -110.66494 -26.607691 -56.396164
23400000000 -28.76524 -31.252457 -0.86330032 -112.62988 -0.85943651 -112.69571 -26.434624 -62.266285
23500000000 -30.021767 -28.784187 -0.86000097 -114.6641 -0.86669886 -114.72803 -26.965555 -66.974586
23600000000 -29.78311 -33.838531 -0.85637558 -116.71224 -0.86579734 -116.77237 -26.513657 -68.75679
23700000000 -31.82304 -32.735146 -0.86457944 -118.6916 -0.8670187 -118.73746 -27.444277 -71.538589
23800000000 -31.714085 -32.522598 -0.86342824 -120.74041 -0.86958778 -120.81941 -27.894794 -73.914452
23900000000 -34.227268 -38.926949 -0.86085016 -122.7831 -0.86837769 -122.84039 -29.269503 -80.797935
24000000000 -34.831367 -31.001297 -0.87083334 -124.77699 -0.87432581 -124.8859 -29.292278 -89.000511
24100000000 -36.65707 -45.697704 -0.87074345 -126.81417 -0.87795103 -126.92055 -29.451868 -101.59073
24200000000 -38.286678 -28.464581 -0.87378448 -128.83151 -0.8763594 -128.92334 -29.098942 -101.96107
24300000000 -39.642502 -41.134758 -0.87731415 -130.87962 -0.88039207 -130.94577 -29.133621 -107.98787
24400000000 -44.397205 -3.4104583 -0.8724286 -132.91733 -0.87897074 -132.9762 -30.185911 -107.10662
24500000000 -45.68737 9.4906197 -0.87592804 -134.87402 -0.88017464 -134.96983 -31.283485 -119.88449
24600000000 -45.19891 84.979736 -0.88014543 -136.96538 -0.88398874 -137.02353 -32.630264 -130.62561
24700000000 -42.547054 80.039291 -0.88615543 -138.94955 -0.89020008 -139.03416 -31.605665 -147.13994
24800000000 -38.653671 100.36896 -0.8863945 -141.01289 -0.88883716 -141.10869 -31.051445 -153.55008
24900000000 -36.373741 92.19239 -0.88606817 -143.05794 -0.89301562 -143.0818 -30.010002 -161.26439
25000000000 -35.262112 95.574471 -0.88766235 -145.07555 -0.89354986 -145.12321 -30.751534 -163.65829
25100000000 -32.926369 93.134499 -0.89678377 -147.05356 -0.896891 -147.15121 -30.790571 -174.22919
25200000000 -31.586159 92.694817 -0.89016515 -149.11932 -0.89901227 -149.146 -31.10083 175.58757
25300000000 -30.228073 93.949913 -0.89346808 -151.14058 -0.89883846 -151.2148 -29.68399 163.71356
25400000000 -28.971041 91.670097 -0.90341979 -153.1938 -0.91076225 -153.22688 -29.327698 155.87201
25500000000 -28.150536 93.082169 -0.90416342 -155.27278 -0.90952724 -155.23531 -28.222612 150.49348
25600000000 -27.012424 90.230293 -0.90833247 -157.21407 -0.9096517 -157.26697 -27.672632 145.71677
25700000000 -26.915031 87.729645 -0.91359341 -159.28836 -0.9135164 -159.31911 -27.305088 142.5136
25800000000 -25.784079 88.566109 -0.90878236 -161.29959 -0.91994774 -161.36096 -26.918907 134.70784
25900000000 -25.420435 82.656036 -0.92135727 -163.30255 -0.92661512 -163.38499 -26.340742 130.84834
26000000000 -24.530411 84.30072 -0.91997683 -165.31322 -0.9234761 -165.39542 -25.678608 125.02595
26100000000 -23.942911 77.469315 -0.92232996 -167.34833 -0.931063 -167.40753 -24.995178 122.01225
26200000000 -23.674046 80.531151 -0.93066269 -169.41367 -0.93465561 -169.46669 -24.51984 116.87189
26300000000 -22.59922 76.08754 -0.94145083 -171.41115 -0.94506395 -171.45009 -24.153648 115.75586
26400000000 -22.859285 76.027275 -0.93982357 -173.4884 -0.94715446 -173.54799 -23.884195 109.17278
26500000000 -21.673389 73.884918 -0.93974483 -175.42175 -0.94724911 -175.52229 -23.156466 107.72978
26600000000 -21.699659 70.713348 -0.93044305 -177.47356 -0.94257981 -177.57077 -22.971228 102.12103
26700000000 -20.915291 71.799561 -0.95632023 -179.49184 -0.9537487 -179.56548 -22.352331 102.68436
26800000000 -21.112478 65.065971 -0.95559406 178.49826 -0.96450937 178.42757 -21.991089 97.551666
26900000000 -20.457861 68.870018 -0.96733922 176.44701 -0.97044539 176.33365 -21.625973 96.737312
27000000000 -20.13472 60.871666 -0.96874869 174.40587 -0.97309446 174.3326 -20.998888 90.562973
27100000000 -19.842808 63.859497 -0.98205912 172.46268 -0.98595929 172.35931 -21.038843 90.252365
27200000000 -19.190226 58.358345 -0.98102367 170.32433 -1.0030025 170.30374 -20.658293 84.571854
27300000000 -19.394783 59.299725 -0.99492937 168.43634 -0.98569912 168.35219 -20.575438 84.225746
27400000000 -18.623737 55.980198 -1.0090901 166.42795 -1.008549 166.31822 -19.881725 79.416313
27500000000 -19.003386 54.868401 -1.0165864 164.40349 -1.0138283 164.44966 -20.035084 77.437584
27600000000 -18.327688 52.012608 -1.0278989 162.39804 -1.0271804 162.42577 -19.419405 75.023148
27700000000 -18.497528 48.907738 -1.0090947 160.43341 -1.0105742 160.39426 -19.390036 73.002815
27800000000 -17.844873 48.914787 -1.0329752 158.42813 -1.0134536 158.29338 -18.969116 71.014168
27900000000 -17.768154 45.236023 -1.0354896 156.34596 -1.0118492 156.42838 -19.006739 67.212265
28000000000 -17.483168 46.824203 -1.0239249 154.39949 -1.0321058 154.36 -18.527426 65.106537
28100000000 -17.294268 42.381744 -1.0145553 152.4369 -1.0267242 152.30466 -18.438555 62.225338
28200000000 -17.12488 42.193436 -1.0439249 150.36053 -1.0589392 150.38768 -17.871292 59.783245
28300000000 -16.96085 37.135532 -1.0552497 148.31084 -1.0490658 148.36755 -17.94173 57.047504
28400000000 -16.821621 35.945766 -1.0571234 146.4857 -1.0580603 146.41757 -17.693182 56.041611
28500000000 -16.64488 34.172245 -1.085795 144.49881 -1.0610549 144.46013 -17.514328 52.060738
28600000000 -16.407831 33.439133 -1.056751 142.4198 -1.0520773 142.58835 -17.421618 50.8111
28700000000 -16.485279 31.328173 -1.068427 140.61534 -1.0413051 140.44794 -17.233156 47.784184
28800000000 -16.327629 31.973598 -1.0529145 138.49776 -1.0749863 138.44943 -16.974968 46.759644
28900000000 -15.993435 27.213869 -1.0555199 136.42097 -1.0455986 136.21935 -17.081036 43.97229
29000000000 -15.909288 26.302353 -1.0625262 134.53264 -1.0683413 134.3429 -16.788506 42.025318
29100000000 -15.609869 23.332685 -1.0594648 132.50165 -1.0841972 132.34541 -16.763023 37.18869
29200000000 -15.815524 22.713816 -1.0713953 130.69121 -1.0562752 130.38666 -16.434008 36.743633
29300000000 -15.456972 20.64242 -1.0835247 128.47081 -1.0901897 128.48738 -16.254519 33.557575
29400000000 -15.866096 20.031059 -1.0886385 126.63606 -1.0848026 126.5989 -15.999004 34.527592
29500000000 -15.435418 17.773365 -1.0820174 124.60817 -1.0769595 124.5222 -16.21137 30.235575
29600000000 -15.733397 14.659781 -1.0834802 122.55583 -1.0872927 122.50103 -16.225744 30.508963
29700000000 -15.276353 15.791162 -1.0535783 120.53819 -1.0969416 120.57581 -16.129986 25.194046
29800000000 -15.403836 11.182931 -1.0717008 118.56515 -1.0988642 118.41069 -16.194826 24.17367
29900000000 -15.193931 13.345613 -1.1029484 116.58672 -1.0878314 116.56759 -15.895065 18.935863
30000000000 -15.115854 8.343646 -1.0969867 114.5649 -1.0890952 114.5407 -15.694098 19.901438
30100000000 -15.351679 9.5229483 -1.106761 112.67435 -1.0808938 112.44982 -15.352079 16.399031
30200000000 -14.909793 5.0335236 -1.099707 110.72306 -1.0946882 110.64384 -15.697837 16.683651
30300000000 -15.341537 5.102881 -1.089874 108.63937 -1.0945933 108.54192 -15.409592 12.438169
30400000000 -14.743635 1.9833137 -1.1056509 106.6969 -1.1044564 106.51156 -15.837473 11.134468
30500000000 -15.258493 0.077869765 -1.0748328 104.58533 -1.0995787 104.53123 -15.399603 6.9833846
30600000000 -14.888186 0.98556715 -1.1339315 102.63384 -1.1116999 102.46079 -15.546505 5.2928691
30700000000 -15.173795 -3.2157199 -1.0982308 100.57193 -1.0948517 100.55956 -15.173806 3.2588577
30800000000 -15.079822 -3.5742247 -1.1067506 98.871346 -1.0890393 98.641678 -15.768159 1.3059028
30900000000 -15.152638 -7.5387111 -1.1184555 96.785255 -1.1154749 96.756546 -15.237935 -0.1435423
31000000000 -15.04066 -7.1106439 -1.0954486 94.616608 -1.1253327 94.534431 -15.657479 -3.8798327
31100000000 -14.960299 -10.434177 -1.1081908 92.677696 -1.0797561 92.633392 -15.562771 -5.7595077
31200000000 -15.058797 -9.4352751 -1.0963625 90.720306 -1.086303 90.705177 -15.552211 -9.4640064
31300000000 -14.97296 -11.858897 -1.0964677 88.711777 -1.0881586 88.732697 -15.487553 -10.422588
31400000000 -15.187766 -13.390241 -1.0755593 86.625778 -1.1100003 86.744492 -15.382035 -13.146745
31500000000 -15.213533 -14.379965 -1.0659388 84.897072 -1.1077293 84.727348 -15.473259 -12.927191
31600000000 -15.490798 -16.978184 -1.0891798 82.867966 -1.0860975 82.706444 -15.844913 -15.777501
31700000000 -15.487431 -19.044514 -1.0929502 80.744858 -1.1036773 80.747025 -15.821578 -17.400837
31800000000 -15.555305 -19.084387 -1.0839627 78.746765 -1.0779107 78.535576 -15.945874 -20.717491
31900000000 -15.497347 -20.942274 -1.083251 76.711243 -1.0773642 76.67514 -15.766155 -24.194077
32000000000 -15.734651 -21.29731 -1.0556741 74.911591 -1.0573529 74.705559 -15.894572 -25.509081
32100000000 -15.911928 -23.687061 -1.0651382 72.781265 -1.0690035 72.661545 -15.69939 -28.827581
32200000000 -16.031837 -25.785109 -1.0655901 70.943787 -1.0754867 70.760628 -16.027786 -29.245316
32300000000 -16.044645 -26.256666 -1.0823622 68.794884 -1.0923153 68.699806 -16.196066 -30.785585
32400000000 -16.482435 -27.807457 -1.0531671 67.020012 -1.091179 66.800385 -16.560074 -34.287548
32500000000 -16.230505 -29.225283 -1.0526654 64.770103 -1.0659895 64.790474 -16.406109 -37.685501
32600000000 -16.737543 -31.911905 -1.0755643 62.651241 -1.0559312 62.686882 -16.590639 -41.384296
32700000000 -16.762981 -31.191469 -1.0443764 60.835674 -1.0567299 60.646317 -16.510134 -41.872677
32800000000 -17.150351 -32.963051 -1.0492935 58.63475 -1.0641313 58.647728 -16.455553 -44.847965
32900000000 -17.077459 -31.451061 -1.0556843 56.519039 -1.0457141 56.722965 -17.067369 -44.697891
33000000000 -17.468779 -36.812828 -1.0589905 54.593987 -1.0593559 54.537045 -17.330748 -48.137329
33100000000 -17.672327 -34.459698 -1.0326892 52.769573 -1.0355573 52.458572 -17.46945 -51.249088
33200000000 -17.634483 -37.565472 -1.0411122 50.732262 -1.0495697 50.521034 -17.530092 -55.144802
33300000000 -18.215841 -37.003853 -1.055209 48.653141 -1.0567837 48.621189 -17.870117 -56.09193
33400000000 -17.790396 -38.188255 -1.049222 46.573872 -1.0590823 46.675999 -17.594572 -59.943352
33500000000 -18.984205 -38.045074 -1.0430478 44.586327 -1.0505153 44.481113 -18.328722 -60.485794
33600000000 -18.441534 -37.369137 -1.0481167 42.640419 -1.0438364 42.430504 -18.331276 -62.710434
33700000000 -19.130966 -39.51141 -1.0576659 40.548565 -1.0539999 40.614857 -18.943254 -65.553711
33800000000 -19.043144 -34.903446 -1.0284828 38.610321 -1.0310287 38.526787 -19.209553 -68.559746
33900000000 -19.45928 -40.377182 -1.014608 36.487541 -1.0417012 36.427006 -19.470982 -72.590004
34000000000 -19.660902 -36.177937 -1.0188504 34.69286 -1.03537 34.37188 -19.796494 -75.561447
34100000000 -20.085257 -39.609673 -1.0162132 32.466904 -0.99377429 32.423275 -19.918003 -76.250893
34200000000 -20.946453 -36.911289 -1.0494771 30.463989 -1.0166247 30.243551 -20.622513 -79.937141
34300000000 -21.034466 -39.883377 -0.98223859 28.295132 -1.0344117 28.301395 -21.192621 -82.657997
34400000000 -21.434181 -34.169155 -1.0446016 26.19993 -1.0321116 26.146212 -21.646906 -88.387665
34500000000 -21.152565 -34.09837 -1.0325 24.135317 -0.99759543 24.160444 -21.942459 -90.809547
34600000000 -21.394274 -33.604206 -1.0455775 22.374023 -1.0301758 21.943525 -22.177557 -91.597252
34700000000 -21.553034 -29.712433 -1.0191143 20.049326 -1.0384223 20.12191 -22.757212 -95.39241
34800000000 -21.819183 -29.864231 -1.0450803 18.303257 -1.03285 17.937437 -23.78842 -100.02275
34900000000 -22.50956 -25.583309 -1.0266148 15.978284 -1.0580009 16.130838 -24.26305 -105.22751
35000000000 -22.562798 -24.431599 -1.0001507 14.113245 -1.0138208 14.049932 -24.708256 -113.91799
35100000000 -23.317932 -24.268522 -1.0246649 12.017661 -1.0575881 11.859348 -24.840542 -117.65128
35200000000 -22.639473 -16.521936 -1.0462049 9.9458647 -1.0266819 9.7665396 -25.23354 -128.90085
35300000000 -22.774254 -19.233829 -1.0208671 7.8909459 -1.0374614 7.7073326 -26.525881 -124.512
35400000000 -22.807102 -9.1558018 -1.0563799 5.7789803 -1.0626172 5.7043986 -26.83869 -133.04739
35500000000 -22.522615 -9.3401394 -1.0744585 3.6588538 -1.0446272 3.9372928 -28.88291 -137.13649
35600000000 -22.934486 -4.6735325 -1.0440537 1.6119783 -1.0424004 1.7205843 -29.076002 -149.44595
35700000000 -21.87767 -6.8981891 -1.0537874 -0.43827721 -1.0390421 -0.47361222 -30.080399 -157.80246
35800000000 -22.405003 -1.0098716 -1.0407592 -2.1161163 -1.0685399 -2.2119231 -29.87837 -175.12767
35900000000 -20.984589 -1.1264558 -1.094079 -4.2371602 -1.0858941 -4.2354283 -29.625513 176.7058
36000000000 -22.076317 -1.605473 -1.0817316 -6.3558249 -1.0707891 -6.6015439 -31.682789 167.52133
36100000000 -20.642992 5.1847601 -1.0514609 -8.3913784 -1.0924098 -8.4590006 -29.563341 151.86194
36200000000 -21.328894 1.6194426 -1.0662234 -10.447329 -1.054677 -10.376751 -30.435698 139.39354
36300000000 -20.354177 8.5064983 -1.0824016 -12.444225 -1.0653151 -12.32245 -29.163982 132.93976
36400000000 -20.666656 -1.7232097 -1.0466309 -14.226727 -1.0685568 -14.498216 -28.253029 125.04819
36500000000 -19.790056 8.6625757 -1.0776128 -16.659119 -1.0417196 -16.428394 -26.600906 115.99609
36600000000 -19.102283 2.2945614 -1.0571086 -18.416105 -1.0426979 -18.499514 -26.355356 99.359558
36700000000 -19.153553 11.291292 -1.0767691 -20.45463 -1.0801362 -20.736881 -25.954813 103.45586
36800000000 -18.530407 5.7481794 -1.0466884 -22.378387 -1.0886219 -22.712608 -24.195354 87.073181
36900000000 -19.344458 11.005416 -1.1185955 -24.785589 -1.1275867 -24.701498 -23.194227 92.58194
37000000000 -17.989679 6.8059177 -1.0700426 -26.5242 -1.1212485 -26.804247 -22.912401 87.862885
37100000000 -18.068884 7.0626307 -1.1131202 -28.802853 -1.1102643 -28.921146 -22.418455 87.121147
37200000000 -16.987358 7.9229436 -1.0852625 -30.878145 -1.079181 -30.936628 -22.771908 76.456284
37300000000 -17.758448 9.7418957 -1.0607443 -33.021904 -1.1148505 -32.90543 -21.822081 67.947495
37400000000 -16.877089 9.3383961 -1.142287 -35.045509 -1.1018244 -35.059803 -20.592093 65.707634
37500000000 -16.825188 4.775806 -1.1241505 -36.678185 -1.1379839 -37.066948 -20.011648 65.514626
37600000000 -16.454758 3.7320035 -1.1134752 -38.947582 -1.1359653 -38.944942 -19.136976 64.320473
37700000000 -16.198465 2.9870868 -1.1535795 -40.868011 -1.1887869 -41.048889 -19.316944 64.901978
37800000000 -15.944902 3.090281 -1.1433553 -43.133511 -1.1592338 -43.110458 -19.317915 61.440544
37900000000 -15.661965 3.1160147 -1.169838 -45.106731 -1.1686171 -45.004444 -19.177845 55.363468
38000000000 -15.432532 1.3093994 -1.1732526 -47.398796 -1.1869738 -47.138779 -18.841536 49.7822
38100000000 -15.325103 2.7873502 -1.1553776 -49.186314 -1.217387 -49.069153 -18.230858 49.541912
38200000000 -15.035973 0.25917193 -1.1893485 -50.99736 -1.174701 -51.25848 -17.933739 45.178967
38300000000 -15.08364 -2.9205992 -1.1690633 -53.106926 -1.2143719 -53.241142 -17.155802 46.361797
38400000000 -14.320562 -1.805257 -1.1704935 -55.10535 -1.152891 -54.940014 -17.091421 43.333385
38500000000 -14.693099 -6.1642709 -1.2115932 -57.300213 -1.1809071 -56.973957 -17.392845 40.886032
38600000000 -14.498294 -2.0210416 -1.2000225 -58.973194 -1.2012928 -59.082031 -16.997633 35.043995
38700000000 -14.19561 -7.9028912 -1.2438941 -60.903534 -1.2622594 -61.243759 -16.526562 33.342644
38800000000 -14.00064 -3.4195318 -1.2321059 -62.96347 -1.2381089 -62.781971 -15.962211 32.811676
38900000000 -14.052752 -10.57997 -1.2366412 -65.014183 -1.2750529 -64.954468 -16.274193 31.823269
39000000000 -14.420758 -7.9559221 -1.2758929 -66.736473 -1.2537843 -66.868507 -15.657746 28.406567
39100000000 -13.17836 -12.942959 -1.2357424 -68.962059 -1.2537584 -68.988251 -16.360054 27.022821
39200000000 -14.179237 -11.380027 -1.2432268 -70.654366 -1.2928925 -70.936348 -15.461418 21.396454
39300000000 -13.142039 -11.615656 -1.2253449 -73.098724 -1.2904152 -73.189049 -15.540579 19.049303
39400000000 -13.958946 -16.697771 -1.2558799 -74.489296 -1.2998128 -75.24192 -14.853472 21.317034
39500000000 -13.158555 -13.220498 -1.2901577 -77.112587 -1.2802086 -76.854256 -14.817342 17.75701
39600000000 -13.679502 -19.274605 -1.2693409 -79.110443 -1.2321419 -78.728638 -14.609235 18.224079
39700000000 -13.359461 -14.887439 -1.2842803 -81.084045 -1.3098458 -80.779846 -15.456996 13.203355
39800000000 -12.996804 -22.318153 -1.3095918 -82.710571 -1.2972465 -82.949677 -14.808313 11.272231
39900000000 -13.400631 -17.123991 -1.312163 -84.436203 -1.292526 -84.509926 -14.650866 4.8630548
40000000000 -13.00087 -23.336155 -1.3011302 -86.811378 -1.2854999 -86.81353 -14.182279 4.9803019
40100000000 -13.691233 -22.313978 -1.2611271 -88.557457 -1.303131 -88.793709 -13.769863 2.9117045
40200000000 -12.52664 -26.188448 -1.2990912 -90.419991 -1.3100891 -90.549904 -13.792791 3.8271441
40300000000 -13.066899 -27.722546 -1.2556819 -92.215324 -1.3302963 -92.354042 -13.895759 0.25340456
40400000000 -12.65052 -26.870581 -1.2902726 -94.384018 -1.3175064 -94.6548 -14.365319 -0.46746257
40500000000 -13.043181 -30.218203 -1.3220336 -96.2472 -1.2759165 -96.488602 -14.12892 -4.7652044
40600000000 -12.835592 -28.98551 -1.2801144 -98.567955 -1.3112302 -98.609787 -14.143572 -8.4903612
40700000000 -13.000851 -32.35936 -1.2909113 -100.54345 -1.2857679 -100.52203 -13.54829 -10.57338
40800000000 -13.125268 -32.818569 -1.3046201 -102.26327 -1.2637318 -102.28295 -13.540469 -11.28595
40900000000 -12.697824 -34.722759 -1.2693033 -104.42529 -1.3108321 -104.33156 -13.629204 -12.56113
41000000000 -13.050208 -35.917904 -1.2703881 -106.2532 -1.3142183 -106.37401 -13.830046 -14.893737
41100000000 -12.625655 -35.988098 -1.2789289 -108.66273 -1.3094661 -108.55416 -14.02534 -16.302494
41200000000 -13.12054 -37.872231 -1.2741225 -110.39795 -1.264101 -110.42253 -13.900076 -18.652641
41300000000 -13.003367 -36.515236 -1.2559155 -111.84754 -1.2817847 -112.17268 -14.098179 -21.648645
41400000000 -13.105312 -40.506325 -1.325581 -113.83549 -1.2963016 -114.37669 -13.724572 -24.478113
41500000000 -13.402463 -41.708328 -1.2755247 -116.01803 -1.2413952 -116.13532 -13.439759 -25.492651
41600000000 -12.944344 -42.066025 -1.2637118 -118.26198 -1.2763652 -118.09269 -13.85298 -26.175617
41700000000 -13.493666 -44.906326 -1.2825006 -120.15233 -1.2719334 -120.00941 -13.833072 -29.811819
41800000000 -12.899453 -43.721684 -1.2698731 -122.41187 -1.3162254 -122.44027 -13.981266 -29.543068
41900000000 -13.552596 -48.258072 -1.2484466 -124.17265 -1.31868 -124.70562 -14.219103 -35.506409
42000000000 -13.536307 -45.494556 -1.2879444 -125.76433 -1.2655557 -126.19753 -14.432438 -36.593956
42100000000 -13.326189 -49.835812 -1.2518777 -127.84904 -1.3050257 -128.21246 -13.879992 -39.134262
42200000000 -13.782598 -47.858292 -1.2174863 -129.8588 -1.2533522 -130.20738 -14.061806 -40.160915
42300000000 -13.347144 -52.03627 -1.2878581 -131.87851 -1.2485201 -131.92828 -13.89853 -41.648426
42400000000 -14.444709 -49.759659 -1.2838478 -134.22595 -1.2541641 -133.93895 -14.231017 -42.755676
42500000000 -13.457789 -52.241459 -1.2160091 -135.96507 -1.2195007 -135.96321 -14.243272 -45.697643
42600000000 -14.29136 -51.932003 -1.3131397 -137.97261 -1.2342405 -137.79704 -15.035911 -48.617424
42700000000 -14.317082 -56.101341 -1.2305653 -140.10788 -1.2364031 -140.22342 -14.061182 -51.228092
42800000000 -14.339401 -61.264488 -1.1944289 -142.33693 -1.2243173 -141.71613 -14.647839 -54.303501
42900000000 -14.645233 -55.929401 -1.2462473 -144.32332 -1.2203817 -143.99747 -14.444187 -53.652657
43000000000 -14.108559 -60.502586 -1.1514995 -146.08612 -1.2583373 -145.80209 -15.098364 -58.269955
43100000000 -15.10938 -54.959431 -1.2320659 -148.12108 -1.2535235 -148.55704 -15.365918 -59.063358
43200000000 -14.577777 -58.406937 -1.1565281 -149.5666 -1.1951137 -149.84363 -15.531418 -62.13966
43300000000 -15.758027 -59.317318 -1.25563 -151.93983 -1.1167897 -151.57271 -16.010487 -62.614204
43400000000 -14.864271 -59.631451 -1.2165798 -153.94319 -1.1653907 -154.16597 -15.408822 -67.463631
43500000000 -15.862466 -65.326424 -1.1261724 -155.9015 -1.2024524 -156.32291 -15.935901 -69.651878
43600000000 -16.086861 -56.810669 -1.1756432 -157.95468 -1.2218988 -158.43567 -15.531092 -72.569595
43700000000 -16.034607 -65.45826 -1.1477824 -160.6814 -1.110725 -160.17043 -16.266247 -66.917587
43800000000 -16.485115 -60.085918 -1.1334674 -162.10753 -1.1656752 -162.1091 -17.160685 -73.059402
43900000000 -16.804792 -66.191475 -1.1584026 -164.73152 -1.106401 -164.47371 -17.559608 -75.509399
44000000000 -16.927725 -64.458069 -1.1435056 -166.59537 -1.1538489 -166.80927 -17.702425 -81.825195
44100000000 -16.183918 -63.107689 -1.2559954 -168.43335 -1.1385448 -168.43271 -17.708836 -82.42823
44200000000 -18.501835 -60.837002 -1.1302928 -170.39418 -1.1302048 -170.7952 -16.854605 -85.777863
44300000000 -17.231972 -61.369442 -1.1714182 -173.08202 -1.11172 -172.83794 -18.218983 -85.275597
44400000000 -18.705582 -65.982155 -1.1327107 -174.11736 -1.2149249 -174.56538 -18.629042 -84.869347
44500000000 -18.006584 -56.473419 -1.2043984 -177.16043 -1.1106986 -177.09523 -18.794815 -85.379272
44600000000 -18.000793 -61.514858 -1.1976852 -178.65985 -1.1559187 -179.02661 -19.788918 -91.355812
44700000000 -19.062307 -53.82209 -1.1520803 179.38933 -1.1699258 179.58261 -20.087059 -95.760323
44800000000 -18.428423 -66.228699 -1.2186017 176.84944 -1.1609677 177.15202 -20.778599 -92.6688
44900000000 -19.255381 -57.946949 -1.1497978 174.67145 -1.0753471 175.21974 -20.330854 -96.51738
45000000000 -19.288313 -62.659058 -1.1303737 173.17628 -1.2140563 173.30312 -22.19799 -96.296547
