!Keysight Technologies,N5247B,MY61255062,A.19.80.06
!Date: Monday, May 18, 2026 12:00:49
!Correction: S11(Cdelta 2-Port  ) 
!S21(Cdelta 2-Port  ) 
!S12(Cdelta 2-Port  ) 
!S22(Cdelta 2-Port  ) 
!S2P File: Measurements: S11, S21, S12, S22:
# Hz S  dB   R 50
1000000000 -26.311743 -7.2922411 -0.42094082 -20.947203 -0.42004937 -20.950611 -26.862106 -7.9715815
1100000000 -26.254789 -9.3579016 -0.43288854 -22.973711 -0.43305787 -22.983067 -26.955976 -9.4451647
1200000000 -26.114523 -10.413632 -0.4429445 -24.972448 -0.44152206 -24.97508 -26.862757 -9.5857048
1300000000 -26.037897 -12.444672 -0.44743726 -27.028723 -0.44842735 -27.031549 -26.807831 -11.789811
1400000000 -25.89402 -13.535899 -0.45233655 -28.9972 -0.45365909 -29.006826 -26.658352 -11.832931
1500000000 -25.742607 -15.369414 -0.45385882 -31.034426 -0.45423356 -31.044907 -26.492332 -13.707445
1600000000 -25.663338 -16.916851 -0.45865375 -33.067081 -0.45919982 -33.074791 -26.443148 -15.71514
1700000000 -25.53545 -19.219282 -0.46203285 -35.078777 -0.46176711 -35.092476 -26.345951 -17.40481
1800000000 -25.435026 -21.132116 -0.46606299 -37.114574 -0.46689561 -37.122131 -26.287416 -19.198782
1900000000 -25.312315 -23.206095 -0.46734214 -39.15205 -0.46876383 -39.164921 -26.182514 -21.399529
2000000000 -25.282497 -25.333828 -0.47400656 -41.207546 -0.47433367 -41.219646 -26.235355 -23.724913
2100000000 -25.187885 -27.241377 -0.47686315 -43.222839 -0.47697467 -43.239826 -26.181314 -25.166063
2200000000 -25.133553 -29.314472 -0.48072776 -45.258694 -0.48059389 -45.264038 -26.131346 -27.22271
2300000000 -25.117704 -31.536814 -0.48443955 -47.298645 -0.48522681 -47.314953 -26.118368 -29.170822
2400000000 -25.087254 -33.332886 -0.49106652 -49.332081 -0.49215621 -49.336628 -26.173565 -31.271763
2500000000 -25.049252 -35.601841 -0.49645263 -51.363037 -0.49568772 -51.375179 -26.186188 -33.306164
2600000000 -25.055656 -37.61451 -0.50277859 -53.3946 -0.50378603 -53.398518 -26.248734 -35.353939
2700000000 -25.018639 -39.47691 -0.50779831 -55.405918 -0.50856131 -55.430511 -26.324118 -37.372353
2800000000 -25.071247 -41.498981 -0.51294541 -57.434399 -0.51387042 -57.430347 -26.349733 -39.117924
2900000000 -25.08749 -43.339054 -0.51838672 -59.451591 -0.51985765 -59.450138 -26.448046 -40.933617
3000000000 -25.104204 -45.408157 -0.52312672 -61.463417 -0.52348036 -61.46064 -26.532442 -42.485466
3100000000 -25.103827 -47.377281 -0.5251981 -63.476665 -0.52763778 -63.488071 -26.646145 -44.026745
3200000000 -25.065702 -49.608772 -0.52954078 -65.491707 -0.5307408 -65.504128 -26.709772 -45.734478
3300000000 -25.09392 -51.612926 -0.5332135 -67.508652 -0.53438026 -67.517296 -26.770395 -47.675827
3400000000 -25.12064 -53.473629 -0.53660691 -69.531693 -0.53743386 -69.517685 -26.886011 -49.408253
3500000000 -25.194805 -55.268341 -0.54086959 -71.533867 -0.54112792 -71.545769 -26.87652 -50.701927
3600000000 -25.165051 -57.171135 -0.5420047 -73.547409 -0.54245514 -73.559204 -26.958809 -51.905861
3700000000 -25.241602 -59.029999 -0.54405308 -75.560188 -0.54569113 -75.570824 -27.020617 -54.094528
3800000000 -25.21236 -60.896172 -0.54569936 -77.584648 -0.54730964 -77.591591 -27.120676 -55.557476
3900000000 -25.281948 -62.872917 -0.54764438 -79.612152 -0.55028713 -79.625763 -27.206257 -57.663544
4000000000 -25.256113 -64.677406 -0.55101293 -81.626541 -0.55467975 -81.654297 -27.314074 -59.223621
4100000000 -25.354322 -66.660675 -0.55510533 -83.668915 -0.55695742 -83.662361 -27.418879 -60.815186
4200000000 -25.393139 -68.193916 -0.55743712 -85.666702 -0.56056267 -85.686928 -27.551912 -62.011703
4300000000 -25.434769 -70.409248 -0.56173182 -87.691132 -0.56454474 -87.699165 -27.613365 -63.708496
4400000000 -25.569195 -71.984489 -0.56412083 -89.704071 -0.56551439 -89.714348 -27.785519 -64.795341
4500000000 -25.587532 -74.130234 -0.56510633 -91.715904 -0.56605577 -91.728287 -27.875101 -66.545975
4600000000 -25.735376 -75.612404 -0.56544012 -93.734406 -0.5703634 -93.754715 -28.05135 -68.302605
4700000000 -25.746519 -77.730545 -0.57184875 -95.747177 -0.57239509 -95.762154 -28.125849 -70.142441
4800000000 -25.890884 -79.432838 -0.57219017 -97.777359 -0.57391632 -97.795242 -28.334934 -71.199509
4900000000 -25.940628 -80.716782 -0.57567745 -99.796227 -0.57803065 -99.812424 -28.408907 -72.702332
5000000000 -26.077255 -82.89463 -0.57879514 -101.81043 -0.58099854 -101.84005 -28.612558 -74.273857
5100000000 -26.152277 -84.336311 -0.58052891 -103.8381 -0.5844692 -103.84492 -28.700579 -74.677277
5200000000 -26.238407 -86.233559 -0.58366138 -105.84924 -0.58622485 -105.86703 -28.992502 -76.446121
5300000000 -26.3902 -87.780106 -0.58653003 -107.86653 -0.58890367 -107.87828 -29.175974 -77.695679
5400000000 -26.538906 -89.5467 -0.59029865 -109.89903 -0.59104276 -109.91563 -29.41769 -79.887985
5500000000 -26.737946 -91.195541 -0.59266812 -111.90545 -0.59394538 -111.92377 -29.546682 -81.007431
5600000000 -26.837729 -92.989861 -0.5951606 -113.91685 -0.5991537 -113.93384 -29.6989 -81.958511
5700000000 -26.985661 -94.97464 -0.59969157 -115.92867 -0.60140222 -115.94494 -29.81426 -82.838943
5800000000 -27.137028 -96.583099 -0.60039717 -117.94261 -0.60307342 -117.957 -30.105293 -83.569199
5900000000 -27.302786 -98.223404 -0.60148281 -119.95117 -0.60350233 -119.95547 -30.344814 -84.574097
6000000000 -27.43844 -99.485329 -0.60277784 -121.95622 -0.60673058 -121.9814 -30.745073 -86.03727
6100000000 -27.719315 -100.45779 -0.60432547 -123.96123 -0.60503536 -123.98134 -31.015854 -87.594421
6200000000 -28.052427 -101.72401 -0.60260445 -125.97807 -0.60744864 -125.99651 -31.258272 -88.869812
6300000000 -28.354574 -102.95648 -0.60698718 -127.98749 -0.60520619 -128.00972 -31.468962 -88.07296
6400000000 -28.590952 -104.25815 -0.60449713 -130.03581 -0.60538709 -130.04025 -31.78714 -88.490906
6500000000 -28.860674 -105.21019 -0.60731614 -132.03877 -0.60939705 -132.06277 -31.983244 -86.945396
6600000000 -28.975096 -106.19996 -0.60674757 -134.08385 -0.60727596 -134.09238 -32.243153 -87.110756
6700000000 -29.232624 -106.64212 -0.60856938 -136.09134 -0.60998178 -136.12077 -32.367634 -87.37851
6800000000 -29.340693 -106.66492 -0.6128729 -138.14293 -0.6124869 -138.14459 -32.547241 -87.307442
6900000000 -29.645081 -107.26572 -0.60947984 -140.17868 -0.61442208 -140.18367 -32.721355 -86.182999
7000000000 -29.79092 -107.53092 -0.61697632 -142.19736 -0.61933678 -142.22475 -32.732224 -86.079643
7100000000 -30.050247 -109.68536 -0.620426 -144.20731 -0.62245107 -144.22438 -32.90123 -86.75193
7200000000 -30.368298 -109.69228 -0.62066072 -146.20709 -0.62325984 -146.20793 -33.337158 -87.447639
7300000000 -30.783998 -110.46783 -0.6217792 -148.24069 -0.62591344 -148.25238 -33.551575 -86.400993
7400000000 -31.100248 -109.00784 -0.62399769 -150.26468 -0.6281535 -150.2869 -33.553333 -87.284523
7500000000 -31.198751 -109.57948 -0.62615478 -152.28128 -0.63037217 -152.30696 -33.461361 -84.811272
7600000000 -31.538261 -107.75278 -0.62878948 -154.31342 -0.6310786 -154.3322 -33.416885 -84.35762
7700000000 -31.669611 -108.04007 -0.63080323 -156.34344 -0.63297713 -156.35782 -33.573696 -81.964462
7800000000 -32.018509 -107.51685 -0.63558519 -158.37141 -0.636204 -158.39677 -34.02478 -82.07251
7900000000 -32.063313 -107.30081 -0.63800675 -160.39182 -0.64200944 -160.40858 -34.196499 -82.99411
8000000000 -32.431519 -106.97697 -0.64004725 -162.42476 -0.64500368 -162.44312 -33.996933 -85.471519
8100000000 -32.548069 -104.86601 -0.6455977 -164.43634 -0.64716583 -164.46484 -33.650421 -83.603508
8200000000 -32.924805 -105.33244 -0.64903778 -166.47765 -0.65130836 -166.50926 -33.088009 -81.136879
8300000000 -33.258072 -102.82788 -0.65459436 -168.52019 -0.65570354 -168.52611 -33.472183 -74.400726
8400000000 -33.782963 -102.93734 -0.66309124 -170.57133 -0.66568571 -170.56766 -34.683117 -67.491737
8500000000 -33.828979 -99.15403 -0.68658918 -172.60022 -0.68817699 -172.6049 -39.441586 -63.0499
8600000000 -33.117966 -106.93447 -0.74775535 -174.41675 -0.74557513 -174.40634 -50.533291 118.6599
8700000000 -40.012474 -123.09216 -0.67894959 -175.40437 -0.67974389 -175.44017 -32.326912 70.695374
8800000000 -34.382915 -77.992416 -0.56662142 -178.29388 -0.57048267 -178.32886 -35.755241 12.896863
8900000000 -33.899292 -92.356094 -0.62348515 179.36755 -0.62540972 179.33147 -41.160362 -49.823448
9000000000 -34.471596 -93.77272 -0.65126145 177.34406 -0.6539548 177.32893 -36.915089 -89.700409
9100000000 -34.559582 -90.00058 -0.66252643 175.36433 -0.66841006 175.33282 -34.281673 -92.054008
9200000000 -34.046772 -87.820213 -0.66655451 173.36264 -0.67235053 173.33893 -32.899151 -88.164314
9300000000 -33.830009 -85.510544 -0.67439604 171.36925 -0.67364144 171.33504 -32.814205 -82.15744
9400000000 -33.635899 -84.596794 -0.67734975 169.36026 -0.68086588 169.33002 -32.970501 -78.999405
9500000000 -33.704014 -82.13176 -0.6809122 167.36331 -0.68444431 167.34964 -33.47916 -76.593689
9600000000 -33.551273 -80.487839 -0.68556178 165.34692 -0.68513924 165.33775 -33.619839 -80.182823
9700000000 -33.366512 -78.249199 -0.68593007 163.34825 -0.6896413 163.33165 -33.58086 -81.697594
9800000000 -32.848686 -78.283607 -0.6901893 161.31046 -0.69142485 161.30344 -33.306816 -82.447647
9900000000 -32.796574 -76.762451 -0.69367671 159.31935 -0.69252437 159.30273 -33.108685 -81.084724
10000000000 -32.402996 -76.157501 -0.69425708 157.30235 -0.69319719 157.28719 -32.949341 -81.484879
10100000000 -32.466938 -74.81218 -0.69979495 155.27654 -0.70067912 155.28062 -33.373901 -80.814232
10200000000 -31.859814 -73.846336 -0.6966275 153.2757 -0.69990808 153.25458 -33.329075 -83.309013
10300000000 -31.717201 -74.050682 -0.70207644 151.26631 -0.70417523 151.24112 -33.418629 -85.292114
10400000000 -31.174044 -74.006287 -0.70428026 149.25206 -0.70623672 149.21529 -32.793118 -86.292274
10500000000 -31.1362 -75.961792 -0.70816749 147.22517 -0.71125311 147.20782 -32.591473 -86.261024
10600000000 -30.727177 -75.192268 -0.70836157 145.2119 -0.70975745 145.1951 -32.289623 -85.461441
10700000000 -30.487728 -75.787987 -0.71441388 143.19724 -0.71530503 143.17184 -32.544308 -83.937683
10800000000 -30.176422 -74.190216 -0.71361935 141.2009 -0.71911472 141.16469 -32.449368 -83.912193
10900000000 -29.764 -74.863518 -0.7190066 139.18736 -0.7228691 139.1783 -32.980316 -85.921661
11000000000 -29.582308 -75.208717 -0.7212429 137.18544 -0.72427452 137.14693 -32.856403 -88.481567
11100000000 -29.267252 -77.18428 -0.72413754 135.18671 -0.72854733 135.16249 -32.883034 -91.238991
11200000000 -29.246674 -77.47345 -0.7282654 133.1599 -0.73081708 133.14282 -32.294334 -91.343437
11300000000 -28.828014 -78.662346 -0.73206753 131.15941 -0.7339161 131.13268 -32.302528 -94.207321
11400000000 -28.720364 -80.142326 -0.73275024 129.16689 -0.73786217 129.13809 -31.859362 -93.032211
11500000000 -28.287821 -81.337654 -0.73465329 127.14823 -0.7378431 127.13214 -31.958216 -93.150131
11600000000 -28.127583 -83.654884 -0.7380622 125.16274 -0.74120259 125.12741 -32.018169 -93.852783
11700000000 -27.842815 -83.840187 -0.74100304 123.14809 -0.74388748 123.1214 -32.292133 -97.459503
11800000000 -27.781755 -86.101234 -0.74589413 121.15097 -0.74778914 121.13341 -32.051998 -99.094788
11900000000 -27.606951 -87.023346 -0.7460798 119.17699 -0.74895352 119.1452 -32.08099 -102.17308
12000000000 -27.596891 -88.753799 -0.74940318 117.16721 -0.75079507 117.15007 -31.827034 -101.65023
12100000000 -27.433733 -90.823837 -0.75054765 115.1769 -0.74953949 115.15395 -31.814951 -105.08547
12200000000 -27.282984 -93.56855 -0.74872929 113.20678 -0.75314879 113.15205 -31.757154 -105.59541
12300000000 -27.204485 -94.844742 -0.75110251 111.20106 -0.75107294 111.16837 -31.903246 -108.31644
12400000000 -27.116665 -96.788704 -0.74879754 109.18527 -0.74915403 109.16187 -31.98172 -109.99527
12500000000 -27.176344 -98.077721 -0.74753207 107.19558 -0.74848694 107.16328 -32.145298 -114.71992
12600000000 -27.190561 -100.26373 -0.74333638 105.17816 -0.7472772 105.16516 -32.133091 -115.45965
12700000000 -27.238646 -101.29655 -0.74108928 103.17413 -0.74503362 103.16856 -32.227081 -118.01616
12800000000 -27.107864 -104.44812 -0.73923343 101.15881 -0.74060822 101.14958 -32.556255 -117.84411
12900000000 -27.163908 -105.03877 -0.73903888 99.14785 -0.73912787 99.108269 -32.716278 -121.45747
13000000000 -27.111227 -106.64197 -0.73381126 97.131691 -0.73822969 97.100922 -33.08353 -122.92947
13100000000 -27.283255 -107.0898 -0.73376864 95.097168 -0.73772436 95.069618 -33.221134 -127.09977
13200000000 -27.230814 -109.34191 -0.73489738 93.073212 -0.73617816 93.02816 -33.534237 -127.22921
13300000000 -27.463549 -110.77021 -0.73323411 91.032646 -0.73629069 91.000015 -33.483894 -128.57704
13400000000 -27.248264 -111.47302 -0.73433846 89.0056 -0.73509938 88.988853 -34.112415 -127.0681
13500000000 -27.317045 -113.92847 -0.7355262 86.980377 -0.73694736 86.95929 -34.536499 -130.85893
13600000000 -27.175461 -113.51368 -0.73509753 84.942421 -0.7377612 84.926338 -35.334721 -131.94798
13700000000 -27.306143 -115.72388 -0.73828828 82.909042 -0.74211675 82.872856 -35.445915 -137.12575
13800000000 -27.425423 -114.7985 -0.74128979 80.879181 -0.7428391 80.849403 -35.728989 -137.85262
13900000000 -27.570065 -118.09777 -0.74605215 78.817574 -0.74957269 78.780075 -35.403137 -137.98711
14000000000 -27.579462 -118.27429 -0.75348532 76.774529 -0.75800121 76.731865 -35.828392 -133.03018
14100000000 -27.002333 -122.0851 -0.76957589 74.797562 -0.77520567 74.749321 -35.271351 -132.57724
14200000000 -27.086637 -125.20069 -0.7705875 72.89946 -0.7750324 72.869064 -35.695816 -138.56483
14300000000 -27.14226 -127.2183 -0.76341414 70.913666 -0.76403886 70.881668 -36.150497 -147.60507
14400000000 -27.74966 -128.82408 -0.75557458 68.900574 -0.75867903 68.850502 -37.200188 -153.71684
14500000000 -27.892109 -129.8 -0.75454491 66.860909 -0.76033628 66.807922 -37.06332 -154.84987
14600000000 -28.373781 -132.95303 -0.75461978 64.816429 -0.75952065 64.777252 -37.688126 -154.68341
14700000000 -28.315228 -133.60002 -0.75851721 62.794956 -0.76369655 62.746872 -37.844334 -153.15756
14800000000 -28.357813 -137.18515 -0.76312226 60.758343 -0.76782674 60.718456 -38.985374 -155.28452
14900000000 -28.43421 -137.38002 -0.76330954 58.758972 -0.7705884 58.747299 -39.14835 -160.50609
15000000000 -28.538404 -138.85309 -0.76257795 56.766109 -0.76592267 56.716042 -39.878517 -166.20226
15100000000 -29.061665 -139.4026 -0.76602638 54.724373 -0.76474136 54.700802 -40.249512 -166.98311
15200000000 -29.362347 -141.25436 -0.76682621 52.682789 -0.76999187 52.638329 -40.507202 -166.15457
15300000000 -29.63625 -143.33553 -0.77025551 50.671474 -0.77226168 50.628075 -41.366676 -162.47935
15400000000 -29.592665 -145.84595 -0.76914507 48.659386 -0.77476722 48.608932 -43.272617 -162.91821
15500000000 -29.680948 -145.52608 -0.77110034 46.622059 -0.77668971 46.59235 -43.963631 -168.52908
15600000000 -29.59584 -147.01064 -0.77446151 44.600437 -0.78096396 44.567951 -45.557537 -179.9648
15700000000 -30.080692 -147.31789 -0.77736986 42.591606 -0.782538 42.543213 -45.047157 -177.40788
15800000000 -30.401438 -150.11177 -0.78486526 40.57172 -0.78684998 40.534515 -45.282581 -179.56738
15900000000 -31.026342 -152.1881 -0.78373992 38.549046 -0.78914291 38.513901 -46.107834 -172.70576
16000000000 -30.840559 -155.69586 -0.78472257 36.538776 -0.79106462 36.507149 -48.833416 -174.43156
16100000000 -31.387413 -157.41907 -0.79120654 34.540592 -0.79831898 34.494907 -51.660641 178.20143
16200000000 -31.079872 -158.42752 -0.7941106 32.514767 -0.79755592 32.485516 -54.123795 129.10442
16300000000 -32.091251 -160.48398 -0.79425329 30.520851 -0.79957193 30.498135 -53.463528 125.80022
16400000000 -32.269165 -161.19661 -0.80239719 28.504421 -0.80605662 28.463745 -50.346592 110.38522
16500000000 -33.222103 -169.40874 -0.79900062 26.501019 -0.80550069 26.459538 -55.152927 113.07545
16600000000 -33.172146 -168.07819 -0.80255038 24.506828 -0.80916834 24.449394 -52.799641 72.980606
16700000000 -33.244225 -175.96823 -0.80843639 22.507755 -0.81126773 22.437849 -54.625839 42.188305
16800000000 -34.181522 -171.51114 -0.81001765 20.486464 -0.81386083 20.439104 -48.134392 42.609818
16900000000 -34.265991 -177.58656 -0.81208849 18.478111 -0.81588131 18.435459 -47.273907 27.351803
17000000000 -36.331913 -177.0554 -0.81171459 16.478159 -0.82046103 16.453926 -46.735168 43.144699
17100000000 -35.850445 176.71254 -0.81627619 14.486877 -0.81769025 14.441525 -46.512993 28.901926
17200000000 -37.486069 172.25626 -0.81664264 12.493937 -0.82377398 12.421839 -46.478561 27.556166
17300000000 -36.077782 174.70282 -0.82044947 10.471535 -0.82273394 10.434365 -45.543015 6.229197
17400000000 -38.07959 168.44142 -0.81929111 8.4695635 -0.82601386 8.4615211 -43.934986 11.395764
17500000000 -37.765404 179.56683 -0.8227061 6.4420285 -0.82775152 6.4136982 -41.505299 6.4686995
17600000000 -40.29427 162.17545 -0.82351017 4.4671159 -0.8263883 4.4208508 -42.129158 14.216781
17700000000 -41.51062 171.47015 -0.82385629 2.4675989 -0.83129036 2.4185872 -40.74173 12.613727
17800000000 -41.552368 149.83276 -0.82542062 0.45671752 -0.82824987 0.4054853 -42.185543 12.178448
17900000000 -44.190865 164.80229 -0.82930189 -1.5469871 -0.82862765 -1.5891954 -41.488773 -4.7139988
18000000000 -43.128654 158.71574 -0.82660937 -3.5655396 -0.83463955 -3.5594711 -40.337322 -9.7186699
18100000000 -47.34869 159.63516 -0.82983238 -5.5450096 -0.83442372 -5.5820818 -38.312851 -9.8813782
18200000000 -46.409771 152.86491 -0.83114493 -7.5552163 -0.83546275 -7.5555792 -38.240303 -7.5577412
18300000000 -53.148109 112.63052 -0.82972175 -9.5464315 -0.83477753 -9.5767679 -37.25808 -2.966326
18400000000 -51.612854 117.75679 -0.82917124 -11.555147 -0.83597708 -11.567225 -38.300755 -4.4014511
18500000000 -52.673134 57.993034 -0.83430541 -13.557184 -0.83310199 -13.585057 -37.87011 -6.27601
18600000000 -51.053829 35.637577 -0.8295626 -15.584523 -0.83318007 -15.615498 -38.291504 -18.184158
18700000000 -46.935307 8.534893 -0.82828027 -17.54632 -0.83457649 -17.610121 -36.885971 -20.840971
18800000000 -46.31493 3.079113 -0.82939184 -19.582048 -0.83015049 -19.589851 -36.001724 -22.386679
18900000000 -44.346035 -3.6508007 -0.82669485 -21.59314 -0.82979697 -21.610067 -34.939163 -21.193476
19000000000 -43.056946 -5.3831167 -0.82375675 -23.58198 -0.82796139 -23.60614 -34.704109 -16.578012
19100000000 -41.197277 -10.14595 -0.82949615 -25.593975 -0.83096063 -25.620899 -35.058666 -17.096758
19200000000 -41.773602 -9.4930725 -0.82532978 -27.591801 -0.82900923 -27.625574 -35.931999 -18.295759
19300000000 -39.328568 -18.035107 -0.82240826 -29.615335 -0.82728612 -29.636908 -35.518883 -25.318787
19400000000 -40.364105 -23.767986 -0.8224746 -31.639715 -0.82752383 -31.672268 -35.565025 -29.639774
19500000000 -38.042679 -21.426476 -0.82326424 -33.647301 -0.82054174 -33.679764 -34.222618 -33.385674
19600000000 -37.981724 -31.032175 -0.81837344 -35.678257 -0.8231228 -35.738403 -34.379784 -33.404903
19700000000 -36.702202 -18.531301 -0.81843656 -37.686291 -0.8225922 -37.75404 -33.755539 -32.63689
19800000000 -37.001606 -29.071423 -0.81806588 -39.731991 -0.8208006 -39.747871 -34.523972 -34.845947
19900000000 -37.403873 -21.091757 -0.81574327 -41.727562 -0.82207733 -41.767128 -33.650181 -34.08424
20000000000 -36.247112 -37.896297 -0.81848717 -43.776379 -0.81857878 -43.834583 -34.354156 -40.445618
20100000000 -36.715508 -31.968742 -0.81956965 -45.80827 -0.82191026 -45.877186 -33.513954 -37.333473
20200000000 -34.431908 -38.621902 -0.81634617 -47.818729 -0.819565 -47.863491 -33.56538 -43.002724
20300000000 -35.264038 -36.046062 -0.82250369 -49.875687 -0.82561779 -49.934677 -33.147068 -37.130825
20400000000 -33.319794 -35.431366 -0.82414979 -51.90667 -0.82134664 -51.944332 -33.499031 -44.905151
20500000000 -34.575272 -42.497265 -0.82602042 -53.930664 -0.82815933 -53.978382 -33.22858 -43.64212
20600000000 -33.002369 -40.546352 -0.83363199 -55.94178 -0.83384091 -56.053562 -32.616219 -50.629665
20700000000 -32.857967 -53.786835 -0.83687025 -57.972919 -0.84082651 -58.041321 -32.103344 -46.971035
20800000000 -31.917421 -50.763603 -0.85416597 -59.975811 -0.85293561 -60.017841 -31.222267 -51.351967
20900000000 -31.391367 -60.427422 -0.85611707 -61.889381 -0.85626113 -61.962208 -31.016466 -49.740032
21000000000 -32.113029 -61.105217 -0.85110283 -63.838547 -0.85807908 -63.868595 -31.155294 -57.111637
21100000000 -31.893169 -64.285561 -0.8362909 -65.806938 -0.84475654 -65.900589 -32.082211 -58.657249
21200000000 -32.918583 -66.79747 -0.83229363 -67.901016 -0.83738786 -67.919769 -32.057079 -63.969532
21300000000 -32.121746 -66.417244 -0.83156812 -69.958076 -0.8302294 -70.006821 -32.283329 -66.765305
21400000000 -31.95015 -70.296555 -0.83158129 -72.028709 -0.8380484 -72.090683 -31.323456 -67.595306
21500000000 -31.127831 -71.230507 -0.8434782 -74.073959 -0.84726083 -74.118034 -30.933754 -66.76136
21600000000 -30.981903 -76.978912 -0.84970111 -76.033386 -0.85788351 -76.101494 -30.438639 -67.788239
21700000000 -31.488461 -80.675308 -0.84892333 -77.939293 -0.84984463 -78.013885 -30.876621 -70.114555
21800000000 -31.825073 -81.051231 -0.83729023 -79.950027 -0.84263456 -79.996902 -31.382023 -74.836174
21900000000 -32.215801 -86.122925 -0.83580071 -82.0112 -0.8388958 -82.014542 -32.046108 -76.75074
22000000000 -32.49419 -83.990456 -0.83444536 -84.033409 -0.83436942 -84.113281 -31.872463 -84.109856
22100000000 -32.356316 -89.876572 -0.83543861 -86.102707 -0.84034681 -86.136612 -31.556765 -84.799393
22200000000 -32.9883 -89.647446 -0.84014708 -88.145912 -0.84310192 -88.171318 -31.039728 -88.713715
22300000000 -32.011055 -91.655174 -0.8363235 -90.156693 -0.83905441 -90.202896 -31.090603 -85.785614
22400000000 -33.500015 -94.819466 -0.84148884 -92.152184 -0.84272039 -92.171875 -31.027826 -87.519325
22500000000 -32.363327 -94.357025 -0.83698672 -94.186615 -0.84290016 -94.217751 -31.868256 -88.292213
22600000000 -33.601856 -106.40237 -0.83502227 -96.19088 -0.83991778 -96.245186 -31.624638 -94.604408
22700000000 -32.849007 -100.9097 -0.8404634 -98.247421 -0.84360737 -98.282242 -32.200363 -97.667389
22800000000 -32.788422 -113.77782 -0.84485275 -100.28001 -0.84682292 -100.31992 -31.022314 -100.48792
22900000000 -33.424389 -102.62684 -0.84230584 -102.2985 -0.85085529 -102.34264 -31.295216 -102.37562
23000000000 -33.100075 -114.60529 -0.84667188 -104.31022 -0.84689999 -104.4073 -30.642376 -103.26551
23100000000 -35.079525 -111.55103 -0.83919382 -106.34856 -0.84252077 -106.40914 -31.640604 -106.79299
23200000000 -33.17218 -120.35221 -0.84832531 -108.37569 -0.85524982 -108.42966 -31.130753 -109.47201
23300000000 -34.773369 -126.38006 -0.85061884 -110.43116 -0.84992021 -110.4436 -31.657022 -116.08706
23400000000 -32.909798 -123.914 -0.85609907 -112.44769 -0.85901028 -112.48593 -30.606768 -117.54478
23500000000 -34.210327 -136.13292 -0.8643223 -114.47201 -0.86215323 -114.50515 -30.715559 -122.74179
23600000000 -33.821144 -126.84257 -0.86058384 -116.51129 -0.86508709 -116.54076 -30.212563 -117.26641
23700000000 -34.030716 -145.96121 -0.86154079 -118.48023 -0.86694348 -118.53968 -31.015772 -124.21994
23800000000 -34.725315 -141.7422 -0.86580902 -120.50665 -0.87185585 -120.5606 -31.347361 -125.69804
23900000000 -33.017342 -153.06892 -0.86810863 -122.51357 -0.86942399 -122.58829 -31.837389 -138.18895
24000000000 -34.554668 -160.08763 -0.87832808 -124.55598 -0.87758726 -124.59779 -30.817225 -142.38583
24100000000 -32.85849 -161.04778 -0.87627959 -126.54237 -0.88075703 -126.63779 -29.883713 -147.44102
24200000000 -34.38126 -171.25247 -0.88292593 -128.57349 -0.87773365 -128.6425 -29.990316 -144.09375
24300000000 -33.428253 -168.30084 -0.87638789 -130.62848 -0.88437778 -130.63655 -29.74638 -146.18318
24400000000 -33.765202 174.99178 -0.88005066 -132.60118 -0.88265568 -132.68275 -31.146093 -146.58273
24500000000 -33.883499 175.00563 -0.88463926 -134.62215 -0.88592529 -134.66801 -31.214523 -157.98289
24600000000 -32.78038 163.5459 -0.88265282 -136.60776 -0.89061576 -136.69261 -31.434929 -166.93634
24700000000 -33.171078 160.66458 -0.88924378 -138.61938 -0.8963545 -138.68188 -30.211964 -174.38777
24800000000 -31.946453 155.5694 -0.89441293 -140.66321 -0.89961952 -140.73138 -29.831423 -175.37167
24900000000 -32.286598 146.51164 -0.89207077 -142.67282 -0.89385986 -142.73967 -28.895672 -176.28064
25000000000 -31.984882 144.74925 -0.89474821 -144.70004 -0.89456308 -144.76013 -29.930992 -178.00627
25100000000 -31.406677 135.34048 -0.89536691 -146.68501 -0.90191382 -146.75006 -30.060816 175.82484
25200000000 -31.352821 128.51825 -0.90032011 -148.70107 -0.89797348 -148.7657 -30.651703 167.33742
25300000000 -30.472172 125.61706 -0.89550149 -150.72041 -0.90280694 -150.75145 -29.413847 160.8472
25400000000 -30.025394 118.54307 -0.8985191 -152.71603 -0.90570533 -152.80115 -29.590082 157.73009
25500000000 -29.603548 117.6701 -0.9060111 -154.77231 -0.90617472 -154.81253 -28.791389 153.29689
25600000000 -28.835125 111.22369 -0.91299671 -156.80273 -0.91040438 -156.83269 -28.836151 149.83255
25700000000 -29.258219 107.70892 -0.91269869 -158.80591 -0.91216117 -158.83612 -28.716501 145.85612
25800000000 -28.281639 106.1203 -0.91049027 -160.78004 -0.91094267 -160.83539 -28.81274 140.46379
25900000000 -28.498259 96.963585 -0.91285551 -162.8367 -0.91073483 -162.88576 -28.417318 136.39905
26000000000 -27.432165 98.843834 -0.91478968 -164.86937 -0.91594338 -164.8882 -28.365736 130.37109
26100000000 -27.191677 87.743202 -0.91735673 -166.87357 -0.92626268 -166.92325 -27.750799 128.30186
26200000000 -27.002529 91.135849 -0.91727966 -168.88081 -0.92478079 -168.9417 -27.720127 122.34006
26300000000 -26.010798 83.191872 -0.92210782 -170.83516 -0.92908758 -170.92378 -27.113495 122.21206
26400000000 -26.668962 83.397507 -0.93451726 -172.99634 -0.93014699 -172.93523 -27.347422 114.45901
26500000000 -25.245461 80.695396 -0.92649245 -174.84952 -0.92923671 -174.95239 -26.699392 114.44447
26600000000 -25.827528 74.105652 -0.9332909 -177.00934 -0.93372381 -177.00107 -26.751196 105.57841
26700000000 -24.701523 75.45565 -0.92662698 -178.93588 -0.93113869 -179.0015 -26.399012 107.42329
26800000000 -25.177019 68.142441 -0.93217933 179.02838 -0.94063133 179.01143 -25.780602 98.630577
26900000000 -24.018511 71.15451 -0.9375053 177.03706 -0.95371968 176.97737 -26.268467 100.55009
27000000000 -24.267132 61.429405 -0.94496226 174.97469 -0.9532125 174.94501 -25.289555 92.920509
27100000000 -24.083651 66.978226 -0.94368207 173.01187 -0.95807403 172.98387 -25.624041 93.745163
27200000000 -23.379847 58.022015 -0.94015044 170.92995 -0.96963823 170.87613 -24.85956 86.762497
27300000000 -23.66901 59.285149 -0.94194889 168.97417 -0.95235568 168.87073 -25.190571 85.368774
27400000000 -22.725073 55.706116 -0.97259998 166.93925 -0.96015823 166.89357 -24.226454 80.258026
27500000000 -23.659853 53.379261 -0.95755929 164.88463 -0.96613258 164.82018 -24.812592 76.675102
27600000000 -22.720469 50.978661 -0.97584307 162.87834 -0.97154278 162.94785 -23.715519 74.731422
27700000000 -23.103334 44.332912 -0.96337593 161.04156 -0.97571409 161.03407 -24.484182 72.360924
27800000000 -22.064072 46.158684 -0.97201127 158.9619 -0.97959751 158.97293 -23.599924 71.141533
27900000000 -22.25041 40.118923 -0.98147595 157.04918 -0.96223211 156.98402 -24.271164 64.810455
28000000000 -21.951437 43.446812 -0.95673287 154.96208 -0.98984766 154.77878 -23.389034 63.711884
28100000000 -21.881628 39.062305 -0.9658345 152.9538 -0.99086183 152.96095 -23.530138 56.553951
28200000000 -21.61237 38.029766 -0.98168916 150.92337 -0.98358703 150.94771 -22.816505 56.298405
28300000000 -21.098082 32.992477 -0.99226981 149.01057 -1.0038198 148.91553 -23.354759 52.641792
28400000000 -21.375635 31.061829 -0.99112654 146.96547 -0.99640709 146.8779 -22.607407 52.817093
28500000000 -21.043484 29.625984 -0.98641437 145.019 -0.98686665 144.94878 -22.842344 45.820778
28600000000 -21.086679 28.729074 -0.99389213 142.99516 -0.98754084 143.04077 -22.630728 45.708881
28700000000 -20.999908 25.980072 -0.96911138 141.10896 -0.98402405 141.02637 -22.303955 41.486511
28800000000 -21.171322 26.34914 -0.98476893 138.95335 -0.9734391 138.93288 -22.312517 43.112976
28900000000 -20.868963 20.884996 -0.98580855 136.9259 -0.97509646 136.94374 -22.3675 38.048161
29000000000 -20.85042 22.178764 -0.97562629 134.94392 -0.96731722 134.95299 -22.073286 35.423874
29100000000 -20.246376 17.066982 -0.96010786 132.98343 -0.96587425 132.88222 -21.970333 30.252138
29200000000 -20.740265 18.302021 -0.95398313 130.87981 -0.96055317 130.70743 -21.704725 29.733753
29300000000 -20.410387 17.165527 -0.97973442 128.74507 -0.9787342 128.92271 -21.359789 26.738131
29400000000 -20.709583 16.016108 -0.97498536 126.92169 -0.98133516 126.83384 -21.071018 29.054823
29500000000 -20.138823 14.186459 -0.97695547 124.81753 -0.97874326 124.7731 -21.341675 22.354172
29600000000 -20.414328 7.3333488 -0.98225451 122.90524 -0.957416 122.7664 -21.391146 23.209661
29700000000 -20.057684 10.381036 -0.98359835 120.82681 -0.97330403 120.7055 -21.42482 15.342592
29800000000 -20.28476 3.3281217 -0.97521603 118.83178 -0.9979912 118.62622 -21.402763 15.957217
29900000000 -19.976229 9.1590548 -0.97335035 116.83656 -0.98830616 116.7987 -20.977432 8.5718355
30000000000 -19.837217 2.3274729 -0.975438 114.79879 -0.99383843 114.65856 -20.934401 10.279002
30100000000 -20.733759 6.7449112 -1.0022917 112.84466 -0.94854903 112.63335 -20.334471 8.0635052
30200000000 -19.758512 -1.6206752 -0.96844423 110.81621 -0.99127907 110.79366 -20.93359 7.5219245
30300000000 -20.494854 -0.5703637 -1.0078392 108.71907 -0.99386346 108.68483 -20.698223 1.9694473
30400000000 -19.535822 -3.7353644 -0.99194652 106.92004 -0.99167877 106.68224 -21.236469 0.15585338
30500000000 -20.734182 -4.7544584 -0.99723423 104.62875 -1.0132012 104.62382 -20.736971 -5.1147876
30600000000 -19.906054 -3.6878428 -0.97049165 102.74606 -0.98070925 102.6775 -20.875862 -7.0178418
30700000000 -20.559483 -8.9806767 -0.99348468 100.56353 -0.99054772 100.66328 -20.287212 -8.3820028
30800000000 -20.417973 -8.6994524 -1.0093334 98.75721 -0.99509668 98.599014 -20.70715 -11.261938
30900000000 -20.324127 -15.272401 -0.97790277 96.783936 -0.98472798 96.613289 -20.470369 -11.908978
31000000000 -20.602222 -10.05258 -0.99905872 94.83609 -1.0048422 94.443016 -20.906986 -16.814682
31100000000 -20.362114 -16.276413 -0.98046333 92.78051 -1.0058883 92.576134 -20.882036 -20.341568
31200000000 -20.561914 -14.068333 -0.96883088 90.645233 -1.0011106 90.56649 -20.84021 -26.790222
31300000000 -20.349714 -17.260027 -0.98540646 88.597641 -1.0281783 88.558784 -20.784163 -25.309402
31400000000 -21.273462 -17.861509 -1.0109853 86.60556 -1.016203 86.461937 -20.699053 -29.546122
31500000000 -20.780378 -19.786522 -1.0201064 84.530205 -1.0160424 84.372276 -20.901541 -27.005293
31600000000 -21.467337 -21.849606 -0.98783296 82.631073 -1.0009238 82.63166 -21.182453 -32.655716
31700000000 -21.398205 -21.410395 -1.0069624 80.39109 -0.99847686 80.385292 -21.315853 -35.472454
31800000000 -21.389217 -22.213667 -0.99225032 78.359055 -1.0083208 78.336967 -21.497763 -41.787758
31900000000 -21.242928 -22.913162 -1.0056974 76.400337 -0.9945541 76.546005 -21.104284 -42.897213
32000000000 -21.968374 -23.158012 -1.0064418 74.628616 -1.0202521 74.433533 -21.221033 -46.517879
32100000000 -22.269531 -26.023687 -1.0009296 72.445847 -0.99329501 72.384842 -21.238197 -44.713524
32200000000 -22.586472 -23.597536 -1.017242 70.581757 -1.015525 70.401344 -21.522633 -49.697746
32300000000 -22.645578 -23.771801 -1.0006174 68.657364 -1.0301702 68.357269 -22.006466 -49.884789
32400000000 -23.328409 -26.144859 -0.99877429 66.628502 -1.0098151 66.368645 -22.515343 -57.466999
32500000000 -22.917345 -27.806084 -1.0135379 64.336868 -1.0068426 64.251625 -22.244215 -59.497978
32600000000 -23.763468 -30.248924 -1.0123979 62.52739 -1.0051607 62.147312 -21.846169 -65.48822
32700000000 -23.82872 -26.396997 -1.0204604 60.366272 -1.016416 60.125465 -22.118374 -65.305489
32800000000 -24.806107 -30.383801 -0.99229264 58.356739 -1.0179262 58.288582 -22.045507 -70.399986
32900000000 -24.590141 -22.092957 -0.9925831 56.264481 -1.0000265 56.014626 -23.013803 -68.778931
33000000000 -25.594992 -32.324692 -1.013333 54.235619 -0.99827814 54.090927 -23.066803 -74.331123
33100000000 -26.200251 -24.453239 -0.99796999 52.230743 -1.0032419 52.115868 -23.540579 -78.975731
33200000000 -26.079269 -28.936632 -0.9986186 50.200172 -1.0321639 50.127892 -23.313913 -85.90937
33300000000 -27.166765 -17.627911 -0.97917688 48.19323 -1.0005262 48.111534 -23.781569 -86.811516
33400000000 -26.262451 -23.429605 -1.0105299 46.021721 -1.0120498 45.872437 -23.452059 -91.783463
33500000000 -28.39279 -16.067339 -0.98960674 44.153103 -1.0236467 44.112423 -24.117067 -95.384621
33600000000 -26.75824 -10.750531 -1.0116204 42.16029 -1.0531669 42.050224 -24.387838 -98.892036
33700000000 -28.195904 -10.65643 -1.0004734 40.159161 -1.0274444 39.94413 -25.442905 -102.74347
33800000000 -26.732704 -3.9842365 -1.0371307 38.228794 -1.0312802 38.028156 -25.785709 -110.55945
33900000000 -27.558321 -6.0972133 -1.0288777 35.889763 -1.0094944 35.990791 -25.027193 -112.20442
34000000000 -26.68819 2.531713 -1.0023602 34.076591 -1.0245 34.027866 -26.108503 -117.47174
34100000000 -27.842752 4.3917904 -1.0101492 32.101112 -1.0280399 31.931562 -25.780575 -121.11248
34200000000 -27.322908 18.573343 -1.0284339 30.201056 -1.017669 29.761965 -27.408709 -124.95795
34300000000 -27.35722 14.705428 -1.0132408 27.9251 -1.0177537 27.886072 -26.977039 -137.21458
34400000000 -27.116751 21.471598 -1.0575352 26.044085 -1.0104946 25.827114 -27.078669 -149.03877
34500000000 -26.458004 21.453161 -1.0562687 23.766148 -1.0601776 23.706923 -26.553112 -154.08646
34600000000 -25.918758 23.063147 -1.0505775 21.748766 -1.0434461 21.671198 -27.774389 -152.06006
34700000000 -24.955713 28.217773 -1.0549707 19.884878 -1.0540299 19.686613 -28.521854 -164.1235
34800000000 -24.82288 26.63829 -1.0572546 17.851156 -1.0610989 17.639503 -27.732052 -168.68083
34900000000 -24.285339 33.985695 -1.0649103 15.749964 -1.084676 15.789552 -28.564714 176.56461
35000000000 -24.273445 31.37398 -1.069029 13.739367 -1.0604277 13.76912 -26.992085 162.12865
35100000000 -23.842871 35.917526 -1.0822004 11.867905 -1.0641141 11.772564 -25.859953 169.48471
35200000000 -22.980486 37.551693 -1.0520997 9.756876 -1.0292783 9.7643127 -25.989866 160.49323
35300000000 -23.045725 31.499607 -1.0635453 7.8116345 -1.0815659 7.5635195 -26.327106 159.7487
35400000000 -22.207769 37.133816 -1.0586635 5.6438212 -1.0319924 5.5742455 -25.875231 152.98454
35500000000 -22.005346 35.253391 -1.0646522 3.831542 -1.0826335 3.6075637 -25.301023 141.9868
35600000000 -21.843281 39.43433 -1.0832281 1.8701946 -1.0685946 1.7341729 -24.997177 132.08749
35700000000 -21.341766 32.480934 -1.0712472 -0.27935433 -1.0557953 -0.57054812 -23.78475 132.34264
35800000000 -20.965014 39.240925 -1.0695627 -2.4198198 -1.0759648 -2.4786885 -23.668528 125.15452
35900000000 -19.950661 34.951775 -1.057304 -4.571279 -1.1021596 -4.5744534 -23.165287 124.34178
36000000000 -20.610073 35.787563 -1.0647763 -6.761127 -1.1080157 -6.4866152 -23.088356 114.97193
36100000000 -18.934988 36.476475 -1.075233 -8.7380886 -1.1056279 -8.78444 -22.320757 106.95697
36200000000 -19.764177 38.733318 -1.0793422 -10.893549 -1.0461934 -10.863635 -22.26355 104.38399
36300000000 -18.455286 38.194302 -1.0995593 -12.613426 -1.0821044 -12.741385 -21.431408 99.895477
36400000000 -18.708529 32.432655 -1.1059401 -14.935017 -1.1293842 -14.803153 -21.432957 96.64238
36500000000 -17.62344 34.767735 -1.1290303 -16.914124 -1.1091708 -16.726883 -20.991772 91.92868
36600000000 -17.650927 28.947212 -1.1077675 -18.810026 -1.1024339 -18.805151 -20.882942 81.992661
36700000000 -17.323692 34.338936 -1.1506571 -20.855391 -1.1309793 -20.877666 -20.490541 86.001389
36800000000 -17.105099 25.970133 -1.1387178 -22.815083 -1.137617 -22.831068 -19.272537 78.853432
36900000000 -17.210102 29.476488 -1.1568164 -24.873734 -1.1626089 -24.954596 -19.245102 80.489967
37000000000 -16.292431 25.215134 -1.1534352 -26.718412 -1.134153 -26.768881 -18.78544 77.30117
37100000000 -16.764748 25.519459 -1.1794535 -28.973667 -1.1760148 -28.941725 -19.308794 75.656982
37200000000 -15.575175 24.388695 -1.1879469 -30.832512 -1.1361949 -31.048525 -18.920921 67.942955
37300000000 -16.098848 25.557489 -1.1762995 -33.154301 -1.1485575 -33.038548 -18.887535 62.343227
37400000000 -15.56044 25.008394 -1.1531413 -34.778481 -1.1932158 -35.01453 -17.413252 61.523373
37500000000 -15.614892 20.357021 -1.1772951 -36.986786 -1.2263373 -36.970467 -17.283796 57.093071
37600000000 -15.342264 19.384785 -1.2009815 -38.977947 -1.1988487 -38.828411 -16.984266 58.098206
37700000000 -15.241052 17.993315 -1.1987089 -40.672256 -1.2088259 -40.967213 -16.98815 55.150173
37800000000 -14.767334 16.531157 -1.2008579 -42.989468 -1.1986127 -42.824421 -17.130325 51.302818
37900000000 -14.405212 16.561914 -1.2038635 -44.913242 -1.2282658 -45.12133 -17.185369 50.385548
38000000000 -14.546539 14.661526 -1.2346233 -47.038975 -1.2033249 -46.840176 -16.997604 44.608337
38100000000 -14.646546 14.83045 -1.2532133 -48.967976 -1.2456193 -49.151409 -16.105705 39.251022
38200000000 -14.146718 11.949114 -1.2273561 -50.991352 -1.1847802 -50.910683 -15.928297 40.323265
38300000000 -14.576138 10.423091 -1.2992179 -52.880608 -1.2701048 -53.110825 -15.821388 40.733276
38400000000 -13.797861 11.05169 -1.2366136 -54.948822 -1.2572494 -54.420898 -15.56008 36.938404
38500000000 -14.394495 7.2597747 -1.1949862 -57.087086 -1.2534958 -56.916847 -15.913444 34.411911
38600000000 -13.871378 10.208561 -1.2524047 -58.663101 -1.2339265 -58.767944 -15.884569 26.991308
38700000000 -13.776152 3.9189427 -1.2810979 -60.900215 -1.3139055 -61.068153 -15.378619 26.912296
38800000000 -13.46408 6.9208517 -1.2476054 -62.794704 -1.2860881 -63.029724 -15.113109 23.549223
38900000000 -13.469666 1.3535565 -1.2581232 -64.750786 -1.2252653 -65.10881 -15.156014 24.34079
39000000000 -13.890674 4.7416224 -1.2825166 -66.373665 -1.2900553 -66.846222 -14.566408 23.151417
39100000000 -12.936607 0.16114876 -1.2815019 -68.869446 -1.3140624 -69.058838 -15.394376 17.916018
39200000000 -13.844495 2.0889409 -1.2712111 -70.96431 -1.2661402 -70.642601 -14.420727 12.911449
39300000000 -12.81056 -1.3683548 -1.2881866 -72.756226 -1.3254576 -73.09507 -14.555734 9.6982098
39400000000 -13.856129 -3.0707607 -1.2947507 -74.542213 -1.3169076 -74.757385 -13.982388 11.856139
39500000000 -13.068308 -2.3298264 -1.3382258 -76.739166 -1.3450887 -76.730362 -14.405059 10.09505
39600000000 -13.679906 -7.9854012 -1.2926903 -78.690231 -1.294082 -79.002304 -13.903193 9.4123306
39700000000 -13.119838 -1.9540303 -1.3671043 -80.832298 -1.3488199 -80.521782 -14.476815 4.9632478
39800000000 -13.155791 -11.005773 -1.3291887 -83.009598 -1.2908769 -82.924583 -14.21766 1.6038198
39900000000 -13.244585 -4.4851012 -1.3628285 -84.668213 -1.3032504 -84.243317 -14.074626 -3.9887776
40000000000 -13.142134 -12.519863 -1.2467302 -86.359314 -1.273513 -86.587982 -13.659824 -3.9579163
40100000000 -13.634097 -9.6554117 -1.2656161 -88.383453 -1.288012 -88.575165 -13.358194 -7.7203326
40200000000 -12.886908 -13.391 -1.3225088 -90.266876 -1.2789286 -90.266426 -13.689112 -7.1878939
40300000000 -13.480881 -14.076639 -1.2831532 -92.493019 -1.3297938 -92.275589 -13.640138 -9.5339136
40400000000 -12.803032 -14.530765 -1.3339717 -94.024124 -1.3124634 -94.403534 -13.976407 -12.039249
40500000000 -13.207823 -17.229979 -1.3134339 -96.471771 -1.3383791 -96.16861 -13.870681 -16.9027
40600000000 -13.264912 -13.566617 -1.2584777 -98.249565 -1.3087928 -98.190651 -13.921604 -19.478289
40700000000 -13.234311 -19.512779 -1.3328509 -99.88266 -1.2485573 -100.32903 -13.219385 -22.641619
40800000000 -13.534953 -17.617741 -1.3046038 -102.36412 -1.2653389 -102.28882 -13.471074 -23.358711
40900000000 -12.917692 -19.336981 -1.300711 -104.35777 -1.296185 -104.29088 -13.550826 -24.239046
41000000000 -13.097486 -20.184521 -1.2254828 -105.97575 -1.2775016 -106.04093 -13.594554 -28.112444
41100000000 -12.960034 -21.33923 -1.2968615 -108.26453 -1.3177648 -108.40656 -14.009733 -30.212368
41200000000 -13.5017 -23.513313 -1.3330255 -110.21835 -1.2857895 -110.2401 -13.822427 -34.739883
41300000000 -13.251087 -20.64308 -1.2776903 -111.65846 -1.304824 -112.16827 -14.097731 -36.234737
41400000000 -13.5169 -23.939655 -1.3488541 -114.14473 -1.2759377 -114.40722 -13.768032 -39.66737
41500000000 -13.773372 -24.465017 -1.2771199 -116.11381 -1.2896696 -116.1816 -13.59264 -42.582214
41600000000 -13.382803 -26.752043 -1.2873895 -118.32997 -1.2416798 -118.5821 -14.085201 -41.727905
41700000000 -14.36161 -27.063951 -1.2403051 -120.19212 -1.2981986 -120.27293 -13.995809 -46.754593
41800000000 -13.196015 -26.912516 -1.2714332 -122.22367 -1.3228911 -121.9711 -14.406589 -47.222656
41900000000 -14.151022 -30.437584 -1.2645357 -124.31017 -1.2500612 -124.22073 -14.069968 -53.454353
42000000000 -13.951355 -26.431459 -1.1996969 -125.71326 -1.2509788 -126.22933 -14.535892 -55.489815
42100000000 -13.684753 -30.364029 -1.2885476 -127.87412 -1.2915641 -128.41823 -14.129106 -57.109623
42200000000 -13.87964 -26.54394 -1.2704744 -130.22299 -1.2246925 -130.54338 -14.409631 -59.062752
42300000000 -13.97365 -31.110481 -1.2703389 -132.5997 -1.2716892 -132.1232 -14.327407 -61.064781
42400000000 -14.729012 -29.44932 -1.2325039 -133.89677 -1.2961003 -134.12465 -14.770375 -63.663368
42500000000 -13.794184 -29.713936 -1.1567802 -135.99619 -1.1809587 -136.73116 -14.657211 -67.464455
42600000000 -15.346748 -25.796618 -1.1623808 -138.2063 -1.2450255 -138.11989 -15.433863 -72.100731
42700000000 -14.626765 -30.672935 -1.2486571 -140.94186 -1.2655516 -140.67361 -14.990098 -73.763359
42800000000 -15.25776 -34.201 -1.2386507 -142.09485 -1.1343749 -142.11418 -15.603168 -78.637299
42900000000 -15.343637 -27.965063 -1.1866659 -144.54666 -1.1508716 -144.64922 -15.39118 -79.063873
43000000000 -15.230524 -33.525097 -1.1960434 -146.88904 -1.2323365 -146.41995 -15.841835 -81.691719
43100000000 -15.938441 -23.907293 -1.2855525 -148.03456 -1.2634012 -148.85069 -16.58737 -80.885277
43200000000 -15.125713 -29.278852 -1.1100782 -150.15392 -1.1171744 -150.24899 -16.109516 -87.261391
43300000000 -16.253477 -26.678408 -1.2028322 -152.54974 -1.2037412 -152.53929 -16.97854 -93.920303
43400000000 -15.889479 -34.163574 -1.145928 -154.73917 -1.1843311 -155.37379 -16.587032 -95.904968
43500000000 -16.410725 -31.708221 -1.135745 -157.29214 -1.1789112 -156.74535 -16.554985 -101.99673
43600000000 -16.159933 -24.356092 -1.2037143 -158.85225 -1.1701186 -159.14517 -16.415339 -100.18348
43700000000 -16.040888 -29.427502 -1.1330204 -161.00131 -1.1902213 -161.76871 -17.808823 -103.11989
43800000000 -16.251366 -21.33761 -1.1706318 -163.29459 -1.1324258 -162.58034 -18.319744 -109.054
43900000000 -16.622442 -28.017082 -1.1961122 -165.11246 -1.173489 -165.48085 -19.322382 -113.04054
44000000000 -17.285717 -18.622709 -1.2032348 -167.44859 -1.214294 -167.1839 -18.499458 -123.33079
44100000000 -16.285727 -23.843283 -1.2141508 -169.03346 -1.2038758 -169.06883 -18.984531 -121.92784
44200000000 -17.502806 -18.915289 -1.1791924 -171.47098 -1.1911745 -171.46938 -18.976685 -123.47054
44300000000 -16.005386 -21.169912 -1.1598153 -173.26224 -1.1768718 -173.36642 -20.419567 -130.67555
44400000000 -17.771143 -23.147266 -1.264403 -175.61154 -1.2030504 -175.8922 -20.300947 -135.46167
44500000000 -15.764924 -13.207916 -1.1252908 -177.59935 -1.2472966 -177.82234 -21.231346 -137.65878
44600000000 -17.235359 -20.859962 -1.2704648 -179.39795 -1.2759978 -179.46455 -21.172663 -147.72093
44700000000 -16.087109 -11.905191 -1.2374445 178.22742 -1.1568974 178.66966 -20.880564 -157.40555
44800000000 -16.861156 -20.662422 -1.3212451 176.32884 -1.2670496 176.03914 -22.485069 -160.68723
44900000000 -16.405687 -8.1173038 -1.2803421 174.21002 -1.2155951 173.95586 -22.106733 -164.02357
45000000000 -16.223635 -13.124604 -1.2408062 172.18033 -1.2475954 172.1283 -23.440403 -176.62981
