!Keysight Technologies,N5247B,MY61255062,A.19.80.06
!Date: Monday, May 18, 2026 12:01:53
!Correction: S11(Cdelta 2-Port  ) 
!S21(Cdelta 2-Port  ) 
!S12(Cdelta 2-Port  ) 
!S22(Cdelta 2-Port  ) 
!S2P File: Measurements: S11, S21, S12, S22:
# Hz S  dB   R 50
1000000000 -26.610884 -12.529177 -0.41228691 -20.925905 -0.41140574 -20.937199 -27.236069 -13.356425
1100000000 -26.547247 -15.074827 -0.42387801 -22.954868 -0.42507744 -22.957592 -27.362955 -15.403656
1200000000 -26.446466 -16.554581 -0.43288827 -24.952581 -0.43355411 -24.95496 -27.31065 -15.961226
1300000000 -26.346849 -18.936922 -0.44052953 -27.01062 -0.44051033 -26.99984 -27.226997 -18.486444
1400000000 -26.229813 -20.329964 -0.44407636 -28.967802 -0.44474277 -28.976879 -27.135849 -18.943598
1500000000 -26.049225 -22.631939 -0.44489303 -31.000891 -0.4439995 -31.006706 -26.976999 -20.984547
1600000000 -26.004978 -24.551167 -0.45193899 -33.03421 -0.45189187 -33.044415 -26.957792 -23.607971
1700000000 -25.862383 -26.970797 -0.4529281 -35.04718 -0.45379615 -35.062855 -26.889956 -25.468098
1800000000 -25.737942 -29.265871 -0.4559468 -37.094215 -0.45674732 -37.096539 -26.852085 -27.707645
1900000000 -25.639652 -31.685341 -0.45854643 -39.127342 -0.45915952 -39.125774 -26.747282 -30.367207
2000000000 -25.591366 -34.268661 -0.46593359 -41.170715 -0.46676823 -41.188999 -26.815502 -32.934864
2100000000 -25.47522 -36.584343 -0.46845904 -43.195618 -0.46947989 -43.20628 -26.794403 -34.771729
2200000000 -25.445122 -38.90839 -0.47324556 -45.215168 -0.47433195 -45.229713 -26.79497 -37.207996
2300000000 -25.407684 -41.419708 -0.47666669 -47.25832 -0.47776374 -47.282867 -26.788076 -39.434216
2400000000 -25.367157 -43.778629 -0.48185274 -49.288563 -0.48394412 -49.303066 -26.881376 -42.023888
2500000000 -25.29141 -46.048401 -0.48703399 -51.332802 -0.4891212 -51.327606 -26.858746 -44.328091
2600000000 -25.307049 -48.592949 -0.49349585 -53.346279 -0.49633771 -53.341824 -26.953287 -47.055374
2700000000 -25.258265 -50.796486 -0.50017124 -55.363178 -0.50074518 -55.371105 -27.051928 -49.715488
2800000000 -25.31377 -53.221405 -0.50483263 -57.384068 -0.50702208 -57.393406 -27.117727 -51.700809
2900000000 -25.32934 -55.250359 -0.51030397 -59.403515 -0.51205754 -59.417538 -27.258644 -53.947216
3000000000 -25.3029 -57.830837 -0.51446778 -61.414902 -0.51597351 -61.422729 -27.392967 -55.617733
3100000000 -25.301821 -60.109947 -0.51935726 -63.428185 -0.52111101 -63.440739 -27.517515 -58.113827
3200000000 -25.263926 -62.457062 -0.5228669 -65.440437 -0.52364564 -65.449745 -27.597828 -60.245792
3300000000 -25.257393 -64.791473 -0.52642345 -67.447983 -0.52731425 -67.464592 -27.735697 -62.791393
3400000000 -25.270645 -67.047287 -0.52910483 -69.462402 -0.52911913 -69.470985 -27.830383 -64.798279
3500000000 -25.330061 -69.267601 -0.53327936 -71.470573 -0.53431672 -71.481117 -27.940741 -66.371254
3600000000 -25.299231 -71.4562 -0.53586888 -73.481087 -0.53420931 -73.510017 -28.041735 -68.195305
3700000000 -25.372408 -73.771225 -0.53860557 -75.499863 -0.53868061 -75.508949 -28.142385 -70.119598
3800000000 -25.322332 -75.686592 -0.5370425 -77.509933 -0.54114813 -77.539276 -28.274778 -72.521179
3900000000 -25.382238 -78.050659 -0.54142696 -79.541847 -0.54370624 -79.560997 -28.374817 -75.180542
4000000000 -25.328548 -79.941338 -0.54419154 -81.563187 -0.54602283 -81.588684 -28.529104 -76.923241
4100000000 -25.392832 -82.437286 -0.54992193 -83.580795 -0.55148554 -83.595024 -28.706528 -79.010315
4200000000 -25.464497 -84.117386 -0.55246818 -85.586014 -0.55622739 -85.608955 -28.91021 -80.746582
4300000000 -25.463591 -86.69368 -0.55451387 -87.611542 -0.55865133 -87.615692 -29.040733 -82.950676
4400000000 -25.566412 -88.67424 -0.55902612 -89.630058 -0.56036037 -89.635643 -29.291464 -84.740898
4500000000 -25.583393 -90.875336 -0.56113499 -91.633339 -0.5628255 -91.645157 -29.420416 -86.842049
4600000000 -25.678156 -92.83197 -0.56445777 -93.660629 -0.56691521 -93.666718 -29.68544 -89.025017
4700000000 -25.64946 -95.15834 -0.5655604 -95.66983 -0.56762493 -95.678925 -29.744993 -91.267746
4800000000 -25.799494 -97.17318 -0.56985098 -97.692329 -0.57044017 -97.719818 -30.083241 -93.193611
4900000000 -25.898754 -99.12677 -0.57101142 -99.720276 -0.57276458 -99.727501 -30.229422 -94.943329
5000000000 -25.953211 -101.54504 -0.57357007 -101.72002 -0.577452 -101.74072 -30.588339 -97.207977
5100000000 -26.04438 -103.20055 -0.57638413 -103.74619 -0.58081001 -103.75961 -30.820206 -98.092911
5200000000 -26.131834 -105.43822 -0.58112842 -105.75797 -0.58218265 -105.77738 -31.106499 -100.40305
5300000000 -26.21497 -107.272 -0.58342153 -107.763 -0.58605063 -107.78738 -31.45363 -102.85291
5400000000 -26.357765 -109.69333 -0.58740622 -109.78549 -0.58878326 -109.80541 -31.739492 -105.25812
5500000000 -26.525305 -111.77172 -0.59083992 -111.78828 -0.59136695 -111.82191 -32.033424 -107.31795
5600000000 -26.604977 -113.91048 -0.59229636 -113.81001 -0.59502196 -113.83035 -32.260365 -108.63919
5700000000 -26.708672 -115.98889 -0.59687215 -115.8082 -0.59859329 -115.83407 -32.597446 -109.63623
5800000000 -26.847786 -118.41962 -0.59808946 -117.81783 -0.60278761 -117.83716 -33.115601 -111.31442
5900000000 -26.966707 -120.31441 -0.59935784 -119.82459 -0.60097355 -119.84168 -33.614864 -113.50559
6000000000 -27.13891 -122.13568 -0.60157084 -121.83076 -0.6031695 -121.85799 -34.149166 -116.45653
6100000000 -27.36902 -123.94307 -0.60375011 -123.82532 -0.60457897 -123.8504 -34.545559 -119.48551
6200000000 -27.665831 -126.03899 -0.60416186 -125.84957 -0.60538799 -125.87249 -35.020458 -120.47395
6300000000 -28.010685 -127.78869 -0.60368466 -127.86285 -0.60571831 -127.88107 -35.635773 -121.13953
6400000000 -28.189201 -130.30859 -0.60275012 -129.89783 -0.60389292 -129.91043 -36.449509 -121.37868
6500000000 -28.480906 -131.90422 -0.60476935 -131.90108 -0.60578287 -131.92104 -37.251705 -119.93956
6600000000 -28.572803 -133.03172 -0.60586149 -133.92499 -0.60904288 -133.94984 -38.243515 -119.52083
6700000000 -28.895988 -134.61295 -0.60633707 -135.95026 -0.60966539 -135.98357 -38.725883 -117.97298
6800000000 -29.07012 -135.09108 -0.61072302 -137.98839 -0.61234146 -138.01065 -39.542656 -118.78534
6900000000 -29.433119 -137.05426 -0.60921478 -140.02219 -0.61536926 -140.05055 -40.232094 -112.23257
7000000000 -29.517412 -137.0466 -0.61501223 -142.05135 -0.61662245 -142.06459 -40.59959 -110.87393
7100000000 -29.661331 -140.65039 -0.62289619 -144.04666 -0.62609613 -144.0668 -41.133968 -111.40593
7200000000 -30.212025 -141.75984 -0.619178 -146.05806 -0.62222099 -146.06795 -43.089859 -112.21468
7300000000 -30.48415 -142.99706 -0.62328255 -148.08229 -0.62478012 -148.09755 -43.59494 -104.36961
7400000000 -31.074623 -143.45967 -0.62671095 -150.11801 -0.6286875 -150.13893 -44.07024 -103.47302
7500000000 -31.086618 -144.54822 -0.62907046 -152.10818 -0.63233125 -152.13312 -44.365833 -85.448509
7600000000 -31.672604 -145.44804 -0.62918025 -154.13676 -0.63238424 -154.16269 -43.69186 -79.339325
7700000000 -31.766315 -146.33629 -0.6334213 -156.14944 -0.63528794 -156.16913 -43.660404 -65.758057
7800000000 -32.372219 -147.71053 -0.63538289 -158.18251 -0.63996565 -158.19899 -43.796177 -59.195446
7900000000 -32.586021 -146.97874 -0.63955414 -160.20786 -0.64186448 -160.22981 -44.213696 -53.620548
8000000000 -33.016796 -149.24905 -0.64235246 -162.21455 -0.64342314 -162.24419 -43.524704 -61.744377
8100000000 -33.483807 -148.10175 -0.645832 -164.24004 -0.64843452 -164.27884 -41.60294 -56.263542
8200000000 -33.847282 -150.63344 -0.65027213 -166.27608 -0.65327209 -166.30948 -39.571594 -52.079819
8300000000 -34.599232 -150.19414 -0.6547659 -168.30859 -0.65670073 -168.32198 -38.669254 -36.323967
8400000000 -35.196201 -153.24205 -0.66530704 -170.34813 -0.66861355 -170.36307 -38.518677 -19.895975
8500000000 -35.935093 -151.13275 -0.68872756 -172.3842 -0.69134593 -172.42012 -39.83382 20.600594
8600000000 -34.400932 -152.86319 -0.74943858 -174.19321 -0.74911374 -174.20024 -36.251984 78.693344
8700000000 -35.728111 164.14534 -0.67891479 -175.16434 -0.68189192 -175.19597 -28.126402 68.57003
8800000000 -41.666264 -133.70686 -0.56342965 -178.06691 -0.56876379 -178.11874 -31.06819 35.435814
8900000000 -37.891075 -145.36455 -0.6189329 179.57031 -0.62603843 179.57538 -37.211124 22.820238
9000000000 -38.44978 -150.82559 -0.65367198 177.57515 -0.65418112 177.5462 -42.116367 -24.327753
9100000000 -39.484978 -148.55537 -0.66328996 175.57246 -0.66696405 175.5715 -38.701275 -49.209618
9200000000 -39.956165 -140.6427 -0.6709621 173.60339 -0.67407733 173.57008 -36.001236 -53.199936
9300000000 -40.370537 -134.8775 -0.67303932 171.60149 -0.6769498 171.57137 -34.695427 -48.927483
9400000000 -40.544262 -130.75931 -0.67690074 169.59381 -0.68339711 169.57182 -34.304672 -44.813881
9500000000 -41.350739 -125.61256 -0.68090981 167.59999 -0.68429095 167.57671 -34.421761 -42.211891
9600000000 -41.823067 -118.45612 -0.68428886 165.58658 -0.6889599 165.57167 -34.445065 -44.132511
9700000000 -42.001659 -110.03625 -0.68708676 163.59215 -0.68815273 163.55615 -34.238731 -46.067169
9800000000 -41.174885 -104.65273 -0.68789554 161.55946 -0.69013315 161.53851 -33.804771 -49.16824
9900000000 -41.580727 -100.76311 -0.69063419 159.56697 -0.69382524 159.54324 -33.27108 -49.025707
10000000000 -40.618385 -95.506912 -0.6925866 157.53964 -0.69648767 157.51692 -32.835518 -50.93597
10100000000 -40.751545 -89.800819 -0.69420367 155.54161 -0.69876015 155.5192 -32.778545 -48.965153
10200000000 -39.257816 -84.416351 -0.69455749 153.54887 -0.70000631 153.49669 -32.835632 -52.712231
10300000000 -39.216843 -83.116295 -0.70219511 151.52437 -0.70638686 151.49052 -32.648613 -54.599705
10400000000 -37.754738 -80.045792 -0.7012285 149.5188 -0.70586634 149.47774 -32.184597 -58.506992
10500000000 -37.612049 -83.700851 -0.70548844 147.48506 -0.70769066 147.47363 -31.745611 -59.540428
10600000000 -36.922344 -78.545685 -0.71123421 145.47346 -0.71284634 145.45091 -31.261553 -60.871407
10700000000 -36.329426 -81.303574 -0.7125898 143.47949 -0.71193802 143.45343 -31.183992 -59.685848
10800000000 -35.501438 -76.850334 -0.71156693 141.46715 -0.71682155 141.42604 -31.001286 -60.380554
10900000000 -34.959469 -79.326866 -0.71552265 139.46378 -0.71980822 139.41534 -31.232681 -62.81945
11000000000 -34.729164 -78.074211 -0.72013879 137.46397 -0.72425985 137.41003 -31.076284 -65.584518
11100000000 -33.996399 -81.379593 -0.72287369 135.46367 -0.72728932 135.4257 -31.029995 -68.470184
11200000000 -34.056782 -80.520065 -0.72765809 133.44228 -0.72977942 133.41542 -30.459173 -71.511375
11300000000 -33.241714 -82.231529 -0.73122996 131.44681 -0.73339933 131.42076 -30.443361 -73.696945
11400000000 -33.068169 -84.730637 -0.73183316 129.44153 -0.73883605 129.40593 -29.837376 -74.332512
11500000000 -32.324314 -85.542747 -0.73310232 127.43703 -0.7382834 127.40248 -29.682138 -75.591766
11600000000 -32.105061 -89.18895 -0.73563969 125.45237 -0.74173135 125.39934 -29.666981 -76.86882
11700000000 -31.690832 -88.861649 -0.73976839 123.43993 -0.74334747 123.39462 -29.862846 -79.865547
11800000000 -31.460606 -91.992012 -0.74296439 121.45792 -0.74707794 121.40958 -29.640121 -82.55584
11900000000 -31.231192 -92.648415 -0.74499828 119.4449 -0.7496053 119.4216 -29.651268 -85.902443
12000000000 -31.177719 -96.201607 -0.7483356 117.47008 -0.7500791 117.42352 -29.221355 -87.114021
12100000000 -30.847912 -98.234261 -0.74762034 115.48116 -0.75024492 115.44553 -29.146133 -90.476173
12200000000 -30.573778 -102.2389 -0.74808991 113.47446 -0.7512973 113.43523 -29.025557 -92.510361
12300000000 -30.413807 -104.75603 -0.74687445 111.48447 -0.75139111 111.43997 -28.98695 -95.232712
12400000000 -30.40695 -107.23952 -0.74638933 109.49234 -0.74950963 109.46503 -28.981447 -97.436897
12500000000 -30.359335 -108.77121 -0.74336928 107.48914 -0.74646097 107.46507 -29.03161 -101.02776
12600000000 -30.470877 -112.49744 -0.74429888 105.48174 -0.74561167 105.46379 -28.995123 -102.43698
12700000000 -30.49819 -113.65682 -0.74137026 103.48859 -0.7449829 103.4398 -28.946962 -105.58857
12800000000 -30.209661 -117.75509 -0.73655814 101.47452 -0.74338955 101.43906 -29.006598 -107.13029
12900000000 -30.360489 -118.6978 -0.73412943 99.451912 -0.73802078 99.392593 -28.976479 -110.56851
13000000000 -30.118607 -121.88925 -0.73472351 97.423691 -0.74057752 97.374214 -29.061588 -111.8808
13100000000 -30.436283 -122.45166 -0.73581505 95.399086 -0.73717004 95.366066 -29.126743 -115.29926
13200000000 -30.210239 -125.39879 -0.73546183 93.356857 -0.73839509 93.341644 -29.201881 -117.33939
13300000000 -30.686796 -128.70749 -0.73406506 91.348717 -0.73656368 91.27282 -29.043633 -118.81744
13400000000 -30.298798 -128.93246 -0.73344374 89.303421 -0.73894739 89.288696 -29.244078 -119.57581
13500000000 -30.35231 -132.94733 -0.73648083 87.275719 -0.74081331 87.246887 -29.441612 -122.60537
13600000000 -30.205482 -132.66351 -0.73579055 85.244072 -0.73981935 85.205933 -29.650467 -123.82552
13700000000 -30.392469 -136.82494 -0.73847979 83.205238 -0.74337262 83.159782 -29.554535 -128.76469
13800000000 -30.636923 -135.94579 -0.74031413 81.163025 -0.74433732 81.140755 -29.682137 -130.86168
13900000000 -30.568443 -141.32167 -0.74841648 79.103615 -0.75244504 79.063873 -29.362059 -132.58423
14000000000 -30.680618 -141.61137 -0.75736719 77.060143 -0.75788558 77.011642 -29.44392 -131.6837
14100000000 -29.62781 -145.53044 -0.77497917 75.087112 -0.77855891 75.044922 -29.031267 -132.6825
14200000000 -29.589361 -150.72591 -0.77475548 73.200607 -0.7784 73.171387 -29.106758 -137.91962
14300000000 -29.596586 -154.19203 -0.76456976 71.224144 -0.77054667 71.180206 -29.213423 -143.83012
14400000000 -30.195744 -159.78539 -0.75706458 69.210358 -0.76274669 69.152466 -29.495516 -148.41656
14500000000 -30.418934 -161.44162 -0.76140404 67.160576 -0.76294357 67.11338 -29.265951 -150.68298
14600000000 -30.749769 -168.76653 -0.75960118 65.108986 -0.76284021 65.080849 -29.41223 -152.6693
14700000000 -30.70546 -169.70573 -0.76454383 63.080826 -0.7694065 63.034389 -29.289921 -153.51122
14800000000 -30.355572 -174.12134 -0.76803339 61.061188 -0.77529079 61.013535 -29.574537 -156.86133
14900000000 -30.355492 -175.05205 -0.77420843 59.073772 -0.77900147 59.04612 -29.420549 -160.59013
15000000000 -30.350636 -179.51897 -0.77088177 57.064728 -0.7751469 57.035458 -29.446737 -165.16751
15100000000 -30.806084 175.556 -0.77123606 55.052471 -0.7744875 55.014206 -29.36643 -167.49693
15200000000 -30.826143 170.23244 -0.77151155 53.026951 -0.77389908 52.96254 -29.409025 -169.487
15300000000 -30.937529 165.85052 -0.77582985 50.999432 -0.77832693 50.947903 -29.458277 -170.39262
15400000000 -30.682566 162.63226 -0.7758472 48.947231 -0.78138757 48.924885 -29.739538 -174.37141
15500000000 -30.792524 159.88716 -0.7781418 46.964424 -0.78335953 46.90802 -29.735643 -177.43265
15600000000 -30.608376 157.53157 -0.78243387 44.930122 -0.78979427 44.881592 -29.647648 177.71201
15700000000 -30.976618 153.68105 -0.78642988 42.899902 -0.79039758 42.850456 -29.497385 175.35139
15800000000 -30.701736 148.19765 -0.78991657 40.882202 -0.79548985 40.840729 -29.39139 173.04088
15900000000 -30.771837 142.11871 -0.79172093 38.859192 -0.80083799 38.815136 -29.293211 171.09633
16000000000 -30.196692 139.42719 -0.79888177 36.85894 -0.8029322 36.806625 -29.430414 167.49207
16100000000 -30.090578 133.5856 -0.80152535 34.840664 -0.80641973 34.811897 -29.441738 163.81322
16200000000 -29.901354 133.24284 -0.80776823 32.841461 -0.80871707 32.788303 -29.42054 158.05847
16300000000 -29.796721 125.20603 -0.80805916 30.847248 -0.81737059 30.780203 -29.168371 155.15742
16400000000 -29.71114 123.50341 -0.81552839 28.844128 -0.81791836 28.799772 -28.937836 150.48097
16500000000 -29.064484 115.41801 -0.81442225 26.828083 -0.81849623 26.752228 -28.872988 149.21883
16600000000 -29.088894 114.08911 -0.82165694 24.825083 -0.82298517 24.78657 -28.865625 144.84593
16700000000 -28.283609 110.67526 -0.82573301 22.810207 -0.82546318 22.758694 -28.856928 143.17818
16800000000 -28.787857 106.72419 -0.82166475 20.817572 -0.83317602 20.770952 -28.64463 136.87534
16900000000 -28.162586 103.32102 -0.82932854 18.808121 -0.83440202 18.734238 -28.640295 134.00552
17000000000 -28.193722 95.309639 -0.83004767 16.796753 -0.83607405 16.767769 -28.089067 130.81094
17100000000 -27.629055 94.791542 -0.83474523 14.803276 -0.84137225 14.755672 -28.219122 129.1288
17200000000 -27.262989 88.931 -0.83645409 12.826669 -0.84290546 12.757003 -27.857248 126.02995
17300000000 -27.331209 90.638794 -0.84055036 10.811872 -0.8457374 10.764559 -28.21636 122.85387
17400000000 -26.959572 85.02433 -0.84542161 8.8243008 -0.84507823 8.775588 -27.900806 119.17599
17500000000 -27.22505 83.277908 -0.84296268 6.8147163 -0.84682131 6.7710519 -27.810801 113.87464
17600000000 -26.383305 77.580719 -0.8486945 4.7817817 -0.8532806 4.7885532 -27.163591 112.12056
17700000000 -26.534775 74.981415 -0.85367602 2.787451 -0.85459834 2.7810245 -27.102303 108.3905
17800000000 -25.866199 72.896729 -0.85289782 0.78744847 -0.85845065 0.76199234 -26.786373 107.79851
17900000000 -25.948252 68.625595 -0.86224824 -1.1506931 -0.85643423 -1.2381082 -26.960976 104.83154
18000000000 -25.646324 68.81102 -0.85561991 -3.1764631 -0.86163926 -3.2329073 -26.924686 101.76303
18100000000 -25.601362 64.226273 -0.86038154 -5.1747084 -0.86157709 -5.2177229 -26.89447 95.932083
18200000000 -25.291771 62.976627 -0.85833806 -7.1710048 -0.86229306 -7.2079244 -26.424753 93.221344
18300000000 -24.808611 58.782658 -0.8553791 -9.1609554 -0.86305213 -9.210928 -25.959059 88.940109
18400000000 -24.677614 57.322857 -0.86146885 -11.154598 -0.86549652 -11.200274 -25.655766 88.340721
18500000000 -24.256254 54.041378 -0.86029983 -13.150944 -0.86152089 -13.222008 -25.552006 86.295647
18600000000 -24.124846 51.378292 -0.8606962 -15.150637 -0.86724532 -15.187492 -25.634417 84.184914
18700000000 -23.869274 48.77179 -0.86406678 -17.163736 -0.86488557 -17.202574 -25.591602 79.698746
18800000000 -23.667559 46.433205 -0.86109006 -19.142332 -0.86514491 -19.223883 -25.401915 76.161865
18900000000 -23.406477 43.450024 -0.86107206 -21.172356 -0.86523306 -21.218201 -24.969824 71.156151
19000000000 -23.062502 42.271427 -0.86378634 -23.15708 -0.86915487 -23.208061 -24.50898 69.711258
19100000000 -22.923283 39.388603 -0.86140096 -25.189512 -0.86753774 -25.213341 -24.35162 67.292015
19200000000 -22.74206 38.620232 -0.86565548 -27.155729 -0.87148184 -27.201223 -24.168594 67.337593
19300000000 -22.507994 34.633808 -0.86562514 -29.182793 -0.87114716 -29.222767 -24.251862 63.830559
19400000000 -22.571217 34.007317 -0.86491114 -31.201128 -0.86987621 -31.245367 -24.099443 61.990395
19500000000 -22.077868 31.058384 -0.86553633 -33.195126 -0.86560678 -33.240505 -23.93557 57.530029
19600000000 -22.171206 28.732182 -0.86233443 -35.216053 -0.86729842 -35.293289 -23.716307 56.1371
19700000000 -21.546938 27.831726 -0.86116612 -37.201015 -0.86201334 -37.273109 -23.348856 52.065147
19800000000 -21.692009 25.277716 -0.86089975 -39.257469 -0.8690995 -39.319954 -23.256899 51.684921
19900000000 -21.338234 25.630749 -0.86237895 -41.258083 -0.86837041 -41.323719 -22.969568 48.311249
20000000000 -21.442484 21.17757 -0.8619976 -43.270123 -0.86800587 -43.350636 -22.964111 46.919804
20100000000 -21.175819 21.083736 -0.86690813 -45.308647 -0.8730185 -45.358871 -22.556143 43.044529
20200000000 -20.895706 16.391064 -0.87304443 -47.307014 -0.8722887 -47.375259 -22.551033 41.077641
20300000000 -20.755177 16.606735 -0.87362933 -49.349621 -0.87911654 -49.427094 -22.090172 38.649406
20400000000 -20.376148 13.410967 -0.87636703 -51.369957 -0.88066161 -51.439037 -22.179276 36.828575
20500000000 -20.641268 12.7812 -0.87619913 -53.385021 -0.88576847 -53.424034 -21.844936 34.364887
20600000000 -20.226271 10.072965 -0.88779861 -55.401585 -0.88593829 -55.471119 -21.975046 30.748379
20700000000 -20.385246 6.9826822 -0.89028907 -57.400753 -0.89271361 -57.466824 -21.537134 27.799547
20800000000 -19.988499 5.530509 -0.90271038 -59.434147 -0.90614378 -59.471836 -21.414362 24.280478
20900000000 -19.982746 2.0786455 -0.9051913 -61.362583 -0.91293728 -61.442928 -21.036556 21.886499
21000000000 -19.922731 1.1279702 -0.91569757 -63.29705 -0.92542654 -63.36327 -21.101826 18.994509
21100000000 -19.857653 -1.3653593 -0.90992081 -65.237 -0.91440302 -65.307114 -21.088013 18.150551
21200000000 -20.01614 -1.7267016 -0.90264124 -67.206985 -0.90509051 -67.279037 -21.222874 15.701468
21300000000 -19.810085 -3.5564888 -0.89592147 -69.241013 -0.89811671 -69.312614 -21.155247 13.858346
21400000000 -19.919521 -5.6488652 -0.89156091 -71.269547 -0.8993848 -71.356621 -20.94492 10.216895
21500000000 -19.709078 -7.1819916 -0.89339149 -73.23304 -0.90059179 -73.357071 -20.839127 7.496335
21600000000 -19.601328 -8.7902212 -0.8909542 -75.262642 -0.89490467 -75.348732 -20.602308 5.5474844
21700000000 -19.550018 -9.3956308 -0.89313996 -77.27494 -0.89205521 -77.329918 -20.413586 4.5595317
21800000000 -19.318375 -11.038533 -0.8914929 -79.267326 -0.89537901 -79.346703 -20.414984 2.6192088
21900000000 -19.46888 -12.778836 -0.89314979 -81.319817 -0.89649385 -81.365883 -20.339823 1.4645607
22000000000 -19.333534 -13.969379 -0.89500934 -83.30703 -0.90196478 -83.393074 -20.424608 -1.8175422
22100000000 -19.454887 -16.365038 -0.89899665 -85.331573 -0.90491325 -85.391098 -20.341677 -4.5304074
22200000000 -19.300608 -16.166136 -0.89076829 -87.301834 -0.90113616 -87.389206 -20.283348 -7.417963
22300000000 -19.244173 -19.290503 -0.89029509 -89.35508 -0.89813262 -89.398819 -19.979733 -9.5581484
22400000000 -19.312216 -18.026604 -0.89154822 -91.339912 -0.89445937 -91.382744 -19.913273 -12.041987
22500000000 -19.104752 -21.689278 -0.89098626 -93.375076 -0.89891422 -93.422211 -19.812416 -12.335089
22600000000 -19.460787 -21.078602 -0.89063382 -95.358803 -0.89959753 -95.422768 -19.91272 -15.525339
22700000000 -19.063755 -24.212969 -0.89250028 -97.372124 -0.90061665 -97.457527 -19.916246 -16.889593
22800000000 -19.442041 -25.825329 -0.90385586 -99.433937 -0.90474969 -99.47422 -19.889782 -21.405846
22900000000 -18.945017 -25.972179 -0.8910861 -101.43359 -0.89911735 -101.48927 -19.771095 -22.672281
23000000000 -19.264975 -28.061787 -0.89799196 -103.44396 -0.90060741 -103.51993 -19.601164 -26.381222
23100000000 -19.056051 -27.687565 -0.88952559 -105.43987 -0.8956303 -105.51679 -19.567789 -26.525934
23200000000 -19.224169 -31.264441 -0.90211678 -107.48523 -0.90474045 -107.53072 -19.604053 -30.138657
23300000000 -19.292967 -30.237179 -0.90127951 -109.47515 -0.90415454 -109.53916 -19.821127 -31.521013
23400000000 -19.187277 -34.24099 -0.90717977 -111.4593 -0.91515142 -111.55792 -19.626642 -36.11446
23500000000 -19.442768 -34.299492 -0.90893936 -113.50378 -0.91680807 -113.57568 -19.766853 -38.251228
23600000000 -19.070742 -36.751736 -0.9050523 -115.51 -0.91864806 -115.55274 -19.321188 -41.388119
23700000000 -19.531517 -37.057053 -0.9113906 -117.4636 -0.91406941 -117.55894 -19.490185 -42.332378
23800000000 -19.34395 -37.772579 -0.9085896 -119.47427 -0.91263288 -119.54935 -19.497387 -44.110825
23900000000 -19.736633 -41.121624 -0.91103238 -121.48556 -0.91844594 -121.58959 -19.914431 -45.874989
24000000000 -19.681948 -40.122051 -0.91149789 -123.51884 -0.91753483 -123.57169 -19.907688 -49.974552
24100000000 -19.775879 -43.796196 -0.9095183 -125.51128 -0.92246312 -125.56466 -20.050087 -54.464317
24200000000 -19.818569 -42.113983 -0.91908848 -127.51895 -0.91544861 -127.57527 -19.725185 -56.550106
24300000000 -19.777534 -45.232311 -0.91172749 -129.54297 -0.91941541 -129.58717 -19.711164 -59.544044
24400000000 -20.142136 -44.563999 -0.9068107 -131.53404 -0.91634935 -131.61235 -19.66312 -59.254383
24500000000 -20.069824 -45.486153 -0.91160804 -133.50186 -0.91339278 -133.59552 -20.041611 -61.874897
24600000000 -20.547855 -47.245331 -0.91220397 -135.53238 -0.91320622 -135.592 -20.277933 -62.863697
24700000000 -20.484808 -47.112072 -0.90822589 -137.56924 -0.91426945 -137.61284 -20.552822 -67.518898
24800000000 -20.721952 -49.770439 -0.91125619 -139.57404 -0.91859269 -139.66383 -20.602692 -71.240585
24900000000 -20.818707 -48.189301 -0.91268557 -141.60081 -0.91560268 -141.6568 -20.549461 -75.245438
25000000000 -20.77231 -49.790081 -0.90424567 -143.6134 -0.91312575 -143.70044 -20.365925 -76.241882
25100000000 -21.17325 -48.432457 -0.90959936 -145.57553 -0.9162848 -145.70961 -20.612888 -77.920708
25200000000 -21.139809 -48.714085 -0.90560007 -147.64073 -0.91071534 -147.66766 -20.850716 -79.095413
25300000000 -21.541239 -48.929268 -0.90832222 -149.63991 -0.91363811 -149.69308 -21.251762 -82.913467
25400000000 -21.642658 -48.023968 -0.9091835 -151.65375 -0.91343784 -151.70782 -21.368418 -85.923279
25500000000 -21.86339 -50.249741 -0.90211231 -153.68188 -0.9147743 -153.74301 -21.675756 -89.726692
25600000000 -22.142685 -47.984055 -0.90906286 -155.66267 -0.91160262 -155.77789 -21.75111 -91.995224
25700000000 -21.89852 -49.423683 -0.90950072 -157.72522 -0.91009986 -157.80989 -21.786734 -94.901787
25800000000 -22.516493 -48.366104 -0.90602422 -159.70886 -0.91349405 -159.84499 -22.085714 -96.887413
25900000000 -21.968472 -47.490883 -0.91137081 -161.80215 -0.92079723 -161.8844 -22.328419 -100.63401
26000000000 -22.783875 -46.893551 -0.90827596 -163.81029 -0.91542912 -163.84404 -22.64077 -102.06728
26100000000 -22.254478 -43.40974 -0.91176999 -165.84253 -0.92304933 -165.87474 -22.903097 -107.24293
26200000000 -22.921803 -46.708858 -0.91338032 -167.80231 -0.9198572 -167.92754 -23.243956 -109.26873
26300000000 -22.747177 -40.974949 -0.91600287 -169.79935 -0.92848331 -169.90758 -23.29892 -115.42066
26400000000 -22.887056 -45.912182 -0.9193818 -171.8519 -0.92734802 -171.98544 -23.776037 -114.28381
26500000000 -23.240368 -38.87439 -0.91420555 -173.85303 -0.92411977 -174.00488 -23.886271 -120.71864
26600000000 -22.72648 -41.914173 -0.92917836 -175.92874 -0.92743486 -175.97591 -24.505384 -121.53069
26700000000 -23.611067 -36.245335 -0.9233253 -177.98082 -0.91934502 -178.02621 -24.469217 -129.00529
26800000000 -22.361086 -38.708652 -0.92607397 -179.85948 -0.92702276 179.90916 -25.456772 -130.98006
26900000000 -23.591642 -36.653622 -0.93433332 178.08354 -0.93826568 177.85268 -24.889681 -134.46626
27000000000 -22.240862 -34.334217 -0.92311144 175.99434 -0.92836148 175.85483 -26.316097 -140.21451
27100000000 -23.024715 -36.12952 -0.94401503 174.00676 -0.94627696 173.96957 -25.836515 -143.62904
27200000000 -22.517036 -28.728329 -0.92802238 171.94569 -0.9491384 171.84875 -26.82518 -149.01651
27300000000 -22.972181 -33.79174 -0.94202346 169.92429 -0.9503957 169.92194 -26.406187 -151.12018
27400000000 -22.543999 -26.637949 -0.94858384 167.80008 -0.93865126 167.80264 -27.398352 -162.66623
27500000000 -22.443964 -33.479504 -0.95785844 166.01617 -0.95243174 165.90108 -27.479126 -161.35889
27600000000 -22.293842 -26.388687 -0.95610565 163.88043 -0.97618628 163.77441 -28.199821 -173.31575
27700000000 -21.472498 -30.99457 -0.95257813 161.90219 -0.95926422 161.85048 -28.515348 -174.47096
27800000000 -21.74507 -25.625483 -0.95942628 159.91429 -0.95690227 159.88399 -28.511707 175.84085
27900000000 -21.091736 -27.678215 -0.96166325 158.04472 -0.97505212 157.91811 -29.313023 177.12378
28000000000 -21.701656 -25.487566 -0.95983112 155.90767 -0.95706779 155.98589 -28.868183 164.85619
28100000000 -20.922937 -27.759558 -0.95221674 153.98691 -0.97642547 153.93855 -29.934994 162.13971
28200000000 -21.478395 -26.515686 -0.95509702 151.83658 -0.96876681 151.99216 -29.037849 148.82111
28300000000 -20.599638 -25.809521 -0.94572783 150.03934 -0.9719488 149.8595 -29.046589 142.68771
28400000000 -20.533182 -25.802704 -0.95330858 147.8725 -0.97282308 147.72479 -28.313784 134.32672
28500000000 -20.304815 -25.151144 -0.9493497 145.86053 -0.93503189 145.68735 -29.453592 128.53804
28600000000 -20.268494 -24.067108 -0.9315846 143.78529 -0.9475798 143.73807 -28.360058 121.10109
28700000000 -19.924623 -24.370628 -0.96119487 141.7964 -0.96662998 141.6942 -28.284927 108.00469
28800000000 -19.916655 -24.879307 -0.96863121 139.72386 -0.98612463 139.63673 -27.270788 102.73786
28900000000 -19.421993 -25.002356 -0.97731853 137.68478 -0.96059096 137.52257 -27.11174 100.06519
29000000000 -19.331541 -24.756855 -0.96842158 135.65691 -0.99016756 135.64731 -26.748476 92.013313
29100000000 -18.689367 -26.446518 -0.98311889 133.58304 -0.98001599 133.50601 -27.064688 84.001709
29200000000 -19.167812 -27.740219 -0.99574226 131.68494 -0.98758864 131.63805 -26.054665 79.626038
29300000000 -18.726271 -26.129059 -0.97121191 129.67131 -0.99169928 129.65154 -25.950968 72.273079
29400000000 -19.114124 -27.96788 -0.99274743 127.71794 -0.96716356 127.69183 -23.936291 72.127365
29500000000 -18.325201 -26.059158 -0.98835558 125.63847 -0.98772055 125.69721 -24.788132 67.825935
29600000000 -18.223246 -31.715725 -1.0071471 123.71876 -1.0016201 123.56605 -23.870899 69.06646
29700000000 -18.116476 -26.866043 -0.97816217 121.56355 -0.98712528 121.42899 -24.218946 59.719788
29800000000 -17.902233 -31.579855 -1.0057992 119.5983 -1.0154181 119.45041 -23.801079 57.585106
29900000000 -18.177965 -27.993647 -1.0036973 117.57907 -1.0178385 117.46618 -23.621145 47.595741
30000000000 -17.532051 -31.112085 -1.0082855 115.68983 -1.0307665 115.54282 -22.641403 50.426109
30100000000 -18.265205 -30.701622 -1.011837 113.56077 -1.0152633 113.54353 -22.008467 44.212456
30200000000 -17.379103 -33.345142 -1.0044484 111.60564 -1.036289 111.45521 -22.076061 45.236866
30300000000 -17.834736 -34.315697 -1.0045391 109.61417 -1.0309831 109.49133 -21.789183 38.607632
30400000000 -16.804783 -33.72401 -1.0042785 107.60016 -1.0254014 107.55484 -22.256435 39.724796
30500000000 -17.374941 -38.012962 -1.0282866 105.64308 -1.0341851 105.53478 -21.539001 30.841618
30600000000 -17.248236 -34.24284 -1.0370765 103.49727 -1.0139276 103.41963 -21.600859 29.11039
30700000000 -17.097805 -40.013897 -1.0221554 101.4501 -1.027915 101.44305 -20.618008 24.55867
30800000000 -17.058037 -38.872234 -1.0204862 99.691078 -1.0574223 99.402718 -21.307941 25.203075
30900000000 -16.481974 -42.665714 -1.0493271 97.635529 -1.0424415 97.394897 -20.426727 21.367964
31000000000 -16.918634 -41.319176 -1.0369753 95.596596 -1.041303 95.645058 -20.507429 18.810804
31100000000 -16.256193 -42.730927 -1.03018 93.503593 -1.0369236 93.425293 -20.319628 15.243041
31200000000 -16.650957 -42.210026 -1.0461625 91.66861 -1.0321392 91.494713 -20.351616 9.8355989
31300000000 -16.425858 -43.167419 -1.0537993 89.519302 -1.0587113 89.408623 -19.798019 10.305533
31400000000 -16.476265 -44.605179 -1.0556421 87.563126 -1.0583255 87.498138 -19.461447 5.91996
31500000000 -16.43639 -44.617294 -1.0524626 85.577103 -1.085364 85.546837 -19.169046 9.1517143
31600000000 -16.539574 -48.579037 -1.0602618 83.753601 -1.0947537 83.419853 -19.50972 4.6560397
31700000000 -16.316851 -48.397511 -1.0692451 81.589584 -1.0929822 81.465332 -19.256147 2.8266232
31800000000 -16.340029 -48.923775 -1.0524045 79.540131 -1.0630016 79.32708 -19.454262 1.1455429
31900000000 -16.319805 -49.109577 -1.046762 77.609985 -1.0425478 77.82312 -19.159039 -4.3435235
32000000000 -16.412355 -49.210384 -1.0553408 75.761688 -1.0675908 75.559135 -19.090435 -7.2827873
32100000000 -16.325531 -52.74815 -1.0707325 73.586678 -1.0722528 73.597565 -18.282862 -9.7196608
32200000000 -16.551392 -52.082481 -1.0574299 71.863495 -1.0885025 71.608269 -18.496292 -9.6222773
32300000000 -16.189255 -53.549732 -1.0675696 69.696716 -1.0957371 69.599167 -18.50112 -11.13071
32400000000 -16.721197 -55.534832 -1.0540975 67.547577 -1.0942073 67.507912 -18.972633 -12.048198
32500000000 -16.322556 -55.802559 -1.0708739 65.554573 -1.0600286 65.545036 -18.574408 -18.105888
32600000000 -16.529339 -58.957619 -1.0679692 63.556538 -1.0516315 63.515877 -18.663277 -22.78274
32700000000 -16.435989 -58.140743 -1.0474185 61.698841 -1.0632285 61.71537 -18.119425 -22.978096
32800000000 -16.706509 -60.698063 -1.0582955 59.719433 -1.0601164 59.613846 -18.158033 -26.298212
32900000000 -16.824457 -58.670704 -1.0620363 57.554775 -1.0441663 57.502796 -18.190084 -25.044149
33000000000 -16.73748 -62.71682 -1.0696299 55.654942 -1.0564984 55.475254 -18.419241 -29.005396
33100000000 -17.137213 -60.953983 -1.0429461 53.563343 -1.065376 53.610386 -18.315813 -32.374649
33200000000 -16.669302 -64.531273 -1.0489475 51.595898 -1.0496005 51.341164 -18.307852 -37.303829
33300000000 -17.446743 -63.512119 -1.0402859 49.570786 -1.0742347 49.335094 -18.603806 -38.362545
33400000000 -16.842781 -63.97229 -1.0693924 47.690964 -1.0680612 47.414577 -18.017139 -40.641228
33500000000 -17.695761 -66.375755 -1.0688673 45.560455 -1.0728158 45.616394 -18.415243 -40.789459
33600000000 -17.325901 -63.965439 -1.0507945 43.452419 -1.0773255 43.654682 -18.34115 -43.034416
33700000000 -17.607635 -67.883759 -1.0584151 41.445446 -1.0920644 41.358303 -18.605145 -43.763245
33800000000 -17.479559 -63.799583 -1.057035 39.709862 -1.0876554 39.530518 -18.756163 -48.218231
33900000000 -17.53994 -68.155418 -1.0564773 37.7379 -1.0457046 37.430714 -18.59977 -49.62886
34000000000 -17.801498 -64.430275 -1.0578978 35.59721 -1.0662746 35.660217 -18.61702 -53.04298
34100000000 -17.866089 -68.087654 -1.0630258 33.813381 -1.0785613 33.540371 -18.710369 -55.42469
34200000000 -18.559486 -67.688148 -1.0647627 31.635138 -1.0346762 31.421646 -18.933823 -55.195461
34300000000 -18.198418 -69.162811 -1.0841693 29.756386 -1.049727 29.584269 -19.113356 -61.580788
34400000000 -18.416708 -69.626709 -1.0551318 27.609234 -1.0971529 27.468536 -19.402956 -62.357647
34500000000 -18.27405 -68.207069 -1.0876867 25.53068 -1.0619775 25.630354 -19.212618 -66.656845
34600000000 -18.443478 -69.693626 -1.0516406 23.632895 -1.0926449 23.483238 -19.15188 -67.199821
34700000000 -18.78952 -68.884796 -1.0491083 21.581093 -1.0669345 21.469469 -19.138788 -67.875175
34800000000 -18.797804 -68.80999 -1.0530293 19.539881 -1.0514365 19.442995 -19.879385 -69.656609
34900000000 -19.438997 -70.0597 -1.0247242 17.80912 -1.0337309 17.407118 -20.468582 -71.884438
35000000000 -19.158628 -69.566589 -1.0273145 15.484845 -1.0374945 15.364053 -20.933195 -78.618965
35100000000 -19.788191 -71.049339 -1.0727018 13.436709 -0.99496812 13.558501 -20.787281 -82.707161
35200000000 -20.145012 -67.985474 -1.0415356 11.496018 -1.0518279 11.249405 -20.916203 -85.01368
35300000000 -19.687151 -71.103523 -1.0288616 9.498312 -1.0687253 9.1632166 -20.816856 -86.163986
35400000000 -20.677757 -64.490364 -1.0440195 7.1370945 -1.0580586 7.2484069 -20.851805 -87.978783
35500000000 -20.053114 -66.943062 -1.060163 5.3402443 -1.08743 5.4110918 -21.303705 -89.862541
35600000000 -20.760675 -68.547997 -1.0752711 3.4219589 -1.0637847 3.4190881 -21.928549 -92.152855
35700000000 -19.808073 -65.29232 -1.0491518 1.2497059 -1.0500692 1.267275 -21.895174 -94.484894
35800000000 -21.304516 -69.267807 -1.0384141 -0.56124043 -1.040827 -0.91042453 -22.498655 -101.13626
35900000000 -20.558495 -61.11779 -1.0263013 -2.7857974 -1.012006 -2.9805698 -22.923588 -107.69952
36000000000 -21.532087 -69.055634 -0.9661119 -4.4405971 -1.0441633 -4.825139 -23.032021 -104.30929
36100000000 -21.699503 -55.369671 -1.0461782 -6.7932615 -1.0504763 -7.0698414 -23.822199 -111.72042
36200000000 -21.386465 -66.390984 -1.0245236 -8.9114628 -1.0005112 -8.9604254 -24.504324 -110.47807
36300000000 -22.106987 -53.655128 -1.054194 -10.754209 -1.0179855 -10.687512 -25.451822 -118.83387
36400000000 -20.818163 -64.114487 -1.016662 -12.929942 -1.0037625 -13.231993 -24.89255 -121.1604
36500000000 -22.461449 -52.079742 -1.0314243 -15.334431 -1.0395341 -15.001263 -26.499058 -123.52164
36600000000 -20.669643 -52.828465 -0.99901217 -16.967386 -1.0043411 -17.092684 -27.76959 -119.26067
36700000000 -22.456947 -48.922764 -1.0318615 -19.044939 -1.0535079 -19.231945 -27.654451 -133.90187
36800000000 -20.57357 -48.012516 -1.0270696 -20.680719 -1.0447915 -21.191322 -30.375029 -131.93835
36900000000 -22.543447 -51.465862 -1.0408708 -23.107613 -1.0508568 -23.45072 -29.844133 -149.45473
37000000000 -20.325951 -43.827892 -1.037176 -24.98037 -1.0283976 -25.062981 -31.646107 -165.11777
37100000000 -20.899874 -48.291176 -1.0932615 -27.477707 -1.0395758 -27.62344 -29.950161 -156.58873
37200000000 -20.094812 -38.340008 -1.0386827 -29.296492 -0.99752218 -29.344593 -32.855625 -160.36429
37300000000 -21.688803 -43.291405 -1.0735469 -31.473864 -1.0545602 -31.472235 -33.08424 -149.33826
37400000000 -21.242079 -37.195843 -1.0456951 -33.378063 -1.0450295 -33.326195 -37.997028 146.50436
37500000000 -20.548069 -40.955814 -1.0785122 -35.269444 -1.0803908 -35.383896 -35.77533 131.19308
37600000000 -19.984362 -39.778214 -1.1014434 -37.735596 -1.0852765 -37.755772 -34.855942 126.36237
37700000000 -19.731539 -40.327438 -1.0636429 -39.321758 -1.1086669 -39.678028 -31.873116 125.78064
37800000000 -19.410337 -37.957111 -1.0712582 -41.330482 -1.0469158 -41.924885 -33.311745 130.96407
37900000000 -19.571615 -34.835625 -1.10393 -43.250652 -1.1067096 -43.711853 -33.814724 109.65862
38000000000 -18.845917 -36.900654 -1.0380083 -45.535828 -1.0547087 -45.803074 -33.798454 100.55473
38100000000 -19.404852 -37.685062 -1.0588019 -47.622845 -1.0989479 -47.707821 -31.112673 82.147476
38200000000 -18.726198 -36.461578 -1.0862917 -49.654861 -1.1068027 -49.895702 -29.5679 66.740173
38300000000 -18.780991 -39.447498 -1.0919799 -51.630791 -1.0838517 -51.467766 -27.20326 75.511963
38400000000 -17.947222 -34.867615 -1.0798494 -53.984146 -1.1207052 -53.64143 -27.54969 73.849815
38500000000 -18.278469 -41.485191 -1.1102122 -55.821571 -1.1046323 -55.94656 -27.342091 74.399437
38600000000 -18.357706 -32.073631 -1.0814416 -57.283207 -1.1020936 -57.720135 -27.767118 54.422829
38700000000 -17.957928 -41.300327 -1.1437137 -59.407471 -1.1475815 -59.782768 -27.104494 53.60207
38800000000 -18.874315 -34.915936 -1.1834451 -61.637901 -1.1450408 -61.81884 -24.801695 50.675426
38900000000 -17.326868 -42.210987 -1.1441762 -63.604561 -1.0971383 -63.496792 -24.135128 60.678986
39000000000 -18.631588 -38.8699 -1.1606096 -65.63105 -1.1667112 -66.019363 -23.821814 48.563892
39100000000 -16.480846 -36.311756 -1.1512579 -67.596611 -1.2050147 -67.628151 -25.24568 53.912029
39200000000 -17.996761 -44.805172 -1.1847979 -69.88456 -1.1406922 -69.596252 -23.561716 37.228668
39300000000 -16.137039 -37.320431 -1.1358534 -72.049446 -1.1835892 -71.856628 -23.75149 28.829645
39400000000 -18.006607 -47.278622 -1.1202111 -73.454643 -1.1823159 -73.654594 -21.019377 33.593884
39500000000 -16.70043 -37.766098 -1.1794182 -75.743248 -1.2006685 -76.05571 -21.755901 33.301243
39600000000 -16.911394 -51.100838 -1.1640517 -77.735687 -1.2040114 -77.8265 -20.568018 36.000969
39700000000 -17.169523 -38.393974 -1.1782076 -79.725464 -1.189449 -79.754143 -22.865376 35.485714
39800000000 -16.239927 -47.921314 -1.1934568 -81.596794 -1.1932608 -81.903305 -21.589857 28.117598
39900000000 -17.539713 -42.075153 -1.1754148 -83.661346 -1.2206286 -83.728714 -21.779985 16.013962
40000000000 -16.048279 -50.192825 -1.1685843 -85.751411 -1.1528118 -85.515175 -20.176695 15.067616
40100000000 -17.422365 -47.667278 -1.1534413 -87.456703 -1.2179413 -87.783203 -19.417099 11.501927
40200000000 -15.785245 -48.418064 -1.2033573 -89.231583 -1.191342 -89.326775 -19.216986 20.171879
40300000000 -16.866343 -55.672337 -1.170608 -91.4394 -1.1602778 -91.642136 -19.44906 12.939626
40400000000 -15.714849 -46.786873 -1.1727232 -92.982964 -1.1587849 -93.281677 -20.158073 16.977036
40500000000 -16.726267 -53.243999 -1.2119144 -95.55793 -1.2371544 -95.673317 -20.265844 8.433157
40600000000 -16.582638 -51.60257 -1.1731976 -97.279861 -1.1760243 -97.699471 -20.41083 3.30422
40700000000 -16.39016 -55.463356 -1.2095027 -99.63353 -1.1812998 -99.912483 -19.212194 0.027220888
40800000000 -16.70862 -54.745327 -1.233664 -101.45734 -1.1378679 -101.38906 -18.740501 1.6188772
40900000000 -16.220304 -56.763561 -1.1395169 -103.61326 -1.161474 -103.68235 -18.42449 1.5008405
41000000000 -16.101366 -60.020214 -1.1909893 -105.39023 -1.2030579 -105.51579 -18.919918 -1.1093366
41100000000 -16.141092 -56.225212 -1.1836891 -107.59321 -1.1142172 -107.56397 -19.718588 -2.6189809
41200000000 -16.125614 -62.038452 -1.156846 -109.49319 -1.2077326 -109.35204 -19.621407 -5.9531536
41300000000 -16.816578 -56.887363 -1.1150055 -111.2989 -1.1304456 -111.80841 -19.299894 -8.4682102
41400000000 -16.224571 -62.043648 -1.1607306 -114.06966 -1.171288 -113.63514 -18.911028 -12.670576
41500000000 -16.723 -63.873703 -1.2158537 -115.81409 -1.1812794 -115.86722 -18.841227 -16.626686
41600000000 -16.121105 -62.089268 -1.2019789 -117.86184 -1.2058265 -117.53682 -19.244864 -14.898639
41700000000 -17.359854 -69.465111 -1.1972586 -119.31799 -1.182493 -119.93707 -18.811657 -18.52165
41800000000 -16.441612 -61.258648 -1.1608142 -121.47784 -1.1266985 -121.75704 -19.137691 -17.820526
41900000000 -17.192961 -74.175545 -1.2033345 -123.72187 -1.2329203 -123.54319 -19.804569 -21.708723
42000000000 -17.462469 -64.384506 -1.1522626 -125.65704 -1.1358433 -125.69166 -19.592207 -21.111897
42100000000 -17.654593 -70.517326 -1.1653048 -127.30172 -1.1970594 -127.75034 -19.344418 -26.085712
42200000000 -18.159306 -68.822937 -1.1609166 -129.63016 -1.1166729 -129.8042 -19.545343 -26.319948
42300000000 -16.958294 -71.621712 -1.0765227 -131.58282 -1.139838 -131.79123 -18.807417 -33.471928
42400000000 -19.31892 -72.432198 -1.1700163 -134.1711 -1.1926841 -133.75885 -20.173317 -26.695635
42500000000 -17.717987 -67.885254 -1.1512239 -136.0291 -1.101487 -135.67719 -20.010115 -33.844254
42600000000 -19.70841 -77.94577 -1.1561836 -138.14227 -1.1220676 -137.57433 -21.619318 -36.789913
42700000000 -19.077929 -71.360161 -1.109865 -139.76218 -1.1407218 -140.18613 -19.728643 -41.209602
42800000000 -18.99614 -85.719711 -1.1598748 -142.07014 -1.1684308 -141.64153 -21.405882 -42.296635
42900000000 -19.924648 -72.917679 -1.1046009 -143.88596 -1.1298203 -144.4601 -20.533199 -36.983192
43000000000 -18.884226 -83.330521 -1.078861 -145.76111 -1.1381626 -145.70924 -21.34934 -47.321674
43100000000 -21.973696 -67.708115 -1.1334039 -148.16904 -1.1386707 -148.36401 -21.983278 -31.497093
43200000000 -19.993393 -74.863014 -1.152058 -149.5499 -1.1325141 -150.17996 -23.076267 -52.416912
43300000000 -23.267033 -82.365433 -1.134668 -152.22682 -1.1333699 -151.67812 -22.810778 -42.138607
43400000000 -20.696291 -76.010948 -1.0797939 -154.01712 -1.0613488 -154.49391 -22.697403 -50.406433
43500000000 -21.77496 -88.048416 -1.1545631 -156.63782 -1.1326928 -156.2368 -25.069183 -51.409954
43600000000 -23.765066 -71.194084 -1.1376657 -158.20326 -1.1194409 -158.23332 -22.225197 -60.596298
43700000000 -24.28299 -86.092613 -1.2180074 -160.13629 -1.1863699 -160.78418 -23.28149 -42.57349
43800000000 -26.384476 -67.904228 -1.117149 -162.30569 -1.1761906 -162.12837 -25.961031 -45.878597
43900000000 -24.950872 -75.12838 -1.0508202 -164.58875 -1.1198442 -164.63968 -27.369831 -41.75338
44000000000 -29.249254 -72.82048 -1.0986065 -166.2258 -1.1243906 -166.56775 -29.695631 -47.163284
44100000000 -26.126352 -66.461418 -1.0626959 -169.03957 -1.1109858 -168.08569 -28.419336 -47.691128
44200000000 -34.42318 -36.858158 -1.2050413 -170.03328 -1.1679285 -170.77512 -30.106005 -61.75235
44300000000 -26.504822 -49.342525 -1.1560849 -172.7787 -1.0988415 -173.1913 -30.026768 -39.813839
44400000000 -34.048798 -73.518364 -1.1797345 -174.78777 -1.1405535 -174.65929 -29.775496 -32.874382
44500000000 -25.665495 -15.304122 -1.155255 -176.71112 -1.1740307 -176.88852 -32.942265 -11.825855
44600000000 -28.925474 -42.750183 -1.1199863 -179.0117 -1.1330725 -179.09872 -33.051647 -12.007445
44700000000 -27.040434 13.453574 -1.2147346 179.11063 -1.1405162 178.80537 -41.694893 -37.725777
44800000000 -27.458178 -24.963818 -1.1882818 176.81148 -1.1891408 176.70378 -33.884899 29.627991
44900000000 -26.115049 10.328321 -1.1204058 174.89459 -1.2156643 174.3172 -32.427036 37.96167
45000000000 -26.378466 -2.8163917 -1.2468433 172.87631 -1.1499482 172.60089 -28.027718 57.022881
