!Keysight Technologies,N5247B,MY61255062,A.19.80.06
!Date: Monday, May 18, 2026 12:03:56
!Correction: S11(Cdelta 2-Port  ) 
!S21(Cdelta 2-Port  ) 
!S12(Cdelta 2-Port  ) 
!S22(Cdelta 2-Port  ) 
!S2P File: Measurements: S11, S21, S12, S22:
# Hz S  dB   R 50
1000000000 -26.717188 -16.973694 -0.41320324 -21.253696 -0.41154093 -21.260965 -27.143215 -18.639742
1100000000 -26.69116 -20.051245 -0.42377442 -23.327206 -0.42474201 -23.328949 -27.234535 -21.200958
1200000000 -26.606951 -21.829851 -0.4341242 -25.355339 -0.43424666 -25.358461 -27.26248 -22.313929
1300000000 -26.500694 -24.415705 -0.44144067 -27.444286 -0.44037741 -27.449192 -27.142534 -25.198977
1400000000 -26.434536 -26.275455 -0.44510269 -29.440765 -0.44578531 -29.445309 -27.069483 -26.145145
1500000000 -26.316179 -28.848282 -0.44688779 -31.498449 -0.44787461 -31.510586 -26.893513 -28.468401
1600000000 -26.250088 -31.016829 -0.45338035 -33.574261 -0.45352921 -33.584743 -26.817362 -31.463814
1700000000 -26.134111 -33.626495 -0.45587003 -35.620682 -0.45551842 -35.62883 -26.737553 -33.724266
1800000000 -26.025782 -36.310425 -0.45761243 -37.688648 -0.4587481 -37.692101 -26.657963 -36.297009
1900000000 -25.924822 -39.052017 -0.46028987 -39.756607 -0.46115595 -39.75938 -26.577621 -39.051933
2000000000 -25.895348 -41.608063 -0.46742803 -41.835644 -0.4688316 -41.850849 -26.556257 -42.148293
2100000000 -25.812109 -44.136944 -0.47073379 -43.891014 -0.47020733 -43.907139 -26.517431 -44.167461
2200000000 -25.798777 -46.63525 -0.47415149 -45.960392 -0.47434926 -45.97327 -26.459705 -47.004448
2300000000 -25.791985 -49.491302 -0.48014748 -48.024879 -0.47962996 -48.047302 -26.43359 -49.728977
2400000000 -25.77854 -52.017372 -0.48573688 -50.086582 -0.48765925 -50.098824 -26.496805 -52.108036
2500000000 -25.730637 -54.493469 -0.49117637 -52.154152 -0.49133754 -52.167313 -26.457819 -55.11179
2600000000 -25.727533 -57.113926 -0.49664649 -54.21954 -0.49972308 -54.226791 -26.48094 -57.830856
2700000000 -25.726492 -59.587936 -0.50599819 -56.256878 -0.5049094 -56.278656 -26.559778 -60.785435
2800000000 -25.820356 -62.264034 -0.5079118 -58.311443 -0.50955611 -58.333069 -26.530079 -63.340744
2900000000 -25.828093 -64.482376 -0.5143317 -60.375847 -0.5160169 -60.376408 -26.619991 -65.455803
3000000000 -25.839743 -67.205025 -0.51935869 -62.403934 -0.51937795 -62.428284 -26.677908 -67.909821
3100000000 -25.862844 -69.44664 -0.52294308 -64.443214 -0.52328795 -64.47348 -26.803471 -70.181023
3200000000 -25.829298 -72.110329 -0.52631128 -66.49704 -0.52920103 -66.513443 -26.840174 -72.683113
3300000000 -25.872721 -74.237938 -0.53204381 -68.538818 -0.53070045 -68.555099 -26.917145 -75.285423
3400000000 -25.916435 -76.603249 -0.53578568 -70.576004 -0.53624052 -70.604553 -26.959639 -77.387421
3500000000 -25.992594 -79.065407 -0.53907591 -72.636551 -0.54001534 -72.632813 -27.018751 -79.340614
3600000000 -25.979078 -81.265526 -0.54107952 -74.670425 -0.54187185 -74.68705 -27.104145 -81.250221
3700000000 -26.084457 -83.809807 -0.54160029 -76.716003 -0.54549801 -76.731743 -27.145943 -83.538994
3800000000 -26.060843 -85.611221 -0.5447309 -78.767815 -0.54742151 -78.803291 -27.250303 -85.666328
3900000000 -26.142279 -87.991875 -0.54773778 -80.828026 -0.54855597 -80.836319 -27.296747 -88.328186
4000000000 -26.13283 -89.666733 -0.55135298 -82.887123 -0.55240554 -82.897888 -27.378376 -90.277496
4100000000 -26.274961 -92.185989 -0.55315673 -84.934349 -0.55724585 -84.944359 -27.4806 -92.353134
4200000000 -26.331438 -93.832535 -0.55836463 -86.976379 -0.56080276 -86.99855 -27.670809 -94.371521
4300000000 -26.377193 -96.328705 -0.56214809 -89.037254 -0.56638372 -89.035553 -27.737715 -96.332474
4400000000 -26.542509 -98.439163 -0.56391418 -91.068268 -0.56480944 -91.082367 -27.945974 -98.282066
4500000000 -26.599201 -100.39313 -0.56676567 -93.104919 -0.56894439 -93.120285 -28.012333 -100.45263
4600000000 -26.723606 -102.32934 -0.57064563 -95.163635 -0.5710938 -95.180672 -28.195841 -102.61787
4700000000 -26.753029 -104.33894 -0.5721488 -97.214737 -0.57434171 -97.23378 -28.291838 -104.48041
4800000000 -26.902473 -106.52425 -0.57394022 -99.258934 -0.57627332 -99.28434 -28.494621 -106.51381
4900000000 -27.045877 -107.99688 -0.58043247 -101.30405 -0.5817126 -101.33429 -28.606939 -107.99019
5000000000 -27.154434 -110.26501 -0.58242565 -103.35805 -0.58306241 -103.38126 -28.870501 -110.25195
5100000000 -27.278591 -111.92052 -0.583691 -105.42044 -0.58756834 -105.42439 -29.061211 -111.11107
5200000000 -27.372156 -113.65138 -0.58719671 -107.45356 -0.58797079 -107.47054 -29.309311 -113.35484
5300000000 -27.596266 -115.24329 -0.58982599 -109.50272 -0.59315389 -109.51663 -29.562799 -115.26505
5400000000 -27.75392 -117.17686 -0.59534264 -111.55375 -0.59624052 -111.57188 -29.750584 -117.3716
5500000000 -27.965137 -118.80544 -0.59621644 -113.59053 -0.5991326 -113.61462 -29.976812 -118.82609
5600000000 -28.103352 -120.77882 -0.599576 -115.64035 -0.60244322 -115.65732 -30.123461 -120.08545
5700000000 -28.260052 -122.98609 -0.60336316 -117.66662 -0.60514903 -117.69237 -30.377344 -121.10847
5800000000 -28.400917 -124.47366 -0.60463399 -119.71457 -0.60684013 -119.73266 -30.820202 -122.23413
5900000000 -28.57477 -125.93905 -0.60854793 -121.74107 -0.60763055 -121.77136 -31.199434 -123.88223
6000000000 -28.837963 -127.13283 -0.60963982 -123.78024 -0.61138242 -123.80025 -31.546833 -125.95385
6100000000 -29.134455 -128.15753 -0.61051476 -125.81624 -0.60996151 -125.85011 -31.846998 -127.79165
6200000000 -29.560951 -129.99669 -0.61087912 -127.87154 -0.61139852 -127.89597 -32.211151 -128.88872
6300000000 -29.915001 -130.96939 -0.60860723 -129.90796 -0.61168784 -129.92906 -32.743992 -128.04286
6400000000 -30.119122 -132.71881 -0.60943609 -131.96622 -0.61082548 -132.00208 -33.238213 -128.59552
6500000000 -30.532495 -133.24384 -0.61321276 -134.00917 -0.61503047 -134.04852 -33.789021 -127.07566
6600000000 -30.653622 -133.689 -0.61146849 -136.08035 -0.61523741 -136.09621 -34.239952 -127.09405
6700000000 -31.035561 -134.09546 -0.61470658 -138.13208 -0.61846608 -138.14975 -34.655148 -125.71848
6800000000 -31.251785 -132.85959 -0.6149022 -140.18317 -0.61875528 -140.21414 -35.147549 -125.28109
6900000000 -31.621683 -133.46002 -0.61888003 -142.25722 -0.61986881 -142.28238 -35.701702 -121.04378
7000000000 -31.721262 -132.18083 -0.61991209 -144.31099 -0.6249631 -144.32574 -35.827724 -119.70862
7100000000 -32.011837 -133.44154 -0.62529701 -146.35982 -0.62774187 -146.37747 -36.343082 -116.89227
7200000000 -32.301277 -132.57834 -0.6271733 -148.41322 -0.62975359 -148.41925 -36.578846 -117.17706
7300000000 -32.668056 -133.75743 -0.62830603 -150.44083 -0.63225126 -150.47382 -36.964409 -113.16464
7400000000 -33.108047 -131.56248 -0.63048804 -152.50656 -0.63435763 -152.53964 -36.832653 -111.08244
7500000000 -33.065117 -130.77092 -0.6368565 -154.56734 -0.64002776 -154.57214 -36.84362 -105.23164
7600000000 -33.650692 -129.75577 -0.64000857 -156.58328 -0.6428411 -156.60399 -36.885921 -103.44926
7700000000 -33.843151 -127.08481 -0.63592887 -158.64944 -0.6373325 -158.67885 -37.379639 -93.840897
7800000000 -34.091949 -125.91766 -0.63949323 -160.70987 -0.64443856 -160.73415 -37.340107 -92.119324
7900000000 -33.949123 -123.03541 -0.64115125 -162.76942 -0.64618582 -162.78966 -37.332668 -90.043243
8000000000 -34.188416 -122.72248 -0.64774662 -164.8215 -0.64954185 -164.85263 -36.43367 -91.367226
8100000000 -34.096588 -118.99045 -0.65130931 -166.88919 -0.65523303 -166.90973 -35.72401 -85.36676
8200000000 -34.240639 -119.24828 -0.65664023 -168.94682 -0.65830511 -168.96988 -34.644417 -80.910713
8300000000 -34.515488 -115.32572 -0.66115141 -171.01663 -0.66364157 -171.03548 -34.724514 -71.826134
8400000000 -34.725044 -115.60423 -0.67168695 -173.07104 -0.67201447 -173.10844 -35.705814 -63.580654
8500000000 -34.608704 -110.29447 -0.6940949 -175.14424 -0.69787061 -175.17729 -40.315289 -53.231018
8600000000 -33.328476 -119.08551 -0.75685382 -176.96194 -0.75720263 -176.99823 -46.578125 97.488533
8700000000 -39.840767 -142.62698 -0.68415129 -177.94286 -0.68568486 -177.99675 -31.289408 66.8647
8800000000 -34.517395 -89.606064 -0.56573969 179.07751 -0.5703162 179.04781 -34.356998 10.588914
8900000000 -33.638824 -105.21722 -0.6228084 176.68114 -0.63107377 176.67729 -38.382713 -43.618179
9000000000 -33.82304 -108.28098 -0.65744698 174.64372 -0.66078097 174.61815 -35.390629 -81.55629
9100000000 -33.701157 -105.01532 -0.66809034 172.63109 -0.67346609 172.59818 -32.881584 -85.855507
9200000000 -33.185658 -103.48747 -0.67516679 170.5937 -0.67823571 170.57727 -31.219839 -83.26915
9300000000 -32.788586 -102.45316 -0.67626035 168.56726 -0.68240041 168.54402 -30.742798 -79.123779
9400000000 -32.524918 -101.99306 -0.68123651 166.52902 -0.68578577 166.51405 -30.55188 -76.34626
9500000000 -32.423397 -101.70463 -0.6867041 164.50125 -0.68708068 164.46329 -30.72287 -75.972298
9600000000 -32.183388 -101.1573 -0.68717742 162.45734 -0.69194299 162.43398 -30.501152 -78.23349
9700000000 -31.945105 -100.52271 -0.69075227 160.43158 -0.69154257 160.37708 -30.244781 -80.018929
9800000000 -31.497122 -101.18446 -0.6927861 158.38647 -0.69694078 158.35007 -29.770319 -82.007149
9900000000 -31.348452 -101.54786 -0.6959337 156.33188 -0.69607562 156.30315 -29.498442 -81.552315
10000000000 -31.002131 -101.94057 -0.69834697 154.29349 -0.70279366 154.26578 -29.165888 -82.767731
10100000000 -31.075836 -102.46313 -0.7024799 152.27136 -0.70549208 152.2269 -29.176775 -82.246948
10200000000 -30.528728 -101.71711 -0.70320177 150.21272 -0.70628542 150.16823 -29.041574 -85.359322
10300000000 -30.479805 -102.89021 -0.70671827 148.16115 -0.71004826 148.12793 -28.806444 -87.555763
10400000000 -30.028496 -103.31595 -0.70834941 146.11348 -0.71074331 146.0943 -28.363937 -89.500748
10500000000 -29.938927 -105.56384 -0.70988852 144.07275 -0.71562791 144.04648 -28.162182 -89.476395
10600000000 -29.716673 -104.95962 -0.71589899 142.0054 -0.72100025 141.99301 -27.783401 -90.349411
10700000000 -29.435486 -107.0073 -0.71806252 139.98312 -0.71876895 139.95528 -27.83478 -90.164482
10800000000 -29.338144 -105.8124 -0.72040498 137.94254 -0.72525549 137.89043 -27.731955 -91.477211
10900000000 -28.866983 -107.20735 -0.72526926 135.89671 -0.72829539 135.88651 -27.812614 -93.705582
11000000000 -28.873589 -108.09801 -0.7300275 133.88466 -0.73266935 133.8212 -27.551912 -95.627045
11100000000 -28.554745 -109.4028 -0.73097509 131.84213 -0.73524964 131.78258 -27.481695 -98.628349
11200000000 -28.66371 -111.02286 -0.73454386 129.7856 -0.73825425 129.76018 -27.026367 -99.591164
11300000000 -28.38093 -111.8174 -0.73735046 127.75143 -0.73985219 127.72074 -26.973238 -101.67602
11400000000 -28.197563 -114.22553 -0.74057233 125.71746 -0.7428661 125.67854 -26.599977 -101.54562
11500000000 -27.875996 -114.64074 -0.74131465 123.68351 -0.74631524 123.65614 -26.589489 -103.13192
11600000000 -27.709265 -116.85668 -0.74459231 121.66182 -0.74767447 121.60464 -26.51573 -104.55485
11700000000 -27.573679 -117.17119 -0.74879199 119.63001 -0.75053877 119.57007 -26.589996 -107.30504
11800000000 -27.519625 -119.80681 -0.74975944 117.59926 -0.75371683 117.56851 -26.409269 -108.68095
11900000000 -27.4153 -120.53083 -0.75245762 115.56081 -0.7558614 115.5459 -26.309675 -111.74915
12000000000 -27.395872 -123.51072 -0.75367218 113.54411 -0.75950128 113.5194 -26.102369 -112.28799
12100000000 -27.238037 -125.00724 -0.75660855 111.53625 -0.75872344 111.49387 -26.047884 -114.92397
12200000000 -27.043209 -127.08923 -0.75737 109.49136 -0.76128161 109.46336 -25.931452 -115.87276
12300000000 -27.007317 -128.895 -0.75820678 107.47985 -0.76018798 107.42829 -25.93466 -118.37302
12400000000 -27.017679 -131.01447 -0.75781471 105.45014 -0.76177889 105.39854 -25.985775 -120.05743
12500000000 -27.063446 -133.3223 -0.75779438 103.43306 -0.76097316 103.37392 -25.916813 -123.22657
12600000000 -27.0492 -135.64165 -0.75519603 101.38728 -0.76087725 101.35202 -25.964003 -124.53666
12700000000 -27.150583 -137.1835 -0.75470138 99.370247 -0.75598216 99.341858 -25.972237 -126.59837
12800000000 -27.019167 -139.69997 -0.75376517 97.322899 -0.7536993 97.288315 -26.080921 -128.129
12900000000 -27.12464 -141.3903 -0.74878895 95.268364 -0.75209409 95.232872 -26.110186 -130.68457
13000000000 -27.050945 -143.13014 -0.74955487 93.230247 -0.75217354 93.187408 -26.269873 -131.82715
13100000000 -27.40987 -145.19153 -0.74890214 91.180008 -0.7526359 91.139557 -26.318384 -134.91245
13200000000 -27.262581 -146.83421 -0.74618798 89.113014 -0.75175768 89.069817 -26.491638 -136.02878
13300000000 -27.686121 -149.97011 -0.74810958 87.036285 -0.74909127 87.011833 -26.506105 -137.4146
13400000000 -27.559278 -149.7572 -0.74892825 84.998215 -0.74795061 84.952255 -26.786098 -138.60294
13500000000 -27.681583 -152.54352 -0.74713391 82.956886 -0.75074798 82.910179 -27.005264 -141.09703
13600000000 -27.759604 -152.06491 -0.7487551 80.870575 -0.75028366 80.83065 -27.322561 -142.32199
13700000000 -28.018751 -154.92889 -0.752083 78.799217 -0.75577885 78.779259 -27.366011 -145.10526
13800000000 -28.459652 -153.98132 -0.75467026 76.737534 -0.75679463 76.678711 -27.528904 -146.19818
13900000000 -28.229244 -157.50134 -0.76904833 74.648186 -0.7700339 74.605225 -27.344496 -146.43283
14000000000 -28.31835 -158.24146 -0.77841705 72.657433 -0.77796155 72.610168 -27.397533 -146.90517
14100000000 -27.801521 -161.84502 -0.7744869 70.685951 -0.7799679 70.624794 -27.39587 -149.47153
14200000000 -28.339668 -164.05621 -0.76979625 68.66407 -0.77645141 68.593155 -27.922117 -152.54305
14300000000 -28.333914 -164.52309 -0.77009881 66.597115 -0.77270639 66.561646 -28.12207 -155.5126
14400000000 -29.020159 -168.18092 -0.76646489 64.566963 -0.7726773 64.511932 -28.46677 -158.37013
14500000000 -29.218525 -168.83304 -0.76885617 62.506035 -0.77101809 62.445164 -28.418379 -159.39818
14600000000 -29.61447 -173.32982 -0.77220571 60.418159 -0.77475822 60.375568 -28.739437 -159.88463
14700000000 -29.84622 -172.10345 -0.77917153 58.354897 -0.78441435 58.315697 -28.818361 -158.88168
14800000000 -29.326187 -174.22664 -0.79258329 56.35075 -0.79620928 56.320873 -29.089384 -161.25304
14900000000 -29.629736 -177.07674 -0.78276211 54.377373 -0.78688067 54.351051 -29.35297 -165.81439
15000000000 -30.0688 -178.85574 -0.7776767 52.31897 -0.78417182 52.264835 -29.863642 -168.42888
15100000000 -30.885515 179.94322 -0.77884167 50.230305 -0.78131658 50.210697 -30.019722 -168.52528
15200000000 -31.189518 176.79683 -0.78127199 48.211792 -0.78359544 48.138458 -30.443819 -169.68628
15300000000 -31.629911 174.53284 -0.78122395 46.123615 -0.78673267 46.069229 -30.783152 -168.55656
15400000000 -31.634581 174.48692 -0.78388345 44.076015 -0.78785038 44.0275 -31.454281 -169.98813
15500000000 -31.972046 175.09889 -0.78373373 42.032383 -0.79425204 41.985134 -31.893366 -171.54053
15600000000 -32.313301 174.66498 -0.79118639 39.994785 -0.79439437 39.947514 -32.501961 -174.98401
15700000000 -33.006226 173.76483 -0.78887713 37.937881 -0.79653049 37.901726 -32.741634 -174.54576
15800000000 -33.524876 170.20798 -0.7955206 35.889488 -0.79901558 35.854015 -32.970276 -174.56847
15900000000 -34.202721 168.26849 -0.79692078 33.844044 -0.80147994 33.810081 -33.57645 -173.97704
16000000000 -33.989567 166.93013 -0.79849285 31.80261 -0.80183268 31.747625 -34.298008 -174.29417
16100000000 -34.671333 163.32907 -0.80318379 29.784256 -0.80713415 29.715284 -35.103367 -176.16948
16200000000 -34.535213 167.77271 -0.80597156 27.724207 -0.80535299 27.687172 -36.118202 -179.75063
16300000000 -36.208447 159.97336 -0.80669552 25.717192 -0.81080538 25.639761 -36.597065 179.991
16400000000 -36.659447 164.98561 -0.81010592 23.634014 -0.81541783 23.604372 -37.241882 176.24174
16500000000 -37.180225 150.65329 -0.81093705 21.617098 -0.81701845 21.571074 -37.670639 -178.01662
16600000000 -37.877518 158.59283 -0.81390208 19.57423 -0.8215481 19.537252 -39.237228 -178.46231
16700000000 -37.48439 149.31216 -0.81616467 17.559254 -0.82492352 17.467236 -40.475159 -170.26414
16800000000 -40.290585 160.38966 -0.81892163 15.514266 -0.82502335 15.458754 -41.996738 -178.90886
16900000000 -40.164257 152.78209 -0.82063299 13.479746 -0.82811803 13.429305 -43.845802 -168.00034
17000000000 -45.730175 147.84427 -0.81941271 11.443262 -0.8275066 11.398401 -44.397717 -175.50357
17100000000 -42.660286 146.96716 -0.82388508 9.4052105 -0.83360255 9.3740845 -44.28587 -152.3279
17200000000 -45.782734 132.33534 -0.82937521 7.3857484 -0.82746685 7.3457403 -44.678822 -150.58676
17300000000 -43.55196 166.60915 -0.82700801 5.3787656 -0.83394659 5.3231411 -44.988297 -118.7062
17400000000 -48.916214 161.19925 -0.82517582 3.2947168 -0.83163208 3.2624061 -45.392612 -104.89221
17500000000 -45.71233 -150.2106 -0.82867247 1.2989988 -0.83580637 1.2265865 -43.771618 -84.535736
17600000000 -57.553715 -153.25423 -0.83283389 -0.74830556 -0.83382994 -0.79090792 -44.971066 -90.334465
17700000000 -48.060459 -109.22841 -0.83642489 -2.7861516 -0.83901608 -2.8255064 -43.264481 -78.759048
17800000000 -53.935825 -117.31174 -0.83012539 -4.8085828 -0.83880568 -4.9140759 -42.120388 -90.875259
17900000000 -44.86108 -96.25972 -0.83608568 -6.8270221 -0.84102446 -6.9071155 -39.710438 -86.644402
18000000000 -44.700836 -108.63211 -0.83617038 -8.9078388 -0.84269017 -8.9365683 -38.185745 -82.683746
18100000000 -41.739033 -92.757774 -0.83065099 -10.903538 -0.83849514 -10.953714 -36.829647 -71.120979
18200000000 -42.056503 -96.906944 -0.83726293 -12.934276 -0.83830017 -12.995978 -36.77293 -72.67556
18300000000 -41.124561 -89.803795 -0.83497518 -14.954143 -0.84009838 -15.037927 -36.514214 -66.910957
18400000000 -40.617954 -92.62471 -0.8350386 -17.01195 -0.84039992 -17.089636 -36.522243 -71.398933
18500000000 -39.669884 -87.844009 -0.83622622 -19.05217 -0.840491 -19.104963 -35.427181 -73.656425
18600000000 -38.616909 -88.377861 -0.83377123 -21.087986 -0.8394658 -21.159843 -34.533466 -80.977928
18700000000 -37.870205 -88.1157 -0.83193773 -23.175524 -0.83835417 -23.180607 -33.503311 -77.745514
18800000000 -37.286713 -90.83062 -0.83601564 -25.182096 -0.83935618 -25.245691 -32.721428 -75.678421
18900000000 -36.290836 -90.233696 -0.83064723 -27.213457 -0.83427751 -27.271307 -32.268295 -72.094215
19000000000 -36.724907 -90.75193 -0.82698357 -29.252468 -0.8376503 -29.303913 -32.439629 -73.991005
19100000000 -35.589558 -91.891739 -0.83214247 -31.310135 -0.8337515 -31.355623 -32.064365 -76.035362
19200000000 -35.881378 -98.223358 -0.83177692 -33.334499 -0.83599055 -33.383793 -32.212658 -81.528679
19300000000 -34.744812 -94.448868 -0.83431643 -35.382774 -0.83455169 -35.427727 -31.281462 -83.682648
19400000000 -34.270672 -104.81208 -0.82758021 -37.443623 -0.8348999 -37.502117 -30.982149 -86.672295
19500000000 -33.880054 -97.849724 -0.82664227 -39.490097 -0.83526915 -39.560093 -30.257147 -85.242821
19600000000 -33.355808 -105.38741 -0.83055633 -41.552666 -0.83577186 -41.587555 -30.260555 -87.760887
19700000000 -34.629627 -100.60344 -0.82805318 -43.600887 -0.82833976 -43.63607 -29.964029 -86.70652
19800000000 -33.21629 -108.69369 -0.82653862 -45.6511 -0.83568776 -45.712116 -29.899391 -92.029251
19900000000 -34.406471 -113.31595 -0.82601416 -47.720322 -0.8292712 -47.754429 -29.519047 -91.306877
20000000000 -32.094299 -114.03156 -0.82593465 -49.772083 -0.83348113 -49.81776 -29.234627 -96.113556
20100000000 -33.162254 -118.46496 -0.82665354 -51.830166 -0.83288622 -51.911423 -29.197012 -93.458
20200000000 -32.029484 -110.08015 -0.83419847 -53.838615 -0.83543235 -53.943497 -28.827461 -97.602394
20300000000 -32.674118 -118.70441 -0.83488232 -55.956207 -0.8386333 -56.023487 -28.956022 -95.738846
20400000000 -32.666519 -111.30832 -0.83320922 -58.001202 -0.84027582 -58.080009 -28.517929 -100.20574
20500000000 -31.864769 -124.48064 -0.84029502 -60.089615 -0.84588456 -60.170948 -28.478428 -100.32877
20600000000 -31.795813 -118.63081 -0.8497417 -62.165745 -0.85458642 -62.186134 -27.684639 -101.59668
20700000000 -30.237314 -123.90726 -0.85930556 -64.128105 -0.86329621 -64.212753 -27.602573 -101.05927
20800000000 -30.542061 -123.23184 -0.86516225 -66.094505 -0.8678323 -66.158279 -26.993237 -103.23119
20900000000 -29.802942 -127.75562 -0.85812891 -68.092636 -0.85635316 -68.140121 -27.274496 -104.90735
21000000000 -30.571182 -133.25948 -0.85044789 -70.115318 -0.85198337 -70.181343 -27.102371 -108.612
21100000000 -30.426243 -133.36986 -0.84350586 -72.146919 -0.84815162 -72.266983 -27.500088 -112.76472
21200000000 -30.481129 -140.44917 -0.84259588 -74.28846 -0.84644479 -74.396355 -27.020859 -115.84449
21300000000 -30.307226 -139.12975 -0.8428728 -76.374107 -0.85114408 -76.479179 -27.065586 -117.47983
21400000000 -29.779743 -141.00763 -0.85146749 -78.493599 -0.85347968 -78.566872 -26.623108 -116.72919
21500000000 -29.739227 -139.28311 -0.86260027 -80.532555 -0.86798912 -80.569099 -26.450216 -116.73098
21600000000 -29.09675 -141.69038 -0.86593854 -82.475594 -0.86922061 -82.541786 -26.248543 -118.67696
21700000000 -29.298998 -150.08913 -0.85869038 -84.433792 -0.86369729 -84.509743 -26.543884 -122.98629
21800000000 -29.578676 -151.64648 -0.84937561 -86.496307 -0.85335654 -86.599617 -26.597858 -126.8226
21900000000 -29.113041 -157.81746 -0.84906369 -88.601715 -0.85278821 -88.660599 -26.839445 -129.80316
22000000000 -29.680672 -159.05893 -0.8504976 -90.688866 -0.85562432 -90.761047 -26.370705 -132.87151
22100000000 -28.904654 -161.79915 -0.85454983 -92.774757 -0.85902101 -92.826538 -26.289259 -133.08315
22200000000 -29.747051 -166.5575 -0.85848629 -94.80735 -0.86287844 -94.892982 -26.047195 -134.51132
22300000000 -29.325754 -163.51428 -0.8551805 -96.891853 -0.86278307 -96.949501 -26.432304 -135.05785
22400000000 -29.551338 -176.32835 -0.86175072 -98.861107 -0.86448848 -98.956169 -26.141478 -137.15823
22500000000 -29.384516 -171.13882 -0.86244494 -100.95048 -0.86733824 -101.01349 -26.655371 -140.51532
22600000000 -28.624683 178.49377 -0.85771197 -102.97272 -0.8673079 -103.07092 -26.145622 -143.95453
22700000000 -29.361181 -176.39603 -0.86781555 -105.06587 -0.87534499 -105.12234 -26.379404 -146.72299
22800000000 -28.344769 177.72028 -0.87496918 -107.1076 -0.87570411 -107.1994 -25.950962 -146.68292
22900000000 -30.023483 176.29849 -0.87053567 -109.14216 -0.87325174 -109.2357 -26.157507 -149.60065
23000000000 -28.631256 173.39561 -0.87958944 -111.23836 -0.88292241 -111.33629 -25.891878 -149.55771
23100000000 -29.570942 164.60684 -0.87256974 -113.24367 -0.87850583 -113.32563 -26.316612 -154.27405
23200000000 -28.385284 168.97383 -0.87862122 -115.30947 -0.88956434 -115.34867 -26.092136 -155.31796
23300000000 -28.656683 160.42899 -0.88284284 -117.34711 -0.88524574 -117.44692 -25.966085 -160.98769
23400000000 -28.669622 167.36243 -0.88486964 -119.38359 -0.89184284 -119.45143 -25.74828 -158.76003
23500000000 -28.236845 156.98085 -0.8973738 -121.44272 -0.898175 -121.53593 -25.703453 -163.08473
23600000000 -29.192392 158.9763 -0.89919883 -123.50213 -0.89464861 -123.57835 -25.990616 -160.23268
23700000000 -27.837673 152.06975 -0.89778119 -125.54993 -0.90342748 -125.59866 -26.10817 -166.30101
23800000000 -28.632383 149.8978 -0.89953607 -127.57676 -0.90125722 -127.66662 -26.358562 -170.54037
23900000000 -27.375206 151.45659 -0.89843953 -129.60094 -0.90049845 -129.70084 -25.951468 -176.10226
24000000000 -27.770691 144.07007 -0.90808326 -131.63113 -0.91014743 -131.75969 -25.808731 -176.9865
24100000000 -27.554535 147.54677 -0.90520817 -133.70555 -0.91492003 -133.7881 -25.286661 -178.57263
24200000000 -27.59528 138.27464 -0.91125143 -135.6821 -0.91179836 -135.80949 -25.641785 -178.1293
24300000000 -27.879498 139.16966 -0.90777189 -137.79068 -0.91433495 -137.83728 -25.653408 -179.7079
24400000000 -26.995054 131.8573 -0.91208929 -139.83098 -0.92038029 -139.89587 -26.501379 176.18889
24500000000 -27.306183 130.03621 -0.91429245 -141.8763 -0.92284763 -141.94922 -26.13324 169.94728
24600000000 -26.487085 129.22958 -0.9192273 -143.92395 -0.92155349 -143.96527 -26.201843 163.77049
24700000000 -26.749769 124.75613 -0.92034227 -145.96298 -0.92533171 -145.98566 -25.592606 162.25293
24800000000 -26.322786 124.77994 -0.92121357 -147.99879 -0.92899847 -148.04869 -25.505178 159.94817
24900000000 -26.273243 117.96488 -0.92411655 -150.0139 -0.93345714 -150.09004 -25.367573 159.33795
25000000000 -26.461159 116.23157 -0.9202888 -152.05122 -0.9292832 -152.15526 -26.057713 156.82603
25100000000 -25.886131 111.85626 -0.9284817 -154.08223 -0.93213826 -154.1622 -26.134811 151.33293
25200000000 -26.026304 108.39004 -0.92321455 -156.11635 -0.9302519 -156.23212 -26.257675 146.00914
25300000000 -25.504679 107.48254 -0.92532533 -158.15971 -0.93482834 -158.24309 -25.738344 141.76849
25400000000 -25.369947 101.96545 -0.93277359 -160.18677 -0.93823391 -160.29485 -25.811834 139.29395
25500000000 -25.267014 103.24991 -0.93200034 -162.27367 -0.93712884 -162.34676 -25.409296 136.584
25600000000 -24.86945 97.557137 -0.93502933 -164.29341 -0.93620032 -164.3647 -25.622952 133.64792
25700000000 -25.27355 95.568069 -0.93642223 -166.3587 -0.94216526 -166.44223 -25.702177 130.07886
25800000000 -24.55401 94.007027 -0.94051045 -168.38213 -0.94598114 -168.50641 -25.815561 126.24871
25900000000 -24.885679 87.756989 -0.93123555 -170.43683 -0.94277889 -170.50471 -25.72559 122.38451
26000000000 -24.287359 88.707809 -0.94112062 -172.45522 -0.94450599 -172.52589 -25.609388 117.46313
26100000000 -24.219614 79.550201 -0.93892568 -174.50058 -0.94458872 -174.58275 -25.311409 116.15475
26200000000 -24.382547 84.307365 -0.94720471 -176.57405 -0.95696038 -176.65472 -25.320606 110.61044
26300000000 -23.535828 76.563324 -0.95190251 -178.52069 -0.95873183 -178.64658 -25.253376 110.27669
26400000000 -24.360344 77.301567 -0.95432979 179.32608 -0.95332378 179.26852 -25.49506 102.31608
26500000000 -23.079683 73.808777 -0.94990021 177.3587 -0.95653635 177.22968 -25.16411 102.84334
26600000000 -24.055275 68.464027 -0.97118664 175.25259 -0.95560372 175.18608 -25.198156 95.278404
26700000000 -22.920353 71.641312 -0.95540404 173.31104 -0.96333814 173.18849 -25.198986 96.885559
26800000000 -23.708572 62.269672 -0.96122819 171.25996 -0.9486289 171.13376 -24.594219 89.006378
26900000000 -23.107458 68.93663 -0.94809014 169.12158 -0.97340965 169.12088 -25.139259 90.434784
27000000000 -22.977989 56.873837 -0.97250152 167.08514 -0.96643203 167.10107 -24.552013 82.467003
27100000000 -23.177067 61.519993 -0.95857143 165.00706 -0.96769792 164.94609 -24.920689 82.596298
27200000000 -22.321079 54.687248 -0.98782843 162.93187 -0.97818226 163.00111 -24.383604 74.476326
27300000000 -23.204098 54.310768 -0.96730101 161.05663 -0.96570742 160.94897 -24.868 74.078354
27400000000 -22.154879 50.457493 -0.97410798 159.11096 -0.99294651 158.92567 -23.999523 68.033478
27500000000 -23.438423 48.162682 -0.97442484 156.94801 -0.983302 156.90509 -24.853514 65.366302
27600000000 -22.486776 47.64011 -0.9889738 155.0018 -0.97086555 154.95096 -24.077608 66.213074
27700000000 -22.939379 41.732899 -0.97083253 153.0791 -0.97423726 152.7773 -24.463791 59.803116
27800000000 -22.063511 44.34227 -0.97095811 150.80232 -0.9955765 150.7984 -23.893524 60.138996
27900000000 -21.993935 37.587593 -0.97913599 148.85158 -0.98224282 148.81395 -24.268831 52.165009
28000000000 -22.030188 41.145786 -0.96804827 146.80112 -0.9987753 146.63623 -23.842888 50.39975
28100000000 -22.278187 34.41328 -0.96520078 144.69748 -0.99977463 144.55771 -23.963369 44.591877
28200000000 -22.129026 34.816147 -1.0115106 142.74232 -0.9799965 142.49733 -23.471682 42.50832
28300000000 -21.489891 29.201504 -0.97453141 140.65527 -0.98341852 140.64677 -23.380999 36.159451
28400000000 -21.895691 28.269943 -1.0027039 138.60672 -0.99348015 138.54686 -23.216335 36.958817
28500000000 -21.646412 25.528976 -1.0082581 136.69652 -0.98749113 136.56252 -23.226875 32.196716
28600000000 -21.602715 23.807154 -1.0024371 134.59006 -0.98004937 134.50798 -22.98477 29.334515
28700000000 -21.527754 22.194014 -0.99079579 132.60722 -0.98023754 132.39351 -22.983395 27.376766
28800000000 -21.947063 21.821915 -0.97796792 130.63831 -0.99347687 130.2576 -23.248714 26.464417
28900000000 -21.595406 16.849752 -0.98567796 128.42262 -0.98132312 128.33287 -22.950151 22.273197
29000000000 -21.866629 17.048107 -0.99045992 126.42368 -1.0064774 126.20041 -22.728144 18.699654
29100000000 -21.334969 10.826008 -0.96223503 124.30817 -0.99577218 124.25882 -22.718674 12.091554
29200000000 -22.330807 13.798524 -0.9945873 122.40324 -0.99195302 122.2039 -22.667986 12.34632
29300000000 -21.539675 10.331464 -0.98463219 120.36956 -0.97553945 120.19846 -22.351532 9.7783175
29400000000 -22.501131 10.016221 -0.9610337 118.35529 -0.96280819 118.18756 -22.196192 13.591311
29500000000 -21.409124 8.4519806 -0.99107188 116.20502 -0.98771697 116.04893 -22.558861 5.4199753
29600000000 -22.364004 0.098807544 -1.0012077 114.15071 -0.98830813 114.08664 -22.986477 7.1013298
29700000000 -21.791361 7.4538293 -0.97949827 112.07397 -0.96387488 111.81023 -22.574848 -2.571739
29800000000 -21.882607 -1.2596146 -0.99298102 109.94702 -0.98889935 109.83701 -22.791592 -2.6136944
29900000000 -22.110353 4.5552864 -0.9762482 108.11597 -0.98083448 107.87402 -22.047106 -10.528062
30000000000 -21.812737 -2.3134766 -0.99230629 105.93875 -0.96955246 105.87812 -22.312935 -5.7114639
30100000000 -23.046537 1.6723527 -0.98585141 103.89717 -0.99342871 103.79099 -21.704229 -9.9330721
30200000000 -21.89616 -7.0504375 -0.98370975 101.98946 -0.98575073 101.86343 -22.719927 -10.798393
30300000000 -23.028008 -6.8981056 -1.0093873 99.933281 -1.0005401 99.805565 -21.851517 -14.729552
30400000000 -21.491489 -7.5709786 -0.99543393 97.80162 -1.0168877 97.650162 -23.247841 -18.235624
30500000000 -23.244642 -13.9596 -0.9955228 95.574501 -0.98541814 95.652908 -21.968035 -21.96167
30600000000 -22.314903 -7.4370413 -1.0098853 93.705795 -1.01668 93.506859 -22.779818 -27.97233
30700000000 -23.52537 -17.644739 -0.9830488 91.644623 -1.0042217 91.575157 -21.910067 -26.526831
30800000000 -23.406094 -14.122005 -1.0038493 89.625504 -1.0126764 89.334846 -22.591333 -34.882629
30900000000 -23.059103 -23.505035 -1.0055071 87.525238 -1.0087476 87.498436 -22.183722 -30.428127
31000000000 -23.657713 -16.453876 -0.99156982 85.42572 -1.0050024 85.382721 -22.757803 -37.212101
31100000000 -23.090099 -24.336946 -1.0327929 83.361862 -1.0187168 83.366669 -22.797565 -38.705021
31200000000 -24.026278 -18.085293 -0.97903222 81.462746 -0.99142772 81.397789 -22.557903 -46.712952
31300000000 -23.272348 -19.462505 -1.0010329 79.315331 -1.0072261 79.13678 -22.641823 -45.270248
31400000000 -24.70755 -23.095179 -1.0154027 77.393631 -1.0041399 77.04216 -22.882067 -48.278423
31500000000 -24.570675 -22.39184 -0.99060494 75.215683 -1.027161 75.185928 -22.83544 -45.616207
31600000000 -25.274931 -30.371765 -1.013926 73.067749 -1.0029758 73.03997 -23.480495 -52.103394
31700000000 -24.999538 -30.291548 -1.0157347 71.229858 -1.0119436 71.083481 -23.505718 -56.445293
31800000000 -25.184614 -27.21352 -0.98716325 69.081856 -1.0120211 68.899719 -23.977743 -61.748707
31900000000 -25.951996 -28.179079 -0.96836108 67.016212 -1.0028121 66.707481 -23.512606 -63.693844
32000000000 -26.215332 -26.410881 -0.99805337 65.125282 -0.97687835 64.684097 -23.887262 -67.862411
32100000000 -27.104244 -31.368696 -0.99172533 62.648975 -1.0336727 62.961437 -23.964499 -66.155418
32200000000 -27.528107 -27.135309 -1.0060537 60.7612 -1.0174521 60.66568 -24.258442 -71.590973
32300000000 -26.869183 -31.299694 -1.0166557 58.846321 -1.0248661 58.602936 -25.724657 -72.263069
32400000000 -29.108147 -29.675175 -1.0010741 56.807201 -1.028036 56.552422 -25.712067 -81.337578
32500000000 -28.245762 -30.325932 -1.0165815 54.55405 -1.0165288 54.508915 -25.278837 -82.011253
32600000000 -30.562782 -35.928551 -0.98880023 52.703735 -1.04085 52.350677 -25.292038 -90.612968
32700000000 -29.912333 -26.76059 -0.99533039 50.581257 -1.0433433 50.546883 -25.579355 -87.415359
32800000000 -33.136303 -34.581699 -1.0317981 48.598648 -1.0012934 48.32328 -24.905231 -90.573135
32900000000 -30.26684 -7.8841515 -1.0307126 46.303024 -1.0286738 46.417042 -26.768879 -93.372894
33000000000 -32.306152 -38.848648 -1.013487 44.458878 -1.0514078 44.226463 -27.30018 -99.698479
33100000000 -32.912888 2.7297153 -1.0313255 42.239574 -1.0204257 42.12429 -28.044735 -108.21472
33200000000 -33.622166 -15.012609 -1.0332142 40.229015 -1.060167 39.994846 -27.155638 -112.30906
33300000000 -34.036148 25.263655 -1.0261263 38.071918 -1.0380491 37.904728 -28.477301 -114.7694
33400000000 -32.484165 -0.68814522 -1.0203602 36.371578 -1.0383391 35.949112 -27.903936 -117.77216
33500000000 -33.776436 34.89249 -1.0469741 34.031921 -1.0167732 34.080814 -29.232784 -125.33841
33600000000 -31.21121 20.314135 -1.0287049 32.192345 -1.0551583 31.878668 -29.488668 -122.91966
33700000000 -33.754776 38.673935 -1.0633627 30.116777 -1.0470179 29.994879 -29.735804 -146.99515
33800000000 -29.995138 28.939297 -1.051483 28.17355 -1.0343204 28.180536 -30.753773 -143.87898
33900000000 -33.424561 34.137154 -1.0390644 26.092537 -1.0597233 25.773298 -30.041731 -157.74519
34000000000 -29.742163 40.764484 -1.0368152 24.038755 -1.0598921 23.666718 -31.413065 -162.63539
34100000000 -29.851467 48.499714 -1.0391197 21.806427 -1.0633588 21.596182 -30.929329 -173.17734
34200000000 -27.891792 59.311436 -1.0607704 19.877737 -1.0409424 19.702034 -31.65616 168.3118
34300000000 -28.698093 53.461899 -1.0005251 17.477335 -1.0656807 17.519434 -31.572557 174.08574
34400000000 -27.343391 55.901207 -1.0357242 15.596442 -1.0619311 15.53324 -29.774126 153.73964
34500000000 -26.602365 49.282192 -1.0805084 13.469494 -1.0581862 13.246855 -29.002876 153.21048
34600000000 -26.94309 57.391594 -1.0376202 11.332277 -1.0849837 11.271152 -30.287495 141.8219
34700000000 -25.044985 54.088455 -1.0465435 9.2925434 -1.1095401 9.529314 -29.758718 130.06061
34800000000 -24.608805 50.640579 -1.0660417 7.4445562 -1.0754737 7.2056823 -28.600658 122.77294
34900000000 -24.306255 54.383915 -1.0898587 5.3355231 -1.084482 5.3845615 -26.965637 117.62665
35000000000 -23.30669 48.821163 -1.0411682 3.4403186 -1.0614727 3.1311958 -26.019867 109.94695
35100000000 -23.332289 53.596592 -1.126002 1.3811862 -1.0876045 1.2179456 -25.648598 118.28197
35200000000 -22.071243 52.632954 -1.0519513 -0.93107975 -1.0708345 -0.98524135 -26.03776 110.08549
35300000000 -22.800924 50.184292 -1.0677265 -2.9652038 -1.0951937 -3.144573 -26.393206 100.51607
35400000000 -20.948881 51.918575 -1.0978315 -5.0826554 -1.1055374 -5.1790624 -25.261702 94.718086
35500000000 -21.282543 48.659145 -1.1037871 -6.9979129 -1.1213641 -6.9037151 -24.413942 89.261772
35600000000 -20.918453 50.818237 -1.0990459 -9.1154118 -1.1400403 -9.1557474 -23.870674 86.378548
35700000000 -20.684212 40.815525 -1.1243246 -11.015732 -1.1580085 -11.16935 -23.599724 85.485031
35800000000 -20.348839 48.9706 -1.1405629 -13.032978 -1.1530858 -13.221993 -23.012114 82.015343
35900000000 -19.68137 39.109226 -1.124679 -15.102122 -1.1360322 -15.429071 -22.790857 82.328354
36000000000 -20.366884 50.32066 -1.1164999 -17.241899 -1.1253566 -17.164879 -22.198345 73.059471
36100000000 -18.475725 44.568218 -1.1046821 -19.433807 -1.1658159 -19.538927 -21.947504 72.13842
36200000000 -20.024761 44.549393 -1.099666 -21.440479 -1.1330289 -21.462433 -21.216494 67.979919
36300000000 -18.019333 42.243851 -1.1566738 -23.456198 -1.11 -23.570299 -20.50378 65.901764
36400000000 -18.97028 35.520363 -1.1123854 -25.271399 -1.1105705 -25.735327 -20.581942 61.040932
36500000000 -17.564631 40.993633 -1.1601114 -27.672829 -1.1448282 -27.601385 -20.592226 58.596931
36600000000 -17.524591 32.334625 -1.1392803 -29.254866 -1.1180651 -29.654835 -19.065266 52.852741
36700000000 -17.396257 38.775475 -1.1642047 -31.599339 -1.1423503 -31.983095 -19.389797 49.255013
36800000000 -17.40398 28.348993 -1.161934 -33.392151 -1.1839823 -33.669083 -18.363941 50.906532
36900000000 -17.511341 32.594604 -1.2232949 -35.654972 -1.1770303 -35.834099 -18.700045 50.67123
37000000000 -16.495312 25.059996 -1.1484631 -37.661709 -1.1677476 -37.931267 -18.279577 44.813385
37100000000 -17.137217 27.751446 -1.2173828 -39.805794 -1.1793302 -39.888306 -18.678391 43.363228
37200000000 -15.919114 25.50934 -1.1786205 -41.677338 -1.1626008 -41.683464 -17.921665 37.921803
37300000000 -16.679102 28.439331 -1.193606 -43.891766 -1.1655806 -43.982849 -17.74017 35.165459
37400000000 -15.897657 25.805655 -1.1987021 -45.784607 -1.1941082 -45.847351 -16.688488 33.919449
37500000000 -16.161909 22.090496 -1.1949641 -47.765606 -1.2092288 -48.162224 -16.901964 32.061188
37600000000 -15.817789 19.850042 -1.1892092 -50.048252 -1.2125194 -50.143913 -16.647861 32.509933
37700000000 -15.713236 17.534861 -1.2057196 -51.906914 -1.2473811 -52.069717 -16.955292 29.959099
37800000000 -15.234694 15.967242 -1.2656437 -53.943817 -1.2003866 -54.066101 -17.202667 27.242363
37900000000 -15.148341 19.995632 -1.20647 -55.712437 -1.2493021 -56.078671 -16.987938 21.383701
38000000000 -15.267179 14.221978 -1.246068 -58.304478 -1.2507654 -58.066841 -16.321121 17.390902
38100000000 -15.509439 16.02976 -1.2341318 -59.884312 -1.2803702 -60.162109 -15.944916 17.61657
38200000000 -14.939789 9.397934 -1.2439154 -61.782619 -1.2471107 -61.967228 -15.590379 15.508507
38300000000 -15.457378 8.3630161 -1.2453755 -64.175819 -1.2692677 -63.915073 -15.751007 16.784184
38400000000 -14.441685 10.307116 -1.2170237 -66.269691 -1.1865832 -66.100365 -15.925793 12.38728
38500000000 -15.259312 3.9105861 -1.2421205 -68.252815 -1.2520082 -68.073044 -15.858863 9.6717615
38600000000 -14.350801 8.4471407 -1.2475044 -69.864754 -1.2275412 -70.199417 -15.503615 3.7606244
38700000000 -14.77167 2.8852007 -1.2779108 -72.212471 -1.2390509 -72.313164 -15.365819 3.9656715
38800000000 -14.703528 8.1222439 -1.2609094 -74.217506 -1.2618481 -74.351685 -14.967388 -0.10317396
38900000000 -14.701588 -3.111846 -1.269828 -75.803955 -1.2987406 -76.283813 -15.662639 0.10501427
39000000000 -14.893451 3.4310806 -1.3005357 -78.402481 -1.2814567 -78.264717 -14.685847 -0.2738626
39100000000 -13.869305 -4.1292715 -1.2499237 -80.509186 -1.2448245 -80.272301 -15.663409 -4.5162964
39200000000 -15.353672 -2.5520072 -1.2776344 -82.310783 -1.2673122 -82.269608 -14.781154 -7.9137621
39300000000 -13.834702 -2.7948658 -1.2089983 -84.53437 -1.2724227 -84.623924 -15.022302 -11.182907
39400000000 -15.373298 -6.4915948 -1.2335702 -86.430031 -1.2670314 -86.153313 -14.122771 -9.1045675
39500000000 -14.356549 -4.8858867 -1.2904416 -88.33284 -1.25212 -88.558754 -14.686541 -13.904462
39600000000 -14.953044 -11.369185 -1.2800672 -90.13765 -1.3178704 -90.459373 -14.529289 -10.458564
39700000000 -14.137137 -4.0072107 -1.2664552 -92.147018 -1.242806 -92.795494 -15.192779 -19.077803
39800000000 -14.267201 -14.697227 -1.3010565 -94.318657 -1.2569073 -94.483704 -14.848849 -19.346647
39900000000 -14.797894 -6.0210509 -1.1942146 -96.492065 -1.2632304 -96.231178 -14.739507 -26.503294
40000000000 -14.367701 -16.42127 -1.2185948 -98.207176 -1.2632242 -98.083916 -14.255559 -22.132017
40100000000 -15.134149 -11.297158 -1.2369244 -100.36908 -1.2784452 -100.41328 -14.050189 -27.882713
40200000000 -14.169658 -20.096418 -1.2939795 -102.06555 -1.2284967 -102.47556 -14.518593 -25.304815
40300000000 -15.285945 -18.62291 -1.2140694 -104.56943 -1.2295756 -104.69772 -14.522422 -30.191332
40400000000 -14.258051 -17.418501 -1.2678657 -106.24343 -1.2508134 -106.48813 -14.882758 -32.179585
40500000000 -15.235618 -20.450275 -1.2198263 -108.3527 -1.2991959 -108.53686 -14.971258 -37.113617
40600000000 -14.728192 -18.718674 -1.2779825 -110.34818 -1.2622565 -110.52249 -14.82802 -40.597649
40700000000 -15.211561 -24.62459 -1.2486074 -112.61636 -1.2415414 -112.82533 -14.522193 -41.972549
40800000000 -15.404065 -21.326172 -1.2201027 -114.95857 -1.2565855 -115.08099 -14.562214 -40.872761
40900000000 -15.016443 -24.367788 -1.2078758 -116.78133 -1.2622261 -116.70877 -14.951495 -40.848915
41000000000 -15.16786 -24.487375 -1.2274852 -118.5338 -1.2752508 -118.81299 -15.277687 -45.92506
41100000000 -15.317171 -23.428776 -1.1750551 -120.90261 -1.1868098 -120.70358 -15.629369 -47.297283
41200000000 -15.948078 -29.970413 -1.2671666 -122.89983 -1.2631615 -123.04818 -15.453641 -52.647705
41300000000 -15.953563 -22.556797 -1.26115 -124.60331 -1.2396169 -124.678 -15.700394 -53.886433
41400000000 -15.75162 -29.315224 -1.2633946 -126.88091 -1.2696973 -126.65305 -15.490495 -53.314808
41500000000 -16.282631 -27.280666 -1.2489311 -128.65698 -1.2381986 -128.82318 -15.198365 -59.029472
41600000000 -15.757051 -30.595716 -1.2001774 -131.19109 -1.1791157 -131.11508 -15.884613 -60.197109
41700000000 -16.885788 -29.623795 -1.2150575 -132.8306 -1.2021233 -133.25993 -16.136475 -63.018974
41800000000 -15.516047 -29.841558 -1.2885703 -135.0591 -1.2164569 -135.07858 -16.633379 -64.101723
41900000000 -17.157204 -34.517075 -1.2151064 -137.21155 -1.2205442 -137.62341 -16.516857 -68.028275
42000000000 -16.87748 -28.727249 -1.2241856 -139.11267 -1.233737 -139.36049 -17.266098 -67.599281
42100000000 -17.350584 -35.649902 -1.2357562 -141.35022 -1.2247401 -141.60373 -17.109928 -72.312866
42200000000 -17.998859 -27.701345 -1.1681433 -143.50298 -1.2164017 -143.41232 -17.265976 -73.810242
42300000000 -17.210417 -34.648293 -1.1409423 -145.48477 -1.2254455 -145.37834 -17.069118 -74.835266
42400000000 -19.030416 -27.416218 -1.2861271 -147.70659 -1.2704123 -147.625 -18.341246 -79.3582
42500000000 -17.187748 -32.048309 -1.2315097 -149.42239 -1.2937369 -149.40372 -18.246166 -78.734566
42600000000 -19.271034 -25.316393 -1.1918869 -151.49866 -1.1578217 -152.0374 -18.987997 -86.070244
42700000000 -18.265867 -28.384686 -1.1508915 -153.41292 -1.122633 -153.93712 -18.22648 -82.919121
42800000000 -19.641998 -38.628929 -1.1388587 -155.83905 -1.1849614 -155.73448 -19.16271 -95.867722
42900000000 -19.992031 -22.08658 -1.1865628 -158.03084 -1.1549027 -157.68805 -19.994865 -90.373146
43000000000 -18.77854 -35.020226 -1.0701373 -159.95192 -1.1195334 -159.8981 -20.444138 -97.8936
43100000000 -20.159595 -18.672543 -1.1766528 -162.38393 -1.2163876 -162.29034 -21.882376 -93.595734
43200000000 -19.436163 -19.760685 -1.1994812 -164.39543 -1.1294026 -164.80641 -22.231489 -109.71529
43300000000 -21.568188 -13.957852 -1.2227597 -165.87035 -1.2116038 -166.44107 -22.917587 -109.75214
43400000000 -19.20133 -19.821112 -1.1351544 -168.47665 -1.1842518 -168.71263 -22.137085 -114.33142
43500000000 -22.078352 -31.210457 -1.1805952 -170.444 -1.1597794 -170.67902 -23.396132 -122.29592
43600000000 -20.102306 -5.1018553 -1.1936117 -172.34772 -1.2265364 -172.51697 -23.967699 -115.99041
43700000000 -20.492023 -14.188263 -1.1474469 -174.38622 -1.1742485 -174.82657 -26.227882 -118.33305
43800000000 -20.432459 -5.0729156 -1.2809591 -176.97943 -1.2365538 -176.40364 -27.487015 -121.25481
43900000000 -19.849613 -17.316174 -1.1510984 -178.83275 -1.2509732 -179.24852 -27.98863 -164.37183
44000000000 -20.968996 11.685084 -1.2333832 179.54378 -1.2542328 179.20976 -28.328251 -146.9727
44100000000 -18.893974 -8.8592873 -1.1619276 176.47517 -1.2805845 176.91711 -30.39006 -175.03651
44200000000 -21.173126 5.1314831 -1.200103 174.53539 -1.2319133 174.68425 -29.51807 -153.05365
44300000000 -18.248901 -1.2332292 -1.1891456 172.71451 -1.2681336 172.37561 -36.080982 141.46112
44400000000 -22.075682 1.5281106 -1.2801874 170.52718 -1.3110559 170.45688 -33.049141 127.7004
44500000000 -17.865278 12.66666 -1.2163298 168.71829 -1.2694379 168.06619 -31.936449 123.56223
44600000000 -19.494347 1.324307 -1.3440367 166.5705 -1.1958876 166.43201 -29.410114 121.43275
44700000000 -18.269598 22.037014 -1.3538536 165.10359 -1.2620606 164.50218 -28.251585 104.64098
44800000000 -18.372162 2.7208843 -1.2939214 162.51094 -1.2600499 162.48729 -26.094872 82.63887
44900000000 -17.814686 12.91945 -1.2709198 160.71353 -1.2954737 160.40025 -26.261148 87.069862
45000000000 -17.870213 6.7837048 -1.3057348 158.21355 -1.2734047 158.12965 -22.94471 77.860298
