!Keysight Technologies,N5247B,MY61255062,A.19.80.06
!Date: Monday, May 18, 2026 12:08:08
!Correction: S11(Cdelta 2-Port  ) 
!S21(Cdelta 2-Port  ) 
!S12(Cdelta 2-Port  ) 
!S22(Cdelta 2-Port  ) 
!S2P File: Measurements: S11, S21, S12, S22:
# Hz S  dB   R 50
1000000000 -23.908134 24.670694 -0.41226327 -18.569641 -0.41106966 -18.572298 -24.229425 25.364693
1100000000 -23.587568 24.386204 -0.42247522 -20.374218 -0.42198309 -20.379526 -23.938522 25.779882
1200000000 -23.203789 24.616413 -0.43465835 -22.158081 -0.43421918 -22.163048 -23.556295 26.506643
1300000000 -22.869297 24.169954 -0.44055647 -23.972383 -0.44004223 -23.976885 -23.196495 25.851538
1400000000 -22.504543 24.141523 -0.45019746 -25.711969 -0.45049781 -25.716709 -22.80357 26.388035
1500000000 -22.181206 23.584988 -0.45523384 -27.482435 -0.45397693 -27.485321 -22.427954 25.902208
1600000000 -21.855654 23.192066 -0.45924383 -29.283051 -0.45987806 -29.286343 -22.122814 25.066959
1700000000 -21.553587 22.232656 -0.4657506 -31.048487 -0.46430773 -31.060863 -21.798281 24.516197
1800000000 -21.273079 21.244595 -0.46886763 -32.84338 -0.46833736 -32.847538 -21.510139 23.622595
1900000000 -20.992922 20.191378 -0.47254044 -34.629997 -0.47211561 -34.640934 -21.247028 22.562992
2000000000 -20.765987 19.191982 -0.47881454 -36.437386 -0.47935247 -36.441078 -21.035278 21.450415
2100000000 -20.523302 17.980719 -0.48353845 -38.219101 -0.48331767 -38.210072 -20.767134 20.766401
2200000000 -20.323208 16.982721 -0.48953059 -39.997601 -0.49030691 -40.005775 -20.55714 19.555548
2300000000 -20.113056 15.887441 -0.49272332 -41.790344 -0.49395642 -41.795959 -20.350224 18.537191
2400000000 -19.924913 14.740005 -0.50080967 -43.574707 -0.50005794 -43.579563 -20.167624 17.505569
2500000000 -19.743055 13.364985 -0.50471401 -45.368042 -0.50417846 -45.374989 -20.008949 16.251038
2600000000 -19.582071 12.306624 -0.51391995 -47.156078 -0.51327282 -47.144642 -19.842546 15.100382
2700000000 -19.406534 10.979216 -0.51769787 -48.913708 -0.51843047 -48.920849 -19.711939 13.999745
2800000000 -19.273771 9.8239956 -0.52410913 -50.69619 -0.52375227 -50.695957 -19.551434 12.722007
2900000000 -19.119783 8.7791967 -0.52924252 -52.463547 -0.5321629 -52.471855 -19.414776 11.7825
3000000000 -18.998808 7.4592052 -0.53448093 -54.221581 -0.53448212 -54.221298 -19.29001 10.664955
3100000000 -18.887949 6.151432 -0.53793395 -55.988098 -0.53878021 -56.000298 -19.152391 9.6367302
3200000000 -18.758673 4.6180553 -0.54244548 -57.774796 -0.54533017 -57.770798 -19.024481 8.4504242
3300000000 -18.635912 3.2803028 -0.54672503 -59.53619 -0.54741061 -59.537182 -18.91856 7.1912298
3400000000 -18.521042 1.9995315 -0.55162752 -61.292744 -0.55008554 -61.31303 -18.817173 5.954555
3500000000 -18.43004 0.64925498 -0.55524391 -63.049641 -0.55624121 -63.069065 -18.690638 4.7591844
3600000000 -18.313009 -0.90515888 -0.55661815 -64.818703 -0.55591315 -64.827515 -18.574999 3.5157528
3700000000 -18.242029 -2.1692193 -0.5594036 -66.586334 -0.56044459 -66.591621 -18.486385 2.0424128
3800000000 -18.126307 -3.6996818 -0.56265724 -68.351936 -0.56165463 -68.369972 -18.400122 0.71260381
3900000000 -18.078369 -5.1568213 -0.56403506 -70.140015 -0.56517917 -70.152115 -18.335798 -0.74195975
4000000000 -17.972616 -6.7438307 -0.56637281 -71.896637 -0.56732494 -71.909508 -18.266626 -2.0791085
4100000000 -17.926023 -8.1797762 -0.56944871 -73.677223 -0.57254839 -73.68483 -18.204901 -3.4365435
4200000000 -17.849398 -9.5933218 -0.57347256 -75.436592 -0.57290781 -75.452934 -18.141018 -4.6119046
4300000000 -17.823219 -11.194781 -0.57404631 -77.200943 -0.57603419 -77.210526 -18.092924 -6.1000018
4400000000 -17.769163 -12.536353 -0.57533991 -78.97348 -0.57980943 -78.969543 -18.035255 -7.3521762
4500000000 -17.73102 -14.160869 -0.57630169 -80.726418 -0.58035022 -80.745712 -17.997414 -8.8100815
4600000000 -17.69029 -15.648305 -0.5783332 -82.505394 -0.58169311 -82.518059 -17.988903 -10.14135
4700000000 -17.667799 -17.285116 -0.57968634 -84.267578 -0.58216548 -84.284096 -17.958342 -11.704304
4800000000 -17.649403 -18.874826 -0.58251774 -86.033485 -0.58446711 -86.059242 -17.953884 -13.009408
4900000000 -17.628099 -20.374016 -0.5837301 -87.815979 -0.58838695 -87.835556 -17.944056 -14.523735
5000000000 -17.626474 -21.866846 -0.58709419 -89.597572 -0.58796787 -89.597214 -17.93368 -15.786895
5100000000 -17.607199 -23.565235 -0.58630276 -91.359375 -0.59047246 -91.360558 -17.918638 -17.158821
5200000000 -17.626612 -25.153053 -0.58775949 -93.135445 -0.59147078 -93.146515 -17.952641 -18.441063
5300000000 -17.624548 -26.707777 -0.58982748 -94.891884 -0.59276134 -94.912338 -17.980473 -19.849171
5400000000 -17.653763 -28.376196 -0.59291649 -96.674034 -0.59420091 -96.680847 -18.034922 -21.267159
5500000000 -17.683435 -29.851522 -0.59176445 -98.439163 -0.59504187 -98.435425 -18.050243 -22.795305
5600000000 -17.728514 -31.572372 -0.59521884 -100.20999 -0.5959667 -100.21359 -18.078472 -24.242981
5700000000 -17.757359 -33.199528 -0.59709615 -101.96917 -0.59860939 -102.00011 -18.086327 -25.565664
5800000000 -17.801193 -34.962688 -0.59826297 -103.73112 -0.60118908 -103.7556 -18.152454 -26.848913
5900000000 -17.863878 -36.571102 -0.59879863 -105.49417 -0.59995103 -105.51717 -18.21623 -28.199356
6000000000 -17.899729 -38.375111 -0.60052025 -107.26946 -0.60185599 -107.29328 -18.329151 -29.50683
6100000000 -17.969849 -40.017876 -0.60173881 -109.03842 -0.60313469 -109.05344 -18.425295 -31.046602
6200000000 -18.069988 -41.483398 -0.59950942 -110.78601 -0.60286021 -110.81074 -18.528095 -32.449142
6300000000 -18.159649 -42.861221 -0.59768039 -112.55603 -0.60040432 -112.56709 -18.576715 -33.667866
6400000000 -18.256901 -44.571877 -0.59813666 -114.31657 -0.59858352 -114.33847 -18.681429 -34.88308
6500000000 -18.365526 -45.956097 -0.59856272 -116.09446 -0.60120249 -116.10453 -18.745165 -35.781048
6600000000 -18.444929 -47.767757 -0.59546584 -117.8748 -0.59599018 -117.87527 -18.848299 -36.969803
6700000000 -18.566845 -49.219128 -0.59409642 -119.66041 -0.59406233 -119.67321 -18.954336 -37.99136
6800000000 -18.624849 -50.844006 -0.59202701 -121.45744 -0.59535629 -121.45706 -19.080036 -39.289097
6900000000 -18.72752 -52.576515 -0.59442294 -123.25933 -0.59662688 -123.28048 -19.121061 -40.661049
7000000000 -18.844234 -54.518921 -0.59579152 -125.00418 -0.6008383 -125.01373 -19.331556 -42.164459
7100000000 -19.042923 -56.085068 -0.59191871 -126.77821 -0.59532034 -126.78697 -19.458952 -43.054474
7200000000 -19.163729 -57.452942 -0.59212577 -128.56654 -0.59378511 -128.57893 -19.637096 -44.075386
7300000000 -19.323641 -59.212837 -0.59155589 -130.37302 -0.59381777 -130.37949 -19.788359 -45.135258
7400000000 -19.463301 -60.623688 -0.59411335 -132.15166 -0.596596 -132.17786 -19.947521 -46.857082
7500000000 -19.654222 -62.397079 -0.59122813 -133.93251 -0.59470671 -133.95152 -20.045248 -47.602917
7600000000 -19.795263 -63.890862 -0.59319454 -135.73288 -0.59682405 -135.7549 -20.183256 -48.85807
7700000000 -19.932714 -65.648209 -0.59277469 -137.53583 -0.59278387 -137.55986 -20.312401 -49.19838
7800000000 -20.142925 -67.281029 -0.59579897 -139.32144 -0.59935075 -139.36565 -20.569475 -50.506008
7900000000 -20.246704 -69.251877 -0.60201031 -141.12991 -0.60321534 -141.17404 -20.821119 -51.735455
8000000000 -20.504959 -71.465263 -0.60871023 -142.92444 -0.61048049 -142.94345 -21.053257 -54.229355
8100000000 -20.77684 -73.660034 -0.61693901 -144.66206 -0.61956936 -144.6759 -21.28018 -55.611073
8200000000 -21.21456 -75.159927 -0.61036932 -146.36945 -0.61255693 -146.39795 -21.475471 -55.785183
8300000000 -21.509241 -76.139984 -0.60432696 -148.1886 -0.60347378 -148.2139 -21.699083 -53.645515
8400000000 -21.861563 -77.846512 -0.60933685 -150.03212 -0.60983074 -150.05536 -22.147293 -51.797169
8500000000 -22.049644 -78.581169 -0.6308493 -151.87347 -0.63389605 -151.90628 -23.512707 -49.281971
8600000000 -21.967402 -82.293182 -0.6978882 -153.43097 -0.70258278 -153.44298 -26.325777 -44.23299
8700000000 -23.504587 -90.770943 -0.60999221 -154.05682 -0.6152091 -154.05151 -26.682703 -9.6422949
8800000000 -23.499607 -80.136559 -0.48505345 -156.90924 -0.48896968 -156.93697 -24.127787 -29.661497
8900000000 -23.199015 -85.025269 -0.55530894 -159.07231 -0.55587524 -159.08226 -24.886227 -47.220661
9000000000 -23.617622 -88.697777 -0.5873034 -160.84908 -0.59058428 -160.88588 -25.170904 -57.795769
9100000000 -23.99815 -90.152779 -0.60505563 -162.59236 -0.60852861 -162.59932 -24.784388 -61.367058
9200000000 -24.38588 -92.410736 -0.6075421 -164.29985 -0.61146522 -164.31612 -24.532267 -62.076973
9300000000 -24.870316 -93.061722 -0.60561389 -166.09543 -0.60728282 -166.12328 -24.610542 -59.523342
9400000000 -25.278925 -95.200333 -0.60867929 -167.89574 -0.61237365 -167.90927 -24.90473 -57.733894
9500000000 -25.912043 -97.238182 -0.61007559 -169.67506 -0.61574715 -169.70103 -25.54731 -55.685913
9600000000 -26.495317 -99.24041 -0.61459297 -171.45694 -0.61739671 -171.47668 -26.148283 -55.518387
9700000000 -27.174154 -101.38842 -0.61606306 -173.24478 -0.61915231 -173.26895 -26.616079 -54.760666
9800000000 -27.737103 -102.72071 -0.62200922 -175.03758 -0.62226433 -175.05009 -26.9492 -54.472919
9900000000 -28.586102 -105.79649 -0.62406522 -176.80232 -0.62336266 -176.84206 -27.243977 -51.678101
10000000000 -29.331152 -107.94537 -0.62460321 -178.61592 -0.62714964 -178.62544 -27.555229 -49.930683
10100000000 -30.442459 -110.42021 -0.62914824 179.60835 -0.63122559 179.60045 -28.100107 -46.101082
10200000000 -31.337082 -111.05143 -0.63523489 177.8353 -0.63461113 177.79517 -28.549967 -43.685738
10300000000 -32.557236 -115.02519 -0.63595706 176.03297 -0.63634545 176.02548 -28.960226 -40.81757
10400000000 -33.859608 -115.03864 -0.63883108 174.2325 -0.64030373 174.22078 -29.079004 -39.076515
10500000000 -35.277073 -119.98959 -0.64123976 172.44383 -0.64285523 172.42894 -29.212215 -34.296711
10600000000 -37.365967 -120.83867 -0.64133608 170.67357 -0.64669985 170.65576 -29.026182 -30.956709
10700000000 -39.523655 -130.48508 -0.64662504 168.89571 -0.65153694 168.87465 -29.028149 -25.006456
10800000000 -43.936726 -132.10776 -0.65027004 167.12471 -0.65490794 167.09619 -28.830826 -21.098864
10900000000 -49.40226 -150.10818 -0.65377337 165.33192 -0.65766776 165.32645 -28.854666 -15.233653
11000000000 -53.814949 99.785126 -0.66122347 163.577 -0.66319287 163.52879 -28.677967 -11.874266
11100000000 -47.92585 81.828102 -0.66398543 161.78165 -0.66583419 161.75996 -28.694399 -8.393898
11200000000 -42.012661 69.499283 -0.66656625 160.00296 -0.66985565 159.98181 -28.226641 -7.6230822
11300000000 -39.135738 60.235577 -0.67078692 158.21645 -0.67463005 158.20798 -27.90616 -4.8060093
11400000000 -36.675434 58.498138 -0.6748786 156.44772 -0.67536062 156.39806 -27.218616 -4.1547418
11500000000 -35.186512 52.733925 -0.6764307 154.67334 -0.67897081 154.62857 -26.770462 -2.0309887
11600000000 -33.687832 51.977188 -0.68109691 152.89359 -0.68460858 152.87964 -26.261782 -0.022348015
11700000000 -32.243694 46.866665 -0.68619746 151.11998 -0.68786919 151.09488 -25.994823 2.2248375
11800000000 -31.283674 46.89959 -0.68953425 149.34621 -0.69501257 149.33617 -25.591125 2.4924266
11900000000 -30.232119 43.035343 -0.69759643 147.5948 -0.69798368 147.55673 -25.365709 3.7244549
12000000000 -29.418156 43.670437 -0.69859838 145.82098 -0.70374179 145.79382 -24.781996 2.9588668
12100000000 -28.613983 40.922962 -0.70450372 144.04962 -0.70784545 144.03654 -24.539801 2.9932568
12200000000 -28.149874 39.079525 -0.70699728 142.29472 -0.71156937 142.26266 -24.088287 2.7252057
12300000000 -27.496124 36.885326 -0.71076775 140.54692 -0.71346623 140.51913 -23.820072 2.6159873
12400000000 -26.94698 34.610065 -0.71285307 138.77736 -0.71670616 138.7477 -23.485617 2.3831236
12500000000 -26.354521 33.358978 -0.71736807 136.99525 -0.72223812 137.00558 -23.249035 2.3888609
12600000000 -25.883703 32.116261 -0.72031331 135.26385 -0.72284347 135.26703 -22.914852 1.829072
12700000000 -25.366329 30.668308 -0.71844703 133.51147 -0.72363293 133.48409 -22.715879 1.4009191
12800000000 -25.15756 29.125671 -0.72373688 131.78365 -0.72613382 131.7556 -22.383801 0.45493233
12900000000 -24.661573 27.618839 -0.72058707 130.01331 -0.7236672 129.9761 -22.187094 0.26786315
13000000000 -24.439642 25.709768 -0.72149599 128.25275 -0.72585112 128.23378 -21.895678 -0.55711806
13100000000 -23.876802 24.888103 -0.71954578 126.51699 -0.7240721 126.45818 -21.74947 -0.62775952
13200000000 -23.60606 23.045031 -0.72002363 124.73316 -0.72174507 124.70374 -21.518787 -1.2711326
13300000000 -23.167454 22.505951 -0.71843451 122.95408 -0.72200948 122.9052 -21.320248 -2.4816797
13400000000 -22.873476 20.612404 -0.7167052 121.16932 -0.71793151 121.14677 -20.953262 -3.0071597
13500000000 -22.567307 19.46752 -0.71874237 119.37843 -0.72141373 119.3559 -20.753971 -3.5044153
13600000000 -22.216116 16.611767 -0.71684229 117.576 -0.72020328 117.56822 -20.49 -3.7031569
13700000000 -21.857662 15.550446 -0.72087556 115.76388 -0.72194648 115.76762 -20.358627 -4.1606421
13800000000 -21.409349 12.578236 -0.73350596 113.97887 -0.73676151 113.94345 -20.090956 -5.6999383
13900000000 -21.465956 10.875027 -0.74285996 112.30577 -0.74586338 112.26442 -20.080574 -7.9515066
14000000000 -21.212805 10.19538 -0.73331505 110.56823 -0.73662102 110.56139 -19.90144 -8.6486139
14100000000 -21.170477 8.9551363 -0.73165059 108.7739 -0.73435318 108.76223 -19.777487 -9.7660637
14200000000 -20.843367 7.4411402 -0.72840226 106.99641 -0.73073989 106.96529 -19.520689 -9.8051691
14300000000 -20.686644 4.8410912 -0.72627366 105.21775 -0.73142385 105.18815 -19.461544 -10.820799
14400000000 -20.375511 3.832201 -0.72741538 103.43924 -0.7336157 103.40179 -19.291 -11.252262
14500000000 -20.171808 1.8493992 -0.7324757 101.62847 -0.73808885 101.60291 -19.212914 -12.998736
14600000000 -19.97595 1.3633101 -0.73537809 99.839943 -0.73816985 99.815201 -19.028109 -14.101105
14700000000 -19.821037 -1.1367562 -0.74321872 98.07254 -0.74644959 98.023468 -18.877705 -15.88664
14800000000 -19.784132 -2.3111472 -0.74711239 96.299438 -0.74856073 96.254486 -18.739742 -16.808651
14900000000 -19.667833 -5.1790686 -0.74971789 94.536415 -0.75199562 94.517822 -18.698088 -18.18878
15000000000 -19.525475 -6.9455409 -0.74877542 92.781418 -0.75389022 92.754379 -18.607973 -19.211042
15100000000 -19.324207 -8.609848 -0.75397861 91.014305 -0.75461757 90.982277 -18.559017 -20.830847
15200000000 -19.256161 -9.7235422 -0.7561242 89.224541 -0.75712532 89.19487 -18.430244 -22.251791
15300000000 -19.099323 -11.273559 -0.75345695 87.464378 -0.7602219 87.422249 -18.299704 -23.895571
15400000000 -19.076723 -12.970422 -0.75508946 85.683662 -0.76030332 85.646019 -18.154554 -24.627815
15500000000 -18.895737 -15.259276 -0.76391476 83.876747 -0.76845139 83.880257 -18.071413 -26.04216
15600000000 -18.883186 -18.04439 -0.77216709 82.104607 -0.77435726 82.069603 -18.047958 -27.028528
15700000000 -18.70784 -20.099524 -0.78064543 80.354744 -0.78524429 80.314758 -18.039669 -29.056011
15800000000 -18.754957 -22.230991 -0.7891466 78.614296 -0.79201543 78.590729 -18.025032 -30.923983
15900000000 -18.737259 -23.403109 -0.79280049 76.91436 -0.79868889 76.880058 -17.999899 -33.23209
16000000000 -18.876787 -25.493721 -0.79584765 75.234612 -0.79857498 75.20237 -17.990723 -34.464203
16100000000 -18.924269 -26.601524 -0.78919131 73.532043 -0.79532474 73.492607 -18.032196 -35.639027
16200000000 -18.958426 -28.963572 -0.78377032 71.79911 -0.78661633 71.78553 -18.118385 -36.035568
16300000000 -18.965864 -29.36886 -0.77298564 70.072433 -0.77747607 70.030807 -18.167812 -37.265091
16400000000 -18.918339 -31.24398 -0.76736307 68.285797 -0.76991087 68.24398 -18.272104 -37.940849
16500000000 -18.957535 -31.221619 -0.76074523 66.498413 -0.7656287 66.459999 -18.239155 -39.540565
16600000000 -18.900742 -33.381275 -0.75468564 64.691246 -0.76362216 64.673378 -18.258938 -40.311287
16700000000 -19.05876 -34.407516 -0.75634295 62.896042 -0.76110208 62.861679 -18.169252 -41.61264
16800000000 -18.844604 -36.822693 -0.75491422 61.106506 -0.76100588 61.097027 -18.268255 -41.961216
16900000000 -18.988796 -38.403278 -0.75346619 59.309483 -0.76116067 59.278152 -18.257553 -43.632084
17000000000 -18.828653 -39.496429 -0.75585401 57.540337 -0.76120418 57.514683 -18.413305 -44.694901
17100000000 -18.998129 -41.277031 -0.75587159 55.77747 -0.76044577 55.743279 -18.352303 -46.331882
17200000000 -18.984039 -41.922058 -0.75985307 53.964359 -0.76344627 53.958481 -18.468588 -47.490742
17300000000 -19.141674 -44.912991 -0.75969613 52.179615 -0.76750422 52.159939 -18.374657 -49.033794
17400000000 -19.127928 -46.058426 -0.76408511 50.439816 -0.76637965 50.393963 -18.510967 -49.785248
17500000000 -19.122725 -49.244987 -0.76667863 48.648373 -0.76751006 48.616982 -18.486017 -50.471607
17600000000 -19.23505 -49.213825 -0.7671113 46.889912 -0.76582289 46.845356 -18.728638 -51.959671
17700000000 -19.210068 -51.797527 -0.76662022 45.096176 -0.76861238 45.05925 -18.7523 -53.193153
17800000000 -19.474901 -52.736538 -0.76679659 43.349918 -0.76790148 43.314445 -18.94309 -55.549061
17900000000 -19.475676 -54.760941 -0.76528537 41.553749 -0.77298009 41.551624 -18.894056 -57.132652
18000000000 -19.696161 -56.777538 -0.7763449 39.776836 -0.77625233 39.759556 -19.003826 -58.339188
18100000000 -19.664675 -58.91983 -0.77155048 38.025345 -0.77702558 38.014351 -18.975506 -58.910484
18200000000 -19.917841 -61.008877 -0.77786183 36.303307 -0.78091407 36.257095 -19.214737 -60.12442
18300000000 -20.01445 -62.080349 -0.77368438 34.570919 -0.77602983 34.525253 -19.482607 -60.326828
18400000000 -20.230463 -63.558563 -0.75986201 32.783012 -0.7715981 32.737568 -19.808361 -61.56995
18500000000 -20.338335 -64.832222 -0.76391107 30.972961 -0.77069014 30.937384 -19.86871 -62.993484
18600000000 -20.617556 -66.597969 -0.76699024 29.192829 -0.77186555 29.148827 -19.983923 -65.522606
18700000000 -20.709867 -67.997719 -0.76738501 27.400789 -0.76631266 27.396458 -20.079529 -65.90976
18800000000 -20.937212 -70.043419 -0.76739025 25.646067 -0.76938796 25.591787 -20.174757 -66.732346
18900000000 -21.093843 -71.162727 -0.76827717 23.858232 -0.76895505 23.827999 -20.315174 -65.906837
19000000000 -21.360277 -73.304688 -0.76550639 22.111921 -0.76896894 22.084204 -20.760599 -66.730133
19100000000 -21.640223 -73.763344 -0.7675218 20.363428 -0.76594114 20.30055 -21.020214 -67.592598
19200000000 -21.984392 -76.647377 -0.76518714 18.552853 -0.77145463 18.536953 -21.439003 -69.998062
19300000000 -22.241035 -76.615707 -0.76403821 16.7656 -0.77109569 16.759111 -21.457254 -70.68544
19400000000 -22.465481 -79.999519 -0.76609308 15.019318 -0.76997858 14.974611 -21.739201 -72.040771
19500000000 -22.794256 -80.039841 -0.76136118 13.2414 -0.76853299 13.191712 -21.869558 -71.361313
19600000000 -22.935656 -82.67366 -0.76189518 11.434713 -0.76845199 11.442185 -22.24436 -72.641586
19700000000 -23.597309 -82.142586 -0.75839847 9.697258 -0.76359069 9.6364298 -22.536266 -71.426407
19800000000 -23.832554 -85.37545 -0.75704426 7.9083304 -0.76582199 7.8881068 -22.948372 -74.150116
19900000000 -24.651289 -87.20208 -0.75745779 6.1143279 -0.75637472 6.0934854 -23.237885 -73.23764
20000000000 -24.593685 -90.205185 -0.75800151 4.3426504 -0.76001281 4.3291373 -23.52599 -75.516998
20100000000 -25.524483 -92.211922 -0.75836337 2.5497701 -0.75589871 2.5074391 -23.878992 -72.974121
20200000000 -25.464439 -91.151093 -0.75950712 0.79359376 -0.75941032 0.75334138 -24.209782 -74.16787
20300000000 -26.582653 -94.265594 -0.75801444 -1.0572374 -0.76180357 -1.08049 -25.003731 -71.696617
20400000000 -27.01446 -91.231209 -0.76249743 -2.8371162 -0.76264888 -2.8585789 -25.351479 -73.01239
20500000000 -27.809092 -96.26683 -0.75930393 -4.5880885 -0.76854008 -4.6269431 -25.829845 -72.256088
20600000000 -28.447441 -94.704918 -0.76188004 -6.3270226 -0.76906878 -6.3694959 -25.699812 -73.883041
20700000000 -28.737133 -101.33641 -0.75898576 -8.0844364 -0.75827736 -8.1359119 -26.149469 -70.47393
20800000000 -30.109854 -99.244385 -0.75250781 -9.8708963 -0.7597211 -9.9279776 -26.230835 -68.947014
20900000000 -30.468555 -101.79713 -0.74683845 -11.706101 -0.75287753 -11.710918 -27.114281 -62.851757
21000000000 -32.771751 -100.22697 -0.75149453 -13.49175 -0.75660729 -13.551697 -27.794474 -60.465466
21100000000 -33.954681 -97.315239 -0.75109172 -15.29885 -0.75291663 -15.363754 -28.751381 -55.726143
21200000000 -36.723385 -97.828598 -0.75030273 -17.142529 -0.75906038 -17.178349 -29.073017 -56.856937
21300000000 -38.048016 -87.991478 -0.75661564 -18.947727 -0.75998288 -19.004961 -29.447542 -52.149452
21400000000 -41.53669 -85.338455 -0.76066506 -20.764591 -0.76489449 -20.827692 -28.883322 -48.280869
21500000000 -41.931267 -56.452629 -0.76953077 -22.549774 -0.7717697 -22.59947 -28.630383 -41.592663
21600000000 -42.953907 -34.123913 -0.77069664 -24.349918 -0.77473068 -24.348879 -28.12664 -35.723099
21700000000 -40.661755 -11.73531 -0.77656037 -26.060614 -0.77711105 -26.120508 -28.185333 -27.306992
21800000000 -38.559349 5.5263658 -0.77759463 -27.831062 -0.77869672 -27.840925 -28.111628 -24.25808
21900000000 -37.318344 16.248949 -0.77807057 -29.595371 -0.78027022 -29.619816 -28.286615 -18.489317
22000000000 -35.219048 25.698719 -0.77417535 -31.401207 -0.78032601 -31.422272 -28.350559 -19.511896
22100000000 -34.102867 25.382984 -0.77180588 -33.183167 -0.78152514 -33.2169 -27.760799 -15.48024
22200000000 -32.450363 30.579727 -0.77898782 -34.999069 -0.78175294 -35.051319 -27.164618 -16.261515
22300000000 -31.153208 26.850412 -0.78176653 -36.812496 -0.78474492 -36.862659 -26.261761 -11.381108
22400000000 -29.809566 32.704044 -0.7908814 -38.613125 -0.79175699 -38.605175 -25.550011 -9.6866198
22500000000 -28.67207 26.357206 -0.7967062 -40.388481 -0.80252796 -40.407063 -25.11022 -5.4458356
22600000000 -28.433418 29.280434 -0.8028484 -42.128998 -0.80676383 -42.156479 -24.977257 -6.7628307
22700000000 -27.367279 24.298094 -0.81116605 -43.933434 -0.8130551 -43.92561 -24.746679 -5.362669
22800000000 -27.554007 26.002129 -0.81986636 -45.63139 -0.82467812 -45.690552 -24.457178 -8.3130693
22900000000 -26.212088 22.881878 -0.81831402 -47.360123 -0.82081187 -47.412701 -23.759499 -7.5416284
23000000000 -26.230951 22.593838 -0.82470316 -49.170975 -0.82474476 -49.172791 -23.159555 -8.8850565
23100000000 -24.946798 23.052031 -0.81640863 -50.879574 -0.81684476 -50.91713 -22.774614 -5.8534875
23200000000 -25.152014 20.997961 -0.81795681 -52.616634 -0.82194215 -52.662865 -22.619932 -6.6532645
23300000000 -24.345602 23.476921 -0.81622493 -54.373257 -0.82005209 -54.439125 -22.66317 -4.3386045
23400000000 -24.342665 18.335804 -0.8199001 -56.15247 -0.82223433 -56.166103 -22.370388 -8.6278505
23500000000 -23.819946 20.842524 -0.81832713 -57.923077 -0.82029253 -57.956642 -22.114403 -8.5175123
23600000000 -23.231482 16.271021 -0.81062782 -59.707275 -0.81945741 -59.753624 -21.311384 -11.501159
23700000000 -23.009077 18.295874 -0.81540155 -61.472305 -0.81866407 -61.533489 -20.933109 -8.9864731
23800000000 -22.193552 15.476918 -0.80935138 -63.295609 -0.8185519 -63.325893 -20.548023 -8.710947
23900000000 -22.299425 14.195187 -0.8170191 -65.064529 -0.81435168 -65.0979 -20.651133 -6.4081984
24000000000 -21.605316 13.275492 -0.81107837 -66.875542 -0.81727123 -66.873909 -20.529282 -8.8601236
24100000000 -21.673761 10.474378 -0.81208003 -68.629776 -0.82017463 -68.700661 -20.699158 -10.636237
24200000000 -21.046467 10.338542 -0.81143624 -70.442795 -0.81527728 -70.491127 -19.971014 -13.603779
24300000000 -20.836361 6.9714022 -0.81942147 -72.240509 -0.81923956 -72.276146 -19.645723 -15.267621
24400000000 -20.361197 7.5413842 -0.81641269 -74.015244 -0.82323736 -74.072395 -18.923275 -14.903194
24500000000 -20.040894 4.1195068 -0.81980848 -75.804062 -0.82640368 -75.808556 -18.851721 -14.039395
24600000000 -19.854372 4.3476844 -0.82299674 -77.627716 -0.83058262 -77.615204 -18.592026 -13.514771
24700000000 -19.599974 1.1320653 -0.83077163 -79.391304 -0.83525914 -79.426659 -18.818628 -14.68023
24800000000 -19.620867 -0.39283428 -0.82961112 -81.164772 -0.83784306 -81.221878 -18.617964 -17.419527
24900000000 -19.305145 -2.3505907 -0.83600342 -82.963234 -0.83935148 -82.969528 -18.541819 -20.465563
25000000000 -19.14082 -4.8268576 -0.83294833 -84.750854 -0.84560436 -84.776588 -18.026613 -22.286312
25100000000 -18.840731 -6.2234955 -0.84739548 -86.518173 -0.84923428 -86.5196 -17.787127 -22.693913
25200000000 -18.595291 -7.2538042 -0.84768432 -88.289909 -0.85515845 -88.279793 -17.533873 -22.981371
25300000000 -18.472338 -8.7367334 -0.85434628 -90.009415 -0.85477895 -90.029572 -17.633142 -23.463724
25400000000 -18.42798 -10.710621 -0.85836011 -91.810402 -0.85569495 -91.84549 -17.500645 -24.967237
25500000000 -18.367853 -12.961868 -0.86184412 -93.546501 -0.87031806 -93.592049 -17.548628 -26.636374
25600000000 -18.397135 -14.185193 -0.86974555 -95.328812 -0.87107468 -95.348366 -17.346848 -28.780228
25700000000 -18.090672 -16.664246 -0.8715024 -97.078506 -0.87455219 -97.13633 -17.254166 -30.279793
25800000000 -18.154469 -18.484184 -0.87215579 -98.842468 -0.87490076 -98.846573 -17.024265 -30.853542
25900000000 -17.741774 -19.649637 -0.86947042 -100.60159 -0.88188714 -100.61213 -17.020908 -32.338127
26000000000 -18.013908 -21.478342 -0.87610793 -102.31852 -0.87663591 -102.37778 -16.866962 -32.336597
26100000000 -17.584297 -21.501503 -0.87492609 -104.14125 -0.88382471 -104.10255 -17.088057 -35.301788
26200000000 -17.887285 -24.620703 -0.8841055 -105.81661 -0.88475507 -105.88541 -16.910471 -35.278751
26300000000 -17.66124 -23.949827 -0.88247108 -107.5771 -0.88568246 -107.57896 -17.054729 -38.745564
26400000000 -17.721489 -28.93368 -0.88015085 -109.37688 -0.89229268 -109.408 -16.727488 -38.442326
26500000000 -17.760164 -27.669607 -0.88183326 -111.08144 -0.8835423 -111.13738 -16.910763 -41.004173
26600000000 -17.542986 -31.324078 -0.88027573 -112.92292 -0.87736678 -112.91269 -16.653078 -39.912724
26700000000 -17.859329 -30.618008 -0.88387895 -114.5899 -0.89950198 -114.65422 -16.808819 -43.13768
26800000000 -17.347672 -34.086472 -0.88387895 -116.28712 -0.87837118 -116.49596 -16.713785 -43.141579
26900000000 -17.847807 -34.408489 -0.89413118 -118.17754 -0.88132298 -118.14853 -16.722946 -45.234371
27000000000 -17.361456 -34.858528 -0.88348234 -119.97599 -0.88393921 -119.93839 -16.946676 -44.327946
27100000000 -17.640991 -37.462425 -0.88127196 -121.583 -0.88559073 -121.66673 -16.763824 -48.262581
27200000000 -17.306078 -37.389954 -0.8825326 -123.43166 -0.89428574 -123.56386 -16.733912 -48.332664
27300000000 -17.591978 -41.683548 -0.88042825 -125.23239 -0.88461131 -125.17099 -16.558229 -51.256531
27400000000 -17.472769 -40.945248 -0.87911654 -126.9233 -0.88993955 -127.01555 -16.713921 -51.206959
27500000000 -17.394873 -45.838989 -0.89463049 -128.76886 -0.87353122 -128.69592 -16.647621 -53.60788
27600000000 -17.633495 -44.730877 -0.88596404 -130.49071 -0.8856523 -130.43744 -16.902142 -53.840675
27700000000 -17.279545 -48.542881 -0.88942868 -132.30873 -0.87194318 -132.41614 -16.860329 -56.438499
27800000000 -17.846262 -47.894661 -0.87576717 -134.04555 -0.87735122 -134.17844 -16.867186 -56.922012
27900000000 -17.635672 -49.687416 -0.87223172 -135.89378 -0.88005322 -135.95724 -16.816477 -58.164608
28000000000 -18.055021 -52.075806 -0.87465221 -137.5818 -0.88186496 -137.63206 -16.923229 -58.932907
28100000000 -17.760628 -54.741119 -0.87005901 -139.32243 -0.88206255 -139.52905 -17.009638 -60.347073
28200000000 -18.177946 -55.115017 -0.9026776 -141.20551 -0.90117055 -141.28336 -17.172161 -60.647728
28300000000 -17.864635 -54.772526 -0.88318032 -142.88568 -0.87988204 -142.97075 -17.106298 -62.719898
28400000000 -18.147409 -56.495285 -0.90379876 -144.5993 -0.88581419 -144.75005 -17.440767 -63.837109
28500000000 -18.054476 -57.504402 -0.89804029 -146.40945 -0.89559025 -146.43008 -17.224928 -63.664658
28600000000 -18.526686 -59.310749 -0.89489675 -148.11734 -0.88308007 -148.10899 -17.439455 -64.440598
28700000000 -18.428066 -60.846523 -0.88005477 -150.00156 -0.88969171 -149.78143 -17.517515 -65.21492
28800000000 -18.746798 -64.756447 -0.89842325 -151.73065 -0.89661413 -151.77643 -17.858627 -66.534035
28900000000 -18.754341 -64.83165 -0.85951096 -153.61588 -0.88651103 -153.64769 -17.856941 -69.303078
29000000000 -19.140459 -65.670921 -0.87150782 -155.33531 -0.89767742 -155.50833 -18.121185 -70.36673
29100000000 -18.984571 -64.782509 -0.87832016 -157.13257 -0.87960339 -157.25784 -17.969606 -71.324127
29200000000 -19.446117 -67.540085 -0.90285128 -158.93457 -0.88679451 -158.93851 -18.510889 -71.068565
29300000000 -19.553255 -66.1231 -0.88137531 -160.84976 -0.88710821 -160.77527 -18.302643 -70.735046
29400000000 -19.772175 -72.070953 -0.91161031 -162.32956 -0.8912186 -162.4771 -19.183699 -73.086365
29500000000 -19.98514 -68.666794 -0.90583384 -164.26144 -0.91178465 -164.30264 -18.999044 -73.714493
29600000000 -19.693966 -74.130226 -0.89245576 -165.93581 -0.90535933 -165.8689 -19.512838 -77.322563
29700000000 -20.410238 -71.688393 -0.88488263 -167.78053 -0.89898491 -167.74461 -19.251497 -75.471436
29800000000 -19.983723 -74.817894 -0.90144455 -169.49825 -0.89148784 -169.52124 -19.605907 -78.244705
29900000000 -21.199165 -74.982536 -0.87769496 -171.32845 -0.88049352 -171.40807 -19.148684 -76.08725
30000000000 -20.558144 -77.754845 -0.89709848 -172.9637 -0.87488306 -172.82932 -19.958502 -78.074806
30100000000 -21.48634 -81.370209 -0.87448221 -174.71283 -0.89380807 -174.97632 -19.935944 -76.510483
30200000000 -21.125662 -76.908257 -0.88765091 -176.48422 -0.88990271 -176.45822 -20.625124 -79.852867
30300000000 -21.491011 -83.814697 -0.87995046 -178.31873 -0.89932811 -178.25949 -20.551422 -76.700447
30400000000 -21.562456 -78.491974 -0.89346808 179.8669 -0.88840711 179.93187 -20.666756 -82.900055
30500000000 -22.024622 -85.13588 -0.86457187 178.0921 -0.87148851 178.14906 -20.89043 -78.865074
30600000000 -22.96837 -79.115555 -0.89800912 176.40955 -0.89573181 176.26192 -21.101028 -80.967567
30700000000 -23.242243 -86.107269 -0.89149004 174.61656 -0.86423039 174.41492 -21.607552 -78.123367
30800000000 -23.315149 -84.962708 -0.87263966 172.98329 -0.89464325 172.65228 -22.410864 -80.157051
30900000000 -23.24024 -87.700829 -0.88248056 171.16467 -0.87337869 171.1124 -22.490208 -78.493896
31000000000 -24.55003 -88.569687 -0.86622453 169.1075 -0.89290369 169.11456 -22.732117 -82.109947
31100000000 -23.73702 -86.308884 -0.87525666 167.23155 -0.87704456 167.45912 -22.974339 -80.169296
31200000000 -25.447908 -85.580475 -0.87055308 165.74608 -0.87039429 165.69453 -22.851566 -78.560478
31300000000 -25.366825 -81.838081 -0.84097105 163.80472 -0.8797248 163.89606 -23.515152 -76.949905
31400000000 -27.005102 -84.242615 -0.87929279 161.97101 -0.85699832 162.17757 -23.680092 -77.727257
31500000000 -27.239086 -81.009247 -0.86274993 160.32262 -0.86537081 160.07259 -24.322239 -69.047272
31600000000 -27.715363 -87.825432 -0.86966431 158.40572 -0.85333353 158.50406 -24.68948 -73.886482
31700000000 -28.580591 -82.233231 -0.8736167 156.66223 -0.88740861 156.58359 -25.227028 -71.161873
31800000000 -29.647955 -82.286697 -0.85621226 154.95969 -0.85510546 154.70741 -25.810345 -71.744896
31900000000 -29.476049 -76.151886 -0.84754527 153.18683 -0.85343248 152.98717 -25.132025 -65.552032
32000000000 -31.821892 -68.186203 -0.85225993 151.38074 -0.84834576 151.24739 -25.305702 -65.976723
32100000000 -32.121147 -62.146458 -0.82892436 149.40234 -0.84553576 149.40051 -25.461002 -55.900982
32200000000 -33.94471 -63.894386 -0.8650381 147.64464 -0.87631255 147.59267 -26.122318 -55.314102
32300000000 -33.175854 -51.989899 -0.87839526 145.882 -0.89171159 145.83371 -26.501276 -48.498657
32400000000 -35.267891 -55.25087 -0.84926289 144.13684 -0.87895143 143.99077 -27.282764 -51.128342
32500000000 -31.61669 -33.735905 -0.86317462 142.30833 -0.87341917 142.21736 -26.170809 -47.730572
32600000000 -33.025166 -32.147861 -0.88035661 140.43408 -0.84982795 140.42725 -26.073336 -47.604961
32700000000 -30.591217 -15.375154 -0.903431 138.7903 -0.88419622 138.65553 -25.451273 -41.252834
32800000000 -31.654999 -18.353191 -0.86824268 136.99905 -0.85588121 136.89017 -24.484173 -36.572548
32900000000 -29.776297 -2.2889602 -0.86776596 135.12566 -0.89317906 135.02338 -24.773125 -28.792725
33000000000 -29.963066 -10.658031 -0.87952226 133.30496 -0.9184891 133.27744 -24.532738 -31.996456
33100000000 -28.210018 0.47140428 -0.88698691 131.70863 -0.93453491 131.53052 -24.475239 -24.538425
33200000000 -27.958651 -9.3830462 -0.88820666 129.86964 -0.90915412 129.67812 -23.872658 -30.867643
33300000000 -27.401527 -0.49694884 -0.91147393 127.96217 -0.91281748 127.83429 -23.88246 -25.954935
33400000000 -25.954979 -9.3526487 -0.88229251 126.24538 -0.90310526 126.08297 -22.880213 -32.902969
33500000000 -26.649731 -3.4509134 -0.90357214 124.31077 -0.923154 124.45676 -22.528397 -22.73052
33600000000 -24.767971 -5.5420852 -0.87932765 122.76671 -0.89613843 122.56877 -21.762009 -24.578827
33700000000 -25.933508 -1.9691751 -0.91327107 120.87319 -0.90716922 120.7213 -22.028893 -22.326725
33800000000 -24.180494 -0.78037 -0.92718232 119.02325 -0.9415611 119.05215 -21.778402 -26.03023
33900000000 -24.190468 -5.4453535 -0.89838254 117.2794 -0.94107914 117.22301 -21.754433 -25.345812
34000000000 -23.461031 -0.66041279 -0.92222369 115.68234 -0.93792903 115.49484 -20.60075 -25.762529
34100000000 -23.217398 -5.954226 -0.91797292 113.81712 -0.94221961 113.61856 -20.852282 -25.467955
34200000000 -23.1285 -1.0219564 -0.95141298 112.05424 -0.94350934 112.07366 -20.463871 -21.533363
34300000000 -22.489946 -3.5516825 -0.94114441 110.1481 -0.92503768 110.12751 -20.367462 -24.004602
34400000000 -22.694778 0.16153562 -0.96803534 108.34312 -0.96829313 107.99884 -20.684395 -25.251337
34500000000 -21.990004 -3.6932247 -0.95516992 106.56008 -0.9506129 106.65508 -20.089699 -27.476635
34600000000 -21.59403 -4.1518745 -0.96484065 104.81087 -0.96516007 104.77563 -19.741545 -27.190065
34700000000 -21.25408 -2.314925 -0.96955085 103.24679 -0.96802562 103.12372 -19.452009 -26.147886
34800000000 -21.136448 -0.87384498 -0.98837376 101.45316 -0.9398737 101.41755 -18.825735 -25.552301
34900000000 -21.100176 -6.0100985 -0.95683098 99.55162 -0.97881752 99.441292 -19.22332 -24.150427
35000000000 -20.367952 -7.8081307 -0.96471655 97.809097 -0.98009515 97.814209 -19.132334 -25.145077
35100000000 -20.261568 -8.825243 -0.9462502 96.147858 -0.9958539 96.118729 -18.865993 -29.581703
35200000000 -19.932116 -6.4983974 -0.98340297 94.275352 -1.0052526 94.231514 -18.764912 -31.340403
35300000000 -19.804306 -10.86674 -0.99452448 92.58239 -0.98145586 92.683609 -18.033173 -32.356365
35400000000 -19.636589 -9.9164371 -0.99816674 90.908928 -0.9928652 90.905518 -17.725475 -32.979774
35500000000 -18.981733 -11.193081 -0.97806293 89.451233 -0.96287054 88.99456 -17.327646 -32.687737
35600000000 -19.438616 -10.179351 -0.9910062 87.466293 -0.96992654 87.14756 -17.228418 -32.98518
35700000000 -18.828823 -16.03204 -0.94659209 85.578728 -0.97042918 85.331482 -17.793251 -33.3549
35800000000 -18.907772 -16.971134 -0.98238921 83.683655 -0.95239246 83.717232 -17.365761 -37.388493
35900000000 -18.133991 -17.590324 -0.98356658 81.903946 -1.0051528 81.882858 -17.570293 -40.928829
36000000000 -18.617218 -20.517122 -0.96244115 80.25177 -0.99121141 80.147308 -16.826488 -39.258102
36100000000 -17.803637 -16.650517 -1.0089376 78.340355 -1.0334973 78.541412 -17.176952 -41.024601
36200000000 -18.598047 -24.194044 -1.0091139 76.55629 -0.98583841 76.741722 -16.482004 -38.127754
36300000000 -17.923386 -21.733391 -1.012208 74.837738 -0.99256653 74.873016 -17.047989 -41.145576
36400000000 -17.70553 -29.264824 -0.91875362 73.115097 -1.0106419 73.080383 -16.513937 -42.348694
36500000000 -18.046721 -24.520697 -1.0298463 71.258217 -1.0032429 71.651329 -16.699278 -48.148457
36600000000 -17.380724 -28.264448 -0.9665556 69.844933 -1.0209142 69.551567 -16.267763 -44.956345
36700000000 -18.038136 -27.486856 -0.95941949 68.077347 -0.9777562 67.843483 -16.258188 -48.904083
36800000000 -16.941317 -31.022385 -0.96870178 66.370766 -1.0246422 66.040901 -16.092754 -44.525005
36900000000 -18.282284 -33.107666 -0.97553623 64.047806 -1.027308 63.943577 -16.623568 -48.165691
37000000000 -16.985916 -34.640812 -1.0267551 62.694553 -0.9635973 62.904644 -16.782293 -46.970837
37100000000 -17.416477 -36.690804 -1.0304527 60.726646 -0.97262067 60.807018 -16.580889 -53.582958
37200000000 -16.951883 -34.919868 -0.98875242 59.383987 -0.94544274 59.238861 -16.49988 -53.417564
37300000000 -17.391752 -38.314129 -1.0217725 57.123207 -0.97054344 57.234638 -15.600832 -55.181404
37400000000 -17.189154 -37.174004 -0.94974011 55.500336 -0.96508962 55.518864 -15.823157 -51.82206
37500000000 -17.291229 -41.99651 -0.99236161 53.925594 -0.95748442 53.613823 -16.169073 -53.585869
37600000000 -17.157972 -42.381485 -0.99153864 52.214272 -0.93376327 51.950878 -16.551249 -54.023476
37700000000 -17.003109 -45.970852 -0.95498765 50.37571 -0.97701252 50.110588 -16.76297 -59.876213
37800000000 -17.062458 -43.673584 -0.98778683 48.368683 -0.9765386 48.094677 -16.542795 -61.137222
37900000000 -17.044575 -44.302956 -0.98946208 46.735817 -0.94415724 46.633347 -16.131769 -64.198524
38000000000 -17.489973 -44.892578 -0.96984529 44.942566 -0.96958256 44.976727 -16.05933 -62.754906
38100000000 -17.440168 -49.770901 -0.95942271 43.073036 -0.96418291 43.395729 -16.168571 -64.350441
38200000000 -17.380989 -50.897209 -0.95832223 41.251289 -0.98126179 41.165699 -16.384445 -61.516891
38300000000 -17.329014 -53.63932 -0.99172729 39.404522 -0.9533025 39.829571 -16.544703 -64.618614
38400000000 -17.341135 -50.565857 -0.94538963 37.645874 -0.93586153 37.885914 -17.475958 -68.122375
38500000000 -17.196487 -55.771652 -0.96802336 35.436806 -0.95337147 35.483337 -16.931992 -71.530746
38600000000 -17.877913 -53.391521 -0.98031151 34.091717 -0.92765731 34.453403 -16.437366 -70.239273
38700000000 -17.389528 -58.138721 -0.99181056 32.612843 -0.97350031 32.36079 -16.39798 -73.021027
38800000000 -18.757219 -57.636833 -0.95114166 30.532118 -0.94698995 30.459143 -17.175434 -72.291046
38900000000 -17.575914 -59.808277 -0.96821743 28.862846 -0.9880296 28.699896 -17.279968 -71.247726
39000000000 -18.820448 -61.460644 -0.93444824 27.32291 -0.93881929 26.912664 -17.697756 -76.196198
39100000000 -17.967535 -61.288181 -0.96967155 25.040543 -0.96508634 24.775169 -17.436779 -79.153404
39200000000 -18.876348 -66.391434 -1.0379268 23.770008 -0.98500013 23.577074 -17.832344 -78.446037
39300000000 -18.1562 -58.515903 -0.94188714 21.337337 -0.9926576 21.528238 -17.13723 -77.033325
39400000000 -19.184477 -72.745445 -1.0012214 20.0653 -1.0110718 20.125525 -17.517855 -74.393539
39500000000 -19.446812 -62.947754 -0.97309774 17.859926 -0.96691388 18.011841 -17.922106 -75.997307
39600000000 -18.855209 -69.815826 -0.92468947 16.587557 -1.0121462 15.880244 -18.522791 -76.768684
39700000000 -19.846567 -64.336113 -0.99436074 14.262591 -0.9717105 14.598801 -19.167089 -81.580231
39800000000 -18.803688 -66.398834 -0.932154 12.621634 -1.0118511 12.396874 -18.784729 -84.696396
39900000000 -20.713814 -68.048416 -0.99108851 10.620342 -0.98615611 10.821283 -18.052126 -87.981544
40000000000 -19.414436 -68.260094 -0.93697208 9.0900126 -0.9724986 9.0645447 -18.460678 -84.424728
40100000000 -21.406683 -76.557312 -0.9731667 7.6769242 -0.98319811 7.1976824 -18.769009 -79.12648
40200000000 -19.690548 -69.746948 -1.0361356 5.6468844 -1.0027019 5.7521863 -19.934046 -82.428421
40300000000 -20.404358 -78.308807 -0.97288978 3.7977979 -0.98614866 3.6847754 -20.080469 -81.507324
40400000000 -20.270737 -69.139946 -1.0259656 2.1089025 -0.9869417 1.864086 -20.771879 -92.432678
40500000000 -21.456852 -74.281944 -0.99573147 0.12111402 -1.0220152 0.32168466 -20.142008 -92.961609
40600000000 -21.576305 -68.603004 -0.98681563 -1.6412266 -1.0715392 -1.680766 -20.507122 -92.425285
40700000000 -21.201542 -75.182663 -0.98993152 -3.1162744 -0.98654497 -3.4972587 -20.614222 -85.859016
40800000000 -23.140018 -74.219284 -1.0117266 -4.9032979 -1.0092667 -4.9837613 -20.698689 -82.602493
40900000000 -21.691031 -78.146812 -1.018043 -7.1415577 -0.98774457 -6.8035774 -22.150904 -77.979851
41000000000 -22.136925 -76.133072 -1.0378112 -8.5150366 -0.99301064 -8.6341066 -22.322538 -83.337547
41100000000 -22.648468 -74.734787 -0.95760059 -10.236127 -0.98134488 -10.240213 -22.697432 -82.467117
41200000000 -23.697828 -73.169609 -1.0704688 -11.986838 -1.0394946 -12.146656 -22.653194 -91.315369
41300000000 -23.890776 -70.691467 -1.0559224 -14.178899 -0.99100524 -14.122295 -23.398878 -82.679176
41400000000 -24.166363 -78.584824 -1.0415969 -15.924487 -1.0451952 -15.676194 -22.798258 -77.220894
41500000000 -25.365656 -77.692001 -1.0547535 -17.608257 -1.0164533 -17.458929 -23.057281 -79.579689
41600000000 -24.603643 -68.972351 -1.0096995 -19.190683 -0.98390716 -19.344139 -24.612392 -75.464226
41700000000 -26.809612 -81.765396 -1.0457135 -20.895765 -1.0276037 -21.17732 -24.847261 -72.889267
41800000000 -25.008982 -60.005146 -1.0741733 -22.716291 -0.99781466 -23.026571 -25.327091 -69.56916
41900000000 -26.79459 -68.86689 -1.072553 -24.898296 -1.0512997 -24.857542 -25.592445 -71.684311
42000000000 -27.666943 -54.779465 -1.0018659 -26.305532 -1.0897152 -26.461216 -25.359526 -73.574455
42100000000 -24.593943 -62.421265 -1.0320916 -27.846685 -1.0069751 -28.08617 -26.659386 -63.370098
42200000000 -28.898184 -43.650459 -1.0292449 -29.772211 -1.0317246 -30.195055 -25.593382 -54.955154
42300000000 -27.051819 -43.762009 -1.0210364 -31.754326 -1.0245358 -31.819324 -25.171843 -57.313217
42400000000 -35.721596 -56.102451 -1.0299227 -33.402786 -1.0455949 -33.066093 -28.446766 -55.896824
42500000000 -24.307537 -39.68528 -1.033807 -34.984825 -1.0147065 -35.314716 -27.585148 -38.775681
42600000000 -29.219574 -32.074883 -1.0002263 -37.10931 -1.0205828 -37.224384 -25.771851 -38.555885
42700000000 -28.376492 -6.7754745 -1.0758959 -38.712025 -1.0771145 -39.309891 -25.09362 -41.890533
42800000000 -30.000696 -21.238754 -1.0431972 -40.498287 -0.98655635 -40.691303 -25.919691 -33.521835
42900000000 -25.88682 3.5103061 -1.1026745 -42.361656 -1.0786844 -42.246159 -24.504118 -34.445004
43000000000 -27.085964 -25.477732 -1.018099 -43.950348 -1.0668709 -44.043209 -24.083998 -29.112226
43100000000 -26.405827 -15.790626 -0.95564246 -46.358379 -1.0918304 -46.159931 -23.101589 -19.846823
43200000000 -22.985634 -14.460231 -1.1105231 -47.441677 -1.0530293 -47.619911 -24.948185 -14.484801
43300000000 -25.315399 6.6567483 -1.043238 -49.831779 -0.98929757 -49.531719 -23.931664 -13.002058
43400000000 -22.724236 -6.9645371 -1.0023236 -51.043896 -0.99025697 -51.049744 -23.014711 -28.723104
43500000000 -25.212908 -9.2011576 -0.99018872 -53.191982 -1.0929359 -53.318817 -22.429598 -26.024345
43600000000 -22.292656 7.8629694 -1.0163698 -55.152496 -0.94365346 -55.111034 -20.826494 -27.347744
43700000000 -23.783039 2.2466168 -0.99999166 -56.526196 -1.0467362 -56.602673 -20.241159 -11.422525
43800000000 -21.006445 -0.78484899 -1.0656612 -58.267075 -0.97531193 -58.62133 -20.54685 -19.996302
43900000000 -22.024307 -7.8442035 -1.030261 -60.483223 -1.0296694 -60.25647 -20.986492 -13.177396
44000000000 -21.282347 -1.4628855 -1.0563594 -62.255093 -1.0075529 -62.368378 -20.835878 -23.129633
44100000000 -20.843008 -8.1848984 -1.0097946 -63.621067 -1.0875777 -64.177361 -20.276045 -27.961641
44200000000 -21.804571 2.9330909 -1.0745093 -65.467888 -1.0007418 -65.819023 -19.721565 -24.037266
44300000000 -19.245882 -7.3092194 -0.93620127 -67.516525 -0.99906266 -67.660812 -19.035477 -17.738497
44400000000 -20.312515 -2.2483778 -1.0167372 -68.940521 -1.0922954 -69.175209 -18.327818 -22.064856
44500000000 -18.882452 -7.0278687 -1.0586522 -70.987854 -1.0240419 -70.825821 -18.255484 -19.46563
44600000000 -18.762474 -10.138221 -0.99790972 -72.810989 -1.0202292 -72.878113 -18.403641 -21.552563
44700000000 -17.985229 -1.4992177 -1.1006168 -74.546577 -1.0811322 -74.384552 -18.108633 -21.865709
44800000000 -18.764071 -12.774487 -1.0341693 -76.251106 -1.0665225 -76.485031 -16.972769 -24.526619
44900000000 -18.263472 -10.099282 -1.0119554 -78.169014 -1.0603048 -78.085411 -17.406885 -23.853241
45000000000 -17.826385 -15.833938 -1.1294618 -79.739731 -1.0743428 -79.998428 -17.359447 -21.528147
