!Keysight Technologies,N5247B,MY61255062,A.19.80.06
!Date: Monday, May 18, 2026 12:06:32
!Correction: S11(Cdelta 2-Port  ) 
!S21(Cdelta 2-Port  ) 
!S12(Cdelta 2-Port  ) 
!S22(Cdelta 2-Port  ) 
!S2P File: Measurements: S11, S21, S12, S22:
# Hz S  dB   R 50
1000000000 -24.103039 24.570856 -0.40661806 -18.430899 -0.40638664 -18.43232 -24.399536 24.729136
1100000000 -23.791882 24.485601 -0.41598734 -20.239025 -0.4164657 -20.2306 -24.09815 25.116467
1200000000 -23.421158 24.670248 -0.42858538 -22.000843 -0.42756379 -21.99354 -23.728151 25.73966
1300000000 -23.089245 24.337669 -0.43428728 -23.796944 -0.43296921 -23.800362 -23.35322 25.268379
1400000000 -22.74292 24.489454 -0.44447923 -25.521421 -0.44271088 -25.530701 -22.976374 25.820599
1500000000 -22.389887 23.94433 -0.44670215 -27.290802 -0.44655812 -27.304966 -22.58206 25.256342
1600000000 -22.067503 23.650133 -0.45294535 -29.072428 -0.45277956 -29.081234 -22.269218 24.380852
1700000000 -21.765036 22.855801 -0.45651382 -30.825174 -0.457443 -30.84123 -21.951258 23.862446
1800000000 -21.477266 21.986761 -0.45989704 -32.607742 -0.46163124 -32.612045 -21.653446 23.003656
1900000000 -21.220537 20.984621 -0.4634122 -34.388939 -0.46343151 -34.394299 -21.367479 21.821442
2000000000 -20.989067 20.110634 -0.47045308 -36.189297 -0.46951362 -36.193485 -21.150276 20.808928
2100000000 -20.730637 19.100092 -0.47547489 -37.950867 -0.47426033 -37.952381 -20.87973 19.983017
2200000000 -20.518066 18.141739 -0.48063061 -39.727943 -0.47903392 -39.725498 -20.646387 18.932983
2300000000 -20.318832 17.00881 -0.48475009 -41.504364 -0.48460191 -41.514626 -20.427727 17.683008
2400000000 -20.114742 16.062584 -0.49200952 -43.281506 -0.49017331 -43.272938 -20.246729 16.76166
2500000000 -19.933735 14.982155 -0.49616447 -45.054867 -0.49643174 -45.054996 -20.037664 15.385698
2600000000 -19.78299 13.816675 -0.50198811 -46.82753 -0.50293577 -46.836021 -19.885799 14.342976
2700000000 -19.576227 12.596128 -0.50710446 -48.591648 -0.50792056 -48.597885 -19.731939 13.263247
2800000000 -19.456869 11.717591 -0.51231068 -50.339188 -0.51509905 -50.360554 -19.559631 11.962205
2900000000 -19.292053 10.611015 -0.52000844 -52.115128 -0.51972574 -52.127594 -19.414301 10.898758
3000000000 -19.153446 9.4545555 -0.52270281 -53.859982 -0.52338666 -53.882416 -19.260862 9.8107862
3100000000 -19.00835 8.2965975 -0.52843642 -55.623444 -0.52813357 -55.627884 -19.123255 8.7038527
3200000000 -18.873827 6.8511543 -0.53340256 -57.384277 -0.53261471 -57.391094 -18.972475 7.4704571
3300000000 -18.724911 5.7712083 -0.53629208 -59.136795 -0.53642178 -59.139297 -18.842457 6.2540951
3400000000 -18.640551 4.4793873 -0.54185569 -60.896 -0.54102939 -60.911087 -18.708282 4.9833908
3500000000 -18.512159 3.3096588 -0.54543757 -62.652576 -0.54483122 -62.647491 -18.580791 3.6697259
3600000000 -18.387379 1.9891627 -0.54633987 -64.39431 -0.54601812 -64.415558 -18.432621 2.4330368
3700000000 -18.291445 0.72630268 -0.54891491 -66.149094 -0.5491966 -66.167389 -18.32085 0.9050113
3800000000 -18.163483 -0.6954031 -0.54983175 -67.905991 -0.55243909 -67.926468 -18.234087 -0.41411981
3900000000 -18.09297 -1.9566216 -0.55166161 -69.678177 -0.55296236 -69.688568 -18.137163 -1.925485
4000000000 -17.96899 -3.4553759 -0.55497772 -71.433533 -0.55668086 -71.443535 -18.031759 -3.2902884
4100000000 -17.919706 -4.6858315 -0.55892545 -73.20874 -0.56093413 -73.2033 -17.94718 -4.667892
4200000000 -17.820614 -6.0372424 -0.56177306 -74.942673 -0.56441617 -74.959198 -17.860439 -5.8883009
4300000000 -17.77504 -7.526032 -0.56463313 -76.699944 -0.56641501 -76.704102 -17.784103 -7.4792433
4400000000 -17.719555 -8.8541489 -0.56578392 -78.470131 -0.56749898 -78.470955 -17.710859 -8.6750631
4500000000 -17.650721 -10.288609 -0.56827486 -80.217186 -0.56924802 -80.226837 -17.637962 -10.354873
4600000000 -17.587818 -11.513011 -0.56927902 -81.974831 -0.571971 -81.977577 -17.600943 -11.64384
4700000000 -17.541473 -13.189109 -0.57269281 -83.72139 -0.57178146 -83.739258 -17.536455 -13.243168
4800000000 -17.507179 -14.470549 -0.57244945 -85.493774 -0.57382858 -85.504616 -17.504122 -14.644632
4900000000 -17.457716 -15.930583 -0.57519716 -87.262451 -0.57644534 -87.266357 -17.450077 -16.197865
5000000000 -17.448772 -17.371387 -0.57876998 -89.009872 -0.57904416 -89.01886 -17.436451 -17.485586
5100000000 -17.395882 -18.677425 -0.57911575 -90.772743 -0.58161318 -90.787041 -17.370518 -19.006212
5200000000 -17.378523 -20.245823 -0.58048868 -92.528122 -0.58564866 -92.545166 -17.377695 -20.337122
5300000000 -17.360218 -21.635624 -0.58183873 -94.279472 -0.58234751 -94.302055 -17.362427 -21.855623
5400000000 -17.351501 -23.115314 -0.58464986 -96.037895 -0.586541 -96.063675 -17.378273 -23.307325
5500000000 -17.354168 -24.445774 -0.58590961 -97.80558 -0.58618665 -97.815651 -17.357981 -24.911448
5600000000 -17.370365 -25.955294 -0.58779711 -99.562981 -0.58943582 -99.576424 -17.359426 -26.478928
5700000000 -17.371393 -27.512968 -0.58993542 -101.31242 -0.59058338 -101.34166 -17.331615 -27.95018
5800000000 -17.396852 -29.041513 -0.5919401 -103.06264 -0.59127796 -103.08327 -17.352509 -29.322214
5900000000 -17.419949 -30.482635 -0.59295064 -104.8065 -0.59116322 -104.84335 -17.364223 -30.69528
6000000000 -17.430485 -32.025066 -0.59247172 -106.57887 -0.59471059 -106.59107 -17.421747 -32.245819
6100000000 -17.460684 -33.457684 -0.59289986 -108.31604 -0.59466428 -108.33559 -17.466608 -33.888481
6200000000 -17.528057 -34.662762 -0.5925346 -110.07134 -0.59594774 -110.09222 -17.529396 -35.377178
6300000000 -17.577732 -35.914925 -0.59321648 -111.80967 -0.59338355 -111.83698 -17.533705 -36.819027
6400000000 -17.63752 -37.324688 -0.59245098 -113.57555 -0.59229934 -113.59791 -17.60004 -38.121925
6500000000 -17.703041 -38.604275 -0.59262544 -115.33405 -0.59198278 -115.34612 -17.612452 -39.281132
6600000000 -17.756037 -40.15601 -0.58732831 -117.09231 -0.59021384 -117.11294 -17.682028 -40.719318
6700000000 -17.820827 -41.371273 -0.58861816 -118.85412 -0.58944976 -118.87776 -17.734957 -41.927032
6800000000 -17.833065 -42.869148 -0.58631313 -120.6404 -0.58600944 -120.66622 -17.812298 -43.443569
6900000000 -17.896042 -44.363171 -0.58910906 -122.44274 -0.58876163 -122.44281 -17.827688 -44.803623
7000000000 -17.984499 -45.81271 -0.58801883 -124.15415 -0.58969581 -124.16698 -17.939341 -46.460056
7100000000 -18.098904 -47.11417 -0.58549017 -125.94275 -0.58681089 -125.95018 -18.024042 -47.57822
7200000000 -18.153362 -48.465015 -0.58325458 -127.71212 -0.58479762 -127.72005 -18.135284 -48.944584
7300000000 -18.2764 -49.8699 -0.58094466 -129.5009 -0.58511662 -129.51479 -18.222282 -50.340492
7400000000 -18.366629 -51.09779 -0.58379138 -131.26848 -0.58558434 -131.27995 -18.315329 -52.246891
7500000000 -18.482183 -52.658367 -0.58009344 -133.02992 -0.58329988 -133.06448 -18.350492 -53.34008
7600000000 -18.553116 -53.687325 -0.58203286 -134.8275 -0.58416092 -134.83644 -18.443535 -54.738434
7700000000 -18.650496 -55.36871 -0.58345795 -136.60954 -0.58458084 -136.62337 -18.550993 -55.642849
7800000000 -18.776131 -56.515293 -0.58469576 -138.38853 -0.58621448 -138.40382 -18.721283 -57.146908
7900000000 -18.855732 -58.251427 -0.58807456 -140.16801 -0.59085089 -140.17937 -18.883144 -58.643555
8000000000 -19.050779 -59.472942 -0.59103209 -141.95671 -0.59194839 -141.96855 -19.009033 -60.762764
8100000000 -19.139139 -61.077042 -0.5939697 -143.73572 -0.59648579 -143.7589 -19.075247 -62.091618
8200000000 -19.353155 -62.70734 -0.59767711 -145.52512 -0.60201383 -145.54718 -19.07929 -63.427338
8300000000 -19.553312 -64.335304 -0.60562634 -147.30527 -0.60944617 -147.32143 -19.310877 -63.539406
8400000000 -19.913033 -66.288147 -0.61830699 -149.06854 -0.61972791 -149.08655 -19.780045 -63.718235
8500000000 -20.178831 -67.048126 -0.64337063 -150.79497 -0.64413315 -150.82108 -20.916286 -64.550552
8600000000 -20.217655 -69.520943 -0.69773561 -152.2805 -0.69921654 -152.30109 -23.087366 -64.887383
8700000000 -21.575468 -73.810837 -0.59783423 -152.93115 -0.60019147 -152.9433 -24.759346 -41.809177
8800000000 -21.122328 -66.523895 -0.48463404 -155.81781 -0.48524737 -155.83261 -22.042847 -53.283405
8900000000 -21.029879 -70.262161 -0.53872335 -157.87196 -0.53936726 -157.89722 -22.078465 -65.795891
9000000000 -21.36237 -72.702538 -0.56510395 -159.6833 -0.57043636 -159.72014 -21.888329 -73.262543
9100000000 -21.689222 -73.400093 -0.58124089 -161.48398 -0.58605629 -161.50038 -21.58102 -75.791122
9200000000 -21.925173 -73.730377 -0.5952794 -163.23013 -0.59826267 -163.2355 -21.307831 -76.346893
9300000000 -22.074068 -73.834679 -0.59635603 -164.90332 -0.59846318 -164.91795 -21.412756 -76.734184
9400000000 -22.282001 -75.317688 -0.5904873 -166.68889 -0.59514785 -166.69095 -21.79414 -77.032257
9500000000 -22.65629 -76.475952 -0.59231657 -168.46094 -0.59326988 -168.46608 -22.397835 -77.332466
9600000000 -22.998661 -77.714149 -0.59457999 -170.23431 -0.59347051 -170.2708 -22.824873 -78.774582
9700000000 -23.394381 -78.360039 -0.59329307 -172.01556 -0.59572208 -172.05629 -23.192263 -80.136383
9800000000 -23.73638 -79.463371 -0.59551984 -173.78706 -0.59838146 -173.82971 -23.534842 -81.233543
9900000000 -24.235823 -80.227318 -0.59739816 -175.58783 -0.59667677 -175.61711 -23.849268 -81.100151
10000000000 -24.590397 -80.85833 -0.60206705 -177.35783 -0.59982055 -177.37932 -24.265434 -81.299507
10100000000 -25.224848 -81.341393 -0.6029259 -179.14194 -0.60175455 -179.14986 -24.917376 -81.475479
10200000000 -25.606886 -80.89727 -0.60152328 179.08614 -0.60465926 179.04741 -25.451912 -82.34288
10300000000 -26.301846 -81.713409 -0.60509104 177.30786 -0.60798246 177.28151 -26.000755 -82.408684
10400000000 -26.700285 -80.585213 -0.60848361 175.50714 -0.60944945 175.50409 -26.406986 -83.131943
10500000000 -27.400074 -81.252571 -0.60945511 173.75157 -0.6132378 173.71484 -27.022177 -82.200211
10600000000 -27.94832 -79.351997 -0.61366022 171.97832 -0.61340564 171.95171 -27.408295 -80.971901
10700000000 -28.74077 -79.660278 -0.61357588 170.18263 -0.6128425 170.17227 -28.186924 -78.357697
10800000000 -29.475554 -74.992012 -0.61590707 168.433 -0.61788881 168.37617 -28.877447 -75.517036
10900000000 -30.183664 -73.334267 -0.62263566 166.64314 -0.62159431 166.62773 -29.797293 -73.516022
11000000000 -30.958839 -68.254013 -0.62262613 164.86871 -0.62311763 164.84496 -30.512041 -70.850471
11100000000 -31.656137 -65.332657 -0.62733418 163.10468 -0.62977844 163.0538 -31.41618 -67.379364
11200000000 -32.4146 -58.761333 -0.62804192 161.31747 -0.63091093 161.30412 -31.721844 -62.905128
11300000000 -32.845703 -52.858509 -0.63198 159.54794 -0.63438612 159.52274 -32.385822 -56.720665
11400000000 -33.415405 -44.260406 -0.63456166 157.76451 -0.63790095 157.72964 -32.226807 -50.094147
11500000000 -33.210091 -37.683495 -0.63840377 156.00647 -0.63871801 155.97321 -32.460758 -41.451385
11600000000 -33.267029 -28.579136 -0.64168596 154.23203 -0.64124399 154.19444 -32.276535 -32.925728
11700000000 -32.424412 -21.133596 -0.64507574 152.46002 -0.64657634 152.41255 -32.303341 -24.98144
11800000000 -32.241924 -14.372832 -0.64673829 150.68317 -0.6506086 150.658 -31.722746 -19.098213
11900000000 -31.37252 -9.4945078 -0.65393829 148.91455 -0.65469158 148.8858 -31.523024 -13.924451
12000000000 -30.910229 -3.9990139 -0.65495193 147.14973 -0.66195118 147.11807 -30.404125 -9.0423107
12100000000 -30.050179 -0.82124859 -0.66188788 145.39903 -0.66216218 145.36415 -30.009193 -5.9285474
12200000000 -29.566542 1.4338125 -0.6667009 143.64839 -0.66808492 143.60399 -29.08345 -3.7664216
12300000000 -28.700903 3.2595305 -0.66821021 141.85564 -0.66963726 141.83473 -28.488438 -1.0777787
12400000000 -28.085773 4.4527254 -0.67170537 140.11067 -0.67498505 140.06888 -27.802145 0.24876934
12500000000 -27.391621 5.6390648 -0.67492694 138.36955 -0.67726499 138.3251 -27.27067 1.6944005
12600000000 -26.83898 7.258759 -0.6772384 136.60852 -0.67726862 136.57758 -26.621159 2.2983675
12700000000 -26.297216 7.8576837 -0.67948115 134.8689 -0.68461037 134.83218 -26.165888 3.0397859
12800000000 -25.930792 7.9008827 -0.68013984 133.12357 -0.68238497 133.08624 -25.568331 2.9055438
12900000000 -25.332899 7.8210006 -0.67969728 131.35504 -0.68325895 131.32617 -25.099968 3.8782306
13000000000 -24.951147 7.4981093 -0.6805616 129.60429 -0.6829136 129.57927 -24.608303 3.5303676
13100000000 -24.367535 8.0901079 -0.68124956 127.84402 -0.68371522 127.81072 -24.241693 3.9485047
13200000000 -24.047939 7.6219258 -0.68162507 126.07376 -0.68210059 126.0407 -23.80126 3.6219752
13300000000 -23.466719 8.8788614 -0.68061668 124.31714 -0.6831311 124.27386 -23.364393 2.9879448
13400000000 -23.115128 7.3183069 -0.67881435 122.54788 -0.68121111 122.51093 -22.788082 2.6484268
13500000000 -22.685301 7.7805409 -0.68154329 120.76028 -0.68478525 120.71848 -22.385902 2.5295639
13600000000 -22.199957 5.5597425 -0.68014258 118.96486 -0.68243313 118.94109 -21.953335 2.6371229
13700000000 -21.799688 5.6394453 -0.68697912 117.16905 -0.68779486 117.13452 -21.662371 2.1753097
13800000000 -21.233805 3.6167841 -0.69763499 115.37654 -0.69745868 115.35997 -21.276184 0.69569212
13900000000 -21.208143 2.8612585 -0.70245343 113.70081 -0.70477349 113.65536 -21.106098 -1.0305486
14000000000 -20.827497 2.5483894 -0.6970247 111.94138 -0.69978184 111.90105 -20.723862 -1.945087
14100000000 -20.70145 1.4935009 -0.6954965 110.15773 -0.69691163 110.11521 -20.473501 -2.8991847
14200000000 -20.256918 0.53090179 -0.69674295 108.37591 -0.69859111 108.33032 -20.043501 -3.1851616
14300000000 -20.020287 -1.4434634 -0.69815117 106.5924 -0.70126802 106.56611 -19.864101 -4.0757146
14400000000 -19.63073 -1.8133875 -0.69905233 104.83482 -0.70233995 104.80081 -19.57394 -4.7600846
14500000000 -19.365217 -3.2307281 -0.7032727 103.04468 -0.709203 102.99964 -19.39048 -6.4971662
14600000000 -19.131134 -3.4935472 -0.7074573 101.26154 -0.71342409 101.21791 -19.080442 -7.7011442
14700000000 -18.910269 -5.45858 -0.71584219 99.492523 -0.71922535 99.43042 -18.851152 -9.4712515
14800000000 -18.775061 -6.5197549 -0.72325408 97.73439 -0.7225787 97.689316 -18.562712 -10.460477
14900000000 -18.545208 -8.5881224 -0.72543073 95.993057 -0.7274341 95.951538 -18.41819 -11.769554
15000000000 -18.353916 -9.9290056 -0.72573483 94.239082 -0.73118985 94.171196 -18.2318 -12.712951
15100000000 -18.080475 -11.221786 -0.73126489 92.464523 -0.73420423 92.428925 -18.075869 -14.348417
15200000000 -17.930056 -12.260588 -0.73461682 90.690262 -0.73645294 90.64093 -17.85256 -15.770296
15300000000 -17.707708 -13.258492 -0.73705411 88.925171 -0.73944795 88.890373 -17.621794 -17.565712
15400000000 -17.623323 -14.681259 -0.73730779 87.17543 -0.7431438 87.101295 -17.407509 -18.696505
15500000000 -17.417681 -16.589272 -0.74443841 85.38192 -0.74746907 85.351891 -17.230125 -19.996401
15600000000 -17.266197 -18.515804 -0.74916571 83.614456 -0.75441927 83.55764 -17.13673 -21.032892
15700000000 -17.063988 -20.072775 -0.75388342 81.828995 -0.75921237 81.794189 -16.990856 -22.815882
15800000000 -16.944151 -21.625364 -0.76490593 80.101372 -0.77053154 80.057091 -16.869114 -24.4513
15900000000 -16.803621 -22.769653 -0.77071452 78.359978 -0.77485138 78.313889 -16.724792 -26.520325
16000000000 -16.799122 -24.50919 -0.77319783 76.611313 -0.77970737 76.578438 -16.58951 -27.880713
16100000000 -16.692732 -25.890041 -0.78233469 74.868019 -0.78325224 74.829781 -16.463886 -29.387043
16200000000 -16.643681 -28.317419 -0.78620589 73.142548 -0.790196 73.112595 -16.401243 -30.251171
16300000000 -16.528145 -29.466318 -0.78875238 71.414818 -0.79700041 71.351074 -16.337521 -32.288895
16400000000 -16.465771 -31.539003 -0.79521501 69.682129 -0.79783583 69.64299 -16.321615 -33.610783
16500000000 -16.501085 -31.829308 -0.79698396 67.978325 -0.8035965 67.937683 -16.258429 -35.660053
16600000000 -16.457548 -34.136242 -0.80238563 66.289307 -0.80610585 66.229767 -16.216633 -36.840637
16700000000 -16.585632 -34.864311 -0.79936284 64.583588 -0.80613923 64.530991 -16.134731 -38.421978
16800000000 -16.43449 -36.849751 -0.79635137 62.881531 -0.80404752 62.819962 -16.196796 -39.218933
16900000000 -16.502493 -37.715996 -0.79227448 61.134304 -0.79615086 61.1031 -16.149679 -40.759129
17000000000 -16.302994 -38.313686 -0.78274846 59.402122 -0.78613263 59.371319 -16.233219 -41.773438
17100000000 -16.409782 -39.280224 -0.77496773 57.64571 -0.78160322 57.589546 -16.134375 -43.279858
17200000000 -16.293352 -39.935883 -0.77302462 55.862362 -0.7730664 55.762352 -16.147871 -44.445713
17300000000 -16.286501 -42.449265 -0.77393806 54.066036 -0.77768689 54.007915 -15.950376 -45.652084
17400000000 -16.136566 -43.660042 -0.77933472 52.256847 -0.78675687 52.21233 -15.886334 -47.047699
17500000000 -16.12755 -46.772217 -0.80047727 50.475079 -0.80615324 50.47398 -15.846875 -48.691715
17600000000 -16.276348 -46.765156 -0.79441237 48.889923 -0.80021334 48.868813 -16.054798 -50.356937
17700000000 -16.196926 -48.400768 -0.78426272 47.139877 -0.78609914 47.089699 -16.065424 -51.093185
17800000000 -16.270861 -48.88715 -0.77704293 45.366493 -0.78050292 45.312584 -16.093615 -52.995724
17900000000 -16.167585 -50.699501 -0.77745098 43.566345 -0.78056335 43.536236 -15.971383 -54.362217
18000000000 -16.264711 -52.255264 -0.77883017 41.782955 -0.78393185 41.727695 -15.940692 -55.837067
18100000000 -16.148273 -53.863335 -0.77451229 40.036858 -0.78136522 39.985802 -15.857299 -56.661301
18200000000 -16.264721 -55.529785 -0.78256714 38.268574 -0.78263843 38.196014 -15.928728 -58.003731
18300000000 -16.221329 -56.566734 -0.78561336 36.501122 -0.78677332 36.467796 -15.960449 -58.911522
18400000000 -16.345209 -58.301861 -0.7905817 34.776382 -0.79295146 34.725849 -16.050726 -61.130562
18500000000 -16.357304 -59.438663 -0.78562546 33.036289 -0.79024321 33.027145 -16.138985 -62.900768
18600000000 -16.428061 -60.762047 -0.78648293 31.283974 -0.7858119 31.23258 -16.193068 -64.957642
18700000000 -16.45953 -62.299961 -0.77706367 29.543259 -0.78192866 29.482977 -16.174292 -66.058556
18800000000 -16.576387 -63.84988 -0.78151613 27.778404 -0.78226739 27.734035 -16.240591 -67.37767
18900000000 -16.599209 -64.992096 -0.776474 26.026564 -0.78127474 25.983782 -16.301302 -67.714043
19000000000 -16.758112 -66.463966 -0.77661049 24.297285 -0.77932608 24.223906 -16.52717 -69.136398
19100000000 -16.797821 -67.648529 -0.77755934 22.506517 -0.78294778 22.450914 -16.621876 -70.23951
19200000000 -17.004902 -69.476212 -0.7751537 20.740059 -0.77877045 20.713781 -16.800678 -72.388336
19300000000 -17.077154 -70.193542 -0.7767179 19.006142 -0.77730268 18.963785 -16.803034 -73.658875
19400000000 -17.2106 -72.560822 -0.77332497 17.264071 -0.77947783 17.209944 -16.934456 -75.414864
19500000000 -17.302618 -72.940651 -0.77148372 15.488535 -0.77484119 15.425386 -16.964136 -75.985954
19600000000 -17.419615 -75.070763 -0.77057576 13.727626 -0.77775782 13.679157 -17.13788 -77.662857
19700000000 -17.690523 -75.016747 -0.76788664 11.989215 -0.76923287 11.948131 -17.355947 -78.090767
19800000000 -17.754322 -77.712509 -0.76614064 10.22075 -0.76777762 10.184889 -17.538614 -80.541161
19900000000 -18.169718 -78.763748 -0.75768679 8.49436 -0.7638163 8.4200201 -17.664124 -81.249184
20000000000 -18.08197 -81.067528 -0.76044142 6.6963892 -0.76364809 6.6406827 -17.773687 -83.167519
20100000000 -18.500732 -82.49398 -0.75463885 4.9450197 -0.76032674 4.9042339 -18.009211 -83.563858
20200000000 -18.445881 -82.781555 -0.75396198 3.1469851 -0.75391698 3.09813 -18.183811 -85.035843
20300000000 -18.946896 -84.34832 -0.75602192 1.3716779 -0.75681961 1.3137003 -18.548935 -85.789734
20400000000 -19.087223 -83.853607 -0.75194389 -0.40589914 -0.75493085 -0.44527733 -18.720921 -87.930458
20500000000 -19.398829 -86.896866 -0.751369 -2.1229739 -0.7590912 -2.1983705 -19.048439 -88.752312
20600000000 -19.664434 -86.832397 -0.74551302 -3.9184334 -0.75237978 -3.9664035 -19.015865 -90.751175
20700000000 -19.804472 -90.187698 -0.74073166 -5.6243024 -0.74114549 -5.7458444 -19.362558 -90.66333
20800000000 -20.251333 -89.58139 -0.74141413 -7.4702806 -0.73946482 -7.5053296 -19.541225 -91.509354
20900000000 -20.442825 -91.198997 -0.73440623 -9.2336855 -0.73991758 -9.2741413 -20.190363 -90.94606
21000000000 -21.115889 -91.591484 -0.7313323 -11.03835 -0.73957688 -11.09034 -20.535839 -92.250443
21100000000 -21.451193 -91.342552 -0.73355776 -12.828539 -0.73715746 -12.896291 -21.142874 -93.264214
21200000000 -22.055367 -92.912773 -0.72939944 -14.626731 -0.73282838 -14.686584 -21.356472 -94.9179
21300000000 -22.337057 -92.176605 -0.73649526 -16.435656 -0.73615146 -16.503693 -21.793346 -95.742599
21400000000 -22.786737 -93.892914 -0.73103023 -18.260918 -0.73559856 -18.303911 -21.930222 -94.467484
21500000000 -23.160711 -91.939026 -0.73575711 -20.038593 -0.73822111 -20.054804 -22.407366 -93.519402
21600000000 -23.639744 -91.730881 -0.73704922 -21.800671 -0.74209064 -21.847986 -22.811512 -91.818535
21700000000 -24.216543 -90.980194 -0.73783636 -23.519817 -0.74476659 -23.565907 -23.657711 -91.040955
21800000000 -24.716082 -89.34742 -0.73168427 -25.278622 -0.73557192 -25.339016 -24.132332 -91.365814
21900000000 -25.493296 -90.075821 -0.73381001 -27.067709 -0.73495501 -27.122208 -24.967539 -91.08239
22000000000 -26.309258 -87.250572 -0.73316395 -28.861675 -0.73428333 -28.928013 -25.303747 -91.738594
22100000000 -26.674643 -87.068222 -0.7335645 -30.670189 -0.73448104 -30.737406 -25.948648 -89.441711
22200000000 -27.825193 -82.245888 -0.7325232 -32.459072 -0.73637784 -32.58168 -26.175621 -87.154129
22300000000 -27.956049 -79.141914 -0.72547269 -34.308647 -0.73829108 -34.34668 -26.888861 -80.072792
22400000000 -29.602442 -72.249771 -0.73760998 -36.066544 -0.73483938 -36.13908 -27.483475 -75.255272
22500000000 -29.167658 -65.766968 -0.740192 -37.892811 -0.74254268 -37.950348 -28.268661 -68.656387
22600000000 -30.569374 -62.639359 -0.74394804 -39.646385 -0.74591905 -39.685699 -28.558327 -66.230164
22700000000 -29.698877 -53.504959 -0.750848 -41.446953 -0.75292248 -41.489357 -29.14465 -60.723778
22800000000 -30.582115 -51.916077 -0.75524008 -43.231216 -0.7576378 -43.328659 -28.672314 -57.353077
22900000000 -29.054991 -36.374268 -0.75753212 -45.028049 -0.760616 -45.097218 -28.425253 -47.746624
23000000000 -29.798538 -34.552467 -0.76633334 -46.816681 -0.76598006 -46.845501 -27.732456 -43.170692
23100000000 -28.461756 -21.667967 -0.76005411 -48.590527 -0.75964093 -48.648022 -27.486231 -32.725887
23200000000 -28.506697 -23.776752 -0.77588123 -50.307823 -0.77014393 -50.408611 -27.136276 -30.768284
23300000000 -27.718672 -13.648791 -0.76901466 -52.109573 -0.77402437 -52.183392 -27.24992 -24.888449
23400000000 -26.963009 -19.74828 -0.78669792 -53.871593 -0.78661972 -53.931656 -26.147335 -26.527187
23500000000 -26.503469 -11.241458 -0.78700942 -55.620426 -0.78372937 -55.738228 -25.738003 -24.030273
23600000000 -25.326532 -13.093437 -0.78550231 -57.424065 -0.78917921 -57.49229 -24.418949 -24.534403
23700000000 -25.390348 -7.2763152 -0.7918663 -59.157909 -0.79662472 -59.192699 -23.918091 -19.131933
23800000000 -24.280029 -7.9731431 -0.79371655 -60.929325 -0.79900962 -60.97913 -23.273777 -18.041872
23900000000 -24.281944 -8.2029543 -0.79348844 -62.679028 -0.79577303 -62.74752 -23.258839 -13.558736
24000000000 -23.280668 -6.4612141 -0.79956788 -64.465675 -0.80294746 -64.537804 -22.861073 -15.506046
24100000000 -23.158213 -9.1999149 -0.80484569 -66.224197 -0.80946523 -66.334618 -22.88686 -16.632771
24200000000 -22.304111 -6.9328752 -0.801498 -67.981018 -0.80860108 -68.030762 -21.821865 -18.557169
24300000000 -21.89854 -8.803483 -0.80366129 -69.776497 -0.81461555 -69.82753 -21.368555 -19.460112
24400000000 -21.478739 -5.7405849 -0.80744773 -71.528778 -0.81067991 -71.570633 -20.356878 -17.804081
24500000000 -20.909128 -8.0372839 -0.8067233 -73.302414 -0.80883217 -73.329712 -20.196733 -16.355442
24600000000 -20.768211 -7.3436913 -0.81845903 -75.070206 -0.82000268 -75.111015 -19.797909 -15.300269
24700000000 -20.153326 -8.6954899 -0.80798554 -76.820831 -0.82037222 -76.891228 -19.846346 -15.620632
24800000000 -20.022175 -10.058959 -0.81151861 -78.591057 -0.82615727 -78.662529 -19.503679 -17.761362
24900000000 -19.555613 -9.9416504 -0.81572109 -80.362 -0.81551808 -80.443939 -19.245213 -20.183643
25000000000 -19.207661 -11.59566 -0.815732 -82.162338 -0.81466174 -82.24305 -18.611115 -21.467243
25100000000 -18.787546 -11.42999 -0.8193602 -83.932449 -0.81558084 -83.99556 -18.237677 -21.099287
25200000000 -18.361649 -12.709325 -0.82353616 -85.754158 -0.82707846 -85.831955 -17.766714 -21.248896
25300000000 -18.253754 -13.492371 -0.83859217 -87.417099 -0.84384602 -87.523239 -17.672684 -21.609552
25400000000 -17.995382 -14.608238 -0.83621055 -89.161369 -0.84503609 -89.277016 -17.405746 -22.984749
25500000000 -17.776379 -16.692081 -0.8419894 -90.947342 -0.84115386 -91.042114 -17.296856 -24.042393
25600000000 -17.586151 -16.346462 -0.8354907 -92.764191 -0.84118879 -92.808929 -17.093065 -25.980434
25700000000 -17.187922 -18.772322 -0.84408242 -94.535988 -0.84314376 -94.542023 -16.804918 -26.878099
25800000000 -17.156185 -18.915426 -0.84818339 -96.25621 -0.85019314 -96.309662 -16.424126 -27.775938
25900000000 -16.648029 -20.470068 -0.85287952 -98.024757 -0.85390604 -98.088959 -16.334272 -28.823112
26000000000 -16.731895 -21.648558 -0.85242528 -99.762154 -0.85407054 -99.882713 -16.044102 -29.131737
26100000000 -16.199144 -21.712431 -0.8551001 -101.56738 -0.8612116 -101.60969 -16.08046 -31.278347
26200000000 -16.312435 -24.279688 -0.85885882 -103.33928 -0.86639202 -103.38873 -15.708552 -31.612022
26300000000 -15.931396 -23.475235 -0.85816205 -105.0821 -0.86937338 -105.15218 -15.70971 -34.449272
26400000000 -15.916207 -27.717287 -0.86680001 -106.8922 -0.87922907 -106.94451 -15.310114 -34.257984
26500000000 -15.802354 -26.064589 -0.86636043 -108.58311 -0.86860275 -108.68292 -15.365305 -36.743572
26600000000 -15.459001 -29.326284 -0.87929147 -110.40708 -0.88677323 -110.47553 -15.00627 -36.967701
26700000000 -15.601604 -28.715147 -0.88109785 -112.10488 -0.8752839 -112.06554 -15.04994 -39.079433
26800000000 -15.120378 -32.390675 -0.8709529 -113.80637 -0.87144387 -113.99904 -14.846551 -39.723286
26900000000 -15.418913 -32.854271 -0.89523172 -115.6133 -0.89158922 -115.74281 -14.710005 -41.808804
27000000000 -14.83639 -33.544914 -0.90079564 -117.52667 -0.8977325 -117.52805 -14.74658 -42.235844
27100000000 -15.087115 -36.6465 -0.91302413 -118.98573 -0.90930891 -119.21341 -14.513278 -45.672287
27200000000 -14.729225 -36.270168 -0.88829434 -120.82678 -0.91125041 -120.91909 -14.474468 -45.523598
27300000000 -14.868855 -39.517365 -0.89011431 -122.617 -0.89868373 -122.69599 -14.165964 -47.79166
27400000000 -14.705893 -38.764912 -0.91022754 -124.40534 -0.90809983 -124.44019 -14.236495 -48.344505
27500000000 -14.624212 -42.639648 -0.91940069 -126.05228 -0.92258477 -126.26183 -14.089471 -50.439972
27600000000 -14.574587 -41.592831 -0.92084235 -127.85038 -0.92486179 -127.88655 -14.27565 -51.181313
27700000000 -14.375519 -45.772625 -0.90957671 -129.60669 -0.91432184 -129.662 -14.049067 -53.718212
27800000000 -14.592753 -44.5555 -0.92586702 -131.40646 -0.92807394 -131.45387 -14.074641 -55.032909
27900000000 -14.300202 -46.762421 -0.91727167 -133.1619 -0.91125041 -133.24983 -13.837503 -56.299091
28000000000 -14.688797 -48.511677 -0.90916979 -134.91562 -0.93955135 -134.91374 -13.94094 -57.330547
28100000000 -14.193192 -49.701828 -0.92080975 -136.61603 -0.92946851 -136.71432 -13.81461 -58.083191
28200000000 -14.490708 -51.164001 -0.93041962 -138.42642 -0.93006492 -138.55093 -13.898317 -59.340481
28300000000 -14.283298 -51.168453 -0.91986585 -140.23157 -0.93379283 -140.2233 -13.812759 -60.704681
28400000000 -14.276481 -52.367142 -0.94405174 -141.81554 -0.92773259 -141.9698 -14.070407 -62.229248
28500000000 -14.223277 -53.94276 -0.9437995 -143.64938 -0.92601985 -143.6284 -13.815795 -63.524891
28600000000 -14.370096 -55.647797 -0.93221468 -145.25839 -0.92072845 -145.30046 -13.822198 -64.532715
28700000000 -14.410019 -57.586651 -0.91722786 -147.06581 -0.89595801 -147.21245 -13.908613 -66.255264
28800000000 -14.449378 -59.308842 -0.94058084 -148.76408 -0.94165689 -148.99181 -14.046851 -67.812469
28900000000 -14.459853 -59.004005 -0.93320233 -150.71381 -0.91653955 -150.64371 -13.850181 -70.035614
29000000000 -14.567553 -60.442299 -0.93653852 -152.461 -0.92716628 -152.47748 -14.018725 -70.444511
29100000000 -14.370515 -59.64949 -0.92551428 -154.02531 -0.9358834 -154.42578 -13.934173 -72.121307
29200000000 -14.798224 -62.757378 -0.93126732 -155.81219 -0.96151823 -155.94666 -14.221083 -72.762817
29300000000 -14.675965 -62.389072 -0.94271201 -157.54288 -0.96058738 -157.63759 -14.037313 -73.394516
29400000000 -14.785857 -66.466843 -0.93876791 -159.2903 -0.93676364 -159.32611 -14.4487 -74.941673
29500000000 -14.81851 -64.493484 -0.9512248 -161.05589 -0.96048081 -161.07158 -14.311334 -76.833939
29600000000 -14.601456 -68.588036 -0.95574242 -162.85022 -0.9585669 -162.95674 -14.544832 -79.336937
29700000000 -14.961115 -67.091652 -0.93039334 -164.62256 -0.93528712 -164.6338 -14.36381 -79.198883
29800000000 -14.672925 -70.538803 -0.96388525 -166.14929 -0.9492296 -166.46936 -14.608298 -81.685913
29900000000 -15.30331 -70.323196 -0.92524654 -168.12231 -0.94345146 -168.24519 -14.44232 -82.094643
30000000000 -14.914255 -72.186737 -0.93674082 -169.80644 -0.94540441 -169.73244 -14.784833 -83.59906
30100000000 -15.636414 -74.308235 -0.93758655 -171.51498 -0.93443704 -171.63271 -14.828856 -83.79052
30200000000 -15.161094 -73.224312 -0.94702697 -173.11609 -0.95704293 -173.29594 -15.0793 -87.285355
30300000000 -15.620965 -77.525116 -0.9566493 -174.99648 -0.92026836 -174.96428 -15.065256 -86.515785
30400000000 -15.373363 -73.840096 -0.9434495 -176.80017 -0.96152949 -176.81441 -15.364368 -90.532547
30500000000 -15.596217 -78.916237 -0.92363107 -178.35817 -0.94149613 -178.53964 -15.450413 -89.436577
30600000000 -15.994926 -77.468964 -0.92914659 179.6615 -0.92032301 179.53369 -15.306785 -91.424782
30700000000 -15.992743 -82.017349 -0.90249723 178.07889 -0.92051536 177.8893 -15.680202 -90.200424
30800000000 -16.30271 -80.964432 -0.90844059 176.15999 -0.92571932 176.10974 -15.974247 -93.728073
30900000000 -16.011574 -82.569824 -0.91019434 174.54955 -0.92738199 174.42365 -16.106962 -93.407082
31000000000 -16.75626 -82.423386 -0.89439034 172.71359 -0.94285864 172.64955 -16.452091 -97.309029
31100000000 -16.388649 -82.615128 -0.91811973 170.87686 -0.90874153 170.94762 -16.54377 -96.405518
31200000000 -17.074974 -84.389633 -0.90622896 169.14906 -0.89140517 169.16681 -16.511154 -97.605019
31300000000 -17.340302 -83.128777 -0.89674556 167.2812 -0.90953171 167.47441 -16.923538 -96.200333
31400000000 -17.639517 -85.926628 -0.87727237 165.612 -0.90658838 165.74577 -17.320805 -98.533859
31500000000 -17.807301 -86.710342 -0.89741039 163.86002 -0.91332823 163.80745 -17.918421 -99.171684
31600000000 -18.088779 -87.510757 -0.89202309 162.06615 -0.88573486 162.12173 -18.074688 -101.91875
31700000000 -18.15745 -88.103134 -0.87188905 160.2841 -0.88302141 160.25713 -18.321518 -101.38934
31800000000 -18.638342 -86.931221 -0.90388262 158.50439 -0.89419001 158.4628 -18.645737 -102.91978
31900000000 -18.953814 -87.212234 -0.85273397 156.7513 -0.89198428 156.50937 -18.859184 -101.94197
32000000000 -19.285002 -87.170601 -0.86819237 154.907 -0.87658554 154.96367 -18.946682 -103.39651
32100000000 -19.778965 -88.376808 -0.86899072 153.19833 -0.88993925 153.10876 -19.480331 -102.77455
32200000000 -20.288574 -88.694771 -0.86801916 151.49666 -0.88855958 151.33847 -20.197283 -103.65107
32300000000 -20.380575 -88.056931 -0.87056351 149.61974 -0.88847601 149.51741 -20.761955 -103.46778
32400000000 -20.883835 -91.396606 -0.87912983 147.80582 -0.86623937 147.69725 -21.021761 -106.42947
32500000000 -21.084505 -85.288567 -0.8596974 146.01416 -0.86052418 146.00714 -21.514933 -104.90237
32600000000 -21.747641 -87.592987 -0.85570723 144.31035 -0.87464112 144.21931 -21.70735 -102.86102
32700000000 -22.176666 -82.842384 -0.84486061 142.38831 -0.86772388 142.3504 -22.494295 -100.35287
32800000000 -22.101316 -87.915375 -0.83485162 140.786 -0.85940146 140.44934 -23.240984 -97.663322
32900000000 -23.500929 -77.523552 -0.84869289 138.85585 -0.87170494 138.84419 -24.919395 -95.192711
33000000000 -22.895061 -81.324043 -0.85181957 136.87909 -0.86678356 136.77937 -24.300705 -93.506271
33100000000 -24.255753 -73.656952 -0.87214565 135.09802 -0.88448185 135.03764 -25.333944 -84.234215
33200000000 -23.493778 -74.662025 -0.84860826 133.44708 -0.88563836 133.19693 -24.916929 -86.605133
33300000000 -24.705307 -66.565697 -0.89004695 131.80923 -0.90524232 131.51791 -26.400034 -81.591652
33400000000 -23.596256 -63.940685 -0.86503309 129.85695 -0.86722857 129.55037 -25.077181 -78.102295
33500000000 -24.735796 -64.870857 -0.86791897 127.98254 -0.86214185 127.86478 -26.278467 -62.892281
33600000000 -24.223822 -53.844135 -0.8495242 126.27773 -0.88023615 126.15639 -25.552313 -59.674107
33700000000 -24.970663 -56.457672 -0.88966632 124.42235 -0.87731576 124.43952 -26.838762 -52.584141
33800000000 -23.879084 -45.879749 -0.86325485 122.6587 -0.88148665 122.52999 -25.225315 -53.353119
33900000000 -24.001062 -51.416927 -0.88315082 120.70216 -0.88824958 120.76809 -26.201424 -46.477715
34000000000 -23.547247 -38.49931 -0.85874307 119.04816 -0.87247193 118.87577 -24.36899 -43.613686
34100000000 -22.941904 -38.56292 -0.86648935 117.25053 -0.88016826 117.1369 -24.372019 -34.592945
34200000000 -23.383196 -31.40926 -0.88942647 115.54325 -0.87174064 115.47041 -24.083822 -29.497084
34300000000 -22.802572 -32.868362 -0.88064319 113.53313 -0.92037135 113.4555 -24.508795 -27.380379
34400000000 -22.500149 -26.958752 -0.88365114 112.01247 -0.91059816 111.60125 -23.336973 -29.06658
34500000000 -21.938164 -23.819817 -0.90892088 110.14151 -0.90787393 109.91438 -23.044525 -28.612232
34600000000 -21.885393 -24.131227 -0.89341563 108.21249 -0.94146979 108.22487 -21.734644 -26.08787
34700000000 -20.727432 -20.411348 -0.90816557 106.47025 -0.92012405 106.40466 -21.329079 -23.608986
34800000000 -20.418774 -21.677956 -0.91526866 104.72052 -0.90076029 104.54813 -20.769894 -21.668823
34900000000 -20.558336 -21.649891 -0.94215918 102.802 -0.92236936 102.97543 -20.529509 -21.783813
35000000000 -19.576361 -20.235363 -0.92518818 101.05077 -0.90249056 100.84246 -19.973459 -19.014738
35100000000 -19.539499 -20.999638 -0.9683556 99.396606 -0.91690367 99.080887 -19.435604 -22.023483
35200000000 -18.673399 -16.848177 -0.93478209 97.221603 -0.95023334 97.548996 -19.030714 -25.078947
35300000000 -18.360556 -21.991051 -0.93485981 95.643616 -0.96846849 95.587814 -18.236586 -25.544607
35400000000 -18.237265 -17.400494 -0.94249874 93.765953 -0.95916474 93.79763 -17.596254 -25.991888
35500000000 -17.772959 -19.357094 -1.0032263 92.209969 -1.0034788 92.200394 -17.336885 -24.673136
35600000000 -17.959013 -17.861383 -0.98529959 90.416138 -0.968804 90.195923 -17.129831 -24.791039
35700000000 -16.644318 -23.360104 -0.98097658 88.56279 -0.96748769 88.333656 -17.112972 -25.848639
35800000000 -17.170015 -23.213724 -1.0015285 86.901817 -1.0006969 86.504234 -16.32472 -27.963825
35900000000 -16.161167 -22.185673 -0.97347766 84.764305 -0.99142969 84.738602 -16.559725 -29.93424
36000000000 -16.531944 -22.954323 -1.0369174 83.176384 -1.0055476 83.081825 -15.66417 -31.241289
36100000000 -15.792275 -22.310598 -1.0267075 81.445259 -1.0509465 81.335503 -15.710883 -30.256693
36200000000 -15.955607 -26.877155 -1.0142621 80.10717 -1.063838 79.613533 -15.005244 -30.016165
36300000000 -15.547481 -24.441938 -1.0195836 78.189896 -1.0306089 77.93322 -15.129298 -32.208382
36400000000 -15.016407 -31.236002 -1.0061147 76.326088 -1.0422415 76.209259 -14.725276 -33.56332
36500000000 -15.214838 -25.06484 -1.0587256 74.590134 -1.0304291 74.524529 -14.964921 -36.873188
36600000000 -14.486183 -31.649855 -1.0363163 72.926018 -1.0872408 72.75222 -14.074717 -35.990158
36700000000 -14.923989 -29.117964 -1.0380139 70.879677 -1.0391674 71.31266 -14.000837 -38.329945
36800000000 -14.121151 -31.993782 -1.0475042 69.356361 -1.0904557 69.299805 -13.736675 -35.294193
36900000000 -14.836042 -33.834648 -1.056371 67.799416 -1.0866054 67.389931 -13.994729 -40.187176
37000000000 -13.516998 -32.840286 -1.0928847 66.015442 -1.0869535 65.804916 -13.905248 -39.058762
37100000000 -13.972446 -36.167545 -1.07336 63.994377 -1.0758842 64.117905 -13.663777 -44.368294
37200000000 -13.475906 -34.312263 -1.0736294 62.343952 -1.0340977 61.93557 -13.45119 -43.484856
37300000000 -13.808105 -37.821064 -1.1118909 60.552818 -1.0858622 60.522381 -12.961656 -46.245464
37400000000 -13.74215 -36.619823 -1.071085 59.098785 -1.0648434 58.8172 -12.951941 -44.751907
37500000000 -13.31767 -40.29253 -1.1302011 57.132038 -1.092896 57.301121 -12.983981 -45.55357
37600000000 -13.086138 -41.209209 -1.0589944 55.675232 -1.0592943 55.28759 -12.99564 -46.611908
37700000000 -12.767464 -43.781479 -1.0554397 53.681404 -1.0220716 53.666203 -13.057905 -49.665489
37800000000 -12.951353 -42.431965 -1.0755192 51.750866 -1.0830435 51.821903 -12.913049 -52.538895
37900000000 -12.930748 -42.285046 -1.1442196 50.130093 -1.0812981 50.328033 -12.747526 -54.648422
38000000000 -12.682976 -45.014206 -1.1141603 48.187073 -1.1195616 48.600681 -12.330543 -56.853378
38100000000 -12.664978 -47.680988 -1.0751889 46.330585 -1.1388247 46.744968 -12.204936 -54.44067
38200000000 -12.431332 -47.283241 -1.1111184 44.899685 -1.1122931 44.636105 -12.330143 -56.108913
38300000000 -12.555877 -50.96862 -1.1115642 43.480389 -1.1113904 43.330009 -12.417572 -58.427452
38400000000 -12.406625 -49.309834 -1.1198899 41.344818 -1.1062136 41.597729 -12.518838 -60.569874
38500000000 -12.372252 -53.162399 -1.1066047 39.888218 -1.1088824 39.512878 -12.493768 -61.241756
38600000000 -12.629576 -51.221935 -1.0501792 37.797894 -1.1069871 37.837566 -12.050362 -62.887409
38700000000 -12.160091 -55.566425 -1.1478758 36.438541 -1.2022808 36.21106 -11.912684 -64.294853
38800000000 -12.864813 -54.127048 -1.1033145 34.607262 -1.0877266 34.579868 -12.063454 -65.125038
38900000000 -11.926682 -57.684078 -1.1300641 32.619579 -1.1148974 32.84251 -12.144518 -66.136955
39000000000 -13.008308 -60.190155 -1.1268581 31.408127 -1.1299819 31.020018 -12.278039 -67.477112
39100000000 -11.934629 -57.753811 -1.0993487 29.162802 -1.1236535 29.131594 -12.04504 -71.866913
39200000000 -12.559927 -62.649357 -1.1224849 27.809589 -1.1159652 27.655451 -12.00389 -70.95739
39300000000 -12.203706 -59.735634 -1.0909481 25.591393 -1.1501631 25.835518 -11.775848 -72.882095
39400000000 -12.559885 -67.421341 -1.1088336 24.246649 -1.1525056 24.341373 -11.979678 -71.505638
39500000000 -12.64397 -62.630554 -1.1424319 22.575764 -1.157531 22.162561 -11.953475 -74.209198
39600000000 -12.343299 -68.427223 -1.1456351 20.728903 -1.133386 20.506361 -12.509097 -74.955475
39700000000 -12.932961 -65.527695 -1.1439617 18.930227 -1.1370091 18.826197 -12.393455 -77.688461
39800000000 -11.953298 -68.192825 -1.1112171 16.992161 -1.1483788 17.270063 -12.342682 -80.521957
39900000000 -12.893414 -69.19619 -1.1113174 15.349016 -1.1511537 15.456032 -12.063643 -81.985229
40000000000 -12.326644 -71.891296 -1.1065111 13.417027 -1.0813769 13.479112 -11.918782 -81.026443
40100000000 -13.138908 -75.367264 -1.156942 12.083344 -1.0930398 11.721313 -12.25591 -80.66011
40200000000 -12.53432 -71.425339 -1.053702 10.532002 -1.1082553 9.897583 -12.674449 -82.66568
40300000000 -12.871382 -76.64798 -1.1068983 8.4370918 -1.1189003 8.2955265 -12.648702 -85.06073
40400000000 -12.784041 -73.68689 -1.1301323 6.929533 -1.079548 6.8702383 -12.944107 -89.642151
40500000000 -13.161215 -78.035492 -1.144695 4.9462328 -1.134511 4.8557625 -12.939095 -90.292221
40600000000 -13.211681 -77.786392 -1.1063215 3.2199717 -1.1137962 3.191484 -12.883618 -90.507614
40700000000 -12.90694 -82.054855 -1.0940008 1.5417589 -1.1321671 1.0908129 -12.942634 -90.764091
40800000000 -13.509764 -81.735199 -1.0994986 -0.31152338 -1.0386505 -0.42368558 -13.020011 -90.260094
40900000000 -13.433652 -81.44323 -1.0217202 -2.2947471 -1.0587596 -1.5012105 -13.667507 -90.609947
41000000000 -13.417858 -83.987053 -1.08213 -3.7141085 -1.0656778 -4.0056658 -13.70749 -93.867645
41100000000 -13.532618 -82.532288 -1.1130624 -5.27705 -1.0628486 -5.5265818 -13.668063 -95.544533
41200000000 -13.900723 -86.010193 -1.0807693 -7.3846383 -1.091228 -7.3980289 -13.923823 -99.953865
41300000000 -14.292328 -85.414871 -1.0450299 -9.0839729 -1.0395104 -8.9730434 -14.048179 -96.581215
41400000000 -14.322311 -85.693611 -1.0616136 -10.75305 -1.1199421 -10.938941 -14.052241 -98.684502
41500000000 -14.871815 -89.143463 -1.0639954 -12.359233 -1.0474683 -12.5268 -14.228164 -99.03421
41600000000 -14.482533 -86.172356 -1.076808 -14.240408 -1.0741627 -14.523664 -14.78373 -99.930435
41700000000 -15.138934 -89.64724 -0.98257548 -16.107492 -1.0523583 -15.696503 -15.169583 -101.14997
41800000000 -14.90562 -87.945709 -1.0811036 -17.976904 -1.0892463 -18.041862 -15.231265 -103.01651
41900000000 -15.147904 -94.082275 -1.0093138 -19.375702 -1.072899 -20.019625 -15.747674 -105.6955
42000000000 -16.48633 -88.900574 -1.0231143 -21.227871 -1.0286989 -21.553684 -15.949428 -103.07622
42100000000 -15.685973 -96.234154 -1.0436876 -22.75355 -0.97092152 -23.440437 -15.613873 -106.84332
42200000000 -17.050571 -90.240219 -0.9689703 -24.860817 -1.0197974 -24.836948 -16.762169 -105.95637
42300000000 -15.888741 -94.98774 -1.0167654 -26.871487 -1.0252736 -26.915483 -16.698723 -106.38311
42400000000 -17.64839 -98.381416 -1.1019151 -28.943644 -0.97044861 -28.471041 -17.251961 -108.4321
42500000000 -17.179373 -89.42157 -0.99340761 -30.263636 -1.0202744 -30.384848 -17.746143 -105.42744
42600000000 -18.403826 -94.347099 -0.94877124 -32.12772 -1.0403132 -32.282246 -17.619165 -108.58108
42700000000 -19.636246 -88.948654 -1.0880395 -33.574596 -1.0120341 -34.033154 -17.387384 -104.40154
42800000000 -17.823349 -94.821289 -0.94808465 -35.623108 -0.90233088 -36.255001 -18.801552 -109.43208
42900000000 -19.712658 -89.849953 -1.0551443 -37.445732 -1.0080099 -37.777897 -19.076939 -102.69807
43000000000 -19.030071 -98.783005 -0.99641949 -39.301689 -0.93682176 -39.452145 -19.326855 -104.99556
43100000000 -21.218807 -85.228119 -0.96047634 -41.269875 -0.92997319 -41.609699 -20.952936 -99.009964
43200000000 -20.225073 -87.333481 -1.0184809 -42.446125 -0.98087472 -43.531715 -21.505306 -107.26075
43300000000 -22.416105 -86.399658 -0.98986357 -44.467403 -0.94110453 -44.636234 -21.890247 -104.29694
43400000000 -21.01877 -81.462196 -1.040997 -46.180092 -1.0052794 -46.748363 -21.170277 -102.64981
43500000000 -22.17971 -95.65667 -0.93014508 -48.291496 -1.0488786 -48.309177 -23.275194 -101.34734
43600000000 -21.400251 -62.576389 -0.93287307 -49.971497 -0.95756251 -50.517467 -21.953287 -94.14238
43700000000 -22.758577 -77.173416 -1.0484568 -52.229088 -0.99868047 -52.333191 -23.681391 -87.480324
43800000000 -21.938614 -59.896648 -0.93241841 -54.226906 -1.0255876 -54.025826 -22.293097 -80.050537
43900000000 -22.519508 -67.055267 -0.98126763 -55.67577 -0.92792523 -55.795986 -25.211203 -79.339401
44000000000 -23.257135 -63.029846 -0.98726141 -57.375782 -0.983787 -57.668846 -24.636183 -69.893692
44100000000 -21.906826 -62.798733 -1.0284517 -59.078064 -1.0757459 -59.279041 -25.66819 -67.184265
44200000000 -22.983305 -57.408253 -0.93757337 -61.09396 -1.1306891 -61.587864 -23.38763 -65.968536
44300000000 -22.113575 -42.686378 -1.0094094 -63.351925 -1.0532054 -62.798706 -24.245934 -47.63731
44400000000 -22.776133 -47.600201 -0.99792898 -64.254654 -1.0433884 -64.961433 -22.588682 -46.613827
44500000000 -20.791037 -34.364132 -0.92257327 -66.557465 -1.0014786 -66.51046 -23.129217 -45.346653
44600000000 -20.397104 -43.692181 -0.97990245 -68.059486 -1.0015152 -68.358597 -20.841698 -42.561344
44700000000 -20.877308 -28.068224 -1.0763565 -70.121223 -1.0239501 -69.948051 -22.175703 -43.643272
44800000000 -20.548578 -41.591152 -1.0016452 -71.594757 -1.0104975 -71.864395 -20.720886 -33.381535
44900000000 -20.583021 -25.286444 -1.0643396 -73.637482 -1.0923064 -73.836311 -20.302139 -39.036957
45000000000 -18.665955 -34.009609 -1.0848711 -75.314026 -1.0435799 -75.814133 -20.287909 -29.763527
