! Quiescent point : V1=-1.62488E-02 I1=+1.31091E-03 V2=-2.26468E-02 I2=-1.30280E-03
! Pulsed point : V1=-1.68574E-02 I1=+1.29097E-03 V2=-2.25594E-02 I2=-1.28256E-03
! Period : +2.00000E-04
! Input Supply timing : delay=+1.60000E-06 width=+2.20000E-06
! Output Supply timing : delay=+1.70000E-06 width=+2.00000E-06
! VNA timing : delay=+2.40000E-06 width=+1.10000E-06
# Hz S RI R 50
+2.70000E+10 +8.46610E-02 -4.49655E-02 -9.48976E-01 -2.16238E-02 -9.36494E-01 +1.77317E-02 -2.95446E-02 -1.16702E-01
+2.71000E+10 +2.13466E-02 -1.37107E-01 -1.00044E+00 +2.50699E-02 -9.39086E-01 +6.89596E-03 -1.68313E-02 -8.74251E-02
+2.72000E+10 -8.50730E-02 -1.73087E-02 -9.80747E-01 +5.28614E-02 -9.70279E-01 -3.68996E-04 +2.13700E-02 -1.42201E-01
+2.73000E+10 +4.15271E-04 -5.03115E-02 -8.89610E-01 -2.03946E-02 -9.25649E-01 +1.03366E-01 -5.15711E-03 -1.38176E-01
+2.74000E+10 +3.34721E-03 -8.59914E-02 -8.81510E-01 +5.11927E-02 -9.77090E-01 +4.76054E-02 +1.15636E-02 -9.42061E-02
+2.75000E+10 -8.87502E-02 -9.10706E-02 -9.86321E-01 +6.90278E-02 -9.59652E-01 +4.49870E-02 -1.00456E-01 -3.00942E-02
+2.76000E+10 +3.42697E-03 -7.00657E-02 -9.98243E-01 +5.45246E-02 -9.55785E-01 +5.00727E-02 +2.08623E-02 -1.13912E-01
+2.77000E+10 -4.33400E-02 -1.18356E-01 -9.92404E-01 +6.00999E-02 -9.09995E-01 +1.03465E-01 +3.15336E-02 -6.86660E-02
+2.78000E+10 -5.12401E-02 -1.17164E-01 -9.55643E-01 -1.13432E-03 -9.31289E-01 +5.51903E-02 -6.14558E-02 -1.24879E-01
+2.79000E+10 -2.03545E-02 -1.67968E-02 -9.83097E-01 +9.55383E-02 -9.32066E-01 +8.02147E-02 -5.21997E-02 -1.47466E-01
+2.80000E+10 -8.17076E-03 -9.51041E-02 -9.69531E-01 +3.41768E-02 -9.91600E-01 +9.01676E-02 +3.88744E-03 -1.64875E-01
+2.81000E+10 +9.03386E-02 -4.12370E-02 -8.62054E-01 +1.58957E-01 -8.70871E-01 +2.17908E-02 -1.86556E-02 -1.46748E-01
+2.82000E+10 -6.18608E-03 -2.30700E-01 -9.68833E-01 +9.63722E-02 -9.32634E-01 +1.66235E-01 +7.08151E-04 -1.29428E-01
+2.83000E+10 +1.09152E-01 -1.39944E-01 -8.92312E-01 +1.26015E-01 -9.38804E-01 +1.44235E-01 -5.45307E-02 -1.29456E-01
+2.84000E+10 +1.45219E-03 -8.96451E-02 -9.51764E-01 +1.20957E-01 -8.62476E-01 +1.38916E-01 -1.14708E-02 -8.70040E-02
+2.85000E+10 +5.23171E-03 -1.01961E-01 -8.77455E-01 +1.76770E-01 -9.50543E-01 +1.59739E-01 -1.81158E-02 -9.01451E-02
+2.86000E+10 +3.49434E-02 -3.07224E-02 -9.53330E-01 +1.06973E-01 -9.81790E-01 +1.78609E-01 -6.43677E-03 -1.38641E-01
+2.87000E+10 +1.81866E-02 -2.74478E-03 -9.68958E-01 +2.08357E-01 -1.00258E+00 +7.18849E-02 -3.11020E-02 -1.14720E-01
+2.88000E+10 +6.86196E-02 -8.34903E-02 -9.28723E-01 +1.68033E-01 -9.90279E-01 +2.61854E-01 +5.55265E-04 -1.44971E-01
+2.89000E+10 -3.23307E-02 -1.13161E-01 -9.06248E-01 +1.32906E-01 -1.00074E+00 +1.97290E-01 -3.25587E-03 -8.66116E-02
+2.90000E+10 +1.15953E-02 -1.20922E-01 -9.97919E-01 +2.13494E-01 -9.46856E-01 +1.56674E-01 -3.23655E-02 -1.08219E-01
+2.91000E+10 +1.24926E-02 -7.48557E-02 -8.84530E-01 +2.52790E-01 -9.04749E-01 +2.38438E-01 -4.20487E-02 -1.02406E-01
+2.92000E+10 +9.61336E-02 -1.04401E-01 -1.00517E+00 +2.95520E-01 -9.39338E-01 +1.98961E-01 -2.81506E-02 -1.04732E-01
+2.93000E+10 +1.52843E-02 -1.20276E-01 -8.95839E-01 +3.33447E-01 -9.29740E-01 +2.78063E-01 -4.90989E-02 -1.16708E-01
+2.94000E+10 +1.97675E-02 -5.83451E-02 -7.95455E-01 +2.90809E-01 -9.74824E-01 +2.49870E-01 -4.25471E-02 -9.49022E-02
+2.95000E+10 +3.54840E-02 -1.39479E-01 -9.25145E-01 +2.71830E-01 -8.71379E-01 +2.83028E-01 -1.25807E-02 -1.47118E-01
+2.96000E+10 +1.49002E-02 -2.03898E-01 -8.62077E-01 +2.41091E-01 -8.67387E-01 +2.37191E-01 -1.01164E-02 -7.96057E-02
+2.97000E+10 +8.67890E-03 -1.88241E-01 -8.71975E-01 +2.97290E-01 -9.08322E-01 +1.98087E-01 -5.00838E-02 -1.56264E-01
+2.98000E+10 +2.37266E-02 -6.80501E-02 -9.10018E-01 +2.97794E-01 -9.11611E-01 +3.01693E-01 -3.48782E-02 -8.84107E-02
+2.99000E+10 -1.52201E-02 -1.83416E-01 -9.39793E-01 +2.83945E-01 -9.15955E-01 +3.35453E-01 -3.99943E-02 -1.46455E-01
+3.00000E+10 -1.56625E-02 -5.85785E-02 -8.06514E-01 +3.82990E-01 -9.83638E-01 +3.64160E-01 +5.51923E-02 -1.03084E-01
+3.01000E+10 +4.30400E-02 -7.64552E-02 -8.57360E-01 +3.95405E-01 -9.43967E-01 +3.11004E-01 -2.91569E-02 -1.28051E-01
+3.02000E+10 -4.34494E-02 -8.62700E-02 -8.65099E-01 +3.30955E-01 -9.06437E-01 +3.28602E-01 -2.42798E-02 -9.13056E-02
+3.03000E+10 +1.32092E-02 -4.04442E-02 -9.45836E-01 +3.50454E-01 -8.70742E-01 +3.29799E-01 -9.60350E-02 -3.09767E-02
+3.04000E+10 +3.25558E-02 -7.83307E-02 -9.73913E-01 +4.04017E-01 -8.87324E-01 +4.37026E-01 -4.78286E-02 -1.20580E-01
+3.05000E+10 -2.83840E-02 -1.32399E-01 -9.32559E-01 +3.88268E-01 -8.10499E-01 +3.15953E-01 -1.00170E-01 -9.91787E-02
+3.06000E+10 -1.27049E-01 -1.55404E-01 -9.27473E-01 +3.93390E-01 -8.86918E-01 +3.64195E-01 -6.57266E-02 -4.04052E-02
+3.07000E+10 +1.48232E-01 -1.73671E-01 -9.33140E-01 +3.45701E-01 -8.50235E-01 +4.70006E-01 -9.63777E-02 -6.98235E-02
+3.08000E+10 +1.12316E-02 -1.61103E-01 -8.28999E-01 +3.68202E-01 -8.72012E-01 +4.34788E-01 +2.60469E-02 -1.96897E-01
+3.09000E+10 -7.02338E-02 -1.17410E-01 -8.16104E-01 +3.57177E-01 -8.80061E-01 +4.20344E-01 +1.18868E-02 -4.80776E-03
+3.10000E+10 +4.97491E-03 -1.89571E-02 -8.92294E-01 +4.37819E-01 -8.91557E-01 +4.46061E-01 -4.55921E-02 -9.33803E-02
+3.11000E+10 +3.13028E-02 -1.30943E-01 -7.80990E-01 +4.20167E-01 -9.22976E-01 +3.35412E-01 -8.08527E-02 -1.41457E-01
+3.12000E+10 +5.70617E-02 -7.56059E-02 -8.11828E-01 +4.90067E-01 -8.96479E-01 +4.08257E-01 -8.38709E-02 -1.40082E-01
+3.13000E+10 -2.44002E-02 -6.35094E-02 -8.15866E-01 +5.05384E-01 -8.57674E-01 +3.99421E-01 -7.96437E-02 -1.10725E-01
+3.14000E+10 +1.13594E-01 -8.71344E-02 -7.89152E-01 +4.47938E-01 -8.43294E-01 +4.42478E-01 -5.25817E-02 -1.53525E-01
+3.15000E+10 -1.49381E-01 -9.91793E-02 -8.85168E-01 +4.24825E-01 -7.60966E-01 +4.59391E-01 -3.23180E-02 -1.01189E-01
+3.16000E+10 +4.47442E-02 -1.26185E-01 -8.75565E-01 +4.75243E-01 -8.00980E-01 +5.02607E-01 -1.19051E-01 -1.52016E-01
+3.17000E+10 +4.89041E-02 -1.36640E-01 -8.02720E-01 +4.74507E-01 -8.17346E-01 +4.82178E-01 -6.55202E-02 -8.10821E-02
+3.18000E+10 +1.14956E-01 -1.65571E-01 -8.65041E-01 +5.56179E-01 -7.18873E-01 +4.14966E-01 -1.32518E-02 -1.25501E-01
+3.19000E+10 +5.81458E-02 -7.98832E-02 -7.53184E-01 +4.76278E-01 -8.61296E-01 +5.52355E-01 +6.56904E-02 -1.45719E-01
+3.20000E+10 -5.96302E-02 -1.21729E-01 -7.45750E-01 +5.82524E-01 -8.09808E-01 +4.96501E-01 -1.54510E-01 -7.75776E-02
+3.21000E+10 -8.11548E-02 -4.24784E-02 -8.09564E-01 +5.46239E-01 -8.20860E-01 +4.31013E-01 -7.03799E-02 -5.33796E-02
+3.22000E+10 -5.34421E-02 -7.40886E-02 -8.00993E-01 +5.52163E-01 -7.32143E-01 +4.78303E-01 -1.87595E-02 -1.05597E-01
+3.23000E+10 -1.14282E-03 -8.16985E-02 -8.26218E-01 +4.79548E-01 -7.86977E-01 +5.95960E-01 +4.70897E-02 -1.58240E-01
+3.24000E+10 -7.01444E-02 -1.33300E-01 -7.86964E-01 +6.10214E-01 -7.76468E-01 +5.36502E-01 -2.79125E-02 -7.83550E-02
+3.25000E+10 +4.39623E-02 -7.53256E-02 -8.63119E-01 +4.95149E-01 -7.21609E-01 +4.56979E-01 +5.48187E-02 -2.24496E-02
+3.26000E+10 +1.56046E-02 -1.47303E-01 -8.32161E-01 +6.00120E-01 -8.24856E-01 +5.08590E-01 -5.72451E-02 -9.09343E-02
+3.27000E+10 +2.59870E-02 -7.40930E-02 -7.96003E-01 +5.46051E-01 -7.88899E-01 +6.18317E-01 -8.72207E-02 -8.05433E-02
+3.28000E+10 +7.70873E-02 -9.10876E-02 -7.13433E-01 +5.60111E-01 -8.13663E-01 +5.37836E-01 -1.24196E-01 -1.44401E-01
+3.29000E+10 -6.64983E-02 -1.61828E-01 -6.30001E-01 +6.21201E-01 -8.20809E-01 +6.52701E-01 +1.29719E-01 -1.58926E-01
+3.30000E+10 -2.13575E-02 -1.16312E-02 -6.57410E-01 +5.60621E-01 -6.59537E-01 +6.61160E-01 -3.07258E-02 -4.74004E-02
+3.31000E+10 +9.39547E-02 -1.57195E-02 -7.82669E-01 +6.11559E-01 -6.79708E-01 +5.83840E-01 +3.33877E-02 -1.39268E-01
+3.32000E+10 +2.48760E-03 -2.86915E-03 -7.41043E-01 +5.65402E-01 -7.85546E-01 +5.68715E-01 -1.82085E-01 -1.92713E-01
+3.33000E+10 -4.24876E-02 -1.20319E-01 -8.00257E-01 +6.61192E-01 -6.96209E-01 +5.38533E-01 +1.73704E-03 -7.15656E-02
+3.34000E+10 -1.01245E-01 -4.65633E-02 -6.12374E-01 +6.80264E-01 -7.43394E-01 +5.44780E-01 -1.54277E-01 +2.58500E-02
+3.35000E+10 -3.29336E-02 +2.60142E-02 -7.60260E-01 +6.44454E-01 -7.96680E-01 +6.24974E-01 -2.51248E-02 -1.14426E-01
+3.36000E+10 -9.92958E-02 -1.97367E-01 -5.78549E-01 +4.92470E-01 -7.40677E-01 +6.42563E-01 -5.33045E-02 +2.34860E-02
+3.37000E+10 -1.08090E-02 -1.60494E-01 -6.03598E-01 +6.50502E-01 -5.78586E-01 +6.50871E-01 -9.99187E-02 +7.08201E-02
+3.38000E+10 +1.95755E-02 -1.91051E-01 -6.73011E-01 +7.67586E-01 -7.59104E-01 +7.69685E-01 -1.63393E-01 -1.77445E-01
+3.39000E+10 +3.92806E-02 +1.21772E-02 -7.29457E-01 +6.14830E-01 -6.92227E-01 +7.00311E-01 +7.15442E-02 -4.55210E-02
+3.40000E+10 -1.44677E-01 -8.87097E-03 -6.76425E-01 +6.70678E-01 -7.15727E-01 +6.31506E-01 +1.16081E-01 -1.12518E-01
+3.41000E+10 -5.83080E-02 -9.08627E-02 -6.65083E-01 +7.61619E-01 -6.80733E-01 +7.38512E-01 -8.87256E-02 -1.79499E-01
+3.42000E+10 -2.56235E-02 -1.17792E-01 -6.83641E-01 +7.32661E-01 -6.28345E-01 +7.71780E-01 -3.38405E-02 -5.50072E-02
+3.43000E+10 +7.13030E-02 -6.23445E-02 -6.92330E-01 +6.60719E-01 -8.03051E-01 +6.01088E-01 -9.23707E-03 -7.17730E-02
+3.44000E+10 +3.54323E-02 -1.52983E-01 -5.54119E-01 +7.34042E-01 -6.29679E-01 +6.79291E-01 -1.10423E-01 -1.83139E-02
+3.45000E+10 -3.51205E-02 -4.00021E-02 -7.09731E-01 +7.05159E-01 -6.06071E-01 +7.61615E-01 -4.67325E-02 +1.35609E-02
+3.46000E+10 -4.93818E-02 +1.79476E-02 -7.23026E-01 +8.89951E-01 -5.92946E-01 +6.56859E-01 +9.93155E-02 -4.71453E-02
+3.47000E+10 +5.02031E-02 -1.03129E-01 -5.98905E-01 +7.45018E-01 -5.83315E-01 +7.75033E-01 -1.15699E-01 -1.06224E-01
+3.48000E+10 -2.14614E-03 -1.23528E-02 -5.98695E-01 +8.15656E-01 -4.28372E-01 +6.95408E-01 -1.91548E-01 +1.38299E-02
+3.49000E+10 -3.45444E-03 -1.55705E-01 -5.78881E-01 +6.61825E-01 -5.30273E-01 +6.81325E-01 +1.10777E-02 +4.72084E-02
+3.50000E+10 +1.50004E-02 -2.32751E-01 -5.42698E-01 +7.65822E-01 -5.49954E-01 +7.28305E-01 -3.47534E-03 -8.12171E-02
+3.51000E+10 +1.58498E-02 -1.46147E-01 -6.44911E-01 +6.41310E-01 -5.85590E-01 +7.61923E-01 -5.55924E-02 -1.16603E-01
+3.52000E+10 -1.06754E-01 -1.78970E-01 -5.30961E-01 +8.26006E-01 -3.83076E-01 +7.57346E-01 -2.78520E-02 -1.16664E-01
+3.53000E+10 -2.56530E-02 -1.40200E-01 -6.74036E-01 +7.10406E-01 -5.67729E-01 +7.17627E-01 -5.76020E-02 -7.24902E-02
+3.54000E+10 -2.90175E-02 +3.75575E-02 -5.71157E-01 +7.21858E-01 -5.09272E-01 +7.48593E-01 -6.85158E-02 -3.78276E-02
+3.55000E+10 -9.55212E-02 -1.83203E-01 -5.62784E-01 +7.84810E-01 -4.22475E-01 +8.06324E-01 +2.20409E-02 -1.59865E-01
+3.56000E+10 +1.15048E-02 +8.33740E-02 -5.26425E-01 +7.49694E-01 -5.32755E-01 +6.58689E-01 -7.03526E-02 -7.58515E-02
+3.57000E+10 -6.89483E-03 -7.70819E-02 -3.39737E-01 +8.45299E-01 -6.00353E-01 +8.02812E-01 -1.47359E-02 -1.53435E-01
+3.58000E+10 -1.56799E-02 -1.27953E-01 -4.99110E-01 +7.46298E-01 -4.65432E-01 +7.35855E-01 +6.67026E-02 +1.76727E-03
+3.59000E+10 -1.23856E-01 -2.00011E-01 -4.54606E-01 +9.05429E-01 -5.43254E-01 +7.10397E-01 -3.47958E-02 -8.38795E-02
+3.60000E+10 -9.91180E-02 -1.70619E-01 -3.44996E-01 +9.08748E-01 -5.80325E-01 +7.98707E-01 -1.07248E-01 -2.01522E-01
+3.61000E+10 -4.29764E-02 -7.31902E-02 -5.23873E-01 +8.48592E-01 -4.97304E-01 +9.82009E-01 -2.22012E-02 -7.95276E-02
+3.62000E+10 -1.83144E-02 +1.33813E-02 -4.13851E-01 +7.78787E-01 -3.15222E-01 +9.09560E-01 -1.45234E-01 -5.94483E-02
+3.63000E+10 -9.62901E-02 -3.82975E-02 -5.40468E-01 +9.38924E-01 -4.12426E-01 +9.51655E-01 -1.00428E-01 -9.87042E-02
+3.64000E+10 -2.22787E-01 -9.24735E-02 -3.99204E-01 +7.57949E-01 -4.65456E-01 +8.88642E-01 +4.25318E-02 -7.12996E-02
+3.65000E+10 +2.29372E-02 -3.81419E-02 -5.38379E-01 +7.78099E-01 -4.18818E-01 +8.38045E-01 -9.79622E-02 -8.60670E-02
+3.66000E+10 +8.25821E-02 -1.29933E-01 -3.24691E-01 +8.70696E-01 -5.01653E-01 +7.53061E-01 -2.07670E-02 +5.46578E-02
+3.67000E+10 -8.68513E-02 -1.53201E-01 -5.68280E-01 +9.69423E-01 -3.32192E-01 +9.43700E-01 +6.06461E-02 -2.01240E-01
+3.68000E+10 -6.12818E-02 -1.02545E-02 -4.39726E-01 +9.01271E-01 -4.55299E-01 +7.58283E-01 +8.73754E-02 -1.07065E-01
+3.69000E+10 -7.36847E-02 -4.34722E-02 -4.51723E-01 +7.59582E-01 -4.81001E-01 +9.42400E-01 -1.01285E-01 -1.14759E-01
+3.70000E+10 +6.98867E-02 -2.44975E-01 -4.28874E-01 +8.43639E-01 -4.83788E-01 +9.64202E-01 -1.45497E-01 -2.72595E-02
+3.71000E+10 -1.40387E-01 -1.83454E-01 -3.06250E-01 +8.79494E-01 -3.90380E-01 +7.98701E-01 -1.81919E-01 -4.22848E-02
+3.72000E+10 +9.43713E-02 -6.34437E-02 -5.08018E-01 +9.59830E-01 -4.78224E-01 +8.42844E-01 -2.88180E-02 -2.31769E-02
+3.73000E+10 -1.64605E-01 -1.51810E-02 -3.01801E-01 +8.55334E-01 -3.28659E-01 +8.38012E-01 -9.57171E-02 -3.02664E-03
+3.74000E+10 -1.78181E-02 -9.88403E-02 -3.43362E-01 +1.02880E+00 -4.72363E-01 +9.97019E-01 -1.28142E-02 -8.41650E-02
+3.75000E+10 -1.07033E-01 -5.57794E-02 -3.53370E-01 +7.71038E-01 -3.82313E-01 +8.05057E-01 -8.59203E-02 +1.68854E-01
+3.76000E+10 -1.45665E-01 -1.49434E-01 -3.50562E-01 +8.65608E-01 -3.03005E-01 +7.75941E-01 -1.30941E-02 -7.85778E-02
+3.77000E+10 -1.22334E-01 -2.63734E-01 -3.74046E-01 +8.68617E-01 -3.44689E-01 +8.11563E-01 -2.44959E-01 -2.49940E-01
+3.78000E+10 -5.90936E-02 -9.27548E-02 -4.15453E-01 +1.03250E+00 -3.93196E-01 +9.71883E-01 +1.10115E-01 -8.02082E-02
+3.79000E+10 -1.95422E-02 -1.23033E-01 -4.17407E-01 +1.09766E+00 -2.13969E-01 +1.03071E+00 +1.03382E-01 -1.61639E-01
+3.80000E+10 -4.48490E-02 -9.80735E-02 -2.89909E-01 +9.88235E-01 -2.11439E-01 +8.17308E-01 +1.58946E-01 +3.01546E-02
+3.81000E+10 +2.70059E-02 -7.42379E-02 -2.21321E-01 +7.43388E-01 -2.80900E-01 +9.89853E-01 -7.11797E-02 -1.60012E-01
+3.82000E+10 -3.34573E-03 -1.07465E-01 -2.69993E-01 +1.03853E+00 -4.11821E-01 +9.29894E-01 -5.19796E-02 +7.81666E-02
+3.83000E+10 -1.31350E-01 -5.48984E-02 -1.28264E-01 +9.29063E-01 -2.46653E-01 +7.56997E-01 +6.74474E-02 -7.20736E-02
+3.84000E+10 -7.28690E-02 +5.61925E-03 -1.44395E-01 +9.71335E-01 -1.95807E-01 +7.99235E-01 -2.52578E-03 -2.81907E-01
+3.85000E+10 -6.10527E-02 +1.18695E-01 -1.33431E-01 +1.00806E+00 -2.71627E-01 +8.55333E-01 -1.13446E-01 +2.66560E-02
+3.86000E+10 -5.08520E-02 -2.39336E-01 -1.36342E-01 +8.35073E-01 -2.52262E-01 +1.07442E+00 +3.66815E-02 -6.44419E-02
+3.87000E+10 +2.44289E-02 -1.13810E-01 -1.39159E-01 +9.68193E-01 -2.27462E-01 +1.00639E+00 -6.68693E-03 +2.89359E-02
+3.88000E+10 -2.38525E-02 -1.50226E-02 +3.47872E-03 +9.50815E-01 -2.19802E-01 +8.97884E-01 -7.47744E-02 -1.93643E-01
+3.89000E+10 -3.26007E-01 -1.07057E-01 -1.67643E-01 +9.40313E-01 -2.78850E-01 +8.66581E-01 +1.57371E-02 -1.75820E-01
+3.90000E+10 +4.78620E-03 -1.58024E-01 -8.68705E-02 +9.28945E-01 -1.37266E-01 +1.04321E+00 +2.70453E-02 -4.81086E-02
+3.91000E+10 -2.66268E-01 +1.71119E-03 -6.19454E-02 +8.20254E-01 +1.13633E-01 +8.51416E-01 -1.06998E-01 +5.78947E-02
+3.92000E+10 +7.90586E-02 -1.60493E-01 -2.52617E-01 +1.07832E+00 -2.46847E-01 +9.07537E-01 -2.65685E-01 +5.78721E-03
+3.93000E+10 +5.09348E-02 -4.35240E-02 -3.35907E-01 +8.95585E-01 -8.39542E-02 +1.01702E+00 +1.86751E-01 +7.92126E-02
+3.94000E+10 -2.28432E-01 -1.87849E-01 -1.11729E-01 +7.50032E-01 -1.61765E-02 +1.00266E+00 -6.91054E-02 -2.53558E-01
+3.95000E+10 -3.60214E-02 -2.81227E-01 -2.63999E-01 +9.07770E-01 -1.10867E-01 +8.68183E-01 +2.36792E-01 -1.18097E-01
+3.96000E+10 +1.09462E-01 -6.13137E-02 -2.20377E-01 +9.86326E-01 -1.37999E-01 +1.10259E+00 -1.20534E-01 -2.83459E-01
+3.97000E+10 -8.12264E-02 -1.92972E-02 -1.63677E-01 +9.33985E-01 +2.04930E-01 +9.63911E-01 -4.33898E-02 +2.64125E-01
+3.98000E+10 -1.60609E-01 -1.25912E-01 -1.30953E-02 +7.92745E-01 -1.29267E-01 +9.42554E-01 -2.52271E-01 +2.18091E-02
+3.99000E+10 -1.13611E-01 -6.03087E-02 +1.29054E-02 +8.68868E-01 +7.36257E-02 +9.52875E-01 +2.93280E-02 +4.39406E-02
+4.00000E+10 +1.13613E-01 -8.84262E-02 -4.94339E-02 +9.79808E-01 -1.64105E-01 +7.98342E-01 -8.42053E-02 -9.09121E-02
