!Keysight Technologies,N5247B,MY61255062,A.19.80.06
!Date: Tuesday, May 26, 2026 11:58:19
!Correction: S11(C  2-Port  ) 
!S21(C  2-Port  ) 
!S12(C  2-Port  ) 
!S22(C  2-Port  ) 
!S2P File: Measurements: S11, S21, S12, S22:
# Hz S  dB   R 50
1000000000 -37.553883 12.988303 -0.072042629 -7.026792 -0.070961051 -7.0450397 -42.664551 29.386789
1027500000 -38.023876 9.9359789 -0.072682224 -7.2337022 -0.073036015 -7.2320023 -43.046528 27.000378
1055000000 -37.812626 11.283299 -0.075306609 -7.4181628 -0.07678552 -7.4130573 -43.096851 27.341412
1082500000 -37.830914 12.787344 -0.077455595 -7.6089325 -0.078019828 -7.6122298 -42.881668 30.089638
1110000000 -38.205208 12.908543 -0.082369559 -7.7911782 -0.083176382 -7.7946067 -43.486801 32.395794
1137500000 -37.817078 11.175316 -0.08471974 -7.9573488 -0.08217407 -7.9457145 -43.076759 38.722012
1165000000 -37.070438 13.322512 -0.082314417 -8.1210194 -0.08012981 -8.1343393 -42.131104 39.090504
1192500000 -36.833172 11.177238 -0.082192801 -8.3245659 -0.081518039 -8.3300724 -42.318462 40.958035
1220000000 -36.830261 11.466916 -0.082496457 -8.5104837 -0.084236458 -8.5209961 -42.18301 37.905628
1247500000 -36.795853 14.12253 -0.084747717 -8.7007179 -0.084636331 -8.697649 -41.351383 35.884457
1275000000 -36.780117 14.054564 -0.084422 -8.9042454 -0.084444441 -8.8813553 -41.452747 35.048626
1302500000 -36.98143 13.403697 -0.086475685 -9.0764456 -0.085178524 -9.078414 -41.950169 32.806095
1330000000 -37.237797 14.714015 -0.087098926 -9.2738533 -0.086194463 -9.2743635 -41.676861 32.972839
1357500000 -37.260551 14.574553 -0.089661747 -9.4479055 -0.08630906 -9.4522762 -41.670959 35.793575
1385000000 -37.168907 12.148161 -0.08800859 -9.6337557 -0.089322984 -9.6401854 -42.03561 35.528118
1412500000 -37.352093 13.459524 -0.089225218 -9.8272448 -0.087690294 -9.8229456 -41.25095 34.374233
1440000000 -37.439705 13.157861 -0.089962751 -10.0097 -0.089217022 -10.004972 -40.940704 35.900494
1467500000 -37.327965 8.4492893 -0.091168292 -10.192713 -0.089824803 -10.191528 -41.662033 36.234409
1495000000 -37.137402 9.47929 -0.092165269 -10.380857 -0.090945713 -10.379114 -41.269657 37.696835
1522500000 -36.997292 11.371691 -0.093679562 -10.566516 -0.092618495 -10.557429 -40.594543 37.65147
1550000000 -36.697952 10.664738 -0.095759854 -10.752403 -0.09228532 -10.746366 -40.995129 36.012646
1577500000 -36.741882 10.621367 -0.094660714 -10.926024 -0.093549423 -10.928089 -41.203342 36.341618
1605000000 -36.671188 13.088075 -0.095082976 -11.114273 -0.094885603 -11.11597 -40.729912 36.463955
1632500000 -36.693005 13.277031 -0.095417701 -11.294021 -0.096036136 -11.300253 -40.804535 35.638184
1660000000 -36.671741 12.402069 -0.095455535 -11.477098 -0.094660982 -11.484819 -41.172874 33.749619
1687500000 -36.451645 12.946644 -0.096836507 -11.659583 -0.094896451 -11.658468 -40.451767 37.301159
1715000000 -36.586864 11.949023 -0.096845768 -11.844528 -0.096518613 -11.851249 -40.185074 37.175713
1742500000 -36.33876 10.854796 -0.096213721 -12.027541 -0.094799615 -12.031643 -40.506794 35.844585
1770000000 -36.174461 10.54402 -0.096357696 -12.214332 -0.095756941 -12.224084 -40.067051 38.686985
1797500000 -36.035057 11.697223 -0.097757213 -12.399825 -0.094184794 -12.398882 -39.602646 38.47139
1825000000 -35.966614 10.847671 -0.09685 -12.585326 -0.096326202 -12.587623 -39.777851 36.879486
1852500000 -35.882393 10.849982 -0.096436299 -12.776685 -0.095793992 -12.772262 -39.671257 36.204884
1880000000 -35.732525 12.905508 -0.095480144 -12.957081 -0.09696012 -12.962119 -39.365772 36.892281
1907500000 -35.799408 11.901155 -0.096687481 -13.142007 -0.096178785 -13.141529 -39.21682 34.790787
1935000000 -35.345844 11.106634 -0.096229859 -13.334474 -0.09685874 -13.335176 -39.345276 36.11964
1962500000 -35.423992 13.867134 -0.096705213 -13.520295 -0.096240446 -13.524739 -38.930084 34.724167
1990000000 -35.695293 11.779186 -0.09728916 -13.705423 -0.097776011 -13.70976 -39.101398 33.687233
2017500000 -35.617493 11.092219 -0.097453557 -13.89507 -0.098168135 -13.893078 -39.08643 32.897705
2045000000 -35.493622 11.553192 -0.098140858 -14.076224 -0.09767276 -14.076242 -38.839874 33.505001
2072500000 -35.63826 11.293874 -0.098500967 -14.265271 -0.097885355 -14.277493 -39.107922 33.005257
2100000000 -35.432545 10.105711 -0.097803019 -14.456751 -0.097100683 -14.450442 -38.793747 32.100475
2127500000 -35.480713 11.229024 -0.097786605 -14.643241 -0.098127358 -14.637611 -38.75489 31.992617
2155000000 -35.6959 10.503457 -0.10004263 -14.826507 -0.098066986 -14.827772 -38.725636 30.498737
2182500000 -35.435787 8.9008837 -0.098212086 -15.009645 -0.097341835 -15.022965 -38.69796 31.816204
2210000000 -35.209534 9.9782495 -0.099191085 -15.19878 -0.099003322 -15.207106 -38.67532 32.259003
2237500000 -35.578789 9.6982574 -0.098707251 -15.387508 -0.09920539 -15.400883 -38.65966 30.573053
2265000000 -35.306725 7.2620382 -0.099220753 -15.579421 -0.099305235 -15.582952 -38.769756 31.358526
2292500000 -34.914185 8.2417383 -0.1005441 -15.763754 -0.099848203 -15.768351 -38.378048 30.663828
2320000000 -35.207588 8.7646379 -0.10267036 -15.951248 -0.10259694 -15.956531 -38.515144 29.516342
2347500000 -35.082485 6.4826212 -0.10225213 -16.14827 -0.10207615 -16.144337 -38.656944 29.480658
2375000000 -34.639259 6.4415617 -0.10191821 -16.331532 -0.10242678 -16.334047 -38.365215 31.425232
2402500000 -34.84314 8.701973 -0.10258051 -16.510252 -0.10239895 -16.529476 -38.119492 28.725636
2430000000 -35.219841 6.7053084 -0.10437657 -16.701218 -0.10210398 -16.71373 -38.403095 28.573896
2457500000 -34.738003 5.9165125 -0.10381633 -16.899284 -0.10331024 -16.88538 -38.074924 30.31743
2485000000 -34.756374 8.2085581 -0.10487112 -17.074368 -0.10427687 -17.078373 -37.966503 27.800526
2512500000 -34.973919 8.0544491 -0.10496897 -17.268799 -0.10522436 -17.257601 -38.036797 28.345581
2540000000 -34.700253 5.0767231 -0.10365514 -17.445204 -0.10617895 -17.454401 -37.730286 29.491684
2567500000 -34.63026 6.8520494 -0.10675382 -17.630215 -0.10542778 -17.630211 -37.874371 27.831829
2595000000 -34.881073 8.421793 -0.10706662 -17.80385 -0.10578955 -17.811792 -37.799885 27.266224
2622500000 -34.854053 6.6222205 -0.10795394 -18.000898 -0.10558585 -18.00423 -37.491028 27.674248
2650000000 -34.769405 4.3184328 -0.10722423 -18.18829 -0.10763551 -18.182026 -37.669476 26.316679
2677500000 -34.807762 6.605114 -0.10607364 -18.364859 -0.10701939 -18.375975 -37.780544 26.792652
2705000000 -34.749203 6.8018112 -0.10798977 -18.557682 -0.10662489 -18.557207 -37.649731 26.397823
2732500000 -34.696125 4.4509354 -0.10710164 -18.744459 -0.104725 -18.740427 -37.354984 28.146925
2760000000 -34.622864 4.7259302 -0.10802082 -18.939377 -0.10542141 -18.944553 -37.759888 25.566154
2787500000 -34.716064 6.2609496 -0.10794917 -19.120634 -0.10816678 -19.129047 -37.581535 23.654968
2815000000 -34.56683 5.4595075 -0.1090315 -19.324127 -0.10733885 -19.322247 -37.480076 25.364449
2842500000 -34.853455 3.417583 -0.1076294 -19.505224 -0.10848632 -19.510946 -37.635361 24.971218
2870000000 -34.499222 4.3464298 -0.10993329 -19.682489 -0.11009817 -19.698971 -37.686546 24.102587
2897500000 -34.527351 4.9076824 -0.11124185 -19.887341 -0.10812299 -19.890574 -37.415737 23.544434
2925000000 -34.63829 3.088402 -0.11084032 -20.068068 -0.11051397 -20.076508 -37.376537 23.583706
2952500000 -34.545143 1.8593434 -0.11103258 -20.258434 -0.11106604 -20.259947 -37.847977 22.968657
2980000000 -34.060425 3.5656466 -0.11260925 -20.448778 -0.11118954 -20.439135 -37.624706 23.81978
3007500000 -34.262901 3.2416382 -0.11345812 -20.634544 -0.11123176 -20.623573 -37.110947 24.424467
3035000000 -34.561275 2.4282823 -0.11478901 -20.808504 -0.11265521 -20.806532 -37.623909 23.246866
3062500000 -33.986576 4.7144618 -0.11460933 -20.984592 -0.11384235 -21.008089 -37.946278 22.994862
3090000000 -34.119324 4.3129425 -0.1145001 -21.173304 -0.1144674 -21.181446 -37.161808 24.250004
3117500000 -34.444992 2.8261561 -0.11434728 -21.362474 -0.11752886 -21.373636 -37.625744 23.023102
3145000000 -34.302803 3.4811873 -0.11569067 -21.554628 -0.11514146 -21.563097 -37.845612 23.303185
3172500000 -33.92897 4.6988587 -0.11676376 -21.731209 -0.11632849 -21.741159 -37.041611 23.1231
3200000000 -34.339096 1.9903125 -0.11865269 -21.917284 -0.11740334 -21.926834 -36.898441 23.691637
3227500000 -34.211761 3.6746161 -0.11844147 -22.105036 -0.11801826 -22.106863 -37.407852 24.151369
3255000000 -33.794117 4.5054617 -0.11893203 -22.276592 -0.11989284 -22.278656 -37.173664 23.194033
3282500000 -34.253639 2.5241354 -0.12051743 -22.47003 -0.11978187 -22.47444 -36.583961 23.121441
3310000000 -34.196178 3.1824524 -0.11963286 -22.649103 -0.11865881 -22.655632 -37.256077 25.339621
3337500000 -33.841534 4.6290035 -0.12115861 -22.833679 -0.11936465 -22.83243 -37.402588 21.986483
3365000000 -34.406658 2.6264155 -0.12168782 -23.009035 -0.12293468 -23.015444 -36.531361 20.727343
3392500000 -34.291615 3.4186423 -0.12175198 -23.199713 -0.12140884 -23.193918 -36.755653 24.393385
3420000000 -33.871937 4.3480711 -0.11956793 -23.377316 -0.12101781 -23.378439 -37.463673 22.951605
3447500000 -34.151619 3.4687376 -0.11947081 -23.55793 -0.12035082 -23.554262 -36.914215 20.583237
3475000000 -34.52483 2.1621726 -0.11907065 -23.739582 -0.11779802 -23.750799 -36.283169 21.618204
3502500000 -34.014229 2.7007439 -0.11892618 -23.927593 -0.11900387 -23.941624 -36.962894 24.866625
3530000000 -34.06913 3.6582818 -0.11688928 -24.112263 -0.11900387 -24.121256 -37.084068 22.509912
3557500000 -34.243999 3.0818746 -0.11813583 -24.311497 -0.11923454 -24.304054 -36.353302 19.620447
3585000000 -33.960098 1.4351995 -0.11991412 -24.491415 -0.12019248 -24.495045 -36.368298 24.288532
3612500000 -33.926262 4.0357995 -0.11919596 -24.6915 -0.1180039 -24.696136 -36.9342 25.177053
3640000000 -34.065937 3.7057371 -0.11909938 -24.862843 -0.11975899 -24.874029 -36.744881 19.101124
3667500000 -33.950573 -0.6282652 -0.12053952 -25.064383 -0.12088632 -25.064003 -36.24403 20.828932
3695000000 -33.839951 4.0982866 -0.11923853 -25.235418 -0.12251636 -25.254959 -36.631733 23.201551
3722500000 -33.868305 3.4310057 -0.12102366 -25.421326 -0.12103058 -25.430267 -36.507126 22.65942
3750000000 -34.238411 -1.6223502 -0.12178472 -25.616421 -0.12254325 -25.624866 -35.947285 20.561735
3777500000 -33.556488 1.6790076 -0.12511243 -25.792854 -0.12290166 -25.812586 -36.195271 21.852642
3805000000 -33.614288 4.0227671 -0.12357623 -26.002922 -0.12489237 -26.005951 -36.463337 21.871237
3832500000 -34.234127 -0.29550287 -0.12438862 -26.178869 -0.12361485 -26.188339 -35.999302 20.730152
3860000000 -33.614639 -1.6434406 -0.12545401 -26.354919 -0.12389557 -26.357428 -35.933514 20.317888
3887500000 -33.342079 4.8141928 -0.12856509 -26.540157 -0.12707856 -26.554363 -36.18293 22.00099
3915000000 -34.157005 0.85451013 -0.12505542 -26.719952 -0.12586622 -26.730917 -35.807255 20.86058
3942500000 -34.06065 -3.739953 -0.12623397 -26.888969 -0.127009 -26.902117 -35.73674 18.592192
3970000000 -33.089893 2.0415976 -0.12864374 -27.082443 -0.1279404 -27.083494 -36.090137 22.373344
3997500000 -33.771267 4.3031306 -0.12904052 -27.261852 -0.12676512 -27.26812 -35.768997 20.828766
4025000000 -34.361076 -2.8275418 -0.12720518 -27.448204 -0.125227 -27.44734 -35.711819 17.050293
4052500000 -33.214294 -1.9597116 -0.12525497 -27.610819 -0.1253437 -27.628439 -36.077892 20.491501
4080000000 -33.164623 3.5780058 -0.12725715 -27.797075 -0.12600158 -27.810257 -35.645454 21.450939
4107500000 -34.28722 -1.3392482 -0.12516253 -27.99152 -0.12320898 -28.007832 -35.728371 15.637219
4135000000 -33.784306 -4.3548307 -0.12324493 -28.173616 -0.12263379 -28.194073 -36.155857 20.3202
4162500000 -33.027252 0.34179044 -0.12322655 -28.370405 -0.12360925 -28.373878 -35.642803 21.252041
4190000000 -33.855568 0.79736918 -0.12300658 -28.563215 -0.12300286 -28.567303 -35.566246 16.005287
4217500000 -34.086376 -3.9876544 -0.12230415 -28.74897 -0.12126935 -28.770636 -35.734219 18.022436
4245000000 -33.078648 -2.8586476 -0.12332615 -28.936909 -0.12406577 -28.955214 -35.43425 20.415384
4272500000 -33.217445 0.029675091 -0.12342043 -29.133141 -0.12329792 -29.140553 -35.445381 17.632397
4300000000 -33.82069 -3.4916883 -0.12339646 -29.32218 -0.12378024 -29.339962 -35.597576 17.418056
4327500000 -33.330704 -3.8797593 -0.12413823 -29.507664 -0.12305665 -29.516684 -35.344566 18.952435
4355000000 -32.969994 -2.1398625 -0.12639253 -29.698997 -0.12444615 -29.711481 -35.403336 17.894239
4382500000 -33.439232 -2.9954762 -0.12588833 -29.894062 -0.12653059 -29.903904 -35.424232 17.20886
4410000000 -33.469555 -4.0356045 -0.12548065 -30.074198 -0.12609512 -30.091091 -35.388161 17.997852
4437500000 -32.983292 -4.1246433 -0.12820406 -30.265364 -0.12577109 -30.265133 -35.257843 18.481487
4465000000 -33.050385 -3.5607522 -0.12941921 -30.456808 -0.1255105 -30.458389 -35.112564 17.15917
4492500000 -33.328785 -3.4767916 -0.12823287 -30.643633 -0.12734912 -30.639017 -35.081055 17.301889
4520000000 -33.039631 -4.248466 -0.12993261 -30.815184 -0.12866187 -30.82905 -35.183094 19.405773
4547500000 -32.884869 -3.8527873 -0.12796092 -31.004395 -0.12715399 -31.011131 -34.934086 16.463274
4575000000 -33.118698 -4.759336 -0.13003184 -31.18742 -0.12845282 -31.191534 -34.84824 17.504847
4602500000 -32.966831 -4.2056475 -0.13118371 -31.379498 -0.12944934 -31.394276 -35.065834 17.974068
4630000000 -32.83287 -5.5104804 -0.13104606 -31.563789 -0.13093454 -31.581877 -34.880764 16.724882
4657500000 -32.863945 -5.583992 -0.12978698 -31.757795 -0.1322481 -31.757191 -34.691612 16.248875
4685000000 -32.881962 -4.81177 -0.13175523 -31.945086 -0.13047302 -31.952148 -34.945961 16.89674
4712500000 -32.73666 -4.9602928 -0.13166398 -32.1241 -0.13039699 -32.124046 -34.698475 16.506426
4740000000 -32.776409 -6.4120622 -0.13203222 -32.307396 -0.1322481 -32.329422 -34.678951 14.780705
4767500000 -32.778606 -6.0680051 -0.13136914 -32.495724 -0.13157006 -32.506317 -34.653118 15.744699
4795000000 -32.785294 -5.6069121 -0.13426206 -32.688 -0.13317154 -32.689053 -34.780437 15.524462
4822500000 -32.577518 -6.9113035 -0.13318036 -32.868767 -0.13324068 -32.877697 -34.477528 14.792009
4850000000 -32.707363 -7.9274464 -0.13206798 -33.046993 -0.13387415 -33.059052 -34.635139 15.15101
4877500000 -32.592468 -7.1100221 -0.13388455 -33.234821 -0.13341632 -33.247768 -34.782742 15.656079
4905000000 -32.424335 -8.0676508 -0.13432774 -33.424644 -0.13372491 -33.439415 -34.406631 14.736352
4932500000 -32.497829 -7.5744543 -0.1346727 -33.620071 -0.1339844 -33.615578 -34.480057 14.153462
4960000000 -32.466511 -8.0525389 -0.13505615 -33.801708 -0.13417208 -33.805416 -34.668404 15.439636
4987500000 -32.278088 -7.355587 -0.13361385 -33.981667 -0.1352842 -33.987946 -34.305164 13.466775
5015000000 -32.245422 -8.2960939 -0.13612255 -34.168449 -0.13665012 -34.176754 -34.129513 13.828164
5042500000 -32.440197 -8.1696701 -0.13597271 -34.354534 -0.13676152 -34.3731 -34.462616 14.988395
5070000000 -32.380997 -8.0299845 -0.13659027 -34.540894 -0.13742113 -34.548801 -34.117989 13.303602
5097500000 -32.144608 -8.6300144 -0.13688786 -34.722092 -0.13749942 -34.740181 -34.004524 11.967626
5125000000 -32.475384 -8.8044634 -0.13745052 -34.918331 -0.13617945 -34.918015 -34.406731 13.893736
5152500000 -32.378601 -9.2005548 -0.13655715 -35.099323 -0.1382468 -35.100014 -34.16312 12.957054
5180000000 -32.095188 -9.3317795 -0.13621658 -35.292175 -0.137528 -35.281281 -33.840126 11.003102
5207500000 -32.33873 -9.5963545 -0.1372894 -35.473545 -0.1404932 -35.478065 -33.978977 12.638451
5235000000 -32.332027 -9.9774361 -0.13877702 -35.643066 -0.13840233 -35.659622 -34.078259 12.779908
5262500000 -32.00288 -9.5531368 -0.1402221 -35.839989 -0.13986973 -35.839134 -33.884304 10.157372
5290000000 -32.123207 -9.4035645 -0.14048785 -36.019524 -0.13916858 -36.03059 -33.875771 11.27629
5317500000 -32.372341 -9.7201376 -0.13975318 -36.196484 -0.1392739 -36.23027 -34.086384 12.379086
5345000000 -31.932852 -10.440328 -0.13900527 -36.383919 -0.13968155 -36.409607 -33.828239 9.5122147
5372500000 -31.973215 -9.6941328 -0.13968903 -36.574238 -0.14187118 -36.589607 -33.720863 10.22826
5400000000 -32.361649 -11.140028 -0.13974731 -36.754929 -0.14016381 -36.771244 -34.011135 11.156159
5427500000 -31.908831 -11.275297 -0.13978553 -36.924137 -0.14082716 -36.953121 -33.889061 9.4329281
5455000000 -31.921652 -10.13639 -0.14062797 -37.138332 -0.1413379 -37.144131 -33.568054 8.4623461
5482500000 -32.212299 -12.020323 -0.1425027 -37.307877 -0.13989888 -37.342239 -33.760265 10.90049
5510000000 -31.925816 -11.548706 -0.14248931 -37.48764 -0.14085737 -37.514313 -33.986572 9.8043623
5537500000 -31.833431 -10.679547 -0.14142215 -37.680885 -0.1415104 -37.706478 -33.657925 7.6564655
5565000000 -32.196026 -11.512897 -0.14251928 -37.87986 -0.14184631 -37.888779 -33.588646 8.372323
5592500000 -31.919952 -13.025451 -0.14255913 -38.048737 -0.1429711 -38.071091 -33.666451 10.256181
5620000000 -31.707315 -10.573974 -0.14167835 -38.238411 -0.14199528 -38.253777 -33.607639 7.1516943
5647500000 -32.038933 -11.961563 -0.14129324 -38.429977 -0.14436592 -38.447525 -33.392799 7.2499242
5675000000 -31.890553 -14.273168 -0.1411911 -38.622696 -0.14352357 -38.633221 -33.472546 9.3656034
5702500000 -31.579075 -11.369109 -0.1422427 -38.801289 -0.14425887 -38.82349 -33.479767 7.3027673
5730000000 -31.888771 -11.001126 -0.14180084 -38.980869 -0.14356102 -39.016136 -33.560352 6.6133952
5757500000 -31.909868 -14.895572 -0.1444992 -39.194302 -0.14318994 -39.194382 -33.391884 8.0860682
5785000000 -31.457157 -12.714206 -0.14546487 -39.360226 -0.14433862 -39.373978 -33.345165 7.0137453
5812500000 -31.729219 -11.92617 -0.1456418 -39.54179 -0.14537707 -39.570553 -33.433952 5.8985605
5840000000 -32.064236 -13.911518 -0.14479144 -39.740494 -0.1445024 -39.752167 -33.163647 6.4611511
5867500000 -31.418623 -14.173526 -0.14532219 -39.919262 -0.14491804 -39.935608 -33.208744 6.4793034
5895000000 -31.713757 -12.484267 -0.14636891 -40.111012 -0.14672473 -40.124134 -33.297367 4.8076959
5922500000 -31.935896 -14.856348 -0.14494614 -40.298889 -0.14581981 -40.314732 -33.285583 5.4378529
5950000000 -31.470148 -15.025733 -0.14528017 -40.489258 -0.14684415 -40.483204 -33.061089 6.0783973
5977500000 -31.494293 -12.476244 -0.1465871 -40.672607 -0.14829245 -40.686913 -33.191494 4.3515787
6005000000 -31.799501 -15.02955 -0.14929487 -40.865593 -0.14670278 -40.86953 -33.2878 5.0604863
6032500000 -31.442123 -16.491676 -0.14870764 -41.039261 -0.14974311 -41.063065 -32.946667 4.0646796
6060000000 -31.100685 -12.926219 -0.15122615 -41.229694 -0.1505387 -41.235886 -33.102634 3.7885053
6087500000 -31.895773 -14.297409 -0.15250619 -41.412304 -0.15022141 -41.435036 -33.297195 4.199254
6115000000 -31.505381 -18.101763 -0.15080267 -41.590656 -0.15242495 -41.610546 -32.99374 3.429111
6142500000 -30.912252 -14.041337 -0.15241905 -41.768593 -0.1526365 -41.797066 -33.015987 3.1195815
6170000000 -31.85935 -12.563514 -0.15489304 -41.948212 -0.15191531 -41.989738 -33.333256 4.1162462
6197500000 -31.654472 -19.327938 -0.15509316 -42.150753 -0.15303601 -42.166744 -33.107147 3.2430017
6225000000 -30.723482 -16.487083 -0.15559512 -42.330723 -0.15481149 -42.325871 -32.910507 0.69676381
6252500000 -31.502546 -12.079655 -0.15813911 -42.505733 -0.15768972 -42.507076 -33.067551 3.537544
6280000000 -31.892876 -19.79744 -0.15689309 -42.682507 -0.15715235 -42.695236 -32.99041 4.3048081
6307500000 -30.607498 -18.979694 -0.1560467 -42.848278 -0.15719691 -42.864079 -32.959389 1.2462376
6335000000 -30.9909 -11.434156 -0.15792005 -43.027531 -0.15482812 -43.050484 -32.848446 2.0514412
6362500000 -32.005463 -16.514538 -0.15320629 -43.223316 -0.15586478 -43.23093 -32.709049 2.7141743
6390000000 -30.823437 -21.585684 -0.15353505 -43.41201 -0.15264131 -43.417889 -32.765984 2.084372
6417500000 -30.284225 -12.614975 -0.15617549 -43.605869 -0.15538907 -43.597363 -32.800888 3.0526829
6445000000 -31.94169 -11.748425 -0.15615457 -43.774555 -0.15598498 -43.790531 -32.884007 1.1808877
6472500000 -31.416471 -22.101021 -0.15414064 -43.959221 -0.15463793 -43.967155 -32.861958 -0.90758455
6500000000 -30.288774 -17.365177 -0.1547235 -44.132431 -0.15609983 -44.143955 -32.376068 0.7585395
6527500000 -31.108599 -10.495402 -0.15382817 -44.310387 -0.15364474 -44.336864 -32.437996 0.6146813
6555000000 -31.736259 -20.71917 -0.15130951 -44.495754 -0.15145934 -44.506672 -33.121758 0.17425062
6582500000 -30.56889 -21.00001 -0.15246812 -44.685524 -0.15129235 -44.690353 -32.366379 -2.6171293
6610000000 -30.709547 -13.223705 -0.15003866 -44.878716 -0.15161133 -44.86684 -32.180954 -1.3607174
6637500000 -31.507885 -17.326414 -0.15060623 -45.068226 -0.14955047 -45.075344 -33.06271 1.9419569
6665000000 -31.092752 -22.2726 -0.15029885 -45.247654 -0.14907357 -45.257236 -32.667747 -3.3035405
6692500000 -30.486237 -16.75742 -0.14874996 -45.432812 -0.1487146 -45.456161 -32.126785 -4.9382133
6720000000 -31.000652 -16.824169 -0.14906017 -45.631748 -0.14985752 -45.649429 -32.449905 1.3206353
6747500000 -31.280416 -21.966381 -0.14781678 -45.831715 -0.14608806 -45.838673 -32.832764 -0.86386234
6775000000 -30.584877 -17.651726 -0.14782883 -46.003651 -0.14778998 -46.022057 -32.523926 -8.1727362
6802500000 -30.805952 -17.489655 -0.1465997 -46.20937 -0.14946419 -46.229568 -32.246002 -2.3019948
6830000000 -31.268513 -21.312433 -0.14802836 -46.398251 -0.14834951 -46.424694 -32.659325 1.4596108
6857500000 -30.78133 -19.152924 -0.15038434 -46.590973 -0.15052772 -46.597504 -32.768593 -6.8683381
6885000000 -30.68165 -18.587498 -0.14844593 -46.793461 -0.14899775 -46.793388 -32.306126 -6.1607575
6912500000 -31.086496 -20.78373 -0.15138027 -46.981277 -0.14831495 -46.989399 -32.184265 1.4350463
6940000000 -30.845209 -20.245941 -0.15202013 -47.173763 -0.15146792 -47.190258 -32.829788 -3.9673667
6967500000 -30.771839 -19.591192 -0.15172015 -47.364422 -0.15115699 -47.369381 -32.504734 -8.6282749
6995000000 -30.812906 -22.204763 -0.15488444 -47.541103 -0.15290327 -47.558155 -31.943371 -0.81112772
7022500000 -30.814171 -20.954945 -0.15444882 -47.735756 -0.15535016 -47.750874 -32.404976 -1.4154392
7050000000 -30.769812 -19.050013 -0.1543925 -47.924732 -0.15350796 -47.928867 -32.83223 -9.7147112
7077500000 -30.8447 -21.096285 -0.15580843 -48.104977 -0.15443541 -48.114391 -31.932577 -4.670835
7105000000 -30.881588 -22.465487 -0.15508217 -48.285019 -0.15496197 -48.313774 -32.133274 -1.2651738
7132500000 -30.616301 -20.697882 -0.15483616 -48.491421 -0.15505506 -48.507465 -32.694328 -9.4389715
7160000000 -30.899324 -20.587002 -0.15654957 -48.680195 -0.15654904 -48.696465 -32.049381 -7.6539922
7187500000 -30.899281 -23.026968 -0.15678199 -48.882221 -0.15798663 -48.893715 -31.890459 -1.3939228
7215000000 -30.776472 -23.119534 -0.15943944 -49.063572 -0.15995024 -49.076462 -32.737568 -7.7599468
7242500000 -30.583422 -21.203285 -0.16054355 -49.267059 -0.16391858 -49.290291 -32.229076 -9.7925873
7270000000 -30.534977 -22.215828 -0.16216572 -49.428257 -0.16491789 -49.457851 -31.633987 -3.2467592
7297500000 -31.034653 -23.810968 -0.1652021 -49.620846 -0.16726503 -49.639233 -32.490833 -6.4719939
7325000000 -30.692917 -23.165865 -0.16556674 -49.808262 -0.16506927 -49.827827 -32.266365 -11.379981
7352500000 -30.398567 -23.842669 -0.16621622 -49.983944 -0.16817819 -49.978832 -31.602301 -5.0312185
7380000000 -30.657684 -23.226364 -0.16877235 -50.16407 -0.16757441 -50.175686 -32.406895 -4.1704006
7407500000 -31.17275 -23.912659 -0.1674711 -50.326645 -0.16698147 -50.347099 -32.301384 -13.316007
7435000000 -30.364458 -25.430191 -0.16964008 -50.518536 -0.16665895 -50.523338 -31.59573 -6.1006641
7462500000 -30.348442 -24.868927 -0.16927966 -50.718784 -0.16666514 -50.721989 -32.162632 -3.5161459
7490000000 -30.93825 -24.415264 -0.16499183 -50.891689 -0.16619524 -50.913601 -32.493992 -14.54587
7517500000 -30.612696 -23.943901 -0.16914321 -51.073647 -0.1677832 -51.086716 -31.454905 -8.7692919
7545000000 -30.24173 -27.195488 -0.1689489 -51.282261 -0.16557723 -51.2924 -31.94117 -2.2553053
7572500000 -30.827555 -25.064018 -0.16784346 -51.458473 -0.16802213 -51.484112 -32.57687 -12.900391
7600000000 -30.593018 -24.055317 -0.1699421 -51.665134 -0.16970226 -51.683491 -31.360699 -11.880232
7627500000 -30.229784 -27.079411 -0.16895966 -51.84407 -0.16970684 -51.860004 -31.612753 -1.3887407
7655000000 -30.557159 -28.091312 -0.16962393 -52.052242 -0.17212954 -52.060909 -32.53793 -12.670707
7682500000 -30.719442 -23.850559 -0.17196472 -52.239635 -0.1724242 -52.253918 -31.196756 -15.200385
7710000000 -30.12615 -26.890038 -0.17442858 -52.407497 -0.17514704 -52.422054 -31.193792 -3.2220345
7737500000 -30.639267 -29.543024 -0.17865966 -52.62534 -0.17717749 -52.639568 -32.865692 -9.6761427
7765000000 -30.732456 -25.609844 -0.17823459 -52.797081 -0.17792013 -52.823051 -31.196476 -19.267969
7792500000 -30.0583 -25.93091 -0.18088606 -52.978188 -0.18095623 -52.996357 -30.791693 -4.251852
7820000000 -30.645079 -31.066454 -0.18445086 -53.194202 -0.18374491 -53.225452 -33.315311 -6.8308005
7847500000 -30.855986 -27.22123 -0.18606253 -53.378826 -0.18480146 -53.394466 -31.299606 -24.541052
7875000000 -30.122684 -26.996737 -0.18876907 -53.553711 -0.18934281 -53.572765 -30.145115 -5.9322615
7902500000 -30.529648 -31.951017 -0.19204868 -53.787743 -0.190946 -53.790047 -33.536716 0.16209538
7930000000 -31.034422 -28.862993 -0.19595033 -53.974567 -0.19395603 -53.996071 -31.635468 -31.006443
7957500000 -29.811981 -29.118158 -0.2017473 -54.164669 -0.20316087 -54.183823 -29.06859 -11.208119
7985000000 -30.303284 -33.082359 -0.20759627 -54.383881 -0.20816843 -54.386608 -32.848351 13.538277
8012500000 -31.238235 -27.867685 -0.21859755 -54.569431 -0.21639337 -54.592793 -33.426086 -43.082054
8040000000 -29.549149 -31.001478 -0.23066996 -54.758968 -0.23016252 -54.79224 -27.557032 -21.524765
8067500000 -30.271317 -36.581867 -0.24806768 -54.959599 -0.24785554 -54.949924 -29.952261 25.652288
8095000000 -31.38014 -23.157871 -0.27196091 -55.12833 -0.27321115 -55.156185 -40.852554 -84.829605
8122500000 -29.274397 -32.63858 -0.29636377 -55.238575 -0.29668748 -55.263947 -25.761515 -43.624126
8150000000 -30.289455 -44.712708 -0.32818219 -55.259525 -0.32838628 -55.292595 -24.774229 17.584318
8177500000 -30.306166 -11.378605 -0.37245905 -55.185936 -0.37130737 -55.185268 -30.795761 115.66264
8205000000 -28.541689 -35.826984 -0.38960281 -54.861782 -0.38940659 -54.864712 -24.505102 -96.264099
8232500000 -33.437614 -62.118187 -0.3625198 -54.387348 -0.36604768 -54.362564 -20.163298 -21.955149
8260000000 -26.855856 -13.128307 -0.30447772 -53.749641 -0.30550936 -53.752533 -20.298859 52.328953
8287500000 -27.596045 -45.223049 -0.1378922 -53.815269 -0.13896197 -53.867065 -23.767464 152.99135
8315000000 -37.160629 1.2138823 -0.0037410979 -54.475883 -0.0063420311 -54.471981 -21.20698 -96.38131
8342500000 -26.710974 -36.185986 0.08001633 -55.275906 0.077291161 -55.305611 -19.182316 -17.820662
8370000000 -29.194445 -55.949898 0.068960145 -56.184879 0.074966297 -56.221268 -22.60397 50.901642
8397500000 -30.26582 -9.7278385 0.03502037 -56.876484 0.030869836 -56.868679 -30.862074 -179.20995
8425000000 -28.789312 -38.51437 -0.011787886 -57.262577 -0.012832494 -57.290615 -24.282869 -58.831226
8452500000 -30.731785 -49.582397 -0.044562746 -57.627468 -0.044023506 -57.642727 -24.085585 3.5537465
8480000000 -29.601675 -24.148113 -0.076887488 -57.817287 -0.075189672 -57.841225 -34.936237 64.858765
8507500000 -29.126482 -35.439754 -0.097725444 -57.979572 -0.1002662 -57.999496 -30.087873 -67.687889
8535000000 -30.758669 -42.909218 -0.11619236 -58.186893 -0.11631545 -58.189537 -25.870466 -17.347452
8562500000 -29.574697 -30.491098 -0.13028897 -58.317432 -0.13009265 -58.350578 -31.528561 22.08342
8590000000 -29.340019 -35.943851 -0.13863084 -58.475735 -0.13753602 -58.507729 -34.609993 -55.273212
8617500000 -30.380259 -40.214207 -0.14478983 -58.662659 -0.1431185 -58.664898 -27.535786 -27.713867
8645000000 -29.694965 -34.56995 -0.15149124 -58.804329 -0.15108731 -58.809624 -30.049282 4.9954824
8672500000 -29.471321 -36.671185 -0.15476909 -58.964745 -0.1551114 -58.991573 -35.595692 -31.859039
8700000000 -30.164722 -38.749027 -0.15973996 -59.131844 -0.15745458 -59.162075 -28.897772 -32.152851
8727500000 -29.605881 -36.174442 -0.16146766 -59.306915 -0.16368578 -59.325821 -29.502504 -4.5989237
8755000000 -29.38291 -36.835102 -0.16372611 -59.473614 -0.16609707 -59.490341 -34.689198 -16.961866
8782500000 -29.875149 -38.968998 -0.1656743 -59.639881 -0.16549627 -59.646767 -30.072947 -33.585587
8810000000 -29.641958 -37.147629 -0.17065039 -59.806782 -0.16824761 -59.824814 -29.31119 -12.350235
8837500000 -29.280275 -37.809826 -0.17072067 -59.98917 -0.17137389 -59.993916 -33.545849 -12.325354
8865000000 -29.749249 -38.27853 -0.17180879 -60.155308 -0.17148268 -60.155594 -30.98004 -33.7169
8892500000 -29.561172 -36.760754 -0.17302138 -60.330967 -0.17196257 -60.341785 -29.074715 -17.002106
8920000000 -29.266949 -38.755161 -0.17222516 -60.511234 -0.17289045 -60.513298 -32.252411 -10.663446
8947500000 -29.629475 -39.034981 -0.17276169 -60.676895 -0.17453313 -60.699768 -31.728376 -32.363682
8975000000 -29.613623 -37.182152 -0.17475033 -60.875427 -0.17500906 -60.874355 -29.240673 -22.059265
9002500000 -29.422726 -38.925468 -0.17195852 -61.041355 -0.17363884 -61.047165 -31.32992 -11.07538
9030000000 -29.477619 -40.047478 -0.17389156 -61.223255 -0.17356987 -61.229313 -32.32383 -28.360209
9057500000 -29.56921 -37.337513 -0.17284279 -61.393162 -0.17803825 -61.417213 -29.582993 -25.229668
9085000000 -29.279922 -38.752743 -0.17517561 -61.583614 -0.17587802 -61.599228 -30.502066 -14.602007
9112500000 -29.474579 -40.582981 -0.17521442 -61.750156 -0.17778637 -61.78484 -32.394466 -24.937304
9140000000 -29.4193 -39.188107 -0.17652798 -61.945179 -0.17762646 -61.95961 -29.975122 -28.488241
9167500000 -29.230131 -38.669342 -0.17632282 -62.119415 -0.17810029 -62.132908 -30.10717 -17.251562
9195000000 -29.409422 -41.584042 -0.17694426 -62.287636 -0.1769278 -62.315163 -32.231449 -22.431589
9222500000 -29.498486 -39.483448 -0.17784138 -62.480679 -0.17722549 -62.4958 -30.490248 -28.960739
9250000000 -29.317423 -39.225861 -0.17577398 -62.658989 -0.17815314 -62.679901 -29.912931 -20.066221
9277500000 -29.375643 -42.146576 -0.17714162 -62.852848 -0.17710575 -62.874817 -31.899946 -21.206116
9305000000 -29.603006 -40.826092 -0.17740156 -63.039391 -0.17577019 -63.053581 -31.048134 -30.524117
9332500000 -29.384378 -40.45686 -0.17746197 -63.21101 -0.17932622 -63.234486 -29.771276 -23.767836
9360000000 -29.275454 -42.552582 -0.18165796 -63.40567 -0.17917515 -63.427467 -31.302742 -20.076458
9387500000 -29.477865 -41.50544 -0.17866075 -63.5867 -0.18076678 -63.603535 -31.434252 -28.373795
9415000000 -29.520657 -41.705727 -0.1796899 -63.755863 -0.18070957 -63.780128 -29.98131 -25.533794
9442500000 -29.090693 -42.509285 -0.18237896 -63.951077 -0.18287653 -63.961491 -30.857771 -21.642986
9470000000 -29.4433 -42.974972 -0.18050934 -64.132431 -0.18230067 -64.141769 -31.530954 -27.407488
9497500000 -29.442448 -41.402287 -0.18119965 -64.325836 -0.18096325 -64.332695 -30.254484 -28.279171
9525000000 -28.962471 -42.593575 -0.18351106 -64.496277 -0.18185338 -64.497177 -30.473421 -23.822008
9552500000 -29.262352 -42.7869 -0.1807128 -64.688492 -0.18360665 -64.689568 -31.457508 -25.003164
9580000000 -29.454847 -41.248711 -0.18201749 -64.871971 -0.18408032 -64.888756 -30.4736 -27.567802
9607500000 -29.003696 -42.922062 -0.18286249 -65.050781 -0.18404171 -65.056023 -30.401701 -25.413757
9635000000 -29.132347 -43.721302 -0.1837433 -65.233345 -0.18508482 -65.241814 -31.316284 -25.362061
9662500000 -29.301718 -43.082005 -0.18434094 -65.421494 -0.18076731 -65.434204 -30.664186 -28.163939
9690000000 -29.047606 -43.013447 -0.18389992 -65.586243 -0.18678319 -65.595924 -30.137667 -27.003258
9717500000 -28.897375 -44.264149 -0.18505538 -65.759132 -0.18632759 -65.784302 -30.989906 -26.716013
9745000000 -29.309734 -44.284134 -0.18450218 -65.962532 -0.18364176 -65.981018 -30.893568 -27.447247
9772500000 -29.087605 -42.636509 -0.18543385 -66.13324 -0.18464372 -66.149727 -30.215706 -27.445036
9800000000 -28.904404 -44.542301 -0.18475257 -66.321373 -0.18585989 -66.330032 -30.62925 -27.463638
9827500000 -29.323484 -44.534245 -0.1845392 -66.509079 -0.18457241 -66.513641 -30.994436 -27.125362
9855000000 -29.092363 -43.318623 -0.18398041 -66.68528 -0.18434635 -66.697655 -30.205296 -27.792618
9882500000 -28.897995 -43.450397 -0.18481767 -66.864075 -0.18645243 -66.866158 -30.48032 -28.23353
9910000000 -29.208323 -45.457481 -0.18517235 -67.056 -0.18488358 -67.076393 -30.812664 -27.897827
9937500000 -29.173769 -45.213802 -0.18602146 -67.242531 -0.18678454 -67.258255 -30.313494 -28.307077
9965000000 -28.869148 -44.589115 -0.18624492 -67.41127 -0.18706883 -67.43412 -30.316816 -29.887672
9992500000 -29.201372 -46.362728 -0.18728884 -67.598717 -0.1867532 -67.63842 -30.750778 -29.611067
10020000000 -29.288576 -46.824165 -0.18585287 -67.786606 -0.18673104 -67.823578 -30.503801 -28.192158
10047500000 -28.784649 -45.503567 -0.18882529 -67.966904 -0.18533632 -67.984932 -30.287302 -31.266977
10075000000 -29.091984 -46.704018 -0.18770345 -68.149719 -0.18778263 -68.168663 -30.710987 -31.759321
10102500000 -29.286175 -47.55962 -0.18578479 -68.354874 -0.18797699 -68.354065 -30.657343 -27.918673
10130000000 -28.88273 -47.702301 -0.18804997 -68.514198 -0.1846972 -68.524132 -30.425674 -30.417728
10157500000 -28.798107 -46.475891 -0.18880394 -68.692574 -0.18851142 -68.717537 -30.548771 -32.353321
10185000000 -29.198904 -49.562702 -0.18584773 -68.882431 -0.18649621 -68.934464 -30.687813 -29.428759
10212500000 -28.984907 -48.402573 -0.18740207 -69.066406 -0.18380243 -69.086723 -30.402786 -29.445114
10240000000 -28.509874 -47.787933 -0.18555515 -69.246925 -0.18470557 -69.25827 -30.362417 -33.012154
10267500000 -28.830059 -46.660309 -0.18616898 -69.43943 -0.1853039 -69.46917 -30.460712 -28.6784
10295000000 -29.102232 -47.388714 -0.18359126 -69.626625 -0.18528309 -69.656921 -30.533056 -29.071486
10322500000 -28.787533 -46.796093 -0.18593095 -69.817505 -0.18412137 -69.835983 -30.293495 -33.977089
10350000000 -28.593 -47.554115 -0.1843666 -70.012787 -0.18464534 -70.024147 -30.353243 -30.545654
10377500000 -29.144344 -47.048447 -0.18582666 -70.206947 -0.18622005 -70.229591 -30.303349 -28.351727
10405000000 -28.966888 -47.55312 -0.18521988 -70.396713 -0.18510453 -70.415314 -30.142679 -34.034687
10432500000 -28.369579 -47.859745 -0.1864111 -70.583206 -0.18681346 -70.596352 -30.236372 -32.529057
10460000000 -28.911316 -47.200794 -0.1883895 -70.784798 -0.19063413 -70.794403 -30.171244 -28.713545
10487500000 -29.180635 -47.94128 -0.18577559 -70.932137 -0.19135825 -70.963142 -29.978567 -33.030331
10515000000 -28.464521 -49.401279 -0.19065443 -71.123154 -0.19365126 -71.166733 -29.865227 -36.168602
10542500000 -28.628948 -50.109482 -0.19207655 -71.322296 -0.19270188 -71.353905 -30.196901 -30.093855
10570000000 -29.069845 -48.590176 -0.19081616 -71.512627 -0.18875393 -71.510475 -29.933273 -33.218609
10597500000 -28.748322 -48.806519 -0.1935963 -71.663742 -0.1952333 -71.729446 -29.858015 -37.829479
10625000000 -28.473907 -50.990959 -0.1945938 -71.879478 -0.19388403 -71.897591 -29.969234 -32.097286
10652500000 -29.222664 -49.908985 -0.19376791 -72.044807 -0.19219939 -72.072624 -29.972116 -33.789078
10680000000 -28.837898 -48.767448 -0.19383775 -72.245163 -0.19486806 -72.235802 -29.685707 -38.625805
10707500000 -28.497044 -51.859619 -0.19760799 -72.413963 -0.19593111 -72.44165 -29.898291 -35.318142
10735000000 -29.418526 -53.378654 -0.19771175 -72.620346 -0.19428357 -72.653656 -30.291124 -33.549751
10762500000 -29.036051 -51.477711 -0.19467801 -72.795105 -0.19559911 -72.82341 -29.994036 -39.348305
10790000000 -28.59203 -52.641258 -0.19648033 -72.983475 -0.19959773 -72.993561 -29.994694 -39.082016
10817500000 -28.925295 -55.407997 -0.20139615 -73.154602 -0.19613314 -73.183975 -30.087477 -33.113586
10845000000 -29.113125 -55.079315 -0.19712715 -73.35936 -0.19936547 -73.342628 -30.172443 -39.208698
10872500000 -28.376247 -53.241306 -0.20079641 -73.506905 -0.20159735 -73.548119 -29.987553 -40.847748
10900000000 -28.55455 -55.68549 -0.20041905 -73.709923 -0.2021123 -73.724625 -30.19767 -33.716805
10927500000 -28.984131 -56.42617 -0.19855194 -73.888855 -0.19867063 -73.903389 -30.202749 -38.280312
10955000000 -28.15132 -53.650192 -0.20001569 -74.081306 -0.20088018 -74.071854 -29.840015 -41.384823
10982500000 -28.238304 -55.706573 -0.20117192 -74.259651 -0.20389874 -74.273544 -29.986712 -35.954617
11010000000 -29.053001 -56.665943 -0.20089537 -74.435333 -0.20356911 -74.44075 -30.14093 -36.25486
11037500000 -28.32098 -54.436634 -0.20328619 -74.58905 -0.2043087 -74.619293 -29.799133 -42.579845
11065000000 -28.113869 -53.974453 -0.20402952 -74.781822 -0.20819016 -74.808327 -29.784061 -37.642628
11092500000 -29.060377 -57.579323 -0.20433339 -74.967842 -0.20503157 -74.989616 -30.107536 -35.857822
11120000000 -28.688736 -56.862633 -0.204408 -75.143105 -0.20354362 -75.154114 -29.903599 -43.696007
11147500000 -28.187599 -54.479824 -0.20286818 -75.302925 -0.20660529 -75.332901 -29.686296 -41.590504
11175000000 -28.858259 -57.921165 -0.20397253 -75.493729 -0.20424874 -75.518425 -29.858732 -36.54409
11202500000 -29.327732 -57.02618 -0.20241849 -75.661758 -0.20493063 -75.686859 -29.831982 -43.364521
11230000000 -28.438499 -56.782272 -0.20397986 -75.850662 -0.2060404 -75.864624 -29.733734 -44.423058
11257500000 -28.838503 -58.431526 -0.20288391 -76.043144 -0.20657489 -76.062843 -29.943409 -38.552814
11285000000 -29.466337 -59.786926 -0.20104177 -76.229225 -0.20180207 -76.233559 -29.987061 -42.646526
11312500000 -28.609091 -60.70787 -0.20167029 -76.411102 -0.20193224 -76.416389 -29.847387 -47.487
11340000000 -28.433329 -60.018883 -0.20577955 -76.607559 -0.2062171 -76.619415 -30.062737 -39.640919
11367500000 -29.003855 -60.390266 -0.20291619 -76.797081 -0.20413153 -76.790878 -30.089764 -41.16473
11395000000 -29.113611 -59.580166 -0.20230134 -76.953438 -0.20513742 -76.981499 -29.860348 -48.212185
11422500000 -28.39695 -63.86306 -0.20876972 -77.154625 -0.20494148 -77.168404 -30.148666 -42.841339
11450000000 -28.020741 -65.336418 -0.20761637 -77.344185 -0.20854919 -77.355843 -30.446266 -39.608578
11477500000 -28.117733 -58.378452 -0.20409977 -77.513168 -0.20443405 -77.524796 -30.020214 -45.596649
11505000000 -28.362768 -57.98851 -0.2078947 -77.683662 -0.20895742 -77.691177 -29.776302 -43.938786
11532500000 -28.611006 -63.447895 -0.20755038 -77.874138 -0.2073185 -77.879761 -29.976366 -41.672832
11560000000 -28.517721 -61.314957 -0.20565903 -78.034943 -0.20840171 -78.059402 -29.905039 -46.662334
11587500000 -28.617764 -60.421574 -0.20744422 -78.211884 -0.2064386 -78.21537 -29.774696 -46.729446
11615000000 -28.257065 -63.57851 -0.20693025 -78.396004 -0.20899571 -78.398247 -30.256165 -41.908676
11642500000 -28.612675 -64.495338 -0.20643833 -78.580711 -0.20532142 -78.584549 -29.969547 -47.506538
11670000000 -28.679171 -60.129639 -0.20700274 -78.736488 -0.20590577 -78.766243 -29.667133 -49.435112
11697500000 -28.436966 -63.753124 -0.20932819 -78.92939 -0.20927168 -78.936462 -30.103014 -43.712345
11725000000 -28.551352 -66.227989 -0.20361552 -79.123413 -0.20336919 -79.116142 -30.225504 -46.41959
11752500000 -28.408981 -62.77898 -0.20588784 -79.286072 -0.20440067 -79.294403 -29.896641 -50.456451
11780000000 -28.230703 -62.025749 -0.20646493 -79.470978 -0.20853941 -79.48262 -29.961304 -44.897949
11807500000 -28.550007 -61.497276 -0.20443894 -79.650749 -0.20723161 -79.661232 -29.938986 -45.218174
11835000000 -29.522984 -62.011631 -0.20325769 -79.822548 -0.20552279 -79.8349 -29.526247 -52.166714
11862500000 -29.090687 -65.627655 -0.20625347 -79.997246 -0.20598094 -80.015762 -29.964539 -49.871006
11890000000 -28.481945 -67.69355 -0.20475397 -80.180107 -0.20699379 -80.196419 -30.296278 -47.444378
11917500000 -29.192312 -65.549248 -0.20342562 -80.341705 -0.20194906 -80.374092 -29.920145 -52.448326
11945000000 -29.288416 -67.105553 -0.2038046 -80.524651 -0.20249958 -80.546089 -30.127869 -52.182953
11972500000 -28.531796 -69.82029 -0.20056191 -80.712837 -0.20218255 -80.723763 -30.695364 -48.23045
12000000000 -28.815796 -68.946388 -0.19787891 -80.885323 -0.19988666 -80.903847 -30.282621 -53.800453
12027500000 -29.040659 -68.571625 -0.20075385 -81.060539 -0.19989182 -81.09211 -30.266735 -52.711929
12055000000 -28.362749 -68.762955 -0.20161985 -81.256866 -0.19896112 -81.270065 -30.87616 -48.153572
12082500000 -28.681164 -69.546631 -0.19762966 -81.439766 -0.1981577 -81.456345 -30.511036 -53.049747
12110000000 -29.111902 -69.866333 -0.19586097 -81.605156 -0.19627424 -81.628365 -30.179085 -53.552479
12137500000 -28.129641 -68.981834 -0.19545262 -81.800934 -0.19962241 -81.827515 -30.999493 -47.995438
12165000000 -28.423067 -67.88382 -0.19559479 -81.982407 -0.19565138 -82.00647 -30.735096 -50.529766
12192500000 -29.201231 -68.667336 -0.19457079 -82.158615 -0.19363989 -82.163254 -29.962311 -54.269241
12220000000 -28.634872 -69.77491 -0.19307613 -82.345985 -0.19371296 -82.370605 -30.853268 -49.196075
12247500000 -28.252806 -67.454048 -0.19265749 -82.542221 -0.19391949 -82.55381 -30.883579 -48.930897
12275000000 -29.012569 -69.077408 -0.18959266 -82.724129 -0.19175053 -82.740219 -30.158199 -54.065994
12302500000 -28.804338 -69.542404 -0.19094709 -82.915154 -0.19234225 -82.917816 -30.499802 -50.434242
12330000000 -28.139914 -67.589447 -0.19159226 -83.114159 -0.19258524 -83.119591 -30.966736 -47.893234
12357500000 -28.985922 -68.74263 -0.18935902 -83.278008 -0.18823108 -83.300331 -30.063576 -54.496098
12385000000 -29.283451 -68.507446 -0.18723531 -83.459366 -0.1898858 -83.466286 -30.121309 -52.312473
12412500000 -28.474426 -68.488602 -0.18816377 -83.661858 -0.19012485 -83.678162 -30.838064 -48.913849
12440000000 -29.125914 -68.145721 -0.18811485 -83.840874 -0.18611333 -83.857735 -30.344751 -53.99229
12467500000 -29.525011 -71.962936 -0.18614493 -84.028755 -0.18588907 -84.042961 -30.278984 -53.684021
12495000000 -28.767183 -69.92347 -0.18749911 -84.226364 -0.18679589 -84.231079 -31.038818 -49.818596
12522500000 -28.944872 -69.629593 -0.18465912 -84.38517 -0.18433069 -84.437004 -30.661467 -54.092369
12550000000 -29.478258 -74.980209 -0.18084693 -84.600876 -0.18373007 -84.605598 -30.189457 -56.989418
12577500000 -28.738871 -71.559639 -0.18381998 -84.769341 -0.1848074 -84.778709 -30.867249 -50.911739
12605000000 -28.534845 -70.214943 -0.18588907 -84.961739 -0.18604442 -84.960213 -30.833723 -51.630642
12632500000 -29.237783 -72.044708 -0.1835656 -85.151688 -0.18200833 -85.168839 -30.373423 -55.01582
12660000000 -28.99197 -72.672058 -0.18285061 -85.34523 -0.18438199 -85.340096 -30.843763 -52.00766
12687500000 -28.423128 -70.245262 -0.18627869 -85.527512 -0.18468964 -85.525307 -30.909018 -51.613071
12715000000 -28.994219 -72.449303 -0.18055926 -85.71476 -0.18341708 -85.721268 -30.408409 -54.264732
12742500000 -28.976603 -73.067192 -0.18033934 -85.899918 -0.182207 -85.909996 -30.660986 -52.850998
12770000000 -28.498596 -68.827263 -0.18228124 -86.093109 -0.18488358 -86.087051 -30.838686 -50.688831
12797500000 -29.155449 -72.814964 -0.18164149 -86.270103 -0.18132327 -86.286972 -30.446119 -54.231709
12825000000 -28.904022 -74.753975 -0.18135187 -86.436699 -0.17981184 -86.481934 -30.652531 -53.893795
12852500000 -28.686378 -68.217415 -0.18298642 -86.643379 -0.1837341 -86.636116 -30.822289 -50.631641
12880000000 -29.072765 -71.931839 -0.18154998 -86.825966 -0.18440765 -86.851013 -30.356663 -53.431282
12907500000 -29.132803 -77.72908 -0.18063374 -87.011963 -0.18265162 -87.022743 -30.643017 -55.394989
12935000000 -28.562025 -70.142632 -0.18309037 -87.186951 -0.18491545 -87.213608 -30.759195 -52.255611
12962500000 -28.928473 -69.602745 -0.18157752 -87.38121 -0.18292215 -87.375175 -30.207882 -52.901344
12990000000 -29.399775 -76.81662 -0.18105878 -87.567337 -0.1803674 -87.587624 -30.584402 -54.623394
13017500000 -28.97294 -72.502838 -0.17973576 -87.745987 -0.18358748 -87.752747 -30.848652 -53.875519
13045000000 -28.859945 -69.195755 -0.18325427 -87.918266 -0.182731 -87.933861 -30.31723 -53.779781
13072500000 -29.460527 -75.124367 -0.17902976 -88.124519 -0.1812755 -88.136314 -30.223099 -54.088089
13100000000 -29.043785 -76.285149 -0.17833789 -88.302841 -0.17812294 -88.341835 -31.042377 -55.699444
13127500000 -28.876518 -69.468292 -0.17848921 -88.502884 -0.18036686 -88.519119 -30.597088 -54.146675
13155000000 -29.323977 -74.788971 -0.17758061 -88.691971 -0.178958 -88.690895 -30.275957 -54.355183
13182500000 -29.248251 -76.938965 -0.17666088 -88.874321 -0.17915222 -88.901253 -30.994915 -55.078545
13210000000 -29.1066 -70.128654 -0.18230283 -89.035255 -0.17952937 -89.073936 -30.681501 -55.146263
13237500000 -29.120581 -75.71843 -0.17772354 -89.241943 -0.17975275 -89.263474 -30.193651 -54.232384
13265000000 -29.157837 -79.213654 -0.17797515 -89.445061 -0.18042865 -89.459503 -30.947927 -54.77383
13292500000 -28.851929 -71.557823 -0.18015936 -89.615639 -0.18169278 -89.619629 -30.916765 -56.233196
13320000000 -29.186806 -73.666023 -0.17813426 -89.80146 -0.17988279 -89.812973 -30.155518 -53.66983
13347500000 -29.011261 -79.41333 -0.17796895 -90.006126 -0.17980024 -90.019684 -30.889149 -54.171097
13375000000 -28.967903 -74.317886 -0.17821032 -90.186844 -0.18195595 -90.188225 -31.100124 -56.302456
13402500000 -29.041985 -71.891472 -0.17965429 -90.345055 -0.17920484 -90.363029 -30.160173 -54.923626
13430000000 -28.942265 -79.394943 -0.18054037 -90.550606 -0.17871119 -90.570518 -30.67625 -53.550694
13457500000 -28.851736 -75.331627 -0.1752543 -90.729881 -0.17998479 -90.745186 -31.165684 -56.397648
13485000000 -29.152786 -70.955521 -0.17623116 -90.904556 -0.18177888 -90.920639 -30.27515 -54.783539
13512500000 -29.003117 -77.256012 -0.17585213 -91.100899 -0.17901655 -91.116791 -30.519112 -53.143864
13540000000 -28.903168 -77.781097 -0.17677574 -91.29805 -0.17974304 -91.289726 -31.195225 -56.850925
13567500000 -29.230652 -71.066391 -0.17681834 -91.462563 -0.17869285 -91.472511 -30.386938 -56.015053
13595000000 -29.131657 -76.797707 -0.17664902 -91.659492 -0.17538637 -91.667572 -30.268925 -53.6483
13622500000 -28.835464 -78.342552 -0.17635947 -91.858315 -0.17819576 -91.872513 -31.157001 -56.479954
13650000000 -29.30736 -72.606934 -0.17669269 -92.031166 -0.17744821 -92.041542 -30.556669 -57.464897
13677500000 -29.18376 -75.478966 -0.17649589 -92.213417 -0.17547101 -92.227608 -30.059929 -53.646618
13705000000 -28.822802 -79.684105 -0.17474279 -92.430397 -0.17722899 -92.428894 -30.988527 -55.874252
13732500000 -29.246187 -73.870926 -0.17435959 -92.590393 -0.17542572 -92.612564 -30.759775 -58.729115
13760000000 -29.393923 -74.376755 -0.17246945 -92.773758 -0.17525458 -92.7808 -30.072203 -54.758919
13787500000 -28.767834 -80.233376 -0.17244494 -92.98246 -0.17318866 -92.998795 -30.73279 -55.3778
13815000000 -29.117382 -76.203094 -0.17406401 -93.167816 -0.17560038 -93.191399 -30.984673 -59.742626
13842500000 -29.565628 -71.798088 -0.17485867 -93.30619 -0.17517641 -93.330002 -30.083157 -54.65546
13870000000 -28.756269 -80.447838 -0.17214732 -93.553017 -0.17540173 -93.543762 -30.525404 -54.177155
13897500000 -28.95397 -77.839691 -0.17594622 -93.727539 -0.17816716 -93.735046 -31.046753 -60.979023
13925000000 -29.403471 -72.352348 -0.1729077 -93.895348 -0.1761643 -93.902534 -30.190193 -57.409184
13952500000 -29.263065 -80.648994 -0.17271887 -94.089775 -0.17716157 -94.124611 -30.438992 -54.518368
13980000000 -28.696648 -79.203842 -0.17453259 -94.290787 -0.17269085 -94.306801 -31.198195 -60.569893
14007500000 -29.452654 -74.368095 -0.17007965 -94.46312 -0.17263295 -94.472435 -30.327278 -59.98225
14035000000 -29.401094 -78.939278 -0.17338102 -94.649956 -0.17152819 -94.657829 -30.205103 -54.865368
14062500000 -28.399748 -81.035461 -0.17297289 -94.854782 -0.1739767 -94.894325 -31.134956 -60.02026
14090000000 -29.423054 -76.100151 -0.17125244 -95.031448 -0.17386273 -95.044075 -30.698954 -61.159004
14117500000 -29.413696 -76.860634 -0.17169164 -95.214638 -0.17267954 -95.223038 -30.180511 -55.257343
14145000000 -28.596838 -80.541756 -0.17491904 -95.426331 -0.1749088 -95.4328 -30.863468 -59.105556
14172500000 -29.335022 -78.317581 -0.17176759 -95.620003 -0.17594542 -95.622482 -30.860273 -63.324604
14200000000 -29.431028 -77.276443 -0.17281181 -95.783012 -0.17497078 -95.797981 -30.189543 -56.92131
14227500000 -28.851425 -80.456306 -0.17476892 -95.980301 -0.17627455 -95.99102 -30.803293 -58.366623
14255000000 -29.174875 -78.469696 -0.1760058 -96.171654 -0.17650937 -96.179474 -30.742083 -64.114044
14282500000 -29.851965 -80.072311 -0.17378056 -96.336708 -0.17685878 -96.359596 -30.214893 -58.344582
14310000000 -28.832121 -79.073311 -0.17420574 -96.534798 -0.17746277 -96.538612 -30.657793 -57.826725
14337500000 -29.160921 -78.855988 -0.17481285 -96.72332 -0.1788501 -96.729851 -30.911722 -64.137131
14365000000 -30.355192 -80.337364 -0.17343704 -96.891083 -0.17615028 -96.911674 -30.448366 -60.424191
14392500000 -29.024109 -82.183296 -0.17152683 -97.073601 -0.17557262 -97.100212 -30.540314 -57.451092
14420000000 -28.818808 -78.92379 -0.17494598 -97.274025 -0.17708527 -97.276299 -31.077787 -64.148361
14447500000 -30.358704 -80.184914 -0.17476273 -97.439964 -0.17709282 -97.451218 -30.710932 -62.244232
14475000000 -29.432922 -84.682274 -0.17469832 -97.642387 -0.17367791 -97.637093 -30.708424 -57.594299
14502500000 -28.638453 -79.312653 -0.17456169 -97.836594 -0.17618722 -97.826393 -30.986685 -63.388714
14530000000 -29.763155 -79.83815 -0.17134804 -98.013153 -0.17653957 -98.019081 -30.754513 -64.51268
14557500000 -30.026892 -85.166542 -0.17008315 -98.188797 -0.17581683 -98.212463 -30.652161 -58.202152
14585000000 -28.439747 -81.427757 -0.17406885 -98.405075 -0.17489181 -98.394264 -30.961182 -62.787613
14612500000 -29.551182 -80.224586 -0.1691844 -98.587868 -0.17499639 -98.58316 -30.837017 -65.664261
14640000000 -30.047096 -83.977554 -0.17338856 -98.764366 -0.17337078 -98.773788 -30.706192 -58.146385
14667500000 -28.695763 -82.526062 -0.17222434 -98.96376 -0.1750201 -98.964722 -30.866367 -61.502625
14695000000 -29.12163 -79.444885 -0.17291686 -99.142761 -0.17518288 -99.167023 -30.757826 -67.690315
14722500000 -29.931097 -84.715057 -0.17185888 -99.338051 -0.17307553 -99.337936 -30.721148 -59.518017
14750000000 -28.971542 -83.600479 -0.1719798 -99.512093 -0.17392901 -99.529953 -30.818199 -59.567554
14777500000 -28.952929 -77.695313 -0.17246622 -99.714615 -0.17661694 -99.709854 -30.78137 -67.29493
14805000000 -30.081299 -85.737808 -0.1739689 -99.905052 -0.1737528 -99.917374 -30.700253 -60.981125
14832500000 -29.19165 -84.477371 -0.1709024 -100.10268 -0.17143689 -100.09743 -30.866552 -58.236282
14860000000 -28.543882 -78.48056 -0.17419037 -100.27268 -0.17574432 -100.27006 -30.566647 -66.800613
14887500000 -29.861572 -83.714668 -0.17399475 -100.47498 -0.17618722 -100.47301 -30.571951 -63.045174
14915000000 -29.293768 -85.095833 -0.17288426 -100.64773 -0.17419146 -100.64857 -30.724585 -58.186554
14942500000 -28.951122 -79.653542 -0.17536967 -100.85855 -0.17593086 -100.85728 -30.599567 -66.668259
14970000000 -29.808733 -81.863892 -0.17609853 -101.02966 -0.17457409 -101.02861 -30.445324 -64.961647
14997500000 -29.235325 -86.686783 -0.17505299 -101.22041 -0.17503493 -101.21451 -30.613178 -58.664879
15025000000 -29.218451 -78.428238 -0.17606941 -101.39547 -0.17595242 -101.40884 -30.618099 -64.97805
15052500000 -29.564821 -81.605095 -0.17466059 -101.59257 -0.17709956 -101.57088 -30.369328 -66.708092
15080000000 -29.598402 -87.924454 -0.17630637 -101.78677 -0.17865185 -101.78283 -30.685577 -59.785904
15107500000 -29.215176 -80.561996 -0.17630447 -101.96535 -0.17620231 -101.95706 -30.608103 -64.057922
15135000000 -29.331383 -80.592392 -0.17678383 -102.11961 -0.18023518 -102.15562 -30.284016 -68.252808
15162500000 -29.773691 -89.78643 -0.17721497 -102.34843 -0.17730153 -102.35889 -30.726404 -61.521278
15190000000 -28.980652 -82.496758 -0.17679326 -102.5128 -0.17710118 -102.52962 -30.598846 -64.021851
15217500000 -29.775511 -78.881844 -0.17731743 -102.68496 -0.18034473 -102.70581 -30.133764 -69.439857
15245000000 -29.56439 -88.103966 -0.17719825 -102.90868 -0.18089658 -102.90955 -30.715399 -61.841003
15272500000 -28.973955 -86.657005 -0.17477055 -103.08302 -0.17989683 -103.06418 -30.850872 -61.687401
15300000000 -29.361959 -77.996696 -0.1770246 -103.26267 -0.18043108 -103.24736 -30.08971 -69.647446
15327500000 -29.479414 -87.534889 -0.17831038 -103.45251 -0.18012725 -103.46482 -30.537374 -64.353722
15355000000 -28.94409 -87.591248 -0.17689329 -103.64509 -0.17844011 -103.63921 -30.810812 -60.745483
15382500000 -29.493031 -76.98716 -0.1760845 -103.80361 -0.18004198 -103.82048 -30.142839 -69.09346
15410000000 -29.685354 -88.317848 -0.17574567 -104.00161 -0.17801155 -104.01274 -30.415751 -66.544746
15437500000 -28.926743 -88.852043 -0.17688601 -104.20451 -0.17719232 -104.2077 -30.968714 -61.383991
15465000000 -29.205873 -81.066574 -0.17608234 -104.38139 -0.17975545 -104.37247 -30.334568 -68.653397
15492500000 -29.857141 -83.136086 -0.17640746 -104.53476 -0.17884606 -104.55849 -30.045286 -68.815079
15520000000 -28.740164 -91.286407 -0.18058625 -104.77263 -0.18119426 -104.77152 -30.789909 -60.90316
15547500000 -29.082813 -81.885742 -0.17707691 -104.92744 -0.17635947 -104.92952 -30.420387 -66.947975
15575000000 -30.162655 -79.665115 -0.1769367 -105.10336 -0.17847247 -105.10014 -29.863991 -69.791122
15602500000 -28.892488 -92.793312 -0.1773808 -105.33283 -0.17989737 -105.33585 -30.627718 -61.972122
15630000000 -29.084978 -84.273918 -0.17512845 -105.50672 -0.17619368 -105.51846 -30.564045 -64.761215
15657500000 -29.482311 -81.967697 -0.17671697 -105.68046 -0.17686822 -105.68522 -29.946753 -72.924751
15685000000 -29.301918 -90.03653 -0.17591467 -105.90343 -0.17898552 -105.91096 -30.538864 -63.959461
15712500000 -28.699804 -87.259865 -0.17698011 -106.07869 -0.1795747 -106.08436 -30.483366 -63.609619
15740000000 -29.370808 -83.33889 -0.17436606 -106.25805 -0.17405403 -106.25372 -29.90328 -71.236412
15767500000 -29.400375 -87.559509 -0.17701489 -106.44814 -0.18295078 -106.47047 -30.445768 -67.470581
15795000000 -28.394629 -89.741379 -0.17950293 -106.63971 -0.18074168 -106.6307 -30.625832 -61.660072
15822500000 -29.685175 -83.788704 -0.17648403 -106.81965 -0.18179831 -106.84253 -29.994436 -70.430115
15850000000 -28.9967 -86.732384 -0.17845415 -107.00309 -0.18084234 -107.01691 -30.106842 -68.62027
15877500000 -28.676775 -91.798599 -0.18031587 -107.20061 -0.18198672 -107.22179 -30.566298 -62.931545
15905000000 -29.362341 -85.117981 -0.17872441 -107.39224 -0.18093707 -107.39476 -30.043905 -68.942406
15932500000 -29.35795 -87.635773 -0.18144985 -107.55237 -0.18112031 -107.58314 -29.930933 -69.987518
15960000000 -28.27248 -90.867653 -0.18185176 -107.78868 -0.18555056 -107.78609 -30.563896 -65.81105
15987500000 -28.964714 -86.636986 -0.17693536 -107.95554 -0.17977595 -107.96744 -30.088179 -67.854195
16015000000 -29.771379 -88.654785 -0.18135242 -108.13107 -0.18426694 -108.13107 -29.868279 -72.009888
16042500000 -28.150009 -90.419121 -0.18332744 -108.36243 -0.18615954 -108.36552 -30.473255 -66.695816
16070000000 -28.723501 -88.289375 -0.1810272 -108.49936 -0.18307066 -108.52068 -30.148613 -65.931648
16097500000 -29.912195 -88.223885 -0.18324779 -108.68105 -0.18522447 -108.68816 -29.882147 -70.509201
16125000000 -28.194912 -91.356155 -0.18532011 -108.90114 -0.18429855 -108.91407 -30.459249 -68.884308
16152500000 -28.555929 -88.509537 -0.1797193 -109.0699 -0.18316273 -109.07751 -30.133591 -66.081642
16180000000 -29.676929 -88.367165 -0.18365391 -109.25798 -0.18754803 -109.26861 -29.78406 -70.395874
16207500000 -28.766649 -92.391891 -0.18467019 -109.45596 -0.18732235 -109.45818 -30.183504 -70.157906
16235000000 -28.319378 -88.622131 -0.18563187 -109.65179 -0.18915434 -109.65357 -30.280205 -67.563942
16262500000 -29.439384 -89.424034 -0.185379 -109.81516 -0.18674184 -109.82187 -29.648947 -70.34964
16290000000 -29.136427 -92.656456 -0.18767831 -110.0094 -0.18747181 -110.02 -29.928654 -71.882042
16317500000 -27.725336 -88.392181 -0.19144049 -110.21611 -0.19146079 -110.21513 -30.165501 -68.511391
16345000000 -29.58293 -89.921982 -0.18814053 -110.38548 -0.18754749 -110.40928 -29.536242 -71.079185
16372500000 -29.069368 -94.207481 -0.18836625 -110.56685 -0.19296843 -110.58559 -29.821341 -73.480278
16400000000 -28.161709 -90.980423 -0.19312106 -110.77905 -0.19315217 -110.77804 -30.105883 -72.033501
16427500000 -29.05365 -89.450012 -0.1924421 -110.94651 -0.19201405 -110.94313 -29.635715 -70.260872
16455000000 -29.328938 -96.643074 -0.19475651 -111.09653 -0.1976134 -111.13399 -29.707279 -74.16922
16482500000 -28.319761 -92.23867 -0.19624986 -111.33395 -0.19616915 -111.31184 -30.262856 -74.42514
16510000000 -28.664392 -90.451225 -0.19221725 -111.48881 -0.19727668 -111.49367 -29.787746 -71.961746
16537500000 -29.745119 -98.407051 -0.19490461 -111.64718 -0.19785669 -111.66973 -29.870022 -74.993103
16565000000 -28.579123 -94.142593 -0.19191366 -111.82532 -0.19687767 -111.85211 -30.227839 -77.851974
16592500000 -28.314026 -92.248215 -0.19237499 -112.02599 -0.19722141 -112.02775 -29.997892 -73.591446
16620000000 -29.856667 -97.972702 -0.19493601 -112.21094 -0.19754677 -112.20023 -29.916431 -73.226456
16647500000 -28.559048 -96.92437 -0.1960519 -112.39597 -0.19791143 -112.42332 -30.293512 -78.781303
16675000000 -28.767786 -92.882088 -0.1931473 -112.57779 -0.1984273 -112.58601 -30.269192 -75.573723
16702500000 -29.404367 -98.67849 -0.19508898 -112.77132 -0.19399419 -112.76672 -30.007097 -73.949097
16730000000 -28.861589 -101.97468 -0.19716372 -112.93173 -0.19910556 -112.92867 -30.339573 -80.825142
16757500000 -28.552101 -91.088165 -0.19794826 -113.14416 -0.19965141 -113.14645 -30.337774 -78.66452
16785000000 -29.081377 -99.548515 -0.19369645 -113.31302 -0.19871263 -113.32521 -29.973083 -74.194382
16812500000 -29.630045 -101.36579 -0.19871128 -113.48198 -0.19925001 -113.49812 -30.433525 -80.47847
16840000000 -28.672333 -94.798279 -0.19904649 -113.66287 -0.20137799 -113.6767 -30.486336 -81.778824
16867500000 -29.430504 -98.834747 -0.19679263 -113.84393 -0.19957849 -113.85767 -30.377165 -76.119362
16895000000 -29.554838 -105.07918 -0.19928145 -114.01149 -0.19992895 -114.03561 -30.588013 -79.203423
16922500000 -28.772642 -99.350189 -0.19937034 -114.23094 -0.19886303 -114.23493 -30.893059 -83.430824
16950000000 -29.2775 -94.213371 -0.19454589 -114.41124 -0.19780305 -114.41073 -30.381039 -77.276054
16977500000 -29.558731 -108.48824 -0.19552465 -114.56638 -0.19656593 -114.59045 -30.711588 -77.02301
17005000000 -29.106733 -100.79645 -0.19456483 -114.76117 -0.19801843 -114.76845 -31.145641 -83.884621
17032500000 -29.253984 -93.433121 -0.19510551 -114.96818 -0.19592001 -114.94933 -30.476501 -78.370483
17060000000 -29.547184 -110.18156 -0.19925001 -115.13609 -0.1968403 -115.14907 -30.8109 -76.142799
17087500000 -29.39085 -100.74789 -0.19617917 -115.3272 -0.19713718 -115.31371 -31.100668 -82.708076
17115000000 -29.458172 -94.599861 -0.19499287 -115.5203 -0.19719921 -115.52119 -30.679892 -79.697609
17142500000 -29.971918 -105.79424 -0.19382502 -115.70953 -0.19672112 -115.71706 -30.881138 -76.097679
17170000000 -29.454206 -105.7534 -0.19476978 -115.87421 -0.19457918 -115.88995 -31.326992 -83.941406
17197500000 -29.937155 -95.404663 -0.19308046 -116.09404 -0.19663662 -116.07272 -30.966459 -82.667564
17225000000 -29.916964 -102.75576 -0.19536516 -116.2607 -0.19464768 -116.27971 -31.072329 -76.800957
17252500000 -29.449299 -107.50621 -0.19253004 -116.42965 -0.19586909 -116.45934 -31.296999 -79.821526
17280000000 -29.916006 -96.618813 -0.19387862 -116.64816 -0.19557501 -116.65484 -31.236256 -83.683945
17307500000 -30.024035 -99.155434 -0.19402641 -116.82678 -0.19422239 -116.83442 -30.797119 -76.473778
17335000000 -29.769669 -109.95448 -0.19635873 -117.02404 -0.19827583 -117.02071 -31.276222 -78.559357
17362500000 -29.589605 -98.771271 -0.19468233 -117.20009 -0.19589022 -117.19501 -31.499254 -85.844742
17390000000 -30.441694 -98.192429 -0.19306991 -117.38718 -0.19686468 -117.39992 -31.033772 -77.800339
17417500000 -29.230362 -107.42062 -0.19417177 -117.56594 -0.19583632 -117.59813 -31.173386 -75.76548
17445000000 -29.459305 -100.32548 -0.19644377 -117.72193 -0.19928417 -117.76761 -31.292603 -85.25119
17472500000 -30.348867 -96.237122 -0.19776756 -117.92017 -0.19580951 -117.93625 -31.443403 -78.641441
17500000000 -29.188511 -105.84624 -0.19497825 -118.13699 -0.19763833 -118.12573 -30.988916 -73.985611
17527500000 -29.365047 -102.92188 -0.19918714 -118.30438 -0.19839451 -118.34166 -31.426018 -81.637978
17555000000 -30.823767 -94.832016 -0.1967092 -118.48885 -0.20156996 -118.48835 -31.175203 -79.110191
17582500000 -29.289976 -105.05042 -0.19650769 -118.69061 -0.20049468 -118.69239 -30.958319 -73.844986
17610000000 -29.05698 -105.58808 -0.19454265 -118.85953 -0.2031001 -118.86517 -31.36199 -80.479065
17637500000 -29.848486 -96.123032 -0.19485722 -119.01442 -0.20150462 -119.04362 -31.216021 -81.335182
17665000000 -29.716215 -102.4335 -0.19861616 -119.21269 -0.19778165 -119.23167 -30.783798 -74.808853
17692500000 -28.535704 -107.37674 -0.20040794 -119.39698 -0.19547482 -119.41756 -31.094328 -77.749062
17720000000 -29.749901 -99.054146 -0.19803849 -119.58387 -0.1964779 -119.59626 -31.383511 -82.34967
17747500000 -29.745863 -102.04117 -0.19374761 -119.74168 -0.19554685 -119.77128 -30.684717 -74.88887
17775000000 -28.294037 -107.0053 -0.19350699 -119.94305 -0.19682729 -119.96222 -30.774752 -74.988533
17802500000 -29.469244 -102.28059 -0.19059329 -120.14496 -0.19271837 -120.15718 -30.992496 -84.753716
17830000000 -29.855448 -101.80226 -0.19290456 -120.31625 -0.19559208 -120.31098 -30.751295 -78.184067
17857500000 -28.529293 -105.54887 -0.19772638 -120.52587 -0.19492464 -120.51215 -30.513647 -74.962479
17885000000 -29.163958 -104.05294 -0.18934686 -120.72603 -0.19043264 -120.73967 -30.787745 -84.281593
17912500000 -30.067816 -101.43542 -0.19266073 -120.88058 -0.19376548 -120.892 -30.791082 -80.046066
17940000000 -28.688293 -106.80475 -0.19513421 -121.07937 -0.19368996 -121.10249 -30.191454 -75.917198
17967500000 -28.58795 -103.49802 -0.18847735 -121.29588 -0.19631161 -121.30202 -30.504919 -82.359894
17995000000 -30.463306 -101.62888 -0.18966134 -121.4856 -0.1969611 -121.49878 -30.856838 -83.611191
18022500000 -28.845543 -106.49501 -0.19223429 -121.64829 -0.19147566 -121.67181 -30.041204 -76.743187
18050000000 -28.685787 -102.96821 -0.19236471 -121.84728 -0.19278684 -121.8549 -30.362734 -81.812523
18077500000 -30.289608 -104.53818 -0.19127819 -122.0771 -0.19227785 -122.06153 -30.839012 -87.442963
18105000000 -29.370373 -106.56354 -0.19276141 -122.23833 -0.19196643 -122.23907 -30.526939 -78.002647
18132500000 -28.46804 -103.4827 -0.19577269 -122.42083 -0.19284096 -122.44412 -30.305769 -81.727127
18160000000 -30.033783 -105.80016 -0.19304527 -122.66536 -0.19715017 -122.66415 -30.689276 -88.39489
18187500000 -29.422287 -103.38275 -0.19399717 -122.81108 -0.19983003 -122.81715 -30.644667 -82.158318
18215000000 -28.659405 -103.51094 -0.1997498 -123.0313 -0.20040523 -123.03356 -29.974407 -79.802803
18242500000 -29.813473 -105.28416 -0.19916871 -123.25304 -0.20118764 -123.25871 -30.786024 -88.010971
18270000000 -29.627264 -106.21239 -0.20581266 -123.38427 -0.20517433 -123.3835 -30.760735 -84.428833
18297500000 -28.762291 -103.72525 -0.2080245 -123.59055 -0.21312197 -123.6232 -29.952654 -78.380516
18325000000 -29.284103 -103.74611 -0.20797399 -123.78194 -0.20336756 -123.79865 -30.183283 -87.323959
18352500000 -30.135118 -110.97106 -0.21358201 -123.95026 -0.21224335 -123.98292 -30.988377 -87.640137
18380000000 -28.772627 -104.17723 -0.21425232 -124.16535 -0.21601193 -124.15985 -29.998316 -79.529999
18407500000 -28.735846 -101.96582 -0.21543248 -124.30708 -0.21727392 -124.31512 -30.047619 -85.445694
18435000000 -30.343899 -112.90472 -0.2229076 -124.52312 -0.22604132 -124.52461 -31.061016 -91.031586
18462500000 -28.58239 -105.82169 -0.22084586 -124.65713 -0.22324987 -124.67681 -30.329811 -84.362587
18490000000 -28.986296 -103.11156 -0.23022775 -124.81013 -0.22492179 -124.81203 -29.932209 -84.073425
18517500000 -30.251043 -112.67548 -0.22794783 -125.01337 -0.22814916 -125.02887 -31.16123 -94.248726
18545000000 -29.009344 -111.46407 -0.22842827 -125.1571 -0.22728059 -125.16331 -30.791712 -86.549622
18572500000 -28.896599 -101.91703 -0.23089272 -125.3158 -0.23021492 -125.35079 -30.021862 -83.977806
18600000000 -29.765713 -111.80875 -0.22848202 -125.50948 -0.22981207 -125.53212 -31.03635 -94.350372
18627500000 -29.779749 -115.58858 -0.22560339 -125.62904 -0.22896826 -125.65002 -31.050554 -92.75045
18655000000 -29.029152 -101.98123 -0.22364885 -125.83132 -0.22883292 -125.83421 -30.202377 -85.254547
18682500000 -29.685848 -116.57922 -0.22222778 -126.02786 -0.22310162 -126.06519 -30.938643 -94.053741
18710000000 -30.137905 -115.10247 -0.2256372 -126.12954 -0.22459221 -126.15462 -31.466583 -94.360107
18737500000 -28.966295 -107.02913 -0.22137919 -126.36079 -0.22026387 -126.38857 -30.484806 -87.037148
18765000000 -30.200607 -108.94324 -0.2209717 -126.55122 -0.21851996 -126.55888 -30.743004 -91.573807
18792500000 -29.895025 -117.9267 -0.21758145 -126.7205 -0.2187165 -126.71143 -32.007397 -96.707405
18820000000 -29.852724 -109.78899 -0.21826027 -126.88155 -0.21680614 -126.93204 -30.671751 -87.655075
18847500000 -30.024214 -106.01942 -0.2101997 -127.07534 -0.21948916 -127.10762 -30.853367 -88.308334
18875000000 -29.680811 -120.94805 -0.21450007 -127.30344 -0.2147454 -127.30137 -32.371986 -96.120308
18902500000 -30.390781 -107.42862 -0.21144615 -127.4386 -0.21332099 -127.45543 -31.456871 -88.152466
18930000000 -29.571585 -106.27403 -0.21431351 -127.63038 -0.21304992 -127.66829 -30.757456 -86.987144
18957500000 -30.367668 -116.06477 -0.20728646 -127.84875 -0.21362144 -127.87046 -32.049034 -94.001534
18985000000 -30.544405 -114.27888 -0.20854621 -128.03444 -0.21127631 -128.03923 -31.853319 -93.05957
19012500000 -29.958138 -104.99104 -0.20918748 -128.22131 -0.21060808 -128.22461 -30.657055 -86.421623
19040000000 -30.693975 -112.611 -0.20876648 -128.43289 -0.21319565 -128.43791 -31.957157 -92.744179
19067500000 -30.130604 -118.71107 -0.21032631 -128.59615 -0.21252225 -128.61292 -32.463383 -93.881531
19095000000 -30.897617 -102.64538 -0.20891939 -128.79527 -0.21211831 -128.80188 -30.942467 -86.695938
19122500000 -30.283655 -110.55623 -0.2089604 -128.97655 -0.21108444 -128.99571 -31.525749 -91.352325
19150000000 -30.353163 -121.03848 -0.21384686 -129.16394 -0.20884387 -129.15076 -32.51823 -95.981232
19177500000 -31.008316 -104.85663 -0.20960256 -129.36206 -0.21358556 -129.39064 -30.935051 -88.099045
19205000000 -30.51133 -110.58559 -0.21267775 -129.56062 -0.2127071 -129.5918 -31.253458 -88.967194
19232500000 -30.319138 -118.93826 -0.21558209 -129.73972 -0.22031806 -129.74031 -32.757835 -95.947838
19260000000 -31.19519 -109.87215 -0.21535957 -129.89743 -0.21839148 -129.8981 -31.523113 -91.975365
19287500000 -30.609324 -108.95979 -0.21524996 -130.08705 -0.22124353 -130.07912 -31.262997 -88.907867
19315000000 -30.172865 -117.78587 -0.2172233 -130.25783 -0.21625461 -130.24606 -32.650909 -97.474388
19342500000 -31.209539 -116.2328 -0.21101433 -130.43456 -0.21553095 -130.43877 -32.40089 -94.113632
19370000000 -31.136778 -106.00815 -0.21104395 -130.64369 -0.21196175 -130.62598 -31.365452 -89.605919
19397500000 -30.70833 -116.35987 -0.2138164 -130.80363 -0.21390288 -130.80899 -32.726219 -93.855293
19425000000 -30.684729 -120.87183 -0.21439509 -130.99783 -0.21651554 -130.9856 -32.895958 -94.602058
19452500000 -31.327112 -106.46881 -0.20701279 -131.21529 -0.2134999 -131.19148 -31.368589 -88.121262
19480000000 -30.687029 -112.07319 -0.21276854 -131.36113 -0.21467741 -131.38986 -32.394085 -91.54348
19507500000 -30.528967 -121.9349 -0.21395074 -131.53482 -0.21487513 -131.55916 -33.487041 -96.176933
19535000000 -31.506163 -109.21482 -0.21218137 -131.72858 -0.209815 -131.75926 -31.395899 -88.944588
19562500000 -30.814095 -111.59743 -0.2111377 -131.93915 -0.21341234 -131.9502 -31.817972 -87.789879
19590000000 -30.421776 -120.38954 -0.21322529 -132.12479 -0.21614552 -132.13574 -33.652905 -94.606941
19617500000 -31.763271 -115.69218 -0.21061434 -132.31186 -0.21274842 -132.30547 -31.977404 -90.048882
19645000000 -30.91197 -108.5327 -0.21413402 -132.50896 -0.21396923 -132.52847 -31.460236 -88.185516
19672500000 -30.636295 -118.55373 -0.21661486 -132.69212 -0.2158982 -132.67555 -33.580326 -92.948326
19700000000 -31.377993 -118.75463 -0.21412858 -132.87286 -0.2147269 -132.85707 -32.653667 -92.405724
19727500000 -31.557102 -107.51057 -0.21697512 -133.07089 -0.21537943 -133.07208 -31.216372 -87.103203
19755000000 -30.319986 -117.6748 -0.21462083 -133.22398 -0.21525349 -133.24867 -33.275085 -91.264931
19782500000 -31.114386 -119.05815 -0.21397902 -133.42148 -0.21317145 -133.45078 -33.249081 -92.577568
19810000000 -31.880201 -109.10189 -0.21398228 -133.59331 -0.21254344 -133.6188 -31.007055 -86.933411
19837500000 -30.790638 -112.29968 -0.21450171 -133.78477 -0.22317792 -133.77806 -32.639473 -88.861855
19865000000 -30.871431 -123.29276 -0.21455909 -133.98392 -0.21664914 -133.98032 -33.554733 -92.193687
19892500000 -31.967157 -112.28612 -0.21181552 -134.13159 -0.2127941 -134.15804 -31.379128 -87.52404
19920000000 -31.016428 -110.76779 -0.21855317 -134.32547 -0.21818405 -134.32025 -31.939993 -88.252892
19947500000 -30.34845 -120.38143 -0.21523309 -134.53641 -0.21565717 -134.54308 -33.889248 -92.11779
19975000000 -31.814686 -115.07305 -0.21446635 -134.6785 -0.21325029 -134.70424 -31.743912 -88.462814
20002500000 -31.152153 -110.98004 -0.21367665 -134.86755 -0.21468447 -134.89211 -31.312477 -87.321587
20030000000 -30.624887 -116.20683 -0.21559814 -135.07109 -0.21714547 -135.08545 -33.685104 -90.966667
20057500000 -30.87026 -120.09855 -0.21625298 -135.25328 -0.21851887 -135.26454 -32.489235 -89.361183
20085000000 -31.676014 -111.34509 -0.21039152 -135.46402 -0.21601111 -135.45328 -30.539509 -86.110817
20112500000 -30.132883 -115.05044 -0.20840308 -135.61226 -0.21600214 -135.61481 -32.972084 -88.851341
20140000000 -30.516582 -119.94368 -0.21766555 -135.81281 -0.21556686 -135.78609 -32.588795 -90.920601
20167500000 -32.210815 -111.55247 -0.20925158 -136.0222 -0.21172963 -136.02881 -30.650698 -86.703163
20195000000 -30.380966 -115.77604 -0.21335959 -136.14577 -0.21388575 -136.17178 -32.278164 -88.898895
20222500000 -30.027809 -117.16755 -0.2154341 -136.40947 -0.21673349 -136.38898 -33.209381 -90.206108
20250000000 -31.786167 -115.61396 -0.21096052 -136.54709 -0.20934558 -136.54549 -30.660954 -88.836502
20277500000 -31.052122 -109.89182 -0.21895008 -136.73656 -0.21875516 -136.72464 -31.565203 -89.675438
20305000000 -30.117025 -116.44884 -0.21228467 -136.96014 -0.2174647 -136.96207 -33.322521 -91.518211
20332500000 -31.601665 -119.01688 -0.20969763 -137.08415 -0.2103236 -137.11462 -31.082197 -89.088547
20360000000 -31.494028 -111.29106 -0.21596731 -137.27077 -0.21838494 -137.28253 -30.827955 -88.723442
20387500000 -29.725109 -118.13966 -0.21475273 -137.51144 -0.21967785 -137.53593 -33.134502 -90.790352
20415000000 -31.337753 -117.46998 -0.21747531 -137.66481 -0.21887331 -137.69334 -31.631578 -89.67511
20442500000 -31.971119 -115.15635 -0.21613163 -137.8439 -0.22115855 -137.87517 -30.458765 -89.42086
20470000000 -29.814865 -116.11832 -0.21795161 -138.03645 -0.21818623 -138.04314 -32.550186 -92.01252
20497500000 -30.945158 -115.56483 -0.22027612 -138.24617 -0.22307846 -138.24477 -32.245453 -92.06633
20525000000 -32.429592 -124.19645 -0.21610606 -138.44241 -0.2136576 -138.45686 -30.472639 -90.638557
20552500000 -29.930853 -112.63756 -0.21573389 -138.56271 -0.21849519 -138.58936 -32.067871 -91.578896
20580000000 -30.410795 -119.30349 -0.21922398 -138.80948 -0.2211463 -138.81978 -32.867519 -94.251808
20607500000 -32.03896 -123.097 -0.21611694 -138.96841 -0.21362716 -138.97882 -30.543039 -91.44828
20635000000 -30.645664 -116.10364 -0.2230316 -139.10594 -0.22132416 -139.13098 -31.315298 -92.303017
20662500000 -30.248163 -116.48064 -0.22545834 -139.38147 -0.22581771 -139.37619 -33.019283 -94.909897
20690000000 -31.681963 -121.99007 -0.21585523 -139.51186 -0.22063725 -139.49884 -30.739611 -92.149712
20717500000 -31.223703 -119.43814 -0.22339158 -139.67914 -0.22790146 -139.68553 -30.886786 -92.611061
20745000000 -29.926453 -113.43763 -0.22486536 -139.92186 -0.22582698 -139.89806 -33.062908 -97.05529
20772500000 -30.551908 -122.72404 -0.22530347 -140.02498 -0.22598514 -140.04875 -31.534132 -92.800049
20800000000 -32.175152 -123.71175 -0.23104969 -140.21046 -0.23064676 -140.22751 -30.819828 -94.743889
20827500000 -29.126904 -113.30248 -0.22689164 -140.37094 -0.22843155 -140.40202 -32.484432 -96.126198
20855000000 -31.064611 -120.74995 -0.22918738 -140.52469 -0.22793365 -140.55319 -32.177689 -93.806694
20882500000 -31.688982 -128.93098 -0.22536455 -140.72612 -0.22401898 -140.7283 -30.739737 -94.091606
20910000000 -30.124516 -117.07465 -0.22621039 -140.88097 -0.22431117 -140.88342 -32.240681 -97.889832
20937500000 -30.599344 -115.54185 -0.222473 -141.05179 -0.22618039 -141.08357 -32.690453 -94.14415
20965000000 -31.695763 -132.40933 -0.21682437 -141.26933 -0.21935357 -141.30455 -30.944559 -93.557457
20992500000 -30.866043 -117.14133 -0.21750525 -141.44444 -0.2213721 -141.44418 -31.84403 -97.769989
21020000000 -30.468399 -112.36947 -0.22580953 -141.62582 -0.22415853 -141.68286 -33.186413 -95.887177
21047500000 -31.826107 -134.64734 -0.21474975 -141.85004 -0.21699037 -141.84961 -31.374243 -93.323746
21075000000 -31.081123 -119.44813 -0.21892396 -141.99744 -0.21937644 -141.97711 -31.262289 -97.392548
21102500000 -30.195362 -111.87737 -0.21983443 -142.20157 -0.22321008 -142.22325 -32.933823 -96.120377
21130000000 -31.979719 -126.4606 -0.21118608 -142.35751 -0.21524261 -142.38847 -31.793715 -89.998245
21157500000 -30.921162 -127.05294 -0.21893266 -142.54639 -0.21827035 -142.58153 -31.324043 -97.246155
21185000000 -30.346018 -110.44879 -0.21734305 -142.73964 -0.21963756 -142.77551 -32.731064 -98.276672
21212500000 -31.429674 -123.20134 -0.21796657 -142.90755 -0.2232673 -142.90962 -31.983244 -90.976395
21240000000 -31.357746 -131.38281 -0.22094773 -143.13203 -0.2192561 -143.1382 -31.089546 -97.787453
21267500000 -30.709314 -108.48278 -0.21677867 -143.27185 -0.21356353 -143.28055 -32.254532 -100.7852
21295000000 -30.915388 -120.38344 -0.21714738 -143.4444 -0.2201533 -143.47421 -32.413227 -91.17878
21322500000 -32.012779 -131.78755 -0.21394312 -143.67194 -0.22030798 -143.68155 -30.930428 -94.924576
21350000000 -30.644798 -117.93241 -0.21154481 -143.81212 -0.21716289 -143.8382 -31.68717 -102.74385
21377500000 -30.784502 -111.75692 -0.21784545 -143.99438 -0.22376359 -144.01913 -32.728268 -94.604477
21405000000 -31.602133 -133.98625 -0.21646465 -144.22839 -0.21591915 -144.23907 -31.19112 -93.366486
21432500000 -30.887653 -126.63426 -0.21712534 -144.38449 -0.21685104 -144.3846 -31.331251 -104.17197
21460000000 -30.833588 -107.81326 -0.22016719 -144.59145 -0.21818623 -144.57378 -32.787079 -100.39311
21487500000 -30.852615 -136.98 -0.21685159 -144.75674 -0.2169539 -144.77193 -31.8661 -92.491409
21515000000 -30.898399 -125.45013 -0.21856134 -144.92613 -0.22044115 -144.91656 -31.23929 -103.9419
21542500000 -30.825102 -112.35606 -0.2185303 -145.13847 -0.2190372 -145.15143 -32.437138 -103.79861
21570000000 -31.31786 -130.7565 -0.21992537 -145.2641 -0.22021839 -145.27168 -32.343117 -92.26725
21597500000 -31.096468 -135.13487 -0.22788344 -145.45578 -0.22296892 -145.48653 -31.270695 -103.09541
21625000000 -30.726274 -120.98615 -0.21728563 -145.65819 -0.21643636 -145.66605 -32.458153 -107.85501
21652500000 -31.883318 -121.71152 -0.21509027 -145.76921 -0.21790914 -145.81033 -32.627266 -92.402405
21680000000 -30.250225 -141.81192 -0.21866614 -146.03177 -0.22283676 -146.04349 -31.54034 -101.1981
21707500000 -31.944324 -120.52698 -0.20999214 -146.15898 -0.21169972 -146.19171 -32.118488 -109.57889
21735000000 -31.346079 -116.9962 -0.21084259 -146.35408 -0.21893157 -146.36865 -33.304527 -95.830856
21762500000 -31.363779 -145.27045 -0.21605219 -146.54326 -0.21462682 -146.58521 -31.919094 -97.070068
21790000000 -31.223335 -122.59959 -0.21132739 -146.73921 -0.20969465 -146.74455 -31.761244 -110.43343
21817500000 -32.195107 -116.24362 -0.21436246 -146.92181 -0.21374789 -146.92702 -33.162178 -99.647514
21845000000 -31.361961 -134.97252 -0.20547557 -147.10965 -0.20916195 -147.11877 -32.408653 -93.903877
21872500000 -31.026173 -131.70274 -0.2130415 -147.26286 -0.2153011 -147.33388 -31.592607 -107.48505
21900000000 -32.099094 -118.55544 -0.20764759 -147.48685 -0.2110953 -147.5117 -33.307796 -102.35007
21927500000 -31.205933 -126.13918 -0.20439471 -147.65002 -0.20237021 -147.6483 -32.601765 -91.059509
21955000000 -30.870369 -140.81123 -0.21076514 -147.84941 -0.21712099 -147.84602 -31.496407 -107.68987
21982500000 -32.347519 -116.21532 -0.20656593 -148.04622 -0.20379293 -148.06537 -32.517124 -108.81968
22010000000 -30.903753 -128.07634 -0.20411606 -148.17868 -0.20559932 -148.18773 -33.138134 -92.569107
22037500000 -31.674852 -139.56352 -0.21213326 -148.36702 -0.21177882 -148.39241 -31.501144 -103.84614
22065000000 -31.796616 -122.11714 -0.20258258 -148.5896 -0.20229591 -148.60402 -31.974476 -112.86573
22092500000 -32.264336 -128.72711 -0.20049034 -148.73337 -0.20273636 -148.74913 -34.048737 -94.479652
22120000000 -30.550625 -135.94878 -0.20094851 -148.96873 -0.20572771 -148.97055 -31.871847 -100.81767
22147500000 -31.872707 -127.52951 -0.19877686 -149.12386 -0.20105316 -149.14822 -31.724287 -114.99715
22175000000 -32.988632 -127.61179 -0.1975427 -149.31973 -0.20399696 -149.32195 -33.999241 -100.32001
22202500000 -29.844357 -133.26239 -0.20157185 -149.55699 -0.19937305 -149.57341 -32.372723 -95.021004
22230000000 -32.042568 -136.49414 -0.19835305 -149.69749 -0.19930638 -149.69687 -31.206863 -113.32471
22257500000 -32.260998 -121.11655 -0.19800299 -149.89874 -0.19877712 -149.9418 -34.040512 -106.78719
22285000000 -30.773712 -137.80057 -0.19741105 -150.09566 -0.19643457 -150.11258 -33.118393 -91.956665
22312500000 -30.702612 -134.46092 -0.20370965 -150.24738 -0.20570654 -150.2843 -31.08564 -111.9641
22340000000 -32.280151 -123.82896 -0.19490163 -150.50011 -0.19593164 -150.5282 -33.184967 -111.0183
22367500000 -31.497993 -135.37852 -0.18807484 -150.658 -0.19341092 -150.66315 -33.633568 -90.431717
22395000000 -29.699718 -135.52692 -0.2021153 -150.86336 -0.20742765 -150.85222 -31.222687 -106.73064
22422500000 -32.864277 -128.39285 -0.1911386 -151.08836 -0.18968108 -151.08 -32.278229 -113.42293
22450000000 -31.809763 -133.7032 -0.19024657 -151.21812 -0.1954751 -151.21838 -34.298286 -94.598122
22477500000 -28.8402 -135.54947 -0.20695198 -151.44995 -0.20496726 -151.47891 -31.881931 -101.05939
22505000000 -33.138275 -127.2461 -0.19439456 -151.6165 -0.19295679 -151.64554 -31.822674 -115.09763
22532500000 -31.748919 -134.3056 -0.19191773 -151.78088 -0.19751534 -151.8017 -34.472698 -99.816185
22560000000 -30.134542 -133.66393 -0.20400943 -152.00728 -0.20574915 -151.99382 -32.083397 -98.424873
22587500000 -31.88283 -131.80856 -0.19395387 -152.149 -0.19555417 -152.16869 -31.22089 -117.14292
22615000000 -33.04047 -138.72745 -0.19247375 -152.37059 -0.19639178 -152.38443 -34.053082 -107.56481
22642500000 -30.491463 -135.05029 -0.19980508 -152.53804 -0.19638988 -152.56894 -32.396648 -95.428055
22670000000 -30.283831 -135.03828 -0.20202336 -152.71046 -0.20162798 -152.69722 -31.481703 -111.47615
22697500000 -33.671623 -139.02109 -0.19310562 -152.90894 -0.19261149 -152.94421 -33.715275 -114.53413
22725000000 -30.549459 -135.49652 -0.19050728 -153.09111 -0.1956725 -153.08363 -33.206154 -95.309944
22752500000 -29.494614 -133.13316 -0.19930774 -153.2426 -0.20118982 -153.25349 -31.417728 -109.77206
22780000000 -34.930454 -143.39075 -0.18420915 -153.49348 -0.18591501 -153.50859 -32.639885 -118.07
22807500000 -30.608879 -140.87485 -0.18769398 -153.65213 -0.18997909 -153.65614 -33.672806 -97.820328
22835000000 -29.409021 -135.18318 -0.19992706 -153.83612 -0.20262001 -153.84796 -31.445856 -102.59211
22862500000 -33.099422 -133.47823 -0.18927035 -154.06059 -0.1871964 -154.073 -31.786707 -116.3704
22890000000 -32.048393 -149.24094 -0.1892844 -154.20821 -0.18673104 -154.20714 -34.169262 -103.3773
22917500000 -29.711668 -131.6839 -0.19644214 -154.44681 -0.20009999 -154.41324 -31.702906 -99.586044
22945000000 -31.199394 -139.20732 -0.18793103 -154.56902 -0.19230925 -154.54869 -31.618219 -115.38506
22972500000 -34.095215 -147.49121 -0.18410571 -154.7738 -0.18812485 -154.80453 -33.956139 -113.72469
23000000000 -29.162958 -134.38472 -0.19396469 -155.01035 -0.19182493 -155.01961 -32.264492 -99.376709
23027500000 -31.221762 -134.44205 -0.18924466 -155.16725 -0.19162148 -155.16135 -31.532972 -113.93336
23055000000 -33.940727 -150.25197 -0.18305041 -155.38135 -0.18149303 -155.36479 -33.608925 -116.89829
23082500000 -29.921127 -141.56584 -0.18779047 -155.54506 -0.19147187 -155.55756 -32.964928 -99.218895
23110000000 -30.300753 -128.81644 -0.19793065 -155.73801 -0.20020816 -155.76399 -31.334408 -108.41219
23137500000 -33.710846 -156.25612 -0.18143609 -155.95282 -0.18704073 -155.97214 -33.06559 -121.76744
23165000000 -30.956118 -144.76874 -0.18876529 -156.09724 -0.18664564 -156.09879 -33.316982 -102.51025
23192500000 -30.09243 -126.87289 -0.19956359 -156.29916 -0.20147045 -156.3131 -31.074966 -105.64959
23220000000 -32.960335 -158.11963 -0.18567942 -156.53419 -0.18468396 -156.5219 -32.552155 -121.49676
23247500000 -31.445005 -149.05887 -0.17992921 -156.65259 -0.18287221 -156.64499 -33.812904 -107.44544
23275000000 -29.300783 -128.40285 -0.19988206 -156.85283 -0.20072973 -156.83211 -31.459866 -101.99306
23302500000 -33.475937 -147.45309 -0.18383916 -157.09082 -0.18926385 -157.1086 -32.214108 -120.41337
23330000000 -31.206049 -159.68834 -0.17776641 -157.22755 -0.18689966 -157.19987 -34.126553 -112.79409
23357500000 -30.502308 -132.06065 -0.19621709 -157.46263 -0.1918371 -157.41382 -31.561043 -100.76276
23385000000 -31.41441 -138.25259 -0.1911881 -157.60646 -0.19324474 -157.64139 -31.721281 -117.82415
23412500000 -32.334221 -168.58951 -0.18552624 -157.80365 -0.18867065 -157.81984 -33.495758 -116.76852
23440000000 -30.415218 -132.34906 -0.18768559 -157.97293 -0.18808782 -157.98489 -32.046158 -100.80814
23467500000 -31.507103 -135.96776 -0.19124681 -158.15338 -0.19125113 -158.15749 -31.568516 -115.13245
23495000000 -32.442673 -171.19374 -0.18665212 -158.39986 -0.18503268 -158.41656 -33.309242 -123.20775
23522500000 -30.727343 -141.25636 -0.1862949 -158.54637 -0.18207392 -158.56783 -32.556683 -104.10673
23550000000 -31.749378 -131.06154 -0.18966323 -158.73184 -0.19593355 -158.72025 -31.461329 -113.29008
23577500000 -32.051956 -162.4939 -0.18279338 -158.96178 -0.18536684 -158.97491 -33.142448 -125.95956
23605000000 -31.460907 -154.39601 -0.18309441 -159.08081 -0.18423615 -159.11586 -33.149166 -106.54245
23632500000 -31.217716 -125.99247 -0.19552356 -159.31172 -0.20234418 -159.30154 -31.616922 -110.37711
23660000000 -32.265991 -165.25847 -0.18536387 -159.56497 -0.18916948 -159.5318 -32.74218 -124.88998
23687500000 -31.624939 -160.39986 -0.18557622 -159.63857 -0.18235952 -159.67441 -32.97208 -111.34945
23715000000 -31.313633 -131.45158 -0.19134852 -159.83981 -0.19214825 -159.87341 -31.883623 -105.38403
23742500000 -32.72694 -151.19586 -0.18601498 -160.08897 -0.18855765 -160.11037 -32.330082 -125.55433
23770000000 -31.699278 -163.75441 -0.18382619 -160.22803 -0.18642271 -160.2328 -33.513153 -119.56796
23797500000 -32.017113 -140.80402 -0.19702503 -160.4249 -0.19128278 -160.41154 -31.952618 -105.50218
23825000000 -33.128613 -137.59149 -0.19251651 -160.60553 -0.19183034 -160.64847 -31.983595 -123.88947
23852500000 -30.876278 -173.17207 -0.18746126 -160.81952 -0.18648161 -160.83124 -33.610168 -125.71138
23880000000 -32.422794 -142.7446 -0.18802457 -160.96347 -0.18921734 -160.99229 -32.51897 -106.49467
23907500000 -33.390549 -137.29987 -0.1909506 -161.15002 -0.19422916 -161.18628 -31.848051 -120.32385
23935000000 -31.16794 -173.66701 -0.18764046 -161.39507 -0.1941715 -161.41443 -33.288406 -131.35812
23962500000 -31.521061 -149.92825 -0.18727072 -161.52576 -0.18416405 -161.54721 -32.734703 -108.33998
23990000000 -34.308987 -128.50887 -0.19300766 -161.70305 -0.19555633 -161.73331 -31.91498 -117.20628
24017500000 -31.731977 -171.18013 -0.18776345 -161.94363 -0.18951045 -161.98351 -32.856026 -136.88277
24045000000 -31.100447 -157.17308 -0.18682292 -162.11099 -0.18666673 -162.10484 -33.00156 -112.78979
24072500000 -35.554031 -128.00653 -0.19402614 -162.26704 -0.19675064 -162.28542 -32.158245 -114.43641
24100000000 -31.874054 -165.75789 -0.18738991 -162.5432 -0.19129495 -162.51347 -32.957367 -135.70909
24127500000 -30.316595 -161.94611 -0.18233603 -162.65721 -0.18802212 -162.67751 -33.476265 -118.91978
24155000000 -34.911327 -130.58258 -0.18887559 -162.83711 -0.19226649 -162.84598 -32.276745 -111.44461
24182500000 -33.347755 -157.00281 -0.18647622 -163.06404 -0.18927196 -163.07936 -32.900665 -134.82535
24210000000 -30.776258 -167.83943 -0.19161905 -163.23785 -0.18809916 -163.24883 -33.674873 -127.26498
24237500000 -33.628014 -138.88934 -0.18869418 -163.40181 -0.19098009 -163.416 -32.849899 -111.21265
24265000000 -35.822083 -156.24593 -0.1883038 -163.61502 -0.19031931 -163.61504 -32.599747 -130.7599
24292500000 -30.019911 -165.96365 -0.18661834 -163.81009 -0.18973111 -163.83536 -33.586231 -135.50053
24320000000 -33.575218 -142.96579 -0.18905053 -163.9827 -0.18743774 -163.96614 -33.48671 -109.13032
24347500000 -37.260067 -148.41875 -0.18906863 -164.1608 -0.190979 -164.16656 -32.789005 -128.68103
24375000000 -30.653286 -166.52145 -0.19058545 -164.37152 -0.19472754 -164.40529 -33.258736 -142.0627
24402500000 -32.682995 -148.90701 -0.18834543 -164.54274 -0.19332214 -164.52826 -34.003868 -115.27336
24430000000 -38.823856 -153.49332 -0.19550759 -164.71812 -0.19274436 -164.71227 -33.025455 -122.93283
24457500000 -31.459318 -164.27576 -0.19230193 -164.94316 -0.19169128 -164.95267 -32.766308 -143.96114
24485000000 -31.395357 -156.1147 -0.1902782 -165.09749 -0.19185767 -165.09862 -33.945843 -119.84325
24512500000 -39.418724 -140.59303 -0.19280498 -165.2704 -0.19602968 -165.2502 -33.338226 -118.75982
24540000000 -33.409435 -168.59039 -0.19001262 -165.51054 -0.18963754 -165.51196 -32.504044 -143.55626
24567500000 -30.792574 -156.84743 -0.18973057 -165.66978 -0.18793076 -165.6505 -34.460384 -129.65068
24595000000 -38.97076 -149.39194 -0.19370051 -165.8204 -0.19161066 -165.81995 -33.848293 -117.15616
24622500000 -34.717567 -167.09315 -0.18588042 -166.049 -0.19271865 -166.05692 -32.474464 -141.38898
24650000000 -30.496452 -157.50465 -0.19234116 -166.20203 -0.192871 -166.24988 -34.088375 -137.4673
24677500000 -36.599457 -145.59543 -0.1874191 -166.40364 -0.19102472 -166.40169 -34.949295 -114.69523
24705000000 -37.272778 -171.81821 -0.19065766 -166.60103 -0.19765404 -166.60266 -32.82653 -139.04869
24732500000 -31.427397 -160.69431 -0.19296247 -166.73062 -0.19430469 -166.79758 -33.731083 -145.64903
24760000000 -33.497036 -148.61014 -0.19553466 -166.95653 -0.191045 -166.97075 -36.090595 -115.48216
24787500000 -39.911671 172.401 -0.19347641 -167.1256 -0.19612744 -167.13187 -33.742233 -132.43866
24815000000 -31.396994 -159.68657 -0.19578433 -167.38783 -0.19055705 -167.36414 -32.936047 -150.03996
24842500000 -32.87038 -151.28525 -0.1873118 -167.50368 -0.19253924 -167.49265 -36.157261 -122.57758
24870000000 -41.642635 -173.67224 -0.18747099 -167.66052 -0.19519295 -167.68904 -34.271954 -129.46909
24897500000 -33.364342 -165.74634 -0.19093736 -167.87775 -0.19467801 -167.92326 -32.734035 -150.12355
24925000000 -32.413704 -153.68361 -0.18915623 -168.05151 -0.19485669 -168.06882 -35.445599 -133.60934
24952500000 -39.81015 179.14502 -0.189786 -168.23201 -0.19422239 -168.25967 -35.002861 -124.01433
24980000000 -33.896267 -171.23393 -0.19038369 -168.44524 -0.18731451 -168.45665 -33.330296 -149.96764
25007500000 -32.457256 -152.27193 -0.19308831 -168.6209 -0.1947844 -168.60887 -35.598995 -138.67984
25035000000 -37.33609 -170.24623 -0.18938309 -168.82231 -0.19332133 -168.84752 -35.863106 -125.54209
25062500000 -37.277138 167.37782 -0.18864903 -168.98965 -0.19143833 -169.00128 -33.708752 -149.82336
25090000000 -31.08408 -154.05463 -0.18829812 -169.22702 -0.19255629 -169.22992 -35.256561 -147.26758
25117500000 -36.791794 -167.54971 -0.18757911 -169.38652 -0.19018896 -169.36189 -37.685242 -128.32826
25145000000 -37.165421 169.80585 -0.18980683 -169.58829 -0.19102526 -169.56065 -34.705654 -142.95879
25172500000 -32.311996 -161.39568 -0.18915597 -169.7267 -0.19164935 -169.78639 -34.96246 -148.61714
25200000000 -35.935501 -162.49835 -0.19330536 -169.91211 -0.19642183 -169.98924 -39.275097 -132.73409
25227500000 -35.567039 166.2916 -0.19409543 -170.14897 -0.1913469 -170.13799 -35.522945 -137.75345
25255000000 -34.495575 -167.82895 -0.18979304 -170.33421 -0.19303012 -170.30852 -33.523499 -153.96805
25282500000 -33.783604 -156.81609 -0.19738314 -170.49876 -0.19319412 -170.50937 -38.46727 -134.09131
25310000000 -36.115688 166.48239 -0.19271216 -170.70819 -0.18824704 -170.68947 -37.136948 -133.8503
25337500000 -35.233776 -174.15372 -0.19015488 -170.91731 -0.1891703 -170.91995 -33.73299 -151.59557
25365000000 -32.910812 -154.33661 -0.19174512 -171.0976 -0.19317004 -171.05904 -38.306286 -139.54018
25392500000 -37.241055 166.12144 -0.19444382 -171.28125 -0.19300577 -171.28902 -38.69854 -133.08369
25420000000 -34.689293 179.09323 -0.19160958 -171.4648 -0.19190691 -171.50595 -33.490318 -151.32043
25447500000 -34.762928 -155.422 -0.19096385 -171.65985 -0.19302905 -171.67729 -37.143364 -139.89992
25475000000 -36.288013 178.149 -0.19022952 -171.84767 -0.19459867 -171.8149 -39.73719 -132.29059
25502500000 -35.52166 163.43843 -0.18999586 -172.01239 -0.19203055 -172.0415 -34.080681 -150.02988
25530000000 -34.273895 -150.51021 -0.19751967 -172.23383 -0.1914148 -172.23833 -36.514015 -148.76997
25557500000 -36.486141 -176.33022 -0.19963135 -172.41104 -0.19344041 -172.38951 -40.814289 -128.601
25585000000 -35.16301 154.54521 -0.19464822 -172.5813 -0.19903727 -172.59135 -34.79092 -148.54132
25612500000 -35.604961 -156.24695 -0.1941956 -172.77242 -0.19517969 -172.83395 -35.634182 -153.5994
25640000000 -35.706024 -177.77219 -0.19858825 -172.89937 -0.1992465 -172.97939 -42.091927 -133.18411
25667500000 -35.006489 159.0407 -0.19848393 -173.16263 -0.20111118 -173.14357 -37.142673 -141.93736
25695000000 -35.454556 -175.92966 -0.19460897 -173.30136 -0.19665205 -173.30923 -34.869705 -152.78282
25722500000 -37.684616 -159.17836 -0.19979154 -173.48653 -0.20050499 -173.48599 -41.395496 -136.30388
25750000000 -33.656517 157.96652 -0.19419856 -173.66939 -0.20223814 -173.72098 -39.133278 -140.99734
25777500000 -36.677036 179.05235 -0.1978873 -173.92625 -0.19264396 -173.9014 -34.853645 -150.66229
25805000000 -35.604469 -158.2753 -0.20512195 -174.04576 -0.19924216 -174.05945 -40.593536 -146.14951
25832500000 -35.736824 160.54172 -0.19786942 -174.25291 -0.1979629 -174.22707 -40.084618 -139.668
25860000000 -34.247906 162.96216 -0.19643077 -174.45757 -0.20243639 -174.45074 -34.810059 -149.41637
25887500000 -38.112129 -153.1981 -0.19462548 -174.62402 -0.19832271 -174.64955 -37.903511 -151.54668
25915000000 -37.053574 168.40947 -0.19663201 -174.81017 -0.20283265 -174.79912 -43.096394 -140.6718
25942500000 -33.54052 157.57629 -0.19897278 -174.98552 -0.20291103 -174.99641 -35.483051 -149.28241
25970000000 -39.800217 -159.59972 -0.18643136 -175.16673 -0.19683163 -175.2188 -37.04686 -154.90565
25997500000 -36.059605 -177.94104 -0.20161878 -175.31339 -0.20165835 -175.32864 -45.230724 -131.65079
26025000000 -34.497192 145.50871 -0.201189 -175.51195 -0.196593 -175.58122 -36.109119 -143.20232
26052500000 -37.402576 -178.21419 -0.19495659 -175.71915 -0.19601668 -175.75031 -35.709747 -157.53134
26080000000 -38.176414 -164.37799 -0.19729781 -175.92282 -0.20182404 -175.92107 -45.582638 -136.54404
26107500000 -35.098808 148.75574 -0.19880395 -176.09984 -0.20037432 -176.12665 -37.820889 -142.5703
26135000000 -36.078476 162.85127 -0.1961659 -176.26427 -0.19472972 -176.31683 -35.70459 -155.68681
26162500000 -40.461296 -152.38306 -0.19632244 -176.48364 -0.19851266 -176.48059 -43.123722 -153.75702
26190000000 -34.113796 158.66568 -0.20001054 -176.68054 -0.20391068 -176.63792 -40.31316 -132.5874
26217500000 -35.89764 151.65013 -0.19542636 -176.84679 -0.19993845 -176.81256 -35.205585 -152.73491
26245000000 -40.649708 -158.50978 -0.19444951 -177.01308 -0.2000165 -177.04895 -41.121357 -156.5143
26272500000 -35.156067 157.22726 -0.19727884 -177.21172 -0.19749746 -177.21622 -41.307865 -132.43828
26300000000 -36.977119 144.76622 -0.19261745 -177.38474 -0.19722819 -177.38499 -35.803814 -150.22525
26327500000 -38.940048 166.83748 -0.19509061 -177.59366 -0.19514638 -177.59221 -38.894737 -164.1416
26355000000 -38.106403 -178.31226 -0.19761015 -177.79642 -0.19421968 -177.82076 -43.725895 -135.80586
26382500000 -33.37685 146.00865 -0.20188099 -177.9353 -0.1993259 -177.95251 -37.45359 -144.91281
26410000000 -41.830399 164.2061 -0.18840842 -178.16319 -0.19166666 -178.18645 -37.365112 -164.09248
26437500000 -38.976841 168.71486 -0.19321199 -178.36482 -0.19516425 -178.35858 -44.715069 -151.08932
26465000000 -34.400375 147.35756 -0.19530559 -178.50372 -0.19961698 -178.55933 -39.156799 -140.85426
26492500000 -37.050953 153.09885 -0.18825811 -178.70894 -0.19762181 -178.74426 -37.318874 -162.50702
26520000000 -42.118694 -176.62233 -0.19412033 -178.87672 -0.19845168 -178.91286 -42.308987 -171.01073
26547500000 -34.530415 152.60789 -0.2003594 -179.18066 -0.19006753 -179.12811 -39.581814 -142.15453
26575000000 -35.931915 158.70465 -0.19033743 -179.23236 -0.19500695 -179.26476 -38.305943 -159.44774
26602500000 -43.485401 134.90733 -0.19278847 -179.47458 -0.19588995 -179.52458 -42.46056 179.38454
26630000000 -36.918087 159.92445 -0.18400551 -179.63649 -0.21460234 -179.71989 -40.430126 -135.12755
26657500000 -35.138737 151.90082 -0.20554505 -179.94905 -0.19156818 -179.83809 -38.312916 -156.95123
26685000000 -48.921383 168.91696 -0.20244481 179.93063 -0.20162067 179.99995 -41.841591 164.61674
26712500000 -37.354336 159.96652 -0.19194046 179.72629 -0.20678446 179.7583 -43.211147 -136.86974
26740000000 -36.87677 156.6349 -0.20479901 179.57253 -0.21615639 179.53683 -36.889969 -153.61987
26767500000 -40.22784 116.30489 -0.2058607 179.28766 -0.21507424 179.35468 -40.989582 179.13699
26795000000 -39.45118 148.26573 -0.19872293 179.12219 -0.20473389 179.23755 -41.791084 -129.08412
26822500000 -35.609726 142.64011 -0.2044981 179.05775 -0.21637896 179.02841 -39.790852 -142.93089
26850000000 -41.76181 159.49751 -0.2014859 178.80823 -0.20977914 178.77531 -40.199902 177.50839
26877500000 -42.713097 127.41525 -0.21419059 178.6293 -0.21102194 178.61288 -43.485554 -164.88077
26905000000 -36.440483 158.67834 -0.19783826 178.47733 -0.19756438 178.40176 -39.250549 -140.67664
26932500000 -38.701458 159.32069 -0.17876244 178.37175 -0.19339819 178.28598 -38.079041 171.18222
26960000000 -39.128811 102.95478 -0.2104581 178.11404 -0.1951296 178.14697 -42.660187 -173.6994
26987500000 -36.139305 170.22395 -0.22295828 177.8618 -0.20638703 177.93259 -39.610424 -128.56142
27015000000 -36.843353 140.99339 -0.19587316 177.74648 -0.18368982 177.73286 -40.782917 -170.92259
27042500000 -42.539722 101.49371 -0.21837515 177.62547 -0.20177631 177.49428 -40.602772 175.38327
27070000000 -35.819828 155.60744 -0.20072539 177.38531 -0.20422785 177.27875 -40.020123 -138.05586
27097500000 -38.077625 148.62936 -0.19445249 177.08362 -0.19275437 177.18407 -41.873741 -155.90633
27125000000 -40.126141 123.12321 -0.19855981 176.97923 -0.20166866 176.97688 -38.297176 171.39418
27152500000 -36.831341 146.74872 -0.197109 176.8835 -0.21309614 176.79524 -40.304729 -123.61391
27180000000 -41.713787 177.92213 -0.2018151 176.49821 -0.21875598 176.57697 -40.236233 -143.99977
27207500000 -34.923004 126.07132 -0.20278491 176.4623 -0.18321916 176.50876 -40.52877 171.90042
27235000000 -46.683266 128.78546 -0.19979885 176.23021 -0.2023751 176.20996 -44.884628 -146.94366
27262500000 -36.850887 -177.85966 -0.21605028 176.00847 -0.20568727 176.04237 -41.298229 -140.20164
27290000000 -36.997181 124.49256 -0.19974789 175.89178 -0.19881533 175.81694 -40.138512 167.12634
27317500000 -44.043755 143.57294 -0.20950748 175.63251 -0.21946111 175.61696 -42.416008 -151.30989
27345000000 -39.050716 160.78177 -0.19322741 175.5078 -0.20524895 175.56265 -42.162418 -120.70934
27372500000 -37.866436 131.43372 -0.19882211 175.22588 -0.19753133 175.30693 -41.10273 -173.79437
27400000000 -37.089451 141.60339 -0.21479408 175.1499 -0.18704262 175.06508 -45.494633 155.09322
27427500000 -47.5331 -158.7308 -0.21193592 174.95071 -0.19195317 174.92413 -42.775818 -126.54233
27455000000 -39.943237 154.12804 -0.20144793 174.77243 -0.20768534 174.76091 -41.549084 174.09406
27482500000 -35.60973 114.93255 -0.21536283 174.49986 -0.19821134 174.46146 -42.477322 151.85753
27510000000 -45.637058 -136.11449 -0.21870153 174.39314 -0.21136762 174.3438 -41.787586 -121.41756
27537500000 -37.815456 147.9501 -0.20191814 174.1373 -0.20539008 174.17741 -42.821972 -175.21872
27565000000 -39.819366 107.66006 -0.21971135 173.95369 -0.21211043 173.95239 -41.582623 146.41246
27592500000 -42.582737 168.70956 -0.21426782 173.83614 -0.20339957 173.75366 -47.566654 -108.82391
27620000000 -45.603603 111.78593 -0.20054565 173.70274 -0.20810108 173.50459 -41.994293 -173.3508
27647500000 -38.895668 144.02309 -0.21695417 173.31885 -0.20754169 173.41493 -41.713951 154.03099
27675000000 -38.066292 99.282303 -0.21111786 173.30464 -0.2080503 173.3286 -48.85083 -162.17476
27702500000 -57.485153 -67.153084 -0.21025351 173.0621 -0.21447751 173.11693 -41.16806 -142.5242
27730000000 -36.327751 134.50201 -0.2094181 172.79846 -0.20750721 172.84795 -39.372608 147.01863
27757500000 -41.734802 85.014709 -0.20034938 172.69444 -0.21525511 172.60115 -51.090721 156.5157
27785000000 -52.282207 -115.20997 -0.21787485 172.55553 -0.21102466 172.45761 -44.626034 -144.50238
27812500000 -38.270073 125.00749 -0.21069857 172.32159 -0.20426501 172.19637 -41.948395 126.64858
27840000000 -41.403168 143.07385 -0.20498626 172.08356 -0.21920519 172.18433 -46.736942 133.3208
27867500000 -47.037991 81.951141 -0.20238379 171.93738 -0.20439173 171.91792 -47.624702 -94.725555
27895000000 -49.122051 85.503632 -0.21224362 171.82335 -0.20714772 171.73036 -44.302132 -176.31136
27922500000 -36.115536 129.30626 -0.20761229 171.6237 -0.22199485 171.5089 -42.483818 142.56696
27950000000 -43.751907 44.538704 -0.20816219 171.37048 -0.20641011 171.37737 -54.328175 -172.91878
27977500000 -49.423279 51.647377 -0.21385475 171.13585 -0.20862469 171.16362 -44.107815 171.62064
28005000000 -34.731945 124.30219 -0.21240617 170.91977 -0.20717867 170.82835 -42.80632 138.84377
28032500000 -44.946205 50.155922 -0.19119406 170.78198 -0.21259211 170.88873 -53.895622 -64.302895
28060000000 -50.61187 105.2111 -0.2212498 170.66458 -0.20225415 170.72455 -50.020519 168.55696
28087500000 -36.215599 94.182335 -0.22202945 170.34454 -0.20396358 170.40582 -40.781906 140.83691
28115000000 -40.514835 145.24541 -0.21594881 170.30984 -0.22551233 170.31941 -47.301041 32.17992
28142500000 -39.057674 30.912073 -0.22075844 170.22675 -0.20630044 170.10629 -65.287674 -171.16846
28170000000 -40.127625 110.76214 -0.21689785 169.85213 -0.21793093 169.85452 -39.999004 137.35814
28197500000 -39.666542 117.22607 -0.23155504 169.60905 -0.21437877 169.80597 -44.482025 61.076057
28225000000 -39.89756 32.4342 -0.21360867 169.57059 -0.20345898 169.5592 -51.988201 -16.125114
28252500000 -38.229195 112.2 -0.21381178 169.26169 -0.21614279 169.30975 -46.340733 126.41493
28280000000 -38.753139 131.15053 -0.21093199 169.1001 -0.21317172 169.08197 -47.612785 82.681908
28307500000 -38.130814 39.560009 -0.20643996 168.85695 -0.19322038 168.95882 -43.038696 8.6442518
28335000000 -41.953758 82.998627 -0.21991965 168.88498 -0.23234856 168.6918 -47.348473 150.82643
28362500000 -38.124668 112.2414 -0.23422535 168.59561 -0.22934429 168.39162 -44.71727 79.824127
28390000000 -38.899101 53.422234 -0.20616417 168.38312 -0.20758732 168.26196 -44.944363 8.7229786
28417500000 -37.882965 58.450539 -0.22482337 168.09492 -0.2344909 168.17653 -52.04686 166.96524
28445000000 -37.618618 128.70262 -0.22716057 167.94617 -0.22514671 167.93982 -44.720516 109.86616
28472500000 -45.946411 74.102882 -0.21936746 167.83594 -0.21249561 167.79965 -39.79108 45.105797
28500000000 -37.103241 47.107704 -0.21715446 167.71097 -0.208443 167.60573 -51.23671 32.581554
28527500000 -48.273865 106.46017 -0.21951394 167.442 -0.25386551 167.38428 -44.778194 89.12851
28555000000 -40.032585 67.431 -0.21974103 167.23122 -0.22298418 167.22235 -40.488354 48.839188
28582500000 -36.957691 54.605873 -0.20870101 167.22122 -0.22211336 167.08247 -43.891533 6.4442096
28610000000 -40.245945 69.668129 -0.22043733 166.87029 -0.23498656 166.86565 -50.2869 97.481354
28637500000 -41.280758 119.64653 -0.22062607 166.63019 -0.24927816 166.74257 -42.968826 26.691536
28665000000 -35.264603 30.51512 -0.22799584 166.58183 -0.22289044 166.58377 -40.617043 34.819942
28692500000 -37.158733 68.299522 -0.21523444 166.35863 -0.23999514 166.35771 -57.200905 -106.63728
28720000000 -47.217056 100.58391 -0.2252135 166.18903 -0.22570291 166.23528 -45.380829 7.1182613
28747500000 -36.487114 45.593117 -0.21815003 166.07901 -0.21185058 166.09442 -38.350163 18.99501
28775000000 -40.54538 48.710003 -0.2244709 165.93541 -0.23922238 165.84644 -49.254704 -23.994761
28802500000 -44.202206 135.32878 -0.2385515 165.59663 -0.24291372 165.7038 -47.421707 -60.142426
28830000000 -37.864708 41.50436 -0.2306443 165.64252 -0.22701602 165.5795 -39.862347 30.293921
28857500000 -35.458218 47.13467 -0.22668709 165.31055 -0.22561429 165.33798 -53.16394 -28.470724
28885000000 -46.032711 49.017151 -0.22117598 165.13759 -0.2349024 165.04445 -58.039772 -18.251631
28912500000 -44.84761 66.613258 -0.22159848 164.96278 -0.22720149 164.98007 -38.836098 38.705265
28940000000 -34.286964 23.413031 -0.22517888 164.8927 -0.22643891 164.71468 -42.388699 46.405178
28967500000 -49.318855 77.569756 -0.23726389 164.57491 -0.21778123 164.62202 -60.903698 -177.64253
28995000000 -39.656464 45.035511 -0.23539591 164.40775 -0.23980173 164.35568 -44.109138 32.893063
29022500000 -35.278885 26.705009 -0.21559869 164.32841 -0.20195991 164.09802 -43.136143 35.560364
29050000000 -39.686409 48.147236 -0.22384998 164.02478 -0.24207091 164.00058 -48.899567 -143.28464
29077500000 -41.004013 44.899433 -0.2540634 163.84743 -0.21770938 163.81474 -45.167339 -11.341759
29105000000 -36.711987 31.056341 -0.23764583 163.56308 -0.22120513 163.75281 -45.737701 33.48
29132500000 -33.436092 32.096306 -0.22909978 163.54547 -0.23005907 163.50854 -49.352119 147.79691
29160000000 -47.379559 -103.176 -0.2436195 163.22093 -0.2254079 163.11693 -45.77644 17.191618
29187500000 -35.777462 48.484699 -0.2205904 163.18127 -0.22038832 163.08919 -37.916992 19.970327
29215000000 -33.871582 23.812132 -0.24130654 162.92876 -0.24968968 162.87546 -55.442444 106.81783
29242500000 -44.215145 35.872868 -0.23485431 162.76634 -0.25005245 162.67873 -51.026649 -89.395203
29270000000 -38.056011 35.109356 -0.22614902 162.60231 -0.23048434 162.46788 -39.076702 15.80372
29297500000 -35.722034 20.618986 -0.2298601 162.44806 -0.21899691 162.31648 -50.123623 52.040516
29325000000 -39.634781 58.084961 -0.23606248 162.20425 -0.22930227 162.13329 -49.086739 -67.73027
29352500000 -45.000534 6.8259573 -0.23189008 162.06851 -0.23910531 161.99387 -39.417522 16.598995
29380000000 -35.075012 57.059612 -0.22987592 161.80078 -0.23682484 161.73755 -46.711227 30.414799
29407500000 -35.701477 18.217432 -0.24441303 161.66946 -0.23045376 161.65372 -48.985256 -43.896606
29435000000 -62.554356 -11.057822 -0.24050538 161.40805 -0.22487518 161.4852 -41.62978 9.9058886
29462500000 -34.521957 44.262959 -0.20452739 161.17757 -0.243838 161.2666 -41.504898 37.335415
29490000000 -37.647278 17.989531 -0.23382676 161.16878 -0.2358083 161.09717 -47.573956 -58.357628
29517500000 -43.518421 114.32583 -0.24624792 160.94508 -0.23977165 160.7439 -43.363274 20.351147
29545000000 -36.62447 16.797148 -0.22322997 160.78833 -0.2243755 160.66872 -40.282581 26.739735
29572500000 -35.138611 37.305332 -0.23607861 160.40286 -0.24377611 160.56805 -49.848911 25.572292
29600000000 -43.252155 11.26085 -0.22645746 160.1931 -0.22298689 160.29788 -43.095303 20.887295
29627500000 -40.595898 -28.35033 -0.25027454 160.14275 -0.25310758 160.15262 -40.959095 8.1847277
29655000000 -32.434158 53.03458 -0.22684364 159.96576 -0.22251387 159.92365 -49.926025 -4.8293486
29682500000 -37.74926 -29.641798 -0.2213514 159.84729 -0.22161509 159.70186 -46.194225 -16.730825
29710000000 -43.22366 57.525631 -0.23189062 159.58426 -0.23190045 159.67096 -37.800251 21.344507
29737500000 -33.876438 36.012939 -0.25047198 159.39243 -0.2423033 159.35715 -44.573387 11.271975
29765000000 -41.525719 -10.622616 -0.23592664 159.33217 -0.24141136 159.19447 -56.522175 -41.789913
29792500000 -42.458904 25.308821 -0.21361411 159.12729 -0.23784134 159.13423 -40.876076 14.734179
29820000000 -35.157738 7.6515007 -0.23949727 158.87546 -0.24502075 158.81537 -42.995243 -8.0967808
29847500000 -34.854256 35.073872 -0.22307982 158.55937 -0.24772729 158.77795 -70.464775 -39.797035
29875000000 -37.990116 -24.106129 -0.24418329 158.48563 -0.24521849 158.55113 -41.904411 30.394499
29902500000 -44.900097 31.609867 -0.22910087 158.33163 -0.2182453 158.39148 -39.383446 7.4571786
29930000000 -31.403152 29.122681 -0.24848731 158.14992 -0.23474719 158.21999 -42.103317 -52.670166
29957500000 -38.539539 -55.024109 -0.24156378 158.11259 -0.22474405 157.87439 -44.757996 5.904067
29985000000 -39.037231 37.088825 -0.23548664 157.84645 -0.23474391 157.76509 -38.80875 10.390525
30012500000 -33.493996 16.611258 -0.25494257 157.57628 -0.24797805 157.72891 -45.660553 -23.849138
30040000000 -39.034977 29.183168 -0.23214348 157.36064 -0.21775673 157.40372 -43.571457 2.2194421
30067500000 -39.163597 6.9383216 -0.2120441 157.26047 -0.23111629 157.2498 -37.756424 11.261724
30095000000 -34.543762 18.284193 -0.23709466 157.01193 -0.22963084 157.16084 -47.232002 -55.460426
30122500000 -34.838661 21.356602 -0.24513221 156.92085 -0.21926917 156.88918 -48.274197 -1.7279228
30150000000 -35.699596 -34.088192 -0.22765866 156.65474 -0.21441142 156.63544 -45.888546 27.652889
30177500000 -37.328827 26.204 -0.22302233 156.60207 -0.24472578 156.48276 -41.664051 -20.187683
30205000000 -32.701427 20.823374 -0.22403969 156.28458 -0.24359459 156.41559 -41.345726 6.4283452
30232500000 -41.870926 -76.481079 -0.21642657 156.01299 -0.22202373 156.18008 -44.111893 19.33806
30260000000 -35.222645 23.598738 -0.22763193 156.04309 -0.21519092 156.00806 -40.058849 -9.9861727
30287500000 -35.000896 6.428371 -0.22957653 155.82654 -0.21727964 155.79558 -42.002018 -24.04105
30315000000 -43.669109 7.6906524 -0.2322579 155.75638 -0.21436328 155.55058 -40.550129 30.00618
30342500000 -35.42318 -9.2787304 -0.21617053 155.4285 -0.21991122 155.46481 -38.186081 -3.8400552
30370000000 -35.009903 32.939655 -0.24195378 155.17926 -0.23417425 155.145 -43.512104 7.2253985
30397500000 -35.664993 -8.2359934 -0.22151865 155.06004 -0.20559852 154.95045 -41.240273 35.415329
30425000000 -36.499374 -21.765656 -0.23023786 154.8455 -0.21313992 154.79401 -37.160847 8.1309748
30452500000 -33.677147 60.989254 -0.22577627 154.57671 -0.24018309 154.47012 -39.358036 -11.245933
30480000000 -32.960625 -13.867511 -0.21971135 154.36777 -0.21997303 154.35628 -42.154961 22.012495
30507500000 -37.789574 15.230362 -0.22771731 154.32742 -0.20710184 154.28215 -38.872021 13.755493
30535000000 -33.086128 20.11017 -0.23784763 154.11815 -0.2389393 153.97559 -37.054485 10.015204
30562500000 -33.564106 13.963503 -0.21258423 153.85025 -0.24196663 153.87953 -49.222313 60.329834
30590000000 -38.219292 13.647549 -0.22512572 153.61285 -0.22504365 153.68909 -38.293343 20.928635
30617500000 -34.071754 -19.990047 -0.22135358 153.5134 -0.22580408 153.50256 -36.662117 -7.8549523
30645000000 -31.860132 40.634171 -0.24117082 153.38625 -0.23685819 153.30138 -40.775932 -1.0204458
30672500000 -33.788662 -21.931376 -0.23321597 153.30098 -0.21188129 153.06987 -39.899822 3.29106
30700000000 -38.95105 30.744406 -0.24964774 153.05771 -0.23190537 152.96452 -34.305542 -2.5482759
30727500000 -33.169426 22.732857 -0.22747344 152.70453 -0.22901902 152.71545 -38.898754 -8.2345533
30755000000 -35.736401 -12.540602 -0.21900535 152.60681 -0.24505086 152.63312 -40.024426 47.677261
30782500000 -33.906143 13.250952 -0.2298702 152.48813 -0.20277244 152.25272 -35.488697 -6.0926938
30810000000 -37.677761 -0.77973735 -0.22071458 152.17838 -0.25199395 152.20798 -36.957047 3.3672509
30837500000 -32.238121 28.210661 -0.20900331 152.1239 -0.22500248 151.96458 -40.811333 31.89505
30865000000 -34.881104 -23.481396 -0.20264958 151.83951 -0.22991878 151.93318 -35.163773 -4.6571174
30892500000 -36.43335 31.779812 -0.23198839 151.74255 -0.23611386 151.64256 -35.894047 -14.632784
30920000000 -33.724129 33.698814 -0.21241161 151.46922 -0.22131872 151.51497 -39.524574 9.6482267
30947500000 -34.642483 -22.345295 -0.21747069 151.42009 -0.21608457 151.23277 -36.771687 3.2107816
30975000000 -35.450706 16.902027 -0.22957763 151.11929 -0.22861244 151.12263 -35.594898 -5.8353071
31002500000 -32.053982 30.846336 -0.21822053 151.09627 -0.22955988 150.90904 -35.900471 8.6140165
31030000000 -42.125248 -38.793827 -0.21377507 150.81332 -0.21628346 150.68625 -36.805943 16.797054
31057500000 -29.472469 -4.5363789 -0.24200113 150.47511 -0.20756342 150.35902 -34.021671 -6.7349176
31085000000 -40.672085 52.775135 -0.21579129 150.32314 -0.23918737 150.26393 -36.989948 -1.9800055
31112500000 -31.400072 0.72712648 -0.18993285 150.11809 -0.2156014 150.13535 -38.105484 15.028692
31140000000 -36.690865 -28.023493 -0.23527621 150.01324 -0.22568901 149.7887 -34.519352 -12.638647
31167500000 -33.888252 25.026768 -0.24352668 149.74396 -0.23353365 149.81316 -36.451595 1.6850357
31195000000 -37.050907 15.9534 -0.25061238 149.66068 -0.21794724 149.48746 -40.269882 -10.092198
31222500000 -33.038589 -27.492058 -0.22729287 149.24854 -0.22389442 149.45622 -35.648056 -12.639463
31250000000 -30.760683 19.77928 -0.19126223 149.2242 -0.20978294 149.16774 -34.85347 -18.122889
31277500000 -37.920166 24.495541 -0.2405207 148.9211 -0.23956375 149.07724 -40.178612 -7.0678978
31305000000 -32.03228 -14.964934 -0.22024725 148.85588 -0.22424574 148.91769 -34.554108 1.047034
31332500000 -31.99515 3.8165009 -0.23915018 148.57803 -0.23451795 148.58722 -32.895542 -16.170694
31360000000 -39.370571 50.847393 -0.24335475 148.57263 -0.21203949 148.41254 -40.483906 -19.159323
31387500000 -31.281031 -27.32814 -0.21179947 148.18349 -0.22468026 148.1705 -37.652294 0.35532698
31415000000 -31.065052 21.684881 -0.21000274 148.17697 -0.21523717 147.99879 -34.604568 -8.9631729
31442500000 -40.5676 48.000191 -0.25429669 147.96771 -0.25039631 147.91869 -40.151741 1.535493
31470000000 -32.319614 -14.444298 -0.2140277 147.61179 -0.233293 147.76479 -39.810787 -12.810648
31497500000 -32.048237 4.8689318 -0.21322121 147.53804 -0.22300079 147.43205 -34.516197 -7.1005716
31525000000 -34.083096 13.483382 -0.21177611 147.52922 -0.22942097 147.40619 -35.272503 -13.970208
31552500000 -38.89584 -19.843575 -0.22794428 147.20776 -0.22478086 147.08566 -39.990398 -18.932976
31580000000 -28.913013 -3.5919294 -0.21562806 146.83086 -0.20890146 146.95845 -32.888741 -8.6365089
31607500000 -39.639469 28.444927 -0.22486973 146.7776 -0.22479694 146.84305 -34.509167 -9.7125807
31635000000 -37.073696 -1.8063257 -0.22787471 146.68481 -0.22318664 146.65239 -39.999565 -5.3112416
31662500000 -29.53792 -7.4008369 -0.20919998 146.43291 -0.22629164 146.32562 -34.973118 -6.4474216
31690000000 -33.684731 33.354816 -0.21574259 146.17451 -0.23433736 146.34502 -34.2897 -11.516376
31717500000 -36.794853 -26.804741 -0.23238051 146.11183 -0.23996341 146.00093 -39.564754 1.0115324
31745000000 -29.058218 -1.7563648 -0.21417482 145.86859 -0.23256075 145.64392 -37.139885 1.4698421
31772500000 -35.917088 10.912447 -0.20982097 145.726 -0.22382246 145.56148 -32.735081 -20.010414
31800000000 -37.386974 -27.226196 -0.25154242 145.47047 -0.22883183 145.65506 -38.503601 -17.407555
31827500000 -31.9678 -4.7713656 -0.21331121 145.44173 -0.22332454 145.26611 -35.469685 2.5047796
31855000000 -30.686823 11.442021 -0.21051924 145.0213 -0.23594086 145.07124 -32.769016 -17.598299
31882500000 -50.284271 -54.572151 -0.21628563 144.98703 -0.22568029 144.91914 -37.556057 -25.716167
31910000000 -30.722607 -12.836531 -0.21398064 144.59604 -0.22578308 144.58282 -38.575867 -7.0340471
31937500000 -32.484131 2.7582622 -0.23266344 144.36108 -0.24468854 144.55365 -32.976517 -12.402139
31965000000 -36.425537 -3.719249 -0.22655918 144.43993 -0.21731311 144.32765 -36.226936 -21.689827
31992500000 -33.642788 -13.782423 -0.23414966 144.13293 -0.23601957 144.157 -39.16412 -31.305906
32020000000 -28.826666 6.4208379 -0.21013504 143.82492 -0.23118947 143.89456 -32.750504 -14.027487
32047500000 -36.288616 3.8530741 -0.23310973 143.90871 -0.23381282 143.86441 -33.817932 -15.996662
32075000000 -34.364323 -25.012573 -0.24962142 143.5154 -0.24657723 143.59898 -40.06234 -10.319483
32102500000 -29.606897 12.349257 -0.24301912 143.38525 -0.22090906 143.41481 -35.257343 -19.103552
32130000000 -34.574989 -10.344545 -0.24613422 143.22289 -0.24521658 143.17949 -33.40633 -20.56871
32157500000 -35.363285 -72.486877 -0.24104495 143.19914 -0.24431172 143.10219 -36.077209 -19.556814
32185000000 -27.39012 13.803402 -0.22525059 142.73894 -0.2211975 142.74348 -35.787212 -12.8966
32212500000 -38.545876 -11.378504 -0.21544771 142.59851 -0.23598322 142.60803 -32.436703 -16.808996
32240000000 -35.285538 -32.909302 -0.23818177 142.47142 -0.21118091 142.5294 -35.421387 -28.279068
32267500000 -32.133659 -12.935473 -0.22629465 142.28745 -0.23019035 142.30252 -36.795063 -3.8956292
32295000000 -33.027191 8.1717606 -0.22873659 142.02032 -0.21588324 142.15201 -33.787239 -8.5306673
32322500000 -33.949383 -52.131744 -0.24308947 141.91937 -0.23417452 142.09595 -34.990139 -18.520609
32350000000 -31.735315 -19.299963 -0.24480027 141.77495 -0.22071241 141.71812 -37.95892 -12.571348
32377500000 -30.713396 10.952802 -0.25410128 141.47878 -0.22213788 141.52266 -34.972725 -17.583931
32405000000 -34.547798 -71.604538 -0.23259571 141.42838 -0.23518057 141.40831 -32.6693 -28.17206
32432500000 -31.287861 -16.806009 -0.22094746 141.1875 -0.20626731 141.19415 -37.34203 -3.931757
32460000000 -30.044413 -0.83956355 -0.23451549 140.87772 -0.20806251 140.94571 -34.032623 -15.363635
32487500000 -39.836212 -84.494431 -0.23154604 140.89662 -0.23710805 140.75626 -32.987762 -24.159435
32515000000 -28.869406 -16.086597 -0.21990305 140.59732 -0.24107997 140.66982 -38.529133 -16.654654
32542500000 -35.590084 -8.15242 -0.2207666 140.49565 -0.20080481 140.52667 -34.811104 3.7430055
32570000000 -32.910778 -5.3713675 -0.2254139 140.30049 -0.21279654 140.18616 -33.08456 -21.205757
32597500000 -30.996832 -61.738899 -0.23873226 140.14139 -0.20749825 140.18825 -35.459488 -32.305817
32625000000 -29.656122 2.1395962 -0.21749654 139.8903 -0.23073083 139.79103 -34.841629 11.209933
32652500000 -32.625572 -11.86309 -0.2315717 139.80017 -0.21103661 139.67119 -32.480312 -15.447264
32680000000 -30.816164 -54.344646 -0.20404959 139.54495 -0.23056267 139.56201 -33.305515 -27.312269
32707500000 -30.077158 3.2637691 -0.2466712 139.3315 -0.21898058 139.20355 -35.050282 -6.9714041
32735000000 -33.272404 -25.787819 -0.23157007 139.22847 -0.22238554 139.09882 -33.084785 -15.911557
32762500000 -32.619446 -40.658276 -0.23355386 139.00499 -0.20585528 138.90933 -32.214195 -24.109789
32790000000 -28.84004 -25.822155 -0.23509914 138.82132 -0.24545816 138.74854 -36.623486 1.9667652
32817500000 -35.795643 -4.8440585 -0.22467536 138.36592 -0.21425912 138.35059 -33.840233 -2.5858939
32845000000 -29.183765 -41.643703 -0.22056806 138.26973 -0.22252285 138.41058 -34.352737 -25.014719
32872500000 -31.397118 -36.428898 -0.21164754 138.36388 -0.23219509 138.16716 -36.268677 -25.42667
32900000000 -29.206299 15.601355 -0.25573239 137.82948 -0.24966282 137.92885 -33.915424 1.5210567
32927500000 -31.046234 -52.92588 -0.23205036 137.87515 -0.21249506 137.86681 -32.182053 -16.90719
32955000000 -29.750721 -26.701912 -0.22956507 137.63773 -0.23485431 137.49088 -33.285728 -12.640803
32982500000 -30.572723 -16.480772 -0.22580871 137.528 -0.2434399 137.28224 -34.314697 -0.33078361
33010000000 -34.188023 -32.268154 -0.25076979 137.0874 -0.21701485 137.1136 -31.874956 -15.118269
33037500000 -26.981232 -28.759489 -0.23027715 137.22392 -0.22980988 137.11143 -31.228596 -30.243019
33065000000 -31.836107 -20.751293 -0.23104914 136.75005 -0.2431486 136.87843 -33.540596 -4.867969
33092500000 -33.643604 -19.699306 -0.23005934 136.83284 -0.2502411 136.65904 -31.856874 -23.265675
33120000000 -28.108862 -38.095169 -0.21990685 136.53778 -0.22911343 136.59903 -32.036137 -23.266829
33147500000 -30.972425 -13.933585 -0.23176938 136.31859 -0.25665805 136.29031 -33.754284 -6.603457
33175000000 -31.478933 -14.670294 -0.22779179 136.27513 -0.22671928 136.2133 -31.506475 -12.202128
33202500000 -30.020189 -44.659332 -0.19796777 136.02101 -0.23636013 135.92883 -31.448748 -28.944767
33230000000 -27.900738 -17.32333 -0.24471372 135.88567 -0.27531281 136.00511 -33.201633 -14.190981
33257500000 -31.551464 -20.85714 -0.23707935 135.52026 -0.24423449 135.65341 -32.787373 -9.7497377
33285000000 -31.181101 -21.302513 -0.2441299 135.4899 -0.22023281 135.38951 -30.993782 -24.951828
33312500000 -27.3368 -45.341045 -0.21205144 135.33418 -0.24823788 135.29164 -32.56015 -18.258883
33340000000 -32.391335 -4.2130432 -0.25941938 135.00699 -0.25782725 134.9834 -32.206429 -10.765882
33367500000 -29.685831 -34.519691 -0.23624343 134.81941 -0.23935586 134.91753 -30.686411 -23.26882
33395000000 -27.768311 -34.838211 -0.23125827 134.76003 -0.23071663 134.69777 -32.547493 -20.199259
33422500000 -32.499428 -28.654352 -0.27398476 134.36565 -0.25329223 134.38795 -34.097015 -15.978014
33450000000 -29.621262 -36.084473 -0.2225659 134.40665 -0.23466085 134.14333 -30.729095 -16.99357
33477500000 -28.049793 -29.806808 -0.2403798 134.14839 -0.23575391 134.13695 -31.156427 -26.742638
33505000000 -29.229465 -39.607002 -0.2371332 133.91663 -0.24742748 133.83934 -34.218723 -17.361351
33532500000 -31.458738 -24.397863 -0.23933782 133.73869 -0.23680761 133.5708 -31.728085 -23.441946
33560000000 -26.943443 -30.612034 -0.23119001 133.64713 -0.24221981 133.59715 -31.666311 -35.169781
33587500000 -28.423393 -27.972223 -0.22646454 133.33844 -0.24546637 133.3176 -32.012081 -4.0720339
33615000000 -30.929863 -5.3807006 -0.2472647 133.19308 -0.23581268 133.21185 -30.256212 -16.561871
33642500000 -28.117924 -37.094349 -0.23128721 132.9263 -0.2108165 132.97559 -29.396635 -29.776056
33670000000 -26.932339 -24.63903 -0.24741542 132.82823 -0.21586664 132.88271 -32.900509 -25.750462
33697500000 -31.120441 -31.506287 -0.267037 132.69533 -0.26582238 132.61397 -32.670437 -9.258297
33725000000 -28.961594 -27.342104 -0.27241123 132.28015 -0.24171458 132.34106 -31.108751 -22.5618
33752500000 -26.977461 -26.00812 -0.24018528 132.24376 -0.23619887 132.29486 -31.515425 -22.621544
33780000000 -30.813467 -12.292159 -0.2666899 132.14786 -0.27366933 132.12622 -31.635242 -7.3852558
33807500000 -30.195454 -34.223183 -0.24027775 131.76608 -0.23731391 131.93613 -30.520664 -25.46302
33835000000 -27.804916 -32.146854 -0.24556717 131.7256 -0.23839206 131.56644 -31.380047 -37.93932
33862500000 -28.81671 -23.686798 -0.25564316 131.65094 -0.25881213 131.47311 -31.359842 -13.540907
33890000000 -30.67893 -35.941448 -0.24579453 131.13684 -0.26813468 131.25357 -30.860344 -24.914703
33917500000 -28.942131 -35.420673 -0.24571291 131.21465 -0.24647449 130.97748 -29.60078 -37.312679
33945000000 -26.967371 -30.687733 -0.24571729 131.0789 -0.25741246 131.04855 -31.388161 -14.924305
33972500000 -32.410454 -34.698692 -0.29137421 130.73668 -0.2549755 130.66689 -30.623381 -17.934267
34000000000 -26.528614 -30.464666 -0.26547456 130.55135 -0.23518522 130.44675 -29.357796 -37.801674
34027500000 -27.149406 -39.238914 -0.25417563 130.33879 -0.26824123 130.40794 -33.022629 -27.845747
34055000000 -29.585669 -25.387466 -0.24101375 130.2476 -0.26299646 130.37529 -30.838903 -20.249784
34082500000 -28.821169 -40.420063 -0.22768049 130.02106 -0.27100691 129.93533 -28.545561 -40.337269
34110000000 -26.897203 -28.052391 -0.24409401 129.90588 -0.23626611 129.76231 -31.26667 -36.34853
34137500000 -28.57346 -39.891968 -0.26470962 129.74954 -0.25654653 129.76314 -30.795425 -25.021997
34165000000 -31.516821 -50.583317 -0.27021512 129.39474 -0.25127995 129.40572 -29.126127 -38.978718
34192500000 -25.311697 -32.362331 -0.25592595 129.21544 -0.24731787 129.37262 -31.788567 -33.352322
34220000000 -29.483273 -43.664261 -0.26639208 129.27174 -0.26674056 129.25154 -32.79847 -19.664022
34247500000 -30.60977 -47.602997 -0.23847492 129.01651 -0.29548034 128.86205 -29.122694 -35.219257
34275000000 -26.134682 -33.346031 -0.24088022 128.71465 -0.26488242 128.80856 -28.952944 -51.98177
34302500000 -28.358597 -48.047756 -0.26272202 128.61797 -0.2809414 128.45724 -33.778751 -30.564236
34330000000 -30.458569 -47.130764 -0.26987025 128.56279 -0.26540357 128.39574 -29.895079 -24.89414
34357500000 -27.615198 -33.18454 -0.25238651 128.30919 -0.26948023 128.14261 -28.61035 -43.30489
34385000000 -29.016645 -30.323076 -0.25430244 128.07135 -0.29228008 127.96549 -33.660824 -32.914265
34412500000 -28.584984 -48.432743 -0.27405256 127.91891 -0.26630455 127.85217 -30.970184 -26.63332
34440000000 -30.44581 -39.887417 -0.25967878 127.82153 -0.25680688 127.60333 -28.238335 -40.664127
34467500000 -27.076437 -26.464937 -0.23376912 127.66743 -0.25576726 127.4536 -32.463951 -49.264606
34495000000 -29.446951 -59.996387 -0.27438566 127.56769 -0.25671241 127.21956 -32.455875 -21.810453
34522500000 -29.353619 -30.762674 -0.25623596 127.05627 -0.29585829 127.09832 -28.807356 -40.29044
34550000000 -26.650887 -38.057228 -0.27951279 126.96184 -0.27384302 127.07812 -30.780626 -50.215
34577500000 -30.866047 -52.484528 -0.27640042 126.82787 -0.26770461 126.77363 -33.366772 -14.993703
34605000000 -28.651058 -44.847755 -0.28641528 126.56129 -0.280644 126.5326 -30.268181 -42.109184
34632500000 -28.302771 -31.044222 -0.26372066 126.41552 -0.25123769 126.49648 -29.653057 -40.788746
34660000000 -29.357042 -50.19318 -0.27553621 126.4053 -0.2924116 126.35448 -34.223267 -26.84066
34687500000 -27.310806 -49.293388 -0.28310868 126.11572 -0.28091794 125.9577 -29.444275 -39.354351
34715000000 -30.501064 -30.728701 -0.25753582 125.92203 -0.28167799 125.99993 -28.464483 -39.887764
34742500000 -27.725782 -40.524334 -0.23379643 125.74605 -0.28101847 125.94949 -34.266251 -35.411545
34770000000 -27.485126 -61.091686 -0.28106293 125.56088 -0.25991514 125.60916 -31.897903 -47.464069
34797500000 -31.207508 -20.376451 -0.27521738 125.47287 -0.29652286 125.45721 -28.083735 -43.752182
34825000000 -27.555054 -53.899494 -0.25662452 125.15315 -0.25369948 124.93208 -33.530117 -51.515926
34852500000 -29.214481 -54.253235 -0.26189846 124.96326 -0.25161484 125.00667 -33.252029 -36.409283
34880000000 -28.446316 -37.835934 -0.2447937 124.61128 -0.26927862 124.88701 -27.102009 -47.481407
34907500000 -29.923693 -45.372307 -0.25843546 124.66615 -0.25137594 124.78753 -33.977669 -43.621918
34935000000 -26.502581 -44.442364 -0.30382803 124.42493 -0.26100743 124.24726 -34.949066 -39.02866
34962500000 -29.76646 -54.019562 -0.2533485 124.1579 -0.25799948 124.21731 -29.070959 -40.928852
34990000000 -30.724215 -30.42837 -0.27213922 124.02698 -0.23235567 123.90318 -30.687061 -50.700127
35017500000 -26.856485 -55.258976 -0.26966614 123.94329 -0.27026087 123.96243 -33.33506 -27.514393
35045000000 -29.949961 -42.286469 -0.28824282 123.71982 -0.26226911 123.68787 -29.292404 -48.094009
35072500000 -30.726748 -52.735714 -0.26885256 123.50289 -0.24438894 123.39765 -28.668295 -44.732784
35100000000 -27.520708 -53.125732 -0.24788898 123.29565 -0.21120347 123.19289 -35.666283 -43.819122
35127500000 -26.565453 -48.531097 -0.26670036 123.28836 -0.271272 123.15018 -30.015173 -34.002464
35155000000 -35.889202 -45.889622 -0.26203179 122.97517 -0.27208492 122.7932 -28.850901 -43.730396
35182500000 -27.830353 -51.983059 -0.26038155 122.58764 -0.24700932 122.6726 -34.209053 -47.134514
35210000000 -26.174093 -47.121098 -0.28729078 122.60881 -0.26575193 122.39351 -32.367279 -41.14822
35237500000 -33.900532 -68.883049 -0.2587525 122.32866 -0.25113019 122.46167 -28.162447 -48.965019
35265000000 -28.247253 -47.984055 -0.25553223 122.08263 -0.27141306 122.10172 -30.993933 -39.731724
35292500000 -26.809021 -52.309792 -0.25542241 122.08339 -0.25625601 122.04076 -32.999706 -47.238052
35320000000 -31.145332 -37.608837 -0.2562269 121.89493 -0.276252 121.78239 -28.074028 -43.547657
35347500000 -31.166094 -57.520691 -0.26543987 121.5377 -0.26234198 121.72877 -28.761171 -40.045574
35375000000 -26.001352 -54.65815 -0.23620816 121.34581 -0.23870547 121.27681 -33.464344 -50.860962
35402500000 -27.548288 -51.201588 -0.26968569 121.43192 -0.24512811 121.08497 -29.655487 -47.012138
35430000000 -33.190266 -74.698265 -0.27412426 121.11915 -0.26238707 121.1945 -30.055292 -47.393269
35457500000 -26.308294 -47.849957 -0.2671642 120.66842 -0.21061923 120.81361 -34.456184 -46.174404
35485000000 -26.365746 -50.25349 -0.24636982 120.8383 -0.22866674 120.8558 -28.357397 -48.551388
35512500000 -36.87682 -54.127518 -0.25260791 120.56019 -0.23131342 120.53525 -27.099226 -46.113605
35540000000 -25.393347 -61.278595 -0.24605122 120.46307 -0.24574248 120.2638 -31.38962 -50.400208
35567500000 -27.452961 -30.867596 -0.26226553 120.05566 -0.27086008 119.96849 -29.562002 -40.007298
35595000000 -31.086134 -73.867317 -0.26183602 120.1117 -0.23561972 119.94796 -27.851229 -46.914333
35622500000 -29.056831 -62.599148 -0.26919985 119.74405 -0.20757835 119.71508 -31.185259 -47.119171
35650000000 -25.889631 -42.599754 -0.22058004 119.51572 -0.25312677 119.47324 -30.715055 -47.445477
35677500000 -31.501123 -68.203186 -0.22953205 119.47549 -0.26881868 119.48869 -28.497461 -50.210804
35705000000 -27.93111 -69.390656 -0.23277105 119.15171 -0.2482239 119.14198 -29.011354 -51.435345
35732500000 -24.426704 -51.724171 -0.23357844 118.8222 -0.26493138 119.09581 -30.093063 -47.257664
35760000000 -28.897278 -52.153076 -0.26402462 118.66921 -0.23247828 118.9609 -27.051722 -50.833843
35787500000 -29.977333 -77.416153 -0.226557 118.62776 -0.24509935 118.44715 -28.805492 -54.76334
35815000000 -24.607256 -55.667744 -0.24371971 118.61174 -0.25336552 118.4806 -31.072407 -58.840801
35842500000 -28.874289 -42.352459 -0.28462085 118.16643 -0.26632988 118.2242 -28.840033 -51.306911
35870000000 -28.287655 -89.917366 -0.22348097 118.22477 -0.28607851 117.90524 -28.469275 -62.465763
35897500000 -27.015135 -58.711044 -0.22803159 118.04463 -0.23318784 118.01242 -30.442444 -50.69339
35925000000 -25.835449 -38.166492 -0.26589808 117.7613 -0.2381186 117.70743 -28.590687 -56.983372
35952500000 -32.13192 -106.01031 -0.26935434 117.43419 -0.2494369 117.61142 -28.669275 -53.978569
35980000000 -26.710253 -50.655838 -0.24015354 117.60967 -0.24334188 117.27346 -30.870695 -58.314236
36007500000 -26.068361 -45.164116 -0.27028179 117.20686 -0.24000527 117.17069 -29.832554 -53.465828
36035000000 -32.173447 -58.105698 -0.26173484 116.94232 -0.23209214 116.80345 -27.601734 -41.752735
36062500000 -26.474806 -71.049309 -0.25709113 116.82577 -0.25506499 116.71627 -30.13106 -56.464115
36090000000 -26.395428 -39.488476 -0.24943168 116.49591 -0.23056814 116.77359 -27.909309 -54.49395
36117500000 -29.710918 -63.036621 -0.24293944 116.36409 -0.23071554 116.19388 -28.365482 -56.811916
36145000000 -28.691545 -84.268692 -0.26438388 116.06164 -0.28376466 116.48817 -30.705175 -59.168678
36172500000 -26.924295 -36.650391 -0.26630813 115.98817 -0.22062989 116.08095 -29.98143 -48.980389
36200000000 -27.25853 -48.135231 -0.22791755 115.58987 -0.24443221 116.18887 -27.572649 -45.728119
36227500000 -30.299278 -93.371361 -0.24424325 115.47701 -0.25152349 115.67695 -28.929918 -60.167084
36255000000 -24.753021 -51.807064 -0.23926862 115.3252 -0.22582835 115.53622 -31.314175 -52.592888
36282500000 -28.763626 -47.861706 -0.23543198 115.29025 -0.24433199 115.36 -28.84119 -51.593754
36310000000 -29.151646 -80.117729 -0.25597978 115.10388 -0.24577755 114.96532 -28.230558 -58.014877
36337500000 -23.594992 -52.528893 -0.24194968 114.83686 -0.24898647 114.87614 -30.341555 -47.696838
36365000000 -30.200983 -31.234985 -0.29057869 114.7396 -0.22520642 114.68027 -29.256262 -47.729965
36392500000 -29.816061 -70.638153 -0.26611549 114.42337 -0.21579592 114.60497 -29.282196 -54.799072
36420000000 -26.82589 -82.688446 -0.25855112 114.14699 -0.25011384 114.28918 -31.128685 -65.821564
36447500000 -26.708876 -20.017935 -0.20820102 114.15167 -0.28639621 114.34026 -29.675419 -46.042068
36475000000 -30.050467 -77.316597 -0.25958756 114.22784 -0.27074051 113.88405 -29.636871 -48.615444
36502500000 -25.771696 -68.527748 -0.25593558 114.04942 -0.28286472 113.87102 -30.567877 -56.007736
36530000000 -25.522015 -35.456959 -0.2626527 113.77349 -0.25985578 113.5514 -30.163811 -47.056385
36557500000 -30.983238 -57.293465 -0.25604567 113.55276 -0.22769195 113.36929 -30.927498 -60.217659
36585000000 -26.552801 -61.946407 -0.24546747 113.24462 -0.23795618 113.14788 -29.502419 -59.250641
36612500000 -26.551027 -54.754505 -0.23240428 113.22356 -0.28956693 113.196 -30.827749 -45.415401
36640000000 -31.251184 -19.713728 -0.2625944 113.14193 -0.24618655 113.19794 -31.040228 -43.576824
36667500000 -24.971556 -79.98764 -0.2158525 112.55025 -0.24257702 112.53414 -28.688644 -63.167202
36695000000 -26.858057 -50.708546 -0.25732157 112.44881 -0.27000633 112.59281 -31.278543 -38.799957
36722500000 -29.203823 -24.194771 -0.24036337 112.51741 -0.26249924 112.5203 -29.276217 -53.859367
36750000000 -24.558064 -92.282158 -0.24637148 112.03738 -0.19593057 112.00747 -27.591549 -67.032005
36777500000 -26.626722 -43.24659 -0.19835901 111.99657 -0.26315737 112.00777 -29.208666 -58.408207
36805000000 -30.304016 -32.235226 -0.2848497 111.89189 -0.23749846 111.65087 -30.654291 -41.992916
36832500000 -29.121721 -87.712769 -0.24139439 111.59052 -0.25398681 111.5759 -28.89361 -58.021706
36860000000 -23.981936 -53.003189 -0.27963373 111.51146 -0.25584525 111.46363 -29.856932 -63.627563
36887500000 -33.32798 -40.404945 -0.23446085 111.25013 -0.21247196 111.22037 -30.776278 -57.186844
36915000000 -27.102707 -76.105705 -0.24567318 111.03023 -0.21122386 111.04684 -28.830137 -69.396423
36942500000 -25.073812 -75.675064 -0.22520915 110.52855 -0.26455006 110.6934 -28.278965 -62.592949
36970000000 -29.675051 -35.531975 -0.20899354 110.8096 -0.21835582 110.73695 -29.105124 -46.384739
36997500000 -28.01524 -50.69371 -0.20834306 110.55508 -0.24641229 110.66968 -29.099283 -50.602291
37025000000 -26.027613 -92.995026 -0.23059462 110.21741 -0.26379821 110.12858 -28.074293 -72.734993
37052500000 -25.513556 -42.776054 -0.25349092 110.10493 -0.21591045 110.08056 -31.65317 -60.042725
37080000000 -35.232044 -72.894081 -0.25512537 110.1509 -0.23715891 110.08234 -30.674471 -50.915344
37107500000 -24.288355 -83.831261 -0.24529901 109.71497 -0.22584771 109.36349 -28.835014 -69.587288
37135000000 -25.615566 -49.265472 -0.25412321 109.71407 -0.25693184 109.31271 -29.792292 -56.674629
37162500000 -37.808956 -83.978424 -0.22150558 109.34949 -0.2590616 109.4121 -30.340086 -44.876183
37190000000 -24.680029 -72.269936 -0.2512517 108.72767 -0.22174476 109.09563 -30.187689 -64.461143
37217500000 -26.953697 -70.75106 -0.23902628 108.86311 -0.27341461 108.9784 -30.973783 -68.294975
37245000000 -34.825375 -30.711222 -0.22358507 108.6384 -0.25470072 108.89078 -31.307961 -46.763882
37272500000 -24.082657 -81.462364 -0.24398339 108.38604 -0.25641721 108.61626 -31.279062 -57.381832
37300000000 -27.08147 -52.720879 -0.2246042 108.2625 -0.2343256 108.28227 -29.684284 -69.240532
37327500000 -28.655663 -64.322655 -0.25309411 108.38041 -0.21434452 108.45619 -30.985767 -39.302269
37355000000 -30.808758 -69.695084 -0.23796001 107.93586 -0.23888488 108.14713 -31.054279 -60.407391
37382500000 -22.966867 -74.601067 -0.24181995 107.70729 -0.27171481 107.43945 -29.595816 -74.512688
37410000000 -30.962734 -49.493523 -0.2444908 107.76352 -0.24189384 107.80896 -31.055792 -52.097153
37437500000 -29.760527 -81.72818 -0.22842528 107.33258 -0.25003818 107.40071 -31.525215 -57.4664
37465000000 -23.157999 -66.68354 -0.27968839 107.20957 -0.25775307 107.11417 -28.987589 -64.227524
37492500000 -30.138493 -60.594509 -0.23132242 107.17051 -0.27726895 106.87457 -31.97608 -61.065136
37520000000 -30.258636 -75.992241 -0.25718397 106.72681 -0.25181535 106.88193 -31.833046 -57.990246
37547500000 -23.25029 -75.30294 -0.25257966 106.60112 -0.25943643 106.66647 -28.622877 -70.131447
37575000000 -27.112125 -66.431358 -0.23776259 106.76823 -0.2300708 106.18172 -30.057734 -73.320969
37602500000 -30.419582 -82.796425 -0.26124495 106.32229 -0.23071063 106.39046 -32.882008 -44.178699
37630000000 -24.82453 -74.450829 -0.24269965 105.88255 -0.24576029 106.21227 -29.203861 -62.600746
37657500000 -26.165455 -61.061626 -0.22512789 105.91767 -0.28123167 106.07374 -29.835079 -64.960663
37685000000 -30.384161 -85.211678 -0.25373843 105.83319 -0.20417547 105.58018 -31.835918 -42.552044
37712500000 -27.09918 -64.90361 -0.26685232 105.46729 -0.22670946 105.46693 -29.755835 -53.133148
37740000000 -24.480391 -68.518097 -0.24368905 105.36508 -0.226662 105.43036 -29.637484 -76.380157
37767500000 -31.603975 -76.303375 -0.23753484 105.25511 -0.27297574 105.11448 -32.078888 -48.489292
37795000000 -27.090286 -77.575157 -0.2424199 104.99082 -0.23618302 104.92865 -29.963963 -57.264679
37822500000 -24.301342 -61.519482 -0.25455606 104.75946 -0.23172352 104.75452 -29.334393 -74.511269
37850000000 -29.641409 -101.16133 -0.25010288 104.60908 -0.28838915 104.64293 -34.682659 -55.736679
37877500000 -27.302853 -68.398949 -0.22824684 104.17645 -0.23917452 104.43016 -30.296932 -52.695347
37905000000 -25.182148 -70.17173 -0.25301042 104.25804 -0.22949003 104.04121 -28.933592 -64.394714
37932500000 -27.530067 -78.956863 -0.21648642 104.30489 -0.24405678 104.11309 -31.773424 -72.355286
37960000000 -26.513445 -88.518471 -0.22989067 103.96966 -0.21843284 103.62017 -30.783583 -51.214752
37987500000 -26.240694 -55.996552 -0.23607068 103.77975 -0.22448508 103.32209 -29.176678 -61.52282
38015000000 -26.221256 -77.87384 -0.24077159 103.50615 -0.23112285 103.57668 -31.219793 -69.106865
38042500000 -27.471169 -90.960014 -0.25776792 103.60437 -0.27586415 103.12703 -31.406887 -61.81139
38070000000 -26.098648 -54.491386 -0.26483509 102.90319 -0.2240157 103.12627 -29.650856 -51.449184
38097500000 -25.40225 -70.763428 -0.29289535 103.11366 -0.20579231 102.90117 -28.108864 -79.668129
38125000000 -28.372505 -94.069344 -0.25644383 102.8419 -0.26550978 102.62368 -31.738714 -69.782875
38152500000 -25.28002 -72.498482 -0.28580561 102.6657 -0.24008432 102.40685 -29.140837 -53.677387
38180000000 -26.493423 -63.120758 -0.28980133 102.54732 -0.26381224 102.24122 -28.500462 -63.409687
38207500000 -27.941948 -85.97699 -0.2455858 102.35069 -0.27374762 102.1977 -31.115257 -74.861015
38235000000 -25.736073 -84.610085 -0.26501694 101.97597 -0.23245043 102.02331 -28.919916 -57.035206
38262500000 -26.628012 -53.303524 -0.2603282 101.59718 -0.21011548 101.60086 -27.551813 -54.879223
38290000000 -26.490509 -96.971962 -0.22693828 101.78617 -0.28526241 101.34224 -30.37208 -83.297318
38317500000 -26.945381 -73.466881 -0.26461884 101.2594 -0.25723833 101.55539 -28.49641 -51.903313
38345000000 -24.784109 -54.299652 -0.27086034 101.38477 -0.24711892 101.05672 -26.817091 -54.618645
38372500000 -27.398632 -85.532593 -0.26431566 101.2475 -0.24812029 100.7756 -27.916733 -84.495239
38400000000 -23.942896 -76.936638 -0.26488489 100.95954 -0.23802289 100.69164 -27.257751 -57.422024
38427500000 -27.729788 -58.352409 -0.25989893 100.73838 -0.26380536 100.79807 -27.6066 -52.476704
38455000000 -25.885145 -84.943176 -0.25659734 100.4607 -0.25104845 100.63401 -27.82794 -93.504807
38482500000 -25.796631 -92.229538 -0.28845859 100.32395 -0.23632543 100.22097 -30.947275 -75.991646
38510000000 -27.543831 -61.602589 -0.25268996 99.929459 -0.26034141 100.00924 -30.046341 -42.138802
38537500000 -27.232199 -73.568565 -0.25077009 99.925774 -0.2669993 99.871132 -27.906961 -85.267647
38565000000 -25.416018 -86.627335 -0.25528625 99.857666 -0.27133012 99.74556 -30.739363 -81.511772
38592500000 -27.143093 -76.735313 -0.25433263 99.510918 -0.28210199 99.453918 -30.464796 -50.433342
38620000000 -26.260218 -79.209785 -0.29078877 99.403885 -0.25753334 99.464073 -27.542381 -67.253609
38647500000 -26.21694 -84.529076 -0.28472036 98.980194 -0.25717324 98.866585 -30.299549 -96.18824
38675000000 -26.208004 -86.649376 -0.28412032 99.266068 -0.2448156 98.986084 -27.656832 -46.659378
38702500000 -26.683321 -61.58839 -0.23220602 99.096634 -0.27599961 98.972588 -27.493349 -57.342411
38730000000 -26.025862 -86.216881 -0.23342192 98.70607 -0.29941949 98.582794 -29.644449 -88.70327
38757500000 -26.191559 -86.668854 -0.23047286 98.583191 -0.30496892 98.414772 -30.848139 -58.864407
38785000000 -28.171677 -56.719112 -0.24334161 98.333931 -0.28130734 98.54715 -28.66934 -46.473541
38812500000 -26.42165 -79.056694 -0.24015601 98.13662 -0.28541583 98.14386 -27.663427 -75.985497
38840000000 -25.229523 -83.588318 -0.25993162 97.918488 -0.27903053 98.073181 -30.740051 -74.051941
38867500000 -28.245821 -73.24604 -0.27470249 97.687943 -0.22109644 97.676308 -28.30125 -42.821217
38895000000 -29.169971 -82.411041 -0.27668652 97.833946 -0.29394251 97.414505 -28.233017 -85.215569
38922500000 -23.648949 -85.654594 -0.28882459 97.064064 -0.24913643 97.285172 -29.445406 -80.612717
38950000000 -26.764755 -71.617111 -0.2665253 97.350723 -0.26994351 97.147675 -28.172808 -41.99514
38977500000 -26.811836 -72.478325 -0.2680876 97.131546 -0.23743832 97.118286 -27.486961 -71.225243
39005000000 -24.558157 -84.843201 -0.27791053 96.783791 -0.22159384 96.507629 -28.003189 -91.287506
39032500000 -25.756327 -77.218124 -0.32594991 96.822815 -0.26462105 96.747147 -28.637651 -47.76936
39060000000 -28.915216 -71.382576 -0.30032316 96.525513 -0.25436586 96.433083 -28.36977 -65.107384
39087500000 -26.321339 -77.129883 -0.25609565 96.14019 -0.3052966 96.072289 -27.485613 -90.062775
39115000000 -25.348789 -75.043808 -0.30101919 96.28199 -0.29161754 96.200493 -29.852957 -56.260933
39142500000 -29.343485 -82.18853 -0.2922211 95.66095 -0.29815891 95.98838 -28.483793 -61.308037
39170000000 -25.810188 -72.486938 -0.25384685 95.900536 -0.23823072 95.506088 -26.813265 -80.457726
39197500000 -24.339119 -84.426003 -0.29233602 95.658638 -0.27381906 95.82711 -28.854696 -75.784874
39225000000 -27.564697 -49.850288 -0.33925936 95.601158 -0.31481922 95.327568 -28.314194 -35.438251
39252500000 -29.649954 -82.63929 -0.29756618 95.027573 -0.31768131 95.092255 -28.478836 -83.180382
39280000000 -24.60228 -79.36338 -0.25602153 95.151436 -0.28927946 95.06115 -28.136892 -87.734169
39307500000 -25.889303 -79.638161 -0.31404695 94.933159 -0.33970216 95.185219 -29.882221 -47.939003
39335000000 -29.935316 -91.929665 -0.23723353 94.64666 -0.30096647 94.600533 -27.915571 -76.376801
39362500000 -22.78216 -74.001808 -0.28846937 94.196564 -0.26880905 94.559761 -27.325058 -97.979332
39390000000 -30.468409 -86.740837 -0.30036199 94.398109 -0.27004516 94.340042 -29.849468 -49.625126
39417500000 -27.152014 -77.889503 -0.28009811 94.329498 -0.30517831 93.722466 -28.544577 -70.419113
39445000000 -26.221315 -84.45414 -0.28262132 93.768784 -0.23995739 93.962616 -27.607811 -91.067207
39472500000 -24.367098 -79.716888 -0.26537192 93.793785 -0.24987668 93.607773 -29.939495 -65.847931
39500000000 -28.797331 -90.230522 -0.30705848 93.614754 -0.25542378 93.711067 -29.092646 -55.274513
39527500000 -27.140074 -87.573875 -0.22416289 93.548065 -0.25900611 93.268204 -28.66416 -89.468521
39555000000 -24.510017 -74.878098 -0.20897859 93.155136 -0.28377876 93.107941 -31.037365 -85.725578
39582500000 -28.769665 -89.923454 -0.30961385 93.065979 -0.33754674 93.069023 -29.482189 -50.648403
39610000000 -29.412415 -71.077469 -0.30012092 92.822449 -0.32148206 92.992867 -28.300114 -82.273697
39637500000 -22.431736 -82.139053 -0.22185373 92.609222 -0.24674711 92.58625 -26.844271 -75.214546
39665000000 -29.319593 -66.870316 -0.24546993 92.193199 -0.28943163 92.384537 -28.976313 -60.207901
39692500000 -28.320471 -115.92766 -0.33933464 92.147453 -0.25888163 92.036736 -29.26837 -80.55706
39720000000 -23.612387 -71.4757 -0.28256828 91.912025 -0.29573303 91.732239 -28.917233 -76.213745
39747500000 -29.544376 -62.28487 -0.27555993 91.915466 -0.27716935 91.795212 -29.596642 -57.763035
39775000000 -26.731323 -108.76403 -0.30522829 91.660919 -0.25627881 91.620758 -26.964788 -67.649643
39802500000 -24.315001 -63.467121 -0.23290214 91.60495 -0.25729272 91.569328 -27.665113 -76.67659
39830000000 -26.440399 -65.010841 -0.28230724 91.73262 -0.29470679 91.257744 -28.417543 -58.264061
39857500000 -28.783005 -106.70953 -0.28095523 91.277016 -0.28955311 91.125008 -27.537191 -53.541275
39885000000 -25.785172 -62.132225 -0.26077652 90.968483 -0.26743838 91.153221 -27.499929 -77.707375
39912500000 -25.758188 -80.36348 -0.28063792 91.152771 -0.30592623 90.97184 -29.892057 -66.133934
39940000000 -31.603243 -104.30855 -0.28545371 90.497322 -0.29354423 90.498932 -28.549446 -58.530037
39967500000 -25.220575 -80.122047 -0.29470319 90.923164 -0.26907977 90.424057 -29.131601 -74.234337
39995000000 -25.978949 -81.790985 -0.30938146 90.548492 -0.26269147 90.372444 -28.925291 -73.372139
40022500000 -30.269758 -66.408775 -0.28462583 90.13887 -0.27922875 90.173615 -29.443207 -63.187119
40050000000 -25.121149 -119.34414 -0.27087522 89.749123 -0.33562031 89.756126 -28.97407 -71.794434
40077500000 -23.44338 -53.979294 -0.23988955 89.748917 -0.25113678 89.573257 -29.374632 -78.313705
40105000000 -27.103867 -105.14513 -0.24893302 89.584137 -0.24365592 89.651077 -27.489693 -59.403351
40132500000 -28.361233 -111.13148 -0.28085968 89.213463 -0.28567567 89.179863 -28.939995 -80.332169
40160000000 -23.850069 -65.845688 -0.26556012 89.189079 -0.28205144 89.151634 -29.272404 -75.753929
40187500000 -28.999247 -96.669189 -0.29902568 89.094276 -0.21741408 89.053802 -29.511833 -66.025589
40215000000 -26.963778 -115.67533 -0.315833 88.572792 -0.29288483 88.835068 -28.513536 -80.783211
40242500000 -22.684921 -81.699135 -0.26357129 88.240944 -0.28918758 88.398079 -28.618656 -91.560608
40270000000 -30.863447 -74.960709 -0.22072004 88.244972 -0.25583234 88.434647 -29.092693 -74.112862
40297500000 -23.177904 -108.3643 -0.30132353 87.893692 -0.29501402 87.958641 -27.667181 -78.042717
40325000000 -28.661901 -89.833389 -0.27205157 88.116684 -0.2638216 87.964928 -29.115519 -84.153236
40352500000 -24.990185 -71.627884 -0.28912923 87.964783 -0.24467266 87.791382 -30.972729 -81.00161
40380000000 -25.863174 -118.37178 -0.28661409 87.448013 -0.26983058 87.442909 -27.099218 -76.079468
40407500000 -26.69981 -91.926704 -0.29171112 87.362869 -0.253784 87.492035 -29.729723 -84.50956
40435000000 -25.03179 -65.122749 -0.30017778 87.262039 -0.27260143 87.436394 -30.674892 -75.549034
40462500000 -26.579218 -132.71004 -0.24579781 86.921074 -0.25841513 87.255867 -28.171005 -65.451317
40490000000 -23.000509 -80.103699 -0.28629306 86.580246 -0.26254904 86.953484 -27.511198 -75.407921
40517500000 -29.781849 -67.536751 -0.29624683 87.133064 -0.29108357 86.425751 -32.022816 -69.1464
40545000000 -25.728109 -95.694183 -0.26183465 86.615906 -0.27343279 86.595711 -27.31732 -69.616798
40572500000 -23.920456 -103.63008 -0.28444645 86.131561 -0.28935057 86.240959 -27.234535 -78.801826
40600000000 -27.67152 -55.57196 -0.27836728 86.326042 -0.2866033 86.127945 -30.322348 -78.38575
40627500000 -25.348768 -94.706017 -0.290786 86.197975 -0.28337589 86.173843 -27.950493 -62.795517
40655000000 -25.430603 -107.59412 -0.30088407 86.045479 -0.28541389 85.65992 -26.93902 -72.801865
40682500000 -29.247107 -64.157387 -0.25059867 85.24868 -0.26043129 85.657707 -31.951303 -99.960472
40710000000 -24.128235 -98.508347 -0.31658414 85.629166 -0.28051972 85.52684 -29.845682 -75.444389
40737500000 -26.745808 -89.589989 -0.32154533 85.286354 -0.27780262 85.330666 -25.99584 -69.344101
40765000000 -24.343969 -94.329079 -0.30002967 85.021095 -0.27605781 84.970261 -30.213604 -85.846176
40792500000 -29.017557 -52.220421 -0.275745 85.097687 -0.26661861 85.113472 -31.200903 -78.183746
40820000000 -22.880995 -107.07469 -0.26442817 84.598625 -0.28564087 84.535393 -26.779734 -71.03286
40847500000 -25.79871 -84.24556 -0.26452476 84.583298 -0.26439077 84.396523 -27.050917 -89.907326
40875000000 -29.796593 -87.96357 -0.26621869 84.854874 -0.28588995 84.499962 -30.80374 -91.302612
40902500000 -22.85273 -93.226616 -0.308763 84.144417 -0.27920857 84.123581 -26.920229 -66.614067
40930000000 -27.012426 -104.74564 -0.30272382 83.967812 -0.26610035 84.108971 -26.600952 -86.27433
40957500000 -26.656454 -67.055954 -0.29848886 83.729515 -0.30348632 84.060036 -30.207211 -98.108475
40985000000 -26.555185 -112.1312 -0.28917983 83.665924 -0.25671789 83.593399 -28.880699 -58.146118
41012500000 -23.298483 -86.341217 -0.29143345 83.659302 -0.23736176 83.345726 -26.812439 -84.185318
41040000000 -31.568687 -98.98114 -0.29214165 83.202881 -0.30632287 83.038193 -31.849274 -90.658875
41067500000 -26.00839 -88.655762 -0.29521352 82.916595 -0.29897356 83.114471 -30.107203 -72.236153
41095000000 -24.045786 -94.822945 -0.25085703 82.898819 -0.30300915 83.08181 -26.500061 -76.66539
41122500000 -28.880465 -107.64374 -0.27334541 82.857239 -0.24871756 82.837212 -28.727587 -104.94396
41150000000 -26.171402 -85.154526 -0.27628705 82.689041 -0.24498814 82.459366 -29.427561 -78.396004
41177500000 -23.114124 -91.158691 -0.32798371 82.489067 -0.28500643 82.033249 -27.205559 -64.151123
41205000000 -30.621061 -85.276039 -0.27802616 82.249725 -0.27285805 82.360909 -29.20645 -91.019569
41232500000 -26.398266 -101.8142 -0.26709399 81.806717 -0.2721563 81.749802 -29.614412 -94.676811
41260000000 -24.999971 -86.408966 -0.31308731 81.675797 -0.28037477 81.776489 -27.692181 -60.785973
41287500000 -24.907316 -104.61385 -0.27462006 81.552818 -0.29406384 81.655518 -25.90122 -97.029785
41315000000 -28.9711 -97.128792 -0.28906336 81.636681 -0.2697449 81.701363 -32.402237 -93.565231
41342500000 -24.537916 -81.764404 -0.29341349 81.271515 -0.29637182 81.265869 -29.421835 -66.583359
41370000000 -24.35898 -107.19521 -0.34624293 81.207062 -0.31378093 81.003662 -27.713699 -85.908333
41397500000 -32.962955 -111.2813 -0.25771159 80.755066 -0.26487142 80.975548 -27.94145 -93.919067
41425000000 -23.198069 -83.07547 -0.27107829 80.478058 -0.27119759 80.666695 -29.049965 -74.918365
41452500000 -26.435955 -107.87334 -0.2478676 80.45031 -0.28640753 80.440659 -25.778887 -75.085228
41480000000 -28.742929 -88.997215 -0.36228231 80.56842 -0.29795486 80.27063 -30.586834 -95.952347
41507500000 -27.141836 -101.14497 -0.29500738 80.009743 -0.27954951 80.038818 -29.739347 -78.696938
41535000000 -24.556351 -90.386391 -0.26978651 79.639526 -0.28056419 79.794502 -25.998779 -70.489418
41562500000 -25.758476 -107.09901 -0.25693101 80.309883 -0.23890702 80.005203 -26.347883 -83.688835
41590000000 -27.248922 -93.90403 -0.29709023 79.526306 -0.2897886 79.948837 -30.766697 -91.894417
41617500000 -24.606421 -85.32309 -0.25442842 79.334686 -0.26000419 79.367393 -26.837521 -61.349594
41645000000 -24.100529 -126.06659 -0.27493083 79.295448 -0.28935057 79.440437 -26.014399 -102.20063
41672500000 -29.304857 -91.600983 -0.27443942 79.132195 -0.29704309 79.357437 -30.578791 -99.614197
41700000000 -23.841112 -104.25155 -0.28601131 78.887039 -0.31277183 78.339897 -29.074478 -70.4422
41727500000 -25.617392 -101.98624 -0.30626094 78.38501 -0.26248714 78.572708 -27.357435 -85.451874
41755000000 -26.015985 -105.43784 -0.30816549 78.588417 -0.29899353 78.568176 -29.073055 -104.6795
41782500000 -26.034519 -92.836456 -0.27453429 78.595734 -0.27674609 78.385086 -28.171135 -56.958511
41810000000 -25.4018 -89.105835 -0.28770038 78.147881 -0.24258029 78.062782 -27.416365 -72.873428
41837500000 -23.695353 -122.93271 -0.2510457 77.690872 -0.27139544 78.072044 -26.098709 -109.23029
41865000000 -28.787666 -74.285889 -0.24835436 77.577286 -0.29593116 77.770432 -31.982162 -79.258995
41892500000 -22.721704 -106.47739 -0.22785917 77.457222 -0.28697968 77.30497 -25.578754 -82.314842
41920000000 -24.734943 -101.05013 -0.31488991 77.628479 -0.27215767 77.65416 -27.249556 -102.51041
41947500000 -27.876753 -86.486374 -0.25126979 77.557556 -0.29898965 77.460159 -29.881832 -78.526833
41975000000 -24.672956 -101.65944 -0.29853183 76.883667 -0.28419662 77.220901 -28.152861 -64.590897
42002500000 -24.157505 -97.192001 -0.29616535 76.993507 -0.25962272 76.704559 -27.852423 -100.00451
42030000000 -26.783632 -125.68739 -0.28880274 76.703773 -0.23015323 76.762451 -29.77306 -107.36449
42057500000 -27.272619 -83.249046 -0.26186627 76.512924 -0.27575383 76.216759 -29.911243 -72.436493
42085000000 -22.350843 -108.52327 -0.28344303 76.424377 -0.2980544 76.107513 -25.201092 -95.299522
42112500000 -26.616217 -107.24995 -0.26869035 76.31649 -0.24055408 76.195633 -27.456736 -95.82061
42140000000 -28.095484 -105.47595 -0.25389406 75.981194 -0.26087603 75.876221 -30.114571 -65.830917
42167500000 -24.240133 -98.457054 -0.30511388 75.605354 -0.30081388 76.056175 -27.679197 -87.543533
42195000000 -25.876112 -99.66423 -0.27447528 75.615189 -0.24109529 76.113129 -27.3305 -94.900742
42222500000 -28.465656 -107.62563 -0.29803026 75.197304 -0.2520403 75.03093 -30.511381 -63.289146
42250000000 -22.649769 -90.977608 -0.2450265 74.968079 -0.30736855 75.248398 -26.370459 -89.450394
42277500000 -25.388968 -84.262833 -0.27332419 75.335587 -0.32710415 74.929695 -26.854774 -87.436615
42305000000 -28.199697 -132.53859 -0.26985317 75.256912 -0.22126478 75.065727 -28.588091 -79.172752
42332500000 -21.868162 -85.585663 -0.26937473 74.635887 -0.25815991 74.842308 -26.851297 -67.507721
42360000000 -26.625908 -99.059837 -0.27386811 74.426025 -0.29596472 74.55909 -26.195265 -94.144409
42387500000 -28.389618 -106.39355 -0.3059029 74.298645 -0.27231616 74.111771 -27.072927 -86.748611
42415000000 -23.169043 -112.36293 -0.2790446 74.311737 -0.24791557 74.089867 -26.427502 -73.939445
42442500000 -23.483076 -80.544815 -0.3053416 73.928169 -0.29366499 73.963249 -26.123737 -98.951561
42470000000 -24.967777 -118.62874 -0.25828436 73.944595 -0.23302723 73.645287 -27.043896 -96.584877
42497500000 -25.797709 -105.9621 -0.28206524 74.108223 -0.20458873 73.588554 -27.196474 -62.116848
42525000000 -22.399357 -94.490623 -0.27179086 73.487732 -0.19936086 73.492386 -24.457994 -102.2974
42552500000 -24.58177 -115.48413 -0.27114496 72.982597 -0.23647083 73.009224 -26.732162 -92.233612
42580000000 -28.060923 -122.40961 -0.28735107 73.136917 -0.29752293 72.772972 -29.185547 -78.109726
42607500000 -22.498659 -77.471169 -0.20878929 72.978424 -0.20806171 72.721985 -24.646984 -83.773125
42635000000 -29.206425 -115.63042 -0.28585207 72.5158 -0.22230762 72.698212 -28.483255 -120.56329
42662500000 -25.806282 -119.42138 -0.23205036 72.502396 -0.29150489 72.365303 -27.432447 -87.721977
42690000000 -24.17363 -100.91922 -0.20187557 71.935951 -0.24090156 72.175766 -26.247078 -77.412926
42717500000 -24.892918 -80.595291 -0.26493716 72.117531 -0.33476493 71.799637 -25.510914 -100.64125
42745000000 -23.773813 -138.3242 -0.28283352 71.795456 -0.23930225 71.864105 -31.286116 -87.372734
42772500000 -24.129576 -86.571228 -0.26700699 71.869247 -0.26985261 71.767357 -25.579918 -80.836418
42800000000 -24.982214 -87.955994 -0.27043471 71.430367 -0.23787825 71.440491 -26.280695 -113.1729
42827500000 -25.757059 -146.38895 -0.21226835 71.218872 -0.25214374 71.592346 -30.046339 -79.521698
42855000000 -24.813374 -101.53757 -0.22808588 70.973122 -0.23358801 70.877518 -28.60582 -76.05558
42882500000 -24.326513 -87.747398 -0.25121522 70.527946 -0.24999349 70.874802 -24.477573 -99.58197
42910000000 -26.428345 -136.60825 -0.26338205 70.722549 -0.24878143 70.818245 -28.94952 -93.34465
42937500000 -21.69594 -119.35551 -0.26265875 70.70517 -0.2429014 70.574966 -28.134125 -84.867981
42965000000 -26.466156 -66.410385 -0.2245843 69.822533 -0.24400339 70.172737 -24.484068 -92.989418
42992500000 -25.056564 -128.81953 -0.24552581 70.124084 -0.3241834 70.041504 -27.548542 -127.81278
43020000000 -21.217339 -121.16377 -0.26000446 69.883377 -0.34033734 69.852486 -26.302204 -87.277924
43047500000 -26.556328 -61.968845 -0.22862691 69.354576 -0.24231534 69.833725 -27.918438 -87.80587
43075000000 -23.69842 -133.25589 -0.26148769 69.593376 -0.27246252 69.286667 -26.832333 -122.16034
43102500000 -23.985182 -128.62712 -0.29177231 69.485054 -0.27473751 69.172234 -31.780117 -56.60413
43130000000 -23.422945 -76.380348 -0.27522731 69.592102 -0.22854424 69.249367 -26.401838 -75.403122
43157500000 -27.962454 -128.32373 -0.22521405 69.003242 -0.28012323 69.167023 -25.234621 -114.21446
43185000000 -23.287756 -116.72087 -0.2746934 68.870392 -0.19473837 69.006371 -28.075876 -86.406166
43212500000 -23.012901 -103.23344 -0.30827832 68.966995 -0.13381034 68.68512 -25.85684 -71.657501
43240000000 -36.023281 -85.017204 -0.23514067 68.365486 -0.22137074 67.654846 -24.053732 -113.13465
43267500000 -20.826876 -120.35565 -0.26440534 68.236015 -0.33612484 68.019447 -30.69162 -84.697342
43295000000 -25.67326 -120.60012 -0.21738687 68.257622 -0.2580176 68.018898 -26.945908 -73.701485
43322500000 -25.289068 -60.16758 -0.26115313 67.511932 -0.21018612 67.570213 -25.493727 -114.80657
43350000000 -22.394749 -144.05658 -0.33311698 67.393639 -0.192293 67.51828 -27.592983 -113.14467
43377500000 -23.134621 -108.58488 -0.26889661 67.621536 -0.23431003 67.253838 -29.678284 -95.254349
43405000000 -26.32832 -93.932739 -0.27980351 66.983421 -0.21334247 67.518494 -26.401211 -103.43832
43432500000 -25.445549 -150.48604 -0.3171221 66.747368 -0.29381594 67.077248 -26.875237 -106.30064
43460000000 -20.544973 -110.83697 -0.26285401 66.411507 -0.21508186 67.008896 -27.003248 -87.16758
43487500000 -30.830248 -92.769173 -0.21839529 66.19207 -0.22406313 66.600311 -25.442379 -92.49073
43515000000 -26.70933 -106.79314 -0.25387046 66.709419 -0.25198215 66.715096 -25.519876 -107.84145
43542500000 -20.231651 -131.18306 -0.2576336 65.570404 -0.29289675 65.866409 -30.843359 -90.351044
43570000000 -28.948147 -75.973312 -0.3210305 66.252716 -0.21686982 66.340088 -26.273195 -84.708138
43597500000 -26.370657 -115.01831 -0.24178983 65.845154 -0.2430495 65.821709 -25.879408 -115.77431
43625000000 -21.582762 -128.0762 -0.22077179 65.551125 -0.26945874 65.883163 -30.332483 -88.221085
43652500000 -25.252079 -91.804459 -0.22351258 65.247116 -0.21746035 65.878403 -25.186714 -87.309875
43680000000 -29.560169 -107.07901 -0.27102181 65.50235 -0.28422865 65.404549 -24.875048 -125.13401
43707500000 -23.344854 -128.18251 -0.26161224 65.323135 -0.2543782 65.110039 -26.833529 -116.51736
43735000000 -21.388313 -117.08518 -0.27907637 65.197411 -0.26610917 65.086571 -27.457582 -98.671417
43762500000 -33.272697 -51.436935 -0.23804477 64.852318 -0.25030637 65.11187 -24.15613 -100.20198
43790000000 -20.964449 -127.18018 -0.21052602 64.818062 -0.2896663 64.588478 -29.181797 -109.23154
43817500000 -24.358585 -124.18317 -0.2307543 64.329277 -0.3191894 64.234184 -28.296715 -94.872543
43845000000 -32.164562 -96.206474 -0.24717127 64.024345 -0.21195196 63.98003 -23.698935 -111.76965
43872500000 -24.553366 -125.04558 -0.26947829 63.987331 -0.26053682 64.347183 -28.859331 -122.40977
43900000000 -22.678381 -117.7718 -0.27675658 63.488392 -0.26896051 63.816349 -30.680948 -91.128853
43927500000 -26.63512 -116.09712 -0.22530511 63.868275 -0.22474186 63.77763 -26.136534 -96.384949
43955000000 -28.739462 -136.19536 -0.23070408 63.986942 -0.23982581 63.698296 -26.32091 -111.38766
43982500000 -21.140905 -113.29139 -0.30228531 63.61932 -0.32531264 63.727402 -30.447708 -96.363678
44010000000 -27.511612 -132.95198 -0.24590383 63.109474 -0.23540109 63.599342 -24.643301 -101.56184
44037500000 -36.101231 -133.16208 -0.26381776 63.342159 -0.26688534 62.632534 -24.920477 -123.22406
44065000000 -22.041168 -116.12823 -0.3012675 62.726254 -0.35861075 62.838116 -33.76429 -90.784004
44092500000 -26.407312 -112.12791 -0.24060988 62.52993 -0.24962251 63.12862 -27.811758 -95.08017
44120000000 -36.190006 -128.44214 -0.25441086 62.561325 -0.23525353 61.841755 -26.183308 -104.58126
44147500000 -22.633211 -117.08835 -0.33497351 61.922215 -0.31211284 62.275997 -32.717476 -107.11524
44175000000 -24.925014 -101.9534 -0.32569823 61.835255 -0.21427135 62.095203 -28.117361 -91.52755
44202500000 -29.73732 -162.04306 -0.27976486 61.976948 -0.19567439 61.664623 -24.578548 -104.5359
44230000000 -23.862257 -117.97088 -0.298475 61.79113 -0.21294335 61.692879 -25.808489 -117.28687
44257500000 -23.082642 -107.89858 -0.32649153 61.770641 -0.23950057 61.452026 -27.351494 -81.362488
44285000000 -28.678181 -141.82887 -0.18287058 60.99913 -0.2812753 61.604176 -23.806925 -96.661301
44312500000 -26.729815 -112.11147 -0.29403475 60.759041 -0.22583243 61.27351 -25.767971 -124.12766
44340000000 -19.978994 -123.54434 -0.24312724 61.246151 -0.24295588 61.204098 -31.202896 -93.528755
44367500000 -36.765217 -45.534393 -0.24495529 60.685535 -0.17944358 60.638844 -23.64649 -89.319427
44395000000 -25.768324 -139.35776 -0.26445845 60.730267 -0.25752261 60.299286 -24.707195 -120.76616
44422500000 -20.81595 -116.52001 -0.28868654 60.020576 -0.21724263 60.37336 -30.353937 -118.26778
44450000000 -35.170208 -146.49469 -0.25787669 60.326015 -0.25648338 59.947773 -27.046093 -81.665413
44477500000 -26.003624 -138.08766 -0.26823187 59.851677 -0.23242967 60.268463 -24.467392 -118.26529
44505000000 -24.777319 -106.37321 -0.2591086 59.37722 -0.25928089 59.675369 -32.016781 -133.50743
44532500000 -25.184025 -117.8898 -0.26651457 59.467003 -0.30136517 59.417633 -27.928738 -75.698341
44560000000 -26.439001 -168.29185 -0.3060976 59.650276 -0.28546143 59.202488 -24.032141 -109.49596
44587500000 -22.635252 -106.63319 -0.28298518 59.160988 -0.30768588 59.012917 -28.434689 -132.69949
44615000000 -25.221992 -116.3063 -0.24197513 59.508373 -0.2476574 59.44677 -27.74708 -86.944702
44642500000 -28.669693 -154.51709 -0.22269833 59.377411 -0.22164097 58.554352 -22.970734 -99.501747
44670000000 -23.715466 -120.93081 -0.23552434 58.808128 -0.24233997 58.7817 -29.117039 -122.30208
44697500000 -23.684525 -109.75668 -0.25258076 58.664536 -0.22686546 58.811092 -29.864948 -98.251778
44725000000 -26.038313 -146.24075 -0.2481551 58.261642 -0.25707686 58.38549 -24.354406 -90.645393
44752500000 -24.563787 -121.48343 -0.30011344 58.006187 -0.20076253 58.129726 -26.258392 -117.84772
44780000000 -27.980015 -102.19686 -0.26315433 57.685963 -0.3058393 57.803234 -34.021492 -101.66035
44807500000 -22.17667 -131.75504 -0.28646755 57.630959 -0.23918381 58.291759 -25.022322 -82.676979
44835000000 -30.564222 -166.13272 -0.22170062 57.507866 -0.31146979 57.476635 -26.661001 -137.91603
44862500000 -23.428574 -100.93017 -0.27527612 57.06353 -0.29465109 57.399605 -34.994064 -162.96558
44890000000 -25.149158 -135.62683 -0.24327344 57.339958 -0.25993109 57.248928 -27.61237 -90.752243
44917500000 -27.499836 -147.50516 -0.26289251 56.790215 -0.19145754 56.843548 -24.420801 -118.66405
44945000000 -24.027805 -111.32825 -0.28254923 56.880947 -0.28290671 56.330914 -28.341379 -132.74159
44972500000 -24.340618 -123.97684 -0.23290843 56.664604 -0.22637291 56.69471 -26.405243 -87.907768
45000000000 -25.895248 -159.45752 -0.20472303 56.416931 -0.28569254 56.495377 -24.995974 -105.62824
