! Quiescent point : V1=-1.49674E-02 I1=+1.25698E-03 V2=-2.15892E-02 I2=-1.24728E-03
! Pulsed point : V1=-1.66812E-02 I1=+1.27365E-03 V2=-2.18540E-02 I2=-1.26146E-03
! Period : +2.00000E-04
! Input Supply timing : delay=+1.60000E-06 width=+2.20000E-06
! Output Supply timing : delay=+1.70000E-06 width=+2.00000E-06
! VNA timing : delay=+2.40000E-06 width=+1.10000E-06
# Hz S RI R 50
+2.70000E+10 -1.15567E-02 -2.63603E-01 +9.49979E-01 -1.40088E-01 +9.72713E-01 -1.10711E-01 -5.36489E-03 -1.98016E-01
+2.71000E+10 -7.62285E-02 -2.10290E-01 +8.87743E-01 -1.24773E-01 +9.48383E-01 -1.40886E-01 -5.13663E-03 -2.88671E-01
+2.72000E+10 -2.92271E-02 -2.18419E-01 +9.51624E-01 -1.44769E-01 +9.42723E-01 -1.00089E-01 -2.44143E-02 -2.19901E-01
+2.73000E+10 -2.51541E-02 -1.68332E-01 +8.77249E-01 -7.16878E-02 +8.67041E-01 -1.82371E-01 -2.74936E-02 -2.19112E-01
+2.74000E+10 -2.33774E-02 -2.52693E-01 +9.21298E-01 -2.23431E-01 +8.83209E-01 -2.44467E-01 -4.21605E-02 -1.98999E-01
+2.75000E+10 -3.48331E-02 -2.52832E-01 +9.30254E-01 -2.32732E-01 +8.75299E-01 -1.53554E-01 -4.94375E-03 -2.06173E-01
+2.76000E+10 +5.54342E-02 -1.38260E-01 +9.62900E-01 -2.63296E-01 +8.80615E-01 -2.43339E-01 +2.72732E-02 -2.31168E-01
+2.77000E+10 -4.55590E-02 -2.43910E-01 +9.27449E-01 -2.36494E-01 +9.19925E-01 -2.65297E-01 -6.84876E-02 -2.67435E-01
+2.78000E+10 -4.45543E-02 -1.98723E-01 +8.87261E-01 -2.51251E-01 +8.17581E-01 -2.26808E-01 -4.54462E-02 -2.08252E-01
+2.79000E+10 -5.55854E-02 -2.88442E-01 +9.31367E-01 -3.10478E-01 +9.96183E-01 -3.20206E-01 +3.34277E-02 -2.51525E-01
+2.80000E+10 -9.07866E-02 -3.30449E-01 +9.21769E-01 -3.32189E-01 +9.30833E-01 -3.90044E-01 -1.07505E-01 -1.98352E-01
+2.81000E+10 +5.11476E-03 -1.55787E-01 +8.35486E-01 -4.12682E-01 +8.81036E-01 -3.14126E-01 -4.01905E-02 -2.00283E-01
+2.82000E+10 -3.85750E-02 -1.87819E-01 +8.98750E-01 -3.71582E-01 +8.25742E-01 -3.01479E-01 +3.64975E-03 -1.60674E-01
+2.83000E+10 -1.05781E-01 -2.11181E-01 +8.25291E-01 -2.54629E-01 +8.09333E-01 -4.31658E-01 -1.20774E-01 -1.90104E-01
+2.84000E+10 -1.07198E-01 -1.84555E-01 +7.26853E-01 -3.58695E-01 +1.01105E+00 -3.83173E-01 -1.01953E-01 -2.41604E-01
+2.85000E+10 -1.69907E-02 -1.48280E-01 +8.97435E-01 -4.26874E-01 +8.07303E-01 -4.85874E-01 -1.06710E-01 -1.54018E-01
+2.86000E+10 -1.11748E-01 -1.70619E-01 +8.13910E-01 -4.33760E-01 +8.45735E-01 -4.66581E-01 -3.99139E-02 -2.09174E-01
+2.87000E+10 -6.42301E-02 -1.35542E-01 +7.84257E-01 -3.69918E-01 +8.29169E-01 -4.69585E-01 -9.64179E-02 -2.61787E-01
+2.88000E+10 -8.19421E-02 -1.65098E-01 +7.92511E-01 -5.02676E-01 +7.45198E-01 -4.49230E-01 -1.43946E-01 -2.84396E-01
+2.89000E+10 -8.34034E-02 -2.38869E-01 +7.92582E-01 -4.96447E-01 +8.19643E-01 -5.17762E-01 -2.08769E-02 -1.56890E-01
+2.90000E+10 -6.98374E-02 -9.54084E-02 +7.92767E-01 -5.54963E-01 +8.53594E-01 -4.74817E-01 -4.93305E-02 -1.54470E-01
+2.91000E+10 -1.99192E-01 -2.36202E-01 +8.52194E-01 -5.30086E-01 +7.85724E-01 -5.43997E-01 -1.04944E-01 -2.12813E-01
+2.92000E+10 -8.33532E-02 -3.09411E-01 +7.96345E-01 -6.74974E-01 +7.44416E-01 -5.90342E-01 -1.05541E-01 -1.70499E-01
+2.93000E+10 -9.88722E-02 -1.97449E-01 +6.85434E-01 -5.81725E-01 +8.14979E-01 -5.53925E-01 -9.75380E-02 -2.15061E-01
+2.94000E+10 -1.37642E-01 -1.62728E-01 +7.55713E-01 -5.79711E-01 +6.80592E-01 -5.07395E-01 -1.08595E-01 -1.74536E-01
+2.95000E+10 -1.13324E-01 -1.83913E-01 +7.47210E-01 -6.14158E-01 +6.88311E-01 -6.24159E-01 -9.26104E-03 -1.37826E-01
+2.96000E+10 -1.37459E-01 -1.88056E-01 +6.98949E-01 -6.10174E-01 +7.59841E-01 -6.52321E-01 -9.54982E-02 -1.30667E-01
+2.97000E+10 -7.82137E-02 -2.45674E-01 +6.60116E-01 -7.13492E-01 +6.86668E-01 -5.88463E-01 -1.11445E-01 -1.92838E-01
+2.98000E+10 -1.38338E-01 -2.00224E-01 +7.04852E-01 -5.61399E-01 +7.05454E-01 -6.56650E-01 -1.34942E-01 -1.26340E-01
+2.99000E+10 -6.84729E-02 -2.15753E-01 +6.03687E-01 -6.72164E-01 +6.95428E-01 -5.86771E-01 -6.68647E-02 -9.00287E-02
+3.00000E+10 -7.09782E-02 -2.12501E-01 +6.24405E-01 -6.98700E-01 +7.57584E-01 -5.72230E-01 -2.81521E-02 -1.44394E-01
+3.01000E+10 -1.28014E-01 -1.21172E-01 +6.09303E-01 -6.80041E-01 +6.05771E-01 -7.04829E-01 -8.10416E-02 -1.09525E-01
+3.02000E+10 -7.41754E-02 -9.14786E-02 +5.76116E-01 -6.41250E-01 +6.35687E-01 -7.18762E-01 -7.73307E-02 -1.62983E-01
+3.03000E+10 -9.46974E-02 -1.88747E-01 +5.85592E-01 -6.84146E-01 +6.06636E-01 -7.37777E-01 -3.97781E-02 -1.80001E-01
+3.04000E+10 -6.83089E-02 -1.80714E-01 +5.85689E-01 -7.87474E-01 +5.78319E-01 -7.39805E-01 -1.14823E-01 -1.21866E-01
+3.05000E+10 -6.98738E-02 -8.23599E-02 +4.88680E-01 -7.55135E-01 +5.33137E-01 -8.11678E-01 -8.40079E-02 -1.95716E-01
+3.06000E+10 -4.55459E-02 -1.65677E-01 +5.96547E-01 -8.02971E-01 +5.34243E-01 -7.40831E-01 -1.27460E-01 -1.34116E-01
+3.07000E+10 -4.47230E-02 -1.62005E-01 +5.22673E-01 -9.02123E-01 +4.93602E-01 -7.90554E-01 -8.12563E-02 -1.93233E-01
+3.08000E+10 -9.91298E-02 -1.71272E-01 +5.53124E-01 -8.05824E-01 +4.56258E-01 -7.42817E-01 -4.75924E-02 -3.54662E-02
+3.09000E+10 -7.77606E-02 -1.36246E-01 +4.30724E-01 -8.38961E-01 +5.30280E-01 -7.08778E-01 -9.21539E-02 -8.80224E-02
+3.10000E+10 -1.38169E-01 -7.68468E-02 +4.16308E-01 -8.65814E-01 +4.86416E-01 -8.20937E-01 -9.19929E-02 -1.10994E-01
+3.11000E+10 -5.52218E-02 -6.25982E-02 +4.49067E-01 -8.29794E-01 +3.06962E-01 -7.90005E-01 -8.23617E-02 -1.30111E-01
+3.12000E+10 -2.38933E-02 -4.58697E-02 +4.65743E-01 -8.70625E-01 +3.70294E-01 -8.25101E-01 -6.92028E-05 +2.51198E-02
+3.13000E+10 -6.29726E-02 -2.94860E-01 +4.58724E-01 -9.00914E-01 +4.30565E-01 -8.93882E-01 -4.82035E-02 -1.05708E-01
+3.14000E+10 -9.35191E-02 -5.43204E-02 +4.16079E-01 -8.94156E-01 +4.36764E-01 -8.78867E-01 -6.43155E-02 -6.40241E-02
+3.15000E+10 +3.27469E-03 +5.79061E-02 +3.01758E-01 -9.40609E-01 +3.50802E-01 -8.48781E-01 -1.13147E-01 -1.16122E-01
+3.16000E+10 -8.23352E-02 -1.88156E-01 +3.78001E-01 -8.68438E-01 +3.75420E-01 -7.98665E-01 -1.02292E-01 -7.27268E-02
+3.17000E+10 -3.08365E-02 -1.36853E-01 +3.06962E-01 -9.80159E-01 +3.68100E-01 -8.44821E-01 -1.22892E-01 -2.46476E-02
+3.18000E+10 -1.45267E-01 -7.72543E-02 +3.42642E-01 -9.01925E-01 +2.99731E-01 -8.74496E-01 +8.18832E-02 -8.25660E-02
+3.19000E+10 -1.00464E-01 +3.33827E-03 +3.34045E-01 -9.27830E-01 +3.79073E-01 -9.09048E-01 -2.44726E-02 -1.43369E-01
+3.20000E+10 -8.69332E-02 -7.68713E-02 +1.70733E-01 -9.49102E-01 +2.82097E-01 -9.31810E-01 +2.00226E-02 -1.02659E-01
+3.21000E+10 +1.10660E-02 -8.20005E-02 +2.65266E-01 -9.09842E-01 +2.25495E-01 -9.05066E-01 -3.84681E-02 -7.23267E-02
+3.22000E+10 -7.66865E-02 -1.39171E-01 +1.34779E-01 -9.39041E-01 +2.43434E-01 -9.46887E-01 -9.92129E-02 -4.79521E-02
+3.23000E+10 +2.78942E-02 -1.43241E-01 +1.71053E-01 -9.06852E-01 +2.20137E-01 -9.42901E-01 -3.65762E-02 -1.04665E-01
+3.24000E+10 -1.63771E-02 -6.10694E-02 +1.07401E-01 -9.69301E-01 +2.59534E-01 -9.03934E-01 +1.18435E-01 -1.03717E-01
+3.25000E+10 -5.74539E-02 -2.80387E-02 +1.75769E-01 -9.28927E-01 +9.87793E-02 -9.20322E-01 -7.55773E-02 -1.64893E-01
+3.26000E+10 +6.32012E-03 +9.66033E-03 +1.77309E-01 -8.89304E-01 +1.48586E-01 -1.00915E+00 -4.48443E-02 +9.41823E-02
+3.27000E+10 +3.28819E-03 +1.21777E-02 +9.83785E-02 -1.07540E+00 +1.20348E-01 -8.99759E-01 +4.60409E-02 -9.49916E-02
+3.28000E+10 +8.26085E-02 -1.81906E-02 +1.36416E-01 -1.06672E+00 +1.90597E-01 -9.41564E-01 +1.61523E-01 -1.73603E-01
+3.29000E+10 -1.02358E-01 -1.03456E-01 +8.66169E-02 -9.60526E-01 +1.22748E-02 -9.67403E-01 -6.53089E-03 -6.15195E-02
+3.30000E+10 +3.25589E-02 +4.92371E-03 +1.30707E-01 -9.13859E-01 +4.25235E-02 -8.32445E-01 +3.88397E-02 -4.49707E-02
+3.31000E+10 -8.93353E-02 -1.14037E-01 -1.79702E-01 -1.00656E+00 -1.72084E-02 -1.01038E+00 -4.46579E-02 -8.38091E-02
+3.32000E+10 -1.65336E-02 -5.05495E-02 +5.09145E-02 -9.23461E-01 +1.18441E-01 -1.03683E+00 +1.41379E-01 +2.18239E-02
+3.33000E+10 +5.64414E-02 -6.40284E-02 -1.57773E-02 -8.94488E-01 -5.78597E-02 -8.87958E-01 +5.04568E-02 -3.76273E-03
+3.34000E+10 +1.71825E-01 -1.37622E-02 +2.02280E-02 -8.56993E-01 -4.49894E-02 -8.79213E-01 +6.19360E-02 -8.80746E-02
+3.35000E+10 +3.00824E-02 -4.67352E-02 -4.94676E-02 -1.00975E+00 +2.74715E-02 -9.18407E-01 +3.10450E-03 -4.66877E-02
+3.36000E+10 -2.00704E-02 -1.40656E-01 -1.54220E-01 -9.11023E-01 -1.03601E-01 -8.65572E-01 +2.27072E-02 +1.92202E-02
+3.37000E+10 +1.11537E-01 -7.11565E-02 -9.35453E-02 -8.62318E-01 -1.82563E-01 -8.00282E-01 +7.11144E-02 -1.11351E-01
+3.38000E+10 +9.34060E-02 -4.55704E-02 -2.38913E-02 -9.78395E-01 -2.49018E-01 -8.93246E-01 +1.65599E-01 -9.80744E-02
+3.39000E+10 +4.66197E-02 -2.71023E-02 -1.81871E-01 -8.94765E-01 -1.02911E-01 -9.23761E-01 -4.03908E-03 -4.68919E-02
+3.40000E+10 +4.00644E-02 -1.62603E-01 -2.39531E-01 -9.45005E-01 -2.63779E-01 -8.34076E-01 +1.77912E-01 -1.37160E-01
+3.41000E+10 +4.17786E-03 -1.68945E-01 -1.64514E-01 -8.67022E-01 -3.29202E-01 -8.02568E-01 -5.44770E-02 -2.68293E-02
+3.42000E+10 +3.43254E-03 -1.37073E-01 -2.44997E-01 -9.44687E-01 -2.62747E-01 -9.45646E-01 +1.41443E-01 -1.87440E-01
+3.43000E+10 +1.51205E-01 -1.93534E-01 -2.69500E-01 -8.07914E-01 -1.42643E-01 -9.67092E-01 +1.86716E-01 -1.57761E-01
+3.44000E+10 +3.44380E-02 -5.31874E-02 -3.71182E-01 -1.01743E+00 -3.18447E-01 -9.55582E-01 +1.02500E-01 -1.72869E-01
+3.45000E+10 +1.22141E-01 -1.08108E-01 -3.35485E-01 -9.13848E-01 -1.79326E-01 -8.48754E-01 +3.86265E-02 -8.39722E-02
+3.46000E+10 +1.10322E-01 -1.35265E-01 -3.16035E-01 -8.98362E-01 -4.24126E-01 -9.73592E-01 +4.63651E-02 -1.47938E-01
+3.47000E+10 -3.89925E-02 -2.30542E-01 -4.74627E-01 -8.30504E-01 -3.35563E-01 -8.70958E-01 -2.15500E-02 -1.49066E-01
+3.48000E+10 +1.27180E-01 -7.71255E-02 -3.60123E-01 -9.39872E-01 -4.20580E-01 -8.56804E-01 +3.80843E-02 -8.32604E-02
+3.49000E+10 +4.04540E-02 -1.60094E-01 -3.89621E-01 -8.33937E-01 -2.42887E-01 -7.87993E-01 +9.19895E-02 -6.39776E-02
+3.50000E+10 +1.87134E-02 -9.25336E-02 -4.64902E-01 -9.44671E-01 -3.29701E-01 -8.18959E-01 +1.50264E-01 -1.50241E-01
+3.51000E+10 +4.08653E-02 -1.51309E-01 -5.04162E-01 -7.78103E-01 -4.65863E-01 -1.01147E+00 +8.27757E-02 -2.24137E-01
+3.52000E+10 +6.12431E-02 -6.11223E-02 -5.45961E-01 -8.33092E-01 -4.87708E-01 -8.13999E-01 +8.16730E-02 -1.65642E-01
+3.53000E+10 +8.70283E-02 -8.76206E-02 -5.45843E-01 -7.67672E-01 -3.77509E-01 -8.89129E-01 +3.24328E-02 -1.71067E-01
+3.54000E+10 +1.84033E-01 -2.87297E-01 -4.89252E-01 -7.47453E-01 -5.70797E-01 -7.74900E-01 +2.50496E-02 -2.82833E-02
+3.55000E+10 +3.61535E-02 -2.38353E-01 -4.78383E-01 -7.63415E-01 -3.57942E-01 -9.06874E-01 +2.89343E-01 -2.65771E-02
+3.56000E+10 +1.83864E-01 -1.01478E-01 -5.07009E-01 -7.35611E-01 -5.79411E-01 -7.90028E-01 +2.40912E-01 -2.60688E-01
+3.57000E+10 -4.10155E-02 -2.35776E-01 -4.61590E-01 -7.28576E-01 -4.90390E-01 -6.88516E-01 +2.01667E-01 -1.28525E-01
+3.58000E+10 +2.04815E-01 -1.92323E-01 -6.69618E-01 -7.71235E-01 -5.88272E-01 -9.07070E-01 -1.26047E-01 -2.26107E-01
+3.59000E+10 +1.78876E-01 -1.90643E-01 -6.27861E-01 -7.35713E-01 -5.67582E-01 -8.27755E-01 +1.43610E-01 -1.43463E-01
+3.60000E+10 +1.79598E-01 -2.72353E-01 -6.29119E-01 -7.88630E-01 -4.34232E-01 -7.95051E-01 +2.34883E-01 -1.79875E-01
+3.61000E+10 +1.09824E-01 -1.78302E-01 -7.44134E-01 -7.86151E-01 -4.60703E-01 -6.78681E-01 +9.56281E-02 -3.15474E-01
+3.62000E+10 +2.09274E-01 -2.50894E-01 -7.04432E-01 -6.39460E-01 -7.38974E-01 -6.33793E-01 +1.10486E-01 -8.89007E-02
+3.63000E+10 +1.12208E-01 -1.57791E-01 -5.63642E-01 -4.65307E-01 -6.79171E-01 -6.37261E-01 +1.62939E-01 -3.21102E-01
+3.64000E+10 +9.51839E-02 -2.18499E-01 -6.06942E-01 -7.57833E-01 -7.77313E-01 -7.10673E-01 +5.60629E-02 -3.63484E-01
+3.65000E+10 +1.58516E-01 -2.00360E-01 -6.69464E-01 -5.58712E-01 -5.48442E-01 -8.87463E-01 +1.96959E-01 -3.30417E-01
+3.66000E+10 +1.01768E-01 -2.82406E-01 -5.96557E-01 -6.43739E-01 -5.74578E-01 -7.42336E-01 -5.45018E-02 -3.88476E-01
+3.67000E+10 +1.03970E-01 -1.54936E-01 -7.55191E-01 -6.24602E-01 -6.12334E-01 -3.95763E-01 +3.91645E-01 -3.31378E-01
+3.68000E+10 +1.11677E-02 -8.13503E-02 -9.65988E-01 -5.17218E-01 -5.87362E-01 -3.63288E-01 +6.19581E-02 -2.06904E-01
+3.69000E+10 +5.29108E-02 -1.76619E-01 -5.01332E-01 -4.84666E-01 -6.58331E-01 -5.41823E-01 +1.71425E-01 -2.61041E-01
+3.70000E+10 +2.06548E-01 -3.85933E-01 -7.79416E-01 -5.25230E-01 -7.42642E-01 -4.76741E-01 +1.58416E-01 -1.90297E-01
+3.71000E+10 +5.91591E-02 -3.00721E-01 -7.63054E-01 -3.66139E-01 -6.73764E-01 -5.04500E-01 +1.68085E-01 -1.63755E-01
+3.72000E+10 +1.22670E-01 -8.43056E-02 -7.05490E-01 -6.56995E-01 -6.88313E-01 -6.10207E-01 +1.61817E-02 -3.06180E-01
+3.73000E+10 +1.48595E-01 -3.18976E-01 -8.65331E-01 -4.37874E-01 -7.46761E-01 -3.82674E-01 -4.04460E-02 -2.68728E-01
+3.74000E+10 +1.85508E-01 -1.45294E-01 -8.24891E-01 -4.25992E-01 -6.74464E-01 -2.97677E-01 +1.16253E-01 -1.87570E-01
+3.75000E+10 +1.06593E-01 -2.37366E-01 -9.70576E-01 -3.90195E-01 -8.05882E-01 -4.42015E-01 +7.96439E-02 -5.67716E-01
+3.76000E+10 -3.12739E-02 -2.63771E-01 -8.41178E-01 -3.43103E-01 -8.29513E-01 -5.37713E-01 +9.22985E-02 -2.83933E-01
+3.77000E+10 +1.87689E-01 -1.12183E-01 -9.92823E-01 -3.96112E-01 -7.80936E-01 -3.28168E-01 +8.64458E-02 -3.47874E-01
+3.78000E+10 +3.09797E-01 -2.52672E-01 -6.99187E-01 -2.87291E-01 -6.89434E-01 -5.00585E-01 +2.03960E-01 -2.15637E-01
+3.79000E+10 +1.51568E-01 -2.86111E-01 -8.28036E-01 -2.75292E-01 -7.19656E-01 -3.40229E-01 +5.17004E-02 -3.37498E-01
+3.80000E+10 +2.35607E-01 -4.08147E-01 -7.95798E-01 -8.84239E-02 -8.54867E-01 -3.76305E-01 +1.43394E-01 -3.70632E-01
+3.81000E+10 +8.47199E-02 -4.72736E-01 -7.44241E-01 -1.81005E-01 -8.97188E-01 -2.33789E-01 +1.71811E-01 -3.29605E-01
+3.82000E+10 +1.52581E-01 -4.64992E-01 -8.71902E-01 -2.76826E-01 -7.73799E-01 -1.09246E-01 -7.28678E-02 -2.89907E-01
+3.83000E+10 +2.70286E-01 -1.30929E-01 -9.38956E-01 -1.39659E-01 -9.27360E-01 -2.47038E-01 +9.61906E-02 -2.51331E-01
+3.84000E+10 +1.28307E-01 -2.56511E-01 -9.08442E-01 -4.40811E-01 -7.23909E-01 -3.64680E-02 +1.56350E-01 -4.34447E-01
+3.85000E+10 +1.23623E-01 -4.85729E-01 -9.19992E-01 -2.28893E-01 -6.56954E-01 -2.87242E-01 +1.42989E-01 -4.08692E-01
+3.86000E+10 +1.26709E-01 -1.80853E-01 -1.01662E+00 -1.57507E-01 -1.04938E+00 -1.16501E-01 +2.83742E-01 -3.84895E-01
+3.87000E+10 +5.53810E-02 -4.67727E-01 -7.91511E-01 -1.24625E-01 -8.84953E-01 -2.22505E-01 +2.21967E-01 -3.75267E-01
+3.88000E+10 -5.34534E-02 -2.95862E-01 -7.46941E-01 +6.53062E-04 -9.36666E-01 -2.91472E-01 +6.87801E-02 -4.00533E-01
+3.89000E+10 +2.84007E-01 -2.66426E-01 -6.40142E-01 -6.51480E-02 -8.74188E-01 -1.77095E-01 +2.26042E-02 -4.94400E-01
+3.90000E+10 +1.29320E-01 -4.65386E-01 -7.27802E-01 -6.05026E-02 -8.94105E-01 -1.74527E-01 -9.09679E-02 -3.11790E-01
+3.91000E+10 +8.27900E-02 -3.44725E-01 -9.74052E-01 -2.38372E-01 -6.25538E-01 -1.83520E-01 +1.88859E-01 -3.96688E-01
+3.92000E+10 -1.45119E-02 -2.86579E-01 -8.12801E-01 -7.43395E-02 -1.04686E+00 +5.47483E-02 -3.56452E-02 -4.69958E-01
+3.93000E+10 +3.24883E-02 -2.16365E-01 -8.79383E-01 -1.00220E-01 -7.89476E-01 +5.68903E-02 +9.25084E-02 -4.36994E-01
+3.94000E+10 -2.75333E-02 -3.90713E-01 -9.36975E-01 +9.95239E-02 -9.10861E-01 -6.84138E-02 +1.20379E-01 -2.07476E-01
+3.95000E+10 -1.14677E-01 -3.82169E-01 -9.49553E-01 -5.75977E-02 -9.17217E-01 -4.67798E-02 +2.14970E-01 -5.00054E-01
+3.96000E+10 -6.01817E-02 -3.10527E-01 -8.74488E-01 -3.11657E-02 -1.01229E+00 -1.29382E-01 -1.71997E-01 -4.33647E-01
+3.97000E+10 -1.43815E-01 -1.93522E-01 -9.67035E-01 -3.04986E-02 -9.27978E-01 +2.34276E-01 -1.85712E-01 -2.74663E-01
+3.98000E+10 +1.08986E-01 -5.14810E-01 -9.45725E-01 +4.43190E-02 -1.01464E+00 -8.25249E-02 -9.82089E-02 -2.43470E-01
+3.99000E+10 +2.23917E-01 -2.21723E-01 -8.01934E-01 +6.50269E-02 -9.16668E-01 +1.97437E-01 +1.34639E-01 -3.97915E-01
+4.00000E+10 -3.66790E-02 -5.99284E-01 -7.49241E-01 +2.94841E-01 -8.91869E-01 +2.11282E-01 +9.83771E-02 -3.77589E-01
