! Quiescent point : V1=-2.31417E-03 I1=+3.14876E-04 V2=-1.45774E-02 I2=-4.54929E-03
! Pulsed point : V1=-1.96981E-03 I1=+3.16719E-04 V2=-1.46906E-02 I2=-4.60056E-03
! Period : +2.00000E-04
! Input Supply timing : delay=+1.60000E-06 width=+2.20000E-06
! Output Supply timing : delay=+1.70000E-06 width=+2.00000E-06
! VNA timing : delay=+2.40000E-06 width=+1.10000E-06
# Hz S RI R 50
+2.70000E+10 -3.59218E-01 +7.57152E-01 +4.13313E-02 +9.07155E-02 +6.08182E-02 +1.38883E-01 -3.99541E-01 -8.34802E-01
+2.71000E+10 -3.51270E-01 +7.14856E-01 +1.04961E-01 +1.24527E-01 +4.19420E-02 +7.22430E-02 -4.41877E-01 -8.04268E-01
+2.72000E+10 -2.93281E-01 +7.05927E-01 +1.21201E-01 +1.17769E-01 +3.15733E-03 +1.39047E-01 -5.11640E-01 -8.34790E-01
+2.73000E+10 -2.40757E-01 +6.93169E-01 +2.40974E-02 +1.38270E-01 +7.55866E-02 +1.39518E-01 -5.85180E-01 -7.75017E-01
+2.74000E+10 -2.75574E-01 +7.42676E-01 +1.69216E-01 +1.62851E-01 +1.22402E-01 +1.75624E-01 -4.71342E-01 -8.24717E-01
+2.75000E+10 -1.28258E-01 +7.23295E-01 +9.83811E-02 +1.62716E-01 +5.72771E-02 +1.17801E-01 -5.37529E-01 -7.17999E-01
+2.76000E+10 -5.70878E-02 +6.74723E-01 +1.94993E-01 +9.61139E-02 +1.25522E-01 +1.98803E-01 -4.15449E-01 -6.70434E-01
+2.77000E+10 -7.87678E-02 +7.30367E-01 +1.86960E-01 +1.24407E-01 +1.81711E-01 +9.93976E-02 -4.81201E-01 -7.52546E-01
+2.78000E+10 -3.19777E-02 +7.18675E-01 +1.92768E-01 +1.71847E-01 +1.96424E-01 +1.79587E-01 -5.62654E-01 -7.27963E-01
+2.79000E+10 -6.92996E-03 +6.74731E-01 +2.08501E-01 +6.05629E-02 +1.26382E-01 +1.59724E-01 -5.61105E-01 -7.17661E-01
+2.80000E+10 +6.56088E-02 +7.73416E-01 +2.15444E-01 +2.13968E-01 +1.84656E-01 +1.44308E-01 -6.62517E-01 -7.06058E-01
+2.81000E+10 +6.56209E-02 +6.88351E-01 +9.50768E-02 +4.88698E-02 +1.57243E-01 +1.85971E-01 -6.08755E-01 -7.23476E-01
+2.82000E+10 +4.88740E-02 +7.36473E-01 +1.74741E-01 +2.93101E-02 +1.18872E-01 +1.62187E-01 -5.91902E-01 -6.60101E-01
+2.83000E+10 +2.07256E-01 +6.15214E-01 +1.46275E-01 +9.00060E-02 +1.25142E-01 +1.68687E-01 -5.87369E-01 -6.38184E-01
+2.84000E+10 +2.07734E-01 +6.80935E-01 +2.77910E-01 +1.55005E-01 +1.58511E-01 +2.21122E-01 -7.10714E-01 -6.32632E-01
+2.85000E+10 +2.91211E-01 +7.83270E-01 +2.73718E-01 +1.25249E-01 +1.99097E-01 +1.64544E-01 -6.57666E-01 -6.61761E-01
+2.86000E+10 +2.66234E-01 +7.05538E-01 +1.88337E-01 +1.14352E-01 +2.71059E-01 +1.27209E-01 -7.09342E-01 -6.48027E-01
+2.87000E+10 +3.90771E-01 +6.60630E-01 +1.13360E-01 +1.22181E-01 +2.52926E-01 +1.74347E-01 -6.98692E-01 -5.16335E-01
+2.88000E+10 +3.78439E-01 +6.28558E-01 +2.68324E-01 +1.45145E-01 +2.63412E-01 +1.72304E-01 -6.06841E-01 -6.26784E-01
+2.89000E+10 +4.45408E-01 +5.90466E-01 +2.17114E-01 +8.47391E-02 +1.62175E-01 +8.83846E-02 -7.28566E-01 -5.59048E-01
+2.90000E+10 +4.45188E-01 +5.44724E-01 +2.70761E-01 +1.76384E-01 +2.44293E-01 +1.58686E-01 -7.09157E-01 -5.04716E-01
+2.91000E+10 +3.97099E-01 +5.07881E-01 +3.82783E-01 +1.04659E-01 +3.48228E-01 +1.65037E-01 -6.88192E-01 -5.39069E-01
+2.92000E+10 +5.35927E-01 +4.72946E-01 +3.37483E-01 +1.36974E-01 +2.97204E-01 +1.46947E-01 -7.59016E-01 -4.96139E-01
+2.93000E+10 +5.73204E-01 +4.87502E-01 +3.86320E-01 +1.21396E-01 +3.38703E-01 +1.39934E-01 -6.90653E-01 -4.47246E-01
+2.94000E+10 +5.04222E-01 +5.23134E-01 +2.56003E-01 +2.27636E-01 +3.36289E-01 +1.30626E-01 -7.59191E-01 -4.86933E-01
+2.95000E+10 +5.14131E-01 +4.33162E-01 +3.92228E-01 +1.23678E-01 +2.88830E-01 +9.86424E-02 -8.07807E-01 -4.40992E-01
+2.96000E+10 +5.58179E-01 +4.18783E-01 +3.89580E-01 +1.68410E-01 +3.41691E-01 +8.88152E-02 -7.61810E-01 -4.22022E-01
+2.97000E+10 +6.41669E-01 +3.47017E-01 +3.35343E-01 +1.00430E-01 +3.35800E-01 +4.73170E-02 -6.64141E-01 -4.45351E-01
+2.98000E+10 +6.05303E-01 +3.72768E-01 +4.13810E-01 +7.21543E-02 +3.09932E-01 +6.96495E-02 -7.91808E-01 -4.21626E-01
+2.99000E+10 +6.48030E-01 +4.01065E-01 +3.85433E-01 +5.32287E-02 +2.73430E-01 +1.10167E-02 -7.65590E-01 -3.36186E-01
+3.00000E+10 +6.83481E-01 +1.84737E-01 +3.32210E-01 +1.21024E-02 +4.08902E-01 +1.67840E-01 -8.31570E-01 -3.17074E-01
+3.01000E+10 +6.86714E-01 +2.83133E-01 +3.83998E-01 +1.57197E-01 +3.36425E-01 +1.15332E-01 -6.77400E-01 -3.68021E-01
+3.02000E+10 +5.96436E-01 +2.56625E-01 +4.68302E-01 +6.89821E-02 +4.37614E-01 +4.40822E-02 -7.93523E-01 -2.48300E-01
+3.03000E+10 +6.79437E-01 +1.72808E-01 +3.69563E-01 +1.78747E-02 +4.09236E-01 +8.98413E-02 -6.86585E-01 -3.38610E-01
+3.04000E+10 +7.38080E-01 +2.14917E-02 +4.59470E-01 +9.49115E-04 +4.48842E-01 -2.61027E-03 -8.11880E-01 -3.55996E-01
+3.05000E+10 +6.89175E-01 +2.07616E-01 +3.40273E-01 +5.63334E-02 +4.85505E-01 +2.36680E-02 -7.37464E-01 -2.20469E-01
+3.06000E+10 +7.59230E-01 +3.14495E-02 +4.69541E-01 +1.60557E-01 +3.09567E-01 +3.89040E-02 -7.68648E-01 -2.40935E-01
+3.07000E+10 +6.34966E-01 +9.17839E-02 +4.14531E-01 -5.53382E-02 +3.09224E-01 -2.07706E-01 -8.21429E-01 -1.82636E-01
+3.08000E+10 +7.95541E-01 -6.52311E-02 +4.16250E-01 -1.54429E-02 +4.67896E-01 -2.31632E-02 -8.91956E-01 -1.59340E-01
+3.09000E+10 +7.66647E-01 -1.07747E-02 +4.08367E-01 +1.09907E-02 +3.16602E-01 +7.06302E-02 -8.79697E-01 -2.67853E-01
+3.10000E+10 +7.87873E-01 -3.54766E-02 +4.96346E-01 -8.49898E-02 +2.79008E-01 -1.89669E-01 -7.10464E-01 -1.70777E-01
+3.11000E+10 +6.39977E-01 -5.66278E-02 +4.88459E-01 -1.92749E-01 +3.44708E-01 -7.47172E-02 -7.66822E-01 -1.86906E-01
+3.12000E+10 +7.00517E-01 -1.12977E-01 +4.36933E-01 -1.64252E-01 +5.05001E-01 -1.03836E-01 -7.09699E-01 -1.21993E-01
+3.13000E+10 +6.45687E-01 -1.03640E-01 +4.66850E-01 -1.53293E-01 +2.89935E-01 -7.85344E-02 -7.83718E-01 -1.85209E-01
+3.14000E+10 +6.76523E-01 -1.74048E-01 +4.07674E-01 -1.13193E-01 +4.46079E-01 -1.95490E-01 -7.56232E-01 -7.58890E-02
+3.15000E+10 +8.00199E-01 -1.96734E-01 +5.81945E-01 -2.71117E-01 +4.71283E-01 -1.62246E-01 -7.36200E-01 -5.25063E-02
+3.16000E+10 +7.01520E-01 -2.14229E-01 +4.77769E-01 -1.36368E-01 +4.78458E-01 -1.62848E-01 -7.79448E-01 -3.19977E-02
+3.17000E+10 +6.25465E-01 -3.51333E-01 +5.34693E-01 -1.69436E-01 +2.87147E-01 -8.74414E-02 -6.76955E-01 -8.92226E-04
+3.18000E+10 +5.99454E-01 -2.76712E-01 +4.40151E-01 -2.74864E-01 +4.49305E-01 -2.49852E-01 -7.33359E-01 -3.47268E-02
+3.19000E+10 +7.21589E-01 -2.86760E-01 +6.00143E-01 -1.48027E-01 +4.10593E-01 -2.94848E-01 -7.39218E-01 -8.65815E-03
+3.20000E+10 +6.26971E-01 -3.14167E-01 +3.53537E-01 -2.47723E-01 +4.94284E-01 -1.86315E-01 -6.83421E-01 +1.24203E-01
+3.21000E+10 +5.14525E-01 -4.38507E-01 +4.82815E-01 -2.40635E-01 +4.72809E-01 -2.88301E-01 -7.02394E-01 -6.28662E-02
+3.22000E+10 +5.48307E-01 -4.60696E-01 +4.68862E-01 -3.26747E-01 +4.53846E-01 -1.98103E-01 -7.50404E-01 +1.23651E-01
+3.23000E+10 +6.64984E-01 -4.99508E-01 +3.42218E-01 -2.85115E-01 +5.30673E-01 -2.41408E-01 -7.05802E-01 +1.55434E-01
+3.24000E+10 +6.21472E-01 -4.72585E-01 +4.77531E-01 -3.99071E-01 +4.55362E-01 -2.91979E-01 -6.88355E-01 +1.16353E-01
+3.25000E+10 +5.13772E-01 -4.28601E-01 +4.68967E-01 -3.44581E-01 +4.64848E-01 -2.56818E-01 -6.62804E-01 +1.38686E-01
+3.26000E+10 +5.54484E-01 -4.68856E-01 +4.01865E-01 -2.78239E-01 +5.67581E-01 -2.61924E-01 -6.83758E-01 +1.75733E-01
+3.27000E+10 +4.32411E-01 -4.09377E-01 +4.56135E-01 -2.50356E-01 +3.55535E-01 -4.49570E-01 -5.90549E-01 +2.53169E-01
+3.28000E+10 +4.73140E-01 -5.31741E-01 +4.09471E-01 -3.31002E-01 +3.98076E-01 -4.78207E-01 -6.93148E-01 +1.96177E-01
+3.29000E+10 +4.52600E-01 -4.71789E-01 +5.16297E-01 -4.14679E-01 +4.85586E-01 -3.69176E-01 -5.05909E-01 +1.58795E-01
+3.30000E+10 +4.52119E-01 -5.86304E-01 +2.71140E-01 -3.98448E-01 +4.02137E-01 -4.24040E-01 -4.73084E-01 +2.47951E-01
+3.31000E+10 +4.41808E-01 -5.34970E-01 +2.63615E-01 -4.26660E-01 +3.21810E-01 -3.18997E-01 -5.06418E-01 +3.70820E-01
+3.32000E+10 +3.13389E-01 -4.77457E-01 +3.12519E-01 -5.38220E-01 +4.47003E-01 -5.12191E-01 -6.18566E-01 +1.95412E-01
+3.33000E+10 +3.10065E-01 -5.60027E-01 +3.85368E-01 -5.52075E-01 +4.44625E-01 -6.40823E-01 -4.83198E-01 +2.83985E-01
+3.34000E+10 +4.69988E-01 -4.45281E-01 +3.37624E-01 -3.85738E-01 +2.99034E-01 -4.17591E-01 -4.99312E-01 +1.74616E-01
+3.35000E+10 +3.25459E-01 -4.29917E-01 +3.43082E-01 -4.92707E-01 +3.20565E-01 -5.26187E-01 -4.46717E-01 +1.68286E-01
+3.36000E+10 +3.37394E-01 -4.51853E-01 +2.84241E-01 -5.83861E-01 +2.17689E-01 -5.80502E-01 -4.84443E-01 +2.24033E-01
+3.37000E+10 +1.90201E-01 -4.96571E-01 +2.05150E-01 -6.13156E-01 +1.52914E-01 -6.44667E-01 -4.78579E-01 +2.41983E-01
+3.38000E+10 +2.94184E-01 -4.07897E-01 +1.57046E-01 -4.53100E-01 +2.86658E-01 -7.49151E-01 -1.91142E-01 +2.84296E-01
+3.39000E+10 +3.93849E-01 -4.46973E-01 +2.54438E-01 -6.56572E-01 +1.74997E-01 -6.11757E-01 -2.16150E-01 +1.98817E-01
+3.40000E+10 +2.85389E-01 -5.16324E-01 +9.86122E-02 -6.86043E-01 +3.04307E-01 -6.23298E-01 -2.44925E-01 +1.58176E-01
+3.41000E+10 +1.75350E-01 -3.91371E-01 -9.14164E-03 -7.60142E-01 +1.24298E-01 -6.41799E-01 -2.96090E-01 +1.41880E-01
+3.42000E+10 +2.07796E-01 -4.35475E-01 +9.70906E-02 -5.51442E-01 -5.31843E-02 -6.91751E-01 -2.49144E-01 +1.45948E-01
+3.43000E+10 +9.96373E-02 -4.23463E-01 +8.74251E-02 -6.50636E-01 +4.66333E-03 -5.88527E-01 -2.59708E-01 +2.77879E-01
+3.44000E+10 +2.57271E-01 -4.01433E-01 +2.06304E-02 -5.99092E-01 -1.51694E-01 -6.49992E-01 -2.76319E-01 +1.13855E-01
+3.45000E+10 +2.31815E-01 -3.18709E-01 -1.41569E-02 -7.48693E-01 -1.32760E-01 -5.50444E-01 -1.95316E-01 +5.03723E-02
+3.46000E+10 +1.11267E-01 -4.53434E-01 -1.35233E-01 -6.81936E-01 -7.40637E-02 -6.68156E-01 -1.67531E-01 +1.31749E-01
+3.47000E+10 +2.59699E-01 -4.22343E-01 -6.65199E-02 -7.94372E-01 -1.81852E-01 -7.06284E-01 -2.21235E-01 +2.34150E-01
+3.48000E+10 +2.92942E-01 -4.78828E-01 -1.31877E-01 -7.55907E-01 -1.33611E-02 -5.75073E-01 -1.49996E-01 +7.07853E-02
+3.49000E+10 +3.42896E-01 -3.67112E-01 -3.54165E-01 -6.34254E-01 -1.78648E-01 -6.11031E-01 -1.24240E-01 +4.11069E-03
+3.50000E+10 +2.02407E-01 -3.80320E-01 -1.38999E-01 -6.73760E-01 -2.53865E-01 -7.12385E-01 -2.74673E-01 +4.45701E-02
+3.51000E+10 +2.20058E-01 -4.47009E-01 -3.64928E-01 -5.68051E-01 -3.01022E-01 -5.42630E-01 -1.34716E-01 +1.56717E-01
+3.52000E+10 +2.31371E-01 -3.16192E-01 -4.63165E-01 -4.84066E-01 -4.14324E-01 -5.18950E-01 -3.13992E-01 +5.29390E-02
+3.53000E+10 +3.06840E-01 -2.04534E-01 -2.86709E-01 -4.95107E-01 -6.59381E-01 -3.39180E-01 -3.53276E-01 -1.86837E-02
+3.54000E+10 +3.96601E-01 -3.22490E-01 -3.42390E-01 -3.37488E-01 -2.28041E-01 -5.62381E-01 -2.62712E-01 -1.63143E-01
+3.55000E+10 +3.80036E-01 -4.69830E-01 -3.60212E-01 -4.56306E-01 -3.39135E-01 -3.10672E-01 -3.77285E-01 -8.56494E-02
+3.56000E+10 +3.34457E-01 -4.35575E-01 -3.37010E-01 -4.40365E-01 -2.58406E-01 -3.68859E-01 -3.29164E-01 +3.74770E-03
+3.57000E+10 +3.66179E-01 -3.12271E-01 -3.70309E-01 -3.59104E-01 -3.22250E-01 -3.09434E-01 -4.57433E-01 -2.29793E-02
+3.58000E+10 +3.98425E-01 -3.95612E-01 -2.99081E-01 -2.60244E-01 -4.52030E-01 -1.54765E-01 -3.69853E-01 -5.73565E-02
+3.59000E+10 +4.71768E-01 -4.49250E-01 -4.12334E-01 -3.16511E-01 -2.05483E-01 -2.09345E-01 -5.37360E-01 +4.56271E-02
+3.60000E+10 +5.16106E-01 -5.77478E-01 -1.06850E-01 -2.52120E-01 -3.54161E-01 -4.37515E-01 -3.35615E-01 -7.24182E-02
+3.61000E+10 +5.18085E-01 -5.45431E-01 -2.76111E-01 -2.52644E-01 -1.31161E-01 -2.95538E-01 -3.56677E-01 +1.54479E-01
+3.62000E+10 +2.85045E-01 -4.60500E-01 -3.19617E-01 -1.48434E-01 -4.39365E-01 -1.14480E-01 -3.79282E-01 -6.52916E-03
+3.63000E+10 +4.21566E-01 -7.16365E-01 -3.25703E-01 -3.56180E-01 -3.21012E-01 -1.57234E-01 -4.99563E-01 +1.66989E-01
+3.64000E+10 +4.06342E-01 -7.38872E-01 -2.66998E-01 -1.75726E-01 -3.79117E-01 -1.26198E-01 -4.55128E-01 +6.34027E-02
+3.65000E+10 +4.64996E-01 -5.10765E-01 -3.66928E-01 -1.94429E-01 -2.86089E-01 -1.38662E-01 -6.03719E-01 -3.02866E-02
+3.66000E+10 +5.75116E-01 -7.08812E-01 -2.94857E-01 -3.20982E-01 -6.59858E-01 -2.34434E-01 -5.87698E-01 +6.22646E-02
+3.67000E+10 +4.82831E-01 -6.21826E-01 -1.97585E-01 -1.44645E-01 -4.26946E-01 -9.16159E-02 -4.98879E-01 +1.12216E-01
+3.68000E+10 +3.81593E-01 -7.57828E-01 -4.14883E-01 +6.97614E-02 -2.03942E-01 -1.57499E-01 -6.12856E-01 +2.07215E-01
+3.69000E+10 +2.57595E-01 -6.55882E-01 -3.07268E-01 +5.63709E-02 -1.70397E-01 -2.25831E-03 -4.42593E-01 -3.30878E-03
+3.70000E+10 +2.26566E-01 -7.98586E-01 -2.41704E-01 -1.73764E-01 -1.50996E-01 -3.64825E-03 -5.04816E-01 +3.03057E-01
+3.71000E+10 +1.92505E-01 -7.62041E-01 -1.59231E-01 -2.11851E-01 -2.60132E-01 -2.10843E-03 -6.16842E-01 +1.28597E-01
+3.72000E+10 +5.24265E-01 -1.05453E+00 -2.25636E-01 +6.64882E-02 -2.79449E-01 -4.76040E-02 -5.56321E-01 +3.31783E-01
+3.73000E+10 +2.59379E-01 -8.71331E-01 -1.90047E-01 +5.67315E-02 -8.73097E-02 +1.07911E-02 -5.77866E-01 +4.00584E-01
+3.74000E+10 +1.28896E-01 -8.44865E-01 -1.39348E-01 +2.04298E-01 -1.34088E-01 -1.74077E-01 -5.58173E-01 +3.96582E-01
+3.75000E+10 +3.27514E-01 -1.02118E+00 -1.12015E-01 +4.93131E-02 -2.17337E-01 +4.66775E-02 -5.73507E-01 +3.53782E-01
+3.76000E+10 +2.89801E-01 -8.90437E-01 -7.85446E-02 -1.20506E-01 -1.84701E-01 -9.68420E-02 -4.95734E-01 +4.44605E-01
+3.77000E+10 +1.70664E-01 -9.27701E-01 -2.33733E-02 -1.34020E-01 -3.52881E-01 -8.43930E-02 -6.91385E-01 +4.09609E-01
+3.78000E+10 +1.63083E-01 -9.70028E-01 -5.41421E-02 +7.88824E-02 -8.94198E-02 +1.51794E-01 -4.49504E-01 +4.08233E-01
+3.79000E+10 +6.40092E-02 -9.65039E-01 -1.37722E-01 -1.01175E-01 +5.69628E-02 -1.99820E-01 -4.23005E-01 +6.10852E-01
+3.80000E+10 +3.86106E-01 -9.07049E-01 +4.31325E-02 +6.55553E-02 -1.05261E-01 -1.37224E-01 -4.30669E-01 +3.22477E-01
+3.81000E+10 +8.62872E-02 -7.86158E-01 -5.91410E-02 +1.29051E-01 -4.86703E-02 -5.89701E-02 -2.75581E-01 +7.18816E-01
+3.82000E+10 +2.03861E-01 -9.14143E-01 -4.58376E-03 -1.42397E-01 -2.13597E-01 -1.01934E-01 -3.76998E-01 +4.89134E-01
+3.83000E+10 +4.77040E-02 -9.21411E-01 -8.99551E-02 -1.96549E-01 -4.75451E-02 -2.87133E-01 -3.17387E-01 +7.08924E-01
+3.84000E+10 +7.13708E-02 -8.54718E-01 -1.42876E-02 -1.57327E-01 +7.35801E-03 -3.42132E-01 -4.24761E-01 +5.20151E-01
+3.85000E+10 +6.00335E-02 -8.82091E-01 -1.98159E-01 -1.38324E-01 -4.85053E-02 -3.23577E-01 -2.38104E-01 +5.71760E-01
+3.86000E+10 +3.73801E-02 -8.52031E-01 +5.92462E-02 -3.04746E-01 -2.12324E-01 -3.53359E-02 -1.01503E-01 +6.59446E-01
+3.87000E+10 -3.62477E-02 -9.05661E-01 -5.55077E-02 -2.23300E-01 -1.76897E-01 -5.71678E-02 -2.08532E-01 +5.86866E-01
+3.88000E+10 -2.54531E-01 -8.65140E-01 -6.97558E-02 -2.48934E-01 -2.80819E-01 -7.25540E-02 -2.13350E-01 +5.17315E-01
+3.89000E+10 +1.21594E-01 -9.20255E-01 +1.47587E-01 -2.28639E-01 -1.75503E-01 -1.73989E-01 -1.05280E-01 +6.04326E-01
+3.90000E+10 -3.25947E-01 -8.48340E-01 -7.46520E-03 -2.29941E-01 -6.81606E-02 -2.22790E-01 -1.76150E-01 +9.41115E-01
+3.91000E+10 +3.06307E-02 -8.30443E-01 +8.82525E-02 -1.16413E-01 -4.42703E-02 -1.72500E-01 -1.20784E-02 +5.65062E-01
+3.92000E+10 -1.80124E-01 -1.02778E+00 -2.63505E-01 -1.35629E-01 -1.20242E-01 -3.98847E-01 -1.13644E-03 +5.79434E-01
+3.93000E+10 -5.35876E-02 -1.09147E+00 -6.77993E-02 -3.85890E-01 -9.32539E-02 -3.42364E-01 +1.35037E-01 +8.51125E-01
+3.94000E+10 -2.26224E-01 -8.81870E-01 -1.43545E-01 -2.32767E-02 -7.83801E-02 -9.63321E-02 +2.37065E-01 +5.62188E-01
+3.95000E+10 -2.19835E-01 -8.63388E-01 -2.01163E-01 -4.14416E-01 -2.45840E-01 -2.36661E-01 +1.92151E-01 +7.17957E-01
+3.96000E+10 -2.54623E-01 -7.56235E-01 -1.16632E-01 -3.52595E-01 -1.47301E-01 -2.15898E-01 +1.86159E-01 +5.57257E-01
+3.97000E+10 -1.91659E-01 -7.61994E-01 -3.20731E-01 -3.07367E-01 +4.95579E-02 +1.47630E-02 +7.69396E-02 +4.90109E-01
+3.98000E+10 -2.30138E-01 -1.07880E+00 -1.75699E-01 -2.11014E-01 -2.52621E-01 -2.23086E-01 +1.64444E-01 +7.12736E-01
+3.99000E+10 -3.05500E-01 -8.21317E-01 -2.22380E-01 -1.91862E-01 -2.11334E-01 -2.15409E-01 +3.44369E-01 +6.97535E-01
+4.00000E+10 -3.67913E-01 -9.56364E-01 -3.01972E-01 -3.43279E-01 -1.65917E-01 -4.27104E-01 -8.14964E-02 +4.13996E-01
