! Quiescent point : V1=-1.74500E-02 I1=+1.36418E-03 V2=-2.32381E-02 I2=-1.34973E-03
! Pulsed point : V1=-1.71217E-02 I1=+1.34942E-03 V2=-2.35396E-02 I2=-1.34862E-03
! Period : +2.00000E-04
! Input Supply timing : delay=+1.60000E-06 width=+2.20000E-06
! Output Supply timing : delay=+1.70000E-06 width=+2.00000E-06
! VNA timing : delay=+2.40000E-06 width=+1.10000E-06
# Hz S RI R 50
+2.70000E+10 -7.04009E-04 -3.21731E-01 +9.26684E-01 -1.61909E-03 +9.56235E-01 -1.00589E-01 -9.78816E-04 -2.92509E-01
+2.71000E+10 -3.68601E-02 -2.84619E-01 +9.40688E-01 -1.28872E-01 +9.23135E-01 -7.03295E-02 -5.21465E-02 -2.67534E-01
+2.72000E+10 -1.10005E-01 -2.57848E-01 +8.49453E-01 -1.01707E-01 +9.06124E-01 -1.72259E-01 -1.46020E-02 -2.65926E-01
+2.73000E+10 -4.25825E-03 -2.67241E-01 +9.34602E-01 -8.81297E-02 +9.37264E-01 -1.77712E-01 -3.10351E-02 -2.74651E-01
+2.74000E+10 -4.08764E-02 -2.39820E-01 +8.20864E-01 -1.97648E-01 +9.42166E-01 -1.33486E-01 -3.45592E-02 -2.64233E-01
+2.75000E+10 -4.73740E-02 -1.93232E-01 +8.56613E-01 -2.12027E-01 +9.30484E-01 -1.72028E-01 +1.85779E-02 -2.30969E-01
+2.76000E+10 -5.62367E-02 -1.81278E-01 +9.37969E-01 -1.42217E-01 +9.13655E-01 -1.91673E-01 +1.75789E-02 -1.95116E-01
+2.77000E+10 -1.45416E-01 -2.19393E-01 +9.46171E-01 -2.09451E-01 +9.75847E-01 -2.19694E-01 -6.52463E-02 -2.31432E-01
+2.78000E+10 -2.45946E-03 -2.29904E-01 +9.40523E-01 -2.54248E-01 +8.93272E-01 -1.81528E-01 -4.28933E-02 -2.51535E-01
+2.79000E+10 -8.60379E-02 -1.83004E-01 +9.05964E-01 -2.62401E-01 +8.33679E-01 -2.66872E-01 +5.95614E-02 -2.45472E-01
+2.80000E+10 -1.01671E-01 -2.94734E-01 +9.76796E-01 -3.45791E-01 +9.19110E-01 -3.20199E-01 -5.20616E-02 -1.38363E-01
+2.81000E+10 -1.90022E-01 -2.65029E-01 +9.12180E-01 -1.77439E-01 +8.54026E-01 -2.89788E-01 -3.27914E-02 -2.52012E-01
+2.82000E+10 -8.64141E-02 -2.04069E-01 +8.81368E-01 -3.14830E-01 +8.68050E-01 -3.95609E-01 +4.98432E-02 -2.03222E-01
+2.83000E+10 -2.97997E-02 -2.41121E-01 +8.48135E-01 -3.22847E-01 +9.43884E-01 -2.72073E-01 -1.28097E-02 -2.60163E-01
+2.84000E+10 -3.62512E-02 -2.79281E-01 +8.84646E-01 -2.54125E-01 +8.44158E-01 -3.22383E-01 -1.23355E-02 -2.91261E-01
+2.85000E+10 -7.02087E-02 -2.63623E-01 +9.15141E-01 -3.86540E-01 +8.08694E-01 -3.86481E-01 -5.98974E-02 -2.36489E-01
+2.86000E+10 -3.73277E-02 -1.57252E-01 +8.93411E-01 -3.58751E-01 +8.79911E-01 -3.72218E-01 -3.13231E-02 -2.32268E-01
+2.87000E+10 -1.40968E-01 -9.77545E-02 +8.03678E-01 -3.49605E-01 +7.89161E-01 -3.34176E-01 -2.56114E-03 -2.08387E-01
+2.88000E+10 -1.98078E-01 -1.62846E-01 +8.16699E-01 -3.93718E-01 +8.69642E-01 -4.38993E-01 -6.36435E-02 -2.05859E-01
+2.89000E+10 -8.44826E-02 -2.15377E-01 +7.35857E-01 -4.99572E-01 +8.11602E-01 -4.85218E-01 -1.00804E-01 -2.30213E-01
+2.90000E+10 -7.58900E-02 -2.17496E-01 +8.40267E-01 -4.91802E-01 +8.31003E-01 -3.93657E-01 -7.79404E-02 -2.34466E-01
+2.91000E+10 -1.90047E-01 -1.51315E-01 +8.41226E-01 -5.35061E-01 +7.95688E-01 -5.63785E-01 -7.79473E-02 -2.40316E-01
+2.92000E+10 -8.15917E-02 -1.41989E-01 +8.36112E-01 -5.60422E-01 +8.03340E-01 -5.25931E-01 -2.02719E-02 -2.35113E-01
+2.93000E+10 -7.48603E-02 -2.16026E-01 +7.81292E-01 -6.06198E-01 +7.79829E-01 -4.77318E-01 -3.36914E-02 -1.99246E-01
+2.94000E+10 -1.02533E-01 -2.34183E-01 +7.26022E-01 -6.06386E-01 +7.33948E-01 -5.23285E-01 -7.06716E-02 -2.14615E-01
+2.95000E+10 -1.01196E-01 -1.12793E-01 +8.01460E-01 -6.19457E-01 +8.07232E-01 -5.08878E-01 -9.42373E-02 -2.45439E-01
+2.96000E+10 -7.17224E-02 -9.25101E-02 +7.78651E-01 -5.79742E-01 +6.77910E-01 -5.86862E-01 -1.09780E-01 -1.38768E-01
+2.97000E+10 -1.24106E-01 -1.84836E-01 +7.02403E-01 -5.90491E-01 +6.37737E-01 -6.06272E-01 -1.08091E-01 -2.65338E-01
+2.98000E+10 -1.18055E-01 -1.31101E-01 +7.23440E-01 -6.78026E-01 +7.15510E-01 -6.56267E-01 -8.08645E-02 -2.42325E-01
+2.99000E+10 -4.95244E-02 -1.55900E-01 +7.18380E-01 -6.97466E-01 +7.27814E-01 -5.90553E-01 -1.03084E-01 -1.95744E-01
+3.00000E+10 -1.45970E-01 -1.93603E-01 +6.68931E-01 -6.06356E-01 +7.47544E-01 -6.62695E-01 -6.09074E-02 -1.55095E-01
+3.01000E+10 -7.22279E-02 -1.25167E-01 +6.94435E-01 -6.43064E-01 +7.45295E-01 -6.45726E-01 -9.35505E-02 -1.85374E-01
+3.02000E+10 -2.09507E-01 -3.85812E-02 +6.85949E-01 -7.09569E-01 +6.54849E-01 -6.11032E-01 -5.14982E-02 -1.19291E-01
+3.03000E+10 -9.20511E-02 -1.48743E-01 +6.58175E-01 -6.48395E-01 +6.28353E-01 -6.45057E-01 -3.52811E-02 -1.74496E-01
+3.04000E+10 -5.15786E-02 -1.63533E-01 +6.10454E-01 -7.13636E-01 +7.30674E-01 -7.02393E-01 -4.65717E-02 -2.09175E-01
+3.05000E+10 -1.09608E-01 -7.21300E-02 +5.66913E-01 -7.14672E-01 +6.03470E-01 -6.44817E-01 -3.06795E-02 -1.69538E-01
+3.06000E+10 -8.62241E-02 -1.87413E-01 +6.12241E-01 -7.90064E-01 +5.27150E-01 -7.57867E-01 -3.91134E-03 -1.01508E-01
+3.07000E+10 -1.47206E-01 -1.23690E-01 +6.29204E-01 -7.38001E-01 +5.39254E-01 -8.09767E-01 -8.52381E-02 -1.96923E-01
+3.08000E+10 +2.77778E-03 -3.38974E-02 +5.86911E-01 -7.04206E-01 +6.12501E-01 -7.92845E-01 +1.47035E-02 -1.72134E-01
+3.09000E+10 -1.64775E-01 -1.10611E-01 +5.22312E-01 -6.52673E-01 +5.14748E-01 -7.30434E-01 -7.34180E-02 -1.59864E-01
+3.10000E+10 -1.13858E-01 -9.87931E-02 +5.46162E-01 -8.01253E-01 +4.01912E-01 -7.12167E-01 -1.59857E-01 -1.51985E-01
+3.11000E+10 -5.49385E-02 -7.53517E-02 +5.46647E-01 -8.04445E-01 +3.74030E-01 -8.33842E-01 -1.23970E-01 -1.82159E-01
+3.12000E+10 -4.21130E-02 -3.36299E-03 +6.40461E-01 -9.20163E-01 +5.63319E-01 -7.41497E-01 +1.36926E-02 -8.91271E-02
+3.13000E+10 -5.30002E-02 -9.20391E-02 +4.59860E-01 -8.60939E-01 +4.29809E-01 -8.79972E-01 -5.93875E-02 -9.84599E-02
+3.14000E+10 -1.35597E-01 -3.26715E-02 +3.87127E-01 -8.40106E-01 +3.71818E-01 -8.57513E-01 +3.82402E-02 -2.47640E-01
+3.15000E+10 -1.26288E-01 +3.16825E-02 +3.99861E-01 -7.23873E-01 +4.81568E-01 -9.26941E-01 -4.09982E-02 -2.61881E-01
+3.16000E+10 -5.80678E-02 -1.46336E-01 +4.29180E-01 -1.01618E+00 +4.61094E-01 -8.91844E-01 -1.04865E-01 -8.90781E-02
+3.17000E+10 -1.35657E-02 -7.92679E-02 +3.85022E-01 -8.23715E-01 +4.48662E-01 -8.48230E-01 -4.77998E-02 -1.98457E-01
+3.18000E+10 -9.48435E-02 +4.18361E-02 +4.39392E-01 -9.48143E-01 +4.15358E-01 -9.04720E-01 -6.89871E-02 -1.41005E-01
+3.19000E+10 -1.65764E-01 +5.47827E-02 +2.56929E-01 -8.74193E-01 +2.58998E-01 -9.28250E-01 -3.51112E-02 -1.34819E-01
+3.20000E+10 -1.27133E-01 -4.76094E-02 +3.26498E-01 -9.68674E-01 +3.04872E-01 -8.66972E-01 -9.25451E-02 -1.30929E-01
+3.21000E+10 -1.22707E-01 +6.08960E-02 +3.15231E-01 -9.17714E-01 +2.97246E-01 -9.37943E-01 -1.00332E-01 -6.06821E-02
+3.22000E+10 -3.77567E-02 -4.69052E-02 +3.43637E-01 -9.57187E-01 +2.30300E-01 -8.65028E-01 -3.53366E-02 -1.16493E-01
+3.23000E+10 -7.09161E-02 -4.56005E-02 +3.03807E-01 -8.32076E-01 +3.78053E-01 -8.70507E-01 -1.33393E-01 -1.75257E-01
+3.24000E+10 +3.80847E-02 +9.53025E-03 +2.31988E-01 -8.98127E-01 +2.31728E-01 -9.94867E-01 -4.66402E-02 -5.44104E-02
+3.25000E+10 -2.59696E-02 -2.28966E-02 +1.01148E-01 -9.23671E-01 +2.31703E-01 -9.72207E-01 -1.25932E-01 -2.16848E-01
+3.26000E+10 +5.51626E-02 -3.75158E-02 +2.65369E-01 -9.73766E-01 +1.21634E-01 -9.73976E-01 -1.33349E-02 -1.65774E-01
+3.27000E+10 -4.68479E-02 -4.74948E-02 +1.54529E-01 -9.66425E-01 +1.14773E-01 -8.50723E-01 +2.12110E-02 -2.11300E-01
+3.28000E+10 -4.02432E-02 -4.74724E-02 +1.63559E-01 -9.19194E-01 +1.07257E-01 -1.06328E+00 -8.22617E-02 -1.38032E-01
+3.29000E+10 -7.13741E-02 +8.65209E-02 +2.76437E-02 -1.10016E+00 +1.44595E-01 -9.95838E-01 +6.32385E-02 -1.56792E-01
+3.30000E+10 +1.31348E-02 -6.48243E-02 +9.92812E-02 -9.79250E-01 +5.84862E-02 -9.41056E-01 +3.09894E-02 -1.37093E-01
+3.31000E+10 +8.17849E-03 +1.88566E-02 +4.99995E-02 -1.05631E+00 +2.47328E-02 -9.26027E-01 +3.28464E-02 -1.91020E-01
+3.32000E+10 +5.66579E-03 +2.26274E-02 +2.64934E-02 -9.73500E-01 +2.57273E-02 -9.54599E-01 -1.28048E-02 -1.31083E-01
+3.33000E+10 -1.09590E-01 -2.44006E-02 +7.39083E-02 -1.01230E+00 -9.48044E-02 -9.19727E-01 -5.90332E-02 -7.65716E-02
+3.34000E+10 +4.38787E-02 -8.59699E-02 +1.74052E-02 -9.45574E-01 -1.99840E-02 -9.51411E-01 +5.59372E-02 -1.20164E-01
+3.35000E+10 -1.62099E-02 +8.97672E-02 +7.53786E-02 -8.93542E-01 -1.21926E-02 -8.79317E-01 +9.06753E-03 -1.65713E-01
+3.36000E+10 +2.77432E-02 -4.98612E-02 -1.07457E-01 -9.72422E-01 -1.85076E-01 -8.96621E-01 -4.29245E-02 -2.85358E-02
+3.37000E+10 +6.36821E-02 +6.68018E-02 +5.90153E-02 -1.04517E+00 -9.79266E-02 -9.52018E-01 +8.57789E-02 -1.62568E-01
+3.38000E+10 -2.52010E-02 -1.51199E-01 -1.77735E-01 -9.56979E-01 -9.08652E-02 -9.73601E-01 +4.24144E-02 -2.12581E-01
+3.39000E+10 +4.61519E-02 +1.00086E-01 -2.62033E-01 -7.97624E-01 -6.78794E-02 -7.79758E-01 +5.12582E-02 -6.05318E-02
+3.40000E+10 +1.34191E-01 +1.33805E-02 -2.40978E-01 -8.54974E-01 -2.04098E-01 -1.06929E+00 +9.45967E-02 -1.71018E-01
+3.41000E+10 +4.94253E-02 +4.72090E-02 -4.83467E-02 -8.85480E-01 -1.46359E-01 -9.30856E-01 -1.99842E-02 -2.27448E-01
+3.42000E+10 +1.40578E-01 -6.43540E-02 -1.38178E-01 -8.97816E-01 -1.50263E-01 -9.57996E-01 +1.10250E-01 -1.70683E-01
+3.43000E+10 +1.33510E-01 -9.60332E-03 -2.27885E-01 -9.60061E-01 -2.90456E-01 -9.42613E-01 +1.07370E-01 -1.97681E-01
+3.44000E+10 +1.75876E-01 +4.17325E-02 -2.24619E-01 -9.75523E-01 -1.12544E-01 -9.39426E-01 +4.30362E-02 -1.05733E-01
+3.45000E+10 +1.32733E-01 -7.14929E-02 -2.47098E-01 -9.97236E-01 -3.75820E-01 -8.12737E-01 +9.18418E-02 -1.70151E-01
+3.46000E+10 +1.99624E-01 -1.16599E-01 -1.88983E-01 -9.38846E-01 -2.04399E-01 -8.62159E-01 +1.20201E-01 -8.65397E-02
+3.47000E+10 +7.24685E-02 -4.91147E-02 -2.16638E-01 -8.51502E-01 -2.71369E-01 -9.11025E-01 +1.83887E-01 -2.78851E-01
+3.48000E+10 +2.65579E-02 +6.79373E-03 -3.57356E-01 -9.66162E-01 -2.81798E-01 -9.24613E-01 +1.36990E-01 -1.28571E-01
+3.49000E+10 +1.54931E-01 -6.75057E-02 -3.55438E-01 -9.64325E-01 -3.10267E-01 -9.76613E-01 +1.35440E-01 -3.03061E-01
+3.50000E+10 +1.16989E-01 -4.38856E-02 -2.69999E-01 -9.70825E-01 -2.57446E-01 -8.54841E-01 +1.54782E-01 -2.28372E-01
+3.51000E+10 +1.09604E-01 -1.49433E-01 -3.01043E-01 -9.37468E-01 -5.63826E-01 -8.91910E-01 +2.26307E-01 -1.04289E-01
+3.52000E+10 +1.37961E-01 -1.03448E-01 -3.61175E-01 -8.75380E-01 -4.01761E-01 -9.01857E-01 +9.24306E-02 -2.06277E-01
+3.53000E+10 +1.20440E-01 -8.76070E-02 -3.89703E-01 -7.90147E-01 -3.67624E-01 -7.68202E-01 +3.65945E-02 -2.11570E-01
+3.54000E+10 +1.24417E-01 -9.01842E-02 -4.71964E-01 -7.97787E-01 -4.41793E-01 -8.05444E-01 +9.46972E-02 -1.81394E-01
+3.55000E+10 +1.96058E-01 -1.15422E-01 -6.45659E-01 -7.87703E-01 -4.72087E-01 -6.86610E-01 +4.81904E-02 -1.60899E-01
+3.56000E+10 +2.03806E-01 +4.39856E-04 -6.56504E-01 -6.03305E-01 -5.75369E-01 -7.48365E-01 +3.32631E-02 -2.28226E-01
+3.57000E+10 +1.99403E-01 -2.66555E-02 -6.81777E-01 -7.97283E-01 -6.10300E-01 -8.93756E-01 +2.90459E-02 -2.80372E-01
+3.58000E+10 +9.14259E-02 -6.13519E-02 -3.55808E-01 -8.86012E-01 -5.17313E-01 -9.33024E-01 +1.75359E-01 -1.14782E-01
+3.59000E+10 +1.45322E-01 -2.67817E-01 -4.47141E-01 -7.57459E-01 -5.49425E-01 -7.66268E-01 +2.00030E-01 -2.61617E-01
+3.60000E+10 +7.00955E-02 -2.43190E-01 -5.57396E-01 -7.79899E-01 -6.02340E-01 -7.89398E-01 +8.50079E-02 -1.92010E-01
+3.61000E+10 +1.57357E-01 -2.19711E-01 -6.00282E-01 -8.35285E-01 -4.41282E-01 -8.68107E-01 +2.61850E-02 -1.92117E-01
+3.62000E+10 +1.54019E-01 -2.65741E-01 -5.20794E-01 -6.77121E-01 -6.66701E-01 -9.17914E-01 +1.10562E-01 -7.93327E-02
+3.63000E+10 +3.11926E-01 -1.26617E-01 -8.16323E-01 -6.86249E-01 -7.33489E-01 -7.71416E-01 -1.82377E-01 -1.54545E-01
+3.64000E+10 +1.55510E-01 -1.90408E-01 -6.12947E-01 -7.71854E-01 -4.85717E-01 -6.88670E-01 -2.75641E-02 -3.09459E-01
+3.65000E+10 +1.23496E-01 -2.42816E-01 -6.22301E-01 -6.68750E-01 -6.68006E-01 -7.13030E-01 +2.36064E-02 -2.82354E-01
+3.66000E+10 +1.70285E-01 -3.37506E-02 -5.70566E-01 -7.22933E-01 -4.88609E-01 -6.45347E-01 +2.00746E-01 -2.18033E-01
+3.67000E+10 +1.84413E-01 -2.94381E-01 -5.10298E-01 -5.85687E-01 -6.16135E-01 -6.86565E-01 +2.18546E-01 -5.27912E-01
+3.68000E+10 +2.39167E-01 -1.64775E-01 -7.92927E-01 -3.91898E-01 -6.84950E-01 -6.13984E-01 +3.29154E-02 -8.11923E-02
+3.69000E+10 +3.79464E-01 -1.94379E-01 -6.13950E-01 -6.55522E-01 -6.39805E-01 -4.89637E-01 +1.74886E-01 -4.13684E-01
+3.70000E+10 +1.96226E-01 -1.90042E-01 -8.89891E-01 -5.96609E-01 -6.65578E-01 -6.07204E-01 +2.24535E-01 -3.69988E-01
+3.71000E+10 +1.93514E-01 -1.25209E-01 -7.73485E-01 -5.62874E-01 -7.34877E-01 -5.93442E-01 -3.73020E-02 -3.86824E-01
+3.72000E+10 +9.28454E-02 -1.30251E-01 -7.75823E-01 -6.04867E-01 -6.42288E-01 -5.10682E-01 +2.60606E-02 -2.03835E-01
+3.73000E+10 +9.31277E-02 -3.93525E-01 -8.54393E-01 -3.31975E-01 -8.13981E-01 -3.57663E-01 +1.00029E-01 -1.83179E-01
+3.74000E+10 +2.46607E-01 -3.39887E-01 -8.07539E-01 -6.78829E-01 -5.47009E-01 -3.75370E-01 +2.77925E-01 -2.32178E-01
+3.75000E+10 -3.32835E-02 -1.17025E-01 -8.38316E-01 -7.05030E-01 -7.50895E-01 -4.00149E-01 +1.00740E-02 -2.97871E-01
+3.76000E+10 +9.96630E-02 -1.57468E-01 -6.61231E-01 -4.54947E-01 -8.07417E-01 -4.30766E-01 +4.41062E-02 -1.44443E-01
+3.77000E+10 +2.08267E-01 -2.38758E-01 -8.04608E-01 -4.03867E-01 -8.09996E-01 -5.57575E-01 +6.20494E-02 -2.67612E-01
+3.78000E+10 +2.37759E-01 -1.94702E-01 -7.10075E-01 -4.30327E-01 -7.65362E-01 -5.02365E-01 +1.10636E-01 -1.37886E-01
+3.79000E+10 -5.81239E-02 -3.81226E-01 -7.22121E-01 -3.56734E-01 -8.24835E-01 -4.77758E-01 +1.65239E-01 -2.00849E-01
+3.80000E+10 +5.57012E-03 -3.51272E-01 -7.67811E-01 -2.90930E-01 -7.91829E-01 -3.85304E-01 +3.55845E-02 -3.01447E-01
+3.81000E+10 +1.17492E-01 -4.51499E-01 -6.88337E-01 -4.27290E-01 -7.95116E-01 -3.93787E-01 +7.66555E-03 -3.59721E-01
+3.82000E+10 -1.36096E-02 -4.51506E-01 -7.74910E-01 -3.36026E-01 -7.52505E-01 -3.69273E-01 -1.03263E-02 -2.47347E-01
+3.83000E+10 +1.04104E-01 -3.13676E-01 -7.67101E-01 -4.76291E-01 -8.31365E-01 -4.97321E-01 +2.58430E-01 -3.17208E-01
+3.84000E+10 +1.26641E-01 -3.22900E-01 -9.40411E-01 -2.29662E-01 -9.43756E-01 -2.43840E-01 +1.44033E-01 -4.64803E-01
+3.85000E+10 +1.63908E-01 -3.87642E-01 -8.86028E-01 -6.96329E-02 -1.02450E+00 -3.75708E-01 -2.69036E-02 -4.05206E-01
+3.86000E+10 +2.88788E-01 -4.28553E-01 -6.93206E-01 -2.49425E-01 -8.63376E-01 -4.05404E-01 +6.12559E-02 -1.78096E-01
+3.87000E+10 +1.76926E-01 -2.03149E-01 -8.12495E-01 -2.83441E-01 -9.01017E-01 -1.58606E-01 +1.36656E-01 -4.88553E-01
+3.88000E+10 +9.68934E-02 -2.90192E-01 -8.81286E-01 -1.69125E-01 -7.52102E-01 -2.90372E-01 +1.06491E-01 -6.04502E-01
+3.89000E+10 +2.91121E-01 -4.41829E-01 -1.03845E+00 -3.34864E-01 -7.80924E-01 -2.46337E-01 +3.04179E-01 -2.84385E-01
+3.90000E+10 -2.87009E-02 -2.22367E-01 -8.53206E-01 -4.03743E-01 -9.00498E-01 +2.76157E-02 +7.62986E-02 -3.92429E-01
+3.91000E+10 -1.36745E-01 -1.06824E-01 -8.50356E-01 -2.10650E-01 -7.53318E-01 -2.45477E-01 -1.68702E-02 -1.73746E-01
+3.92000E+10 +1.15830E-01 -3.63431E-01 -9.97367E-01 -3.21112E-01 -8.96904E-01 -2.99780E-01 -1.55570E-02 -4.84288E-01
+3.93000E+10 +5.45977E-02 -3.96044E-01 -8.71292E-01 -1.11256E-01 -8.20193E-01 -2.90125E-01 +4.27473E-02 -4.26600E-01
+3.94000E+10 -8.19703E-02 -1.49727E-01 -1.02586E+00 -3.33788E-01 -1.16111E+00 -8.78520E-02 +3.95038E-02 -5.37870E-01
+3.95000E+10 +2.83542E-02 -4.92245E-01 -7.51676E-01 -2.79056E-01 -7.41464E-01 -2.32242E-01 +1.54171E-01 -6.62673E-01
+3.96000E+10 +1.15879E-01 -4.37440E-01 -9.72189E-01 -1.06541E-03 -6.97962E-01 -4.35165E-02 +2.62717E-01 -2.67632E-01
+3.97000E+10 +3.05046E-02 -4.02471E-01 -1.02392E+00 +5.10698E-02 -1.06123E+00 +1.12367E-01 -5.94882E-03 -2.90662E-01
+3.98000E+10 -1.60214E-02 -3.43910E-01 -1.09098E+00 -1.89301E-01 -9.89784E-01 -5.85410E-02 +1.60550E-01 -3.29533E-01
+3.99000E+10 -6.07094E-02 -3.82175E-01 -9.82248E-01 +6.20876E-02 -9.60352E-01 +1.01317E-01 -6.59476E-02 -3.10327E-01
+4.00000E+10 +1.29678E-01 -3.68751E-01 -1.15521E+00 +1.45088E-01 -8.29869E-01 +1.29801E-01 -2.72181E-01 -3.30525E-01
