! Quiescent point : V1=-1.75358E-03 I1=+3.26414E-04 V2=-1.50604E-02 I2=-4.72744E-03
! Pulsed point : V1=-1.88172E-03 I1=+3.24960E-04 V2=-1.51303E-02 I2=-4.69882E-03
! Period : +2.00000E-04
! Input Supply timing : delay=+1.60000E-06 width=+2.20000E-06
! Output Supply timing : delay=+1.70000E-06 width=+2.00000E-06
! VNA timing : delay=+2.40000E-06 width=+1.10000E-06
# Hz S RI R 50
+2.70000E+10 -1.59110E-01 +6.97696E-01 +1.44961E-01 +1.06406E-01 +5.24189E-02 +8.58634E-02 -6.39715E-01 -7.72147E-01
+2.71000E+10 -4.94985E-02 +7.82084E-01 +9.70891E-02 +1.01557E-01 +6.69261E-02 +1.73807E-01 -5.54873E-01 -7.94377E-01
+2.72000E+10 -3.16102E-02 +8.24064E-01 +1.11140E-01 +1.37835E-01 +1.53181E-01 +1.21969E-01 -6.26483E-01 -6.67843E-01
+2.73000E+10 -2.28599E-02 +7.31628E-01 +2.07107E-01 +2.18100E-01 +1.18298E-01 +1.09646E-01 -5.79340E-01 -7.64214E-01
+2.74000E+10 -2.53276E-02 +7.48590E-01 +1.81973E-01 +1.39662E-01 +1.23101E-01 +2.04714E-01 -6.41047E-01 -6.68371E-01
+2.75000E+10 +2.01758E-02 +7.40743E-01 +1.99985E-01 +2.25816E-01 +1.45344E-01 +1.30817E-01 -5.84175E-01 -6.34621E-01
+2.76000E+10 +8.96802E-02 +7.97993E-01 +2.46451E-01 +1.86943E-01 +1.91231E-01 +1.47647E-01 -6.26417E-01 -5.73987E-01
+2.77000E+10 +4.66894E-02 +7.46369E-01 +2.70154E-01 +1.68201E-01 +1.61702E-01 +1.03978E-01 -6.72111E-01 -5.74129E-01
+2.78000E+10 +1.28685E-01 +7.22010E-01 +2.54721E-01 +1.45099E-01 +2.13894E-01 +1.81040E-01 -5.98599E-01 -6.89617E-01
+2.79000E+10 +2.12618E-01 +7.49969E-01 +1.89349E-01 +1.41729E-01 +1.66766E-01 +8.79706E-02 -6.48383E-01 -6.79039E-01
+2.80000E+10 +1.97739E-01 +7.54767E-01 +1.66198E-01 +8.84844E-02 +2.39935E-01 +2.08885E-01 -6.30051E-01 -6.37433E-01
+2.81000E+10 +3.00243E-01 +6.35373E-01 +2.10219E-01 +1.83261E-01 +2.24175E-01 +1.77777E-01 -6.91895E-01 -6.60512E-01
+2.82000E+10 +2.25508E-01 +7.25008E-01 +2.74288E-01 +1.16051E-01 +2.17018E-01 +9.58489E-02 -8.07648E-01 -5.63858E-01
+2.83000E+10 +2.91507E-01 +7.21916E-01 +2.31283E-01 +1.64261E-01 +2.07619E-01 +1.40106E-01 -7.81647E-01 -4.91481E-01
+2.84000E+10 +3.45295E-01 +6.47602E-01 +2.85734E-01 +1.22461E-01 +2.24420E-01 +1.87470E-01 -7.67967E-01 -4.16149E-01
+2.85000E+10 +3.89081E-01 +6.35531E-01 +2.87978E-01 +1.45243E-01 +2.18994E-01 +2.07099E-01 -7.13335E-01 -4.85426E-01
+2.86000E+10 +4.99641E-01 +5.07559E-01 +2.60246E-01 +1.62981E-01 +1.99838E-01 +9.78414E-02 -7.69888E-01 -5.50628E-01
+2.87000E+10 +4.69077E-01 +6.81163E-01 +2.19955E-01 +1.40038E-01 +3.10242E-01 +1.21350E-01 -7.07038E-01 -4.33673E-01
+2.88000E+10 +4.03017E-01 +5.83913E-01 +3.33487E-01 +1.57343E-01 +2.86790E-01 +1.69636E-01 -7.11983E-01 -4.30627E-01
+2.89000E+10 +4.50425E-01 +4.69825E-01 +3.04256E-01 +1.19328E-01 +2.06066E-01 +2.15024E-02 -8.13251E-01 -4.84137E-01
+2.90000E+10 +5.32263E-01 +5.31428E-01 +3.23980E-01 +1.79520E-01 +2.96158E-01 +5.97037E-02 -7.29725E-01 -4.00556E-01
+2.91000E+10 +5.78257E-01 +5.14052E-01 +3.67723E-01 +1.23351E-01 +2.11853E-01 +3.80974E-02 -8.03922E-01 -2.76259E-01
+2.92000E+10 +6.07868E-01 +4.97365E-01 +3.43964E-01 +3.89863E-02 +2.59519E-01 +1.26744E-01 -7.93350E-01 -3.23707E-01
+2.93000E+10 +6.26332E-01 +3.72483E-01 +4.17414E-01 +8.49877E-02 +2.97253E-01 +1.04013E-01 -6.73505E-01 -2.83936E-01
+2.94000E+10 +6.09099E-01 +3.72572E-01 +3.23352E-01 +8.00590E-02 +3.37899E-01 +1.12330E-01 -8.46563E-01 -2.60834E-01
+2.95000E+10 +6.59424E-01 +4.14653E-01 +3.58225E-01 +9.90862E-02 +3.71007E-01 +1.80354E-01 -8.26700E-01 -1.43736E-01
+2.96000E+10 +6.64177E-01 +3.79652E-01 +4.66907E-01 +1.03726E-01 +3.69009E-01 +1.63923E-01 -8.30050E-01 -2.29770E-01
+2.97000E+10 +6.52585E-01 +2.97372E-01 +3.98871E-01 +3.51816E-02 +3.50669E-01 +5.03090E-02 -7.78617E-01 -2.66222E-01
+2.98000E+10 +7.22114E-01 +1.98682E-01 +3.37101E-01 +2.32468E-02 +4.19752E-01 +1.00480E-01 -7.97214E-01 -2.38179E-01
+2.99000E+10 +6.74181E-01 +1.93087E-01 +4.07704E-01 +1.32108E-02 +3.64520E-01 +2.32628E-02 -7.83885E-01 -1.43262E-01
+3.00000E+10 +6.53360E-01 +2.02072E-01 +4.22638E-01 +3.49172E-02 +4.79315E-01 -1.08059E-02 -7.55758E-01 -1.69530E-01
+3.01000E+10 +7.34739E-01 +2.75684E-01 +3.33083E-01 -4.74744E-02 +3.56692E-01 +1.06215E-01 -7.53980E-01 -1.71641E-01
+3.02000E+10 +7.59993E-01 +2.48220E-01 +5.20564E-01 -1.98272E-02 +3.99307E-01 -3.64267E-02 -8.12856E-01 -1.03569E-01
+3.03000E+10 +7.15896E-01 +1.34640E-01 +4.89058E-01 +4.49178E-02 +3.77864E-01 -6.31663E-02 -7.29685E-01 -2.22438E-01
+3.04000E+10 +7.23964E-01 +8.68964E-02 +4.43492E-01 -1.56123E-01 +3.97633E-01 +2.72914E-02 -7.62469E-01 -9.54759E-02
+3.05000E+10 +7.04463E-01 +1.11579E-01 +3.80810E-01 -2.17334E-01 +5.00556E-01 -1.89434E-02 -7.46059E-01 -1.35113E-01
+3.06000E+10 +6.20351E-01 -1.22458E-03 +4.40657E-01 -1.07816E-01 +4.65510E-01 -1.87542E-01 -7.28235E-01 -3.34937E-02
+3.07000E+10 +7.28907E-01 +1.22797E-01 +4.25955E-01 -1.93174E-02 +3.66727E-01 -7.08309E-02 -7.89027E-01 -2.24699E-02
+3.08000E+10 +6.21009E-01 -1.49789E-01 +5.00896E-01 -1.17240E-01 +4.16896E-01 -6.07964E-02 -6.37209E-01 -9.71044E-02
+3.09000E+10 +7.13187E-01 -2.28010E-01 +4.76316E-01 -7.64160E-02 +5.15230E-01 -1.37871E-01 -7.21172E-01 -8.46829E-02
+3.10000E+10 +6.99053E-01 -6.89073E-02 +4.19373E-01 -9.37084E-02 +3.53471E-01 -1.77438E-01 -7.29743E-01 +5.17991E-02
+3.11000E+10 +7.70277E-01 -1.38562E-01 +4.26444E-01 -2.09304E-01 +3.60865E-01 -1.70980E-01 -6.24456E-01 +3.23445E-02
+3.12000E+10 +6.40562E-01 -1.31610E-01 +4.82006E-01 -1.68869E-01 +4.37608E-01 -2.09408E-01 -7.24102E-01 +7.26070E-02
+3.13000E+10 +7.23435E-01 -7.62804E-02 +5.57056E-01 -1.51081E-01 +4.73796E-01 -2.44523E-01 -6.61149E-01 +2.05018E-02
+3.14000E+10 +6.73887E-01 -1.91203E-01 +3.87103E-01 -1.81872E-01 +5.65861E-01 -1.95119E-01 -6.64215E-01 +8.26627E-02
+3.15000E+10 +6.27217E-01 -2.72799E-01 +4.21986E-01 -2.07969E-01 +4.77451E-01 -1.92314E-01 -5.89515E-01 +1.46368E-01
+3.16000E+10 +7.29054E-01 -3.97999E-01 +4.05698E-01 -2.69292E-01 +4.89376E-01 -2.92326E-01 -6.19542E-01 +9.61065E-02
+3.17000E+10 +6.14368E-01 -3.22398E-01 +3.82742E-01 -2.60399E-01 +4.20462E-01 -2.56046E-01 -6.74215E-01 +1.70054E-01
+3.18000E+10 +6.91387E-01 -2.28102E-01 +4.64159E-01 -2.94679E-01 +5.24428E-01 -3.02150E-01 -5.39972E-01 +1.85253E-01
+3.19000E+10 +6.12233E-01 -3.00763E-01 +5.45144E-01 -3.98726E-01 +4.65411E-01 -3.13260E-01 -6.36925E-01 +1.79860E-01
+3.20000E+10 +5.87519E-01 -3.55182E-01 +4.34991E-01 -2.69368E-01 +5.03438E-01 -3.41269E-01 -6.07148E-01 +2.29116E-01
+3.21000E+10 +5.71674E-01 -4.32113E-01 +3.99633E-01 -2.60068E-01 +4.05005E-01 -3.31863E-01 -5.76274E-01 +2.16506E-01
+3.22000E+10 +5.89902E-01 -4.13346E-01 +4.58844E-01 -3.65521E-01 +3.89861E-01 -3.43132E-01 -5.33847E-01 +1.83549E-01
+3.23000E+10 +5.79158E-01 -3.15433E-01 +4.16751E-01 -3.77090E-01 +3.71960E-01 -4.15435E-01 -5.91012E-01 +1.98218E-01
+3.24000E+10 +4.55840E-01 -4.24402E-01 +4.66286E-01 -5.00670E-01 +3.86824E-01 -3.58454E-01 -5.75924E-01 +2.70809E-01
+3.25000E+10 +4.36440E-01 -4.23934E-01 +5.00048E-01 -4.48421E-01 +3.68379E-01 -3.90185E-01 -5.36965E-01 +1.68855E-01
+3.26000E+10 +4.93172E-01 -5.36142E-01 +3.45715E-01 -5.37068E-01 +3.79589E-01 -4.57691E-01 -4.73243E-01 +2.71961E-01
+3.27000E+10 +4.75955E-01 -4.09833E-01 +3.17604E-01 -5.17227E-01 +4.28909E-01 -4.60699E-01 -3.99758E-01 +2.83866E-01
+3.28000E+10 +3.66132E-01 -4.48113E-01 +3.40552E-01 -5.90629E-01 +2.42647E-01 -5.14048E-01 -4.10175E-01 +2.75813E-01
+3.29000E+10 +4.91878E-01 -4.08849E-01 +3.37741E-01 -5.23915E-01 +3.08257E-01 -5.23650E-01 -4.68574E-01 +3.18496E-01
+3.30000E+10 +3.42070E-01 -4.06237E-01 +2.90388E-01 -5.82966E-01 +3.84346E-01 -5.12918E-01 -3.69105E-01 +1.84425E-01
+3.31000E+10 +4.68211E-01 -4.82873E-01 +2.89774E-01 -7.29894E-01 +2.65182E-01 -6.16172E-01 -4.62833E-01 +3.09214E-01
+3.32000E+10 +1.56342E-01 -3.47591E-01 +1.89870E-01 -5.61379E-01 +1.69742E-01 -6.84563E-01 -3.43918E-01 +2.61378E-01
+3.33000E+10 +2.09165E-01 -4.23160E-01 +5.55902E-02 -7.96621E-01 +1.82405E-01 -5.15381E-01 -3.52548E-01 +2.20101E-01
+3.34000E+10 +1.79335E-01 -4.78465E-01 +1.26526E-01 -5.71812E-01 +1.07456E-01 -7.00149E-01 -1.90077E-01 +1.70227E-01
+3.35000E+10 +2.30364E-01 -4.74000E-01 +9.14805E-02 -6.88058E-01 +1.87533E-01 -7.01196E-01 -2.30590E-01 +2.21454E-01
+3.36000E+10 +2.03030E-01 -4.62916E-01 +9.35594E-02 -8.06913E-01 +6.63020E-02 -8.25922E-01 -2.79999E-01 +1.49925E-01
+3.37000E+10 +3.49316E-01 -3.30157E-01 +4.23148E-03 -5.67299E-01 -2.11719E-02 -7.69178E-01 -1.61483E-01 +1.88199E-01
+3.38000E+10 +1.62023E-01 -4.10607E-01 -1.41458E-02 -8.32389E-01 +1.12088E-01 -8.15444E-01 -1.24732E-01 +8.09941E-02
+3.39000E+10 +1.16433E-01 -2.06713E-01 -1.26078E-01 -7.89406E-01 -1.14167E-01 -7.92199E-01 -1.85416E-01 +8.40812E-02
+3.40000E+10 +3.06242E-01 -1.82419E-01 -4.11239E-02 -6.93422E-01 -1.04052E-01 -6.44633E-01 -3.21966E-02 +8.43770E-02
+3.41000E+10 +1.83989E-01 -2.95722E-01 -1.60048E-01 -7.05998E-01 -2.41621E-01 -7.09339E-01 -2.11111E-01 -7.04594E-02
+3.42000E+10 +2.14687E-01 -1.94962E-01 -3.24697E-01 -6.12778E-01 -3.07434E-01 -6.72582E-01 -2.44865E-01 -5.44176E-03
+3.43000E+10 +3.53535E-01 -1.03486E-01 -2.54892E-01 -6.19512E-01 -3.63109E-01 -4.81793E-01 -1.72527E-01 -1.02313E-01
+3.44000E+10 +2.67111E-01 -1.73003E-01 -3.95205E-01 -5.29520E-01 -2.80343E-01 -5.68043E-01 -2.05027E-01 -2.06031E-02
+3.45000E+10 +2.36439E-01 -1.87467E-01 -3.59601E-01 -5.91026E-01 -4.12330E-01 -5.21143E-01 -2.67834E-01 -1.87999E-01
+3.46000E+10 +4.31408E-01 -1.49473E-01 -3.67417E-01 -6.20833E-01 -3.95554E-01 -5.48238E-01 -3.21524E-01 -7.10048E-02
+3.47000E+10 +3.95907E-01 -1.68902E-01 -3.66782E-01 -5.66791E-01 -4.32802E-01 -4.69976E-01 -2.80255E-01 -1.23679E-01
+3.48000E+10 +4.26131E-01 -2.84962E-01 -3.58234E-01 -4.52687E-01 -4.24422E-01 -5.50667E-01 -3.10229E-01 +4.81207E-02
+3.49000E+10 +4.60120E-01 -1.27953E-01 -4.11007E-01 -3.44483E-01 -4.32262E-01 -4.06938E-01 -2.97748E-01 -1.21443E-01
+3.50000E+10 +4.58081E-01 -1.58844E-01 -3.52573E-01 -4.98421E-01 -4.84078E-01 -3.34210E-01 -3.07507E-01 -5.70666E-02
+3.51000E+10 +4.02668E-01 -1.73263E-01 -4.40330E-01 -3.73630E-01 -3.51915E-01 -4.16579E-01 -4.20749E-01 -4.01909E-02
+3.52000E+10 +4.74485E-01 -2.36951E-01 -5.41900E-01 -3.61232E-01 -5.62462E-01 -2.71613E-01 -4.52017E-01 -7.18003E-02
+3.53000E+10 +5.75561E-01 -3.78231E-01 -4.42849E-01 -1.81752E-01 -5.30583E-01 -1.93295E-01 -6.29516E-01 -9.69644E-02
+3.54000E+10 +5.49884E-01 -3.70093E-01 -2.88435E-01 -2.47154E-01 -3.32971E-01 -1.28746E-01 -5.27070E-01 -7.94540E-02
+3.55000E+10 +5.07748E-01 -4.39722E-01 -3.84735E-01 -1.36007E-01 -3.25992E-01 -1.74417E-01 -7.21867E-01 +1.05329E-02
+3.56000E+10 +5.15331E-01 -4.22616E-01 -2.36159E-01 -2.84687E-02 -2.34658E-01 -2.75045E-01 -6.99273E-01 +1.10817E-01
+3.57000E+10 +4.59822E-01 -4.61249E-01 -2.31319E-01 -5.12334E-03 -1.88906E-01 -1.68983E-01 -6.43247E-01 +2.60045E-01
+3.58000E+10 +6.21302E-01 -6.25069E-01 -2.48845E-01 -9.34809E-02 -1.98634E-01 -1.88677E-01 -6.71391E-01 +7.66814E-02
+3.59000E+10 +5.72628E-01 -4.62294E-01 -1.70780E-01 +2.18526E-02 -2.53109E-01 -1.07997E-01 -4.88764E-01 +4.24273E-01
+3.60000E+10 +6.45578E-01 -5.34619E-01 -2.37487E-01 -1.16609E-01 -7.96926E-02 -1.54237E-01 -7.38081E-01 +2.04998E-01
+3.61000E+10 +3.75635E-01 -5.26336E-01 -1.22743E-01 +2.59477E-02 -2.45036E-01 -8.99913E-03 -6.25295E-01 +3.51936E-01
+3.62000E+10 +5.26486E-01 -8.83032E-01 -3.02976E-01 -3.78584E-02 -1.88166E-01 +9.83690E-03 -5.79128E-01 +2.54461E-01
+3.63000E+10 +2.61500E-01 -4.11606E-01 -2.14799E-01 -5.20771E-03 -1.72613E-01 +6.19108E-03 -5.95895E-01 +3.35532E-01
+3.64000E+10 +4.59019E-01 -7.53052E-01 -2.63799E-01 -2.27937E-01 -3.24481E-01 -1.19994E-01 -7.17592E-01 +3.45405E-01
+3.65000E+10 +4.54749E-01 -6.54064E-01 -2.80270E-01 -3.83325E-02 +1.15239E-01 -3.47427E-02 -6.22694E-01 +3.31328E-01
+3.66000E+10 +2.64503E-01 -7.98493E-01 -2.04611E-01 +3.69266E-02 -1.17294E-01 -1.34398E-01 -6.53317E-01 +3.23638E-01
+3.67000E+10 +4.04251E-01 -7.69049E-01 -2.37317E-01 -8.02310E-02 +4.96538E-02 -1.20469E-01 -4.95584E-01 +5.05365E-01
+3.68000E+10 +3.03039E-01 -6.37538E-01 -5.58144E-02 -8.70202E-03 -1.23549E-01 -7.23176E-02 -6.07476E-01 +3.06024E-01
+3.69000E+10 +3.57204E-01 -7.93665E-01 -1.10490E-01 -8.01148E-02 -1.39291E-01 -6.99937E-03 -3.48268E-01 +3.34378E-01
+3.70000E+10 +5.45925E-01 -8.40129E-01 -1.24171E-01 -1.90353E-01 -9.95183E-02 -6.11330E-02 -5.27663E-01 +4.94008E-01
+3.71000E+10 +2.89537E-01 -9.73926E-01 -1.29541E-01 -9.48883E-02 -1.44970E-01 -2.85403E-01 -4.91331E-01 +4.76782E-01
+3.72000E+10 +1.95618E-01 -6.75429E-01 -5.81488E-02 -1.98830E-02 -8.41655E-02 -2.35784E-01 -4.46658E-01 +3.82382E-01
+3.73000E+10 +5.62180E-01 -1.04432E+00 -1.94007E-01 -1.96844E-01 -2.24514E-01 -1.58759E-01 -3.94412E-01 +6.20785E-01
+3.74000E+10 +1.14754E-01 -9.41589E-01 -1.06594E-01 -9.84251E-02 -3.72016E-03 -1.14491E-01 -3.20847E-01 +4.86618E-01
+3.75000E+10 +1.10888E-01 -7.47215E-01 -1.20548E-01 -2.77313E-01 -4.75421E-02 -2.36645E-01 -3.30323E-01 +6.86952E-01
+3.76000E+10 +5.60404E-02 -9.63185E-01 -1.00467E-01 -1.28050E-01 -1.94603E-02 -6.84464E-02 -2.97449E-01 +6.51902E-01
+3.77000E+10 +1.22331E-01 -9.60623E-01 -9.76431E-02 -1.44792E-01 -7.84793E-02 -1.44307E-01 -2.37268E-01 +6.14848E-01
+3.78000E+10 -2.00548E-01 -9.57683E-01 -2.35037E-02 -1.91246E-01 -7.25388E-02 -2.62106E-01 -3.29074E-01 +7.28646E-01
+3.79000E+10 +1.28027E-01 -1.03932E+00 -5.70791E-02 -2.30280E-01 -8.72760E-02 -2.11061E-01 -2.03219E-01 +6.11335E-01
+3.80000E+10 +2.24809E-01 -7.71768E-01 -7.03647E-02 -2.62587E-01 -3.62625E-02 -2.40511E-01 -1.77645E-01 +7.02212E-01
+3.81000E+10 -3.49453E-02 -8.65869E-01 -1.14538E-01 -2.47118E-01 -2.35141E-01 -1.18962E-01 -9.41192E-02 +7.59478E-01
+3.82000E+10 -5.19664E-03 -9.43493E-01 -4.92658E-02 -2.82329E-01 -1.21477E-01 -2.04165E-01 +2.55588E-02 +7.83138E-01
+3.83000E+10 -1.77676E-01 -8.92272E-01 -2.92629E-01 -2.11784E-01 -7.68717E-02 -1.49225E-01 +5.25923E-02 +6.22728E-01
+3.84000E+10 -4.25914E-02 -9.75288E-01 +1.46146E-01 -2.83407E-01 -1.64585E-01 -1.55523E-01 -4.27291E-02 +6.37780E-01
+3.85000E+10 +5.02728E-02 -7.70876E-01 -1.55017E-01 -1.43483E-01 -7.75683E-03 -7.55911E-03 -2.77363E-02 +7.46126E-01
+3.86000E+10 -1.23683E-01 -9.42646E-01 -1.03504E-01 -1.83774E-01 +1.22797E-01 -2.25163E-01 +1.15445E-02 +7.24882E-01
+3.87000E+10 -2.22603E-01 -9.38325E-01 -3.56979E-01 -1.33182E-01 -1.79213E-01 -3.73950E-01 +1.89335E-01 +6.90264E-01
+3.88000E+10 -4.84385E-02 -6.83605E-01 -2.81277E-01 -2.43261E-01 +6.81497E-02 -3.97716E-01 +1.30906E-01 +6.10968E-01
+3.89000E+10 -6.34463E-02 -1.07956E+00 -5.62395E-02 -2.00106E-01 -1.61039E-01 -3.49816E-01 +1.63614E-02 +6.77625E-01
+3.90000E+10 -3.91180E-01 -8.73641E-01 -2.50521E-01 -4.47417E-01 +4.89384E-02 -3.71325E-01 +9.69596E-02 +5.61610E-01
+3.91000E+10 -5.22436E-02 -6.67258E-01 -1.55734E-01 -2.77010E-01 -2.77380E-01 -3.96445E-01 +6.92807E-02 +7.38192E-01
+3.92000E+10 -2.85983E-01 -9.88505E-01 -7.04997E-02 -1.14558E-01 -3.06900E-01 -4.77259E-01 +2.52557E-01 +7.97721E-01
+3.93000E+10 -9.26798E-02 -9.18485E-01 -4.02065E-01 -4.47348E-01 -1.99181E-01 -5.13902E-01 +3.09674E-01 +5.58327E-01
+3.94000E+10 -1.54064E-01 -8.30033E-01 -5.77020E-02 -1.56422E-01 -1.65705E-01 -1.14758E-01 +2.05230E-01 +4.89031E-01
+3.95000E+10 -2.17050E-01 -9.87202E-01 -1.54205E-01 -2.97375E-01 -2.39688E-01 -2.78515E-01 +3.42975E-01 +7.56212E-01
+3.96000E+10 -4.51694E-01 -8.62217E-01 -2.73862E-01 -2.53973E-01 -2.48610E-01 -3.25935E-01 +2.98078E-01 +5.26352E-01
+3.97000E+10 -5.34606E-01 -8.10625E-01 -5.96692E-01 -2.06222E-01 -3.89891E-01 -3.30608E-01 +4.26311E-01 +6.08212E-01
+3.98000E+10 -4.44578E-01 -7.80709E-01 -2.90846E-01 -9.50391E-02 -2.33643E-01 -3.12643E-01 +3.00626E-01 +5.40893E-01
+3.99000E+10 -5.88732E-01 -6.77175E-01 -1.79240E-01 -4.13156E-01 -8.67302E-02 -2.13614E-01 +3.38723E-01 +4.70964E-01
+4.00000E+10 -1.91533E-01 -6.94691E-01 -1.85195E-01 -1.65442E-01 -3.72467E-01 -4.16256E-01 +4.05112E-01 +4.64422E-01
