!Keysight Technologies,N5247B,MY61255062,A.19.80.06
!Date: Monday, May 18, 2026 12:32:22
!Correction: S11(Cdelta 2-Port  ) 
!S21(Cdelta 2-Port  ) 
!S12(Cdelta 2-Port  ) 
!S22(Cdelta 2-Port  ) 
!S2P File: Measurements: S11, S21, S12, S22:
# Hz S  dB   R 50
1000000000 -23.631659 27.65764 -0.39921013 -18.393585 -0.395816 -18.38352 -23.953222 28.540911
1100000000 -23.27075 27.611284 -0.40785849 -20.183811 -0.40645033 -20.181137 -23.597363 29.043642
1200000000 -22.870113 27.688543 -0.4182308 -21.961061 -0.41646653 -21.953737 -23.205738 29.658848
1300000000 -22.483955 27.440596 -0.42503232 -23.751171 -0.42279848 -23.749441 -22.780621 29.169037
1400000000 -22.099699 27.481041 -0.43587247 -25.484646 -0.43353552 -25.489622 -22.395201 29.832918
1500000000 -21.763638 26.935358 -0.44020638 -27.257317 -0.43806753 -27.261786 -21.991619 29.393679
1600000000 -21.408375 26.539806 -0.4454675 -29.037115 -0.44474649 -29.031504 -21.652403 28.624411
1700000000 -21.080202 25.859043 -0.45087686 -30.783718 -0.44752821 -30.788147 -21.287533 28.148094
1800000000 -20.750797 24.842163 -0.45447814 -32.564041 -0.45299447 -32.554466 -20.975637 27.351475
1900000000 -20.460562 23.826433 -0.458022 -34.336094 -0.4555679 -34.334385 -20.663528 26.307297
2000000000 -20.202646 22.961508 -0.46402428 -36.132793 -0.46202105 -36.122471 -20.411034 25.299086
2100000000 -19.934195 21.730198 -0.46951449 -37.892109 -0.4664633 -37.893642 -20.126013 24.532982
2200000000 -19.701096 20.822968 -0.47337404 -39.661381 -0.4712182 -39.666267 -19.891867 23.366655
2300000000 -19.486969 19.643604 -0.47699374 -41.443672 -0.47538221 -41.449512 -19.637604 22.351206
2400000000 -19.249201 18.640213 -0.4844031 -43.210602 -0.48174024 -43.208717 -19.442091 21.418354
2500000000 -19.032608 17.406475 -0.48836684 -44.990231 -0.48674789 -44.999847 -19.232042 20.133718
2600000000 -18.852657 16.243132 -0.49773905 -46.766315 -0.49508715 -46.757889 -19.028889 19.071064
2700000000 -18.666992 15.145195 -0.50198609 -48.520401 -0.49911466 -48.517902 -18.869818 17.882528
2800000000 -18.507875 13.89468 -0.50735664 -50.281723 -0.50545377 -50.292442 -18.707067 16.725592
2900000000 -18.324896 12.890895 -0.51283586 -52.044872 -0.50985247 -52.065674 -18.520069 15.493034
3000000000 -18.167397 11.686456 -0.51836663 -53.799023 -0.5149731 -53.794067 -18.3412 14.527413
3100000000 -18.023079 10.473424 -0.52299708 -55.552071 -0.52116263 -55.55983 -18.214815 13.44302
3200000000 -17.861746 8.9595766 -0.5276103 -57.311375 -0.52442515 -57.310539 -18.035648 12.358221
3300000000 -17.7432 7.6948953 -0.53107369 -59.071056 -0.52877176 -59.057579 -17.906212 10.980205
3400000000 -17.601467 6.527626 -0.53494209 -60.825329 -0.53415632 -60.810452 -17.784065 9.8226032
3500000000 -17.485521 5.0866551 -0.53975207 -62.562717 -0.53879488 -62.55756 -17.630133 8.5661421
3600000000 -17.333593 3.6989615 -0.54267341 -64.304878 -0.53928518 -64.299019 -17.476271 7.2431598
3700000000 -17.230801 2.4056871 -0.54485238 -66.065865 -0.54385531 -66.057465 -17.359518 5.7884617
3800000000 -17.099125 1.0295873 -0.54740506 -67.817749 -0.54404163 -67.826477 -17.246223 4.3548303
3900000000 -17.006311 -0.37750033 -0.54795945 -69.58593 -0.54693556 -69.583115 -17.142981 3.0431838
4000000000 -16.890032 -1.8634995 -0.5527519 -71.333069 -0.55004382 -71.341782 -17.028654 1.6235062
4100000000 -16.817375 -3.3426511 -0.55557311 -73.082619 -0.5524441 -73.093872 -16.946733 0.26951861
4200000000 -16.721575 -4.6524124 -0.55777913 -74.829987 -0.5572741 -74.832291 -16.845499 -1.054412
4300000000 -16.656601 -6.2635984 -0.56104749 -76.584373 -0.55924314 -76.5793 -16.776106 -2.5418801
4400000000 -16.573503 -7.5429239 -0.56076622 -78.335609 -0.56030059 -78.326942 -16.684803 -3.9195352
4500000000 -16.496202 -9.0021496 -0.56208533 -80.086304 -0.56237441 -80.081421 -16.60425 -5.4420385
4600000000 -16.438868 -10.33219 -0.56548464 -81.824577 -0.56416386 -81.826157 -16.558012 -6.7222242
4700000000 -16.38583 -12.007583 -0.5654012 -83.591728 -0.56478673 -83.586548 -16.494024 -8.3546906
4800000000 -16.343946 -13.372023 -0.56640083 -85.341286 -0.56545103 -85.34082 -16.435228 -9.7128239
4900000000 -16.295929 -14.866226 -0.56982648 -87.107376 -0.56827986 -87.096085 -16.383631 -11.412254
5000000000 -16.256004 -16.309114 -0.5716902 -88.849281 -0.57059252 -88.857269 -16.345425 -12.678267
5100000000 -16.194477 -17.730499 -0.57298076 -90.611656 -0.5721848 -90.610962 -16.278818 -14.205091
5200000000 -16.179859 -19.224241 -0.57455361 -92.374405 -0.57260215 -92.372269 -16.264206 -15.505436
5300000000 -16.152145 -20.665136 -0.5751307 -94.111389 -0.57603449 -94.120155 -16.254078 -16.97683
5400000000 -16.15575 -22.122324 -0.57780856 -95.877724 -0.57676786 -95.86776 -16.26774 -18.484959
5500000000 -16.145309 -23.576706 -0.57934678 -97.618294 -0.57714152 -97.630226 -16.257362 -20.195507
5600000000 -16.163023 -25.205242 -0.5804041 -99.38092 -0.57947397 -99.386818 -16.243639 -21.699085
5700000000 -16.132795 -26.605766 -0.58185291 -101.1387 -0.58151436 -101.13972 -16.188097 -23.305119
5800000000 -16.146009 -28.198339 -0.58408809 -102.89014 -0.58133823 -102.88807 -16.191332 -24.664379
5900000000 -16.1637 -29.531408 -0.58342093 -104.62624 -0.58197838 -104.63608 -16.202177 -26.033064
6000000000 -16.18289 -31.302355 -0.58334607 -106.38029 -0.58143175 -106.3877 -16.271982 -27.442539
6100000000 -16.207361 -32.63607 -0.58455449 -108.1265 -0.58324838 -108.12318 -16.314585 -29.189747
6200000000 -16.239832 -34.269016 -0.58406293 -109.87798 -0.58246088 -109.87862 -16.367453 -30.880426
6300000000 -16.284096 -35.519009 -0.58317846 -111.61073 -0.5822466 -111.61809 -16.340252 -32.354988
6400000000 -16.325775 -36.900028 -0.58394831 -113.3483 -0.58149421 -113.35606 -16.388187 -33.977634
6500000000 -16.404911 -38.108131 -0.5825038 -115.09972 -0.58133024 -115.10049 -16.407722 -35.122242
6600000000 -16.448545 -39.679462 -0.57825953 -116.84792 -0.57850087 -116.85447 -16.497147 -36.397995
6700000000 -16.5641 -40.943054 -0.57907522 -118.60876 -0.57784021 -118.61483 -16.556032 -37.724533
6800000000 -16.568901 -42.337292 -0.57599723 -120.37939 -0.57563841 -120.39282 -16.647274 -39.386425
6900000000 -16.652582 -43.984631 -0.57718235 -122.16769 -0.57770807 -122.17899 -16.645094 -40.978222
7000000000 -16.696205 -45.205181 -0.57396209 -123.88821 -0.57276839 -123.8835 -16.753386 -42.552185
7100000000 -16.808481 -46.565205 -0.56928319 -125.666 -0.56751901 -125.65704 -16.80727 -43.623302
7200000000 -16.854385 -47.605522 -0.56585497 -127.44118 -0.56378096 -127.42691 -16.901941 -44.968616
7300000000 -16.954384 -49.218735 -0.56140101 -129.2216 -0.56177455 -129.22626 -16.979694 -46.382275
7400000000 -17.030394 -50.683914 -0.5680725 -131.02592 -0.56927168 -131.03635 -17.071817 -48.771721
7500000000 -17.1854 -51.980804 -0.56085843 -132.74265 -0.56083071 -132.75357 -17.144922 -49.907249
7600000000 -17.23843 -53.033413 -0.56348532 -134.57623 -0.56145138 -134.56966 -17.193562 -51.64529
7700000000 -17.369055 -54.694302 -0.5617339 -136.32637 -0.56102097 -136.3223 -17.283056 -52.462105
7800000000 -17.475079 -55.903034 -0.56337339 -138.09256 -0.56135947 -138.11404 -17.457489 -53.930275
7900000000 -17.558102 -57.733643 -0.56784528 -139.90579 -0.56639022 -139.91089 -17.622812 -55.62344
8000000000 -17.776173 -59.212685 -0.57502931 -141.6568 -0.57480919 -141.65285 -17.792166 -58.360912
8100000000 -17.974882 -60.712029 -0.57707179 -143.36128 -0.57713032 -143.36388 -17.960848 -60.288456
8200000000 -18.234838 -61.361012 -0.56582314 -145.1078 -0.56399673 -145.09886 -17.995676 -61.274734
8300000000 -18.390623 -62.335606 -0.55940509 -146.91745 -0.56089669 -146.91743 -18.154568 -60.639118
8400000000 -18.637951 -63.610817 -0.5623517 -148.77321 -0.56102777 -148.74596 -18.574301 -60.502335
8500000000 -18.784773 -64.263672 -0.58320218 -150.61562 -0.58346242 -150.61508 -19.678013 -61.187801
8600000000 -18.750755 -66.481865 -0.66269529 -152.23509 -0.66189301 -152.22342 -21.843946 -64.739357
8700000000 -19.839064 -71.551765 -0.59777635 -152.63033 -0.59484953 -152.64607 -24.706572 -43.720947
8800000000 -19.674496 -64.85611 -0.43585244 -155.40274 -0.43516019 -155.41116 -21.563435 -52.48357
8900000000 -19.497515 -68.534225 -0.49748737 -157.63702 -0.49484634 -157.63087 -20.986961 -66.887703
9000000000 -19.828278 -71.235886 -0.52734816 -159.44165 -0.52667534 -159.44894 -20.455994 -76.079285
9100000000 -20.211113 -71.425934 -0.54050928 -161.14214 -0.54131705 -161.15105 -20.143276 -77.992561
9200000000 -20.38501 -71.913597 -0.54246193 -162.94713 -0.5418117 -162.94737 -19.978907 -77.747925
9300000000 -20.647123 -72.187523 -0.54866284 -164.71568 -0.5461235 -164.72652 -20.27136 -76.536896
9400000000 -20.87184 -73.686081 -0.54790604 -166.47383 -0.55090833 -166.46982 -20.690655 -76.886192
9500000000 -21.300957 -74.351357 -0.54986256 -168.23669 -0.54966748 -168.24243 -21.267773 -78.036781
9600000000 -21.587978 -75.078369 -0.55153519 -170.028 -0.55029386 -170.02132 -21.648851 -80.896027
9700000000 -22.033419 -75.332504 -0.55161309 -171.81493 -0.55066091 -171.81454 -22.00985 -82.724457
9800000000 -22.292461 -75.663231 -0.55284917 -173.60431 -0.55149698 -173.59685 -22.196999 -84.375504
9900000000 -22.812426 -76.37928 -0.55401272 -175.38113 -0.55218834 -175.37036 -22.63098 -84.266289
10000000000 -23.154831 -76.235764 -0.5553301 -177.16577 -0.55358601 -177.14357 -23.07085 -85.045769
10100000000 -23.741468 -76.596603 -0.5556525 -178.94133 -0.55547363 -178.95422 -23.843699 -86.411385
10200000000 -24.069588 -75.070442 -0.55641073 179.282 -0.55816269 179.27681 -24.395807 -88.878922
10300000000 -24.641466 -74.952187 -0.55984026 177.48834 -0.56207711 177.4912 -24.960215 -90.676849
10400000000 -24.998489 -73.152374 -0.5605306 175.68483 -0.56087166 175.72206 -25.306015 -92.289719
10500000000 -25.603085 -73.800652 -0.56331235 173.94031 -0.56496394 173.9295 -25.927378 -92.021301
10600000000 -26.049871 -71.082573 -0.56753021 172.13512 -0.56330997 172.11923 -26.450808 -91.552513
10700000000 -26.54319 -70.085999 -0.57093287 170.34816 -0.56726241 170.35123 -27.602123 -90.649628
10800000000 -27.164021 -65.693932 -0.56854928 168.59341 -0.56886238 168.59294 -28.591585 -89.717026
10900000000 -27.562847 -62.361118 -0.57305193 166.7988 -0.57310748 166.79686 -30.113586 -91.000282
11000000000 -28.138744 -57.326885 -0.57382268 165.02582 -0.57540935 165.03827 -31.064434 -91.804192
11100000000 -28.465141 -55.131557 -0.57964349 163.26158 -0.57780915 163.2431 -32.62043 -92.66024
11200000000 -28.954735 -49.667309 -0.58217674 161.46251 -0.58315033 161.46474 -33.552944 -87.766174
11300000000 -28.981058 -44.915035 -0.58497626 159.68556 -0.58482754 159.70059 -35.670265 -84.024673
11400000000 -29.002602 -38.635056 -0.58592975 157.90437 -0.58533078 157.89215 -36.4879 -72.444016
11500000000 -28.741543 -33.848057 -0.58898813 156.12303 -0.58940172 156.12823 -38.340164 -58.309101
11600000000 -28.736807 -28.567177 -0.59354085 154.3519 -0.5945577 154.35645 -38.867252 -35.997879
11700000000 -28.181919 -23.153177 -0.5964855 152.56409 -0.59795994 152.57393 -39.218136 -8.8963642
11800000000 -28.041451 -18.525373 -0.60001254 150.8045 -0.59856153 150.78595 -37.347294 4.1460938
11900000000 -27.307158 -14.990344 -0.60418743 149.01561 -0.60581177 149.02592 -36.029495 19.128366
12000000000 -27.164513 -11.615082 -0.60726047 147.24071 -0.6099335 147.26042 -33.851887 20.764162
12100000000 -26.3643 -8.666338 -0.61352342 145.47832 -0.61131954 145.47379 -32.779858 26.038345
12200000000 -26.042833 -7.3519149 -0.61520582 143.69955 -0.61653924 143.70628 -31.253513 26.245947
12300000000 -25.312889 -5.5272608 -0.62043136 141.92892 -0.61951232 141.92633 -30.073767 27.200808
12400000000 -24.903671 -4.6327319 -0.62606627 140.17865 -0.62379831 140.16241 -28.876928 26.586849
12500000000 -24.222923 -2.716486 -0.62947977 138.41902 -0.62902915 138.41623 -27.99559 28.941093
12600000000 -23.862627 -2.5247374 -0.63324398 136.64513 -0.63374925 136.66014 -27.055204 27.425718
12700000000 -23.299778 -1.1924003 -0.63670033 134.87396 -0.63734722 134.8858 -26.393515 27.949892
12800000000 -23.039406 -2.3850062 -0.64372873 133.14258 -0.64107323 133.14079 -25.586058 26.189672
12900000000 -22.581146 -1.7334929 -0.64417309 131.37817 -0.64418572 131.3792 -25.002169 26.478052
13000000000 -22.156862 -2.9182754 -0.6479122 129.62152 -0.64562654 129.63744 -24.363235 24.623201
13100000000 -21.763243 -1.8768773 -0.648996 127.87753 -0.64952987 127.87632 -23.90196 24.580179
13200000000 -21.36956 -3.0167551 -0.65236384 126.11623 -0.65132189 126.12073 -23.291342 23.159033
13300000000 -21.100065 -2.2551136 -0.65043062 124.35596 -0.6521427 124.36079 -22.825335 21.810183
13400000000 -20.636955 -3.2482135 -0.6524598 122.58452 -0.6537866 122.61115 -22.171541 20.620724
13500000000 -20.420868 -3.060219 -0.65314543 120.81342 -0.65290684 120.83341 -21.747261 20.14537
13600000000 -19.933498 -4.2925854 -0.65756023 119.0332 -0.65806413 119.02002 -21.162731 18.990042
13700000000 -19.760889 -5.4714279 -0.66888654 117.29688 -0.66959047 117.30241 -20.962074 17.797533
13800000000 -19.402338 -5.692884 -0.66348147 115.58474 -0.66345733 115.58727 -20.605894 16.969381
13900000000 -19.251873 -6.3718023 -0.66190261 113.77784 -0.66349864 113.80135 -20.40373 15.272172
14000000000 -18.833075 -6.3292241 -0.66178536 112.01225 -0.661789 112.03092 -19.864662 13.970425
14100000000 -18.714861 -7.3695574 -0.66077226 110.24071 -0.66316813 110.23618 -19.607111 12.513564
14200000000 -18.340237 -7.6878695 -0.66293317 108.45418 -0.66411573 108.4647 -19.108841 11.775652
14300000000 -18.138281 -9.498415 -0.66462493 106.64821 -0.66396374 106.65999 -18.886564 10.356091
14400000000 -17.784142 -9.653573 -0.66765469 104.8604 -0.66812688 104.84182 -18.463142 9.3200436
14500000000 -17.44005 -11.85798 -0.69123119 103.0077 -0.69265372 103.01762 -18.242083 6.7122073
14600000000 -17.423794 -12.470584 -0.69589907 101.45547 -0.69753319 101.45972 -18.10434 4.9357395
14700000000 -17.212841 -13.270947 -0.68545753 99.664581 -0.68602073 99.65699 -17.891855 3.7047045
14800000000 -17.058397 -13.758856 -0.68343192 97.862617 -0.68569028 97.857742 -17.556553 3.2032881
14900000000 -16.788885 -15.610531 -0.68604618 96.086952 -0.68808055 96.074699 -17.415976 1.5733857
15000000000 -16.620724 -16.694038 -0.69252104 94.269806 -0.69444424 94.266365 -17.157274 0.12296319
15100000000 -16.260338 -18.426041 -0.70624155 92.459785 -0.70801514 92.470398 -16.972931 -2.5598392
15200000000 -16.265709 -19.233475 -0.70800751 90.791672 -0.70935965 90.794441 -16.76474 -4.359993
15300000000 -15.950807 -20.197384 -0.71565145 88.949089 -0.71613985 88.949745 -16.464306 -6.3688707
15400000000 -15.953569 -22.105923 -0.73119503 87.265724 -0.73370951 87.251854 -16.272762 -7.8519607
15500000000 -15.694764 -23.329323 -0.72633332 85.497551 -0.72584283 85.492493 -16.113323 -8.8935394
15600000000 -15.616157 -25.589031 -0.74101073 83.682655 -0.74299788 83.688622 -15.971875 -10.270767
15700000000 -15.404227 -27.146202 -0.75844538 81.977951 -0.75873572 81.98996 -15.934413 -13.186762
15800000000 -15.443609 -28.889139 -0.76278436 80.365166 -0.76265442 80.37336 -15.884811 -15.12229
15900000000 -15.348651 -28.914244 -0.7556442 78.672653 -0.75507283 78.683517 -15.751504 -17.223673
16000000000 -15.323294 -30.563112 -0.75141209 76.952606 -0.75307947 76.940453 -15.609944 -18.265162
16100000000 -15.283057 -31.234701 -0.74702382 75.210442 -0.74739033 75.218796 -15.458859 -19.785358
16200000000 -15.186719 -33.36705 -0.74179 73.461342 -0.74178511 73.454987 -15.39333 -19.950729
16300000000 -15.069122 -33.788731 -0.74164534 71.706848 -0.74246377 71.708084 -15.303254 -22.04661
16400000000 -14.912638 -35.258026 -0.7424401 69.939835 -0.74135029 69.907242 -15.246463 -23.169353
16500000000 -14.921636 -35.591789 -0.73933196 68.162933 -0.73603493 68.153961 -15.152196 -25.614447
16600000000 -14.806444 -37.126442 -0.74200958 66.4049 -0.74530679 66.408295 -15.019262 -26.814119
16700000000 -14.896372 -38.201797 -0.74309129 64.626564 -0.74607795 64.636108 -14.875678 -28.852064
16800000000 -14.743206 -40.004978 -0.74339724 62.872505 -0.74594486 62.890968 -14.847253 -29.503679
16900000000 -14.752809 -41.604156 -0.74671733 61.14595 -0.748748 61.124744 -14.754431 -31.597872
17000000000 -14.529742 -42.458958 -0.74657559 59.350098 -0.74906856 59.364151 -14.834771 -33.029915
17100000000 -14.583223 -43.572975 -0.75267279 57.603897 -0.75404757 57.635193 -14.698915 -35.230415
17200000000 -14.517885 -43.863457 -0.75031692 55.862221 -0.7532599 55.880833 -14.7239 -36.832798
17300000000 -14.595426 -46.0429 -0.7607739 54.087452 -0.75996596 54.087315 -14.529745 -38.771465
17400000000 -14.588872 -47.111015 -0.76475251 52.359032 -0.76222622 52.34996 -14.554291 -39.817875
17500000000 -14.554702 -49.448612 -0.76370239 50.604191 -0.76670641 50.622044 -14.470934 -41.265026
17600000000 -14.483251 -50.206627 -0.76603568 48.858761 -0.76558393 48.864647 -14.616683 -42.944298
17700000000 -14.399759 -51.939125 -0.76635927 47.08876 -0.77175212 47.120258 -14.573792 -44.727367
17800000000 -14.497544 -52.244305 -0.76814365 45.35025 -0.77486497 45.360706 -14.666047 -47.525959
17900000000 -14.488525 -53.858089 -0.7744742 43.63987 -0.77511686 43.635723 -14.527831 -49.529457
18000000000 -14.695307 -55.426823 -0.78372288 41.914463 -0.78696412 41.930458 -14.568402 -51.760426
18100000000 -14.677261 -57.179001 -0.77317524 40.276222 -0.77971202 40.26453 -14.501831 -52.367519
18200000000 -14.731776 -58.153202 -0.77046382 38.49921 -0.76695228 38.49218 -14.593625 -53.334793
18300000000 -14.56211 -59.201572 -0.76358145 36.71542 -0.76326787 36.749878 -14.643193 -54.253757
18400000000 -14.727761 -59.939495 -0.7624718 34.976151 -0.76748043 34.957413 -14.849801 -56.650406
18500000000 -14.721678 -60.849663 -0.76421845 33.181679 -0.7699424 33.211521 -14.897421 -58.939075
18600000000 -14.897588 -62.242565 -0.77022707 31.457672 -0.77160525 31.4491 -14.906219 -61.644241
18700000000 -14.850906 -63.602516 -0.76509422 29.745771 -0.76500839 29.763956 -14.758925 -62.966389
18800000000 -14.974672 -65.644333 -0.76245761 27.995363 -0.76262081 27.983763 -14.739442 -64.07135
18900000000 -14.966116 -66.077728 -0.7553522 26.258894 -0.75676078 26.267143 -14.773411 -64.603745
19000000000 -15.105885 -67.754227 -0.75487876 24.520712 -0.75111908 24.531084 -15.079966 -66.045113
19100000000 -15.240115 -67.753761 -0.75348806 22.765423 -0.75386959 22.792944 -15.191367 -67.747482
19200000000 -15.355073 -69.38884 -0.75524253 21.024029 -0.7534163 20.999859 -15.470802 -70.825401
19300000000 -15.518141 -69.623749 -0.74991697 19.227039 -0.75000894 19.236403 -15.396105 -73.030159
19400000000 -15.533916 -71.774651 -0.74962866 17.472141 -0.75230712 17.501637 -15.479105 -75.018585
19500000000 -15.745825 -72.196266 -0.74622303 15.729113 -0.74851918 15.724868 -15.470359 -75.706009
19600000000 -15.710543 -73.709328 -0.74155909 13.966155 -0.7479189 13.990479 -15.675407 -77.372696
19700000000 -15.986725 -74.12027 -0.74182528 12.21791 -0.73654187 12.213051 -15.879956 -78.234016
19800000000 -16.016062 -75.187096 -0.7419973 10.484726 -0.74204612 10.476691 -16.114981 -81.444519
19900000000 -16.3696 -75.865517 -0.73324883 8.723877 -0.73272389 8.7150326 -16.229294 -82.949966
20000000000 -16.427666 -76.899307 -0.73520303 6.9538717 -0.73292184 6.9398317 -16.342388 -85.583305
20100000000 -16.816244 -78.584389 -0.73433602 5.1966662 -0.73139417 5.1995444 -16.521719 -85.814461
20200000000 -16.741434 -79.089241 -0.7293942 3.4612243 -0.73364359 3.4873219 -16.703583 -87.638298
20300000000 -17.017885 -80.86499 -0.72315532 1.690756 -0.72792715 1.6976651 -17.121384 -88.84626
20400000000 -17.109604 -80.155922 -0.71633369 -0.08035972 -0.72005874 -0.057184566 -17.281528 -92.682396
20500000000 -17.401859 -81.412354 -0.71328712 -1.8389537 -0.71626318 -1.8377613 -17.566473 -94.594826
20600000000 -17.716545 -80.672279 -0.70311564 -3.6491268 -0.71010584 -3.6296151 -17.493174 -97.405876
20700000000 -17.98291 -83.165413 -0.70439839 -5.3738985 -0.70285147 -5.4129539 -17.832296 -97.455818
20800000000 -18.315985 -82.946045 -0.69996524 -7.1767726 -0.6987173 -7.186049 -17.965738 -98.53717
20900000000 -18.413774 -84.907776 -0.69246608 -8.9757738 -0.69393456 -8.9814701 -18.697723 -98.729881
21000000000 -18.80047 -83.686249 -0.69507819 -10.771025 -0.6951924 -10.775942 -19.156523 -101.67667
21100000000 -18.964766 -82.63073 -0.6924445 -12.597908 -0.69141781 -12.601829 -19.771034 -104.57121
21200000000 -19.533392 -80.816872 -0.69818372 -14.443563 -0.69969457 -14.421459 -19.933434 -108.30933
21300000000 -19.555243 -80.420975 -0.71035522 -16.176723 -0.70712554 -16.147972 -20.221735 -109.42489
21400000000 -20.050915 -82.240921 -0.69564903 -17.836903 -0.70318323 -17.881771 -20.233349 -109.34281
21500000000 -20.101465 -83.074257 -0.68050468 -19.658066 -0.6833365 -19.668959 -20.683681 -110.44022
21600000000 -20.709282 -82.663605 -0.6785807 -21.496229 -0.68123198 -21.470346 -21.390417 -110.63548
21700000000 -20.676216 -79.664635 -0.67268419 -23.298433 -0.67186069 -23.329542 -22.524849 -112.30147
21800000000 -21.238041 -77.371895 -0.67586839 -25.106726 -0.67473406 -25.104668 -23.3971 -116.06133
21900000000 -21.437346 -73.681877 -0.68219388 -26.933094 -0.67921382 -26.932377 -24.515053 -120.24219
22000000000 -22.076088 -72.115349 -0.69262093 -28.741518 -0.69112557 -28.756453 -24.608545 -124.44011
22100000000 -21.97681 -69.212349 -0.69855034 -30.506966 -0.70116401 -30.501997 -25.30735 -123.94184
22200000000 -22.233002 -71.133949 -0.70925939 -32.265949 -0.70895523 -32.297302 -25.562935 -122.28939
22300000000 -22.346432 -68.502167 -0.68839967 -33.984539 -0.68824404 -33.994209 -26.889929 -120.46315
22400000000 -22.751518 -66.195633 -0.68928361 -35.891556 -0.68744916 -35.899395 -28.810858 -122.25478
22500000000 -22.542068 -58.734459 -0.70003003 -37.72897 -0.69855398 -37.699749 -32.174931 -125.88852
22600000000 -22.658857 -57.909023 -0.7168026 -39.402317 -0.70985866 -39.414654 -32.912773 -132.84254
22700000000 -22.795753 -53.406097 -0.71035433 -41.121136 -0.71443921 -41.13406 -34.489929 -139.31476
22800000000 -23.132982 -54.921677 -0.70323437 -42.957397 -0.70040411 -42.985741 -35.036034 -138.78909
22900000000 -22.924326 -50.507652 -0.71981436 -44.7714 -0.71808571 -44.75386 -40.851318 -116.48978
23000000000 -22.506283 -51.23085 -0.71837831 -46.51358 -0.71205974 -46.505863 -43.526154 -90.389946
23100000000 -22.311111 -44.345062 -0.70741737 -48.261116 -0.7147975 -48.245888 -41.571922 24.973558
23200000000 -21.818943 -42.468235 -0.72063535 -50.018837 -0.71713573 -50.020245 -39.076073 41.270638
23300000000 -22.194859 -36.873699 -0.71239311 -51.75795 -0.71465921 -51.804897 -34.867111 57.578106
23400000000 -21.823051 -36.885197 -0.72024268 -53.592033 -0.71463484 -53.54842 -35.681942 41.139778
23500000000 -22.254623 -35.682014 -0.7044124 -55.392567 -0.709463 -55.371147 -33.255581 37.402523
23600000000 -21.416887 -35.40749 -0.70443678 -57.162937 -0.70823544 -57.181038 -30.516891 18.738855
23700000000 -21.235954 -33.457882 -0.70534927 -58.948452 -0.71138239 -58.971676 -27.329954 26.506191
23800000000 -20.323219 -31.064592 -0.71752536 -60.785358 -0.71622223 -60.79903 -25.720753 26.734417
23900000000 -20.202673 -29.87524 -0.71763802 -62.579861 -0.71482402 -62.57954 -24.671303 34.16647
24000000000 -19.70956 -26.473948 -0.71788538 -64.397705 -0.72019231 -64.380234 -24.833448 32.410492
24100000000 -19.891613 -27.996399 -0.72018862 -66.228638 -0.71925712 -66.232201 -25.011618 30.254736
24200000000 -19.432825 -26.496948 -0.71746457 -67.994843 -0.71944833 -67.96946 -23.879663 19.327785
24300000000 -19.051535 -29.409573 -0.72425008 -69.794548 -0.72288442 -69.759399 -22.887327 15.102284
24400000000 -18.435818 -26.80644 -0.72834682 -71.554924 -0.72602153 -71.545158 -21.089285 13.095236
24500000000 -17.942492 -28.28125 -0.73743695 -73.327431 -0.7348296 -73.361618 -20.359076 16.479759
24600000000 -17.703299 -25.230469 -0.74213392 -75.181068 -0.74156553 -75.13781 -19.725567 17.361084
24700000000 -17.423641 -26.785933 -0.75282919 -76.944122 -0.75023323 -76.94767 -19.91091 17.61404
24800000000 -17.478596 -26.740253 -0.76159745 -78.771187 -0.76038438 -78.788315 -19.801655 13.422476
24900000000 -17.061613 -29.516624 -0.75857824 -80.58828 -0.76327962 -80.588646 -19.630533 8.6390028
25000000000 -16.831835 -29.4589 -0.76963919 -82.35675 -0.76181281 -82.350128 -18.722214 3.5311213
25100000000 -16.16876 -30.532269 -0.77194351 -84.089249 -0.77469015 -84.112343 -17.981247 2.9957612
25200000000 -16.070435 -29.785902 -0.78543812 -85.823792 -0.78162897 -85.877457 -17.384344 2.4696085
25300000000 -15.658728 -29.777723 -0.79340392 -87.589172 -0.79811335 -87.600403 -17.274345 3.0630772
25400000000 -15.860608 -30.741364 -0.8089993 -89.403442 -0.80318379 -89.388367 -17.038315 0.20561531
25500000000 -15.519139 -31.923576 -0.81260127 -91.062805 -0.82085788 -91.134567 -16.91432 -1.2348247
25600000000 -15.487537 -34.433514 -0.81799465 -92.934196 -0.81642205 -92.930641 -16.683607 -4.633234
25700000000 -15.033325 -34.506813 -0.82379496 -94.662567 -0.82649136 -94.651917 -16.341227 -6.5366268
25800000000 -14.938313 -36.337971 -0.83618766 -96.439178 -0.83739382 -96.428833 -15.888334 -7.8863297
25900000000 -14.632368 -35.520275 -0.83642334 -98.11438 -0.84179521 -98.159286 -15.696089 -9.6838827
26000000000 -14.556971 -37.73032 -0.84916186 -99.874298 -0.84685373 -99.884071 -15.393405 -10.433413
26100000000 -14.467393 -36.639153 -0.85113841 -101.6435 -0.8530966 -101.63378 -15.457923 -13.094298
26200000000 -14.361106 -38.974503 -0.86074698 -103.28443 -0.85974252 -103.32698 -15.061181 -13.503783
26300000000 -14.327977 -38.597282 -0.86574268 -105.08227 -0.86487985 -105.07614 -15.240698 -16.743366
26400000000 -14.076015 -41.839886 -0.87692863 -106.83475 -0.86578846 -106.836 -14.708276 -17.228941
26500000000 -14.132504 -41.598488 -0.87030476 -108.50032 -0.86983508 -108.57227 -14.796327 -19.932178
26600000000 -13.724103 -42.811501 -0.87871182 -110.21243 -0.86851549 -110.28184 -14.327783 -20.881325
26700000000 -13.830892 -42.659412 -0.8768605 -111.91734 -0.87961227 -112.00235 -14.327324 -23.12081
26800000000 -13.507199 -44.332317 -0.86368752 -113.75309 -0.86525989 -113.82407 -14.106683 -23.357708
26900000000 -13.652314 -45.04108 -0.88433999 -115.50475 -0.8753618 -115.61602 -14.171129 -26.103256
27000000000 -13.305403 -46.34145 -0.87371105 -117.41943 -0.87783343 -117.34917 -14.074896 -25.386581
27100000000 -13.350089 -48.478962 -0.87634957 -119.01454 -0.88782269 -119.02477 -13.866786 -30.655699
27200000000 -13.110518 -48.392357 -0.8832863 -120.88529 -0.88772649 -120.7494 -13.73057 -30.892935
27300000000 -13.195145 -51.069656 -0.89798683 -122.49947 -0.88176382 -122.50349 -13.413031 -33.982853
27400000000 -13.093438 -50.529514 -0.89996499 -124.26369 -0.90832222 -124.32888 -13.497008 -34.182899
27500000000 -13.02583 -53.610397 -0.91979164 -125.96264 -0.90376502 -125.93857 -13.268734 -36.466179
27600000000 -13.029461 -53.077621 -0.91190279 -127.80695 -0.91791666 -127.77441 -13.604493 -37.588406
27700000000 -12.850796 -55.328789 -0.88451898 -129.4787 -0.90299243 -129.44762 -13.34903 -41.005573
27800000000 -12.97699 -55.145695 -0.90312439 -131.20638 -0.91190058 -131.17621 -13.330597 -42.542915
27900000000 -12.768755 -57.058681 -0.92149329 -133.03044 -0.9240045 -132.87018 -12.995758 -44.333282
28000000000 -13.118769 -57.910969 -0.91498715 -134.80396 -0.93404865 -134.65068 -13.037774 -45.118637
28100000000 -12.723692 -60.224449 -0.92266673 -136.29428 -0.91563654 -136.20677 -12.907363 -46.230267
28200000000 -12.966235 -60.955143 -0.91206759 -138.18564 -0.91444772 -138.08842 -13.141766 -47.537258
28300000000 -12.591454 -61.637962 -0.90017778 -139.82402 -0.89958417 -139.84476 -13.006049 -49.759678
28400000000 -12.837438 -62.761292 -0.91287595 -141.5262 -0.9017539 -141.74054 -13.071451 -52.628792
28500000000 -12.867007 -63.225914 -0.90521234 -143.46307 -0.90543109 -143.35797 -12.785377 -54.121265
28600000000 -12.964016 -64.832336 -0.89635766 -145.02393 -0.89215499 -145.15331 -12.845897 -55.167206
28700000000 -12.898605 -65.218674 -0.9057892 -146.88763 -0.89806259 -147.01161 -12.924543 -55.974792
28800000000 -13.167487 -67.339218 -0.91528052 -148.71655 -0.92244202 -148.65991 -13.177214 -57.681694
28900000000 -13.022612 -66.016701 -0.91935045 -150.50644 -0.90959811 -150.36516 -13.111077 -60.859276
29000000000 -13.137714 -69.593369 -0.93314648 -152.05028 -0.93952727 -152.23692 -13.212639 -62.628635
29100000000 -13.089482 -67.758057 -0.91320783 -153.94266 -0.93902141 -154.03506 -12.803993 -64.290588
29200000000 -13.157829 -70.845978 -0.90855706 -155.56372 -0.92547971 -155.49382 -12.895359 -64.477592
29300000000 -13.2723 -69.895515 -0.89291167 -157.31999 -0.91538852 -157.16817 -12.943849 -65.304199
29400000000 -13.211728 -72.865959 -0.90334845 -159.03326 -0.89993763 -158.94099 -13.534144 -66.167953
29500000000 -13.519164 -72.891312 -0.91076803 -160.77322 -0.9092052 -160.81812 -13.370467 -68.353668
29600000000 -13.267385 -74.354927 -0.93873483 -162.60445 -0.94854003 -162.41496 -13.691068 -72.285225
29700000000 -13.504339 -74.63279 -0.92789513 -164.20486 -0.90039909 -164.25354 -13.303222 -72.785019
29800000000 -13.226888 -76.47406 -0.92792398 -166.01704 -0.91558027 -165.99799 -13.571075 -75.771431
29900000000 -13.641094 -77.744415 -0.91287977 -167.71416 -0.891819 -167.67085 -13.184359 -75.197418
30000000000 -13.697803 -77.422791 -0.90215886 -169.49687 -0.91285008 -169.40291 -13.679201 -77.187447
30100000000 -14.112024 -79.249634 -0.91723174 -171.09888 -0.91856265 -171.23692 -13.837889 -77.211044
30200000000 -13.87002 -78.204834 -0.90210211 -172.76115 -0.91032809 -172.8199 -14.236747 -81.554131
30300000000 -14.016737 -83.033661 -0.91438544 -174.57196 -0.89980358 -174.57971 -14.16501 -82.025986
30400000000 -14.09474 -81.548218 -0.89186066 -176.29294 -0.89648622 -176.4919 -14.21135 -87.784294
30500000000 -14.152918 -83.732384 -0.88585514 -178.17064 -0.88115275 -178.0955 -14.196412 -85.452171
30600000000 -14.412834 -82.279396 -0.87868142 -179.91403 -0.87991816 -179.97032 -14.398642 -89.438477
30700000000 -14.56321 -86.040604 -0.86250842 178.22321 -0.86356652 178.20299 -14.55116 -87.31102
30800000000 -14.823857 -84.352257 -0.88159126 176.57495 -0.8699429 176.71451 -15.118167 -92.60025
30900000000 -14.833486 -86.504761 -0.86911851 174.87563 -0.88323081 174.92586 -15.274288 -90.90197
31000000000 -15.19046 -85.119484 -0.86693686 173.12238 -0.85410297 173.12709 -15.338671 -96.477234
31100000000 -15.124464 -88.414642 -0.83949155 171.2803 -0.84152466 171.18578 -15.481006 -97.058632
31200000000 -15.526146 -88.595665 -0.84538734 169.5334 -0.83628809 169.48903 -15.580749 -97.391174
31300000000 -15.371997 -87.288353 -0.83517253 167.64523 -0.833866 167.53557 -15.873391 -98.737381
31400000000 -15.954093 -85.168106 -0.81924266 165.94397 -0.81607813 165.81779 -16.237579 -100.69366
31500000000 -16.141062 -86.210495 -0.80313993 164.21092 -0.82210827 164.13455 -17.066023 -101.61226
31600000000 -16.970112 -87.608238 -0.8255583 162.29272 -0.8469286 162.31874 -17.041965 -105.98224
31700000000 -16.710081 -89.497421 -0.81853592 160.57964 -0.83020842 160.24611 -17.611477 -106.28279
31800000000 -17.055368 -90.972015 -0.8258974 158.69524 -0.82339942 158.55298 -17.290445 -109.88433
31900000000 -16.632408 -87.479774 -0.79691708 156.90442 -0.7958113 156.90114 -17.840418 -108.99004
32000000000 -17.390924 -86.789253 -0.82375425 155.10822 -0.80840552 155.026 -18.086502 -109.95663
32100000000 -18.13043 -83.134949 -0.80218792 153.17189 -0.79080999 153.33972 -19.249107 -108.51817
32200000000 -18.960449 -88.541191 -0.81552649 151.7347 -0.82307434 151.56798 -19.948477 -113.03115
32300000000 -18.922487 -86.556412 -0.81094825 149.67224 -0.82512039 149.63808 -20.881287 -115.04909
32400000000 -18.821995 -90.434631 -0.80961621 147.86304 -0.81075358 147.82164 -20.97649 -123.28822
32500000000 -19.037386 -83.422768 -0.7808165 146.11734 -0.7944988 146.26553 -21.397459 -119.81931
32600000000 -18.782248 -83.850067 -0.78644788 144.18007 -0.80863321 144.18703 -21.676302 -120.98496
32700000000 -19.920624 -73.767014 -0.7901507 142.46317 -0.82392263 142.33034 -22.697893 -116.90704
32800000000 -19.675404 -77.171883 -0.79164636 140.6581 -0.80558264 140.64268 -23.746294 -110.92808
32900000000 -20.759459 -73.942879 -0.79471636 138.81026 -0.79652333 138.8484 -26.00037 -114.21359
33000000000 -20.470741 -75.018913 -0.79910022 136.91714 -0.79315007 136.98318 -27.648605 -116.51617
33100000000 -20.70668 -69.930855 -0.8040958 135.3445 -0.81390297 135.25882 -29.539373 -124.31155
33200000000 -20.001574 -69.465981 -0.80654627 133.31992 -0.80300695 133.36772 -28.360914 -115.6916
33300000000 -20.638664 -65.469193 -0.79983211 131.66605 -0.82542688 131.50084 -31.879517 -120.72195
33400000000 -20.128149 -60.382484 -0.82134885 129.77599 -0.81104183 129.71201 -29.899155 -97.389999
33500000000 -20.294798 -60.830063 -0.81905168 127.89312 -0.83220863 128.01109 -33.369705 -73.158699
33600000000 -19.774996 -55.434227 -0.80694771 126.4303 -0.85295641 126.29495 -33.801727 -54.863678
33700000000 -20.075115 -57.311707 -0.87354958 124.56409 -0.8476938 124.50391 -36.948833 -23.342798
33800000000 -20.008183 -52.519871 -0.83692139 122.79404 -0.7882573 122.69532 -32.939484 -22.676477
33900000000 -20.10565 -53.623402 -0.85391104 120.8599 -0.84176534 120.85622 -34.059307 -17.78952
34000000000 -19.459433 -47.117092 -0.84484333 119.21605 -0.8193152 119.04013 -28.458309 -9.2295542
34100000000 -19.122231 -49.34576 -0.85693967 117.18744 -0.83008558 117.30589 -28.633759 -2.5188296
34200000000 -19.030687 -42.074398 -0.87739116 115.59501 -0.83965802 115.45218 -24.968977 8.4414177
34300000000 -18.907459 -42.10339 -0.85684693 113.83802 -0.84939891 113.54918 -26.119658 13.274892
34400000000 -18.803205 -39.731007 -0.86678672 111.99298 -0.85604799 111.90068 -24.689159 10.826694
34500000000 -18.308445 -42.408379 -0.88332754 110.01576 -0.87199444 109.97517 -24.807199 4.3224826
34600000000 -18.215626 -38.355015 -0.85142684 108.08842 -0.87322772 108.13478 -22.623648 0.96573615
34700000000 -17.489157 -39.452335 -0.85950398 106.3932 -0.90499455 106.38605 -21.747978 0.87295538
34800000000 -17.888432 -35.478622 -0.88807935 104.74937 -0.87229347 104.79172 -20.375372 5.9308515
34900000000 -17.311565 -35.94278 -0.88449705 102.68008 -0.87354863 102.8132 -20.024611 10.01409
35000000000 -17.131592 -35.158623 -0.85502702 101.15714 -0.86923456 101.076 -20.357239 11.37186
35100000000 -16.268703 -35.477329 -0.90312344 99.043312 -0.93571895 99.068123 -19.801746 5.7224426
35200000000 -16.302713 -32.982506 -0.90438086 97.510773 -0.9044134 97.640617 -19.228672 -0.63872367
35300000000 -15.732521 -34.436661 -0.89421701 95.887299 -0.88990015 95.528458 -18.033823 -3.2188315
35400000000 -15.87958 -33.996288 -0.9295612 94.041306 -0.89960706 93.830276 -17.313665 -4.2658219
35500000000 -15.273181 -32.341591 -0.93711919 92.076508 -0.95125186 92.170586 -16.917902 -2.6007228
35600000000 -15.603184 -36.604992 -0.96796316 90.4851 -0.93055719 90.36377 -16.414309 -3.7023237
35700000000 -14.902649 -36.575623 -0.92579782 88.579865 -0.96271545 88.499886 -16.665977 -4.528399
35800000000 -14.713903 -38.089836 -0.93630981 86.86203 -0.94313139 86.890915 -15.971349 -8.619832
35900000000 -14.459631 -35.088661 -0.93879133 85.040855 -0.92824417 84.872879 -16.207743 -12.351812
36000000000 -14.087672 -38.323425 -0.96813983 83.187729 -0.95174849 83.179993 -14.636325 -13.476171
36100000000 -13.988806 -35.422237 -0.98040265 81.499077 -1.0215393 81.438103 -15.083365 -12.150389
36200000000 -13.915323 -40.268433 -1.0015385 79.859886 -0.96810162 79.795677 -14.220715 -15.324533
36300000000 -14.046775 -39.005119 -0.99926794 77.93692 -0.99102998 77.819412 -14.922171 -15.689317
36400000000 -13.662671 -43.582329 -0.96301985 76.049614 -0.98081762 76.024055 -14.188472 -19.629185
36500000000 -13.353885 -42.46822 -0.97525364 74.221107 -0.93283325 74.370567 -14.268437 -24.455425
36600000000 -12.530049 -42.779068 -0.98997706 72.690422 -0.99498242 72.774864 -13.109125 -22.22967
36700000000 -12.990909 -40.854195 -1.0205419 70.822609 -1.0153614 70.958054 -13.446864 -25.784086
36800000000 -12.55818 -40.84071 -1.0158733 69.302345 -1.0562445 69.279243 -12.940623 -20.913416
36900000000 -13.260232 -42.974831 -1.0673115 67.192024 -1.0393256 67.363525 -13.505032 -25.292051
37000000000 -12.419025 -43.940254 -1.1130741 65.696671 -1.1059244 65.779358 -13.406898 -24.24876
37100000000 -12.166794 -49.775444 -1.0943787 63.794254 -1.062557 63.752796 -13.298368 -31.000433
37200000000 -11.843493 -45.98798 -1.0664749 62.122128 -1.070298 62.340019 -12.524367 -33.026688
37300000000 -11.709426 -47.123745 -1.0607713 60.476669 -1.0627851 60.449947 -11.750973 -34.987793
37400000000 -11.656826 -44.935478 -1.0205245 58.772686 -1.0532134 59.009407 -11.592251 -32.40538
37500000000 -11.802508 -49.281536 -1.0970262 57.208145 -1.0873343 57.290668 -11.836797 -33.847141
37600000000 -11.919491 -50.011204 -1.0493137 55.574734 -1.0729491 55.583981 -12.062179 -32.419521
37700000000 -11.436159 -54.994022 -1.1004981 53.805943 -1.0899333 53.625351 -12.302934 -37.439255
37800000000 -11.373063 -52.953789 -1.1058739 51.927986 -1.0801243 51.732685 -12.08853 -42.473804
37900000000 -11.046095 -53.779953 -1.0523181 50.217739 -1.0948521 50.235817 -11.876438 -45.654362
38000000000 -11.371725 -53.698154 -1.0572628 48.33429 -1.1267763 48.690247 -11.159316 -46.556469
38100000000 -11.36254 -55.03167 -1.065787 46.665882 -1.1366813 46.577412 -11.142843 -45.434799
38200000000 -11.459775 -56.874592 -1.056571 45.068382 -1.0919379 44.722065 -11.124839 -44.156822
38300000000 -11.107484 -58.587048 -1.1311949 43.356812 -1.0770295 43.600945 -11.256621 -46.529652
38400000000 -11.044836 -59.216328 -1.0849987 41.38126 -1.1195695 41.784184 -11.741926 -48.748806
38500000000 -10.830733 -60.763298 -1.0775411 39.816551 -1.0956188 39.873062 -11.526228 -52.721123
38600000000 -11.363961 -59.581013 -1.1041716 38.26672 -1.1147966 38.445908 -11.054329 -55.830097
38700000000 -10.838765 -60.791565 -1.1422554 36.105412 -1.1105027 36.432194 -10.649017 -57.028179
38800000000 -11.327899 -63.392925 -1.1195514 34.725384 -1.0795945 34.671848 -10.906206 -55.45018
38900000000 -11.166211 -63.516346 -1.1014264 32.827972 -1.1219734 33.08025 -11.20655 -58.70805
39000000000 -11.223749 -65.434227 -1.1318002 31.080296 -1.1112372 31.143976 -11.529094 -58.506607
39100000000 -11.132874 -66.016418 -1.0829401 29.439243 -1.0818052 29.283915 -11.049779 -65.399925
39200000000 -10.773677 -69.565628 -1.1203977 27.744938 -1.0967476 27.474369 -11.069167 -65.606789
39300000000 -11.000821 -67.650917 -1.0391003 25.782856 -1.0895566 25.84045 -10.389813 -67.332306
39400000000 -11.265585 -69.569977 -1.1073679 24.479099 -1.1691555 24.404161 -10.787416 -65.286263
39500000000 -11.821568 -67.475159 -1.1237088 22.319782 -1.0742059 22.463148 -10.985908 -68.034866
39600000000 -11.292223 -72.896538 -1.0844736 20.73665 -1.1540349 20.736885 -11.668138 -67.870308
39700000000 -11.502953 -75.385468 -1.1281236 18.571291 -1.0854264 18.743282 -11.77443 -75.483543
39800000000 -10.828303 -74.36068 -1.1286044 17.011955 -1.1535825 17.052784 -11.441929 -75.918571
39900000000 -11.325624 -72.273804 -1.0944897 15.221956 -1.0682462 15.401445 -10.881089 -80.081192
40000000000 -11.238205 -72.645752 -1.0933774 13.69272 -1.060158 13.75875 -10.666403 -76.337547
40100000000 -12.1439 -77.043526 -1.1412032 12.225885 -1.1496686 11.848126 -10.94329 -76.599808
40200000000 -11.883526 -76.526649 -1.0586156 10.485642 -1.0628059 10.422884 -11.770259 -76.540062
40300000000 -11.974994 -82.580147 -1.0561026 7.9481583 -1.164621 8.1039419 -11.809054 -78.975945
40400000000 -11.36187 -78.830879 -1.110028 6.7532635 -1.1082379 6.8799911 -12.28808 -85.454796
40500000000 -11.634447 -77.211159 -1.1258782 5.2728624 -1.1242293 5.0759664 -11.761112 -88.328621
40600000000 -11.675964 -75.096207 -1.0923307 3.3983946 -1.0901451 3.1009383 -11.790212 -87.815445
40700000000 -11.925597 -81.642365 -1.0657085 1.4349363 -1.0786045 1.0304263 -11.494693 -88.748299
40800000000 -12.32408 -81.253067 -1.1233639 0.071485952 -1.0935509 0.018184623 -11.898831 -85.618118
40900000000 -11.907245 -82.850494 -1.1042928 -1.4517499 -1.064294 -1.9669572 -12.775064 -88.729652
41000000000 -11.7968 -83.576042 -1.1267689 -3.672282 -1.0881642 -3.4860551 -12.883303 -90.490761
41100000000 -12.083388 -85.398605 -1.1382989 -5.3744988 -1.1098946 -5.5537233 -12.656006 -95.533653
41200000000 -12.460471 -81.634521 -1.0612909 -7.1736379 -1.0925387 -6.8571315 -12.754756 -97.020645
41300000000 -12.463205 -84.152924 -1.0291432 -8.8246469 -1.069279 -9.1122961 -12.913063 -99.060303
41400000000 -12.944552 -87.126694 -1.0768603 -10.27017 -1.1298109 -10.759101 -12.967547 -97.21212
41500000000 -12.715147 -86.717659 -1.0941979 -12.644004 -1.071121 -12.324076 -12.965872 -98.522476
41600000000 -13.060857 -85.893875 -1.0901299 -14.211872 -1.0633301 -14.319213 -13.580309 -99.938164
41700000000 -12.852712 -86.492386 -1.024794 -15.860285 -1.0432969 -15.690628 -13.941715 -103.00716
41800000000 -13.301435 -87.947563 -1.0533242 -17.556452 -1.0671377 -17.796312 -14.049294 -105.15355
41900000000 -13.626105 -86.521606 -0.98917079 -19.669798 -1.078253 -19.917212 -14.068316 -109.26486
42000000000 -14.00129 -87.948364 -1.0517597 -21.308529 -1.0491064 -20.865845 -14.611062 -107.21738
42100000000 -13.584862 -85.738472 -0.95985019 -22.538826 -1.0285858 -22.847031 -14.42913 -110.74516
42200000000 -14.584321 -89.170921 -1.0048758 -24.580242 -1.0020941 -24.402798 -15.573389 -108.76381
42300000000 -15.188896 -84.699165 -0.97185004 -26.741377 -0.97614127 -26.206944 -15.252971 -113.20245
42400000000 -15.34173 -92.178001 -1.0119959 -28.014986 -1.0053411 -27.956816 -16.599802 -116.03045
42500000000 -14.80764 -86.730858 -1.0275706 -29.972824 -0.93681949 -30.326744 -16.396509 -118.52705
42600000000 -14.064083 -89.669426 -0.96866649 -31.575691 -0.97948986 -31.723484 -17.607136 -121.37337
42700000000 -16.005928 -82.883347 -0.97739893 -33.772156 -0.97766089 -33.973698 -16.637003 -121.46821
42800000000 -15.586919 -85.252472 -0.94266665 -35.747841 -1.032267 -35.098892 -17.535742 -123.21246
42900000000 -18.271368 -83.316772 -1.0123551 -37.315517 -1.023883 -36.899242 -18.423616 -117.05973
43000000000 -16.139217 -87.209877 -0.99335194 -38.626358 -0.95173782 -38.995842 -18.409266 -115.87065
43100000000 -17.420078 -90.913696 -1.0284956 -41.064163 -0.92505753 -40.824005 -21.626347 -127.27339
43200000000 -15.572614 -82.450958 -0.92197722 -42.076977 -0.95045274 -42.785774 -21.652306 -134.78049
43300000000 -17.388634 -82.41996 -0.95797396 -44.358826 -0.91108441 -44.730366 -21.54632 -135.68182
43400000000 -16.498314 -73.971802 -0.92091662 -46.670338 -0.93927687 -46.355618 -20.874966 -131.86192
43500000000 -17.620291 -76.833069 -0.91013563 -48.470058 -0.95626539 -48.792263 -21.628658 -131.50677
43600000000 -18.522087 -67.55159 -0.90250838 -50.050053 -0.97813332 -50.585144 -23.564564 -120.67487
43700000000 -18.260208 -80.464066 -0.96619177 -52.42971 -0.96994501 -52.653278 -26.788361 -121.59631
43800000000 -17.381031 -75.87883 -0.98292154 -53.82901 -0.88273436 -54.009262 -32.487022 -107.08431
43900000000 -17.56074 -73.193977 -0.99161214 -55.622658 -0.93726182 -55.557919 -31.654253 -150.13319
44000000000 -17.047626 -58.419655 -0.83429885 -57.469902 -0.89705873 -57.361916 -31.526173 -141.71465
44100000000 -17.369267 -60.488354 -0.93325651 -59.475895 -0.96858335 -59.122051 -33.763641 -103.15935
44200000000 -17.848934 -56.411625 -0.89724332 -61.103146 -1.0120622 -61.330265 -30.591383 -87.094521
44300000000 -17.306099 -58.982327 -0.94226015 -62.716164 -0.93337303 -62.617973 -29.422409 -11.293932
44400000000 -17.347986 -61.379005 -0.96130633 -64.331268 -0.95442653 -64.543114 -29.243422 -3.9976811
44500000000 -16.593134 -59.2258 -0.98789763 -67.057602 -0.94285959 -66.45491 -29.618158 -1.2797002
44600000000 -16.333281 -53.145565 -0.96322858 -68.284424 -0.98628443 -68.522743 -29.320833 3.7700267
44700000000 -15.852142 -47.911343 -0.94327134 -70.151421 -0.9595415 -70.326439 -28.031252 -7.7707157
44800000000 -16.763927 -48.992798 -1.0007038 -71.186577 -0.97852856 -72.192467 -23.2297 -10.219318
44900000000 -16.610823 -48.74807 -1.0669389 -74.093788 -0.94916195 -73.644043 -22.732019 -10.45945
45000000000 -16.868288 -47.11338 -0.99665034 -75.849663 -0.9629581 -75.946365 -21.091547 -0.29360902
