!Keysight Technologies,N5247B,MY61255062,A.19.80.06
!Date: Monday, May 18, 2026 12:34:13
!Correction: S11(Cdelta 2-Port  ) 
!S21(Cdelta 2-Port  ) 
!S12(Cdelta 2-Port  ) 
!S22(Cdelta 2-Port  ) 
!S2P File: Measurements: S11, S21, S12, S22:
# Hz S  dB   R 50
1000000000 -23.613966 27.154779 -0.40268755 -18.475138 -0.39870444 -18.479874 -23.963346 28.246708
1100000000 -23.228584 27.105671 -0.41311044 -20.286417 -0.40945908 -20.278116 -23.617764 28.756573
1200000000 -22.832964 27.247593 -0.42413232 -22.061348 -0.41998321 -22.054132 -23.18766 29.605919
1300000000 -22.454931 26.914957 -0.43067098 -23.8699 -0.42751181 -23.858088 -22.784975 29.141781
1400000000 -22.062397 26.97858 -0.43891829 -25.592876 -0.43639851 -25.603754 -22.371355 29.744989
1500000000 -21.720068 26.366592 -0.44424781 -27.380486 -0.43942609 -27.3764 -21.968985 29.213156
1600000000 -21.368437 25.823553 -0.44879991 -29.170256 -0.44393271 -29.163485 -21.655037 28.387434
1700000000 -21.042488 25.032547 -0.45363551 -30.92734 -0.44926897 -30.934809 -21.309509 27.952791
1800000000 -20.717121 24.038845 -0.45648333 -32.722015 -0.45402145 -32.704018 -20.979387 27.102692
1900000000 -20.430592 23.055815 -0.45940986 -34.498917 -0.45748356 -34.497433 -20.674606 26.149391
2000000000 -20.170755 22.101286 -0.46549585 -36.311241 -0.46277115 -36.302811 -20.436922 25.125519
2100000000 -19.897232 20.902636 -0.47046348 -38.084553 -0.46676332 -38.06757 -20.149965 24.38343
2200000000 -19.677332 19.900299 -0.47508761 -39.864693 -0.47118011 -39.857349 -19.919048 23.347162
2300000000 -19.460157 18.74143 -0.48110428 -41.656673 -0.47645408 -41.642784 -19.676355 22.314659
2400000000 -19.239779 17.675966 -0.48699781 -43.43026 -0.48175353 -43.430927 -19.460808 21.36285
2500000000 -19.021955 16.461485 -0.49072829 -45.215057 -0.4878704 -45.201035 -19.250534 20.011564
2600000000 -18.825933 15.301014 -0.50077599 -46.990025 -0.49496645 -46.987766 -19.090145 19.063267
2700000000 -18.647675 14.047906 -0.50464076 -48.756561 -0.50219852 -48.752602 -18.928818 17.931364
2800000000 -18.480463 12.920837 -0.5091626 -50.534977 -0.50773197 -50.53772 -18.756138 16.772022
2900000000 -18.312117 11.823249 -0.51606822 -52.294662 -0.51032293 -52.283764 -18.578997 15.53062
3000000000 -18.164946 10.520423 -0.52016222 -54.068863 -0.51750773 -54.057835 -18.408459 14.623712
3100000000 -18.022766 9.3334255 -0.5240221 -55.821854 -0.52092975 -55.824535 -18.277142 13.588822
3200000000 -17.85162 7.8773932 -0.52825195 -57.600098 -0.52556443 -57.584457 -18.104128 12.333657
3300000000 -17.737301 6.4645481 -0.53389812 -59.342823 -0.52933407 -59.344639 -17.965319 11.124032
3400000000 -17.591652 5.1326146 -0.537687 -61.12085 -0.53368181 -61.109039 -17.852465 9.8523455
3500000000 -17.498983 3.8249683 -0.54143077 -62.874393 -0.53694028 -62.867683 -17.703096 8.6271706
3600000000 -17.335957 2.4147177 -0.54243374 -64.627892 -0.53980571 -64.625237 -17.55719 7.337903
3700000000 -17.240595 1.1093981 -0.54559487 -66.377663 -0.54295117 -66.394501 -17.432426 5.8645129
3800000000 -17.098091 -0.33220741 -0.54795563 -68.15554 -0.54351115 -68.148499 -17.314764 4.5363913
3900000000 -17.018223 -1.8107824 -0.54900211 -69.933281 -0.54603547 -69.924271 -17.21751 3.1166401
4000000000 -16.904982 -3.2438977 -0.55151874 -71.68821 -0.54939634 -71.682526 -17.106033 1.8364003
4100000000 -16.833719 -4.7706685 -0.55518097 -73.460335 -0.55445004 -73.452446 -17.03425 0.46929663
4200000000 -16.751402 -6.1702557 -0.55932057 -75.221268 -0.5570122 -75.20047 -16.936438 -0.82984322
4300000000 -16.674345 -7.7655587 -0.56054151 -76.970169 -0.5579437 -76.960991 -16.865225 -2.3729203
4400000000 -16.591396 -9.0222149 -0.56153917 -78.729568 -0.55961472 -78.719116 -16.76989 -3.6592624
4500000000 -16.520779 -10.488809 -0.5639413 -80.484238 -0.56113881 -80.480515 -16.714846 -5.2316351
4600000000 -16.466095 -11.90726 -0.56376153 -82.256554 -0.56416327 -82.243118 -16.659122 -6.5354915
4700000000 -16.421021 -13.535069 -0.56638402 -84.009705 -0.56349891 -84.010948 -16.597473 -8.1059151
4800000000 -16.377981 -14.965969 -0.56763405 -85.783745 -0.56739515 -85.769478 -16.545155 -9.5210133
4900000000 -16.32933 -16.528933 -0.57032651 -87.552269 -0.56717181 -87.53614 -16.498796 -11.149077
5000000000 -16.301416 -17.924604 -0.5703519 -89.319359 -0.56823182 -89.30452 -16.453743 -12.492499
5100000000 -16.238029 -19.389814 -0.57399988 -91.077484 -0.57146257 -91.070961 -16.403698 -13.97963
5200000000 -16.233198 -20.892235 -0.57466471 -92.833313 -0.57200885 -92.842773 -16.395119 -15.131571
5300000000 -16.205471 -22.34868 -0.57506275 -94.603592 -0.574233 -94.589432 -16.386776 -16.714596
5400000000 -16.230728 -23.916044 -0.5792743 -96.369568 -0.57552701 -96.362457 -16.406872 -18.184134
5500000000 -16.211315 -25.407969 -0.57855141 -98.126808 -0.57698393 -98.112274 -16.385515 -19.886683
5600000000 -16.233919 -26.961441 -0.57984728 -99.893921 -0.57831043 -99.87529 -16.396244 -21.499342
5700000000 -16.205757 -28.467283 -0.58276314 -101.63496 -0.57938671 -101.63593 -16.337233 -23.03639
5800000000 -16.227921 -30.032181 -0.58315212 -103.40917 -0.58026475 -103.40302 -16.341335 -24.352221
5900000000 -16.245335 -31.374521 -0.58407444 -105.15847 -0.5809198 -105.15122 -16.358105 -25.744772
6000000000 -16.280348 -33.127205 -0.58334869 -106.92278 -0.58116573 -106.9045 -16.437189 -27.145679
6100000000 -16.319448 -34.478649 -0.5858711 -108.66806 -0.58150607 -108.66341 -16.486092 -28.80735
6200000000 -16.34701 -36.10466 -0.58243722 -110.43346 -0.57844764 -110.42031 -16.561213 -30.457893
6300000000 -16.400715 -37.190212 -0.57860792 -112.18013 -0.57878006 -112.17245 -16.515381 -32.077118
6400000000 -16.440855 -38.733608 -0.58031446 -113.93085 -0.57632738 -113.91479 -16.567436 -33.601635
6500000000 -16.52479 -39.787613 -0.57911396 -115.6945 -0.57380962 -115.68177 -16.599373 -34.602879
6600000000 -16.578098 -41.338329 -0.57411128 -117.46468 -0.57172239 -117.45904 -16.697134 -35.851986
6700000000 -16.687485 -42.65501 -0.57154876 -119.23431 -0.56918669 -119.2329 -16.729271 -37.226097
6800000000 -16.686127 -44.028564 -0.57141119 -121.03072 -0.56752199 -121.03311 -16.815969 -38.742695
6900000000 -16.72106 -45.77177 -0.5713793 -122.85672 -0.56997824 -122.83156 -16.803886 -40.594723
7000000000 -16.823633 -47.120071 -0.5723083 -124.54456 -0.57133824 -124.52573 -16.943518 -42.34082
7100000000 -16.926054 -48.290165 -0.56598884 -126.33734 -0.56148523 -126.3299 -16.994593 -43.169113
7200000000 -16.985571 -49.391846 -0.56163371 -128.11386 -0.56040484 -128.09898 -17.091066 -44.53828
7300000000 -17.07802 -51.008774 -0.56040132 -129.92218 -0.55784863 -129.91624 -17.182728 -46.07048
7400000000 -17.156176 -52.341446 -0.56380928 -131.74115 -0.56190181 -131.74071 -17.259729 -48.263405
7500000000 -17.316135 -53.964497 -0.5630303 -133.44743 -0.5623455 -133.44623 -17.368296 -49.621521
7600000000 -17.399899 -54.855522 -0.56208742 -135.27805 -0.5588277 -135.27711 -17.400742 -51.329342
7700000000 -17.526701 -56.395664 -0.56197488 -137.04562 -0.56008029 -137.02116 -17.510275 -52.360401
7800000000 -17.641655 -57.605541 -0.55914861 -138.83673 -0.55941832 -138.82993 -17.683577 -53.64444
7900000000 -17.732885 -59.273693 -0.56258684 -140.6378 -0.55986887 -140.64134 -17.879704 -55.103195
8000000000 -17.918261 -60.685741 -0.56539971 -142.43283 -0.56387085 -142.4315 -18.023129 -57.782867
8100000000 -18.058643 -62.322781 -0.57571942 -144.21475 -0.57180595 -144.20268 -18.091934 -59.994328
8200000000 -18.361313 -63.66151 -0.58107781 -145.92725 -0.5790084 -145.90338 -18.199917 -61.838852
8300000000 -18.614708 -64.333511 -0.56421959 -147.65375 -0.56569636 -147.64285 -18.463428 -61.19627
8400000000 -18.87388 -65.242325 -0.56366128 -149.51076 -0.5614593 -149.49544 -18.867693 -60.465233
8500000000 -19.017315 -65.982681 -0.58124089 -151.39381 -0.57744044 -151.39568 -19.95849 -61.331547
8600000000 -19.013201 -67.919128 -0.65310717 -153.06406 -0.64907444 -153.04239 -22.046705 -65.543259
8700000000 -20.051226 -73.051086 -0.60633141 -153.52324 -0.60139602 -153.52576 -25.42271 -45.986301
8800000000 -19.941832 -66.226059 -0.44321194 -156.18124 -0.44279 -156.17509 -22.208952 -53.558189
8900000000 -19.731344 -69.76162 -0.49645728 -158.44298 -0.4944669 -158.42441 -21.385593 -68.066147
9000000000 -20.081284 -72.108063 -0.52553231 -160.26019 -0.52431798 -160.26286 -20.751024 -76.519569
9100000000 -20.367836 -72.375496 -0.53923273 -162.05151 -0.53791642 -162.04483 -20.325121 -77.798218
9200000000 -20.583378 -73.333176 -0.54527968 -163.81187 -0.54527968 -163.82141 -20.180281 -77.960594
9300000000 -20.896519 -73.171219 -0.54703599 -165.59023 -0.54566383 -165.58281 -20.581024 -76.372314
9400000000 -21.138975 -74.54351 -0.5509395 -167.35603 -0.54758155 -167.36095 -20.97666 -77.005379
9500000000 -21.547449 -74.863297 -0.55034679 -169.15382 -0.54757565 -169.1431 -21.642057 -78.567451
9600000000 -21.812653 -75.491264 -0.55317259 -170.94377 -0.54872394 -170.93005 -21.983053 -81.597313
9700000000 -22.262978 -75.422203 -0.5536598 -172.71674 -0.54989076 -172.72116 -22.348366 -83.647575
9800000000 -22.492529 -75.598907 -0.55504096 -174.53137 -0.55172592 -174.52635 -22.535126 -85.072502
9900000000 -23.054878 -76.211098 -0.55504507 -176.30704 -0.5533852 -176.30472 -22.983288 -84.985275
10000000000 -23.394798 -75.89624 -0.55789042 -178.10229 -0.55505121 -178.09714 -23.468479 -85.994324
10100000000 -23.92786 -75.847267 -0.56175154 -179.88348 -0.55634129 -179.87526 -24.242182 -87.300491
10200000000 -24.241713 -74.397522 -0.56245512 178.33253 -0.55580431 178.33675 -24.823725 -90.209946
10300000000 -24.797245 -73.718292 -0.56316292 176.53181 -0.56293631 176.52705 -25.436163 -92.508003
10400000000 -25.140518 -71.761482 -0.56560671 174.72292 -0.56138742 174.71623 -25.728027 -94.287697
10500000000 -25.647013 -72.147362 -0.5657081 172.94339 -0.56453496 172.93593 -26.327238 -94.212021
10600000000 -26.031303 -69.178345 -0.5685581 171.13737 -0.56664413 171.16234 -26.998547 -93.25061
10700000000 -26.511278 -67.54644 -0.57204396 169.36728 -0.57075101 169.36131 -28.141878 -92.396652
10800000000 -26.976625 -62.817799 -0.57291758 167.58765 -0.57217598 167.56633 -29.20224 -92.490555
10900000000 -27.390043 -59.616009 -0.57805669 165.77904 -0.57352519 165.7972 -30.765831 -94.834961
11000000000 -27.689438 -54.688587 -0.58216578 164.00464 -0.57651776 163.99193 -31.840422 -96.093246
11100000000 -27.925589 -52.770882 -0.58638895 162.21559 -0.58133113 162.22452 -33.348629 -98.070328
11200000000 -28.236288 -47.800106 -0.58844656 160.42155 -0.58462793 160.42795 -34.437386 -93.603149
11300000000 -28.140232 -43.483288 -0.5924738 158.64607 -0.58576447 158.65549 -36.614918 -91.040573
11400000000 -28.095142 -38.339394 -0.59255511 156.84189 -0.59017265 156.86383 -37.98745 -79.384834
11500000000 -27.761694 -34.354256 -0.59436685 155.07068 -0.59183091 155.08076 -40.404053 -64.515617
11600000000 -27.699778 -29.588551 -0.59858024 153.29276 -0.59453189 153.29486 -41.635921 -35.884743
11700000000 -27.184801 -25.672756 -0.60199302 151.51746 -0.59998822 151.52164 -41.915001 1.1049684
11800000000 -27.064295 -22.040852 -0.60779458 149.73038 -0.60424006 149.75026 -38.866478 15.127138
11900000000 -26.475027 -19.39529 -0.61171854 147.9528 -0.60634899 147.97386 -37.118702 29.502182
12000000000 -26.330784 -16.784374 -0.61416262 146.17645 -0.61375177 146.19879 -34.912136 28.143507
12100000000 -25.691257 -14.466808 -0.61849558 144.40659 -0.61640495 144.42184 -33.723476 34.430817
12200000000 -25.365484 -13.788465 -0.62233543 142.64233 -0.62089008 142.6465 -32.177422 32.313473
12300000000 -24.711628 -12.268146 -0.62665534 140.88069 -0.62732106 140.8773 -30.966423 32.678864
12400000000 -24.422974 -11.568548 -0.63175756 139.11998 -0.6292395 139.10664 -29.686245 32.552486
12500000000 -23.851988 -9.5576601 -0.63406676 137.32523 -0.63309544 137.35934 -28.721472 34.447296
12600000000 -23.583742 -9.6628075 -0.63510484 135.55855 -0.63471836 135.59291 -27.817995 32.92448
12700000000 -23.169783 -8.0984325 -0.63494426 133.80388 -0.63372052 133.82671 -27.14323 32.929993
12800000000 -22.899799 -9.3872671 -0.63591152 132.07224 -0.63435465 132.06151 -26.360741 31.430307
12900000000 -22.461182 -8.3933907 -0.639633 130.28911 -0.63561904 130.31476 -25.799707 31.648344
13000000000 -22.071009 -9.2989206 -0.63546139 128.53235 -0.63386011 128.52834 -25.094759 29.759237
13100000000 -21.755255 -8.0050097 -0.63816416 126.73943 -0.63569307 126.7512 -24.654703 30.059776
13200000000 -21.306662 -8.7958984 -0.63561964 124.98081 -0.6351276 124.97055 -23.936726 28.353138
13300000000 -21.105326 -8.0958242 -0.63767695 123.17654 -0.63325834 123.17621 -23.475677 26.778141
13400000000 -20.604315 -8.9341831 -0.6392656 121.36243 -0.63313615 121.38499 -22.745493 25.312237
13500000000 -20.362669 -8.6861696 -0.64032924 119.56699 -0.63849074 119.58242 -22.253164 24.831997
13600000000 -19.85759 -9.8906851 -0.64426321 117.74718 -0.64383805 117.741 -21.618757 23.389099
13700000000 -19.584488 -11.452577 -0.66899341 115.96471 -0.66830349 115.99422 -21.363354 21.217129
13800000000 -19.435736 -12.454283 -0.66314667 114.36129 -0.66149747 114.35888 -21.207817 20.068945
13900000000 -19.313759 -12.843995 -0.6542443 112.56899 -0.65134716 112.57635 -20.982725 18.953691
14000000000 -18.931274 -12.420424 -0.6503467 110.7591 -0.64767784 110.77467 -20.40131 17.625673
14100000000 -18.785715 -13.409581 -0.6524601 108.95687 -0.65388203 108.97169 -20.13302 16.196278
14200000000 -18.450953 -13.775462 -0.65297931 107.13992 -0.6516332 107.15823 -19.617847 15.149826
14300000000 -18.252731 -15.494493 -0.65606934 105.33768 -0.65581256 105.35375 -19.426037 13.849637
14400000000 -17.95742 -15.733445 -0.66279417 103.53906 -0.65801924 103.52634 -18.989489 12.363634
14500000000 -17.652969 -17.538309 -0.67273766 101.69482 -0.67347968 101.69674 -18.777994 10.090571
14600000000 -17.380672 -18.576023 -0.70429975 99.944534 -0.70325899 99.942047 -18.475166 7.5792212
14700000000 -17.435074 -20.417692 -0.6935932 98.409103 -0.69231731 98.411552 -18.529501 5.903254
14800000000 -17.353601 -20.119026 -0.67860246 96.580338 -0.6799776 96.579269 -18.186577 5.9821835
14900000000 -17.072348 -21.899433 -0.67869055 94.74469 -0.67874318 94.749336 -18.023495 4.65205
15000000000 -16.916578 -22.953341 -0.68543023 92.943581 -0.68436521 92.943687 -17.770262 2.8752451
15100000000 -16.582329 -24.327351 -0.69123632 91.141861 -0.69006914 91.139153 -17.581079 0.26693863
15200000000 -16.583933 -25.27846 -0.70398223 89.413475 -0.69748092 89.399292 -17.358335 -1.9466014
15300000000 -16.283695 -26.132172 -0.70067394 87.606606 -0.69874161 87.619926 -17.101114 -3.6573226
15400000000 -16.273186 -27.801645 -0.71260446 85.826714 -0.71291679 85.819756 -16.845665 -5.0604062
15500000000 -16.042761 -29.205233 -0.71320474 84.070473 -0.71074301 84.101715 -16.779568 -6.3271246
15600000000 -15.962546 -31.231464 -0.71701849 82.275002 -0.71790034 82.277328 -16.663038 -7.2107596
15700000000 -15.714147 -32.233013 -0.72706926 80.506905 -0.7286303 80.504242 -16.561983 -10.174792
15800000000 -15.686566 -33.976078 -0.73975796 78.754082 -0.73740226 78.766121 -16.416931 -12.336556
15900000000 -15.583137 -34.629517 -0.74966866 77.02607 -0.74630111 77.028893 -16.278404 -15.193054
16000000000 -15.59634 -36.989086 -0.75631708 75.31353 -0.7566902 75.332199 -16.149393 -16.689411
16100000000 -15.582772 -37.853863 -0.75802183 73.646049 -0.7628004 73.658539 -16.050346 -18.583944
16200000000 -15.543205 -40.374908 -0.76214045 71.966614 -0.76180202 71.970634 -16.078527 -18.961451
16300000000 -15.554678 -40.766685 -0.75649703 70.279785 -0.75335473 70.278488 -16.071444 -20.953295
16400000000 -15.420195 -41.941864 -0.74414402 68.524292 -0.74337113 68.567139 -16.06675 -21.749737
16500000000 -15.499159 -41.815346 -0.73511869 66.774147 -0.7352429 66.773911 -15.992849 -24.106714
16600000000 -15.390253 -42.951057 -0.73133534 64.986511 -0.73135495 64.991974 -15.831437 -24.964508
16700000000 -15.508283 -44.045223 -0.73214692 63.194523 -0.72621304 63.186195 -15.679448 -26.933594
16800000000 -15.318916 -45.704796 -0.72993958 61.417873 -0.72797918 61.408844 -15.647947 -27.294479
16900000000 -15.360902 -47.354183 -0.73344618 59.609581 -0.7309742 59.632305 -15.54677 -29.459425
17000000000 -15.117058 -47.957077 -0.72998494 57.842686 -0.72968024 57.866238 -15.632855 -30.791136
17100000000 -15.169411 -48.944469 -0.7308253 56.08873 -0.7332893 56.086029 -15.496755 -33.225712
17200000000 -15.125419 -49.227306 -0.73784065 54.285084 -0.73647439 54.303909 -15.55476 -34.808464
17300000000 -15.226656 -51.33564 -0.73906988 52.576511 -0.73686701 52.551044 -15.34819 -36.762253
17400000000 -15.254058 -52.437714 -0.74214929 50.78524 -0.74007595 50.784195 -15.384566 -37.980812
17500000000 -15.200711 -55.140881 -0.74444729 49.024616 -0.74396092 49.003773 -15.276694 -39.304226
17600000000 -15.133628 -55.505779 -0.74193341 47.241444 -0.74311215 47.264763 -15.456101 -41.033077
17700000000 -15.063291 -57.186581 -0.74950105 45.502842 -0.74870127 45.483128 -15.436543 -42.78175
17800000000 -15.15919 -57.007874 -0.7504372 43.745308 -0.74958652 43.758656 -15.548655 -45.608322
17900000000 -15.209314 -58.57851 -0.74860042 41.968605 -0.74623746 42.005905 -15.419493 -47.829697
18000000000 -15.395252 -60.058475 -0.75064027 40.191051 -0.75442356 40.215244 -15.405493 -49.75647
18100000000 -15.304379 -62.473091 -0.75288093 38.472233 -0.75085723 38.467197 -15.26799 -50.700363
18200000000 -15.379749 -63.734955 -0.75796109 36.712498 -0.75446266 36.769718 -15.393528 -51.890171
18300000000 -15.276145 -64.869644 -0.75738817 35.053276 -0.75188202 35.029583 -15.573226 -53.015438
18400000000 -15.535351 -65.181084 -0.74145007 33.296646 -0.74143869 33.310452 -15.794855 -54.890797
18500000000 -15.506849 -65.677605 -0.74300218 31.497189 -0.74321568 31.506882 -15.859158 -57.575703
18600000000 -15.767188 -67.180733 -0.74109143 29.68626 -0.73970759 29.694582 -15.843843 -60.719925
18700000000 -15.698288 -68.335838 -0.73939794 27.924448 -0.73916501 27.946558 -15.690546 -62.06078
18800000000 -15.841898 -70.259819 -0.73880869 26.139418 -0.73834109 26.182352 -15.656089 -63.045815
18900000000 -15.774541 -70.591293 -0.73629564 24.435652 -0.73345387 24.435472 -15.732862 -63.241283
19000000000 -15.937127 -72.245552 -0.73700625 22.681221 -0.73735595 22.694094 -16.061289 -64.394966
19100000000 -16.09219 -71.798462 -0.73637414 20.909233 -0.7309491 20.927908 -16.257677 -66.531883
19200000000 -16.227262 -73.713951 -0.73190546 19.165257 -0.7359457 19.183115 -16.543354 -69.774536
19300000000 -16.428343 -73.63681 -0.73047429 17.386551 -0.72901487 17.402336 -16.449804 -72.228271
19400000000 -16.44039 -76.004662 -0.73008382 15.65223 -0.72897047 15.632482 -16.533712 -74.026482
19500000000 -16.727098 -76.40976 -0.72621763 13.873564 -0.72648567 13.871611 -16.519581 -74.620544
19600000000 -16.640648 -77.873245 -0.72357118 12.081724 -0.72197735 12.084484 -16.778595 -76.175636
19700000000 -17.016212 -78.211769 -0.71931756 10.324973 -0.72061121 10.349447 -17.005705 -77.045906
19800000000 -16.978891 -78.939125 -0.71677423 8.5347452 -0.71766734 8.5308132 -17.329046 -80.469398
19900000000 -17.406055 -79.557732 -0.71568316 6.753089 -0.7092073 6.7708259 -17.453091 -82.009781
20000000000 -17.500126 -80.233398 -0.71782887 4.9918017 -0.71450728 4.9905052 -17.584978 -84.67202
20100000000 -17.95941 -81.486862 -0.71860063 3.1776705 -0.71644175 3.183629 -17.769135 -84.83786
20200000000 -17.883303 -82.22757 -0.72072399 1.4625536 -0.72067052 1.4773917 -17.946856 -86.776718
20300000000 -18.113962 -84.174324 -0.7126447 -0.28776437 -0.71646249 -0.29147634 -18.417376 -87.410477
20400000000 -18.182928 -83.024643 -0.70245677 -2.0418193 -0.6990937 -2.0434787 -18.633575 -91.981796
20500000000 -18.523762 -84.029076 -0.70225048 -3.8331454 -0.70309955 -3.8350172 -18.916126 -94.381378
20600000000 -18.881172 -82.661667 -0.69112617 -5.6705627 -0.69562167 -5.6471429 -18.832979 -97.590782
20700000000 -19.228134 -85.435501 -0.68863684 -7.438386 -0.68920112 -7.4384212 -19.218349 -97.138702
20800000000 -19.596481 -84.96701 -0.6885134 -9.2481318 -0.68644911 -9.2619905 -19.366774 -98.029274
20900000000 -19.655512 -86.406021 -0.68345678 -11.055787 -0.67747831 -11.041956 -20.208284 -97.640312
21000000000 -20.01527 -84.51181 -0.68556237 -12.845197 -0.68124348 -12.882863 -20.747948 -101.07426
21100000000 -20.097942 -82.942932 -0.68724746 -14.68552 -0.68096489 -14.704348 -21.492922 -104.14198
21200000000 -20.781395 -80.453362 -0.68704277 -16.514454 -0.68839175 -16.539276 -21.713745 -108.74774
21300000000 -20.863581 -79.531456 -0.70233357 -18.316505 -0.69721889 -18.320433 -21.992369 -110.22251
21400000000 -21.326035 -79.953316 -0.70916855 -20.073254 -0.70401448 -20.073162 -22.051792 -108.3711
21500000000 -21.065262 -81.488625 -0.68922782 -21.734138 -0.69084752 -21.723009 -22.264488 -108.77453
21600000000 -21.771358 -81.792061 -0.67656046 -23.537371 -0.67546403 -23.561596 -23.073168 -108.84684
21700000000 -21.647341 -78.067352 -0.67222327 -25.370094 -0.67163283 -25.39992 -24.457624 -111.06129
21800000000 -22.228317 -75.121513 -0.67077392 -27.196022 -0.67389655 -27.197277 -25.599506 -115.87048
21900000000 -22.293606 -70.453743 -0.67761111 -29.021574 -0.67371517 -29.027411 -27.025892 -120.64288
22000000000 -23.010725 -68.780655 -0.68438399 -30.876093 -0.68403429 -30.86668 -26.966282 -126.94034
22100000000 -22.841684 -65.695892 -0.69346988 -32.671024 -0.68799293 -32.684116 -27.773251 -125.17573
22200000000 -23.21986 -67.111366 -0.69823235 -34.497967 -0.69902283 -34.498905 -28.362621 -123.36564
22300000000 -22.871094 -63.276951 -0.70258063 -36.230663 -0.69698459 -36.201912 -30.026112 -114.60704
22400000000 -23.164186 -62.565552 -0.69687182 -38.009083 -0.68792409 -38.020401 -32.45248 -118.55098
22500000000 -22.778431 -54.059776 -0.69952703 -39.862568 -0.69375843 -39.859291 -37.94767 -121.71304
22600000000 -22.842216 -53.147022 -0.71025735 -41.630955 -0.70629424 -41.645489 -39.54435 -136.58534
22700000000 -22.938335 -47.565742 -0.72133428 -43.39159 -0.71564656 -43.374691 -44.187256 -151.01268
22800000000 -23.12466 -50.985367 -0.717089 -45.149361 -0.71655226 -45.161125 -42.638489 -140.61357
22900000000 -22.98007 -47.224689 -0.72474557 -46.93008 -0.72710723 -46.954231 -49.725433 -23.801298
23000000000 -22.22048 -48.926285 -0.72777474 -48.688938 -0.72446567 -48.706013 -42.148769 -5.8339887
23100000000 -22.06229 -43.331394 -0.72823876 -50.487038 -0.72188509 -50.448681 -35.253925 29.557043
23200000000 -21.473751 -41.36272 -0.72589761 -52.24966 -0.72542953 -52.216705 -34.146156 38.064308
23300000000 -21.813971 -36.379341 -0.71886516 -53.981716 -0.72255975 -54.0135 -31.806425 50.719666
23400000000 -21.547194 -36.517838 -0.73018795 -55.763096 -0.72795409 -55.805031 -33.012913 36.783386
23500000000 -22.018044 -37.035328 -0.7320118 -57.586212 -0.72535181 -57.594902 -31.383965 34.249477
23600000000 -21.171255 -37.010506 -0.72641534 -59.346626 -0.72507101 -59.327637 -29.20779 16.618876
23700000000 -20.939953 -37.086159 -0.72424793 -61.113243 -0.72270894 -61.131805 -26.59606 24.01832
23800000000 -20.074448 -34.345425 -0.72663504 -62.938492 -0.72875768 -62.921959 -25.146297 25.63002
23900000000 -19.996693 -33.046032 -0.72572201 -64.724403 -0.72496271 -64.741463 -24.317795 33.879772
24000000000 -19.623442 -30.204531 -0.73104799 -66.540421 -0.72368765 -66.554535 -24.678452 31.517963
24100000000 -19.859028 -32.113953 -0.73137641 -68.370453 -0.72649485 -68.331184 -25.014828 28.920073
24200000000 -19.51902 -31.033289 -0.72565961 -70.156601 -0.72302049 -70.135277 -24.111811 17.62038
24300000000 -19.131487 -34.184425 -0.7282899 -71.92379 -0.72571683 -71.945038 -23.109779 13.144949
24400000000 -18.510227 -32.000713 -0.72628343 -73.706276 -0.72769547 -73.714912 -21.2507 12.150523
24500000000 -18.037102 -32.727455 -0.73591441 -75.495766 -0.73591995 -75.502831 -20.658474 15.671584
24600000000 -17.837229 -29.979923 -0.74238515 -77.293747 -0.74175316 -77.283257 -20.055038 16.773935
24700000000 -17.671356 -31.486397 -0.74960995 -79.114937 -0.74553484 -79.117973 -20.404293 17.304401
24800000000 -17.870823 -31.668535 -0.75227416 -80.925682 -0.75688034 -80.950661 -20.374529 13.048516
24900000000 -17.389467 -34.617928 -0.74817508 -82.762764 -0.74663067 -82.738243 -20.130894 7.4511638
25000000000 -17.193232 -34.78651 -0.75565684 -84.550621 -0.75936437 -84.550308 -19.31971 2.5701663
25100000000 -16.491442 -35.682281 -0.75675642 -86.270798 -0.7619288 -86.288979 -18.457506 1.9956287
25200000000 -16.498865 -34.947647 -0.77013278 -88.022919 -0.76818907 -88.006409 -17.995695 1.8069714
25300000000 -16.090614 -34.779583 -0.78310871 -89.77636 -0.78165966 -89.79805 -17.885876 2.7883527
25400000000 -16.387335 -35.81818 -0.78163642 -91.574913 -0.78101754 -91.559364 -17.773476 -0.31388256
25500000000 -16.065002 -36.730526 -0.79597455 -93.343979 -0.78976971 -93.321342 -17.653053 -1.474349
25600000000 -16.073986 -39.954144 -0.80254507 -95.198341 -0.7940985 -95.12677 -17.514668 -5.6711688
25700000000 -15.650201 -39.545078 -0.80914247 -96.912437 -0.79883635 -96.913277 -17.11562 -7.4123073
25800000000 -15.548085 -41.742607 -0.81076759 -98.640518 -0.80920857 -98.653839 -16.68084 -8.619977
25900000000 -15.252939 -40.23658 -0.80760705 -100.43291 -0.8127386 -100.4472 -16.45051 -10.041399
26000000000 -15.182099 -42.541012 -0.81404471 -102.15343 -0.81768805 -102.14755 -16.234428 -11.233944
26100000000 -15.18308 -41.446514 -0.82567793 -103.94462 -0.82551199 -103.90639 -16.304537 -13.596084
26200000000 -15.069211 -43.693787 -0.81887817 -105.68403 -0.82673901 -105.68989 -15.91279 -14.269243
26300000000 -15.088103 -43.642365 -0.83555943 -107.43016 -0.83442807 -107.45894 -16.144133 -17.953575
26400000000 -14.796272 -46.688683 -0.837547 -109.24098 -0.83841825 -109.19784 -15.580542 -18.583969
26500000000 -14.911182 -46.74456 -0.84120792 -110.93114 -0.83236259 -110.96537 -15.694838 -21.347706
26600000000 -14.433635 -47.730526 -0.856089 -112.72375 -0.83489144 -112.79288 -15.306971 -21.478443
26700000000 -14.710437 -47.995224 -0.8504976 -114.43232 -0.85626459 -114.42455 -15.354332 -24.774841
26800000000 -14.425308 -49.373173 -0.83756363 -116.16873 -0.85116011 -116.15176 -15.135737 -24.735729
26900000000 -14.647548 -50.556255 -0.8410483 -117.96661 -0.84875458 -117.93308 -15.190152 -27.90756
27000000000 -14.373348 -50.655037 -0.84873194 -119.76169 -0.84870362 -119.70812 -15.247723 -27.53466
27100000000 -14.405033 -53.593513 -0.85897774 -121.44498 -0.84074926 -121.39978 -15.090049 -32.329956
27200000000 -14.204489 -52.636566 -0.86112857 -123.27708 -0.86055034 -123.17308 -14.850634 -32.110271
27300000000 -14.253376 -55.356609 -0.85105622 -124.96249 -0.84205759 -125.00477 -14.537004 -35.661957
27400000000 -14.173426 -55.22126 -0.86006218 -126.74567 -0.87049836 -126.78493 -14.580812 -34.930798
27500000000 -14.106668 -57.979073 -0.87079597 -128.38924 -0.85071427 -128.45789 -14.5029 -38.174385
27600000000 -14.092717 -58.061409 -0.86975473 -130.29985 -0.85262471 -130.27831 -14.877734 -38.942841
27700000000 -14.034698 -59.904278 -0.86577362 -131.9913 -0.8507117 -131.97437 -14.58513 -42.678207
27800000000 -14.173977 -58.829151 -0.85843992 -133.82005 -0.8613618 -133.73625 -14.623889 -45.06443
27900000000 -14.017941 -61.140499 -0.8807047 -135.48396 -0.84173357 -135.54538 -14.187076 -46.952686
28000000000 -14.35793 -61.405315 -0.87144929 -137.29662 -0.86464387 -137.2484 -14.402267 -47.527248
28100000000 -14.02479 -63.764946 -0.86082333 -138.88773 -0.85745084 -139.01001 -14.200802 -48.744976
28200000000 -14.198382 -63.999023 -0.87558699 -140.58894 -0.88857096 -140.72461 -14.447489 -49.297482
28300000000 -13.837148 -64.179489 -0.89163274 -142.44043 -0.86798722 -142.37045 -14.249851 -53.020924
28400000000 -14.12876 -66.04863 -0.86336571 -144.25272 -0.85204101 -144.20512 -14.550878 -55.82436
28500000000 -14.067639 -66.529526 -0.85186243 -145.9986 -0.85958254 -146.09317 -14.223097 -56.457386
28600000000 -14.336551 -68.481895 -0.84700191 -147.8416 -0.83881199 -147.79784 -14.28451 -58.201469
28700000000 -14.358892 -67.688576 -0.82599223 -149.54651 -0.84268832 -149.62592 -14.379544 -57.87899
28800000000 -14.618625 -70.915726 -0.87528515 -151.31754 -0.85459429 -151.43774 -14.652057 -60.452641
28900000000 -14.559057 -67.778313 -0.85897207 -153.1055 -0.85457003 -153.1461 -14.504895 -63.589008
29000000000 -14.482699 -72.445587 -0.88716 -154.9391 -0.85416853 -155.02606 -14.767846 -66.151848
29100000000 -14.657092 -70.988579 -0.84692228 -156.84464 -0.86736768 -156.88567 -14.253324 -67.947922
29200000000 -14.697458 -72.378304 -0.86790693 -158.50078 -0.85095042 -158.43358 -14.523438 -68.005272
29300000000 -14.811398 -71.051064 -0.86795783 -160.22174 -0.85707778 -160.25998 -14.424787 -67.50563
29400000000 -14.857933 -73.621201 -0.85900646 -161.76315 -0.8498289 -161.87234 -15.315126 -69.543983
29500000000 -15.239817 -73.918526 -0.86287057 -163.63913 -0.85202116 -163.67686 -15.273043 -72.353081
29600000000 -15.085617 -75.922256 -0.86805266 -165.43657 -0.86013699 -165.44403 -15.576178 -76.619919
29700000000 -15.354903 -76.253105 -0.84861678 -167.16403 -0.86321568 -167.25313 -15.166957 -77.8619
29800000000 -14.95845 -76.73381 -0.87006313 -169.00459 -0.8569693 -169.07515 -15.289175 -80.453918
29900000000 -15.487981 -76.822632 -0.84264117 -170.80458 -0.83895892 -170.79745 -14.973357 -79.146431
30000000000 -15.46797 -76.606873 -0.85574287 -172.46776 -0.86658478 -172.45699 -15.661731 -81.61689
30100000000 -15.909657 -77.621056 -0.86265397 -174.21851 -0.86348915 -174.20428 -15.807527 -80.8424
30200000000 -15.837644 -77.038506 -0.84251231 -176.01672 -0.84910774 -175.99178 -16.452116 -87.023605
30300000000 -15.983731 -81.945267 -0.85275257 -177.75011 -0.84588552 -177.8069 -16.370783 -86.165001
30400000000 -16.011593 -79.393509 -0.87533265 -179.58437 -0.85991764 -179.57304 -16.29225 -94.624886
30500000000 -16.043468 -81.809242 -0.8658005 178.5248 -0.85961825 178.5746 -16.374111 -90.473541
30600000000 -16.255125 -78.884811 -0.84980625 176.72128 -0.85037577 176.84889 -16.50493 -94.779755
30700000000 -16.492439 -81.406761 -0.82802027 175.15059 -0.84219897 175.17986 -17.007627 -91.559196
30800000000 -16.846062 -78.022964 -0.85253429 173.2639 -0.86330664 173.46776 -17.769178 -97.677505
30900000000 -16.750114 -80.671494 -0.8473404 171.81322 -0.82410848 171.61653 -17.831453 -96.934631
31000000000 -17.254917 -78.657066 -0.83833879 169.74225 -0.82616192 169.81203 -17.990685 -102.46688
31100000000 -16.88534 -82.769691 -0.81869411 168.00615 -0.79845583 168.12949 -18.084461 -102.57327
31200000000 -17.435978 -81.087669 -0.81700599 166.31181 -0.82887894 166.27776 -18.15822 -102.46786
31300000000 -17.161995 -81.137619 -0.8395412 164.2541 -0.80628878 164.55443 -18.55418 -105.34717
31400000000 -17.760944 -76.14856 -0.80937356 162.58896 -0.80841333 162.78302 -19.109972 -105.73637
31500000000 -17.918427 -76.681313 -0.82654768 160.96837 -0.80977619 160.99619 -20.246471 -107.88559
31600000000 -18.890373 -77.416649 -0.81048435 159.03423 -0.84715104 159.07964 -19.806376 -114.5992
31700000000 -18.535631 -79.219315 -0.80215555 157.39253 -0.81339943 157.2123 -20.415899 -115.52953
31800000000 -18.926525 -80.55294 -0.82508284 155.50264 -0.80919325 155.49367 -20.343723 -119.10577
31900000000 -18.093861 -75.665276 -0.79107237 153.69447 -0.80243737 153.69707 -20.932405 -116.26723
32000000000 -18.744114 -73.284096 -0.80063039 151.9326 -0.79318982 151.89095 -21.551855 -121.0421
32100000000 -18.979664 -67.711105 -0.78609729 150.03537 -0.79782903 150.2213 -23.263464 -117.55752
32200000000 -20.482544 -71.204796 -0.77802968 148.25055 -0.80687195 148.14812 -24.128654 -129.64861
32300000000 -20.189501 -68.387505 -0.78687167 146.43076 -0.80089593 146.53732 -25.229086 -130.01822
32400000000 -20.378302 -72.032745 -0.79796213 144.47752 -0.79195952 144.39874 -25.322121 -146.4472
32500000000 -19.539957 -66.728775 -0.79608023 142.80833 -0.79815876 142.73833 -25.939026 -141.00476
32600000000 -19.483942 -65.417282 -0.78927791 141.02698 -0.77909249 140.86748 -26.147089 -141.49878
32700000000 -19.810699 -55.349983 -0.80781502 139.12337 -0.78688192 138.90096 -27.506231 -137.48969
32800000000 -19.645229 -58.857201 -0.79135752 137.2359 -0.79191476 137.21625 -30.726589 -122.0415
32900000000 -20.620531 -54.141296 -0.80215526 135.31375 -0.81460023 135.54535 -38.211864 -135.73024
33000000000 -20.040813 -56.424786 -0.78864622 133.76906 -0.79086864 133.71019 -38.708561 175.0665
33100000000 -19.941095 -52.25914 -0.82623708 131.85088 -0.84171504 131.93312 -36.259445 118.65731
33200000000 -18.966007 -54.459061 -0.80718589 130.11423 -0.83280033 129.96687 -45.895123 161.92059
33300000000 -19.264288 -50.605339 -0.84542191 128.30492 -0.81189311 128.17007 -37.496365 91.28981
33400000000 -18.877823 -49.143524 -0.82398146 126.22776 -0.81791335 126.36058 -44.510166 9.6364613
33500000000 -18.822687 -46.994392 -0.81844312 124.80637 -0.83207852 124.74113 -32.109249 38.352863
33600000000 -18.242401 -45.165661 -0.81225449 122.78592 -0.80348593 122.92141 -29.45664 31.236162
33700000000 -18.619665 -45.889996 -0.87244058 121.32875 -0.84625727 121.05124 -28.820711 45.685616
33800000000 -18.12042 -45.688343 -0.86450934 119.27928 -0.83618104 119.18513 -28.680471 36.47131
33900000000 -18.081211 -45.964867 -0.86878711 117.26867 -0.87288648 117.35831 -27.689632 36.563248
34000000000 -17.49976 -41.251328 -0.84970427 115.69935 -0.83322805 115.47379 -25.221901 24.665272
34100000000 -17.172525 -44.717281 -0.8543762 113.89697 -0.86878961 113.88804 -24.750332 25.069176
34200000000 -16.964485 -40.531815 -0.88414294 112.21496 -0.86167431 112.16952 -22.043652 24.721098
34300000000 -16.972416 -41.36269 -0.88548088 110.17596 -0.89705557 110.23012 -23.380421 30.106077
34400000000 -16.881641 -37.071484 -0.90296376 108.41444 -0.92002743 108.34535 -21.974365 29.321777
34500000000 -16.46279 -40.938503 -0.93725473 106.47041 -0.91470212 106.71049 -22.037794 22.027996
34600000000 -16.272301 -38.609692 -0.90088516 104.97609 -0.92065072 104.8363 -20.846415 15.815873
34700000000 -15.822834 -38.764511 -0.88475478 103.17609 -0.86570537 102.86058 -20.074141 14.483948
34800000000 -16.074883 -37.440948 -0.89555621 101.3186 -0.91912109 101.34406 -18.768372 15.513307
34900000000 -15.702705 -40.268002 -0.93330342 99.540291 -0.92734706 99.691772 -18.747643 18.616423
35000000000 -15.691784 -38.578445 -0.93602854 97.803169 -0.90514028 97.544685 -18.760561 21.134398
35100000000 -15.063611 -39.909149 -0.95538825 95.797722 -0.93582463 96.008148 -18.309265 13.410234
35200000000 -15.149485 -39.37376 -0.9611665 94.469528 -0.96994305 94.384247 -18.589159 6.4983616
35300000000 -14.43399 -39.407333 -0.96880013 92.468262 -0.97094744 92.57238 -17.447159 2.9165487
35400000000 -14.823589 -40.12598 -0.95307714 90.569504 -0.97436881 90.65361 -16.929743 1.2071525
35500000000 -14.454981 -39.067955 -0.98880768 88.89621 -0.99801201 88.94519 -16.531843 3.9639788
35600000000 -14.80359 -43.472332 -0.99897599 87.129448 -0.95288533 87.063499 -16.209957 2.665767
35700000000 -14.203348 -42.785255 -0.97511494 85.50396 -0.98121834 85.304199 -16.455481 2.9789619
35800000000 -14.081375 -44.669083 -0.98882133 83.920784 -0.98293871 83.830475 -15.846187 -3.5791066
35900000000 -13.754055 -42.873329 -1.0126865 81.829849 -0.96066362 81.953064 -16.204493 -5.3218389
36000000000 -13.549694 -44.30183 -0.9741618 80.223274 -1.0082153 80.17701 -14.808883 -7.6183181
36100000000 -13.489366 -42.070549 -1.0023015 78.08062 -0.97598469 78.529518 -15.178225 -7.9263816
36200000000 -13.570147 -46.757603 -0.99100327 76.542328 -0.98020476 76.894562 -14.414219 -11.125946
36300000000 -13.634791 -47.712856 -1.0019621 74.816032 -0.95271057 74.614029 -15.197278 -10.076971
36400000000 -13.339334 -49.787399 -0.98643321 72.899132 -1.0197761 73.0233 -14.618252 -14.607319
36500000000 -13.055482 -49.537407 -1.0266423 71.147247 -1.0269344 70.894096 -14.501544 -19.405228
36600000000 -12.322807 -49.252785 -1.0051025 69.325859 -1.0109252 69.390251 -13.376633 -18.676374
36700000000 -12.817333 -48.941177 -0.99963349 67.709419 -1.0453233 67.62339 -13.75638 -20.158316
36800000000 -12.600948 -46.980694 -1.0363587 66.268333 -1.050649 66.048798 -12.970015 -16.953318
36900000000 -13.141473 -51.513767 -1.0343095 64.13575 -1.0857512 64.61953 -13.90675 -21.513485
37000000000 -12.612887 -52.491611 -1.0752566 62.520683 -1.0584953 62.570583 -13.724391 -20.439804
37100000000 -12.485641 -57.016968 -1.0925101 60.460133 -1.066411 60.78783 -13.658574 -28.507401
37200000000 -11.875858 -53.730648 -1.0435592 58.816158 -1.0474179 58.863308 -13.052874 -30.560036
37300000000 -11.947203 -53.953884 -1.0338911 57.099483 -1.0521195 57.20771 -12.422883 -32.80106
37400000000 -11.922016 -50.546669 -1.0512693 55.422432 -1.0084487 55.567501 -12.054402 -29.874336
37500000000 -12.020297 -55.745365 -1.0870789 53.719383 -1.0918081 53.671783 -12.512765 -31.029284
37600000000 -12.536241 -57.801506 -1.0757565 52.173321 -1.0988855 52.241779 -12.692439 -28.920343
37700000000 -11.904469 -62.311981 -1.1041329 50.250519 -1.077983 50.415092 -12.935062 -34.249035
37800000000 -11.697285 -59.372608 -1.0851562 48.795086 -1.06673 48.607132 -12.886897 -38.952991
37900000000 -11.363086 -60.390144 -1.0591487 46.738327 -1.1142507 47.008144 -12.672689 -43.209343
38000000000 -11.926258 -58.649075 -1.041607 45.079647 -1.0325592 45.33987 -11.685497 -42.44252
38100000000 -11.697677 -60.977451 -1.1023555 43.539673 -1.0804545 43.35738 -11.844398 -42.764587
38200000000 -11.989845 -63.498322 -1.0828384 41.746025 -1.012302 41.886925 -11.826465 -40.980827
38300000000 -11.475718 -64.67897 -1.0780832 39.829937 -1.0636554 40.038479 -12.341893 -43.233562
38400000000 -11.514587 -65.506256 -1.002097 38.320679 -1.0963115 38.522484 -12.908815 -46.701721
38500000000 -11.333163 -66.297722 -1.0738051 36.410477 -1.0728744 36.793636 -12.48354 -51.931229
38600000000 -11.881741 -67.005478 -1.0887057 34.69244 -1.0364136 35.045174 -11.992075 -54.005814
38700000000 -11.620239 -66.796501 -1.0811952 33.03648 -1.0928793 33.070488 -11.692072 -57.911064
38800000000 -11.990887 -71.045341 -1.0888351 31.364157 -1.0830762 31.058666 -11.903178 -52.952816
38900000000 -11.867214 -69.482201 -1.0390131 29.698458 -1.0844398 29.500813 -12.308305 -56.904602
39000000000 -11.856992 -71.749214 -1.0537564 27.78624 -1.0161444 27.78879 -12.439729 -57.788689
39100000000 -12.011497 -72.210205 -1.0253024 26.109528 -1.0156803 25.654463 -12.260196 -65.440857
39200000000 -11.595263 -74.435059 -1.0313605 24.158867 -1.0630434 24.24156 -12.242209 -64.357994
39300000000 -12.015738 -72.26683 -1.0089487 22.381962 -1.0369388 22.534008 -11.379443 -66.233795
39400000000 -12.261358 -75.317291 -1.0614754 20.822233 -1.0269226 20.743803 -11.836254 -62.755234
39500000000 -12.899042 -74.070778 -1.044812 18.95429 -1.0498543 18.790264 -12.225148 -67.248611
39600000000 -12.326468 -79.041664 -1.0193512 17.088144 -1.0199713 16.901049 -13.153252 -66.327278
39700000000 -12.696733 -81.987915 -1.0260603 15.179426 -1.0094032 14.963384 -13.077842 -74.748108
39800000000 -11.812341 -79.933998 -1.0222236 13.308981 -1.0320755 13.516163 -12.841495 -76.953423
39900000000 -12.278933 -78.142448 -1.0428581 11.430826 -1.0054064 11.495131 -12.462941 -80.856529
40000000000 -12.393089 -76.584282 -1.0430928 10.372705 -1.0538187 9.9543676 -11.954819 -75.535736
40100000000 -13.509562 -81.301308 -1.0521809 8.1025925 -0.99236971 7.9357691 -12.464022 -76.271835
40200000000 -13.277392 -81.517281 -1.0244172 6.4615364 -1.0363295 6.3773828 -13.371455 -75.741714
40300000000 -13.238266 -88.67868 -1.0458782 4.3097157 -1.038491 4.6701365 -13.482975 -79.216003
40400000000 -12.762003 -84.630775 -1.025089 3.1704865 -1.0042912 2.7807755 -14.298171 -86.788643
40500000000 -12.766582 -80.835358 -1.1151062 1.2216476 -1.0341023 1.2903295 -13.48639 -90.035667
40600000000 -13.175879 -78.308044 -1.0701905 -0.87796098 -1.0408639 -0.84282446 -13.416866 -90.538261
40700000000 -13.962777 -84.611168 -1.034011 -2.5517225 -1.0159969 -2.7770879 -12.942837 -87.346542
40800000000 -14.400949 -84.175461 -1.0090797 -4.0520244 -1.0453328 -3.9451923 -13.674943 -85.181633
40900000000 -13.421837 -88.636177 -0.96312225 -6.0803008 -1.0020742 -6.0143332 -14.831001 -86.282867
41000000000 -13.134864 -85.954224 -1.0469623 -7.9974174 -1.0199454 -7.8622694 -14.770479 -89.197296
41100000000 -13.448874 -86.136337 -1.0640483 -9.231595 -1.0338905 -9.5430975 -14.78527 -99.163643
41200000000 -14.323134 -81.00927 -1.0220991 -11.335485 -1.0463568 -11.782676 -15.089342 -98.527641
41300000000 -14.305729 -84.938354 -1.0346446 -12.998398 -0.98770463 -12.991311 -15.113016 -99.024292
41400000000 -14.811201 -87.315865 -0.98235351 -14.563746 -1.0546113 -14.714915 -14.872164 -98.240517
41500000000 -14.458456 -87.986237 -1.0101761 -16.877827 -1.0105922 -16.872604 -15.495299 -100.74408
41600000000 -14.81087 -89.070145 -0.98889613 -18.267178 -1.0151119 -18.616755 -16.179256 -98.922729
41700000000 -14.579241 -86.075554 -0.98016906 -20.578959 -1.0034213 -20.34729 -16.515457 -105.08334
41800000000 -15.51194 -87.777168 -1.0723535 -22.145607 -0.97030944 -21.902395 -16.71006 -105.38537
41900000000 -15.118997 -86.473991 -1.0259626 -23.920792 -0.97956735 -23.980888 -16.357693 -108.20443
42000000000 -15.639448 -86.822983 -1.0111938 -25.233171 -1.0152044 -25.52153 -17.456047 -109.09795
42100000000 -15.529912 -81.901154 -0.98606682 -27.061136 -1.0192236 -27.3279 -17.312729 -111.57904
42200000000 -16.60519 -85.048065 -0.99447238 -29.16415 -1.0123677 -29.064156 -18.452354 -112.00553
42300000000 -17.190929 -81.44017 -1.0019047 -31.242973 -0.99345511 -31.03401 -18.28179 -113.632
42400000000 -16.608624 -86.298897 -1.0639378 -32.265163 -1.0057402 -32.646996 -20.521425 -122.17822
42500000000 -16.354576 -80.659569 -1.0391296 -34.631847 -0.95290399 -34.353203 -19.614536 -118.87218
42600000000 -16.057125 -84.507927 -1.0058204 -35.985233 -0.98834842 -36.459198 -21.28595 -126.50333
42700000000 -17.757521 -77.24678 -0.93989784 -37.774654 -1.038901 -37.639931 -19.94445 -117.54802
42800000000 -17.527512 -72.904366 -0.98373699 -39.714241 -1.0441374 -40.097248 -21.016714 -126.47025
42900000000 -19.530113 -64.076302 -1.0031598 -41.747406 -0.99882609 -41.485081 -22.918793 -109.13774
43000000000 -18.370821 -78.270592 -0.98091918 -42.769947 -1.0350598 -43.558876 -25.180595 -121.64256
43100000000 -18.691521 -88.034966 -0.99256587 -45.446106 -1.0089993 -45.405422 -28.207127 -128.05588
43200000000 -16.686806 -77.96756 -0.97454375 -47.254906 -0.99048167 -47.063736 -29.760571 -140.84943
43300000000 -17.558834 -64.641663 -1.028407 -48.74918 -0.96334296 -48.95858 -28.109531 -155.09897
43400000000 -17.287291 -57.756462 -0.96581024 -50.308727 -0.97848642 -50.587856 -27.452253 -135.76749
43500000000 -19.119648 -55.838142 -1.0112414 -52.459759 -0.9594211 -52.128288 -29.764713 -114.26741
43600000000 -19.363602 -55.282207 -0.98679417 -54.470783 -0.99789083 -54.259598 -31.255032 -83.55336
43700000000 -19.597672 -68.184769 -1.0847259 -56.834564 -1.0194739 -56.547901 -36.894199 -19.070322
43800000000 -17.248564 -66.947754 -1.0045835 -58.179943 -0.95265836 -58.242405 -33.261734 -3.3327959
43900000000 -18.199799 -64.773819 -0.98815405 -60.085979 -1.0088488 -59.87447 -33.595848 90.782433
44000000000 -17.045467 -51.013958 -0.92896515 -61.340065 -0.96083057 -61.318237 -33.344769 -4.6256032
44100000000 -16.999897 -52.412231 -0.96654201 -63.435104 -1.0028052 -63.389141 -30.324862 -20.243498
44200000000 -17.082556 -39.634533 -0.94522166 -65.204109 -1.0199234 -65.27504 -27.164669 -6.8404512
44300000000 -17.22374 -49.985069 -1.0517431 -67.321999 -0.95616889 -66.992249 -25.834101 14.949203
44400000000 -17.39089 -55.81971 -1.0015646 -68.846931 -0.99827653 -68.902878 -22.954939 11.677209
44500000000 -15.743698 -58.998875 -1.0326563 -70.785675 -1.0523719 -70.798325 -24.093534 13.107318
44600000000 -15.469677 -49.281284 -1.1261741 -72.26075 -1.0078071 -72.273994 -22.498829 18.645716
44700000000 -15.342447 -42.259201 -0.98454159 -74.283691 -1.0516548 -73.535759 -22.732016 3.8918669
44800000000 -15.870512 -43.533531 -1.054848 -76.759392 -0.98824865 -76.028244 -19.992113 4.7325487
44900000000 -15.795324 -44.060669 -0.95092642 -78.155396 -1.0101258 -78.008835 -19.280006 2.2368948
45000000000 -16.068502 -46.519802 -1.0058677 -79.329216 -1.0200258 -79.878418 -18.567585 9.5536938
