!Keysight Technologies,N5247B,MY61255062,A.19.80.06
!Date: Monday, May 18, 2026 12:30:09
!Correction: S11(Cdelta 2-Port  ) 
!S21(Cdelta 2-Port  ) 
!S12(Cdelta 2-Port  ) 
!S22(Cdelta 2-Port  ) 
!S2P File: Measurements: S11, S21, S12, S22:
# Hz S  dB   R 50
1000000000 -26.885118 -26.898481 -0.40457097 -21.546785 -0.40214032 -21.551895 -27.118948 -29.313206
1100000000 -26.818356 -30.626583 -0.41496018 -23.639902 -0.41397172 -23.64436 -27.180603 -32.909267
1200000000 -26.732573 -33.129025 -0.42236796 -25.692827 -0.42210349 -25.702406 -27.130032 -34.92065
1300000000 -26.622345 -36.434952 -0.43023136 -27.824465 -0.42911682 -27.821941 -26.965858 -38.382595
1400000000 -26.51503 -38.982586 -0.43337104 -29.854805 -0.43243501 -29.861216 -26.906071 -40.285122
1500000000 -26.427734 -42.399509 -0.43685421 -31.949631 -0.43557656 -31.963243 -26.724586 -43.316742
1600000000 -26.377655 -45.461563 -0.44002706 -34.060387 -0.43970764 -34.051849 -26.547173 -46.896095
1700000000 -26.23385 -48.669163 -0.4440755 -36.133472 -0.44315633 -36.141453 -26.438087 -49.64468
1800000000 -26.099218 -51.711124 -0.4476186 -38.242573 -0.44583035 -38.245094 -26.303682 -52.970905
1900000000 -25.996447 -54.860546 -0.44995138 -40.346508 -0.44871122 -40.344734 -26.15003 -56.056107
2000000000 -25.940531 -58.176395 -0.45684969 -42.454315 -0.45661849 -42.462162 -26.023922 -59.491741
2100000000 -25.799414 -61.083279 -0.45920673 -44.540825 -0.45886835 -44.544296 -25.962351 -62.029709
2200000000 -25.777237 -64.264778 -0.46378434 -46.633842 -0.46310434 -46.653473 -25.841545 -65.443794
2300000000 -25.720024 -67.402794 -0.46896538 -48.743301 -0.46896771 -48.745934 -25.730272 -68.29493
2400000000 -25.722113 -70.497719 -0.4755702 -50.841579 -0.4749054 -50.844559 -25.678574 -71.600105
2500000000 -25.653837 -73.503578 -0.48082694 -52.938808 -0.48025763 -52.934456 -25.58005 -74.726379
2600000000 -25.623388 -76.533867 -0.48879412 -55.032452 -0.48799261 -55.024578 -25.520933 -77.576492
2700000000 -25.583635 -79.411255 -0.49442282 -57.112247 -0.49251252 -57.112888 -25.48193 -81.006897
2800000000 -25.66308 -82.586052 -0.49827206 -59.19014 -0.49679801 -59.185577 -25.404631 -83.649658
2900000000 -25.694111 -85.348389 -0.50471574 -61.273361 -0.50369239 -61.279858 -25.388895 -86.595238
3000000000 -25.687798 -88.440147 -0.51101238 -63.348167 -0.50662184 -63.348614 -25.399614 -89.497925
3100000000 -25.689133 -91.435455 -0.51341033 -65.421089 -0.51169759 -65.425873 -25.445658 -92.115646
3200000000 -25.61006 -94.167152 -0.51646793 -67.496162 -0.51791918 -67.509079 -25.398441 -94.69915
3300000000 -25.642859 -97.117188 -0.52155143 -69.579193 -0.52041757 -69.573074 -25.360718 -97.354454
3400000000 -25.675476 -99.626274 -0.52516389 -71.661346 -0.52423358 -71.65609 -25.361666 -100.00465
3500000000 -25.700968 -102.72176 -0.52709007 -73.730957 -0.52727509 -73.71981 -25.314463 -102.43087
3600000000 -25.732891 -104.9692 -0.53086656 -75.794655 -0.53058487 -75.809685 -25.356388 -104.33476
3700000000 -25.823465 -107.78892 -0.53320736 -77.882782 -0.53346288 -77.884644 -25.270103 -106.7837
3800000000 -25.84687 -110.07079 -0.5368855 -79.958908 -0.53699887 -79.958069 -25.296152 -109.27286
3900000000 -25.895891 -113.02235 -0.53878433 -82.05455 -0.53887022 -82.051186 -25.300594 -111.77673
4000000000 -25.967178 -115.12914 -0.54212344 -84.12616 -0.54318845 -84.124878 -25.331886 -113.87711
4100000000 -26.033808 -117.89688 -0.54569173 -86.228195 -0.54815829 -86.207886 -25.354485 -116.38745
4200000000 -26.148968 -120.20415 -0.55096889 -88.28302 -0.55179471 -88.294998 -25.444016 -118.57175
4300000000 -26.187389 -123.04146 -0.55280477 -90.358551 -0.55285269 -90.357117 -25.410366 -120.76865
4400000000 -26.377836 -125.68164 -0.55620325 -92.444122 -0.55686122 -92.440781 -25.540787 -122.83826
4500000000 -26.472414 -127.82854 -0.55870461 -94.517029 -0.55875027 -94.517387 -25.524494 -125.08939
4600000000 -26.610184 -130.54039 -0.56116474 -96.6082 -0.56286532 -96.592339 -25.603064 -127.36198
4700000000 -26.695007 -132.97476 -0.56493503 -98.667969 -0.5620594 -98.679886 -25.631247 -129.1265
4800000000 -26.870306 -135.75584 -0.56561315 -100.7457 -0.56744379 -100.76222 -25.709869 -131.57784
4900000000 -27.111824 -137.67885 -0.57162851 -102.84209 -0.5697158 -102.85332 -25.741476 -133.22595
5000000000 -27.25721 -140.38022 -0.57415324 -104.92225 -0.57358575 -104.91489 -25.931358 -135.51924
5100000000 -27.489229 -142.40189 -0.5769875 -106.99213 -0.57756108 -106.99409 -26.059563 -136.80344
5200000000 -27.621496 -144.94571 -0.58073634 -109.06081 -0.57954317 -109.06984 -26.204231 -139.65941
5300000000 -27.871626 -147.14784 -0.58320898 -111.13549 -0.58138263 -111.14443 -26.320286 -141.73331
5400000000 -28.052868 -150.17516 -0.58777136 -113.22351 -0.58627671 -113.2289 -26.380566 -144.28857
5500000000 -28.361814 -152.86954 -0.59028888 -115.29044 -0.58813292 -115.29708 -26.418709 -145.65959
5600000000 -28.523327 -155.1996 -0.59314382 -117.36316 -0.59086394 -117.36337 -26.494164 -147.35469
5700000000 -28.894999 -157.34772 -0.59676379 -119.43379 -0.59353995 -119.43586 -26.717682 -148.03462
5800000000 -29.122585 -159.62836 -0.59751403 -121.4984 -0.59788001 -121.50137 -26.917187 -150.33583
5900000000 -29.414337 -162.78519 -0.6011225 -123.55888 -0.59931594 -123.56438 -27.211662 -152.33012
6000000000 -29.651079 -164.99388 -0.60301006 -125.62822 -0.60021347 -125.63132 -27.297255 -155.41765
6100000000 -30.139194 -167.84756 -0.60194933 -127.67773 -0.60325724 -127.68371 -27.421963 -157.42114
6200000000 -30.610357 -170.37593 -0.60297799 -129.7594 -0.60357016 -129.76596 -27.538897 -159.28822
6300000000 -31.174479 -174.11026 -0.60254198 -131.81844 -0.60116827 -131.82997 -27.893778 -159.98935
6400000000 -31.822668 -177.03798 -0.60219347 -133.90643 -0.60229039 -133.89706 -28.159462 -161.6069
6500000000 -32.408943 178.97018 -0.60310465 -135.98718 -0.60067093 -135.98802 -28.696781 -163.12984
6600000000 -32.976826 177.07263 -0.60173851 -138.07097 -0.60239089 -138.06548 -29.04093 -164.78523
6700000000 -33.551315 173.40254 -0.60045749 -140.15372 -0.60278583 -140.16988 -29.31049 -166.38428
6800000000 -34.456341 173.56964 -0.60287863 -142.26434 -0.60059512 -142.25998 -29.543236 -167.21428
6900000000 -35.243252 170.59898 -0.60345864 -144.38254 -0.60501486 -144.38231 -29.998613 -166.05338
7000000000 -36.30497 172.4892 -0.61474413 -146.46788 -0.61334926 -146.47101 -29.988962 -165.89203
7100000000 -36.252228 164.24236 -0.61484015 -148.45619 -0.61556375 -148.45421 -30.384733 -169.42747
7200000000 -38.195538 159.44519 -0.60911441 -150.54672 -0.60928178 -150.54955 -30.814329 -170.90324
7300000000 -39.17054 155.99239 -0.61002469 -152.65512 -0.6105898 -152.66928 -31.260473 -171.72411
7400000000 -41.083672 147.30028 -0.61402369 -154.76445 -0.61241537 -154.77182 -31.348181 -170.84441
7500000000 -42.488491 151.6877 -0.62026119 -156.83511 -0.62170601 -156.85323 -31.74791 -169.035
7600000000 -45.378292 129.98447 -0.61762679 -158.90561 -0.61710817 -158.90875 -32.175133 -168.97725
7700000000 -48.451408 123.29784 -0.61894333 -160.9904 -0.61933112 -161.00974 -33.181026 -169.25847
7800000000 -50.232567 93.758781 -0.62161881 -163.0731 -0.62171024 -163.10141 -33.504211 -170.9052
7900000000 -55.153191 56.480309 -0.62482321 -165.18469 -0.62523484 -165.18655 -33.82626 -172.84811
8000000000 -50.125217 25.875715 -0.62671691 -167.26991 -0.62808824 -167.27283 -33.380371 -169.90561
8100000000 -46.155087 -4.2762551 -0.63085109 -169.36234 -0.63327217 -169.36931 -33.946819 -164.60062
8200000000 -44.24371 -6.8451381 -0.63425249 -171.45746 -0.63405389 -171.47659 -34.459972 -156.34195
8300000000 -41.821659 -10.607755 -0.63876599 -173.5657 -0.64011174 -173.56438 -36.818577 -156.505
8400000000 -40.752014 -9.6926527 -0.64999074 -175.68629 -0.65161818 -175.69342 -39.121262 -172.53456
8500000000 -38.417145 -18.09177 -0.67721814 -177.82088 -0.68124682 -177.8342 -35.82402 147.74113
8600000000 -39.649673 -38.733387 -0.75571972 -179.70143 -0.75945687 -179.67516 -29.210091 134.94241
8700000000 -38.010513 29.844212 -0.69357592 179.6017 -0.69591641 179.57748 -25.055613 105.18029
8800000000 -33.1768 -21.354668 -0.53020263 176.52629 -0.52984875 176.54074 -30.244629 92.232925
8900000000 -35.096359 -34.855724 -0.59082329 173.94792 -0.59195256 173.95793 -35.228542 136.02011
9000000000 -35.350113 -34.83659 -0.6231218 171.85085 -0.62626421 171.84338 -33.960945 -179.06425
9100000000 -34.152477 -35.400623 -0.64077592 169.81459 -0.64238161 169.80592 -33.750629 -155.32475
9200000000 -33.331692 -40.860714 -0.65065825 167.76218 -0.65028238 167.74684 -33.89489 -138.66243
9300000000 -32.706131 -42.364635 -0.65488631 165.696 -0.65463346 165.69304 -35.4156 -129.19531
9400000000 -32.268139 -46.989902 -0.65608346 163.62852 -0.65800387 163.61777 -36.474636 -126.03114
9500000000 -31.906796 -46.812202 -0.6600616 161.56596 -0.66237777 161.56152 -37.58614 -130.35832
9600000000 -31.325256 -49.752048 -0.66375017 159.50581 -0.66727376 159.48485 -36.545277 -134.65134
9700000000 -30.945494 -51.316231 -0.66534716 157.43184 -0.66931534 157.42473 -35.851364 -133.71951
9800000000 -30.413288 -53.967525 -0.67193258 155.33636 -0.6701616 155.31638 -35.152172 -128.15045
9900000000 -30.345652 -55.930359 -0.67274189 153.28065 -0.67227858 153.25288 -35.264927 -123.47559
10000000000 -29.863071 -57.762993 -0.67420614 151.18864 -0.67351264 151.18364 -35.105228 -121.41269
10100000000 -29.689791 -59.144855 -0.6769864 149.12576 -0.67610431 149.12585 -35.928463 -123.29854
10200000000 -29.045815 -60.120808 -0.67994517 147.04906 -0.68061972 147.03494 -35.329597 -126.46679
10300000000 -28.995798 -63.431416 -0.6831032 144.97591 -0.68259215 144.95938 -35.06538 -126.19191
10400000000 -28.63625 -64.768478 -0.68534565 142.88242 -0.68313533 142.88785 -33.92741 -124.18954
10500000000 -28.675583 -68.469337 -0.68594646 140.81197 -0.68903482 140.79852 -33.990829 -121.28586
10600000000 -28.250425 -68.984184 -0.69101596 138.73947 -0.69278061 138.72794 -33.524727 -117.20434
10700000000 -28.027493 -71.943176 -0.69505203 136.66637 -0.69224441 136.68283 -34.026642 -116.94823
10800000000 -27.754581 -71.52388 -0.69934607 134.59908 -0.69637555 134.5822 -33.927757 -115.48906
10900000000 -27.412453 -73.76281 -0.69844484 132.54048 -0.70006377 132.5079 -34.377029 -119.90687
11000000000 -27.462147 -75.040756 -0.70477712 130.44803 -0.70459443 130.44833 -33.741955 -119.92165
11100000000 -27.151896 -78.234833 -0.70345807 128.40321 -0.70876688 128.38403 -33.497562 -124.53525
11200000000 -27.266512 -79.751411 -0.7079792 126.32629 -0.70921975 126.31103 -32.727028 -119.60589
11300000000 -26.923536 -81.637291 -0.71411729 124.25564 -0.71500039 124.23935 -32.742779 -122.27538
11400000000 -26.927074 -83.795135 -0.71325421 122.20014 -0.71528822 122.17576 -32.264061 -117.86972
11500000000 -26.622622 -85.516159 -0.71887559 120.14894 -0.71759528 120.12825 -32.199554 -118.75576
11600000000 -26.676201 -88.431725 -0.71882242 118.06879 -0.7194975 118.05085 -32.162739 -118.5994
11700000000 -26.411644 -88.990479 -0.72127497 116.0069 -0.7241528 115.99606 -32.247444 -122.24763
11800000000 -26.524057 -92.17308 -0.72406507 113.94834 -0.7237944 113.95245 -31.964352 -121.74686
11900000000 -26.394348 -92.451828 -0.7275455 111.8917 -0.7281757 111.89449 -31.773691 -125.92808
12000000000 -26.558958 -95.874069 -0.72597778 109.83949 -0.72948027 109.83311 -31.538086 -123.30093
12100000000 -26.511909 -97.359016 -0.72704875 107.78925 -0.72813743 107.80234 -31.394901 -126.97469
12200000000 -26.458134 -101.19739 -0.72627062 105.74725 -0.72724646 105.75326 -31.254501 -126.27216
12300000000 -26.569242 -102.17561 -0.72510403 103.69482 -0.72780257 103.68097 -31.113241 -128.16298
12400000000 -26.526379 -104.67272 -0.72224915 101.63442 -0.72578776 101.62481 -31.269377 -128.9465
12500000000 -26.828472 -105.31503 -0.7207973 99.565712 -0.72070348 99.557899 -31.360243 -132.21187
12600000000 -26.854677 -108.03342 -0.7169919 97.503815 -0.7181254 97.496857 -31.407988 -132.41264
12700000000 -27.205261 -109.36899 -0.7134766 95.434547 -0.717529 95.40464 -31.361145 -134.4061
12800000000 -27.014109 -111.74233 -0.70876628 93.335152 -0.713278 93.320313 -31.675606 -133.35712
12900000000 -27.33242 -113.49659 -0.70940477 91.230186 -0.71153003 91.23838 -31.716862 -137.1956
13000000000 -27.296875 -114.00233 -0.70792711 89.161324 -0.7096681 89.159004 -32.088341 -136.29362
13100000000 -27.756472 -115.38799 -0.70566171 87.060738 -0.71008027 87.056824 -32.073078 -139.11226
13200000000 -27.83637 -115.62659 -0.70456678 84.976677 -0.70762151 84.961151 -32.48214 -136.24155
13300000000 -28.244709 -118.87638 -0.70525515 82.869133 -0.7070896 82.848259 -32.231709 -135.53572
13400000000 -28.266262 -117.34798 -0.70659184 80.771637 -0.70716542 80.744003 -32.910465 -132.66278
13500000000 -28.411812 -120.78712 -0.70801604 78.679214 -0.70956665 78.647423 -33.221146 -133.51018
13600000000 -28.505011 -118.84017 -0.71034336 76.577728 -0.71053171 76.571205 -33.994556 -131.96852
13700000000 -28.67474 -120.76887 -0.71328074 74.450905 -0.71541703 74.429413 -33.766758 -134.55756
13800000000 -28.965458 -118.49383 -0.72351062 72.336777 -0.72583306 72.317795 -33.773037 -132.05124
13900000000 -28.707172 -121.61625 -0.74513316 70.253349 -0.74678928 70.223389 -32.385139 -131.12671
14000000000 -29.02445 -125.65152 -0.75007445 68.373444 -0.75201041 68.359154 -32.106506 -133.78688
14100000000 -29.336262 -131.83171 -0.73133874 66.340385 -0.7312085 66.328484 -32.594357 -137.45378
14200000000 -30.445101 -131.56502 -0.72206634 64.23214 -0.72387177 64.199463 -34.328396 -135.78218
14300000000 -30.207582 -130.22153 -0.71954 62.101486 -0.72257686 62.080006 -34.281979 -137.64349
14400000000 -31.194862 -130.41344 -0.72086275 60.008156 -0.72300088 59.965797 -35.230545 -136.34517
14500000000 -31.306871 -127.57542 -0.72609615 57.872978 -0.7269606 57.870308 -34.446434 -134.71921
14600000000 -32.504055 -128.9382 -0.73070186 55.772141 -0.72706527 55.753265 -34.554459 -132.38719
14700000000 -32.112946 -126.56161 -0.7403565 53.669933 -0.74286705 53.646412 -33.750015 -127.72876
14800000000 -32.044273 -133.4362 -0.75858837 51.652172 -0.76114219 51.6353 -33.943626 -130.09584
14900000000 -32.562965 -134.49771 -0.74515098 49.715607 -0.74756962 49.674011 -34.255032 -137.2249
15000000000 -33.509682 -135.45084 -0.73596841 47.588379 -0.73863995 47.581131 -35.086662 -135.67529
15100000000 -34.200245 -127.27298 -0.74200523 45.508148 -0.73782045 45.455467 -34.039532 -133.36147
15200000000 -35.233307 -129.63358 -0.73564148 43.406551 -0.73948139 43.365093 -34.311787 -130.63649
15300000000 -36.102417 -123.46751 -0.7377882 41.299908 -0.74113232 41.299721 -34.101067 -125.96933
15400000000 -36.03038 -128.87495 -0.74089986 39.201447 -0.74124372 39.187908 -35.139954 -122.16109
15500000000 -36.438576 -122.38387 -0.74470848 37.112545 -0.74399382 37.114727 -34.963394 -123.64115
15600000000 -35.929245 -123.97543 -0.74454808 35.028042 -0.7498216 35.005707 -35.494888 -127.76974
15700000000 -37.425606 -111.40932 -0.74740112 32.945705 -0.74869388 32.942547 -34.529678 -126.94318
15800000000 -37.768452 -111.08447 -0.75109571 30.875666 -0.75203347 30.862057 -33.969162 -127.57721
15900000000 -39.427269 -97.26683 -0.75461698 28.794359 -0.75403988 28.788473 -33.558289 -124.15309
16000000000 -39.155445 -103.89623 -0.75502014 26.711256 -0.75876689 26.695166 -34.086369 -121.8416
16100000000 -40.795963 -96.804306 -0.76007265 24.642841 -0.75959408 24.645132 -34.148415 -119.72181
16200000000 -39.054726 -97.344063 -0.75977385 22.568407 -0.76572901 22.5599 -35.077843 -122.21319
16300000000 -40.478188 -77.909882 -0.76447743 20.504688 -0.76373881 20.485334 -34.591648 -123.52193
16400000000 -38.409927 -73.046661 -0.76507634 18.415642 -0.77050251 18.399181 -34.908218 -126.96997
16500000000 -40.415726 -56.283485 -0.76947111 16.360134 -0.76945382 16.351379 -34.121883 -125.69365
16600000000 -38.490063 -56.354042 -0.77316535 14.301889 -0.77458775 14.263152 -34.650719 -123.69825
16700000000 -40.609291 -52.779839 -0.77366984 12.219375 -0.77488947 12.200305 -34.165619 -121.00452
16800000000 -37.644981 -56.235703 -0.77655321 10.148489 -0.77929974 10.118052 -35.475979 -122.74984
16900000000 -38.183819 -53.133217 -0.77975416 8.0774775 -0.78365219 8.0586386 -34.922813 -120.47054
17000000000 -35.104088 -42.452969 -0.78006482 6.0245976 -0.78245616 5.9956093 -35.437061 -129.19142
17100000000 -35.706764 -42.56776 -0.77913183 3.969213 -0.78192025 3.9383652 -34.686169 -126.42487
17200000000 -34.397171 -34.500248 -0.78348845 1.8975271 -0.78685647 1.8757691 -34.712345 -132.26436
17300000000 -35.630001 -43.594406 -0.78782648 -0.17118129 -0.78853506 -0.17968053 -34.350933 -123.41944
17400000000 -34.912891 -37.761024 -0.78886473 -2.2209904 -0.78868783 -2.255605 -35.117683 -127.33049
17500000000 -34.442432 -50.767532 -0.79110593 -4.3248725 -0.78953499 -4.3387861 -35.578537 -121.31615
17600000000 -33.391083 -39.470436 -0.78992617 -6.3674083 -0.7902019 -6.3703985 -36.388409 -135.06306
17700000000 -32.467083 -44.557831 -0.79305869 -8.4174366 -0.79438037 -8.4697084 -36.632153 -132.54819
17800000000 -32.266632 -36.10442 -0.78739703 -10.505941 -0.79344493 -10.513728 -35.492161 -142.47762
17900000000 -31.765968 -40.408264 -0.79402173 -12.552098 -0.78970015 -12.57423 -35.19173 -135.48999
18000000000 -32.920471 -39.118633 -0.79438937 -14.664412 -0.79646677 -14.693701 -34.977402 -133.45958
18100000000 -31.742357 -43.938503 -0.79021001 -16.729769 -0.78942227 -16.760769 -36.105602 -120.62055
18200000000 -31.846537 -42.770889 -0.79421908 -18.784927 -0.79365969 -18.776707 -37.549625 -125.82214
18300000000 -30.618616 -41.675232 -0.78653502 -20.840075 -0.79265755 -20.880814 -39.952858 -127.64956
18400000000 -30.813335 -39.144032 -0.78853351 -22.914497 -0.79303509 -22.943304 -39.74292 -151.63802
18500000000 -29.848839 -38.354046 -0.79363698 -25.000954 -0.79752231 -25.014454 -38.809917 -152.29419
18600000000 -30.125994 -39.359673 -0.79256219 -27.072378 -0.78961509 -27.121275 -37.383331 -145.91452
18700000000 -29.533386 -40.720963 -0.79050285 -29.156975 -0.79165351 -29.142942 -38.065453 -131.04361
18800000000 -29.817144 -44.239395 -0.78889519 -31.252548 -0.78801674 -31.261305 -38.889496 -116.3708
18900000000 -29.00246 -41.117142 -0.78569835 -33.287666 -0.78684098 -33.300541 -41.235466 -98.684929
19000000000 -28.974817 -42.521687 -0.78775233 -35.355118 -0.78273267 -35.373646 -48.058514 -101.33799
19100000000 -28.449953 -38.93063 -0.78483486 -37.424644 -0.785855 -37.442459 -51.45369 -117.27258
19200000000 -28.540781 -42.088638 -0.78754562 -39.475842 -0.78522909 -39.518867 -47.34454 -172.27866
19300000000 -28.26893 -40.077732 -0.78821909 -41.58107 -0.78031611 -41.618713 -45.577793 -131.09703
19400000000 -28.373175 -45.16787 -0.7859031 -43.684204 -0.78621083 -43.721676 -47.354946 -132.41176
19500000000 -28.176514 -41.771095 -0.78417218 -45.768696 -0.78485411 -45.820705 -45.676067 -78.323692
19600000000 -27.768219 -45.752743 -0.78004378 -47.871914 -0.78637588 -47.89188 -49.555134 -50.237007
19700000000 -27.714245 -40.658752 -0.78026313 -49.938843 -0.78251195 -49.940308 -44.18858 -13.058801
19800000000 -27.186037 -44.248478 -0.78200674 -52.07103 -0.78419322 -52.079788 -49.064762 2.3043129
19900000000 -27.747675 -40.646477 -0.78304917 -54.144688 -0.78460538 -54.178017 -43.699924 -2.8758366
20000000000 -27.2015 -44.359959 -0.78723288 -56.231201 -0.79179919 -56.256516 -44.770844 -6.6318207
20100000000 -27.637184 -42.944092 -0.79377776 -58.320881 -0.79169047 -58.349697 -38.533337 -6.6808882
20200000000 -26.486052 -44.522022 -0.79932237 -60.397648 -0.79832858 -60.419594 -38.938839 -9.5063448
20300000000 -26.808367 -46.023232 -0.80715781 -62.532166 -0.79861295 -62.540588 -35.9538 0.31409258
20400000000 -25.834332 -44.674381 -0.80765754 -64.594223 -0.80916768 -64.612297 -37.273273 -7.5211568
20500000000 -26.241583 -49.384968 -0.82201475 -66.636459 -0.82404089 -66.649406 -36.193848 -11.397286
20600000000 -25.898233 -47.881008 -0.82832789 -68.610718 -0.82550919 -68.605606 -36.40126 -33.721626
20700000000 -26.50415 -54.507801 -0.80849254 -70.601273 -0.81373036 -70.627808 -34.757 -26.220125
20800000000 -26.423153 -49.030128 -0.80362266 -72.664421 -0.8043108 -72.707466 -33.354847 -27.659697
20900000000 -26.199045 -54.027939 -0.79061025 -74.804222 -0.79535985 -74.825203 -32.166039 -11.882757
21000000000 -26.059753 -49.964783 -0.79383337 -76.94062 -0.79957193 -76.93792 -32.326977 -12.961041
21100000000 -25.42943 -52.087708 -0.79801345 -79.033501 -0.79622144 -79.066994 -32.012558 -8.6907854
21200000000 -25.766769 -49.531734 -0.80079722 -81.165634 -0.80159914 -81.185432 -32.439381 -17.844303
21300000000 -25.480312 -52.031551 -0.80604166 -83.277321 -0.80683237 -83.317162 -31.654799 -22.666603
21400000000 -25.921213 -52.500607 -0.81790274 -85.399895 -0.8151961 -85.42646 -30.13155 -29.977329
21500000000 -25.202543 -56.356827 -0.82764345 -87.390015 -0.82487971 -87.423653 -29.334869 -33.539024
21600000000 -25.527382 -57.300144 -0.82345885 -89.337578 -0.82271045 -89.430122 -28.657625 -32.589787
21700000000 -25.174938 -56.648098 -0.80743557 -91.431335 -0.80825216 -91.44593 -28.715168 -25.21797
21800000000 -25.249292 -54.750713 -0.8037591 -93.546585 -0.80758244 -93.582954 -28.951216 -25.254942
21900000000 -24.969265 -54.453289 -0.81317687 -95.678772 -0.81415027 -95.707726 -28.676725 -24.592951
22000000000 -25.377304 -55.373302 -0.82600474 -97.749504 -0.827169 -97.777519 -28.86474 -34.625317
22100000000 -25.274797 -57.351044 -0.83312768 -99.766914 -0.8327865 -99.793907 -28.370207 -39.753883
22200000000 -25.757107 -59.4575 -0.82661939 -101.79312 -0.82462084 -101.8398 -28.010611 -44.054207
22300000000 -25.248276 -58.399731 -0.80950332 -103.9085 -0.8194443 -103.93217 -27.210522 -39.257259
22400000000 -25.487459 -58.19598 -0.81521261 -105.96056 -0.8169269 -105.99691 -26.896614 -39.597813
22500000000 -24.952446 -55.774197 -0.807733 -108.08453 -0.81110144 -108.10257 -26.907139 -35.466
22600000000 -25.632565 -57.556576 -0.81232566 -110.14595 -0.81318837 -110.15948 -27.065147 -41.575645
22700000000 -25.435766 -54.906513 -0.81705159 -112.25065 -0.8153007 -112.29607 -27.118975 -42.318825
22800000000 -25.59042 -61.412556 -0.81907356 -114.3547 -0.82069772 -114.37154 -26.37652 -51.067101
22900000000 -25.330685 -58.552544 -0.81630462 -116.44526 -0.82113272 -116.45601 -26.074999 -48.825523
23000000000 -24.910019 -62.341721 -0.82052797 -118.54688 -0.82483023 -118.54906 -25.479479 -52.310921
23100000000 -25.07276 -58.728508 -0.81709284 -120.60064 -0.81547964 -120.64806 -25.745989 -48.636703
23200000000 -24.619474 -60.174412 -0.82914305 -122.69242 -0.82489812 -122.72622 -25.534452 -53.638203
23300000000 -25.686386 -57.841637 -0.82195812 -124.79774 -0.82221746 -124.82809 -26.359568 -56.501686
23400000000 -25.262419 -60.755997 -0.82240516 -126.85307 -0.83371603 -126.90778 -25.287769 -63.882275
23500000000 -26.113636 -64.843094 -0.83240932 -128.91669 -0.82670802 -128.97612 -25.329102 -66.001518
23600000000 -25.03898 -64.466751 -0.83111483 -131.06091 -0.83780348 -131.04645 -24.065922 -65.03054
23700000000 -25.392786 -67.718719 -0.82731682 -133.09021 -0.83205467 -133.12187 -24.733183 -62.205189
23800000000 -24.906355 -63.500732 -0.83511138 -135.20436 -0.83967936 -135.20499 -24.850624 -62.253712
23900000000 -25.5965 -66.977493 -0.83241463 -137.25566 -0.8364318 -137.27328 -26.064024 -66.851669
24000000000 -26.013409 -60.943123 -0.8354615 -139.34619 -0.83935654 -139.39304 -25.787863 -74.970428
24100000000 -26.232985 -68.12265 -0.83495766 -141.42886 -0.83876866 -141.46765 -25.541636 -83.255928
24200000000 -26.514091 -64.059586 -0.84254938 -143.52644 -0.8391037 -143.54028 -24.472836 -81.393974
24300000000 -25.84269 -70.683167 -0.83794981 -145.56558 -0.83936781 -145.59967 -24.17868 -82.087212
24400000000 -26.15111 -65.38105 -0.8375985 -147.67377 -0.84012347 -147.66069 -24.318382 -75.808212
24500000000 -25.75457 -66.172569 -0.84307802 -149.71249 -0.83997369 -149.7494 -25.306763 -78.315132
24600000000 -27.050919 -63.266914 -0.84645611 -151.80615 -0.84440029 -151.84743 -26.412582 -79.561813
24700000000 -26.95505 -63.990322 -0.84396386 -153.87741 -0.84707868 -153.90077 -26.694168 -90.711708
24800000000 -28.046104 -65.84581 -0.84135872 -156.01454 -0.85189581 -156.03786 -26.276644 -96.060493
24900000000 -27.260136 -65.168892 -0.84799713 -158.04396 -0.84282094 -158.10335 -25.591774 -99.15934
25000000000 -27.441259 -65.786514 -0.83835703 -160.16473 -0.84648943 -160.18388 -25.137857 -94.765625
25100000000 -26.983027 -61.759548 -0.8420909 -162.18381 -0.84958214 -162.263 -25.862574 -93.199501
25200000000 -27.705355 -58.717041 -0.85043842 -164.28168 -0.8470211 -164.28189 -26.472466 -92.578995
25300000000 -27.754129 -55.071735 -0.84271657 -166.36453 -0.85167187 -166.35443 -27.782293 -99.205269
25400000000 -28.969067 -54.327663 -0.85389692 -168.45859 -0.85540652 -168.46167 -27.689768 -103.92812
25500000000 -28.713741 -52.529072 -0.85418493 -170.50218 -0.84833574 -170.56116 -28.215506 -109.58047
25600000000 -29.145369 -56.712227 -0.853181 -172.66449 -0.85232168 -172.67851 -27.868565 -111.07388
25700000000 -28.401941 -51.69017 -0.85430747 -174.70796 -0.85329193 -174.7303 -28.15107 -111.05503
25800000000 -28.82966 -52.440998 -0.85058832 -176.78484 -0.86001074 -176.82664 -29.011555 -110.64892
25900000000 -27.994694 -41.94331 -0.84743327 -178.89093 -0.85856515 -178.90724 -29.560141 -112.57706
26000000000 -28.573168 -44.599403 -0.85389942 179.06288 -0.8508805 179.04601 -30.903658 -114.90083
26100000000 -28.405861 -33.1413 -0.85950398 176.96092 -0.85623872 176.95889 -31.001579 -122.81203
26200000000 -28.683556 -39.383717 -0.84541374 174.8969 -0.85779524 174.8119 -32.52417 -122.35988
26300000000 -28.916607 -27.574156 -0.86301517 172.81082 -0.86724567 172.75578 -31.305227 -133.62
26400000000 -28.311037 -37.48962 -0.86571169 170.69244 -0.87163782 170.64777 -33.96986 -124.31535
26500000000 -28.841927 -23.563757 -0.86178732 168.64532 -0.86820191 168.58578 -33.500515 -139.90253
26600000000 -27.481579 -29.602345 -0.87145209 166.46706 -0.86188394 166.4462 -36.841576 -139.97795
26700000000 -27.99066 -20.45767 -0.86834735 164.44521 -0.85686207 164.39301 -36.550377 -147.4805
26800000000 -26.685364 -24.678846 -0.86922854 162.34904 -0.86109668 162.30475 -42.174294 -162.53838
26900000000 -27.815702 -16.853048 -0.87639993 160.3051 -0.87462848 160.16904 -37.27813 -170.89864
27000000000 -26.208576 -19.114864 -0.8829205 158.17332 -0.86684614 158.21071 -41.06461 126.27912
27100000000 -27.132179 -19.596083 -0.8860088 156.08643 -0.87418807 156.05502 -40.635563 164.55583
27200000000 -25.389139 -13.008556 -0.89154977 153.96202 -0.88231057 153.99481 -44.532803 103.58584
27300000000 -26.202307 -18.581654 -0.89929885 151.90521 -0.88510036 151.93073 -46.971428 84.292175
27400000000 -25.025381 -10.179597 -0.89334852 149.84644 -0.89752883 149.8707 -37.042503 63.642132
27500000000 -25.33852 -18.893778 -0.88485569 147.72383 -0.89999813 147.8055 -38.802311 59.539463
27600000000 -24.661438 -11.114807 -0.90685028 145.67863 -0.90924734 145.68323 -33.709759 73.946739
27700000000 -24.100386 -18.748983 -0.89021027 143.63878 -0.87989026 143.55142 -34.821392 60.281002
27800000000 -23.794464 -9.6801739 -0.8871752 141.53563 -0.89932942 141.46396 -32.643833 61.023499
27900000000 -23.051603 -12.942644 -0.89307541 139.49681 -0.88453197 139.41168 -32.702614 32.747803
28000000000 -23.420378 -8.6350565 -0.91908723 137.2886 -0.91126513 137.28554 -30.241232 43.348946
28100000000 -22.715059 -15.281858 -0.90612978 135.13194 -0.88235241 135.24533 -29.345324 31.32337
28200000000 -22.812431 -13.307419 -0.93711662 133.21085 -0.91476953 133.06329 -27.890858 37.088245
28300000000 -21.536209 -17.572845 -0.90704864 131.05392 -0.90726942 131.10626 -27.288532 29.839312
28400000000 -21.777327 -14.978892 -0.91207749 128.9595 -0.91059244 129.01144 -27.50445 33.146442
28500000000 -21.036203 -15.722585 -0.9290421 127.04182 -0.92901772 126.99677 -26.429098 21.972975
28600000000 -21.210592 -15.898746 -0.9337877 124.91016 -0.94361967 124.89455 -25.877148 23.017897
28700000000 -20.652822 -16.000713 -0.92421198 122.98724 -0.92320269 122.96204 -24.512445 19.632006
28800000000 -21.223064 -17.034054 -0.93609148 120.92988 -0.93652886 120.67284 -24.692369 25.940102
28900000000 -20.201431 -16.902525 -0.92729449 118.72695 -0.92916006 118.5698 -24.170101 17.871614
29000000000 -20.479008 -19.624941 -0.95953476 116.6345 -0.94635707 116.54661 -23.940037 18.195961
29100000000 -19.737432 -19.747784 -0.92852306 114.61425 -0.9181453 114.42229 -23.436081 6.8389397
29200000000 -19.971334 -21.833397 -0.94157654 112.53118 -0.94013053 112.48592 -22.168571 10.186223
29300000000 -19.243109 -17.539694 -0.92266357 110.328 -0.92196381 110.37592 -21.352451 7.6961803
29400000000 -19.508566 -22.442823 -0.93742883 108.40526 -0.93758303 108.44081 -21.129047 15.649055
29500000000 -19.380947 -19.715748 -0.91797358 106.30148 -0.94325072 106.14076 -21.299683 8.6192741
29600000000 -19.384224 -26.549105 -0.95009512 104.16183 -0.94022727 103.9158 -21.920107 11.238221
29700000000 -18.967104 -20.535789 -0.93697596 102.07416 -0.95533377 101.97488 -21.192757 0.0865696
29800000000 -18.549791 -27.987225 -0.95357525 99.924873 -0.96177822 99.879097 -21.069365 1.4878465
29900000000 -18.783052 -23.061537 -0.94655859 97.826088 -0.9388479 97.926208 -19.898514 -6.1349173
30000000000 -17.997168 -25.177677 -0.96258366 95.80513 -0.97832006 95.821075 -19.744204 -1.4798474
30100000000 -18.649311 -24.023315 -0.95880932 93.650764 -0.95159537 93.602768 -18.919312 -6.0414696
30200000000 -17.825943 -27.741766 -0.96227932 91.846542 -0.99147516 91.741844 -19.784632 -2.4252071
30300000000 -18.439373 -31.523249 -0.97890896 89.462791 -0.95098245 89.622505 -18.999802 -8.0497198
30400000000 -17.475954 -30.463207 -0.9758752 87.62796 -0.96189487 87.515335 -19.852114 -11.86812
30500000000 -18.067492 -34.884064 -0.98583776 85.50589 -0.96204829 85.566765 -18.659904 -15.726252
30600000000 -17.354904 -29.947092 -0.96550697 83.32486 -0.99719286 83.307617 -18.879929 -18.564228
30700000000 -17.487801 -37.021511 -0.96917546 81.345802 -1.0021361 81.282959 -17.952038 -18.036051
30800000000 -17.406549 -33.770241 -1.0178428 79.366951 -0.99507618 79.29451 -18.61355 -17.990858
30900000000 -17.312777 -37.83263 -1.0048138 77.105614 -0.9982397 77.275742 -17.778992 -19.071726
31000000000 -17.306416 -34.399281 -0.99962991 75.223373 -1.0121564 75.100365 -18.205088 -24.522614
31100000000 -17.070719 -40.702991 -0.99830359 73.084785 -0.99503291 73.078011 -18.102406 -26.227736
31200000000 -17.201353 -39.030201 -1.0074987 71.063957 -1.0028901 71.07412 -17.582018 -30.587103
31300000000 -16.715862 -41.895393 -0.9990356 68.940186 -0.97991055 69.125061 -17.385326 -30.446346
31400000000 -16.882616 -40.550884 -0.9917165 67.0392 -0.96949482 66.871147 -17.339144 -33.448643
31500000000 -16.666265 -42.175674 -0.97764921 64.832359 -1.0120119 64.956406 -17.277987 -30.884016
31600000000 -17.198526 -42.84549 -1.0039682 62.65308 -1.0079851 62.734142 -17.519209 -36.190712
31700000000 -17.107321 -45.890888 -1.0012891 60.739124 -0.99970782 60.734024 -17.401001 -35.797058
31800000000 -17.034437 -46.770985 -1.00351 58.724197 -1.0090561 58.65884 -17.598845 -43.4473
31900000000 -16.395184 -48.072948 -0.97460657 56.607845 -0.9827469 56.504765 -16.943634 -43.197994
32000000000 -16.70513 -49.464634 -0.97125399 54.462746 -0.997329 54.537502 -16.929895 -46.376999
32100000000 -16.740465 -48.964436 -0.96917158 52.538887 -0.97467947 52.432808 -16.579277 -44.393696
32200000000 -17.24231 -49.722202 -0.97967827 50.463772 -1.0030848 50.445038 -16.905375 -47.633335
32300000000 -17.130638 -50.702713 -1.0094866 48.340088 -1.0122178 48.27597 -17.170206 -46.465775
32400000000 -17.289242 -56.265404 -0.99989843 46.218021 -0.99426442 46.206711 -17.880131 -52.494053
32500000000 -16.912752 -54.617069 -1.0002909 44.095303 -0.99411601 44.062981 -17.344318 -54.997219
32600000000 -17.113419 -57.678215 -0.98133999 42.127392 -0.99747658 41.970821 -17.18671 -59.668465
32700000000 -17.280832 -52.587757 -1.0055522 39.91394 -1.014727 39.831577 -16.948273 -60.666691
32800000000 -17.378674 -57.356541 -0.98870987 37.902615 -0.98868841 37.88242 -16.663895 -60.152412
32900000000 -17.923615 -55.318192 -0.98247033 35.796001 -0.99283105 35.783062 -17.167147 -59.040161
33000000000 -17.548431 -60.631161 -1.0181634 33.732372 -1.0032188 33.824963 -17.496771 -61.059414
33100000000 -17.968174 -59.965893 -0.99705124 31.710442 -1.0171922 31.66917 -18.128157 -64.361343
33200000000 -17.355158 -61.796417 -0.98991138 29.672005 -1.0098877 29.565052 -17.226109 -70.818665
33300000000 -18.16534 -61.087452 -0.99141014 27.805128 -1.0197958 27.489292 -17.898731 -71.770729
33400000000 -17.683928 -60.387711 -0.99105144 25.518391 -1.0069585 25.367657 -17.325573 -71.778549
33500000000 -18.382019 -64.818695 -0.98336238 23.484686 -1.0282214 23.547113 -17.83968 -73.191833
33600000000 -17.987288 -61.596035 -0.9633491 21.312695 -0.99303406 21.319777 -17.680037 -73.425774
33700000000 -18.524523 -65.064171 -1.0089213 19.407251 -0.99778175 19.293612 -18.517807 -77.333672
33800000000 -18.298285 -64.526138 -0.97158164 17.297819 -0.98843324 17.225344 -18.762266 -79.497627
33900000000 -18.7824 -68.211586 -0.97928452 15.05838 -0.99361682 15.032606 -18.531778 -82.045753
34000000000 -18.946741 -63.781883 -0.95506185 13.009872 -0.97352302 12.779517 -18.901358 -82.681122
34100000000 -19.165693 -67.198662 -0.95605761 10.851751 -0.96334004 10.677395 -19.259003 -85.957832
34200000000 -19.865637 -61.566498 -0.99399072 8.7344952 -0.93264878 8.8031664 -20.009361 -82.514053
34300000000 -19.813845 -65.889091 -0.96982038 6.6925435 -0.96906513 6.4394279 -20.251444 -89.290001
34400000000 -20.439552 -64.061584 -1.0151472 4.8110118 -0.98080397 4.3945208 -20.543209 -89.363472
34500000000 -20.144918 -67.407219 -1.0085493 2.2950656 -1.0094372 2.4027219 -20.53783 -95.044846
34600000000 -20.366655 -63.047672 -0.96062064 0.14286716 -0.99523371 0.28643191 -20.578115 -91.564896
34700000000 -20.473015 -63.027294 -1.0085601 -1.7024643 -0.99783778 -1.7414563 -20.898085 -91.536758
34800000000 -21.197094 -63.102139 -0.99075907 -3.8743634 -0.99704403 -3.9326851 -21.801916 -90.224113
34900000000 -21.359123 -61.972187 -0.99435097 -5.9650497 -1.0052915 -6.0887876 -23.362974 -96.913269
35000000000 -21.779381 -59.960449 -1.0038424 -7.983418 -0.98889577 -8.1658506 -24.601757 -103.91804
35100000000 -21.84898 -56.646381 -0.99792147 -10.122128 -0.97329724 -10.123082 -24.140343 -104.60215
35200000000 -22.099604 -55.742519 -1.0311836 -12.175919 -0.99920046 -12.261607 -24.107687 -104.43115
35300000000 -21.564264 -55.70034 -1.014675 -14.301199 -1.0192995 -14.497063 -23.964035 -97.8508
35400000000 -23.021708 -49.337257 -1.0398912 -16.334654 -1.0411922 -16.599287 -24.705904 -95.331436
35500000000 -21.883728 -46.711281 -1.0487764 -18.409731 -1.0428226 -18.323727 -27.270809 -96.898888
35600000000 -23.13142 -52.082268 -1.0170951 -20.365116 -1.0047394 -20.586658 -28.461115 -98.928352
35700000000 -22.148302 -48.459396 -1.040013 -22.596399 -1.0194173 -22.499523 -29.568205 -105.65382
35800000000 -22.761749 -51.20784 -1.0050174 -24.714769 -1.013872 -24.754915 -30.557756 -106.04031
35900000000 -22.122324 -37.68322 -1.013332 -26.798746 -1.0286826 -26.506542 -28.786316 -115.58559
36000000000 -22.635817 -39.717575 -1.0401968 -28.813984 -0.98565751 -28.913332 -34.28772 -75.584175
36100000000 -22.400789 -23.679352 -0.98445296 -30.944641 -1.0471121 -31.201008 -37.699184 -77.115685
36200000000 -22.406042 -38.288067 -0.98992503 -33.052345 -0.97995466 -33.007942 -34.596836 -39.51083
36300000000 -22.887934 -24.16857 -1.0142313 -35.503368 -1.0365213 -35.223038 -44.825653 -0.17140581
36400000000 -22.19632 -33.293518 -0.91903925 -37.568764 -0.99594831 -37.463692 -39.208046 -31.529737
36500000000 -22.357546 -21.128929 -1.0331949 -39.466259 -0.9790507 -39.564167 -37.747166 -3.4152348
36600000000 -20.085474 -27.714912 -0.96204507 -41.377964 -0.95510858 -41.616299 -27.989832 5.5663385
36700000000 -20.973177 -17.696442 -0.99833417 -43.317673 -1.0059483 -43.575733 -29.070055 10.425799
36800000000 -19.478588 -16.622953 -1.0404339 -45.538883 -1.043027 -45.877842 -25.013727 23.239166
36900000000 -21.145147 -14.418227 -1.039173 -47.977245 -1.0562752 -48.08382 -26.071955 35.473118
37000000000 -19.566519 -18.702278 -1.0409602 -49.882832 -1.067047 -50.075546 -24.830448 33.961796
37100000000 -20.052034 -26.779127 -1.04045 -52.242321 -1.043421 -52.204586 -26.154154 17.615971
37200000000 -18.063536 -17.410315 -1.0041125 -54.307858 -0.99472201 -54.053188 -23.881752 10.838403
37300000000 -18.478327 -15.513346 -1.002952 -56.454643 -1.0745022 -56.678543 -22.004831 6.1815228
37400000000 -17.873001 -10.375699 -1.0204977 -58.587021 -0.96780372 -58.605755 -20.036442 13.407036
37500000000 -18.18298 -15.792757 -1.0179602 -60.340332 -1.0440027 -60.601925 -20.394354 15.538073
37600000000 -18.01738 -16.289141 -1.1140329 -62.373077 -1.0767419 -62.590633 -19.834908 18.127529
37700000000 -17.640604 -19.78582 -1.0421256 -64.639755 -1.0766686 -64.910782 -19.968937 18.540976
37800000000 -16.900019 -16.545206 -1.1089232 -66.727768 -1.0988802 -66.776146 -19.930252 10.375236
37900000000 -16.230824 -18.439539 -1.1141918 -68.898438 -1.0581349 -69.11805 -19.706789 2.7191184
38000000000 -16.314085 -15.468025 -1.0941606 -71.048134 -1.082304 -70.923889 -18.522196 -1.6790389
38100000000 -16.419722 -19.024591 -1.0459197 -72.849228 -1.1133424 -73.180511 -17.560881 1.2028151
38200000000 -16.041536 -17.761822 -1.1329566 -75.451912 -1.0901299 -75.23822 -16.936762 1.7090379
38300000000 -16.019251 -21.080996 -1.131083 -77.281723 -1.0891302 -77.189491 -17.188807 7.341949
38400000000 -15.209418 -20.339863 -1.0906932 -79.192703 -1.0732278 -79.241936 -17.47426 1.7825288
38500000000 -15.075602 -24.370481 -1.154089 -81.31321 -1.1300621 -81.651855 -17.330114 -1.8546854
38600000000 -15.113985 -19.470228 -1.1177433 -83.365013 -1.1196539 -83.42218 -16.292725 -7.8180838
38700000000 -14.69196 -21.985184 -1.1515019 -85.580292 -1.1360682 -85.680336 -15.908261 -11.506925
38800000000 -15.007505 -21.600988 -1.1117802 -87.422722 -1.1311902 -87.460617 -15.216885 -9.0504427
38900000000 -14.459043 -25.598446 -1.1243094 -89.649857 -1.2212054 -89.564133 -15.676111 -9.0275011
39000000000 -15.03347 -25.297777 -1.1719487 -91.891052 -1.2164685 -91.770279 -15.141097 -7.6471372
39100000000 -13.870749 -26.943768 -1.1814524 -94.400673 -1.192106 -94.205368 -15.740148 -17.304646
39200000000 -14.452203 -30.778206 -1.1733278 -95.817543 -1.2033225 -95.856918 -14.5948 -18.504707
39300000000 -13.41083 -26.226994 -1.1673164 -98.112091 -1.2192214 -98.299225 -14.24936 -21.930273
39400000000 -13.973204 -31.038897 -1.1409447 -99.323761 -1.2145452 -99.943756 -13.39917 -17.452644
39500000000 -13.913752 -25.062479 -1.2448597 -101.96104 -1.230197 -102.16149 -13.971461 -21.88055
39600000000 -13.936432 -36.133984 -1.2317713 -104.00212 -1.204563 -103.99807 -13.843534 -15.973655
39700000000 -13.566249 -34.445534 -1.1896187 -106.16632 -1.2207417 -106.29633 -14.678715 -26.113623
39800000000 -12.927769 -38.07761 -1.200793 -108.03403 -1.2375591 -108.0701 -13.921813 -27.115719
39900000000 -13.373315 -33.479496 -1.2295685 -110.03754 -1.186175 -110.28509 -13.431592 -36.773785
40000000000 -12.843193 -36.09272 -1.1822996 -112.33396 -1.2012893 -112.6144 -12.810031 -33.315155
40100000000 -14.031982 -35.953266 -1.2176363 -114.72298 -1.2395784 -114.61417 -12.597167 -34.952923
40200000000 -13.328096 -39.535538 -1.2273148 -116.50565 -1.2063298 -116.31454 -12.993628 -31.858448
40300000000 -13.642545 -43.858421 -1.1914238 -118.75116 -1.2112955 -118.64017 -13.260747 -34.098232
40400000000 -12.720338 -42.668655 -1.2832373 -120.33393 -1.2277908 -120.48144 -14.001941 -39.313023
40500000000 -12.993394 -44.324654 -1.2351438 -122.51659 -1.2725698 -122.75021 -13.332785 -43.890938
40600000000 -12.793444 -39.558643 -1.2161406 -124.54713 -1.2485642 -124.68214 -13.12637 -45.855801
40700000000 -13.348357 -45.426517 -1.2143275 -126.47591 -1.2826951 -126.87332 -12.338149 -46.626392
40800000000 -13.259588 -43.122265 -1.2926191 -128.75525 -1.2807012 -128.58372 -12.5428 -43.82753
40900000000 -12.733556 -48.553814 -1.2668815 -130.77901 -1.1987983 -130.88179 -12.938663 -43.573555
41000000000 -12.631963 -50.331375 -1.2562141 -133.00967 -1.2731875 -132.75699 -12.966417 -47.041458
41100000000 -12.959489 -49.797432 -1.2775263 -134.94968 -1.2795632 -135.224 -13.258531 -51.038822
41200000000 -13.035278 -47.552586 -1.2972974 -137.14734 -1.3078129 -136.73097 -12.877034 -52.414482
41300000000 -13.119031 -51.014957 -1.230678 -138.68141 -1.2602392 -139.09528 -13.244055 -56.269543
41400000000 -13.153893 -50.872726 -1.2911501 -140.98586 -1.2203879 -140.60764 -12.637311 -54.040993
41500000000 -13.210523 -53.86145 -1.2243812 -142.60413 -1.2292019 -142.85428 -12.533662 -58.83461
41600000000 -12.985233 -54.421535 -1.2827973 -145.06419 -1.28452 -145.11378 -12.996583 -58.763874
41700000000 -12.910724 -57.144966 -1.2882179 -146.72221 -1.3031533 -146.73981 -13.041848 -63.678627
41800000000 -13.168675 -54.326038 -1.2611864 -148.93582 -1.2817707 -149.03719 -13.122656 -62.517124
41900000000 -12.909784 -60.258865 -1.2132478 -150.93494 -1.2342044 -151.27869 -13.330294 -68.833626
42000000000 -13.458593 -57.743122 -1.2184471 -152.76184 -1.2247669 -153.0164 -13.435675 -66.657288
42100000000 -13.128564 -59.946632 -1.2755761 -154.86256 -1.2383126 -155.49588 -13.150046 -69.51384
42200000000 -14.017691 -60.51403 -1.2058452 -157.62515 -1.2682554 -157.32973 -13.840029 -70.179016
42300000000 -13.765713 -60.123199 -1.1888696 -159.30792 -1.264546 -158.86961 -13.364861 -73.267342
42400000000 -14.568 -62.742775 -1.2094579 -161.1114 -1.2181051 -161.24944 -14.255865 -77.30262
42500000000 -13.637452 -64.758522 -1.1353974 -163.25143 -1.1519892 -163.25861 -14.21677 -78.786278
42600000000 -14.067572 -66.807846 -1.1381737 -165.47165 -1.1022868 -164.99191 -14.89936 -81.083412
42700000000 -14.232673 -60.770756 -1.1794875 -167.96461 -1.1932677 -167.65564 -13.725683 -83.003326
42800000000 -14.482123 -64.676781 -1.1439502 -169.56671 -1.1168491 -169.74193 -14.725332 -87.980148
42900000000 -15.649782 -60.344696 -1.1332537 -171.99348 -1.1862642 -172.03029 -14.350125 -80.7855
43000000000 -15.08327 -71.301651 -1.1629729 -173.90396 -1.1463253 -173.62624 -14.949426 -83.825409
43100000000 -15.732058 -70.809654 -1.1194148 -176.14903 -1.1457578 -176.81491 -15.980381 -84.754929
43200000000 -14.40336 -70.922646 -1.1334819 -178.38571 -1.141052 -178.39647 -16.258497 -94.509865
43300000000 -16.3622 -66.722641 -1.1956033 -179.85451 -1.1547954 -179.58145 -16.540363 -95.842621
43400000000 -15.025678 -64.313477 -1.11839 177.43246 -1.1031137 177.57513 -16.199974 -97.330223
43500000000 -16.551825 -69.272926 -1.1016819 175.39279 -1.1523139 175.22325 -16.696478 -98.814217
43600000000 -17.334641 -63.593803 -1.0552202 173.50444 -1.0896994 173.17722 -16.268221 -94.822533
43700000000 -17.674198 -76.161263 -1.2009726 171.32375 -1.0728281 170.51462 -17.912683 -89.804588
43800000000 -17.207571 -69.335907 -1.0773891 168.7897 -1.0726581 169.40303 -19.792671 -93.900688
43900000000 -17.196419 -71.348671 -1.1336666 167.59563 -1.1346776 167.09369 -21.291412 -106.58741
44000000000 -18.161266 -57.152367 -1.0159596 164.44617 -1.1065329 164.92912 -19.651976 -106.57371
44100000000 -17.640261 -61.650284 -1.1183598 162.40659 -1.1219103 162.34555 -20.278952 -109.25249
44200000000 -19.298328 -54.097061 -1.0917169 160.34367 -1.1256108 160.54869 -19.752373 -103.74128
44300000000 -18.830824 -59.01931 -1.0748546 158.15199 -1.1158251 158.58998 -22.402273 -96.314278
44400000000 -20.135408 -62.881878 -1.1283714 156.49269 -1.1879673 155.8996 -23.75602 -100.98919
44500000000 -18.893988 -59.935997 -1.1008663 154.2121 -1.1628356 153.70969 -25.409094 -108.1367
44600000000 -18.391613 -52.528484 -1.118753 152.09906 -1.1272242 152.15283 -27.809639 -106.52786
44700000000 -18.556635 -37.698254 -1.1855464 150.56013 -1.1713754 149.6205 -28.126606 -111.19147
44800000000 -19.781393 -47.570187 -1.1257782 147.36333 -1.149628 147.19305 -27.725121 -77.498482
44900000000 -19.356865 -40.797375 -1.1476499 145.42776 -1.1130985 145.36633 -29.075974 -69.849419
45000000000 -19.74007 -34.113266 -1.18246 143.51683 -1.1410931 143.26044 -32.809261 -22.914673
