!Keysight Technologies,N5247B,MY61255062,A.19.80.06
!Date: Monday, May 18, 2026 12:31:10
!Correction: S11(Cdelta 2-Port  ) 
!S21(Cdelta 2-Port  ) 
!S12(Cdelta 2-Port  ) 
!S22(Cdelta 2-Port  ) 
!S2P File: Measurements: S11, S21, S12, S22:
# Hz S  dB   R 50
1000000000 -26.903372 -26.543201 -0.39868572 -21.491053 -0.39799201 -21.490448 -27.26965 -28.720612
1100000000 -26.835684 -30.224463 -0.41151133 -23.589764 -0.40979049 -23.584515 -27.297758 -32.194656
1200000000 -26.770821 -32.922352 -0.41939244 -25.637707 -0.41928437 -25.634827 -27.307848 -34.436237
1300000000 -26.678568 -36.242336 -0.42571723 -27.754656 -0.42548996 -27.755169 -27.177263 -37.972599
1400000000 -26.554901 -38.518822 -0.43083334 -29.787518 -0.4298518 -29.791164 -27.120956 -39.567116
1500000000 -26.449656 -41.897362 -0.43362761 -31.878157 -0.43264088 -31.873352 -26.936262 -42.665802
1600000000 -26.406639 -44.787315 -0.43799421 -33.972668 -0.43655708 -33.979862 -26.792662 -46.264717
1700000000 -26.226442 -47.966854 -0.43918148 -36.053055 -0.44066477 -36.051029 -26.717802 -49.015171
1800000000 -26.076309 -51.134315 -0.44246668 -38.144642 -0.44248101 -38.14814 -26.565769 -52.236023
1900000000 -25.962589 -54.172195 -0.4446094 -40.246738 -0.444536 -40.24437 -26.41646 -55.378143
2000000000 -25.909025 -57.290092 -0.45222396 -42.353256 -0.45182008 -42.352066 -26.346535 -58.822628
2100000000 -25.769157 -60.410366 -0.45506883 -44.433434 -0.45421976 -44.431229 -26.283281 -61.697475
2200000000 -25.751095 -63.461475 -0.45956871 -46.520195 -0.45872077 -46.527367 -26.151041 -64.7845
2300000000 -25.662346 -66.71756 -0.46524575 -48.621105 -0.46468624 -48.633457 -26.074812 -68.024445
2400000000 -25.622759 -69.747078 -0.47171739 -50.714241 -0.46994337 -50.712788 -26.062302 -70.991638
2500000000 -25.552919 -72.428841 -0.47667131 -52.815063 -0.47566581 -52.813301 -25.920971 -74.394936
2600000000 -25.529371 -75.703918 -0.48213938 -54.903549 -0.48208731 -54.891663 -25.919098 -77.488014
2700000000 -25.513893 -78.400253 -0.48939589 -56.967552 -0.48767865 -56.977146 -25.857414 -80.887306
2800000000 -25.516926 -81.789772 -0.49509439 -59.037548 -0.49627098 -59.046406 -25.819279 -83.536491
2900000000 -25.56852 -84.677834 -0.50037515 -61.130127 -0.49837947 -61.121792 -25.781099 -86.726578
3000000000 -25.505144 -87.577675 -0.50385928 -63.193054 -0.50401306 -63.186497 -25.805172 -89.325195
3100000000 -25.533354 -90.506142 -0.50691915 -65.260597 -0.50792229 -65.270279 -25.856638 -92.486191
3200000000 -25.438379 -93.10247 -0.51041377 -67.337494 -0.51308084 -67.329536 -25.858204 -94.931793
3300000000 -25.443636 -95.913002 -0.51622653 -69.407227 -0.51724672 -69.40538 -25.828787 -97.999283
3400000000 -25.463299 -98.581253 -0.5206697 -71.47036 -0.52053165 -71.480965 -25.803953 -100.64951
3500000000 -25.499834 -101.59032 -0.52509117 -73.563339 -0.52249259 -73.549576 -25.81085 -102.84271
3600000000 -25.500755 -103.81681 -0.52519166 -75.608719 -0.52436441 -75.625877 -25.821236 -105.30512
3700000000 -25.542215 -106.7968 -0.52907091 -77.681297 -0.52785498 -77.692093 -25.777458 -107.67746
3800000000 -25.605314 -109.20249 -0.53093237 -79.766937 -0.53086102 -79.779541 -25.773893 -110.17634
3900000000 -25.644747 -111.82851 -0.53402281 -81.851341 -0.53388083 -81.858772 -25.800259 -112.81019
4000000000 -25.668047 -114.0438 -0.53749275 -83.928276 -0.53775263 -83.934402 -25.854065 -115.33112
4100000000 -25.702381 -117.14703 -0.54405951 -86.007561 -0.54238302 -86.012566 -25.885403 -117.55553
4200000000 -25.79035 -119.24574 -0.54637247 -88.054817 -0.54615057 -88.080536 -25.936197 -119.88409
4300000000 -25.825111 -121.86421 -0.54690945 -90.146591 -0.54880387 -90.1493 -25.939812 -122.41926
4400000000 -26.001907 -124.39358 -0.55028009 -92.221085 -0.55130476 -92.213486 -26.063129 -124.71681
4500000000 -26.072262 -126.52518 -0.55239379 -94.288918 -0.55440265 -94.290703 -26.044825 -127.0732
4600000000 -26.198959 -129.3791 -0.55581814 -96.362213 -0.55759841 -96.367157 -26.163483 -129.53558
4700000000 -26.25045 -131.74319 -0.56149322 -98.443176 -0.55916512 -98.440201 -26.161467 -131.59309
4800000000 -26.418009 -134.67137 -0.56265813 -100.51585 -0.56278163 -100.52283 -26.293041 -133.95276
4900000000 -26.578066 -136.71019 -0.56528735 -102.59901 -0.56655246 -102.58669 -26.324797 -135.61847
5000000000 -26.706053 -139.24684 -0.56848347 -104.66129 -0.56891048 -104.66444 -26.468546 -138.2601
5100000000 -26.930555 -141.42238 -0.57025099 -106.74307 -0.57204545 -106.73814 -26.651676 -139.72913
5200000000 -27.068237 -143.79599 -0.57484168 -108.81147 -0.57458198 -108.80942 -26.798988 -142.93155
5300000000 -27.274511 -146.34016 -0.5764004 -110.866 -0.57803833 -110.88035 -26.876986 -145.04565
5400000000 -27.414137 -149.15517 -0.58081889 -112.95839 -0.5810864 -112.96198 -26.903494 -147.78183
5500000000 -27.656996 -151.28763 -0.58272791 -115.02641 -0.58299845 -115.01565 -26.97677 -149.11781
5600000000 -27.807384 -154.41701 -0.58573067 -117.0942 -0.58674628 -117.08992 -27.059036 -151.02113
5700000000 -28.10828 -156.46687 -0.58971304 -119.14668 -0.58967358 -119.16013 -27.280432 -152.06119
5800000000 -28.3214 -158.73503 -0.59153694 -121.21978 -0.5916903 -121.21233 -27.510336 -154.4053
5900000000 -28.599768 -162.11331 -0.59387147 -123.27377 -0.59430927 -123.28654 -27.75429 -156.77647
6000000000 -28.77388 -163.98769 -0.59438878 -125.33248 -0.59794033 -125.35102 -27.829084 -159.98245
6100000000 -29.180811 -167.33507 -0.59851193 -127.38995 -0.59739614 -127.39522 -27.954441 -162.45656
6200000000 -29.596838 -169.7989 -0.59683239 -129.45175 -0.59814918 -129.47917 -28.053493 -164.47881
6300000000 -30.107752 -173.7583 -0.59677148 -131.53073 -0.59714633 -131.52422 -28.376465 -165.55086
6400000000 -30.569208 -176.65359 -0.59850538 -133.59718 -0.59786189 -133.59062 -28.634872 -167.27043
6500000000 -31.077936 179.33372 -0.59757674 -135.66258 -0.59686059 -135.66696 -29.196934 -169.32384
6600000000 -31.559511 177.66263 -0.59620994 -137.73993 -0.59664822 -137.76172 -29.484501 -171.75798
6700000000 -31.987568 173.6743 -0.59635216 -139.83092 -0.59708542 -139.84692 -29.827175 -173.29968
6800000000 -32.84375 172.41812 -0.59717333 -141.93718 -0.59986275 -141.94287 -30.007624 -174.86259
6900000000 -33.448498 169.31439 -0.59997272 -144.04839 -0.60103923 -144.06129 -30.447351 -174.73172
7000000000 -33.997536 170.18098 -0.61374164 -146.12035 -0.6125164 -146.13913 -30.457386 -174.28784
7100000000 -34.288624 161.75264 -0.61031485 -148.12354 -0.61319995 -148.12523 -30.807293 -179.15683
7200000000 -35.443733 155.7179 -0.6069181 -150.22931 -0.60720032 -150.24026 -31.335924 177.90201
7300000000 -36.395771 151.37448 -0.61301959 -152.32268 -0.613397 -152.32396 -31.896799 177.45262
7400000000 -38.309628 145.43941 -0.61664659 -154.38315 -0.61569858 -154.39803 -32.219372 179.29007
7500000000 -38.949722 149.05656 -0.62389189 -156.44662 -0.62177622 -156.46977 -32.46133 -177.16953
7600000000 -40.340172 135.29897 -0.61579698 -158.49677 -0.61766648 -158.50981 -32.795696 -179.41798
7700000000 -41.746197 127.87415 -0.61338001 -160.57623 -0.61518615 -160.59436 -33.940674 178.71355
7800000000 -42.914986 114.53204 -0.61708343 -162.68645 -0.6167928 -162.69258 -34.148479 175.41383
7900000000 -45.069637 106.82513 -0.61898243 -164.78197 -0.61879557 -164.78328 -34.380756 173.32687
8000000000 -45.147137 87.224098 -0.62228912 -166.85132 -0.62157011 -166.87621 -34.159008 175.84988
8100000000 -46.520836 56.866776 -0.62629467 -168.94249 -0.62649083 -168.95183 -34.756344 -179.13791
8200000000 -45.265446 45.029758 -0.63052541 -171.05244 -0.62972009 -171.05585 -35.897831 -171.76131
8300000000 -42.999584 25.806147 -0.63223749 -173.14671 -0.63437414 -173.14983 -38.564117 -177.7963
8400000000 -41.568584 24.329157 -0.64387918 -175.26517 -0.64493734 -175.2616 -39.814835 157.54979
8500000000 -39.631966 8.1485672 -0.67181748 -177.39935 -0.67224079 -177.42999 -34.549503 132.59196
8600000000 -42.10873 -7.9984326 -0.74904364 -179.28766 -0.74878585 -179.30759 -28.475704 128.62947
8700000000 -36.383686 48.822247 -0.69280553 179.99301 -0.6917572 179.98918 -24.234573 104.46093
8800000000 -33.814693 -6.130775 -0.52827829 176.97185 -0.52990633 176.98703 -28.776546 92.616478
8900000000 -36.118382 -17.188639 -0.58635014 174.42949 -0.5857529 174.41866 -33.364502 123.5378
9000000000 -36.296238 -16.613499 -0.61715978 172.32811 -0.62059385 172.30923 -34.278191 164.4579
9100000000 -34.96582 -18.3127 -0.6330511 170.24879 -0.63768929 170.25806 -34.978527 -170.50737
9200000000 -34.176235 -25.670626 -0.64249831 168.19936 -0.64425415 168.19083 -36.090816 -150.34216
9300000000 -33.360176 -28.377724 -0.64703089 166.15791 -0.6491006 166.13219 -38.953793 -141.35384
9400000000 -33.018425 -32.687263 -0.65069884 164.10042 -0.65250403 164.07167 -40.454029 -140.19728
9500000000 -32.512032 -32.561916 -0.65758342 162.03819 -0.65603715 162.0309 -41.864693 -152.50244
9600000000 -31.801788 -36.314606 -0.66060585 159.98001 -0.65973794 159.95967 -40.231251 -154.99634
9700000000 -31.445841 -37.821281 -0.66164547 157.90047 -0.66233134 157.87523 -39.44463 -150.95856
9800000000 -30.801836 -41.485081 -0.66241515 155.83545 -0.6646207 155.8152 -38.669556 -143.17438
9900000000 -30.694492 -43.159878 -0.66758406 153.76605 -0.66522074 153.75677 -39.55304 -135.43588
10000000000 -30.121384 -45.628391 -0.67168993 151.69467 -0.67016703 151.68018 -39.307812 -131.44543
10100000000 -29.982843 -46.505821 -0.67154223 149.62798 -0.67060745 149.59401 -40.55175 -136.99606
10200000000 -29.327782 -48.749207 -0.67308038 147.55743 -0.67421192 147.52692 -39.457394 -139.64519
10300000000 -29.279299 -51.198814 -0.67767227 145.47752 -0.67828047 145.47527 -39.197224 -140.29382
10400000000 -28.789515 -52.957928 -0.67998272 143.39534 -0.67918783 143.38152 -37.921337 -133.04645
10500000000 -28.751959 -57.027321 -0.68227202 141.31026 -0.68423796 141.30005 -37.936726 -127.90662
10600000000 -28.344688 -57.571781 -0.68640059 139.25299 -0.68529201 139.25372 -37.599426 -120.88296
10700000000 -28.03043 -61.009701 -0.68691695 137.18198 -0.68758166 137.1935 -38.201557 -121.2634
10800000000 -27.747866 -60.526165 -0.68949687 135.12022 -0.69382828 135.11446 -38.595863 -117.20465
10900000000 -27.389057 -63.185181 -0.69453597 133.03543 -0.69468176 133.04231 -39.01881 -125.43423
11000000000 -27.386183 -64.497749 -0.69727206 130.99515 -0.70071256 130.98512 -38.169994 -124.28098
11100000000 -27.156677 -67.800232 -0.70447451 128.93867 -0.70275718 128.92856 -37.576126 -130.36812
11200000000 -27.215626 -68.939857 -0.70366138 126.87791 -0.70368147 126.85153 -36.765892 -121.4774
11300000000 -26.808371 -71.252502 -0.70753652 124.79544 -0.70925939 124.79247 -36.690624 -125.86494
11400000000 -26.799149 -73.384277 -0.70975375 122.74291 -0.71068966 122.72476 -36.038914 -118.20354
11500000000 -26.514856 -75.340446 -0.71197921 120.71803 -0.7117005 120.68511 -36.101841 -118.84371
11600000000 -26.528793 -78.383057 -0.71274382 118.63667 -0.71499097 118.61636 -35.932468 -117.91703
11700000000 -26.247475 -79.0196 -0.71530807 116.59152 -0.71681178 116.56845 -36.364822 -123.55814
11800000000 -26.310635 -82.098175 -0.7175284 114.53401 -0.71909428 114.52867 -35.789646 -123.11884
11900000000 -26.189287 -82.677856 -0.71977675 112.48776 -0.72368795 112.47898 -35.638439 -126.71104
12000000000 -26.298796 -85.703621 -0.72070628 110.4412 -0.7229706 110.41988 -35.289799 -120.8411
12100000000 -26.232756 -87.38253 -0.71959132 108.38395 -0.72257471 108.38475 -34.98024 -127.99625
12200000000 -26.204792 -90.937271 -0.7225163 106.35078 -0.72265911 106.32197 -34.765499 -126.57739
12300000000 -26.255934 -91.905243 -0.71708745 104.29305 -0.72276825 104.26525 -34.640533 -127.8406
12400000000 -26.309711 -94.372772 -0.71798491 102.23418 -0.71999615 102.2195 -34.997269 -128.21225
12500000000 -26.502867 -94.764496 -0.71263832 100.17016 -0.717893 100.14956 -35.106468 -133.0208
12600000000 -26.536541 -97.29718 -0.70904028 98.132439 -0.71410114 98.105293 -35.084782 -131.81395
12700000000 -26.832497 -98.308823 -0.71047199 96.049156 -0.71151692 96.02771 -35.014133 -135.2113
12800000000 -26.740095 -101.21516 -0.70681143 93.972748 -0.70461851 93.955368 -35.495857 -132.58607
12900000000 -26.944197 -102.13542 -0.70134807 91.896011 -0.70662624 91.853188 -35.775925 -136.92001
13000000000 -26.847342 -103.29501 -0.70329374 89.792091 -0.70222616 89.796448 -36.040787 -134.51234
13100000000 -27.321142 -104.30572 -0.70113963 87.720879 -0.70230222 87.679764 -35.906929 -138.60159
13200000000 -27.299967 -104.94518 -0.70074755 85.622551 -0.70176941 85.603531 -36.547688 -132.47746
13300000000 -27.678291 -107.35664 -0.69823146 83.528839 -0.70062709 83.495522 -36.461266 -131.00929
13400000000 -27.624058 -106.44849 -0.70040506 81.415047 -0.70032167 81.395294 -37.262787 -125.76315
13500000000 -27.9114 -109.30709 -0.70103437 79.331192 -0.70291388 79.316559 -37.664116 -126.19977
13600000000 -27.843077 -107.6281 -0.70366842 77.225182 -0.70603114 77.208321 -38.715248 -120.21595
13700000000 -28.028774 -109.87675 -0.70974678 75.101219 -0.71334934 75.084435 -38.101799 -124.14582
13800000000 -27.967024 -106.8802 -0.72615582 73.004372 -0.73111844 72.970695 -37.152401 -117.63043
13900000000 -27.786474 -114.67468 -0.74684769 71.085106 -0.75132561 71.074081 -34.652527 -128.20378
14000000000 -28.892483 -116.46662 -0.72308683 69.116829 -0.72235829 69.102852 -36.372177 -130.43779
14100000000 -29.031338 -119.68806 -0.71303117 66.98497 -0.71892136 66.953239 -36.674202 -128.35814
14200000000 -29.861141 -118.3299 -0.71098906 64.870346 -0.71364439 64.841461 -38.629272 -119.01352
14300000000 -29.535961 -118.22693 -0.71180785 62.756378 -0.71456069 62.739189 -38.367237 -121.9537
14400000000 -30.550377 -117.04739 -0.71332586 60.665829 -0.71550006 60.642429 -39.278759 -118.96232
14500000000 -30.446083 -116.0051 -0.7175464 58.535309 -0.72129333 58.516273 -37.769886 -119.35398
14600000000 -31.501719 -115.8078 -0.72347701 56.422523 -0.72715098 56.405098 -37.640564 -114.9195
14700000000 -31.217279 -113.48546 -0.73893666 54.320637 -0.74065399 54.298267 -36.212463 -112.11942
14800000000 -31.294073 -119.25262 -0.76575899 52.319099 -0.77038872 52.292778 -36.66243 -113.87128
14900000000 -31.397306 -121.0023 -0.75522101 50.491646 -0.7583791 50.470467 -36.927956 -123.26334
15000000000 -32.331303 -121.51165 -0.73382598 48.407913 -0.73779219 48.369278 -37.630302 -119.99873
15100000000 -33.069832 -113.75414 -0.72882688 46.273933 -0.73370337 46.230625 -36.236805 -117.05705
15200000000 -33.764023 -114.97694 -0.73104125 44.16991 -0.73245853 44.164532 -35.965 -112.50753
15300000000 -34.469582 -109.1188 -0.73316669 42.048485 -0.73505741 42.038845 -35.429489 -108.26224
15400000000 -34.524189 -114.9031 -0.72940093 39.96912 -0.73585278 39.957825 -36.236053 -106.05286
15500000000 -34.786579 -108.14529 -0.73654038 37.881931 -0.73818642 37.877216 -35.804047 -106.16533
15600000000 -34.571625 -111.2311 -0.73835856 35.788544 -0.74119401 35.76992 -36.253777 -111.92663
15700000000 -35.3713 -100.59647 -0.73810512 33.726974 -0.73996174 33.696087 -34.994408 -114.14275
15800000000 -35.875336 -98.450638 -0.74491191 31.636583 -0.74800104 31.614435 -34.632256 -115.51733
15900000000 -37.028244 -87.329506 -0.74340641 29.575542 -0.74613786 29.530167 -33.664543 -113.06016
16000000000 -36.749779 -92.74527 -0.75081414 27.497864 -0.74987513 27.480425 -34.064808 -111.85135
16100000000 -38.195904 -82.547935 -0.75026739 25.431229 -0.75447565 25.414625 -34.082619 -110.35889
16200000000 -36.858803 -86.702591 -0.75285876 23.351322 -0.75686646 23.333714 -35.066792 -112.54745
16300000000 -37.49588 -68.981415 -0.75674415 21.308863 -0.75992215 21.262251 -34.313698 -115.48018
16400000000 -35.927387 -66.965446 -0.7615006 19.218916 -0.76435894 19.187571 -34.887249 -120.37819
16500000000 -37.186268 -52.547039 -0.76057374 17.152597 -0.76500779 17.124941 -33.730396 -121.44989
16600000000 -35.999367 -51.538216 -0.76456726 15.08839 -0.76752585 15.072879 -34.170864 -119.68986
16700000000 -37.486427 -48.754902 -0.76751006 13.024183 -0.77104843 12.988344 -33.600159 -118.39294
16800000000 -35.049015 -48.702393 -0.77019155 10.959732 -0.77168781 10.932158 -34.748924 -119.5894
16900000000 -35.665752 -46.546864 -0.77327949 8.8908854 -0.775271 8.8563452 -34.193207 -121.37405
17000000000 -32.925865 -39.538265 -0.77079803 6.8499351 -0.77499622 6.8027086 -34.604897 -130.38426
17100000000 -33.594265 -40.706139 -0.77548355 4.7599182 -0.77708226 4.7512083 -33.736942 -128.4437
17200000000 -32.292229 -32.578892 -0.77976251 2.7265928 -0.78429002 2.6933215 -33.694157 -135.47499
17300000000 -33.347122 -38.90554 -0.77786618 0.69370478 -0.78235918 0.65480965 -33.558025 -129.54379
17400000000 -32.729507 -33.980724 -0.78214157 -1.3962845 -0.78404874 -1.4211078 -34.24929 -133.28886
17500000000 -32.185978 -43.910923 -0.78194851 -3.4720562 -0.78447914 -3.5033066 -34.781586 -130.50098
17600000000 -31.17576 -35.728741 -0.78065503 -5.5618992 -0.78059864 -5.5584731 -34.891853 -145.71075
17700000000 -30.365246 -40.349457 -0.78600514 -7.5927544 -0.78871608 -7.635879 -35.025318 -144.43114
17800000000 -30.204966 -32.676823 -0.78890169 -9.6913624 -0.79087365 -9.698863 -33.914295 -152.72433
17900000000 -29.584917 -36.764332 -0.78365064 -11.730491 -0.78763658 -11.744486 -33.661114 -146.59593
18000000000 -30.307323 -34.761295 -0.78739917 -13.813037 -0.79138112 -13.814536 -33.585464 -146.14261
18100000000 -29.55117 -39.777855 -0.78434891 -15.879859 -0.78373402 -15.871106 -35.211803 -139.31813
18200000000 -29.560753 -38.586559 -0.78694242 -17.917875 -0.7856971 -17.940987 -35.979637 -149.47108
18300000000 -28.471302 -38.243595 -0.78409338 -19.972134 -0.7883743 -20.028419 -37.631702 -156.73846
18400000000 -28.425468 -37.363285 -0.78408378 -22.036219 -0.78714067 -22.073761 -36.085835 -173.2336
18500000000 -27.760565 -36.69574 -0.78894019 -24.124317 -0.79224157 -24.143209 -35.511208 -173.60857
18600000000 -27.864977 -37.733208 -0.78663027 -26.212534 -0.79205859 -26.236397 -34.249546 -170.13287
18700000000 -27.319416 -38.924168 -0.78068233 -28.253172 -0.78844726 -28.274025 -35.659706 -162.00697
18800000000 -27.40237 -40.787544 -0.78399479 -30.329653 -0.79090005 -30.345589 -37.387413 -158.6489
18900000000 -26.676754 -40.673527 -0.78189236 -32.383823 -0.78396779 -32.41386 -41.047386 -162.25377
19000000000 -26.741961 -41.511139 -0.78078175 -34.443596 -0.78623503 -34.491489 -41.492641 161.40132
19100000000 -26.218039 -39.595135 -0.78295398 -36.514549 -0.78448659 -36.553505 -40.212582 153.0779
19200000000 -26.288195 -41.443516 -0.77966243 -38.602318 -0.78419977 -38.63596 -37.255619 149.38811
19300000000 -25.961872 -41.434334 -0.78289884 -40.681152 -0.78786963 -40.705978 -38.455898 157.61533
19400000000 -26.084303 -44.975418 -0.7835359 -42.748405 -0.78798634 -42.796574 -38.486191 154.07886
19500000000 -25.760118 -42.901363 -0.78180653 -44.842213 -0.78519088 -44.881306 -42.74408 149.35103
19600000000 -25.559904 -46.831814 -0.78477097 -46.956551 -0.78633988 -46.963383 -41.229767 125.52067
19700000000 -25.442305 -42.991947 -0.7799657 -49.0354 -0.7801711 -49.042229 -41.444111 101.11931
19800000000 -25.048639 -45.845768 -0.77917367 -51.127964 -0.78791773 -51.153774 -38.605389 109.93591
19900000000 -25.319635 -43.322723 -0.77982414 -53.18116 -0.7822364 -53.216717 -39.354523 89.681839
20000000000 -24.88242 -46.777069 -0.78720182 -55.295742 -0.79405308 -55.305168 -39.125729 93.410042
20100000000 -25.31707 -45.943764 -0.79192686 -57.411491 -0.79070932 -57.415554 -38.725998 60.979507
20200000000 -24.351784 -47.551163 -0.79771519 -59.465607 -0.79785854 -59.510899 -38.497456 60.680523
20300000000 -24.538683 -49.833801 -0.80581725 -61.531303 -0.80712038 -61.603466 -35.957417 49.106052
20400000000 -23.74675 -49.373493 -0.81375092 -63.553764 -0.81826717 -63.608139 -37.762012 53.850166
20500000000 -24.154219 -54.100742 -0.81972939 -65.529686 -0.81678599 -65.571136 -37.68911 47.990078
20600000000 -24.075647 -51.768219 -0.80503792 -67.581085 -0.80688536 -67.597099 -40.333294 43.104271
20700000000 -24.514086 -56.454651 -0.79433686 -69.61235 -0.79586542 -69.672134 -36.647717 31.558086
20800000000 -24.409018 -53.224724 -0.79188895 -71.758316 -0.79340672 -71.785942 -35.729736 19.242842
20900000000 -24.075083 -57.420204 -0.7882036 -73.862183 -0.79111278 -73.907089 -32.51078 24.608395
21000000000 -24.02841 -54.890732 -0.79267806 -75.949379 -0.79408699 -75.996635 -32.746025 25.493881
21100000000 -23.488911 -56.715511 -0.79744887 -78.047371 -0.79231864 -78.129425 -31.825842 26.592131
21200000000 -23.835098 -55.372822 -0.79901618 -80.163483 -0.8026877 -80.229462 -32.800888 21.042166
21300000000 -23.61293 -57.4851 -0.80725914 -82.269867 -0.80965519 -82.325996 -32.423523 13.150153
21400000000 -23.938532 -58.766697 -0.81392956 -84.380852 -0.81566143 -84.416672 -31.60714 -0.97890943
21500000000 -23.446611 -61.69191 -0.82313406 -86.407242 -0.82784235 -86.446571 -30.855209 -7.1225801
21600000000 -23.591002 -63.637196 -0.82227373 -88.395248 -0.82749754 -88.422737 -30.060135 -7.6593885
21700000000 -23.417824 -63.559383 -0.81175894 -90.370644 -0.81422395 -90.412163 -29.416754 -1.7453115
21800000000 -23.510038 -62.380451 -0.81252569 -92.509361 -0.80865717 -92.52964 -29.56525 -0.69366938
21900000000 -23.511784 -63.399864 -0.81592852 -94.530052 -0.81896412 -94.591728 -29.789009 -0.2353422
22000000000 -24.068823 -63.451084 -0.80802202 -96.635101 -0.81421554 -96.67482 -30.813469 -6.021769
22100000000 -24.051821 -63.903728 -0.80953354 -98.732407 -0.81486189 -98.77021 -29.902222 -11.864271
22200000000 -24.395535 -64.96463 -0.81442004 -100.894 -0.81894881 -100.9063 -29.465704 -18.633368
22300000000 -23.955284 -64.617241 -0.81858408 -102.96181 -0.82533824 -103.02806 -28.052883 -17.21567
22400000000 -24.051966 -62.935127 -0.8278417 -104.93868 -0.82990038 -104.97507 -27.583561 -16.954977
22500000000 -23.451992 -62.14904 -0.82098043 -106.97857 -0.82679099 -107.02847 -26.921749 -14.297378
22600000000 -24.007938 -65.002579 -0.81980509 -109.00665 -0.8236056 -109.05647 -27.50416 -21.93965
22700000000 -24.130074 -63.60368 -0.81428736 -111.11354 -0.81645954 -111.15334 -27.6294 -22.358101
22800000000 -24.255373 -69.031204 -0.82029313 -113.25346 -0.82134289 -113.25312 -27.218744 -32.91568
22900000000 -24.157207 -66.385284 -0.81381369 -115.30324 -0.81959498 -115.35523 -26.720713 -32.232204
23000000000 -23.694637 -70.702538 -0.81975007 -117.3877 -0.82449436 -117.45307 -26.157282 -37.360611
23100000000 -23.984859 -66.626503 -0.81328672 -119.47082 -0.81314903 -119.52267 -26.15663 -33.296837
23200000000 -23.835289 -68.614304 -0.82749784 -121.57054 -0.81836027 -121.61826 -26.162519 -39.284771
23300000000 -24.853163 -66.080193 -0.8166998 -123.65335 -0.81810713 -123.70593 -27.023155 -41.258888
23400000000 -24.402075 -69.05867 -0.82784802 -125.72356 -0.82796448 -125.74722 -26.193174 -51.288742
23500000000 -25.289597 -72.313866 -0.82868564 -127.81599 -0.82976782 -127.86111 -26.246834 -54.423393
23600000000 -24.33761 -72.047417 -0.82887924 -129.90248 -0.83198947 -129.9268 -24.775724 -55.356979
23700000000 -24.660944 -74.740242 -0.8267293 -131.94855 -0.83267331 -131.98659 -25.239775 -52.399914
23800000000 -24.336424 -70.064659 -0.83309573 -134.03683 -0.83589268 -134.06735 -25.324224 -51.774406
23900000000 -25.037645 -73.488213 -0.83434933 -136.10141 -0.83608407 -136.12535 -26.802317 -55.320084
24000000000 -25.601402 -67.957527 -0.83447516 -138.22562 -0.83457237 -138.23021 -26.849964 -65.516319
24100000000 -25.793848 -75.081879 -0.8367334 -140.25015 -0.82969075 -140.31435 -26.391874 -75.191345
24200000000 -26.199026 -71.086838 -0.83266014 -142.3248 -0.83108789 -142.39259 -25.277182 -74.685318
24300000000 -25.428482 -76.123383 -0.82796109 -144.43332 -0.83699894 -144.45738 -24.725639 -75.847107
24400000000 -25.883345 -71.526299 -0.82955444 -146.47662 -0.83554906 -146.50906 -24.871597 -69.512207
24500000000 -25.688093 -70.847763 -0.83384466 -148.53139 -0.84050924 -148.59973 -25.97093 -71.35865
24600000000 -27.073055 -67.425003 -0.83934993 -150.65533 -0.84269363 -150.65654 -27.072828 -73.098389
24700000000 -26.949715 -67.350601 -0.83759159 -152.70381 -0.8495692 -152.72542 -27.629814 -85.899605
24800000000 -28.135746 -70.051224 -0.84100747 -154.7728 -0.84502065 -154.85298 -27.229876 -92.003372
24900000000 -27.440701 -67.902214 -0.83993286 -156.88408 -0.8440975 -156.91599 -26.16889 -97.235435
25000000000 -27.674294 -68.101997 -0.83809423 -158.96541 -0.84286493 -159.01807 -25.746712 -93.024376
25100000000 -27.069496 -62.988388 -0.83583087 -161.04146 -0.84029907 -161.02953 -26.426292 -91.503265
25200000000 -27.739626 -59.460159 -0.84207076 -163.09082 -0.84039021 -163.11028 -27.220469 -90.05777
25300000000 -27.984802 -53.414452 -0.84017593 -165.13928 -0.84682947 -165.17001 -28.413057 -98.721703
25400000000 -29.166624 -52.150291 -0.84153533 -167.2226 -0.84516972 -167.26631 -28.383863 -104.60517
25500000000 -28.800276 -49.968864 -0.85326171 -169.33063 -0.85328561 -169.36124 -28.725397 -113.13947
25600000000 -29.064335 -53.165382 -0.84429651 -171.43016 -0.85028166 -171.46294 -28.397097 -113.53466
25700000000 -28.195391 -47.790947 -0.84654921 -173.52553 -0.84918892 -173.54013 -28.471775 -115.67059
25800000000 -28.564201 -46.624996 -0.85502666 -175.58981 -0.85110408 -175.62029 -29.207726 -117.99395
25900000000 -27.433102 -36.633831 -0.84376329 -177.67155 -0.85327399 -177.71614 -29.669474 -119.97363
26000000000 -28.034369 -37.982243 -0.85252827 -179.72887 -0.85179532 -179.73137 -31.390171 -125.09221
26100000000 -27.363785 -28.303589 -0.85396367 178.19533 -0.85634214 178.15678 -31.139971 -135.94872
26200000000 -27.86153 -32.154572 -0.85700017 176.07574 -0.85827589 176.04976 -32.345936 -140.82567
26300000000 -27.42042 -22.819618 -0.85950464 173.99655 -0.86173743 174.01436 -30.96591 -149.45207
26400000000 -27.087992 -31.695408 -0.86799484 171.90695 -0.86502862 171.8705 -33.396103 -147.57233
26500000000 -27.27701 -19.674736 -0.85828191 169.86035 -0.86967313 169.81252 -32.251709 -160.01851
26600000000 -25.886633 -24.517466 -0.87720329 167.83347 -0.86761516 167.65776 -35.000004 -166.06686
26700000000 -26.315701 -15.5942 -0.86624509 165.77267 -0.86811084 165.60568 -33.804234 -176.43581
26800000000 -24.836748 -21.933737 -0.85252106 163.64995 -0.85597485 163.53392 -35.504108 160.23074
26900000000 -26.265556 -15.659872 -0.87811226 161.49995 -0.8846643 161.43069 -33.49564 163.68842
27000000000 -24.15476 -17.915459 -0.87975395 159.36682 -0.87276053 159.44751 -33.67345 137.24336
27100000000 -25.064461 -18.50197 -0.89440852 157.40703 -0.88755244 157.40292 -33.564335 154.51282
27200000000 -23.646809 -13.058221 -0.88432729 155.33452 -0.88507336 155.20441 -33.798717 126.48569
27300000000 -24.498999 -17.248587 -0.8809365 153.24792 -0.88586909 153.15712 -34.367989 124.41267
27400000000 -23.338362 -13.271877 -0.91560233 151.10648 -0.88253421 151.12819 -31.764576 103.92788
27500000000 -23.738062 -18.417234 -0.8820917 149.12186 -0.86851931 149.08487 -32.453274 104.45151
27600000000 -22.953403 -11.527062 -0.88235307 146.92139 -0.88436568 146.87839 -28.690271 99.588493
27700000000 -22.320114 -17.543558 -0.88068819 144.90259 -0.88736767 144.78471 -30.435442 98.432976
27800000000 -21.633854 -11.837296 -0.89692891 142.85057 -0.90045041 142.78589 -29.142433 89.117783
27900000000 -21.41518 -15.695681 -0.90111643 140.82321 -0.90372294 140.57373 -29.801176 79.354645
28000000000 -21.640371 -12.265511 -0.90519768 138.5994 -0.91214901 138.48705 -27.788712 71.060684
28100000000 -20.871853 -17.688526 -0.90645891 136.46098 -0.90825969 136.5627 -27.965021 60.548325
28200000000 -21.027443 -16.30201 -0.94527537 134.42232 -0.91881371 134.2854 -26.20822 65.63839
28300000000 -19.665882 -17.737129 -0.92459631 132.37086 -0.91689599 132.21465 -26.45307 60.131218
28400000000 -20.00807 -17.983349 -0.93983418 130.4326 -0.93365353 130.31059 -25.624678 58.278725
28500000000 -19.404726 -19.552755 -0.93787855 128.29343 -0.93598354 128.25728 -25.216478 47.496819
28600000000 -19.647799 -19.23144 -0.93683463 126.14264 -0.94764417 126.18817 -24.580828 47.536636
28700000000 -19.207792 -21.30813 -0.9324463 124.18433 -0.91384995 124.05274 -23.958174 41.946297
28800000000 -19.373034 -22.172165 -0.95367616 122.00409 -0.96306342 122.09248 -23.620796 46.677029
28900000000 -18.675392 -22.053659 -0.92538649 120.14728 -0.92277592 120.04121 -23.638617 41.169628
29000000000 -18.992298 -25.217714 -0.95355946 117.84119 -0.94482619 117.83431 -23.413128 39.961151
29100000000 -18.471775 -23.562414 -0.9311685 115.70802 -0.92609864 115.65971 -23.360508 30.439873
29200000000 -18.772079 -26.298035 -0.93483573 113.88396 -0.92916393 113.6463 -21.97296 31.975134
29300000000 -18.071735 -22.757795 -0.9255476 111.65494 -0.92681062 111.78088 -20.909088 26.681627
29400000000 -18.157084 -26.82653 -0.94914001 109.60259 -0.94867724 109.56506 -20.578033 31.494358
29500000000 -17.883961 -25.393881 -0.94866371 107.55344 -0.95161796 107.52672 -20.7876 26.267277
29600000000 -17.791903 -31.429443 -0.9838078 105.45782 -0.98498487 105.41345 -21.101181 28.585857
29700000000 -17.8869 -27.691916 -0.95662671 103.42151 -0.95710588 103.47079 -20.756762 18.055483
29800000000 -17.261423 -32.82967 -0.97344267 101.41997 -0.98008215 101.24186 -20.78034 18.261265
29900000000 -17.475039 -29.442982 -0.97713053 99.279411 -0.9786787 99.14679 -19.567883 9.4560862
30000000000 -16.920227 -31.108646 -0.97687477 97.071938 -0.9898473 97.137718 -19.286558 13.808116
30100000000 -17.408533 -30.722597 -0.99516571 95.258331 -0.9645378 95.2789 -18.544275 9.1113682
30200000000 -16.7866 -32.797352 -0.98986423 93.22065 -0.97277939 93.149315 -19.237946 12.561012
30300000000 -17.244473 -36.733879 -0.99840194 91.0895 -0.99030352 91.085114 -18.621284 5.9027386
30400000000 -16.572891 -35.332066 -0.99103385 88.968651 -0.99829215 89.031448 -19.870255 3.4848804
30500000000 -17.00835 -40.423962 -0.9860158 86.961182 -0.989124 86.82373 -18.462 -1.6167645
30600000000 -16.334066 -36.793842 -0.97574294 84.815765 -1.0043473 84.855392 -18.796434 -4.1153378
30700000000 -16.505672 -41.911922 -0.99684215 82.871216 -0.97579348 82.623932 -17.777744 -5.2764683
30800000000 -16.306658 -39.621208 -0.99947906 80.860634 -1.0181559 80.728821 -18.323925 -6.3380456
30900000000 -16.279146 -44.6586 -1.0146326 78.482819 -1.0203376 78.699356 -17.595516 -6.2345996
31000000000 -16.488714 -41.102924 -1.016431 76.746544 -1.0240252 76.763649 -18.170527 -12.113296
31100000000 -16.185867 -47.048954 -0.97276932 74.664757 -0.9905737 74.40564 -17.889944 -14.228255
31200000000 -16.408306 -45.717903 -0.9940815 72.365028 -0.9903757 72.55616 -17.687223 -20.412882
31300000000 -15.848315 -48.052605 -1.0112454 70.491875 -0.99006712 70.493675 -17.16396 -19.250099
31400000000 -16.173521 -45.672546 -1.0109434 68.584251 -0.98727864 68.509552 -17.060602 -21.497589
31500000000 -15.825298 -47.766785 -1.0003341 66.514816 -0.99776608 66.305161 -17.057234 -20.057116
31600000000 -16.54438 -50.115044 -0.98386687 64.357613 -0.99748272 64.145668 -17.454494 -24.202732
31700000000 -16.249315 -51.279659 -1.014623 62.34198 -1.0101503 62.099888 -17.322887 -25.484396
31800000000 -16.348984 -53.398434 -1.0056857 60.114204 -0.98643649 60.147488 -17.360914 -31.916115
31900000000 -15.637889 -54.775028 -0.98567796 58.06049 -1.009112 57.907677 -16.774506 -33.398685
32000000000 -16.014519 -53.360561 -1.017652 56.077717 -0.98353833 56.003269 -16.907511 -36.201286
32100000000 -16.185471 -53.232204 -0.99890852 53.823318 -0.98407859 54.002384 -16.530771 -35.386089
32200000000 -16.65254 -55.185883 -1.005654 52.138863 -1.0172698 51.763569 -16.949142 -37.768387
32300000000 -16.441099 -56.494263 -0.9932127 49.863964 -1.0138583 49.707779 -17.071682 -37.899021
32400000000 -16.752031 -61.405025 -1.0001526 47.789772 -1.0271542 47.823318 -17.76244 -42.91296
32500000000 -16.314537 -59.212719 -1.0034689 45.690815 -0.98853302 45.520958 -17.22728 -45.664639
32600000000 -16.473221 -63.447247 -1.0173657 43.696415 -0.99027681 43.524513 -17.226046 -51.843468
32700000000 -16.696054 -57.776367 -0.99164009 41.522243 -0.99918973 41.47311 -16.756062 -50.738716
32800000000 -16.831713 -62.563114 -0.99242079 39.584694 -0.99320811 39.489571 -16.646301 -52.795681
32900000000 -17.366724 -60.739773 -0.99345869 37.429203 -1.0100431 37.416096 -17.208307 -50.12505
33000000000 -17.057737 -65.248863 -0.99644685 35.416069 -1.0231143 35.402988 -17.363605 -54.152946
33100000000 -17.467731 -64.285233 -0.99833775 33.319027 -1.0200865 33.425411 -17.993343 -56.974976
33200000000 -16.925343 -65.59021 -0.98058534 31.293793 -1.0018486 31.182337 -17.400015 -63.909977
33300000000 -17.604483 -66.051811 -0.98545969 29.025896 -1.008916 29.310259 -17.955658 -63.889107
33400000000 -17.084595 -64.764183 -0.9583174 27.334084 -0.99967098 27.160936 -16.944881 -67.044991
33500000000 -17.887995 -66.777046 -0.99981177 25.093582 -1.0033627 25.00502 -17.881922 -65.999596
33600000000 -17.605673 -65.620552 -0.97187722 23.254721 -0.97425121 23.082684 -17.804564 -69.993736
33700000000 -18.24288 -69.488716 -1.009774 20.969839 -0.97553784 20.971392 -18.607536 -71.881996
33800000000 -18.016741 -66.147087 -0.97171241 18.945627 -0.96989709 18.642738 -18.572573 -75.939095
33900000000 -18.348387 -71.235199 -0.96732467 16.81197 -0.96530974 16.652132 -18.698624 -77.739883
34000000000 -18.641895 -65.994225 -0.9795748 14.67988 -0.98366821 14.37302 -18.630026 -78.769798
34100000000 -18.65284 -68.303139 -0.9440279 12.557356 -0.99192339 12.286616 -19.115225 -79.929596
34200000000 -19.351597 -62.647465 -0.96590209 10.586089 -0.97731531 10.242974 -20.06246 -77.75692
34300000000 -19.186171 -67.674927 -0.97925729 8.3631277 -0.964275 8.3197737 -20.492487 -85.854599
34400000000 -19.870308 -66.991707 -0.98253918 6.0702405 -1.0104824 5.9960089 -20.650303 -88.871841
34500000000 -19.446688 -67.564545 -1.0062166 3.8698931 -0.99595809 4.0316324 -20.67341 -93.181953
34600000000 -19.929852 -65.818436 -1.0231975 2.0098784 -1.0176363 1.9096844 -20.486536 -91.006943
34700000000 -19.949312 -62.282379 -0.98739135 -0.193149 -0.99274874 -0.04198062 -21.404861 -91.848343
34800000000 -20.722984 -60.864697 -1.0098994 -2.3374918 -0.98941785 -2.2019033 -22.388557 -91.051399
34900000000 -20.683235 -60.888458 -0.99985415 -4.4129491 -0.99467677 -4.5308356 -23.97798 -95.528656
35000000000 -21.281303 -59.870415 -1.0047503 -6.3658152 -1.0028567 -6.4672031 -24.98645 -104.44312
35100000000 -20.633984 -56.438007 -1.0336573 -8.5211639 -1.0125854 -8.7009325 -24.066244 -109.95127
35200000000 -21.049067 -54.490398 -1.0227886 -10.565256 -1.010245 -10.549025 -24.249361 -111.42404
35300000000 -20.5455 -53.118771 -1.0371311 -12.599289 -1.0313281 -12.684378 -24.661415 -103.54236
35400000000 -21.419456 -50.316082 -1.018369 -14.697121 -0.99873912 -14.636344 -24.895714 -104.03988
35500000000 -21.257938 -49.040653 -0.97971368 -16.671972 -1.0164869 -16.723171 -26.85704 -114.16506
35600000000 -22.271448 -52.814445 -0.96754462 -18.731024 -0.98948938 -18.744585 -28.675825 -124.5859
35700000000 -21.192965 -47.642941 -0.9978407 -21.081078 -1.0133932 -21.166327 -29.624098 -127.41341
35800000000 -21.552544 -47.634342 -1.0121387 -22.983217 -1.0036829 -23.186733 -30.817383 -137.31213
35900000000 -20.984432 -37.106987 -0.96902823 -25.298086 -0.98702943 -25.405865 -29.893566 -146.53589
36000000000 -21.156296 -43.720398 -1.0216107 -27.276611 -0.98843682 -27.175539 -36.863998 -144.52396
36100000000 -21.010935 -26.328365 -0.96571451 -29.68191 -1.0399638 -29.339794 -40.768055 173.69588
36200000000 -21.158747 -36.600697 -1.0173329 -31.434528 -0.97070009 -31.410677 -45.492474 75.490791
36300000000 -21.544065 -26.08979 -1.0066595 -33.710316 -1.0331118 -33.807301 -38.764572 105.48579
36400000000 -20.494511 -35.072083 -0.9918645 -35.62191 -0.98684096 -36.042416 -39.280159 92.014305
36500000000 -20.711756 -30.395309 -1.0200537 -37.981319 -1.0160869 -37.921581 -37.275635 68.478149
36600000000 -18.709444 -32.642914 -0.99072522 -39.891876 -0.97968966 -39.97369 -31.002142 30.620243
36700000000 -19.715563 -21.003729 -1.0336205 -41.946434 -1.0547196 -42.031647 -29.959589 51.240345
36800000000 -18.441841 -22.314011 -0.99713457 -43.73465 -1.0513376 -44.07196 -24.93475 48.498638
36900000000 -19.711454 -20.471451 -1.0752045 -46.403263 -1.0184727 -46.340923 -25.435337 57.718746
37000000000 -18.210205 -21.491255 -1.0102528 -48.389397 -1.0577092 -48.251957 -24.451635 55.471657
37100000000 -18.59733 -27.648191 -1.0817657 -50.639618 -1.0446483 -50.76635 -27.094292 44.084644
37200000000 -17.333199 -22.365751 -1.0367166 -52.70747 -1.0036467 -52.787731 -24.8325 29.513712
37300000000 -17.520178 -21.130304 -1.0729593 -54.79528 -1.0585393 -54.969425 -22.583851 24.814535
37400000000 -16.641022 -16.811951 -1.0303631 -56.589005 -1.0654809 -56.744572 -20.576632 26.865446
37500000000 -16.892307 -19.18121 -1.0988495 -58.840351 -1.1020576 -59.052567 -20.45862 30.319456
37600000000 -16.936163 -19.615454 -1.0774339 -60.977947 -1.0739264 -61.055511 -19.511288 33.34523
37700000000 -16.817244 -25.156559 -1.0849804 -63.039417 -1.0971972 -63.170124 -20.326395 32.6688
37800000000 -15.782667 -24.011789 -1.1406144 -65.202438 -1.0620624 -65.392471 -20.147402 28.22294
37900000000 -15.239575 -23.854559 -1.1317532 -67.18898 -1.1023321 -67.291985 -20.631926 20.385349
38000000000 -15.471113 -20.684135 -1.1104275 -69.613167 -1.1357044 -69.197632 -18.586027 12.959743
38100000000 -15.447517 -22.564201 -1.1377054 -71.498627 -1.1543709 -71.420448 -17.620708 16.263653
38200000000 -15.10155 -23.385014 -1.1428605 -73.494659 -1.1267987 -73.746773 -16.642839 14.286842
38300000000 -15.027925 -28.265713 -1.145713 -75.510696 -1.1043739 -75.016876 -16.620617 20.695681
38400000000 -14.324075 -25.664572 -1.1416688 -77.5952 -1.124742 -77.846504 -17.135439 17.381887
38500000000 -14.358984 -29.282927 -1.1679 -79.627724 -1.1403731 -79.542412 -17.206503 11.604161
38600000000 -14.396886 -23.538128 -1.1488051 -81.622734 -1.1809927 -81.582787 -16.594786 5.1471825
38700000000 -13.685598 -28.088837 -1.1466352 -83.630898 -1.1950431 -83.81105 -16.015564 3.201169
38800000000 -14.564979 -26.610104 -1.1584553 -85.940269 -1.1821399 -85.863472 -14.982754 1.7372843
38900000000 -13.863625 -29.72121 -1.1496658 -87.778732 -1.1768446 -87.724815 -15.439243 3.735558
39000000000 -14.045217 -30.334524 -1.1883876 -89.975876 -1.1985083 -89.95649 -14.93364 1.6065867
39100000000 -12.957933 -31.507263 -1.1462119 -91.703506 -1.1817372 -92.107353 -16.026909 -4.4055791
39200000000 -13.707122 -34.517475 -1.201575 -94.444221 -1.2033498 -94.056198 -14.45424 -7.3293548
39300000000 -12.687302 -31.35866 -1.204628 -96.580132 -1.2055351 -96.350365 -14.368792 -15.216295
39400000000 -13.645382 -34.928619 -1.2059283 -97.980408 -1.2190852 -97.750893 -13.440289 -8.3914328
39500000000 -13.172656 -30.769773 -1.237806 -100.04267 -1.2572117 -100.14206 -13.792122 -11.410551
39600000000 -13.322412 -39.268337 -1.2097814 -102.26924 -1.220233 -102.22831 -13.469233 -7.410624
39700000000 -13.437765 -37.328075 -1.2055043 -103.86429 -1.1985489 -104.34734 -14.598303 -15.487546
39800000000 -12.328527 -43.333183 -1.2215586 -106.13385 -1.2320172 -106.16689 -13.784132 -17.162285
39900000000 -12.878249 -36.543819 -1.2199188 -108.04969 -1.2304746 -108.45298 -13.886589 -27.744471
40000000000 -12.154834 -41.987286 -1.2353681 -110.45547 -1.2456431 -110.47589 -12.820185 -25.706568
40100000000 -13.397009 -39.490387 -1.1948205 -112.79775 -1.2139077 -112.47012 -12.302495 -25.671162
40200000000 -12.495616 -42.704403 -1.1878101 -114.1851 -1.25963 -114.27981 -12.737849 -22.253496
40300000000 -13.09423 -50.608624 -1.2207452 -116.60768 -1.1501735 -116.58174 -12.829336 -24.972826
40400000000 -12.01358 -46.556274 -1.2275075 -118.32809 -1.1726496 -118.52174 -13.830976 -29.889465
40500000000 -12.610075 -48.034428 -1.2255316 -120.82452 -1.2272162 -120.45666 -13.348863 -35.672634
40600000000 -12.113126 -44.438168 -1.249619 -122.96033 -1.2283183 -122.67467 -12.953556 -38.66605
40700000000 -12.629246 -49.050339 -1.2243956 -124.86515 -1.2084231 -124.83178 -12.39314 -39.77335
40800000000 -12.919385 -48.307949 -1.2404573 -126.65667 -1.2397474 -126.71069 -12.158434 -37.031605
40900000000 -12.35242 -53.188938 -1.2491086 -128.78032 -1.2471182 -128.72842 -12.666341 -37.50164
41000000000 -12.11637 -54.573906 -1.195187 -130.9286 -1.2366357 -130.88168 -12.789593 -40.176739
41100000000 -12.326127 -54.582989 -1.2354159 -133.00591 -1.2165955 -133.23792 -13.16679 -43.046909
41200000000 -12.481104 -51.533199 -1.1935512 -135.12646 -1.2596922 -135.09338 -12.873194 -47.818279
41300000000 -12.727612 -52.854786 -1.2433243 -137.05913 -1.2489156 -136.99098 -13.015101 -49.40324
41400000000 -12.806113 -53.76984 -1.267027 -139.08571 -1.2102925 -139.25827 -12.684655 -50.323288
41500000000 -12.716769 -57.505032 -1.2268472 -141.02873 -1.2601289 -141.0826 -12.487535 -52.910748
41600000000 -12.482555 -56.548523 -1.2459021 -143.52298 -1.2414514 -143.00873 -12.975571 -51.297092
41700000000 -12.887917 -60.129337 -1.2498153 -144.96237 -1.2975731 -145.35847 -12.93683 -56.802898
41800000000 -12.880923 -57.819778 -1.2882857 -147.29437 -1.3026778 -147.41895 -13.070872 -58.107609
41900000000 -12.959013 -60.266563 -1.2949387 -149.68938 -1.2339324 -149.50948 -12.898441 -63.001522
42000000000 -12.812395 -58.01556 -1.2644702 -150.97238 -1.2343017 -151.22205 -13.154144 -63.755684
42100000000 -12.411607 -61.227608 -1.2620167 -153.42317 -1.2784362 -153.32422 -13.028385 -67.495674
42200000000 -13.274042 -59.959274 -1.1816852 -155.10461 -1.2041723 -155.62521 -13.241163 -66.725792
42300000000 -13.219791 -60.885338 -1.2752793 -157.37181 -1.271529 -157.23914 -12.901394 -69.99881
42400000000 -13.913534 -65.901192 -1.2696633 -159.55315 -1.1815655 -158.82556 -14.073826 -70.597557
42500000000 -13.245464 -62.750446 -1.2111391 -162.15912 -1.1875315 -161.15733 -13.716076 -73.914444
42600000000 -13.52358 -68.336853 -1.251897 -163.60468 -1.22981 -163.63797 -14.311481 -78.544762
42700000000 -13.960811 -63.98946 -1.1854111 -165.50504 -1.193252 -166.02858 -13.713676 -81.389725
42800000000 -13.869362 -68.133812 -1.1430454 -168.02283 -1.2030613 -167.81114 -14.572146 -83.998558
42900000000 -15.260845 -60.033607 -1.2556096 -170.31169 -1.2161602 -170.33917 -14.095212 -79.075905
43000000000 -14.602509 -71.457413 -1.2158047 -172.19054 -1.1404384 -172.10475 -14.35908 -82.300171
43100000000 -15.674352 -69.624031 -1.2020506 -174.61562 -1.1568958 -174.61206 -15.733829 -84.408051
43200000000 -14.097582 -68.052414 -1.1350936 -175.85974 -1.2012843 -176.38512 -16.262537 -93.763321
43300000000 -15.058285 -66.055031 -1.1815574 -178.09798 -1.2424183 -178.7495 -16.153618 -96.172089
43400000000 -15.044481 -62.865582 -1.2178248 179.69258 -1.1110008 179.99438 -15.566304 -97.943398
43500000000 -16.022539 -63.599491 -1.1623298 177.99997 -1.2076286 177.27859 -15.657363 -102.59877
43600000000 -16.063704 -56.495453 -1.1836973 175.54926 -1.1049979 175.33095 -16.253553 -97.074768
43700000000 -16.147108 -71.795403 -1.1402681 172.94574 -1.0888704 173.13765 -17.88154 -95.941971
43800000000 -15.960956 -63.810982 -1.1331142 170.76024 -1.0998094 171.07547 -18.984949 -100.43582
43900000000 -15.800423 -68.694443 -1.1712364 168.57588 -1.1320341 168.46709 -20.583584 -114.25924
44000000000 -16.704443 -56.882717 -1.167757 166.70752 -1.1617662 167.10957 -19.037331 -110.26319
44100000000 -15.983682 -57.159439 -1.2231611 164.9191 -1.1293339 164.06239 -19.181929 -112.11449
44200000000 -17.293093 -52.59269 -1.1819482 162.71896 -1.1689688 162.0294 -19.471268 -113.24749
44300000000 -17.264526 -55.191315 -1.1817607 160.19434 -1.1627699 160.60707 -21.079636 -114.09153
44400000000 -17.60186 -59.095036 -1.0956699 158.35782 -1.1534619 158.29366 -23.185316 -113.66831
44500000000 -16.707483 -55.659348 -1.1102821 156.18076 -1.1281821 156.24324 -23.448082 -122.45961
44600000000 -16.385715 -55.645588 -1.1599468 154.24506 -1.0804083 154.1582 -25.553415 -133.67471
44700000000 -16.449383 -42.81776 -1.0793054 151.42096 -1.1639624 152.0546 -24.685856 -138.71634
44800000000 -17.413986 -49.523094 -1.1722118 149.8002 -1.1857771 149.56502 -29.094683 -115.61546
44900000000 -18.004671 -40.667454 -1.1346639 147.57019 -1.1186069 147.91742 -30.493685 -116.81866
45000000000 -17.476433 -43.729763 -1.1912814 145.56732 -1.0895712 145.25122 -41.684376 -148.14088
