!Keysight Technologies,N5247B,MY61255062,A.19.80.06
!Date: Tuesday, May 26, 2026 11:09:55
!Correction: S11(C  2-Port  ) 
!S21(C  2-Port  ) 
!S12(C  2-Port  ) 
!S22(C  2-Port  ) 
!S2P File: Measurements: S11, S21, S12, S22:
# Hz S  dB   R 50
1000000000 -25.458611 -14.224018 -0.47305101 -21.281874 -0.47324646 -21.290874 -26.521917 -11.524062
1027500000 -25.485247 -15.241613 -0.47794521 -21.87104 -0.47796574 -21.85673 -26.531429 -12.432336
1055000000 -25.425533 -15.63923 -0.48206997 -22.428659 -0.48343456 -22.420322 -26.590851 -12.99194
1082500000 -25.526371 -16.409386 -0.48895028 -23.00856 -0.48912817 -23.008345 -26.661686 -13.27488
1110000000 -25.65065 -16.681938 -0.49872005 -23.553097 -0.50051284 -23.554688 -26.775864 -13.345789
1137500000 -25.538918 -16.823164 -0.50285846 -24.06053 -0.50071323 -24.059147 -26.730934 -12.240935
1165000000 -25.360563 -16.50391 -0.49951252 -24.616116 -0.49863061 -24.612988 -26.603851 -12.711471
1192500000 -25.285437 -17.216738 -0.50264078 -25.181431 -0.50244349 -25.181808 -26.636372 -12.638194
1220000000 -25.234324 -17.650206 -0.50346565 -25.732203 -0.50365549 -25.733473 -26.524626 -13.228727
1247500000 -25.201855 -17.976036 -0.50353599 -26.304127 -0.50376099 -26.298962 -26.404158 -13.651988
1275000000 -25.24452 -19.046211 -0.50605494 -26.894066 -0.50554889 -26.872276 -26.383469 -14.430961
1302500000 -25.348934 -19.743217 -0.51444095 -27.466793 -0.51234186 -27.47032 -26.490564 -15.774371
1330000000 -25.36912 -19.971434 -0.51638043 -28.0035 -0.51622128 -28.00478 -26.458105 -15.699409
1357500000 -25.362049 -20.25478 -0.51787078 -28.52947 -0.5164662 -28.530758 -26.440729 -15.320789
1385000000 -25.273903 -20.880127 -0.51499873 -29.080835 -0.51786381 -29.078749 -26.34981 -15.757492
1412500000 -25.265417 -21.590473 -0.51698023 -29.652737 -0.51606357 -29.639517 -26.184906 -16.321386
1440000000 -25.25548 -22.273699 -0.51590264 -30.205576 -0.51602393 -30.203537 -26.136465 -16.644047
1467500000 -25.135357 -23.331039 -0.5168047 -30.767954 -0.51685512 -30.763327 -26.140676 -17.474604
1495000000 -25.109529 -23.710592 -0.51738435 -31.328781 -0.51708078 -31.335447 -26.06488 -18.088085
1522500000 -25.066874 -24.1618 -0.5175783 -31.906204 -0.51800609 -31.892893 -25.991322 -18.615551
1550000000 -25.000195 -24.833788 -0.51783961 -32.47934 -0.51712805 -32.472431 -25.958506 -19.789366
1577500000 -25.041283 -25.652889 -0.52082759 -33.063171 -0.52056962 -33.060989 -26.002195 -21.178352
1605000000 -25.020937 -25.701176 -0.52386612 -33.612564 -0.52348298 -33.603222 -25.994186 -21.192091
1632500000 -25.049318 -26.386749 -0.52645183 -34.177032 -0.52729756 -34.185097 -26.055693 -22.195642
1660000000 -25.002579 -26.917873 -0.52714908 -34.722603 -0.52618271 -34.720623 -26.003788 -22.454008
1687500000 -24.915274 -27.595335 -0.52697372 -35.279919 -0.52589047 -35.290009 -25.948324 -22.371023
1715000000 -24.928944 -28.547623 -0.52782869 -35.853844 -0.52663678 -35.847649 -25.889231 -22.9438
1742500000 -24.84412 -29.227921 -0.52710086 -36.419636 -0.5262388 -36.416008 -25.873657 -24.073696
1770000000 -24.811178 -29.915785 -0.52834815 -36.988754 -0.52834082 -36.998177 -25.863079 -24.204906
1797500000 -24.801048 -30.645576 -0.53111786 -37.558311 -0.52989465 -37.558311 -25.797108 -24.796429
1825000000 -24.760481 -31.133389 -0.53207457 -38.123455 -0.53254622 -38.120514 -25.786077 -25.677486
1852500000 -24.773029 -31.87356 -0.53309232 -38.69582 -0.53215235 -38.689079 -25.745909 -26.250017
1880000000 -24.78248 -32.202045 -0.53507119 -39.255043 -0.5337702 -39.258152 -25.734167 -26.654728
1907500000 -24.776051 -32.995129 -0.53456789 -39.821705 -0.53463787 -39.825172 -25.712076 -27.580061
1935000000 -24.70459 -33.531559 -0.5361219 -40.389553 -0.53655535 -40.392162 -25.718554 -28.286867
1962500000 -24.774767 -33.934418 -0.53724343 -40.953964 -0.53813058 -40.955097 -25.690012 -28.854746
1990000000 -24.834503 -35.280659 -0.54058522 -41.53133 -0.54146451 -41.535744 -25.694818 -29.929131
2017500000 -24.793797 -35.630096 -0.54340583 -42.091408 -0.54397738 -42.091324 -25.717699 -30.461445
2045000000 -24.77236 -36.278004 -0.54440337 -42.653946 -0.54426312 -42.650635 -25.668392 -30.71279
2072500000 -24.782608 -37.099224 -0.54373854 -43.204903 -0.54567939 -43.213806 -25.694418 -31.690281
2100000000 -24.727335 -37.660492 -0.54540294 -43.777348 -0.54744351 -43.777016 -25.64994 -32.132225
2127500000 -24.772348 -38.309303 -0.54707092 -44.34309 -0.5477739 -44.342075 -25.649403 -32.812637
2155000000 -24.788942 -39.223206 -0.54880416 -44.916458 -0.54905909 -44.910477 -25.637348 -33.772526
2182500000 -24.721161 -40.025669 -0.54748315 -45.474007 -0.55074584 -45.474178 -25.625921 -34.195213
2210000000 -24.696365 -40.34705 -0.5502407 -46.045135 -0.55245614 -46.047153 -25.618906 -34.840122
2237500000 -24.786009 -41.492939 -0.55040526 -46.60709 -0.55335844 -46.612995 -25.612316 -35.79874
2265000000 -24.715464 -42.164135 -0.55392039 -47.166332 -0.55542332 -47.170944 -25.652269 -36.14246
2292500000 -24.666733 -42.507862 -0.55591702 -47.753548 -0.55468267 -47.744026 -25.575731 -36.677032
2320000000 -24.783541 -43.37328 -0.55818063 -48.313084 -0.55954552 -48.307167 -25.631794 -37.714699
2347500000 -24.65801 -43.942841 -0.55873823 -48.864971 -0.56064695 -48.863934 -25.639315 -38.063656
2375000000 -24.638418 -44.30027 -0.56048614 -49.422852 -0.56249815 -49.429333 -25.638645 -38.086369
2402500000 -24.737955 -45.051586 -0.56296813 -49.994698 -0.56499106 -50.004238 -25.587532 -39.196678
2430000000 -24.713495 -46.26062 -0.56306511 -50.563084 -0.56332147 -50.561272 -25.599064 -40.089127
2457500000 -24.661627 -46.60836 -0.56474137 -51.128021 -0.56471217 -51.12027 -25.568151 -40.290077
2485000000 -24.774113 -46.973671 -0.56699365 -51.695263 -0.56880301 -51.690716 -25.547926 -40.9711
2512500000 -24.747458 -47.963264 -0.57026219 -52.254333 -0.57011253 -52.252346 -25.555752 -41.856167
2540000000 -24.689507 -48.550179 -0.57082599 -52.810234 -0.57303423 -52.816422 -25.512941 -42.565186
2567500000 -24.755482 -49.032574 -0.57074869 -53.384472 -0.57421738 -53.378773 -25.579155 -42.880478
2595000000 -24.828798 -49.635197 -0.57388324 -53.928474 -0.57477844 -53.942757 -25.554161 -43.665684
2622500000 -24.769056 -50.705128 -0.5763129 -54.497292 -0.57660025 -54.498802 -25.514746 -44.530769
2650000000 -24.738249 -51.407486 -0.57917166 -55.051727 -0.57942307 -55.056141 -25.545099 -45.337276
2677500000 -24.863174 -51.626045 -0.57941836 -55.617695 -0.58149892 -55.612995 -25.558453 -46.123642
2705000000 -24.792145 -52.505695 -0.58141786 -56.180729 -0.57980704 -56.178493 -25.568001 -46.463078
2732500000 -24.767479 -53.048569 -0.58303398 -56.736477 -0.58264679 -56.741783 -25.586866 -46.827019
2760000000 -24.789988 -53.725666 -0.58399981 -57.317692 -0.58427107 -57.316654 -25.601374 -48.017483
2787500000 -24.897661 -54.730434 -0.5859884 -57.875286 -0.58688229 -57.868301 -25.589251 -48.762131
2815000000 -24.757584 -55.099236 -0.58687729 -58.4342 -0.58839583 -58.419422 -25.61577 -49.333359
2842500000 -24.864048 -56.099525 -0.58832145 -59.001728 -0.59047484 -59.006306 -25.687267 -50.235725
2870000000 -24.861359 -56.322708 -0.59108758 -59.559628 -0.59257436 -59.560432 -25.684214 -50.650158
2897500000 -24.841814 -56.933418 -0.59211272 -60.127537 -0.59054065 -60.121368 -25.628389 -51.266415
2925000000 -24.813196 -57.739079 -0.59306103 -60.671124 -0.59508878 -60.676842 -25.663298 -52.020443
2952500000 -24.865086 -58.632729 -0.59408367 -61.231689 -0.59746265 -61.237347 -25.757082 -52.942024
2980000000 -24.78681 -58.692814 -0.59690487 -61.795761 -0.59502524 -61.787476 -25.705223 -53.330795
3007500000 -24.850111 -59.278118 -0.59780753 -62.353207 -0.59856331 -62.355808 -25.700905 -53.512062
3035000000 -24.89945 -60.221138 -0.59956378 -62.911438 -0.60027474 -62.901222 -25.810236 -54.505619
3062500000 -24.852203 -60.489494 -0.60018647 -63.463989 -0.60002357 -63.474514 -25.78615 -54.979172
3090000000 -24.932493 -61.051777 -0.60113883 -64.022705 -0.60190856 -64.027367 -25.777914 -55.053299
3117500000 -24.977509 -62.061253 -0.60060138 -64.588448 -0.60565048 -64.600861 -25.879129 -56.331909
3145000000 -24.937939 -62.257626 -0.60316473 -65.153885 -0.60237813 -65.150833 -25.768038 -56.641216
3172500000 -24.937511 -62.849072 -0.60548949 -65.704681 -0.60617548 -65.711052 -25.75771 -57.090096
3200000000 -24.973339 -63.889359 -0.60826504 -66.26181 -0.60642189 -66.265198 -25.829865 -57.597225
3227500000 -25.035521 -64.428131 -0.60569364 -66.834251 -0.60733134 -66.842064 -25.81706 -58.372757
3255000000 -25.036049 -65.105331 -0.6088922 -67.382912 -0.61160111 -67.388466 -25.839191 -58.948898
3282500000 -25.027117 -65.684982 -0.60999459 -67.958527 -0.61096466 -67.953819 -25.86245 -59.279514
3310000000 -25.062126 -66.371841 -0.61117709 -68.508163 -0.61196381 -68.500252 -25.922792 -60.16172
3337500000 -25.076588 -67.154243 -0.61130762 -69.067574 -0.61318564 -69.06958 -25.834478 -61.052494
3365000000 -25.152674 -68.123909 -0.61264753 -69.628845 -0.61579937 -69.620888 -25.918383 -61.182629
3392500000 -25.133226 -68.389008 -0.61369395 -70.194771 -0.61755937 -70.179909 -25.951498 -61.705116
3420000000 -25.152225 -69.374397 -0.61249912 -70.746185 -0.61568993 -70.740273 -25.938993 -62.826313
3447500000 -25.241884 -70.148094 -0.61397183 -71.303452 -0.61655027 -71.304726 -25.930929 -63.011681
3475000000 -25.173037 -71.004181 -0.61531734 -71.869713 -0.61659771 -71.866402 -25.964293 -63.192974
3502500000 -25.220762 -71.437149 -0.61655235 -72.419487 -0.61848038 -72.427391 -26.055698 -64.19796
3530000000 -25.262945 -71.944641 -0.61519808 -72.975937 -0.6196413 -72.969109 -25.995842 -64.877541
3557500000 -25.266308 -72.997749 -0.61795241 -73.553848 -0.62066191 -73.538765 -25.95314 -65.10865
3585000000 -25.299673 -73.404381 -0.61874157 -74.102058 -0.61989063 -74.098732 -25.977867 -65.841667
3612500000 -25.370577 -74.011063 -0.62072372 -74.683868 -0.62064636 -74.666267 -26.085276 -66.709312
3640000000 -25.336546 -74.907143 -0.62052721 -75.232841 -0.62216455 -75.229164 -26.014948 -67.277946
3667500000 -25.343798 -75.592178 -0.62155968 -75.787979 -0.6229195 -75.789917 -26.030436 -67.638664
3695000000 -25.463398 -75.998146 -0.62313169 -76.339508 -0.62529099 -76.352509 -26.140949 -68.590431
3722500000 -25.454765 -76.805626 -0.62429446 -76.916267 -0.62699652 -76.89846 -26.096384 -68.936836
3750000000 -25.385744 -77.726311 -0.62523419 -77.477135 -0.62579507 -77.481995 -26.054903 -69.070992
3777500000 -25.478771 -77.480453 -0.62794048 -78.029182 -0.62788814 -78.034439 -26.121935 -70.306747
3805000000 -25.561131 -78.845047 -0.6282109 -78.600204 -0.62921196 -78.59417 -26.187593 -71.076172
3832500000 -25.469202 -79.817528 -0.62765217 -79.155945 -0.62818336 -79.151131 -26.135033 -70.736084
3860000000 -25.44665 -79.737419 -0.62846726 -79.720245 -0.63097113 -79.721931 -26.141699 -71.964569
3887500000 -25.677683 -80.35231 -0.63057095 -80.2798 -0.63211834 -80.279022 -26.223272 -72.74765
3915000000 -25.586216 -82.159927 -0.63211656 -80.835617 -0.63088703 -80.832901 -26.158035 -72.928177
3942500000 -25.45952 -82.708702 -0.6317234 -81.389648 -0.6307475 -81.384171 -26.153164 -73.755028
3970000000 -25.619551 -82.417732 -0.63282442 -81.956352 -0.6340605 -81.955704 -26.264519 -74.463753
3997500000 -25.713692 -84.010635 -0.63571912 -82.506836 -0.63446671 -82.518745 -26.270061 -74.777977
4025000000 -25.570492 -84.737503 -0.63502455 -83.080879 -0.63629872 -83.079323 -26.27129 -75.565224
4052500000 -25.571857 -84.351578 -0.63499761 -83.620979 -0.63684809 -83.631683 -26.330687 -76.32914
4080000000 -25.787258 -85.282555 -0.63733041 -84.19799 -0.63592321 -84.197906 -26.341965 -77.060341
4107500000 -25.693462 -87.292786 -0.63597834 -84.751328 -0.63822263 -84.766098 -26.341669 -77.694801
4135000000 -25.599285 -87.166359 -0.6381312 -85.314949 -0.63897771 -85.315224 -26.434515 -77.795952
4162500000 -25.782667 -87.238831 -0.63992274 -85.875732 -0.64002115 -85.881531 -26.445572 -78.691277
4190000000 -25.821117 -88.861809 -0.63857406 -86.441185 -0.64046061 -86.444244 -26.426687 -79.174202
4217500000 -25.701361 -89.475548 -0.64013034 -87.001549 -0.64009017 -87.011757 -26.410879 -79.709618
4245000000 -25.741772 -89.434639 -0.64212108 -87.5606 -0.64213371 -87.563057 -26.462124 -80.407921
4272500000 -25.930386 -90.364761 -0.64187169 -88.122353 -0.6447103 -88.119865 -26.544802 -80.909996
4300000000 -25.808746 -91.588142 -0.64295489 -88.676674 -0.64419144 -88.692879 -26.507853 -81.530968
4327500000 -25.78425 -91.686958 -0.64419895 -89.236465 -0.64500791 -89.239723 -26.567705 -82.536072
4355000000 -25.896761 -92.273148 -0.64716434 -89.804062 -0.64573467 -89.814377 -26.60527 -83.088409
4382500000 -25.951851 -93.02314 -0.64641565 -90.371735 -0.64712673 -90.377136 -26.598116 -82.964256
4410000000 -25.90196 -93.974525 -0.64713216 -90.927109 -0.64818001 -90.93766 -26.668369 -84.094238
4437500000 -25.977516 -93.864174 -0.64923102 -91.490791 -0.64730942 -91.484207 -26.723177 -84.413048
4465000000 -26.032322 -94.687965 -0.65045315 -92.054352 -0.64827287 -92.049118 -26.638052 -84.705421
4492500000 -26.040421 -95.543213 -0.6511066 -92.616898 -0.65118295 -92.610794 -26.711657 -85.773918
4520000000 -26.114206 -96.251289 -0.65161937 -93.169365 -0.6515066 -93.172623 -26.785408 -86.502983
4547500000 -26.123882 -96.632996 -0.65174687 -93.72773 -0.65204346 -93.736885 -26.72028 -86.62468
4575000000 -26.094547 -97.253944 -0.65323329 -94.292847 -0.65194267 -94.288818 -26.760357 -86.866837
4602500000 -26.196861 -98.455688 -0.65464312 -94.854118 -0.65424556 -94.864632 -26.810881 -88.508171
4630000000 -26.235134 -98.645332 -0.65357083 -95.420151 -0.65581793 -95.40757 -26.837793 -88.663048
4657500000 -26.24592 -98.991539 -0.65469033 -95.975929 -0.65715486 -95.982071 -26.791382 -89.353386
4685000000 -26.323542 -100.06223 -0.6557951 -96.537056 -0.65698528 -96.530754 -26.9235 -90.492096
4712500000 -26.368921 -100.59106 -0.65672785 -97.101547 -0.65631926 -97.092926 -26.908598 -90.668449
4740000000 -26.325638 -101.4315 -0.6574325 -97.647247 -0.65990216 -97.66024 -26.952168 -91.316353
4767500000 -26.383371 -101.73587 -0.65896964 -98.217201 -0.66009897 -98.224075 -26.971798 -92.231308
4795000000 -26.463707 -102.7421 -0.65831321 -98.77462 -0.66107333 -98.780098 -27.024721 -92.91626
4822500000 -26.46315 -103.21544 -0.65976691 -99.343498 -0.66341931 -99.336685 -27.029921 -92.656044
4850000000 -26.476717 -103.92022 -0.65997601 -99.902664 -0.66238564 -99.908203 -27.08811 -94.205498
4877500000 -26.578991 -104.71035 -0.66282463 -100.47154 -0.66301674 -100.46307 -27.153559 -94.898277
4905000000 -26.587118 -104.87009 -0.66308004 -101.01933 -0.66473746 -101.03661 -27.128258 -94.911034
4932500000 -26.617819 -105.58401 -0.6639812 -101.59185 -0.66457033 -101.58305 -27.184687 -95.894058
4960000000 -26.670389 -106.56889 -0.66514987 -102.14883 -0.66576838 -102.14479 -27.228712 -96.719971
4987500000 -26.698692 -106.74738 -0.66602337 -102.7057 -0.66841066 -102.7073 -27.215275 -96.801743
5015000000 -26.722168 -107.26343 -0.66943824 -103.2629 -0.67006403 -103.27217 -27.197178 -97.186516
5042500000 -26.86537 -108.24975 -0.66534448 -103.82666 -0.66882432 -103.82584 -27.321026 -98.630241
5070000000 -26.83279 -108.55692 -0.67017549 -104.38205 -0.67258078 -104.38988 -27.299105 -98.748367
5097500000 -26.880024 -108.84013 -0.66937757 -104.95136 -0.67289692 -104.94891 -27.330399 -99.113045
5125000000 -26.972624 -110.45853 -0.67156726 -105.51289 -0.67205858 -105.51461 -27.431139 -100.60153
5152500000 -26.992519 -110.82645 -0.67150021 -106.06942 -0.67404199 -106.06504 -27.431576 -100.92352
5180000000 -27.026409 -111.13399 -0.67231214 -106.63064 -0.67378348 -106.62068 -27.470367 -101.09711
5207500000 -27.097466 -112.01198 -0.67296648 -107.18933 -0.67585117 -107.18784 -27.578102 -102.71964
5235000000 -27.121454 -112.82465 -0.67427963 -107.73548 -0.6754483 -107.74915 -27.589239 -103.35529
5262500000 -27.243196 -112.73749 -0.67788529 -108.30216 -0.67735308 -108.2976 -27.646837 -103.11861
5290000000 -27.334335 -114.0583 -0.67773461 -108.86151 -0.67780751 -108.8699 -27.72921 -103.78657
5317500000 -27.269575 -115.23664 -0.67634112 -109.42056 -0.67738938 -109.43127 -27.763697 -105.09439
5345000000 -27.351488 -115.43244 -0.67914242 -109.98212 -0.67731494 -109.99357 -27.688309 -105.20515
5372500000 -27.457544 -116.20448 -0.67768741 -110.53951 -0.67938304 -110.54987 -27.85268 -105.92049
5400000000 -27.448488 -117.99341 -0.67902106 -111.1134 -0.6834268 -111.11845 -27.933802 -107.70116
5427500000 -27.405165 -117.37787 -0.67971665 -111.65633 -0.68159813 -111.66843 -27.848497 -107.377
5455000000 -27.584454 -118.12471 -0.68122959 -112.22752 -0.68273211 -112.21413 -27.942364 -107.65548
5482500000 -27.552189 -119.77885 -0.68270999 -112.78607 -0.68345767 -112.79044 -28.071377 -109.36131
5510000000 -27.612978 -119.50756 -0.68381006 -113.33103 -0.68376887 -113.35342 -28.078882 -109.59845
5537500000 -27.754856 -119.78383 -0.68490922 -113.90125 -0.68475527 -113.91145 -28.068085 -109.83277
5565000000 -27.755241 -121.55532 -0.68464673 -114.46582 -0.68641454 -114.46463 -28.211334 -110.81828
5592500000 -27.759037 -121.18451 -0.68450582 -115.02405 -0.68688393 -115.02507 -28.264404 -111.47816
5620000000 -27.911509 -121.21738 -0.68570393 -115.58142 -0.68663955 -115.57902 -28.278009 -111.25745
5647500000 -27.964924 -122.8912 -0.68681234 -116.1397 -0.6885944 -116.14514 -28.329411 -112.46969
5675000000 -27.883804 -123.28156 -0.68833202 -116.71303 -0.68862712 -116.70113 -28.453697 -113.39771
5702500000 -28.170359 -123.3059 -0.68885982 -117.26225 -0.68924689 -117.2577 -28.453865 -113.49928
5730000000 -28.250023 -125.17766 -0.69012773 -117.82116 -0.69063753 -117.83725 -28.528957 -114.1415
5757500000 -28.015127 -126.03239 -0.69080776 -118.39809 -0.69126731 -118.38173 -28.604092 -115.2463
5785000000 -28.309649 -125.383 -0.692487 -118.93716 -0.69425255 -118.94773 -28.635309 -115.80168
5812500000 -28.506744 -126.8989 -0.69162971 -119.49512 -0.69390482 -119.50893 -28.64926 -116.43187
5840000000 -28.278751 -128.14703 -0.69169772 -120.06023 -0.6936937 -120.06268 -28.805252 -117.25661
5867500000 -28.406033 -127.42661 -0.69395036 -120.62214 -0.69379699 -120.6234 -28.885815 -117.25327
5895000000 -28.618551 -129.10481 -0.69669557 -121.19007 -0.69517416 -121.17962 -28.901505 -118.38621
5922500000 -28.514601 -130.21889 -0.69382524 -121.73953 -0.69616282 -121.74371 -28.971254 -119.14919
5950000000 -28.638119 -129.38765 -0.69562411 -122.30201 -0.69713467 -122.2906 -29.122452 -119.43557
5977500000 -28.835499 -130.60596 -0.69609749 -122.8463 -0.69799036 -122.86505 -29.147482 -120.04178
6005000000 -28.676165 -131.81731 -0.69883674 -123.42226 -0.69847924 -123.42406 -29.156105 -121.1604
6032500000 -28.772474 -131.63673 -0.698295 -123.96236 -0.69829071 -123.98508 -29.213503 -121.86895
6060000000 -29.160757 -131.84598 -0.70104051 -124.53407 -0.70066023 -124.52834 -29.349926 -122.0636
6087500000 -29.042934 -134.60539 -0.70286304 -125.08967 -0.70100671 -125.09946 -29.478785 -123.35351
6115000000 -28.900368 -133.54956 -0.70102465 -125.64819 -0.70209014 -125.66439 -29.471928 -124.09939
6142500000 -29.432346 -133.92746 -0.70304751 -126.21406 -0.70179647 -126.21399 -29.571426 -124.20942
6170000000 -29.457273 -137.3282 -0.70362639 -126.75637 -0.70256084 -126.78294 -29.703396 -124.95512
6197500000 -29.095804 -135.9088 -0.70495188 -127.34116 -0.70309007 -127.34615 -29.760647 -125.79852
6225000000 -29.572901 -136.13422 -0.70361602 -127.90118 -0.70453054 -127.88443 -29.779707 -125.80789
6252500000 -29.854853 -138.32535 -0.70567417 -128.44641 -0.70802277 -128.44429 -29.958132 -126.07655
6280000000 -29.271114 -138.39674 -0.70339507 -128.99469 -0.70660341 -129.00687 -30.058666 -127.83018
6307500000 -29.803877 -136.0338 -0.7034328 -129.55171 -0.70372987 -129.5441 -30.041281 -127.54848
6335000000 -30.404745 -139.47336 -0.707421 -130.11472 -0.70695221 -130.11218 -30.11566 -127.18154
6362500000 -29.753864 -141.91353 -0.70446962 -130.6974 -0.7047832 -130.68124 -30.393436 -128.33116
6390000000 -29.868593 -138.10199 -0.70473999 -131.25565 -0.70567662 -131.24481 -30.490383 -129.44809
6417500000 -30.810301 -140.11679 -0.70717335 -131.81387 -0.70790207 -131.80382 -30.432657 -129.58571
6445000000 -30.378607 -144.47185 -0.70732021 -132.37593 -0.70748717 -132.37962 -30.502666 -130.87624
6472500000 -29.973223 -141.18033 -0.70499212 -132.93474 -0.70602685 -132.92216 -30.730707 -130.50177
6500000000 -30.851671 -140.63298 -0.70654035 -133.47861 -0.70951235 -133.47278 -30.78804 -130.65506
6527500000 -30.875767 -145.52306 -0.70918196 -134.05167 -0.70778084 -134.04596 -30.861292 -132.43167
6555000000 -30.228895 -145.08333 -0.70825493 -134.61499 -0.70752126 -134.60252 -30.930098 -133.28682
6582500000 -30.844244 -142.91573 -0.70744634 -135.17477 -0.70957029 -135.17143 -30.920425 -132.24219
6610000000 -31.237749 -146.28154 -0.70815194 -135.73566 -0.70882726 -135.72162 -31.173889 -133.1982
6637500000 -30.888018 -147.52927 -0.70824003 -136.30179 -0.7087757 -136.29608 -31.327812 -135.01128
6665000000 -30.946424 -146.41731 -0.70831162 -136.85895 -0.70886505 -136.85185 -31.223972 -134.90619
6692500000 -31.456594 -147.10686 -0.70990556 -137.42067 -0.71019578 -137.43065 -31.321299 -134.19351
6720000000 -31.366161 -148.56485 -0.70895582 -137.98834 -0.71234614 -137.98734 -31.650738 -136.31393
6747500000 -31.194805 -148.60735 -0.71000218 -138.5486 -0.71057445 -138.54788 -31.603451 -137.18059
6775000000 -31.824434 -149.12509 -0.71217442 -139.10132 -0.71074057 -139.09962 -31.46624 -135.93671
6802500000 -31.708349 -150.65633 -0.71208018 -139.67513 -0.71285307 -139.68259 -31.970278 -135.86714
6830000000 -31.626293 -151.05017 -0.71254742 -140.2307 -0.71364927 -140.24321 -32.289421 -138.70761
6857500000 -31.96048 -151.23576 -0.71356875 -140.79601 -0.71445936 -140.80551 -31.805431 -137.56383
6885000000 -32.058407 -152.69084 -0.71508986 -141.36118 -0.71571368 -141.38016 -32.110294 -135.89462
6912500000 -31.958607 -152.11626 -0.71546221 -141.93657 -0.71342963 -141.94716 -32.453709 -138.96509
6940000000 -32.201546 -152.62663 -0.71607238 -142.49866 -0.71519083 -142.49872 -32.296951 -140.31595
6967500000 -32.357769 -154.8864 -0.71595114 -143.07329 -0.71494305 -143.05527 -32.19165 -138.01645
6995000000 -32.355225 -152.97607 -0.71654826 -143.62085 -0.71711099 -143.62743 -32.770683 -138.69525
7022500000 -32.554623 -153.49435 -0.7186932 -144.19302 -0.71830499 -144.18594 -32.802937 -142.21933
7050000000 -33.043671 -157.66434 -0.7196188 -144.75812 -0.71774459 -144.74704 -32.426208 -140.01039
7077500000 -32.681313 -155.94406 -0.71945477 -145.308 -0.71968818 -145.30934 -32.937683 -139.58131
7105000000 -32.725372 -156.9406 -0.71946818 -145.88863 -0.72095168 -145.88388 -33.387791 -143.52937
7132500000 -33.25222 -157.52135 -0.72126061 -146.44077 -0.72241974 -146.45369 -32.717777 -142.12311
7160000000 -33.088448 -159.10178 -0.72255301 -147.01224 -0.7247287 -147.00987 -33.193859 -140.03641
7187500000 -32.990402 -159.73401 -0.7264955 -147.57565 -0.72503245 -147.58961 -33.657486 -144.77441
7215000000 -33.217964 -158.97296 -0.72616595 -148.1519 -0.72744477 -148.15134 -33.277439 -143.93382
7242500000 -33.565022 -160.07877 -0.72962081 -148.70337 -0.73077971 -148.7104 -33.24292 -140.3703
7270000000 -33.556522 -161.43291 -0.73088753 -149.25609 -0.73118889 -149.26649 -34.105564 -145.5761
7297500000 -33.473717 -162.5657 -0.73227161 -149.81955 -0.7341907 -149.8308 -33.744686 -146.6288
7325000000 -33.961552 -161.43176 -0.73339164 -150.36661 -0.73287463 -150.38202 -33.409103 -142.29305
7352500000 -34.003555 -161.15988 -0.73446476 -150.91559 -0.73486698 -150.91962 -34.544777 -146.15932
7380000000 -34.396744 -164.87958 -0.7355023 -151.49339 -0.73589569 -151.49281 -34.125126 -148.67188
7407500000 -34.206207 -164.61455 -0.73377204 -152.04411 -0.73553079 -152.04707 -33.791302 -143.65605
7435000000 -34.36805 -162.2439 -0.73828155 -152.604 -0.73461926 -152.60841 -34.765045 -144.76715
7462500000 -34.69244 -163.62138 -0.73795235 -153.19121 -0.73676795 -153.18727 -34.675331 -150.30959
7490000000 -34.828987 -167.54312 -0.73458862 -153.73146 -0.73858684 -153.74461 -33.959728 -146.06709
7517500000 -34.475132 -165.86646 -0.73946637 -154.28795 -0.7389428 -154.30702 -34.989059 -143.14226
7545000000 -34.795879 -163.92223 -0.73974752 -154.87859 -0.73852301 -154.87659 -35.322411 -152.47539
7572500000 -35.3717 -166.82924 -0.73816311 -155.42061 -0.74046761 -155.43759 -34.323742 -147.53452
7600000000 -35.226929 -168.64899 -0.73981225 -155.99818 -0.74101257 -155.98964 -35.080196 -142.63412
7627500000 -35.241657 -167.54514 -0.7435416 -156.56323 -0.74135643 -156.561 -35.83342 -154.09259
7655000000 -35.664646 -165.62297 -0.74317974 -157.1353 -0.74507171 -157.13293 -34.515594 -151.33853
7682500000 -35.78611 -170.23044 -0.74311739 -157.69348 -0.74485934 -157.69518 -35.267937 -142.7198
7710000000 -35.383007 -171.06274 -0.74752223 -158.25287 -0.74948597 -158.26073 -36.703838 -155.26451
7737500000 -36.08213 -166.87541 -0.75169241 -158.82881 -0.75185096 -158.81979 -35.151501 -155.70145
7765000000 -36.30788 -169.40724 -0.75203502 -159.38194 -0.75050247 -159.37839 -35.311829 -141.8559
7792500000 -36.097675 -174.46898 -0.75440168 -159.9344 -0.75440079 -159.93758 -37.699081 -154.61166
7820000000 -36.30901 -169.7959 -0.75646925 -160.51442 -0.75768834 -160.52335 -35.638824 -161.69987
7847500000 -36.63459 -169.40356 -0.7578252 -161.08902 -0.75914764 -161.08495 -35.418499 -142.83382
7875000000 -36.5294 -178.87091 -0.76125014 -161.64328 -0.76192969 -161.62981 -39.046341 -150.26501
7902500000 -36.520267 -170.51746 -0.76353115 -162.22011 -0.76450926 -162.20615 -36.237026 -168.84329
7930000000 -36.679348 -166.284 -0.76573581 -162.78575 -0.76673019 -162.77237 -34.843189 -144.01961
7957500000 -37.230263 179.34171 -0.77114701 -163.33376 -0.77266186 -163.33801 -40.375854 -136.57309
7985000000 -37.457058 -172.86017 -0.77639318 -163.90891 -0.77804857 -163.91133 -36.897324 176.32968
8012500000 -36.821964 -162.87238 -0.78322095 -164.4837 -0.783167 -164.47887 -33.664761 -150.41187
8040000000 -38.163033 177.78178 -0.79047734 -165.04233 -0.79065746 -165.04567 -38.860363 -111.53876
8067500000 -38.827526 -177.89015 -0.80330652 -165.61798 -0.80206585 -165.59357 -38.723454 143.35229
8095000000 -36.101082 -159.55579 -0.81867504 -166.16272 -0.81816185 -166.15697 -31.771641 -166.38312
8122500000 -38.719566 176.95288 -0.83174026 -166.67886 -0.83328265 -166.67445 -33.199047 -101.45478
8150000000 -42.669762 177.68765 -0.85317475 -167.12436 -0.85398889 -167.12508 -38.958439 53.037426
8177500000 -34.549034 -167.72891 -0.87484723 -167.51985 -0.87904841 -167.52214 -29.33149 156.11971
8205000000 -39.139606 174.79962 -0.88939911 -167.80835 -0.89130503 -167.78697 -26.928352 -129.43022
8232500000 -44.284138 -112.68015 -0.87365752 -167.94748 -0.87682217 -167.9393 -28.888321 -39.747704
8260000000 -33.693653 163.83546 -0.83440673 -168.04262 -0.83679056 -168.04088 -27.42528 75.955658
8287500000 -39.75927 150.43958 -0.74317729 -168.54521 -0.74399656 -168.53883 -24.64481 163.70485
8315000000 -35.081966 -133.13132 -0.6631642 -169.37642 -0.66303903 -169.34071 -24.752182 -122.26619
8342500000 -40.271091 134.12416 -0.61382037 -170.3195 -0.613572 -170.34703 -27.982876 -30.520403
8370000000 -51.285248 134.34569 -0.62213945 -171.29807 -0.61843443 -171.31189 -29.504257 85.778061
8397500000 -35.846405 -172.28061 -0.64361501 -172.16174 -0.64470577 -172.15605 -27.98987 177.205
8425000000 -44.459629 165.84006 -0.67351508 -172.84828 -0.67255241 -172.84554 -30.884775 -102.12715
8452500000 -47.675831 -145.66029 -0.69341826 -173.50439 -0.69446063 -173.50943 -37.808201 15.307161
8480000000 -38.96365 176.12196 -0.71188253 -174.06973 -0.71052659 -174.06149 -33.511856 147.04295
8507500000 -44.165756 175.07607 -0.72923225 -174.60802 -0.73027742 -174.61139 -33.627087 -138.63708
8535000000 -45.759857 -152.00195 -0.73749155 -175.18327 -0.74024141 -175.17365 -41.48613 -50.81255
8562500000 -42.222134 172.71049 -0.74682927 -175.70152 -0.74676466 -175.71191 -39.443546 133.79726
8590000000 -44.988827 169.51907 -0.75440264 -176.25056 -0.75495517 -176.25931 -35.80291 -158.12341
8617500000 -46.560692 -158.49362 -0.75853413 -176.80438 -0.75768894 -176.7858 -41.237381 -87.767334
8645000000 -44.434273 -175.70654 -0.76073074 -177.33173 -0.76252979 -177.32106 -45.656044 122.50737
8672500000 -46.057159 169.4987 -0.76593375 -177.88353 -0.76758176 -177.88106 -38.318451 -171.4239
8700000000 -47.897015 -156.52014 -0.76930112 -178.42601 -0.76761574 -178.42992 -41.941681 -105.80959
8727500000 -46.84201 -171.27925 -0.7697137 -178.97935 -0.7716856 -178.97641 -60.384483 124.31056
8755000000 -48.22971 167.58568 -0.77290708 -179.5206 -0.77492195 -179.51933 -41.05072 176.89111
8782500000 -49.88282 -156.8679 -0.77490675 179.93571 -0.77716583 179.9292 -42.164532 -120.29201
8810000000 -48.680538 -162.75043 -0.77847779 179.37236 -0.7775259 179.38689 -58.244846 -59.556736
8837500000 -53.337769 -178.68736 -0.77852511 178.82823 -0.7797873 178.83118 -43.76598 171.48459
8865000000 -53.598484 -158.81535 -0.78195035 178.27893 -0.78176284 178.29092 -42.977371 -128.55185
8892500000 -53.173946 -152.57297 -0.78137702 177.71928 -0.78133023 177.73709 -50.142384 -69.124687
8920000000 -57.073395 -169.61552 -0.78135902 177.16447 -0.78373867 177.18411 -49.024548 168.77745
8947500000 -58.394222 -124.8106 -0.78415388 176.63516 -0.78555071 176.62967 -44.282536 -140.04996
8975000000 -57.514679 -117.84941 -0.78506374 176.06503 -0.78633863 176.0688 -47.890247 -74.113495
9002500000 -56.48838 -156.56418 -0.78522438 175.5116 -0.78570366 175.50716 -59.09082 174.80371
9030000000 -58.532421 -77.334213 -0.78657538 174.95555 -0.78493196 174.96346 -45.819492 -143.80803
9057500000 -58.739613 -85.649513 -0.78623599 174.40654 -0.78687263 174.40999 -47.053093 -78.719337
9085000000 -59.487026 -89.171463 -0.78832805 173.85652 -0.78719747 173.86134 -60.563583 -48.06855
9112500000 -57.884407 -56.926373 -0.78878587 173.30318 -0.7901808 173.28952 -49.030968 -147.7164
9140000000 -53.538765 -58.107273 -0.79006404 172.74779 -0.79150969 172.74245 -46.14893 -79.354622
9167500000 -54.715336 -37.074341 -0.79076397 172.17755 -0.79159546 172.18384 -50.700397 -37.777744
9195000000 -52.323559 -53.569374 -0.79022551 171.62929 -0.79404283 171.62767 -54.143665 -131.74538
9222500000 -51.520905 -33.342178 -0.79356205 171.07343 -0.79401642 171.08273 -47.313511 -79.953537
9250000000 -51.133656 -27.814608 -0.7930854 170.5251 -0.79357296 170.52463 -47.674541 -39.15942
9277500000 -50.025478 -40.142063 -0.79304129 169.95311 -0.79438937 169.94991 -55.360279 -80.312088
9305000000 -50.498268 -33.528099 -0.793293 169.39537 -0.79087609 169.39938 -46.816944 -74.411476
9332500000 -48.86438 -36.586742 -0.79247147 168.85765 -0.79515809 168.8407 -44.524921 -46.018196
9360000000 -47.415539 -43.014442 -0.7968213 168.2865 -0.7944634 168.27701 -50.442307 -41.466846
9387500000 -47.133499 -32.284264 -0.79469246 167.72066 -0.7976433 167.7178 -48.445396 -69.975769
9415000000 -47.524975 -44.021637 -0.79759789 167.16893 -0.79608214 167.15891 -44.272438 -47.42942
9442500000 -44.505707 -41.124271 -0.79848105 166.61775 -0.80163622 166.62109 -46.045261 -43.983562
9470000000 -44.95702 -37.821697 -0.79897571 166.04971 -0.79806513 166.05811 -47.056938 -57.944935
9497500000 -45.357239 -36.237675 -0.79866397 165.4883 -0.80053705 165.48584 -42.754292 -50.456608
9525000000 -42.929367 -41.44746 -0.80080938 164.93951 -0.80156088 164.95946 -43.438885 -41.7966
9552500000 -43.106117 -38.667763 -0.79982775 164.37552 -0.80392635 164.39136 -45.711479 -49.698956
9580000000 -43.853321 -32.416439 -0.80115432 163.81656 -0.80358309 163.83194 -43.153534 -50.062523
9607500000 -42.223747 -39.868484 -0.80246788 163.27582 -0.80388242 163.27333 -41.986557 -46.21574
9635000000 -41.858376 -39.138229 -0.80373418 162.70815 -0.80381954 162.71117 -43.49934 -45.575947
9662500000 -42.307968 -36.548653 -0.80316013 162.13824 -0.80302185 162.16299 -42.566433 -47.792183
9690000000 -41.686539 -38.458508 -0.80375659 161.60571 -0.80456156 161.61354 -40.971527 -46.035576
9717500000 -40.471954 -42.772995 -0.80568421 161.05228 -0.80710298 161.04758 -41.741837 -44.253445
9745000000 -41.400097 -38.621723 -0.80639911 160.474 -0.80635488 160.47153 -41.757088 -47.9842
9772500000 -40.285957 -37.947441 -0.80458647 159.9352 -0.80729687 159.9296 -40.538025 -45.217613
9800000000 -39.609661 -43.470165 -0.80805475 159.36115 -0.80764633 159.36975 -40.51424 -43.661457
9827500000 -40.261311 -39.410809 -0.80777758 158.7943 -0.80807847 158.82304 -41.482067 -45.273296
9855000000 -40.048676 -39.896339 -0.80662668 158.25844 -0.80637485 158.26974 -39.889957 -47.384758
9882500000 -38.921783 -40.268642 -0.80858266 157.68846 -0.80783212 157.71635 -39.520401 -46.197071
9910000000 -39.461994 -42.763184 -0.81137007 157.14146 -0.80907571 157.13301 -40.129147 -43.641476
9937500000 -39.255238 -45.016491 -0.80782372 156.57303 -0.80950576 156.5614 -39.760853 -45.617039
9965000000 -38.264889 -42.423203 -0.80897182 156.02721 -0.80981427 156.01674 -38.430611 -48.824654
9992500000 -38.707008 -45.513481 -0.81322181 155.4586 -0.81237495 155.47354 -38.781506 -44.787369
10020000000 -38.728394 -46.897652 -0.81136602 154.90668 -0.81084901 154.89226 -39.444946 -46.144279
10047500000 -37.412392 -45.001358 -0.81261873 154.34865 -0.81176513 154.35667 -37.834816 -52.723003
10075000000 -38.01186 -48.936615 -0.81532848 153.79007 -0.81506306 153.77075 -37.539574 -48.546425
10102500000 -38.10006 -48.082985 -0.81386489 153.20984 -0.81687504 153.21336 -38.847401 -46.325844
10130000000 -36.752308 -51.008953 -0.8153035 152.67722 -0.81488192 152.68074 -37.933163 -54.34594
10157500000 -36.669449 -49.204445 -0.81623679 152.10629 -0.81712312 152.12006 -36.930218 -51.417976
10185000000 -37.036121 -53.449669 -0.81770152 151.53568 -0.81532943 151.51517 -38.071575 -46.950085
10212500000 -36.443497 -50.52914 -0.8141259 150.99519 -0.81358767 150.99347 -37.711758 -53.473961
10240000000 -35.510227 -51.741451 -0.81861186 150.45006 -0.8164202 150.43901 -36.378067 -52.997623
10267500000 -36.217655 -49.067127 -0.8172797 149.86737 -0.81818712 149.86836 -37.273228 -45.597054
10295000000 -36.089027 -49.339554 -0.818129 149.32709 -0.81832153 149.31963 -37.842796 -53.113815
10322500000 -35.384743 -52.985519 -0.81963784 148.76538 -0.82196003 148.76083 -36.063648 -57.321617
10350000000 -35.456184 -50.808456 -0.82001078 148.19769 -0.81985164 148.20177 -36.207859 -48.804363
10377500000 -35.553642 -49.241241 -0.82014024 147.63266 -0.82194376 147.63254 -37.426708 -49.324844
10405000000 -35.310272 -53.763836 -0.82194465 147.07883 -0.82160407 147.07083 -35.655766 -58.517689
10432500000 -34.834209 -53.060101 -0.82432193 146.51599 -0.82259095 146.51064 -35.526886 -51.124569
10460000000 -35.267979 -50.296581 -0.82297391 145.94029 -0.82637328 145.95668 -36.638775 -46.875259
10487500000 -35.288887 -55.209675 -0.82109582 145.40761 -0.82521397 145.41724 -35.676014 -58.054688
10515000000 -34.61731 -57.196133 -0.82477045 144.84962 -0.82748622 144.83661 -34.4739 -56.11158
10542500000 -34.427956 -55.491314 -0.82686681 144.25644 -0.82603109 144.26041 -35.853832 -48.948631
10570000000 -34.531013 -56.51149 -0.82675314 143.72095 -0.82564723 143.71336 -35.862949 -56.504509
10597500000 -34.593216 -57.008465 -0.82950836 143.17813 -0.82924771 143.14055 -34.03405 -59.255703
10625000000 -34.099171 -57.072746 -0.83207661 142.60246 -0.83184904 142.57362 -34.77932 -49.117104
10652500000 -34.409954 -59.06728 -0.83018178 142.0433 -0.82971174 142.02312 -35.447788 -56.08086
10680000000 -34.377419 -58.862019 -0.8314327 141.48824 -0.82999814 141.51408 -33.832016 -61.095257
10707500000 -33.878674 -59.205044 -0.83249396 140.92938 -0.83271253 140.91565 -33.857826 -53.492405
10735000000 -34.280857 -65.276482 -0.83425808 140.34889 -0.83458805 140.34647 -35.077583 -55.674011
10762500000 -33.647972 -64.859879 -0.83017081 139.81001 -0.8344698 139.79492 -33.715633 -65.231888
10790000000 -33.645676 -62.786434 -0.83388948 139.24117 -0.83597553 139.26401 -33.051739 -58.60989
10817500000 -33.431297 -68.071022 -0.838898 138.69678 -0.83581549 138.68802 -34.265705 -55.320572
10845000000 -33.278404 -70.653717 -0.83781981 138.12782 -0.83843142 138.14719 -33.824566 -66.989777
10872500000 -32.932144 -64.920959 -0.84029377 137.57277 -0.84009367 137.57796 -32.754959 -63.9622
10900000000 -32.727058 -68.532806 -0.83871526 137.0101 -0.84281117 137.02345 -33.977928 -56.338978
10927500000 -32.655609 -72.454071 -0.83714336 136.45943 -0.83842325 136.45724 -33.857399 -67.224976
10955000000 -32.136211 -66.79232 -0.83892095 135.90544 -0.83994663 135.92224 -32.503605 -66.198601
10982500000 -32.23484 -68.384148 -0.8412469 135.33806 -0.84278321 135.34331 -33.215443 -58.835026
11010000000 -32.475433 -72.387894 -0.84261006 134.78923 -0.8418951 134.80574 -33.900246 -65.792084
11037500000 -32.021019 -69.452698 -0.8414492 134.25368 -0.8447367 134.24983 -32.370144 -69.371803
11065000000 -32.035458 -67.615593 -0.8433342 133.68703 -0.84790272 133.6964 -32.559719 -60.825207
11092500000 -32.288349 -73.748177 -0.84197462 133.13568 -0.84536469 133.13031 -33.720642 -62.480446
11120000000 -31.854214 -72.675987 -0.84668571 132.57272 -0.84572887 132.5829 -32.452347 -70.582504
11147500000 -31.76478 -68.866623 -0.84398085 132.01677 -0.84834611 132.02454 -31.97298 -64.399506
11175000000 -31.971878 -74.564507 -0.84758174 131.47224 -0.84630388 131.45593 -33.002602 -60.876621
11202500000 -32.349022 -75.52993 -0.84759212 130.91835 -0.84696448 130.91397 -32.275482 -70.16713
11230000000 -31.555853 -73.479141 -0.84848171 130.36984 -0.85091138 130.36353 -31.448103 -68.643318
11257500000 -31.81111 -77.264519 -0.85019219 129.78226 -0.85254627 129.80447 -32.191429 -63.85923
11285000000 -32.049126 -80.205666 -0.84805816 129.24249 -0.85065758 129.24303 -32.097553 -71.180504
11312500000 -31.181635 -80.629013 -0.85015792 128.6897 -0.8539114 128.70335 -31.003983 -73.054909
11340000000 -30.91901 -79.268478 -0.85402799 128.1147 -0.8539536 128.13759 -31.959564 -67.187881
11367500000 -31.238031 -81.034653 -0.8540538 127.55269 -0.85273808 127.5909 -32.171967 -71.7854
11395000000 -31.533527 -81.873459 -0.85285652 127.02631 -0.85222965 127.02119 -30.850929 -76.55825
11422500000 -30.593245 -86.317398 -0.85562748 126.46724 -0.85377085 126.4662 -31.28639 -71.947182
11450000000 -29.742397 -85.361443 -0.85504878 125.89735 -0.85563534 125.90639 -32.147194 -74.938995
11477500000 -30.183315 -77.943192 -0.85407209 125.33836 -0.85545599 125.34727 -31.345308 -78.131561
11505000000 -30.695065 -79.683411 -0.85556662 124.7853 -0.8571645 124.78522 -31.049879 -73.01046
11532500000 -30.471054 -85.962334 -0.85477644 124.21997 -0.85485303 124.24418 -31.576759 -72.795723
11560000000 -30.311958 -82.822281 -0.85590959 123.6786 -0.85558522 123.68223 -31.03665 -78.719337
11587500000 -30.596884 -84.324783 -0.85710019 123.14104 -0.85701472 123.13113 -30.57058 -76.06337
11615000000 -30.088671 -86.224571 -0.85987538 122.57168 -0.8595283 122.56882 -31.482447 -75.043114
11642500000 -30.048643 -87.346924 -0.8564648 122.02439 -0.85751075 122.02099 -30.914413 -80.540543
11670000000 -30.290384 -85.152855 -0.85633141 121.47742 -0.85835379 121.4613 -30.151184 -79.07576
11697500000 -29.99563 -88.685188 -0.8611781 120.89645 -0.86196536 120.92013 -30.930813 -75.74688
11725000000 -29.743149 -89.941154 -0.86056834 120.33482 -0.85842288 120.35363 -30.872898 -81.361938
11752500000 -29.661896 -87.143372 -0.8596378 119.81417 -0.86120844 119.80958 -30.112148 -82.83152
11780000000 -29.670584 -87.113441 -0.86203927 119.231 -0.86114341 119.23718 -30.589979 -77.796402
11807500000 -30.065073 -86.81237 -0.86073184 118.68301 -0.86200327 118.68036 -30.820005 -79.798416
11835000000 -30.73188 -91.37532 -0.85885 118.12611 -0.86258072 118.13584 -29.738504 -83.137955
11862500000 -30.104263 -95.089539 -0.86152595 117.59196 -0.86053586 117.5816 -29.863291 -81.780815
11890000000 -29.524555 -94.975922 -0.86036384 117.00975 -0.86399543 117.0238 -30.449581 -83.178711
11917500000 -29.884546 -94.593521 -0.86339062 116.47523 -0.86392248 116.46702 -29.67963 -86.87014
11945000000 -29.915079 -97.840637 -0.86113173 115.92141 -0.86517143 115.93973 -29.583038 -85.487801
11972500000 -29.217749 -98.568787 -0.86198241 115.35539 -0.8625387 115.36216 -30.258764 -86.023544
12000000000 -29.287327 -97.875961 -0.86181319 114.82414 -0.86315382 114.82019 -29.636358 -90.291718
12027500000 -29.233711 -99.47364 -0.86462998 114.26597 -0.86267418 114.25327 -29.430338 -88.871796
12055000000 -28.899597 -98.80201 -0.86611176 113.68063 -0.86438614 113.71287 -30.14856 -88.758675
12082500000 -29.048529 -99.812004 -0.86319166 113.1376 -0.86402541 113.16015 -29.64753 -91.920006
12110000000 -29.044065 -101.89678 -0.86217088 112.6097 -0.86384541 112.59751 -29.163498 -91.674286
12137500000 -28.475643 -99.523148 -0.86661798 112.02451 -0.86789495 112.01009 -29.950222 -91.194878
12165000000 -28.89851 -99.637177 -0.8630954 111.46212 -0.86683065 111.47257 -29.859219 -93.888664
12192500000 -29.087442 -102.44375 -0.86394328 110.93748 -0.86384541 110.93442 -29.061298 -93.507957
12220000000 -28.606684 -103.27189 -0.86443132 110.35545 -0.86582291 110.35724 -29.580328 -93.346649
12247500000 -28.658453 -100.49673 -0.86577362 109.81733 -0.86714828 109.80927 -29.80024 -95.012909
12275000000 -28.891214 -104.359 -0.86310422 109.26808 -0.86495912 109.25184 -29.028715 -95.880234
12302500000 -28.62788 -104.9425 -0.86523432 108.69546 -0.86718339 108.70709 -29.333065 -95.125595
12330000000 -28.476429 -102.18104 -0.86474812 108.13416 -0.86882567 108.1376 -29.83062 -96.087585
12357500000 -28.829517 -105.86173 -0.86454815 107.58382 -0.86439121 107.57221 -28.945633 -97.081657
12385000000 -28.926016 -107.16245 -0.86638981 107.03799 -0.86584407 107.03758 -28.976442 -95.847954
12412500000 -28.543032 -105.89733 -0.86849779 106.46134 -0.86711609 106.46255 -29.464411 -97.727676
12440000000 -28.928185 -107.88376 -0.86479676 105.91105 -0.8643896 105.90388 -28.908236 -99.778625
12467500000 -28.657499 -111.75219 -0.86416155 105.35399 -0.86543906 105.36277 -28.828245 -99.344574
12495000000 -28.528214 -109.80273 -0.8661114 104.78959 -0.86674565 104.79089 -29.348555 -100.79425
12522500000 -28.673441 -110.78902 -0.86728424 104.24429 -0.86673778 104.22728 -28.865616 -102.35009
12550000000 -28.337013 -115.79408 -0.86512089 103.67936 -0.8636474 103.69355 -28.4494 -102.78325
12577500000 -28.256716 -112.41297 -0.86488742 103.12918 -0.86609119 103.1375 -29.050144 -102.56503
12605000000 -28.233908 -112.10854 -0.86577082 102.55988 -0.86721814 102.59502 -29.091377 -104.52995
12632500000 -28.390945 -115.55818 -0.86345506 102.00311 -0.86777163 102.0082 -28.669346 -104.57889
12660000000 -28.193382 -116.06035 -0.86497653 101.45448 -0.8670364 101.46072 -28.95352 -105.51759
12687500000 -28.097404 -113.96062 -0.86623436 100.90672 -0.86717957 100.92442 -29.04006 -106.98651
12715000000 -28.180288 -116.84322 -0.86390764 100.33257 -0.86561471 100.35177 -28.667423 -107.2423
12742500000 -28.114677 -118.18862 -0.86455894 99.785904 -0.86591011 99.800316 -28.792599 -107.67466
12770000000 -28.308748 -115.59523 -0.86541313 99.219078 -0.86558849 99.24044 -29.026194 -108.41531
12797500000 -28.255409 -120.58948 -0.86583239 98.663696 -0.86412144 98.661934 -28.627344 -108.79496
12825000000 -27.867754 -120.2732 -0.86380845 98.119606 -0.86461639 98.116608 -28.748549 -110.01531
12852500000 -28.397074 -117.601 -0.86366636 97.559784 -0.86589277 97.569427 -29.041262 -110.39943
12880000000 -28.304564 -122.07831 -0.86567092 96.981155 -0.86547792 96.975014 -28.618122 -111.0414
12907500000 -27.729412 -124.39577 -0.86424178 96.415337 -0.86333287 96.439209 -28.63533 -112.59884
12935000000 -28.079914 -120.58932 -0.86452669 95.873138 -0.86345792 95.871635 -28.860167 -112.43925
12962500000 -28.487095 -122.11961 -0.86272562 95.309593 -0.86376363 95.318901 -28.71693 -112.32603
12990000000 -27.992373 -127.22765 -0.86542702 94.75898 -0.86372447 94.742805 -28.643702 -114.14698
13017500000 -28.058687 -124.71925 -0.86169422 94.204918 -0.8634156 94.202019 -28.803007 -114.76535
13045000000 -28.392759 -123.8499 -0.86120558 93.645096 -0.86488646 93.630974 -28.636259 -114.81506
13072500000 -28.191217 -129.31458 -0.86220402 93.056229 -0.86309725 93.064774 -28.59049 -114.85316
13100000000 -27.739292 -128.51569 -0.86280268 92.491417 -0.86066526 92.501305 -28.651337 -118.03525
13127500000 -28.331404 -125.75758 -0.86156571 91.951126 -0.86433053 91.925674 -28.624313 -117.1354
13155000000 -28.044678 -130.39424 -0.86323178 91.368172 -0.86367548 91.378426 -28.619116 -116.974
13182500000 -27.750889 -131.03197 -0.86359149 90.796188 -0.86198652 90.803688 -28.652685 -119.22411
13210000000 -28.352306 -129.34363 -0.86513573 90.265762 -0.86388648 90.248604 -28.566534 -118.97777
13237500000 -27.851736 -132.37796 -0.86049134 89.695198 -0.86408794 89.671509 -28.575716 -118.7625
13265000000 -27.562489 -133.60268 -0.86128259 89.105667 -0.86537647 89.12323 -28.723749 -121.42221
13292500000 -28.077248 -130.761 -0.86403018 88.563644 -0.86741412 88.577477 -28.621271 -121.84486
13320000000 -28.112625 -133.96043 -0.86573571 87.997047 -0.86875832 87.993828 -28.61656 -120.24946
13347500000 -27.531075 -135.09828 -0.86413157 87.428368 -0.86693245 87.421265 -28.767818 -122.67621
13375000000 -27.850815 -133.34555 -0.86423796 86.872528 -0.86633229 86.88002 -28.630487 -123.89687
13402500000 -28.146835 -134.11942 -0.8674925 86.29966 -0.86833149 86.321556 -28.472832 -122.14895
13430000000 -27.517128 -136.58655 -0.86946696 85.731529 -0.86743689 85.741043 -28.751961 -123.91138
13457500000 -27.716587 -134.33549 -0.86606371 85.188339 -0.87096334 85.197769 -28.598263 -125.40803
13485000000 -28.275715 -135.60133 -0.8695125 84.614189 -0.87015295 84.621628 -28.562922 -124.03913
13512500000 -27.700344 -137.77005 -0.86816269 84.058357 -0.87240517 84.046722 -28.752613 -125.06186
13540000000 -27.556395 -136.81494 -0.87197483 83.480843 -0.87334257 83.509247 -28.592489 -127.62994
13567500000 -28.293037 -137.02145 -0.87165016 82.951889 -0.8736341 82.953789 -28.422272 -126.08409
13595000000 -27.721125 -140.12398 -0.8776294 82.373573 -0.87674046 82.38266 -28.566368 -126.14491
13622500000 -27.407705 -138.71698 -0.87731099 81.81987 -0.87776405 81.818398 -28.511543 -128.85538
13650000000 -28.016649 -139.49028 -0.87888771 81.258751 -0.87675881 81.286522 -28.337275 -128.25215
13677500000 -27.771141 -141.75392 -0.87874162 80.713257 -0.87902462 80.721527 -28.482609 -127.64571
13705000000 -27.243801 -141.33479 -0.87826312 80.133469 -0.88009697 80.137009 -28.463022 -130.57973
13732500000 -27.817394 -141.56264 -0.87923157 79.603722 -0.88137656 79.586319 -28.179781 -130.9248
13760000000 -27.785114 -144.71198 -0.88106108 79.040367 -0.88217896 79.060646 -28.308115 -130.12567
13787500000 -27.150829 -143.79782 -0.88085532 78.493027 -0.88233656 78.484596 -28.397144 -132.52901
13815000000 -27.624262 -143.86034 -0.88140863 77.95356 -0.88414484 77.933952 -28.11771 -134.11346
13842500000 -28.136545 -147.21109 -0.88472652 77.408676 -0.8828904 77.406349 -28.297543 -132.73015
13870000000 -27.032621 -147.21446 -0.88147235 76.824081 -0.8817578 76.83535 -28.440706 -134.82753
13897500000 -27.394461 -146.37352 -0.88102907 76.273415 -0.88405222 76.283127 -28.150528 -137.64424
13925000000 -28.053242 -148.61438 -0.87881929 75.734711 -0.88014734 75.748894 -28.216576 -136.05409
13952500000 -27.228607 -151.49115 -0.87909722 75.177551 -0.88101387 75.144791 -28.627329 -137.07645
13980000000 -27.378939 -147.94704 -0.87818265 74.594788 -0.87543148 74.597832 -28.263378 -139.9917
14007500000 -27.992647 -151.42215 -0.87555087 74.040016 -0.87633282 74.060165 -28.19537 -138.54713
14035000000 -27.493191 -154.25462 -0.87721372 73.474747 -0.8778832 73.477654 -28.584185 -138.84465
14062500000 -27.240211 -149.44759 -0.87861645 72.895905 -0.87709433 72.884476 -28.403694 -141.75378
14090000000 -28.000692 -153.43678 -0.87792468 72.334572 -0.87728661 72.329857 -28.214104 -141.43658
14117500000 -27.754473 -155.91463 -0.87977391 71.781921 -0.87824249 71.759033 -28.59639 -140.17828
14145000000 -27.370378 -152.86536 -0.88091838 71.196312 -0.87967885 71.188286 -28.507002 -142.42809
14172500000 -27.861418 -155.31624 -0.87864339 70.631668 -0.88096851 70.631516 -28.169424 -143.60292
14200000000 -27.824699 -157.57936 -0.88055158 70.084358 -0.88198674 70.089233 -28.535889 -142.10043
14227500000 -27.421482 -155.95879 -0.88390595 69.51799 -0.88371807 69.51889 -28.461435 -144.64232
14255000000 -27.924191 -156.50667 -0.88523018 68.948372 -0.88454974 68.953926 -28.130583 -145.18237
14282500000 -27.725828 -161.70203 -0.88542217 68.402214 -0.88805455 68.389763 -28.413315 -144.21263
14310000000 -27.609425 -158.23375 -0.88606912 67.830231 -0.88817459 67.851715 -28.570332 -145.78368
14337500000 -27.866051 -159.19676 -0.88666624 67.269745 -0.89027542 67.286224 -28.171759 -147.72816
14365000000 -27.81673 -165.31607 -0.88791418 66.7285 -0.88921803 66.73555 -28.301296 -147.41646
14392500000 -27.325813 -161.29558 -0.88738734 66.175293 -0.89058173 66.168999 -28.605448 -148.20793
14420000000 -27.794146 -159.80983 -0.89158064 65.611404 -0.88885367 65.602264 -28.229538 -150.53844
14447500000 -27.933752 -166.90697 -0.8918432 65.064728 -0.89138991 65.054688 -28.24966 -150.83969
14475000000 -27.194485 -165.17198 -0.89119446 64.499352 -0.89054042 64.488274 -28.597549 -150.99142
14502500000 -27.744133 -162.03127 -0.89291453 63.933254 -0.89262074 63.933804 -28.356075 -152.17239
14530000000 -27.835335 -166.93973 -0.89205867 63.387989 -0.89309096 63.378056 -28.207949 -153.27983
14557500000 -27.248827 -169.6967 -0.89113152 62.830631 -0.89516938 62.819122 -28.65867 -153.26053
14585000000 -27.541979 -163.76189 -0.89377463 62.244949 -0.89222592 62.266033 -28.366043 -154.41785
14612500000 -27.936176 -168.56439 -0.88956529 61.703568 -0.89456213 61.706486 -28.265245 -155.42743
14640000000 -27.480963 -171.74739 -0.89272183 61.151516 -0.89244461 61.166107 -28.615868 -155.70453
14667500000 -27.475466 -167.28944 -0.89263666 60.590767 -0.89353931 60.601974 -28.480749 -156.9834
14695000000 -27.990496 -169.54805 -0.89229935 60.023525 -0.8934592 60.025364 -28.224787 -157.80428
14722500000 -27.556784 -173.77245 -0.89356732 59.459702 -0.89191341 59.489738 -28.744095 -158.48146
14750000000 -27.5303 -170.95471 -0.89350468 58.927101 -0.88974005 58.909561 -28.726404 -159.16931
14777500000 -28.406721 -171.50977 -0.89233178 58.344288 -0.89373684 58.352695 -28.407259 -160.02776
14805000000 -27.597914 -176.52785 -0.89007491 57.789207 -0.89365476 57.766071 -28.770397 -160.47929
14832500000 -27.749447 -173.92117 -0.89041108 57.207996 -0.89059097 57.209503 -28.889294 -161.86444
14860000000 -28.399179 -171.5401 -0.89241344 56.649887 -0.89437479 56.637482 -28.491846 -161.07364
14887500000 -27.957769 -178.11226 -0.89321405 56.056976 -0.89256668 56.058929 -28.796818 -162.09244
14915000000 -27.927311 -176.29182 -0.89367002 55.494938 -0.89373237 55.523903 -29.002821 -163.21011
14942500000 -28.393517 -175.32715 -0.89664948 54.926964 -0.89829564 54.915325 -28.636705 -163.04205
14970000000 -28.292173 -179.24811 -0.89761251 54.362385 -0.89712238 54.368809 -28.777191 -163.33147
14997500000 -27.737694 -177.37756 -0.90070134 53.789635 -0.89931887 53.794582 -29.074333 -164.14012
15025000000 -28.497768 -179.00262 -0.90424728 53.245773 -0.90460372 53.24271 -28.706049 -164.47183
15052500000 -28.248301 178.96391 -0.90366048 52.678284 -0.90743721 52.701511 -28.676804 -165.15935
15080000000 -27.71661 178.54504 -0.9064002 52.124569 -0.9081831 52.146088 -29.036007 -167.25903
15107500000 -28.296833 178.31859 -0.9058823 51.565731 -0.90783596 51.591568 -28.817884 -166.84306
15135000000 -28.257065 177.8315 -0.90888065 51.051826 -0.9094047 51.030746 -28.720371 -167.2052
15162500000 -27.656546 175.53879 -0.90927958 50.46479 -0.91017455 50.44165 -28.96287 -169.60271
15190000000 -28.29546 177.69717 -0.90922689 49.915657 -0.90770835 49.905663 -28.853798 -169.59525
15217500000 -28.475344 172.86745 -0.91083157 49.344303 -0.91564709 49.337143 -28.580414 -169.05455
15245000000 -27.813513 174.81018 -0.91181624 48.777779 -0.91574585 48.765751 -29.206211 -172.24464
15272500000 -27.982971 175.578 -0.91389561 48.212784 -0.91307908 48.238033 -28.976154 -172.37514
15300000000 -28.711386 172.0724 -0.91470909 47.665344 -0.91614604 47.672653 -28.708818 -170.92679
15327500000 -27.878038 172.78317 -0.91830873 47.111725 -0.91829723 47.091373 -29.069931 -173.42618
15355000000 -28.000408 173.48584 -0.91825724 46.535358 -0.91693056 46.552979 -29.104856 -174.50935
15382500000 -28.911053 168.56685 -0.92018032 46.005421 -0.92018068 45.99968 -28.599003 -172.81638
15410000000 -27.840904 170.18715 -0.92221826 45.431282 -0.91865474 45.446102 -29.015869 -175.49799
15437500000 -28.005533 171.06667 -0.92218786 44.88184 -0.92224675 44.882549 -29.08864 -178.0137
15465000000 -28.473551 168.67984 -0.92442143 44.337673 -0.92348284 44.35355 -28.717745 -176.37259
15492500000 -28.233904 166.34792 -0.92376941 43.800175 -0.92459887 43.792999 -28.961432 -176.57677
15520000000 -27.798473 170.46066 -0.92800599 43.209679 -0.92803806 43.209141 -29.271637 179.66243
15547500000 -28.675613 165.91588 -0.92453736 42.670517 -0.92432505 42.669758 -28.830025 -179.30281
15575000000 -28.455259 161.16708 -0.92676991 42.114799 -0.92763102 42.136753 -28.957386 -178.72876
15602500000 -27.564384 167.74031 -0.92855799 41.525131 -0.93024004 41.53611 -29.383465 176.85811
15630000000 -28.528278 163.5215 -0.92533493 41.003162 -0.92772204 41.002213 -29.057959 177.09868
15657500000 -28.483679 161.04678 -0.93057323 40.456379 -0.92945504 40.452881 -28.840948 178.81293
15685000000 -27.861259 162.93607 -0.92624092 39.869854 -0.92965573 39.878437 -29.531015 175.05177
15712500000 -28.374941 163.95076 -0.92777014 39.32412 -0.93015057 39.326061 -29.180481 174.36671
15740000000 -28.422184 159.47298 -0.92904782 38.764122 -0.92862982 38.768959 -29.040909 176.55415
15767500000 -28.091642 158.81618 -0.93428069 38.209721 -0.93540305 38.206741 -29.371035 172.94551
15795000000 -28.244003 162.75613 -0.93301362 37.650196 -0.93163526 37.663246 -29.504858 170.69797
15822500000 -28.482475 154.6851 -0.93223006 37.099442 -0.93547302 37.097656 -29.164762 173.18558
15850000000 -28.344055 158.48225 -0.93288654 36.57222 -0.93388879 36.542351 -29.502993 171.72217
15877500000 -28.023352 159.29063 -0.93486303 36.005199 -0.93680507 35.97226 -29.585022 168.81738
15905000000 -28.696575 153.82883 -0.93321002 35.430698 -0.93535358 35.417763 -29.332447 170.32538
15932500000 -28.207642 154.54935 -0.93720686 34.880341 -0.93459141 34.882954 -29.481588 169.93867
15960000000 -28.392044 158.38968 -0.93769544 34.305454 -0.94051045 34.297565 -29.550322 165.91681
15987500000 -28.879904 152.50188 -0.93413562 33.775158 -0.94016749 33.766148 -29.332214 167.35083
16015000000 -28.176516 150.23805 -0.94042689 33.21125 -0.94298989 33.225422 -29.462032 167.77985
16042500000 -28.603203 156.36055 -0.94464403 32.633148 -0.94470614 32.632652 -29.811825 163.7233
16070000000 -28.860254 152.03325 -0.93870944 32.110279 -0.94420618 32.094879 -29.631687 164.16052
16097500000 -28.313215 146.85695 -0.94367373 31.552755 -0.94432521 31.568649 -29.761492 165.20752
16125000000 -28.589203 154.79291 -0.94387251 30.97888 -0.94496357 30.981424 -29.727604 161.70973
16152500000 -28.981974 149.38086 -0.94211221 30.417326 -0.94456971 30.439831 -29.682766 161.63332
16180000000 -28.550396 143.8756 -0.94183022 29.898222 -0.94777042 29.898314 -29.79623 162.92305
16207500000 -28.379761 149.04034 -0.94726425 29.311979 -0.94758236 29.336061 -29.897501 160.1037
16235000000 -29.240841 146.72961 -0.9443258 28.745832 -0.94657725 28.752945 -29.711243 157.82587
16262500000 -28.773643 142.15546 -0.9455061 28.221024 -0.94648647 28.215965 -29.799055 159.6769
16290000000 -28.319433 145.0249 -0.94911975 27.653526 -0.9455061 27.656145 -29.922302 157.56958
16317500000 -29.763266 147.58833 -0.94788986 27.077551 -0.95107204 27.082207 -29.919493 155.12248
16345000000 -28.597935 136.83147 -0.94931298 26.54854 -0.9472459 26.535988 -29.859022 156.64516
16372500000 -28.367874 141.84146 -0.95098794 25.986979 -0.95208782 25.991713 -30.163591 155.57764
16400000000 -29.310469 143.26814 -0.95022076 25.428963 -0.95087743 25.435642 -29.960489 152.82059
16427500000 -29.204895 136.01642 -0.95212263 24.869768 -0.95194799 24.884262 -30.077393 152.40443
16455000000 -28.369987 137.98421 -0.95426333 24.343328 -0.95325154 24.309664 -30.293924 153.35698
16482500000 -29.340799 140.11374 -0.9517343 23.735228 -0.95305133 23.76576 -30.070248 149.99597
16510000000 -29.636805 134.29738 -0.95061547 23.206852 -0.95386028 23.215191 -30.256865 149.32057
16537500000 -28.275928 133.95952 -0.95234472 22.661068 -0.95597887 22.669043 -30.329599 148.97343
16565000000 -29.234701 136.34294 -0.95591789 22.105507 -0.95609087 22.094816 -30.171089 147.95187
16592500000 -29.956264 134.06963 -0.95376933 21.550255 -0.95544791 21.544134 -30.325508 145.9346
16620000000 -28.454102 129.48097 -0.9573037 20.988295 -0.95628279 21.017441 -30.673378 146.03915
16647500000 -29.34646 135.24126 -0.95822251 20.443035 -0.95715624 20.412561 -30.374804 145.89165
16675000000 -29.620651 128.61539 -0.95801306 19.873413 -0.95784551 19.865517 -30.51729 143.12958
16702500000 -28.839798 127.50945 -0.95813793 19.305799 -0.95689613 19.34643 -30.80719 142.68147
16730000000 -28.856117 133.40253 -0.95911342 18.778973 -0.96135992 18.766121 -30.503494 142.29817
16757500000 -30.375137 125.14792 -0.96059936 18.190172 -0.96000224 18.182604 -30.569183 140.95013
16785000000 -29.237698 125.95548 -0.95732337 17.661829 -0.96044302 17.658716 -31.00535 139.11021
16812500000 -28.871109 126.09543 -0.96143329 17.124247 -0.96036488 17.093599 -30.745565 139.22429
16840000000 -30.292637 125.32288 -0.9619475 16.544523 -0.96555936 16.550285 -30.54484 140.00854
16867500000 -29.440937 121.66499 -0.96288478 15.992038 -0.95992154 15.993621 -31.093863 135.31902
16895000000 -28.973343 124.48921 -0.96427047 15.45388 -0.9656893 15.439491 -31.057777 136.99614
16922500000 -30.088869 125.54455 -0.96725351 14.870321 -0.96462345 14.884784 -30.822834 136.64467
16950000000 -30.095549 114.02087 -0.96618825 14.326158 -0.96624869 14.317845 -31.107771 133.67419
16977500000 -28.726192 123.62975 -0.96710408 13.788853 -0.96737444 13.7772 -31.338758 133.17685
17005000000 -30.137468 122.30235 -0.96183801 13.225972 -0.96555322 13.236379 -30.992872 133.1526
17032500000 -30.444826 111.62051 -0.96641815 12.67347 -0.96549726 12.694844 -31.259195 131.84459
17060000000 -28.817257 120.33227 -0.96990716 12.119555 -0.96409404 12.134653 -31.472923 128.5293
17087500000 -30.209721 116.84605 -0.96691906 11.573163 -0.96743202 11.576326 -31.023773 130.92021
17115000000 -30.485785 109.28392 -0.96477312 11.011067 -0.96730751 10.99945 -31.200897 128.77328
17142500000 -29.160923 114.11512 -0.96538442 10.457648 -0.96342307 10.443866 -31.490259 124.13046
17170000000 -30.222414 117.24796 -0.96566606 9.8907776 -0.96677095 9.8997812 -31.169554 126.88231
17197500000 -30.4175 105.15623 -0.96746534 9.3455906 -0.96818316 9.3605547 -31.342743 126.24601
17225000000 -29.604973 111.1399 -0.97108078 8.7931118 -0.96625191 8.8011646 -31.673414 120.02156
17252500000 -30.047853 116.10548 -0.96451062 8.2562294 -0.96988285 8.2196493 -31.531933 122.04715
17280000000 -30.766838 104.1422 -0.96670628 7.6686311 -0.96684694 7.6660771 -31.394392 123.90202
17307500000 -29.977318 104.96426 -0.96686375 7.1330085 -0.96677613 7.1096306 -31.82408 117.89927
17335000000 -29.582378 113.73613 -0.96714711 6.5757499 -0.96970648 6.5732722 -31.813599 117.7745
17362500000 -31.226341 103.52633 -0.96700704 6.0207295 -0.96760863 6.0256453 -31.509144 120.47546
17390000000 -29.829443 102.19496 -0.96667457 5.4634352 -0.96782762 5.4719167 -31.825872 114.1548
17417500000 -30.154709 112.21738 -0.9687435 4.9182167 -0.96801722 4.8925114 -32.19923 112.3569
17445000000 -31.295959 101.75905 -0.97004277 4.3928146 -0.96969485 4.3232641 -31.608828 118.02435
17472500000 -30.042118 97.771866 -0.96979904 3.8157327 -0.96914375 3.8099129 -32.094017 112.42482
17500000000 -30.372265 108.31988 -0.96627486 3.2390218 -0.96792501 3.2541187 -32.285667 108.73973
17527500000 -31.233551 102.63009 -0.97324866 2.6896641 -0.96672958 2.6876597 -31.988262 112.52345
17555000000 -30.012884 91.676468 -0.96915668 2.1605668 -0.97362697 2.1469769 -32.004539 111.42916
17582500000 -30.47751 105.40536 -0.96864873 1.6053452 -0.96975338 1.549246 -32.57962 105.06694
17610000000 -31.485739 102.36427 -0.97063053 1.0367848 -0.9710685 1.0158651 -32.146225 107.15926
17637500000 -30.961346 90.827339 -0.96971262 0.47971508 -0.97048324 0.48680931 -32.330223 107.8144
17665000000 -30.218725 98.004929 -0.97450614 -0.07085748 -0.97162789 -0.091778845 -32.754517 101.71486
17692500000 -31.532965 103.31087 -0.97073573 -0.628317 -0.96883374 -0.63361478 -32.627804 103.19994
17720000000 -30.99695 88.236458 -0.97318161 -1.1770989 -0.96941429 -1.19573 -32.174244 105.96317
17747500000 -30.328856 94.359482 -0.97156513 -1.7247137 -0.97333384 -1.7258235 -32.77895 98.458565
17775000000 -31.853832 101.89679 -0.96842837 -2.3038871 -0.97110116 -2.2952802 -32.928539 97.393822
17802500000 -31.479624 85.115326 -0.96933371 -2.8603156 -0.97288299 -2.8481338 -32.545895 102.81295
17830000000 -30.543009 89.341278 -0.96897358 -3.3936477 -0.97010779 -3.4032493 -32.959766 96.583061
17857500000 -32.195515 96.064445 -0.97434938 -3.9702728 -0.97105002 -3.9605916 -33.21727 94.906624
17885000000 -31.702856 85.210419 -0.96935409 -4.5221381 -0.96962398 -4.5053792 -32.52916 98.227646
17912500000 -30.693127 83.812614 -0.97062665 -5.040565 -0.97362375 -5.0465379 -32.92104 95.594963
17940000000 -31.869081 92.181465 -0.97193259 -5.6086154 -0.97390616 -5.6354775 -33.294319 89.902542
17967500000 -32.727413 81.656441 -0.97216541 -6.2027574 -0.97469991 -6.1979089 -32.720284 94.894547
17995000000 -30.605078 78.680069 -0.96921557 -6.7129173 -0.97318745 -6.7210431 -32.929363 92.87558
18022500000 -31.736013 90.001945 -0.97079045 -7.2831478 -0.9733575 -7.2840939 -33.494774 85.598434
18050000000 -32.678993 78.364182 -0.9718523 -7.8237615 -0.96893376 -7.850225 -32.983402 89.553879
18077500000 -30.942635 75.438828 -0.97486609 -8.426158 -0.9694764 -8.3870773 -32.952103 90.154205
18105000000 -31.387383 84.393845 -0.97426414 -8.949152 -0.97001392 -8.9195862 -33.599842 81.356323
18132500000 -33.396339 76.132591 -0.97098953 -9.4824696 -0.96950489 -9.5133429 -33.312065 85.195206
18160000000 -31.381407 74.767578 -0.967031 -10.069559 -0.97285062 -10.064879 -32.995155 87.072456
18187500000 -31.846174 75.455528 -0.96781051 -10.590577 -0.9725666 -10.57351 -33.368744 77.598137
18215000000 -33.019901 75.175568 -0.96902823 -11.152526 -0.97135013 -11.140596 -33.251343 77.397751
18242500000 -31.560081 69.721489 -0.97134852 -11.755078 -0.96820647 -11.747826 -32.855026 83.143074
18270000000 -31.719433 73.172905 -0.96986604 -12.259588 -0.96920037 -12.268201 -33.475361 75.032379
18297500000 -32.727039 71.823036 -0.97468597 -12.809 -0.97467464 -12.856766 -33.717857 72.273445
18325000000 -32.258209 63.070488 -0.97428101 -13.415254 -0.96841449 -13.39986 -33.162102 78.580147
18352500000 -31.347763 71.283531 -0.97355217 -13.932898 -0.97189242 -13.935313 -33.315151 74.193626
18380000000 -32.952858 67.241341 -0.97281337 -14.517062 -0.9701463 -14.52603 -33.851772 65.973335
18407500000 -32.878689 58.861286 -0.97346145 -15.057795 -0.97317094 -15.049878 -33.31374 72.822479
18435000000 -31.175774 67.970078 -0.97235227 -15.613314 -0.9751752 -15.614318 -33.174541 70.075478
18462500000 -33.425674 62.569183 -0.96879625 -16.163383 -0.97166711 -16.174416 -33.846416 61.69305
18490000000 -32.552753 57.064785 -0.97741902 -16.712223 -0.97219908 -16.715933 -33.561935 65.748283
18517500000 -31.452286 61.435982 -0.97390908 -17.283316 -0.97616428 -17.283239 -33.564949 68.298172
18545000000 -33.233932 62.911396 -0.97550803 -17.832399 -0.97201937 -17.824883 -33.839478 60.059727
18572500000 -32.58625 50.978203 -0.97358775 -18.386719 -0.9724834 -18.391018 -34.093727 58.610809
18600000000 -32.199142 55.271519 -0.97385174 -18.939837 -0.97464126 -18.95735 -33.632904 64.786873
18627500000 -32.535816 59.372505 -0.96976054 -19.500492 -0.97232568 -19.471506 -33.5434 56.33683
18655000000 -32.865204 44.565788 -0.97156477 -20.082033 -0.97488523 -20.06035 -33.710064 50.157356
18682500000 -32.849445 57.280502 -0.97316378 -20.654463 -0.97087586 -20.635664 -33.566471 56.913269
18710000000 -32.285343 51.617287 -0.97414201 -21.135019 -0.97287816 -21.139967 -33.922813 55.06551
18737500000 -33.840809 40.533772 -0.97438401 -21.735626 -0.97112256 -21.736738 -33.979679 46.295151
18765000000 -32.310009 45.681419 -0.97189665 -22.292227 -0.96956509 -22.295532 -33.728252 52.054089
18792500000 -33.218472 47.042175 -0.97099823 -22.837606 -0.97089404 -22.842703 -33.876312 53.645599
18820000000 -33.260147 43.67691 -0.97098792 -23.390135 -0.97095197 -23.393843 -33.952358 43.138336
18847500000 -32.544811 38.300869 -0.97041559 -23.971912 -0.97708446 -23.982973 -34.195232 44.693096
18875000000 -34.075237 47.867817 -0.96963108 -24.543657 -0.97056645 -24.519674 -34.072567 48.681496
18902500000 -32.632656 38.154823 -0.96787423 -25.067696 -0.97180146 -25.059212 -34.058468 39.600216
18930000000 -33.3881 33.408379 -0.97331601 -25.604036 -0.97003657 -25.660271 -33.817646 38.214043
18957500000 -33.053978 40.280445 -0.97064573 -26.167149 -0.9704392 -26.183138 -33.850155 45.651695
18985000000 -33.146996 37.326794 -0.97260743 -26.696404 -0.97133684 -26.733807 -33.838905 38.085674
19012500000 -33.330048 27.180546 -0.96840733 -27.292616 -0.97217578 -27.299198 -33.598324 33.247929
19040000000 -32.82375 34.194286 -0.97150457 -27.865158 -0.9718225 -27.883892 -34.214336 39.589325
19067500000 -34.386375 32.35321 -0.96849597 -28.424498 -0.96640259 -28.395834 -34.080902 35.380997
19095000000 -32.396267 25.901241 -0.96712315 -28.963196 -0.96916217 -28.960163 -33.725521 26.8009
19122500000 -33.276344 27.306238 -0.96903759 -29.513992 -0.96863186 -29.537878 -33.895412 33.243587
19150000000 -33.809219 30.556883 -0.96956736 -30.093431 -0.96622252 -30.057495 -34.463196 32.101929
19177500000 -32.730049 21.117414 -0.968683 -30.641001 -0.96613199 -30.620125 -33.629665 23.444416
19205000000 -33.482529 22.830654 -0.96769822 -31.191879 -0.96417773 -31.201067 -33.953976 24.021366
19232500000 -33.891777 26.292103 -0.96452326 -31.770622 -0.96869141 -31.739271 -34.325756 28.207615
19260000000 -33.164536 20.039976 -0.96240139 -32.321735 -0.96580052 -32.298538 -33.732185 19.927923
19287500000 -33.211445 17.316744 -0.96555126 -32.880096 -0.96878457 -32.845974 -33.593807 16.350006
19315000000 -33.639072 20.460417 -0.96650708 -33.397568 -0.96675444 -33.405243 -34.259872 23.528107
19342500000 -33.829414 20.040024 -0.96496964 -33.989937 -0.969446 -33.974007 -34.030807 16.331718
19370000000 -32.956856 11.719019 -0.9671911 -34.538166 -0.96550435 -34.515869 -33.552677 11.311589
19397500000 -33.679871 18.872725 -0.96853286 -35.101913 -0.96584743 -35.091953 -33.959221 15.715123
19425000000 -35.025047 15.138581 -0.96790719 -35.677818 -0.96783507 -35.636681 -34.423969 13.618253
19452500000 -32.898212 6.0494208 -0.96085835 -36.220383 -0.96678746 -36.1982 -33.397659 6.8427429
19480000000 -33.495758 11.508862 -0.96786839 -36.763348 -0.9641816 -36.796806 -33.988098 10.963477
19507500000 -35.351559 11.039235 -0.96446246 -37.3265 -0.96312034 -37.329376 -34.49839 10.59845
19535000000 -32.94957 4.5240445 -0.96097463 -37.899448 -0.95972556 -37.900982 -33.488152 2.7532895
19562500000 -33.346085 6.5264268 -0.96088356 -38.431053 -0.96236813 -38.46907 -33.98568 2.7971587
19590000000 -34.998158 7.5343647 -0.96291578 -39.001629 -0.9577958 -39.034813 -34.490532 5.571485
19617500000 -34.218353 2.7694938 -0.95782942 -39.553562 -0.96155214 -39.565533 -33.742096 0.2189405
19645000000 -32.861179 -1.9865552 -0.96328187 -40.16132 -0.96126497 -40.148209 -33.602665 -2.6600733
19672500000 -34.383858 4.1188512 -0.96279883 -40.688366 -0.96234423 -40.717377 -34.406704 1.3315639
19700000000 -34.82225 -5.5055614 -0.96134734 -41.273472 -0.96104634 -41.262409 -34.038258 -2.4983802
19727500000 -32.420639 -2.4349141 -0.96401292 -41.847878 -0.95803916 -41.837196 -33.353973 -10.696378
19755000000 -34.631203 -3.0864918 -0.96143842 -42.353046 -0.96390331 -42.375916 -33.956184 -4.9603882
19782500000 -34.73811 -10.743333 -0.96273386 -42.93718 -0.96110189 -42.954884 -34.431812 -4.9552603
19810000000 -32.659588 -8.3096018 -0.9604618 -43.486607 -0.95636505 -43.531673 -33.364704 -11.919377
19837500000 -33.627037 -4.1471519 -0.95924515 -44.060452 -0.96398962 -44.08099 -33.649845 -11.290265
19865000000 -35.637024 -12.16907 -0.96184802 -44.628357 -0.9613325 -44.639191 -34.440342 -8.6938782
19892500000 -33.026299 -14.826753 -0.95827514 -45.186466 -0.95782614 -45.204273 -33.529793 -16.261845
19920000000 -33.536854 -9.6601286 -0.96072465 -45.736404 -0.96121168 -45.748234 -33.386284 -16.330763
19947500000 -35.606441 -20.613291 -0.96071756 -46.302708 -0.95946276 -46.324005 -34.477497 -14.249561
19975000000 -33.412029 -20.646883 -0.95868731 -46.864124 -0.95732015 -46.855762 -33.69239 -18.613489
20002500000 -33.411781 -15.349918 -0.95976269 -47.405922 -0.95767188 -47.427235 -33.040428 -23.45825
20030000000 -34.963093 -20.98987 -0.95928615 -47.977104 -0.96190232 -47.983799 -34.023003 -18.397161
20057500000 -34.278152 -32.568413 -0.96173561 -48.556374 -0.96308768 -48.536968 -33.901535 -22.626253
20085000000 -32.463932 -16.433426 -0.9593733 -49.109974 -0.96119523 -49.106457 -32.809258 -29.225178
20112500000 -34.688892 -26.357729 -0.95387447 -49.656532 -0.96471816 -49.671017 -33.710094 -24.757479
20140000000 -33.798645 -37.928387 -0.96061194 -50.21574 -0.96122366 -50.218739 -34.076088 -25.076159
20167500000 -32.500648 -20.327868 -0.95743501 -50.795383 -0.95901853 -50.779987 -32.884365 -31.2477
20195000000 -34.792057 -31.416388 -0.9614898 -51.353909 -0.95635861 -51.337849 -33.462822 -31.05423
20222500000 -33.59034 -42.463207 -0.9598192 -51.907314 -0.95948988 -51.910694 -33.907833 -29.431952
20250000000 -32.978001 -31.438974 -0.95645833 -52.458344 -0.95624083 -52.418831 -33.122795 -35.484379
20277500000 -33.588661 -29.341871 -0.95913863 -53.032856 -0.95868665 -53.020103 -32.904488 -35.743572
20305000000 -33.544025 -46.530289 -0.95859593 -53.597031 -0.96006459 -53.585938 -33.841629 -32.226273
20332500000 -33.082092 -35.953934 -0.95490479 -54.116337 -0.95645088 -54.147518 -32.807655 -39.060638
20360000000 -33.358162 -29.854347 -0.95963001 -54.708035 -0.95926744 -54.693039 -32.32534 -39.65324
20387500000 -33.743176 -50.982224 -0.95747441 -55.292675 -0.96011949 -55.302223 -33.443356 -35.782745
20415000000 -32.677433 -42.541367 -0.95661801 -55.811577 -0.95898527 -55.814758 -33.147156 -39.554371
20442500000 -33.594509 -31.931057 -0.95517927 -56.393425 -0.96107703 -56.405022 -32.062698 -41.807671
20470000000 -33.720726 -53.146561 -0.95582241 -56.978138 -0.95756412 -56.944221 -33.096191 -41.791988
20497500000 -32.199509 -48.595554 -0.96092874 -57.566174 -0.95973462 -57.537827 -33.272865 -41.899815
20525000000 -34.812077 -38.344631 -0.95427495 -58.101196 -0.95422304 -58.120163 -31.97761 -48.22924
20552500000 -33.086605 -52.108963 -0.95872283 -58.640434 -0.95429915 -58.639969 -32.636837 -45.759502
20580000000 -32.945129 -55.705082 -0.95917702 -59.252254 -0.95579016 -59.212666 -32.96265 -44.589375
20607500000 -33.631393 -46.877014 -0.95661575 -59.800594 -0.9535346 -59.787159 -31.691368 -52.694698
20635000000 -33.426407 -53.689487 -0.95690066 -60.323208 -0.95885324 -60.33205 -32.108517 -49.905071
20662500000 -32.481468 -63.349747 -0.96278721 -60.948402 -0.96355236 -60.95261 -33.0228 -47.487644
20690000000 -33.213192 -54.310272 -0.95554405 -61.488777 -0.9619714 -61.476479 -31.737171 -52.764679
20717500000 -33.845928 -56.758183 -0.96293128 -62.035557 -0.9641661 -62.032455 -31.494028 -54.19141
20745000000 -31.776598 -63.619572 -0.96495801 -62.650547 -0.96606565 -62.606983 -32.475319 -52.698292
20772500000 -32.485538 -64.0896 -0.9657889 -63.17268 -0.96354264 -63.166088 -31.619141 -55.780712
20800000000 -34.032719 -57.681446 -0.96736085 -63.734291 -0.97029585 -63.720951 -31.070709 -59.823441
20827500000 -30.880356 -71.348534 -0.96864194 -64.282295 -0.9671846 -64.298019 -32.027054 -56.456161
20855000000 -32.210281 -62.700756 -0.97182572 -64.843048 -0.97433835 -64.867821 -31.563854 -58.985718
20882500000 -32.922768 -69.052917 -0.97154957 -65.398933 -0.97287297 -65.368919 -30.57618 -64.412491
20910000000 -31.360117 -76.172394 -0.97536737 -65.904602 -0.97686696 -65.924232 -31.400265 -64.249184
20937500000 -30.788931 -70.392387 -0.97617072 -66.455269 -0.97937375 -66.46476 -31.269672 -62.431961
20965000000 -33.021339 -78.901459 -0.97525722 -67.00573 -0.97293127 -66.999443 -30.368513 -68.70652
20992500000 -31.443756 -79.561523 -0.97244066 -67.53701 -0.97696424 -67.5467 -30.809389 -70.94236
21020000000 -30.576912 -77.954277 -0.97323281 -68.053406 -0.97506309 -68.113449 -31.550756 -68.574364
21047500000 -33.175896 -87.801315 -0.96320915 -68.669533 -0.96897709 -68.652695 -30.332867 -73.635422
21075000000 -31.523987 -84.854652 -0.96755368 -69.15976 -0.96674573 -69.16201 -30.660791 -76.494659
21102500000 -30.553768 -83.469536 -0.96542388 -69.770073 -0.96990424 -69.770958 -31.617348 -73.683006
21130000000 -32.722855 -86.360527 -0.96126598 -70.297493 -0.96291739 -70.317467 -30.84411 -74.943222
21157500000 -31.704975 -95.55793 -0.96140158 -70.893715 -0.96136481 -70.901604 -30.534615 -82.112053
21185000000 -30.715723 -85.146812 -0.96120232 -71.437645 -0.96377116 -71.447861 -31.51244 -77.873795
21212500000 -31.807638 -89.157936 -0.95506924 -72.017075 -0.96028417 -72.001915 -31.011555 -78.41922
21240000000 -32.268127 -100.76859 -0.96052152 -72.607384 -0.95969456 -72.60611 -30.443987 -83.049942
21267500000 -30.635864 -87.305069 -0.95489866 -73.137222 -0.95609796 -73.156036 -31.251547 -82.427582
21295000000 -31.358822 -94.344666 -0.95586956 -73.706474 -0.95697552 -73.713219 -31.208916 -80.101463
21322500000 -32.425327 -99.158966 -0.9551599 -74.311089 -0.95991415 -74.299988 -30.312662 -84.667633
21350000000 -30.589396 -97.72908 -0.95685035 -74.848518 -0.9569329 -74.849831 -30.766945 -86.968346
21377500000 -30.668341 -90.395409 -0.96056187 -75.416084 -0.96067685 -75.433006 -31.168203 -82.233887
21405000000 -32.161762 -104.79594 -0.95665449 -76.0196 -0.95792848 -75.997749 -30.151413 -85.779945
21432500000 -30.890842 -104.41066 -0.95659411 -76.559227 -0.95934457 -76.560196 -30.168077 -90.638596
21460000000 -30.351982 -91.348648 -0.96170491 -77.127785 -0.95953053 -77.131592 -30.900208 -88.351456
21487500000 -31.721476 -114.51771 -0.95901269 -77.710434 -0.96080637 -77.720688 -30.239731 -88.174393
21515000000 -30.574425 -104.12178 -0.95906013 -78.236107 -0.95889646 -78.263779 -30.033445 -92.843391
21542500000 -30.285578 -98.733147 -0.96340984 -78.82093 -0.96383095 -78.835083 -30.649673 -91.779999
21570000000 -31.329041 -109.32433 -0.96013629 -79.35569 -0.95982534 -79.362602 -30.288473 -89.556419
21597500000 -30.828136 -112.19708 -0.96821034 -79.948326 -0.96208966 -79.967354 -29.700636 -96.634552
21625000000 -29.792206 -106.74391 -0.96204865 -80.532768 -0.96368742 -80.530922 -30.473564 -98.147736
21652500000 -30.815145 -104.16233 -0.96227735 -81.059608 -0.96767271 -81.070923 -30.193632 -93.450302
21680000000 -29.669104 -121.34596 -0.96846366 -81.674484 -0.96937901 -81.682571 -29.448259 -97.608139
21707500000 -30.154963 -105.86613 -0.9619149 -82.195061 -0.96529067 -82.221771 -29.850473 -100.73351
21735000000 -29.805025 -106.75887 -0.96676964 -82.75914 -0.96919066 -82.769989 -30.387709 -96.955818
21762500000 -30.418747 -126.50114 -0.97245681 -83.349937 -0.96980906 -83.321609 -29.527077 -98.634026
21790000000 -29.103148 -111.07662 -0.96872604 -83.900726 -0.96674639 -83.881264 -29.442837 -104.03068
21817500000 -30.074379 -111.32056 -0.97408503 -84.436516 -0.9714272 -84.425407 -30.133062 -100.90224
21845000000 -29.954626 -124.02719 -0.97374779 -85.008865 -0.97237974 -84.997589 -29.474356 -101.07211
21872500000 -29.153864 -119.46628 -0.97724432 -85.537979 -0.97870594 -85.560532 -29.014406 -106.18874
21900000000 -29.759701 -115.40834 -0.97284347 -86.105255 -0.97456449 -86.122581 -29.74085 -106.97897
21927500000 -29.507275 -120.50221 -0.96855879 -86.642212 -0.96950328 -86.639732 -29.454266 -103.36412
21955000000 -29.016748 -130.60942 -0.97710359 -87.213127 -0.98087019 -87.213127 -28.70373 -109.14513
21982500000 -29.667568 -115.84972 -0.97445691 -87.778061 -0.97045541 -87.785561 -29.238777 -111.77223
22010000000 -29.019917 -126.57535 -0.97272432 -88.301758 -0.97182703 -88.311821 -29.34194 -108.54497
22037500000 -29.39105 -133.24944 -0.97536737 -88.868721 -0.97446012 -88.864777 -28.788963 -112.278
22065000000 -28.925524 -121.28894 -0.96906477 -89.463364 -0.96796542 -89.454704 -28.788313 -115.952
22092500000 -29.623951 -130.14299 -0.97115362 -89.992302 -0.96915865 -89.999451 -29.283733 -114.23779
22120000000 -28.500986 -134.72041 -0.97311848 -90.543015 -0.97429299 -90.584412 -28.608303 -114.02892
22147500000 -28.935802 -127.44491 -0.96851218 -91.122093 -0.96692878 -91.144012 -28.425871 -119.45459
22175000000 -29.89784 -132.50859 -0.96675962 -91.714043 -0.96903372 -91.679527 -29.066513 -118.3645
22202500000 -27.955753 -135.95073 -0.97167003 -92.270737 -0.96810746 -92.279091 -28.934309 -117.59623
22230000000 -29.105192 -134.4026 -0.96720433 -92.791519 -0.96669561 -92.830536 -28.299353 -121.3372
22257500000 -29.221254 -130.95665 -0.96600842 -93.398567 -0.96653324 -93.41568 -28.841885 -123.30039
22285000000 -28.304399 -142.80989 -0.97001654 -93.971542 -0.96572423 -93.950195 -28.904409 -121.46467
22312500000 -27.963549 -136.47874 -0.96995115 -94.518463 -0.97228718 -94.53994 -28.203756 -124.41675
22340000000 -29.222002 -132.90042 -0.96888685 -95.111855 -0.96548241 -95.12944 -28.653765 -126.45452
22367500000 -28.57719 -144.2583 -0.96538574 -95.642174 -0.9652338 -95.663345 -28.845295 -125.40602
22395000000 -27.407724 -139.51865 -0.97456414 -96.214706 -0.9746471 -96.24601 -28.233931 -125.22819
22422500000 -29.151569 -138.03616 -0.96698797 -96.843399 -0.96208608 -96.822281 -28.401386 -129.53467
22450000000 -28.527199 -144.35268 -0.96817636 -97.375023 -0.96968126 -97.374283 -28.686266 -129.039
22477500000 -26.658026 -143.0024 -0.97786677 -97.94622 -0.97530448 -97.938057 -28.441629 -128.59108
22505000000 -29.498117 -139.6799 -0.96662283 -98.548157 -0.96630073 -98.532043 -28.184887 -132.21989
22532500000 -28.237123 -145.91574 -0.96435648 -99.050827 -0.97034603 -99.060623 -28.559555 -133.43983
22560000000 -27.432049 -145.29866 -0.97538519 -99.647743 -0.97563082 -99.632576 -28.579226 -130.6248
22587500000 -28.430185 -142.17149 -0.9683575 -100.20992 -0.96864808 -100.20488 -27.716177 -134.55591
22615000000 -28.648342 -151.97957 -0.9633168 -100.79964 -0.96779919 -100.79654 -28.253197 -136.228
22642500000 -27.281866 -148.84113 -0.97194523 -101.34561 -0.96937412 -101.35706 -28.411987 -133.5428
22670000000 -27.612259 -146.15712 -0.97741777 -101.91641 -0.97593933 -101.88782 -27.91733 -136.86424
22697500000 -28.966513 -154.94501 -0.97098464 -102.47916 -0.97172344 -102.51661 -27.874344 -138.82367
22725000000 -27.066425 -150.76996 -0.9694379 -103.0469 -0.97497237 -103.04161 -28.280821 -136.35693
22752500000 -27.050009 -146.36746 -0.98188353 -103.61771 -0.98219639 -103.6079 -27.727757 -137.70853
22780000000 -29.404224 -159.28336 -0.97179204 -104.21871 -0.9717111 -104.22301 -27.294308 -140.91434
22807500000 -26.474075 -156.6057 -0.97891092 -104.73136 -0.97660214 -104.7533 -27.877382 -140.33749
22835000000 -26.698635 -149.5611 -0.98670161 -105.28308 -0.99136722 -105.32181 -27.828375 -139.50348
22862500000 -28.734434 -154.009 -0.97759765 -105.88465 -0.97966242 -105.8808 -27.299547 -142.33609
22890000000 -26.954027 -164.40433 -0.97968155 -106.42361 -0.98062652 -106.39783 -27.608891 -143.8329
22917500000 -26.576916 -151.33598 -0.98653948 -107.00932 -0.98768026 -106.99116 -27.926502 -142.71518
22945000000 -27.603516 -157.21602 -0.98157853 -107.50704 -0.98773289 -107.53001 -27.211416 -146.32526
22972500000 -27.621811 -167.34315 -0.97707671 -108.10454 -0.98041075 -108.1168 -27.200363 -147.95296
23000000000 -25.774647 -154.87332 -0.99011457 -108.68014 -0.99082053 -108.69916 -27.696529 -145.09926
23027500000 -27.567497 -158.54683 -0.98957944 -109.26262 -0.98861265 -109.23748 -27.081102 -148.42291
23055000000 -27.353014 -169.66496 -0.98395711 -109.82508 -0.98364872 -109.82008 -26.974785 -150.84631
23082500000 -25.605383 -161.81801 -0.99116331 -110.35143 -0.98976308 -110.38218 -27.424473 -147.84659
23110000000 -27.144444 -156.33096 -0.99599129 -110.93273 -0.99988246 -110.96207 -27.081812 -150.24678
23137500000 -27.046423 -174.84737 -0.98827142 -111.51326 -0.98873746 -111.53686 -26.657211 -154.6577
23165000000 -25.576464 -166.18793 -0.99145371 -112.02356 -0.99486655 -112.03718 -27.251694 -152.7352
23192500000 -26.9569 -156.85901 -1.0027763 -112.6138 -1.0029752 -112.64912 -27.193714 -151.38524
23220000000 -26.606947 -177.98389 -0.98834777 -113.22635 -0.98863316 -113.19486 -26.438002 -155.8224
23247500000 -25.416992 -170.81602 -0.98735887 -113.73626 -0.99147648 -113.71961 -26.866089 -155.95245
23275000000 -26.010626 -159.10754 -1.0081265 -114.30787 -1.0081171 -114.27025 -27.054384 -154.53052
23302500000 -26.99493 -177.50305 -0.99826741 -114.90936 -1.0040084 -114.95107 -26.306438 -158.48749
23330000000 -24.910112 -176.80266 -0.99436241 -115.44639 -1.0006288 -115.39445 -26.641779 -160.15994
23357500000 -26.003405 -165.26912 -1.004347 -115.99552 -1.0045013 -115.98451 -26.970772 -157.70009
23385000000 -26.305941 -172.89708 -1.0005118 -116.5377 -1.0100912 -116.58656 -26.100601 -161.29555
23412500000 -25.083847 176.71725 -0.99916887 -117.13801 -1.0049522 -117.11762 -26.232851 -162.98279
23440000000 -25.52125 -166.6635 -1.0086293 -117.68324 -1.0084138 -117.66539 -26.763102 -159.73805
23467500000 -26.407753 -174.98135 -1.0087795 -118.24101 -1.0081807 -118.22527 -26.206003 -162.98575
23495000000 -24.983871 173.20341 -1.0053208 -118.80983 -1.0047854 -118.87611 -25.855145 -164.93889
23522500000 -24.769171 -172.33543 -1.008199 -119.35879 -1.0077292 -119.36395 -26.428902 -163.58194
23550000000 -26.368227 -176.95065 -1.0151181 -119.94774 -1.016433 -119.92187 -26.088568 -165.05873
23577500000 -24.858835 173.00665 -1.0070289 -120.5331 -1.0073649 -120.49927 -25.524054 -169.04909
23605000000 -24.45915 179.15634 -1.0086626 -121.01849 -1.0132921 -121.00204 -26.202545 -167.34088
23632500000 -26.091991 -174.94833 -1.0228021 -121.59657 -1.0251175 -121.58969 -26.063316 -166.99301
23660000000 -24.651096 169.27953 -1.016711 -122.22568 -1.0149906 -122.18471 -25.505772 -171.13245
23687500000 -24.215588 175.62662 -1.0154831 -122.67581 -1.0165317 -122.69245 -25.973183 -170.41469
23715000000 -25.436054 -179.25299 -1.0191191 -123.24097 -1.0235333 -123.2561 -26.209574 -170.58594
23742500000 -25.04192 169.70863 -1.0206326 -123.86566 -1.0241393 -123.86558 -25.433605 -173.90433
23770000000 -23.996054 171.06125 -1.0174589 -124.37787 -1.0177972 -124.3896 -25.454687 -174.8299
23797500000 -24.798088 175.46069 -1.0254053 -124.94528 -1.0284247 -124.93493 -25.960392 -172.63266
23825000000 -25.4175 169.25653 -1.0298512 -125.50268 -1.0279727 -125.53786 -25.185879 -175.41151
23852500000 -23.369999 165.60081 -1.0242326 -126.07908 -1.0248035 -126.08001 -25.229088 -178.04871
23880000000 -24.699539 172.95023 -1.0264009 -126.60746 -1.0289831 -126.5989 -25.826643 -175.94574
23907500000 -25.155849 166.90927 -1.0309505 -127.16991 -1.0298693 -127.19857 -25.166298 -177.66988
23935000000 -23.365154 162.24142 -1.0268171 -127.76045 -1.0322591 -127.74625 -24.897846 178.90381
23962500000 -23.988274 170.6111 -1.0304705 -128.24615 -1.0312506 -128.27536 -25.584003 -179.38814
23990000000 -25.469654 164.41924 -1.0337644 -128.82465 -1.037253 -128.85159 -25.219698 -179.82018
24017500000 -23.318741 158.91986 -1.0362746 -129.45105 -1.0351427 -129.46634 -24.560419 176.96658
24045000000 -23.497656 166.59576 -1.0256705 -129.96809 -1.0312349 -129.95793 -25.260885 177.86723
24072500000 -25.332289 161.30026 -1.0363939 -130.51906 -1.0420138 -130.50523 -25.186611 177.87035
24100000000 -23.312803 158.52959 -1.0374364 -131.14282 -1.0384111 -131.12041 -24.520489 173.96906
24127500000 -23.074383 163.72192 -1.0302562 -131.64841 -1.0368829 -131.60033 -24.924341 173.79453
24155000000 -24.955561 161.11357 -1.0397817 -132.19249 -1.0409656 -132.18245 -25.080547 175.27019
24182500000 -23.660158 156.11037 -1.0379163 -132.76965 -1.042774 -132.75343 -24.39712 172.03735
24210000000 -22.855988 158.45435 -1.0446872 -133.3076 -1.0446184 -133.31279 -24.644255 170.7218
24237500000 -24.426291 160.42972 -1.0394936 -133.85648 -1.0477431 -133.84775 -25.069994 171.80862
24265000000 -23.837484 151.24898 -1.0511526 -134.4695 -1.0459704 -134.42711 -24.300535 169.48219
24292500000 -22.539879 157.76137 -1.0438199 -134.98795 -1.0468502 -135.01161 -24.267502 168.23108
24320000000 -24.117479 158.17476 -1.0418472 -135.5208 -1.0430921 -135.50479 -24.849161 167.98947
24347500000 -24.076025 149.36028 -1.0479394 -136.08278 -1.0463809 -136.09053 -24.192495 167.11264
24375000000 -22.454924 153.38739 -1.0530797 -136.66275 -1.0515833 -136.6839 -23.875221 165.2038
24402500000 -23.664129 155.79584 -1.0489017 -137.19144 -1.0521139 -137.18529 -24.52356 164.78218
24430000000 -23.830812 145.72643 -1.0522178 -137.74925 -1.0543187 -137.74388 -24.237667 164.49466
24457500000 -22.542368 151.44972 -1.0544219 -138.33298 -1.058742 -138.29141 -23.694502 162.60869
24485000000 -23.084372 153.28197 -1.0561402 -138.83653 -1.0527034 -138.86658 -24.47646 161.74319
24512500000 -24.064692 143.98766 -1.0575458 -139.37868 -1.0582671 -139.37749 -24.16667 162.09669
24540000000 -22.557127 145.73308 -1.0571238 -139.99971 -1.0564417 -140.0041 -23.591019 160.811
24567500000 -22.847666 151.31195 -1.0536964 -140.52249 -1.0578687 -140.51302 -24.038113 158.83514
24595000000 -23.778126 141.30345 -1.0604053 -141.08257 -1.0580812 -141.06134 -24.138695 159.09581
24622500000 -22.644064 142.86885 -1.0572588 -141.64267 -1.0606951 -141.64977 -23.439888 157.98975
24650000000 -22.481428 148.97781 -1.0610675 -142.18898 -1.0637877 -142.21101 -23.77474 155.73123
24677500000 -23.736534 141.43588 -1.0607406 -142.74335 -1.0639424 -142.7189 -24.058149 155.02733
24705000000 -22.643686 138.17714 -1.055351 -143.30725 -1.0630622 -143.29836 -23.385452 155.63846
24732500000 -22.462288 144.64021 -1.064082 -143.85384 -1.0599056 -143.88185 -23.422047 153.64217
24760000000 -23.357822 143.19844 -1.0649487 -144.39125 -1.0646721 -144.38943 -23.934719 151.38304
24787500000 -22.778278 132.66855 -1.0683327 -144.95906 -1.0691074 -144.97104 -23.445347 151.88602
24815000000 -22.271118 143.63188 -1.0669848 -145.55898 -1.0674177 -145.55241 -23.234974 151.28508
24842500000 -23.059181 140.66827 -1.065732 -146.07129 -1.0639488 -146.06525 -23.736526 148.19798
24870000000 -22.941019 131.10332 -1.0640953 -146.62796 -1.0685562 -146.63763 -23.374546 149.53445
24897500000 -22.154224 137.85916 -1.0642735 -147.21402 -1.0658009 -147.2068 -22.971642 148.85837
24925000000 -22.794704 139.19678 -1.0643572 -147.71225 -1.0644425 -147.75813 -23.453348 146.8157
24952500000 -22.714544 129.19014 -1.0633826 -148.29074 -1.0688783 -148.31561 -23.411385 146.1819
24980000000 -21.97464 135.11548 -1.0699784 -148.85338 -1.0687892 -148.88858 -22.872099 145.32419
25007500000 -22.696501 136.75439 -1.0686309 -149.41112 -1.0743879 -149.4156 -23.308653 143.65532
25035000000 -22.567749 129.4276 -1.0735519 -149.96925 -1.0728757 -150.02298 -23.33675 142.93532
25062500000 -21.880901 127.66058 -1.0742593 -150.50632 -1.0776747 -150.50967 -22.692175 142.92963
25090000000 -22.342062 137.73793 -1.0723373 -151.10297 -1.075884 -151.13141 -22.868107 141.07739
25117500000 -22.510807 126.303 -1.0741372 -151.66576 -1.0700933 -151.64632 -23.137945 139.57713
25145000000 -21.839066 125.89922 -1.0710876 -152.22626 -1.0748951 -152.17754 -22.679157 139.98543
25172500000 -21.943464 132.84708 -1.0719612 -152.73564 -1.0707049 -152.80399 -22.755804 138.26126
25200000000 -22.462996 125.44304 -1.0803417 -153.30638 -1.0801139 -153.36125 -22.96055 135.09795
25227500000 -21.586971 124.34904 -1.0753947 -153.91551 -1.075047 -153.90886 -22.690229 136.99944
25255000000 -21.824806 127.5042 -1.0757589 -154.44859 -1.0791467 -154.40628 -22.488997 137.64738
25282500000 -22.35051 126.8098 -1.0816644 -154.99799 -1.0815843 -154.99847 -22.92252 133.48625
25310000000 -21.611069 121.05744 -1.0833135 -155.55859 -1.0805826 -155.5334 -22.63265 133.15172
25337500000 -21.672131 124.48933 -1.0802995 -156.09784 -1.0800372 -156.11455 -22.440649 134.74753
25365000000 -22.206348 126.00751 -1.0773238 -156.66585 -1.0790024 -156.62785 -22.697771 131.05954
25392500000 -21.668341 117.44101 -1.087068 -157.20575 -1.0843873 -157.22891 -22.61684 130.0014
25420000000 -21.354101 122.4377 -1.084065 -157.80232 -1.0811746 -157.82381 -22.298649 132.12054
25447500000 -22.108965 122.42524 -1.0812341 -158.35693 -1.0887446 -158.3821 -22.658846 128.94272
25475000000 -21.685459 117.50618 -1.0830909 -158.91351 -1.0846348 -158.92712 -22.502808 126.52943
25502500000 -21.144417 117.85002 -1.0808045 -159.46609 -1.0813686 -159.4585 -22.256134 129.43674
25530000000 -22.136028 120.64431 -1.0883402 -160.01595 -1.0831078 -160.07123 -22.386044 126.64854
25557500000 -21.721891 115.40341 -1.0921156 -160.60168 -1.0846032 -160.57977 -22.450153 123.3574
25585000000 -20.919907 115.10026 -1.0931476 -161.12552 -1.0917202 -161.1032 -22.178951 126.93972
25612500000 -21.97316 116.76003 -1.0872369 -161.67711 -1.0887679 -161.73376 -22.266092 124.84932
25640000000 -21.381636 113.91682 -1.0926456 -162.20879 -1.0951169 -162.24872 -22.300955 120.88052
25667500000 -21.051113 112.8629 -1.0926054 -162.75484 -1.0883272 -162.76736 -22.106958 122.71094
25695000000 -21.364967 115.31195 -1.0955828 -163.35294 -1.0957354 -163.37778 -22.090572 123.25146
25722500000 -21.782021 111.00211 -1.1031229 -163.92021 -1.0948957 -163.87769 -22.269035 118.2322
25750000000 -20.69512 112.41728 -1.0937037 -164.46733 -1.1000246 -164.479 -22.075817 118.79177
25777500000 -21.345551 111.43374 -1.0930618 -164.99553 -1.0881733 -165.0097 -22.008417 120.2448
25805000000 -21.620182 110.9903 -1.0960913 -165.57126 -1.099288 -165.57571 -22.03931 116.56121
25832500000 -20.899572 108.0405 -1.1066073 -166.12784 -1.1036546 -166.13879 -22.118656 115.24668
25860000000 -20.809557 110.72771 -1.0978608 -166.67879 -1.1065098 -166.6646 -21.94746 118.16133
25887500000 -21.63699 106.52156 -1.1014791 -167.22304 -1.0954889 -167.26489 -22.05715 115.3867
25915000000 -21.005722 105.63194 -1.1019932 -167.81104 -1.1095755 -167.75645 -21.934967 112.50115
25942500000 -20.635584 108.27727 -1.1028544 -168.35045 -1.1082101 -168.35706 -21.840849 115.56011
25970000000 -21.402159 103.28263 -1.0955565 -168.86659 -1.1003844 -168.9292 -21.874992 114.05389
25997500000 -20.988834 104.95238 -1.1071448 -169.42586 -1.1104228 -169.42155 -21.885881 109.29907
26025000000 -20.449717 103.92517 -1.1074216 -169.96654 -1.1047945 -170.02913 -21.941389 112.07084
26052500000 -21.159164 103.80074 -1.102561 -170.56091 -1.1053674 -170.5658 -21.690634 112.55725
26080000000 -21.202065 101.57694 -1.1068271 -171.09474 -1.1111981 -171.10136 -21.760948 107.51419
26107500000 -20.469381 100.95549 -1.1083705 -171.64781 -1.10992 -171.67137 -21.790655 108.90929
26135000000 -20.732397 101.57677 -1.1117985 -172.22345 -1.1098937 -172.2563 -21.663246 109.76389
26162500000 -21.24507 97.752014 -1.1032991 -172.78128 -1.1107357 -172.77351 -21.545706 105.42458
26190000000 -20.43511 100.77688 -1.1132889 -173.31992 -1.1155738 -173.28769 -21.692621 104.98681
26217500000 -20.61931 98.853279 -1.1074353 -173.8994 -1.1127136 -173.85805 -21.722273 106.7768
26245000000 -21.06963 95.919319 -1.1130787 -174.44371 -1.1061689 -174.45583 -21.53693 104.44047
26272500000 -20.3528 97.824112 -1.1144761 -174.98929 -1.1123075 -174.95676 -21.64156 102.46577
26300000000 -20.630852 94.740677 -1.107743 -175.55002 -1.1116748 -175.52618 -21.661572 104.92423
26327500000 -20.545067 95.171028 -1.112744 -176.0928 -1.1154727 -176.0439 -21.362719 102.75342
26355000000 -20.902683 94.353699 -1.1216607 -176.65324 -1.1076355 -176.67964 -21.419786 99.472717
26382500000 -20.066029 95.743103 -1.1177801 -177.16765 -1.1123998 -177.18364 -21.618277 101.39147
26410000000 -20.755133 91.057693 -1.1104068 -177.70009 -1.1157286 -177.77135 -21.447052 101.161
26437500000 -20.509134 91.848427 -1.1141753 -178.32968 -1.1154803 -178.32411 -21.284046 97.341286
26465000000 -20.247913 92.532188 -1.1121844 -178.89107 -1.1181957 -178.91342 -21.503414 97.743423
26492500000 -20.431376 91.201118 -1.1128805 -179.40796 -1.1174613 -179.44998 -21.299858 98.646187
26520000000 -20.647161 88.320122 -1.128985 -179.97992 -1.1303177 179.95071 -21.098166 96.142548
26547500000 -20.283527 90.14579 -1.1197578 179.45308 -1.1105185 179.46173 -21.345068 95.049042
26575000000 -20.436968 89.983467 -1.1221919 179.0665 -1.1166612 178.92421 -21.134737 95.330719
26602500000 -20.386501 85.00206 -1.1139746 178.33772 -1.1142218 178.36742 -20.98255 93.799805
26630000000 -20.293848 86.781731 -1.1032755 177.74393 -1.1321006 177.7552 -21.345358 92.980217
26657500000 -20.035265 88.206787 -1.1215518 177.3201 -1.1115019 177.29994 -21.109324 92.787041
26685000000 -20.577709 83.04361 -1.11236 176.74431 -1.124501 176.78252 -20.790194 91.089882
26712500000 -20.133665 85.441994 -1.133013 176.13963 -1.1162559 176.07852 -21.175495 90.155365
26740000000 -20.344343 84.997063 -1.1202409 175.64125 -1.1197594 175.62268 -21.262848 91.672485
26767500000 -19.925974 81.572739 -1.126158 174.96651 -1.1238695 175.00822 -21.104685 90.224358
26795000000 -20.087353 82.760956 -1.1296146 174.42766 -1.1349388 174.44652 -21.152735 88.450638
26822500000 -19.901443 82.281654 -1.1354539 173.94757 -1.1318227 173.93558 -20.984148 87.396324
26850000000 -20.513094 80.686638 -1.1277156 173.4201 -1.124561 173.32988 -20.776907 89.10849
26877500000 -19.924891 78.345749 -1.1456449 172.88228 -1.1270642 172.8615 -20.865486 85.258537
26905000000 -20.166784 81.163597 -1.1366836 172.28113 -1.1268551 172.25961 -20.985626 85.894318
26932500000 -20.244841 79.842072 -1.1059194 171.78532 -1.1251938 171.73549 -20.651213 86.415741
26960000000 -19.570171 76.548615 -1.1375251 171.14243 -1.1200557 171.23383 -20.854338 84.253914
26987500000 -20.249611 79.129089 -1.1385738 170.65886 -1.1287642 170.56081 -21.10821 82.700607
27015000000 -19.963234 78.085388 -1.1185503 170.03549 -1.1238585 170.10594 -20.881506 83.421249
27042500000 -19.883562 73.675369 -1.1396122 169.54987 -1.141812 169.47401 -20.657511 82.218864
27070000000 -19.812086 78.11174 -1.1201514 169.05064 -1.1289068 169.02675 -20.889917 81.091431
27097500000 -20.084091 73.844078 -1.124666 168.27568 -1.1186488 168.43315 -20.711405 80.205994
27125000000 -19.858488 73.772438 -1.1279287 167.78378 -1.1167951 167.90396 -20.485964 80.881477
27152500000 -19.789738 75.621346 -1.1133878 167.32999 -1.1304839 167.34927 -20.964211 77.972893
27180000000 -20.295723 69.993042 -1.136193 166.75377 -1.1250858 166.74612 -20.803541 77.954842
27207500000 -19.535238 74.756905 -1.1112874 166.1891 -1.1162933 166.24458 -20.535286 78.09124
27235000000 -19.906084 69.349289 -1.1199343 165.67061 -1.1258892 165.69749 -20.621141 75.772102
27262500000 -20.368305 72.880058 -1.1365144 165.07462 -1.12351 165.0793 -20.655802 75.576416
27290000000 -19.574858 70.61512 -1.1270605 164.49158 -1.1330087 164.51578 -20.386372 75.966263
27317500000 -20.066143 68.197693 -1.1190691 163.9283 -1.1428155 163.93019 -20.693945 74.016304
27345000000 -20.040186 70.602257 -1.1233844 163.34677 -1.1320703 163.52202 -20.932379 71.481743
27372500000 -19.768387 66.158943 -1.1365652 162.82851 -1.1243359 162.96976 -20.553741 72.541069
27400000000 -19.909971 70.447411 -1.1219935 162.31194 -1.129734 162.3141 -20.426908 71.545174
27427500000 -20.090675 64.059502 -1.1277363 161.75211 -1.1264371 161.79807 -20.661985 71.004494
27455000000 -20.040018 66.158516 -1.1328088 161.28641 -1.128217 161.21844 -20.420908 70.961151
27482500000 -19.472521 67.030952 -1.1488651 160.53802 -1.1274185 160.63098 -20.245043 69.377991
27510000000 -20.25923 62.624516 -1.1413093 160.08664 -1.1461411 160.06929 -20.753448 67.643166
27537500000 -19.914791 65.791656 -1.1322725 159.53833 -1.1339399 159.53618 -20.411285 68.292801
27565000000 -19.725677 62.432533 -1.1354425 158.93051 -1.1215564 158.95612 -20.231937 68.252335
27592500000 -20.251492 62.57394 -1.1427943 158.48679 -1.1245623 158.38828 -20.53945 65.095993
27620000000 -19.736151 58.295761 -1.1276263 157.88554 -1.1481148 157.8058 -20.373072 65.661583
27647500000 -20.041534 60.920799 -1.1511087 157.19995 -1.1263261 157.36856 -20.318293 65.774803
27675000000 -19.38563 61.711647 -1.1313242 156.74142 -1.1364741 156.78954 -20.324537 62.857605
27702500000 -20.110617 55.450218 -1.1323835 156.26842 -1.1488699 156.19742 -20.668978 63.616562
27730000000 -19.871386 60.547218 -1.1504978 155.63721 -1.1354092 155.7191 -20.140507 63.427151
27757500000 -19.572578 56.803425 -1.1305705 155.11263 -1.1581106 155.11754 -20.347586 60.583992
27785000000 -20.102194 54.809395 -1.1405562 154.6098 -1.1474247 154.64876 -20.52066 61.455338
27812500000 -19.500282 57.16341 -1.1301323 153.97408 -1.149139 154.11668 -20.122032 59.435188
27840000000 -20.220427 56.129658 -1.1500646 153.45146 -1.152137 153.52519 -20.120281 59.51852
27867500000 -19.911915 53.571785 -1.1372772 152.88461 -1.1470286 152.83937 -20.37005 56.676521
27895000000 -19.825748 51.696064 -1.1502755 152.43352 -1.1356399 152.3313 -20.561604 59.18771
27922500000 -19.643736 56.074272 -1.1256598 151.88075 -1.1528708 151.81635 -20.061756 57.766796
27950000000 -19.749477 50.397377 -1.1380162 151.3568 -1.138823 151.37334 -20.264784 55.949898
27977500000 -19.833084 47.445496 -1.1442159 150.77176 -1.1465778 150.76143 -20.351591 55.577862
28005000000 -19.839399 54.515293 -1.1413043 150.22137 -1.133706 150.09389 -20.31609 54.073311
28032500000 -19.715281 48.230286 -1.1114264 149.61327 -1.1435493 149.67265 -20.322908 51.991669
28060000000 -20.051641 49.566513 -1.1484646 149.09283 -1.1246948 149.08186 -20.177006 53.472038
28087500000 -19.207706 49.226906 -1.1523767 148.49791 -1.1311582 148.55104 -20.219995 52.97686
28115000000 -20.596661 51.202061 -1.1260831 147.89951 -1.1232131 147.98653 -20.282545 50.283482
28142500000 -19.479044 45.250343 -1.1302814 147.44057 -1.1369056 147.37785 -20.236204 51.077457
28170000000 -19.680866 47.559185 -1.1350031 146.97026 -1.1368169 146.84048 -20.28145 51.99704
28197500000 -19.921581 48.81823 -1.1368316 146.23952 -1.1358802 146.4153 -20.157043 49.609867
28225000000 -19.48716 41.757877 -1.1170971 145.87401 -1.1196345 145.70111 -20.473806 48.232742
28252500000 -19.648878 48.147751 -1.1315476 145.2063 -1.1422938 145.26147 -19.864956 47.801178
28280000000 -20.058367 47.062725 -1.1204149 144.61354 -1.1328303 144.6208 -20.042271 47.148521
28307500000 -19.635239 41.329769 -1.1323055 144.02858 -1.1164781 144.07352 -19.878403 45.425797
28335000000 -19.831755 43.585114 -1.138238 143.60596 -1.1460228 143.56895 -20.342756 45.114117
28362500000 -19.657019 42.820694 -1.1408689 142.99031 -1.121773 142.85333 -19.867105 44.782093
28390000000 -19.728863 40.03014 -1.1221048 142.32066 -1.1516213 142.27629 -20.196831 44.097855
28417500000 -19.374338 39.504124 -1.1323652 141.7924 -1.143643 141.78931 -20.376371 42.613289
28445000000 -20.157026 45.078945 -1.1382353 141.24231 -1.1516045 141.13791 -20.294941 43.524426
28472500000 -20.128548 37.99501 -1.1294379 140.60126 -1.140642 140.7104 -19.703617 40.721607
28500000000 -19.475821 38.502945 -1.1296397 140.295 -1.1289189 140.22563 -20.094524 40.586346
28527500000 -20.171446 36.987423 -1.127838 139.52823 -1.1642283 139.55618 -20.078373 40.723606
28555000000 -19.889465 37.695038 -1.1335474 139.00511 -1.1370627 139.05579 -19.791992 39.57983
28582500000 -19.709009 36.092598 -1.1320851 138.49709 -1.1413026 138.535 -20.089914 38.291607
28610000000 -19.716467 37.172894 -1.1420406 138.01218 -1.1411268 137.95351 -20.199064 36.802135
28637500000 -20.529087 36.584946 -1.1253713 137.36809 -1.1606159 137.56326 -19.976707 36.506283
28665000000 -19.496254 29.633917 -1.1232042 136.88118 -1.142644 136.9599 -19.994415 35.925133
28692500000 -19.618441 35.019249 -1.1421672 136.29234 -1.1444892 136.26845 -20.298876 36.098434
28720000000 -20.381193 32.917637 -1.1419692 135.61334 -1.1301384 135.7796 -20.135056 34.100765
28747500000 -19.859888 32.543007 -1.1193284 135.35707 -1.1217442 135.14862 -19.98377 32.720196
28775000000 -19.957739 30.384787 -1.1105609 134.82326 -1.1329058 134.68431 -20.399176 31.894415
28802500000 -20.225252 32.944157 -1.1444246 134.12488 -1.1501446 134.16847 -20.244534 33.675308
28830000000 -19.833364 27.643406 -1.1343735 133.62529 -1.1258503 133.57109 -19.95183 32.654465
28857500000 -19.595781 29.653164 -1.119259 133.13927 -1.1257175 133.15976 -20.369907 30.171139
28885000000 -20.073969 27.858658 -1.1378875 132.41644 -1.1201702 132.36221 -20.337677 29.75547
28912500000 -20.570368 28.877966 -1.1408474 131.83279 -1.1267192 131.87988 -19.944286 30.269743
28940000000 -19.622215 24.512978 -1.1294333 131.43356 -1.1516132 131.3746 -20.422447 30.907883
28967500000 -20.294422 25.921991 -1.1107497 130.81248 -1.1159238 130.79095 -20.603302 28.244181
28995000000 -20.076988 25.167318 -1.1314603 130.24826 -1.125007 130.30067 -20.267176 28.141615
29022500000 -19.74687 23.507616 -1.1410171 129.59966 -1.0929896 129.51727 -20.1203 28.537832
29050000000 -20.063351 25.162935 -1.1347096 129.19946 -1.1475838 129.08267 -20.563108 26.334358
29077500000 -20.012705 23.33383 -1.1455567 128.51848 -1.1279709 128.51949 -20.587307 27.293947
29105000000 -20.334694 19.256454 -1.1245053 127.94454 -1.1177965 128.09801 -20.217892 26.264502
29132500000 -19.216825 25.079809 -1.1281046 127.40089 -1.1316558 127.48853 -20.372704 25.218876
29160000000 -20.87612 20.181108 -1.1387352 126.7867 -1.1390135 126.77997 -20.372065 23.534084
29187500000 -20.05855 23.833967 -1.105055 126.48644 -1.1076779 126.28636 -20.064928 23.702663
29215000000 -19.642612 18.286144 -1.1210169 125.79163 -1.1345133 125.77478 -20.347353 23.33588
29242500000 -20.516478 20.922836 -1.1176033 125.31857 -1.1576729 125.1105 -20.56147 20.566319
29270000000 -20.229969 17.985117 -1.1060543 124.84834 -1.1366627 124.62462 -19.985737 20.964331
29297500000 -20.111809 16.632669 -1.1346902 124.1678 -1.1133872 124.07935 -20.433294 19.592922
29325000000 -20.561935 21.298367 -1.1072042 123.50004 -1.1511756 123.49836 -20.739971 17.510883
29352500000 -20.357105 11.746191 -1.1134089 122.91353 -1.1364542 122.82914 -20.225908 17.756094
29380000000 -20.196386 21.159725 -1.1171055 122.4219 -1.1130205 122.34526 -20.341854 18.972395
29407500000 -19.898382 17.064396 -1.1332725 121.8484 -1.1280683 121.85403 -20.646656 16.973654
29435000000 -21.442575 12.930399 -1.1235081 121.4084 -1.1226749 121.30752 -20.423666 17.108973
29462500000 -19.871431 16.446663 -1.1005795 120.73373 -1.1250587 120.60636 -20.191807 16.280003
29490000000 -20.115061 12.920617 -1.1217428 120.20057 -1.1199661 120.16808 -20.603413 14.715568
29517500000 -21.310415 16.268364 -1.1319389 119.6999 -1.1373943 119.60731 -20.430513 14.540789
29545000000 -19.898603 8.4981298 -1.1239855 118.99713 -1.1063479 119.0265 -20.156849 13.741551
29572500000 -20.304888 12.447647 -1.1194999 118.39861 -1.1229032 118.46613 -20.380016 12.249643
29600000000 -20.937986 12.927462 -1.1132534 117.80621 -1.1151052 117.97715 -20.50927 11.125251
29627500000 -20.968897 2.5431018 -1.1288871 117.3243 -1.1172273 117.3547 -20.620098 10.687359
29655000000 -20.021698 15.755259 -1.1105235 116.86472 -1.1047822 116.83171 -20.490534 9.7997828
29682500000 -20.747763 4.6480527 -1.1124784 116.27995 -1.1139656 116.18653 -20.8379 9.0818205
29710000000 -21.129917 5.8379202 -1.1229931 115.74104 -1.1041954 115.77587 -20.300776 8.1864862
29737500000 -19.955564 8.607832 -1.1104492 115.13892 -1.1104114 115.07344 -20.505844 8.3266172
29765000000 -21.190359 4.4657373 -1.1228489 114.56877 -1.1242062 114.52617 -20.775459 5.8701067
29792500000 -21.025433 6.3928123 -1.1038265 114.07449 -1.1286591 114.03455 -20.989452 7.3438287
29820000000 -20.226509 0.70424616 -1.102461 113.53961 -1.1096226 113.4258 -20.697615 4.9134235
29847500000 -20.745434 10.183727 -1.0982865 112.83842 -1.1276435 113.0356 -20.738697 4.547864
29875000000 -21.101114 -0.51419097 -1.1238735 112.39185 -1.0972896 112.41283 -20.858234 3.770591
29902500000 -21.353802 1.0783173 -1.1150433 111.80341 -1.1001096 111.84859 -20.557713 3.0364199
29930000000 -20.091103 7.4599094 -1.1226618 111.30831 -1.1212924 111.25929 -20.788984 2.0876334
29957500000 -21.66083 -4.4373403 -1.1238927 110.72878 -1.083074 110.51466 -20.807306 2.360013
29985000000 -21.059872 1.4172655 -1.1103814 110.18423 -1.1050032 110.1565 -20.630215 1.2187994
30012500000 -20.189056 0.75656521 -1.1246009 109.50925 -1.1211671 109.61373 -20.75716 -0.066514768
30040000000 -21.647718 1.8559823 -1.1161829 109.10399 -1.0929283 109.0315 -20.651787 -1.8883904
30067500000 -21.010061 -5.2161145 -1.0998828 108.43921 -1.0955695 108.50092 -20.401226 -3.1755323
30095000000 -20.839754 -1.6799054 -1.1274068 107.75657 -1.1267098 107.79519 -21.22599 -2.1236694
30122500000 -21.414949 1.5738108 -1.113165 107.14559 -1.1036826 107.2154 -21.170586 -3.1652792
30150000000 -21.401361 -9.0272341 -1.1013499 106.6573 -1.0957445 106.78827 -21.351261 -2.2128243
30177500000 -21.534618 -3.2545855 -1.1050643 106.25698 -1.1256957 106.12455 -21.337029 -5.1603465
30205000000 -20.822392 1.5834688 -1.1133313 105.52042 -1.0961893 105.69208 -21.093233 -5.7028089
30232500000 -22.560205 -12.779187 -1.0862181 104.96944 -1.0984812 105.10782 -21.014793 -4.9786701
30260000000 -20.914179 -3.5231533 -1.1089278 104.45402 -1.1077995 104.52508 -21.109613 -7.5039344
30287500000 -21.422548 -5.9896369 -1.1119775 103.90923 -1.0904063 103.93925 -21.332054 -8.7399263
30315000000 -22.374313 -7.7767124 -1.1077037 103.33289 -1.10444 103.39985 -21.170664 -8.8263979
30342500000 -20.684736 -12.473722 -1.1071104 102.90606 -1.108572 102.74937 -20.989969 -11.223256
30370000000 -21.853556 -2.0925646 -1.1184736 102.23479 -1.1099815 102.23904 -21.46521 -10.354464
30397500000 -22.250759 -12.308393 -1.0999205 101.66536 -1.1019057 101.6635 -21.281761 -11.902026
30425000000 -21.251289 -17.073851 -1.0930784 101.15319 -1.0981624 101.16769 -20.972151 -13.503953
30452500000 -22.042917 -1.4906924 -1.1125112 100.5278 -1.1085129 100.58328 -21.442045 -13.037291
30480000000 -21.680498 -16.974321 -1.0872934 100.03154 -1.0846777 99.843292 -21.550884 -14.416504
30507500000 -22.336384 -12.515615 -1.1132135 99.424507 -1.0892658 99.46386 -21.39304 -15.418256
30535000000 -21.292717 -9.6898003 -1.1193947 98.821754 -1.1276122 98.877373 -21.458557 -15.056315
30562500000 -22.659472 -10.805539 -1.0822692 98.266701 -1.1266096 98.390427 -21.857468 -15.928747
30590000000 -22.783915 -16.185795 -1.0947764 97.810806 -1.0820566 97.752258 -21.675842 -17.750689
30617500000 -21.611063 -21.109287 -1.1020329 97.289505 -1.1106391 97.272758 -21.476288 -21.572462
30645000000 -23.030235 -6.2594924 -1.1222084 96.668602 -1.1215417 96.512848 -21.629398 -20.227385
30672500000 -21.904514 -23.625734 -1.1104655 96.152031 -1.0796615 96.035454 -21.679798 -22.106634
30700000000 -22.77742 -16.408516 -1.1094996 95.673141 -1.1034056 95.533073 -21.590858 -21.91678
30727500000 -22.515825 -14.655558 -1.1091688 95.013695 -1.0865093 94.89048 -22.003815 -23.070681
30755000000 -23.308804 -26.749994 -1.1038709 94.366508 -1.1085051 94.384705 -22.151226 -23.174721
30782500000 -21.951168 -17.04682 -1.1252965 93.846802 -1.1063138 93.728874 -21.250725 -24.672731
30810000000 -22.910194 -21.732668 -1.1069643 93.358719 -1.1262196 93.304115 -22.037815 -23.691902
30837500000 -23.214344 -12.999498 -1.1218594 92.670273 -1.1161715 92.809746 -22.31378 -27.083069
30865000000 -22.831335 -29.302061 -1.0943274 92.255966 -1.1167198 92.171318 -21.950842 -28.991274
30892500000 -23.404694 -19.088486 -1.0955212 91.695267 -1.1188618 91.503899 -22.199087 -29.469481
30920000000 -23.775438 -18.630037 -1.0854194 91.081047 -1.0953174 90.983322 -22.859907 -27.380217
30947500000 -23.632586 -36.12236 -1.1009324 90.554451 -1.1013967 90.554283 -22.510427 -31.472733
30975000000 -23.351482 -24.234642 -1.1182793 89.888039 -1.1004801 89.95623 -22.283989 -31.794329
31002500000 -23.290678 -19.597963 -1.0919559 89.40744 -1.1046537 89.255173 -22.347672 -31.547678
31030000000 -24.937809 -42.590424 -1.0910453 88.856163 -1.0898917 88.632179 -22.364077 -34.613632
31057500000 -21.653471 -27.039932 -1.0958841 88.112808 -1.0749359 88.159592 -22.251663 -33.997574
31085000000 -26.124466 -30.805912 -1.1015651 87.545738 -1.1087043 87.576332 -22.761351 -36.844109
31112500000 -23.161299 -33.565258 -1.0871291 87.03894 -1.0772172 87.111809 -22.91403 -34.583328
31140000000 -23.611322 -38.506336 -1.1191911 86.56353 -1.0934204 86.408012 -22.595091 -35.296757
31167500000 -24.805367 -29.323429 -1.0969709 86.022858 -1.0795938 85.998375 -22.780174 -36.254044
31195000000 -25.092567 -37.258926 -1.1044427 85.34024 -1.1106712 85.341255 -24.1702 -37.253117
31222500000 -23.93214 -41.631027 -1.1089292 84.95401 -1.0953606 84.821205 -23.154947 -39.199646
31250000000 -24.194092 -26.545486 -1.0773188 84.181458 -1.0908 84.237488 -22.894617 -43.322777
31277500000 -26.071081 -42.642654 -1.1106337 83.575424 -1.11691 83.695313 -23.726191 -41.602432
31305000000 -23.775967 -45.185001 -1.1071708 83.192993 -1.1112683 83.100937 -23.132885 -38.945087
31332500000 -24.212074 -31.393478 -1.1050051 82.656166 -1.0809399 82.463799 -23.058374 -41.287254
31360000000 -28.476721 -44.147774 -1.1144705 82.045311 -1.108302 82.00267 -24.117943 -43.088867
31387500000 -22.9513 -45.29211 -1.086022 81.295578 -1.08425 81.375694 -23.888727 -43.374802
31415000000 -25.121429 -28.730536 -1.0695157 80.986359 -1.0847671 81.003082 -23.233646 -42.619652
31442500000 -27.698921 -45.96455 -1.1057875 80.257683 -1.1356924 80.382019 -24.537418 -46.967106
31470000000 -24.635263 -49.20673 -1.0825924 79.553055 -1.0961733 79.5923 -24.307327 -48.866859
31497500000 -25.145979 -35.641472 -1.1117735 79.128693 -1.0997761 79.107109 -23.806572 -43.482704
31525000000 -27.397802 -48.292847 -1.0931187 78.700119 -1.1111562 78.680595 -24.220619 -53.030048
31552500000 -26.336119 -61.474068 -1.0843344 78.069016 -1.1118354 77.97905 -24.778248 -53.72448
31580000000 -24.172806 -38.161865 -1.0872053 77.376335 -1.0852473 77.40731 -23.831764 -48.721893
31607500000 -28.574263 -52.874966 -1.0623825 76.804352 -1.1071975 77.000671 -24.605629 -53.959171
31635000000 -26.786556 -56.521427 -1.1116855 76.306763 -1.1094221 76.353645 -25.294552 -53.591557
31662500000 -24.620707 -44.127911 -1.1001676 75.713371 -1.0969779 75.828415 -24.27317 -51.267689
31690000000 -30.262335 -38.48484 -1.1120768 75.310547 -1.0966454 75.238594 -24.36404 -56.402397
31717500000 -26.010345 -68.760406 -1.1011318 74.558037 -1.1143088 74.713074 -24.586639 -59.520386
31745000000 -25.140345 -43.594818 -1.0952088 74.11171 -1.1025137 73.911819 -25.038073 -55.599537
31772500000 -29.530048 -48.207802 -1.0809585 73.601463 -1.0904044 73.501648 -24.877714 -56.967373
31800000000 -26.767059 -69.762283 -1.1308879 72.961975 -1.0958354 72.967331 -25.383623 -62.720856
31827500000 -25.835447 -57.199162 -1.1228224 72.461746 -1.087267 72.446831 -25.296656 -59.481216
31855000000 -28.612432 -44.395821 -1.1105061 71.620087 -1.1167125 71.79689 -25.237823 -57.651585
31882500000 -28.151976 -85.405289 -1.1117504 71.326775 -1.1013976 71.273605 -25.441113 -60.076
31910000000 -26.042019 -57.151829 -1.0949806 70.708481 -1.1107286 70.571411 -25.895523 -66.963081
31937500000 -30.46052 -57.2841 -1.097016 70.078621 -1.0934353 70.077408 -25.929405 -63.243816
31965000000 -29.244486 -77.513565 -1.1163194 69.732231 -1.1070913 69.401802 -25.723234 -67.25386
31992500000 -27.641541 -75.705574 -1.0860118 68.965324 -1.1124339 69.024391 -26.563372 -72.116661
32020000000 -29.082907 -51.658371 -1.0976685 68.274506 -1.0995641 68.362671 -25.74909 -65.516846
32047500000 -30.450356 -83.233734 -1.0943571 67.970711 -1.1065919 67.853485 -25.97776 -68.564072
32075000000 -27.897449 -73.219284 -1.1267169 67.252205 -1.1182134 67.352753 -26.662659 -71.535576
32102500000 -30.490318 -51.482956 -1.1216844 66.57486 -1.1162137 66.686119 -26.678188 -68.851898
32130000000 -32.137699 -79.90274 -1.1035321 66.217224 -1.1039984 66.061874 -26.468964 -73.329605
32157500000 -26.858479 -96.772682 -1.1141901 65.832428 -1.1145524 65.662056 -27.160187 -78.061806
32185000000 -29.791737 -41.02734 -1.1013516 65.031601 -1.093415 64.881882 -26.890253 -75.314812
32212500000 -29.895927 -106.27888 -1.107115 64.462898 -1.0960193 64.586334 -26.63604 -74.551056
32240000000 -29.698368 -89.437592 -1.1034797 63.954933 -1.1083502 63.849819 -26.881887 -83.496086
32267500000 -30.957335 -81.789993 -1.1066815 63.441612 -1.1108948 63.202145 -27.630291 -82.286568
32295000000 -34.160381 -81.315849 -1.1101748 62.72266 -1.1297945 62.895195 -27.730675 -82.043663
32322500000 -29.235399 -100.97672 -1.1275316 62.214813 -1.1225402 62.395206 -27.369337 -83.175621
32350000000 -31.390911 -93.820084 -1.1021543 61.745422 -1.090618 61.692924 -27.653582 -88.174286
32377500000 -39.852554 -75.481186 -1.1289256 61.010727 -1.111524 61.024441 -28.347311 -90.246864
32405000000 -28.570087 -111.14957 -1.1118166 60.524971 -1.126369 60.630619 -27.846552 -87.866219
32432500000 -30.375023 -85.3162 -1.1015955 60.121197 -1.1061755 60.04229 -27.811518 -92.171707
32460000000 -34.969791 -80.143066 -1.1216326 59.229378 -1.1062367 59.382854 -28.109814 -99.017937
32487500000 -29.207083 -130.91162 -1.1208503 58.88377 -1.0977244 58.842907 -29.257753 -93.648613
32515000000 -30.576126 -77.515846 -1.1141914 58.292236 -1.1276011 58.21225 -28.168324 -93.005409
32542500000 -33.871704 -126.24192 -1.1026018 57.729504 -1.0833995 57.877445 -28.962198 -99.179504
32570000000 -36.851662 -107.76685 -1.106788 57.206093 -1.1033709 57.290306 -28.973106 -101.88634
32597500000 -28.442047 -117.3713 -1.1116099 56.793758 -1.1026074 56.664242 -27.728956 -104.30547
32625000000 -41.443172 -102.34522 -1.0977274 56.121208 -1.1129042 56.015903 -28.572075 -105.31341
32652500000 -33.155819 -123.83607 -1.1194108 55.655659 -1.0972456 55.554417 -28.714945 -102.34091
32680000000 -29.15904 -116.47868 -1.1145738 55.131184 -1.1306186 54.947895 -28.121962 -107.31154
32707500000 -42.977253 -118.46938 -1.1244698 54.258175 -1.1104729 54.248901 -29.758924 -113.35079
32735000000 -31.859434 -136.93661 -1.0840722 53.822605 -1.1076939 53.726765 -29.806307 -107.14393
32762500000 -34.034966 -134.67462 -1.1269106 53.261379 -1.0967783 53.275627 -28.504959 -115.56136
32790000000 -34.291607 -105.32966 -1.141587 52.855831 -1.1388856 52.801693 -29.926985 -113.68857
32817500000 -33.959385 168.38196 -1.1355515 51.877769 -1.1135741 51.88377 -29.951149 -130.97476
32845000000 -32.718063 -128.03661 -1.1179271 51.63179 -1.0981698 51.40807 -29.294819 -121.9988
32872500000 -32.361664 -144.62093 -1.1020602 50.972878 -1.1282747 51.001766 -29.974607 -127.18792
32900000000 -36.50058 160.14635 -1.1357175 50.303219 -1.1504772 50.426487 -29.515148 -127.73489
32927500000 -30.028593 -138.38736 -1.1068308 49.945602 -1.0846823 49.985355 -29.126522 -120.65468
32955000000 -35.232933 -156.56316 -1.1196717 49.207634 -1.140475 49.237545 -29.324432 -135.67206
32982500000 -36.867535 -170.72624 -1.138314 48.794296 -1.1330392 48.757206 -30.313669 -141.45552
33010000000 -30.547697 -170.37212 -1.1139488 48.093121 -1.0998604 48.090904 -28.993248 -137.4035
33037500000 -34.422611 -145.71477 -1.1018263 47.825237 -1.1015421 47.702354 -29.186676 -132.43854
33065000000 -31.786135 168.41029 -1.125386 47.052135 -1.1133825 47.165348 -29.155308 -148.98837
33092500000 -31.851377 -179.48746 -1.120572 46.497768 -1.1256903 46.459236 -30.470074 -151.99295
33120000000 -32.883381 -164.36282 -1.1054829 45.746944 -1.104874 45.877953 -29.751312 -149.84084
33147500000 -31.690235 160.42894 -1.1048232 45.32822 -1.1205525 45.243782 -29.857885 -151.30365
33175000000 -31.874384 173.62007 -1.1026071 44.877617 -1.1024623 44.983341 -29.749485 -149.33769
33202500000 -30.409056 176.26039 -1.1127988 44.307388 -1.1211637 44.170719 -29.472198 -149.91664
33230000000 -34.179207 152.80801 -1.1306378 43.577686 -1.1452736 43.733997 -29.848484 -158.92
33257500000 -29.418314 162.1749 -1.1198053 43.127705 -1.1082866 42.983902 -29.726564 -160.19708
33285000000 -30.256428 163.94409 -1.1112098 42.509628 -1.1121861 42.447807 -29.258045 -164.93507
33312500000 -32.093056 -178.89188 -1.0981615 42.080811 -1.1300957 42.108246 -29.055792 -169.87709
33340000000 -29.106825 149.99332 -1.1453676 41.349487 -1.1303855 41.394032 -29.232388 -171.04636
33367500000 -31.5394 170.70796 -1.102159 40.790073 -1.1127369 40.686302 -28.513939 -167.09947
33395000000 -30.566246 149.49913 -1.106903 40.46664 -1.1164985 40.304565 -28.119926 -168.00945
33422500000 -29.418947 146.98199 -1.127816 39.779182 -1.1287222 39.636063 -28.6665 -177.92503
33450000000 -30.219637 154.36975 -1.1259456 39.125896 -1.1167171 38.772106 -28.580564 176.87639
33477500000 -29.898811 144.78442 -1.1631922 38.454273 -1.1269233 38.579918 -28.182034 -176.89949
33505000000 -28.917126 146.25945 -1.1462799 37.913979 -1.1252955 37.855438 -28.443903 172.24242
33532500000 -28.360296 135.38823 -1.1325564 37.423176 -1.1272837 37.365395 -27.834389 174.26575
33560000000 -29.249207 142.45439 -1.1205552 36.824894 -1.1191568 36.773224 -27.814791 -178.35143
33587500000 -28.74144 142.23921 -1.1054072 36.320305 -1.1159254 36.403652 -28.316053 171.64999
33615000000 -26.964106 132.30019 -1.1471492 35.830334 -1.1411238 35.599007 -28.706957 164.75569
33642500000 -27.644428 148.09523 -1.1166549 34.998825 -1.1300356 35.150517 -28.124294 175.2114
33670000000 -27.970041 128.49927 -1.1351013 34.675472 -1.1394123 34.42033 -27.351692 164.79074
33697500000 -26.898634 130.94171 -1.1413682 33.832264 -1.1458101 33.898884 -26.818663 158.16953
33725000000 -27.060686 127.7637 -1.1628234 33.402679 -1.1407255 33.358971 -27.092918 161.87221
33752500000 -28.160978 126.53896 -1.1521684 32.84713 -1.1351739 32.808903 -26.982033 159.85898
33780000000 -25.194153 127.50437 -1.1577523 32.484699 -1.1635725 32.322052 -27.120512 153.60918
33807500000 -26.622347 120.93947 -1.1528276 31.669334 -1.1447759 31.763067 -26.697268 155.51248
33835000000 -25.865084 126.30931 -1.1499553 31.163755 -1.1416287 30.932226 -26.581097 155.89438
33862500000 -25.41 119.5663 -1.1665554 30.627241 -1.1559968 30.658501 -25.266729 151.47705
33890000000 -25.220974 124.62039 -1.1414305 30.057098 -1.169613 29.911533 -25.893328 150.30826
33917500000 -25.444481 124.30581 -1.1350253 29.545671 -1.1549051 29.334156 -26.481556 150.63304
33945000000 -25.567385 116.87544 -1.1506236 28.901426 -1.1565471 28.735937 -25.249121 147.11795
33972500000 -23.093727 126.48492 -1.1838108 28.330484 -1.1630011 28.354336 -26.070545 144.45435
34000000000 -25.887793 117.08644 -1.151234 27.664917 -1.1467713 27.699648 -26.218418 149.61415
34027500000 -24.646191 116.68674 -1.16273 27.065397 -1.1957822 27.218845 -24.286339 146.13422
34055000000 -23.558683 114.52626 -1.1537905 26.624741 -1.1826538 26.873798 -25.300945 142.39365
34082500000 -24.248766 122.01637 -1.1458977 26.171246 -1.1801029 26.01125 -25.963961 143.39619
34110000000 -24.313803 111.25803 -1.167564 25.460308 -1.157581 25.395674 -24.675919 137.11182
34137500000 -23.86302 117.16799 -1.1618017 24.982149 -1.1666303 25.055359 -24.431322 135.56889
34165000000 -23.168137 117.16869 -1.1887269 24.284981 -1.1359051 24.40489 -25.160763 135.64711
34192500000 -24.596251 101.63377 -1.1467676 23.806122 -1.1719551 23.86764 -24.283068 137.73019
34220000000 -23.051414 115.42025 -1.1688187 23.201324 -1.1706514 23.240379 -23.797253 131.40173
34247500000 -22.553848 114.66437 -1.169821 22.614994 -1.1835505 22.656578 -24.548231 135.70377
34275000000 -23.672121 107.86391 -1.1592662 22.066763 -1.1629171 22.215952 -24.80702 134.14349
34302500000 -22.574282 109.14544 -1.1808212 21.722593 -1.187197 21.39023 -23.289202 129.92662
34330000000 -22.744774 113.05075 -1.1934071 20.985315 -1.172532 20.907747 -24.272232 130.07675
34357500000 -23.885826 107.36362 -1.1885902 20.417908 -1.1624691 20.341978 -24.033525 126.61612
34385000000 -21.765797 108.9131 -1.1698153 19.841612 -1.1702732 19.710514 -23.502384 124.83996
34412500000 -22.86129 106.72974 -1.1865294 19.171629 -1.1712347 19.084404 -23.619101 127.72762
34440000000 -22.530411 111.59352 -1.186425 18.717899 -1.1520644 18.661528 -23.725437 118.98338
34467500000 -21.844568 101.26261 -1.1691637 18.154806 -1.1833465 18.147137 -22.954947 124.18285
34495000000 -22.012707 110.71515 -1.1976948 17.688047 -1.210577 17.506893 -22.650639 119.63754
34522500000 -21.389635 101.51652 -1.1931089 17.117571 -1.2076727 17.099585 -23.237423 123.03355
34550000000 -22.1478 101.60116 -1.1905251 16.480885 -1.1887474 16.596291 -22.63489 121.92378
34577500000 -21.204765 105.38317 -1.1945857 15.868158 -1.2018014 15.962576 -22.28577 118.56506
34605000000 -21.764931 98.866417 -1.2204499 15.170073 -1.2089835 15.333262 -23.240919 119.51038
34632500000 -21.105 98.607323 -1.1884016 14.874184 -1.2005398 14.752533 -22.820084 116.07439
34660000000 -20.714317 103.43825 -1.2301289 14.197367 -1.2297028 14.230816 -22.185226 116.08607
34687500000 -21.596571 94.774399 -1.2009293 13.662418 -1.2158499 13.579884 -22.863894 115.15922
34715000000 -20.499092 98.813141 -1.2168738 13.105424 -1.2330259 13.185463 -22.327568 111.9669
34742500000 -20.875786 96.758453 -1.1861944 12.487205 -1.2319208 12.605821 -21.41324 115.19608
34770000000 -21.410128 101.58786 -1.2170796 11.900141 -1.2209049 12.108933 -22.037884 111.28223
34797500000 -19.708807 94.758675 -1.2292985 11.650121 -1.2005589 11.434501 -21.876478 107.90598
34825000000 -21.462938 97.180061 -1.1986959 11.053741 -1.2655298 10.78945 -21.343609 109.32767
34852500000 -20.198298 97.114601 -1.2151105 10.427043 -1.2365617 10.492563 -21.638575 108.03094
34880000000 -20.169958 93.139137 -1.23487 9.7254257 -1.2431326 9.920928 -22.566755 103.36231
34907500000 -20.416595 95.386009 -1.240129 9.1687279 -1.2196618 9.1703653 -21.313793 108.02953
34935000000 -20.204144 86.563156 -1.2284368 8.6758413 -1.2218912 8.4371967 -21.453737 108.0191
34962500000 -20.122772 94.906357 -1.2457532 8.1344347 -1.2491122 8.1178007 -22.085718 103.81107
34990000000 -19.06955 89.265022 -1.24106 7.6132617 -1.2074342 7.4504156 -21.370626 104.55283
35017500000 -20.882853 91.399284 -1.2584577 7.2061896 -1.2416513 6.9945188 -20.746511 105.11343
35045000000 -19.180162 86.954353 -1.2348944 6.4770122 -1.2760664 6.5470271 -21.435753 102.08511
35072500000 -19.909489 91.991158 -1.2330633 5.8679228 -1.2086382 5.8799009 -21.000401 102.26871
35100000000 -19.904303 85.521568 -1.2338797 5.3423772 -1.2443943 5.175734 -20.205061 105.36954
35127500000 -20.062033 85.065308 -1.263413 5.0928063 -1.2695173 4.7370682 -20.773058 100.50928
35155000000 -18.580662 89.808807 -1.2373123 4.3094816 -1.2600942 4.1019788 -20.958746 95.618202
35182500000 -20.123787 84.773438 -1.2394478 3.7634566 -1.2487382 3.5385959 -20.116514 102.75883
35210000000 -19.284786 79.891289 -1.2594854 3.0918298 -1.2521622 3.0662811 -20.319227 97.965126
35237500000 -18.722649 91.766991 -1.2387526 2.4929419 -1.2412468 2.589118 -20.519106 94.540634
35265000000 -19.405081 81.463242 -1.2262223 1.8954452 -1.2224541 2.1364884 -20.007126 97.229988
35292500000 -19.296133 85.743446 -1.2281034 1.4953861 -1.2333841 1.5935404 -20.232525 98.224586
35320000000 -18.482859 83.394409 -1.2271565 0.86032766 -1.2721472 0.9229449 -20.101198 91.103249
35347500000 -18.893528 86.773682 -1.2468199 0.26269248 -1.2570927 0.33474341 -19.352869 94.229164
35375000000 -18.77153 80.172211 -1.2435493 -0.31534138 -1.2471348 -0.27378616 -19.56422 94.589661
35402500000 -18.68832 77.473816 -1.2353172 -0.88331681 -1.2184193 -0.95919782 -19.763836 93.97879
35430000000 -18.635857 85.019836 -1.2692236 -1.1499807 -1.2555401 -1.3249639 -19.469021 94.261597
35457500000 -18.475641 74.886902 -1.243813 -2.2196658 -1.2243626 -2.0692575 -19.232086 93.879486
35485000000 -18.678579 76.922195 -1.2658492 -2.354151 -1.2579831 -2.3346045 -19.625101 87.198006
35512500000 -17.371508 85.161728 -1.2924668 -3.2046554 -1.2397468 -2.9317002 -19.140085 88.030365
35540000000 -19.817678 75.639206 -1.2553217 -3.6509006 -1.2559435 -3.6213996 -18.542524 90.593842
35567500000 -17.537682 75.188484 -1.2683257 -4.1038489 -1.2572777 -4.3860106 -18.882753 87.540649
35595000000 -18.188608 83.146347 -1.2566262 -4.6108584 -1.2586638 -4.7464838 -19.036501 85.014168
35622500000 -18.47653 79.253159 -1.2654287 -5.3987145 -1.2249794 -5.2014561 -18.532091 87.285942
35650000000 -17.741964 70.945473 -1.2488017 -6.0229936 -1.2836523 -5.8899131 -18.509813 85.887115
35677500000 -17.64386 80.504845 -1.2632173 -6.4985838 -1.2685653 -6.2993073 -18.908371 82.325401
35705000000 -18.322052 75.579094 -1.2771823 -7.0039511 -1.2708831 -7.0189595 -18.358881 84.212723
35732500000 -17.768953 66.811432 -1.2764471 -7.5735049 -1.2745197 -7.3500323 -18.399309 84.722572
35760000000 -17.273554 76.301865 -1.2699376 -8.0897751 -1.2911291 -8.3319969 -18.60862 79.468704
35787500000 -17.793192 77.828781 -1.2576922 -8.5062437 -1.2698321 -8.7879744 -18.32313 80.267174
35815000000 -18.195919 66.146423 -1.283181 -9.1544151 -1.2623348 -9.1300831 -18.170872 83.79718
35842500000 -16.634251 67.933533 -1.332554 -9.8372517 -1.2695638 -9.7744837 -18.266901 78.081192
35870000000 -18.052906 75.994423 -1.2686665 -10.15737 -1.2921249 -10.568906 -18.626827 78.328239
35897500000 -17.28875 68.168114 -1.2564807 -10.842658 -1.261198 -10.642816 -18.045746 80.474174
35925000000 -16.657032 63.282646 -1.284188 -11.461219 -1.2700021 -11.471829 -17.9312 78.249596
35952500000 -17.206192 80.620224 -1.2834363 -12.358634 -1.282997 -12.003762 -18.194237 75.973946
35980000000 -17.545546 63.360298 -1.3226254 -12.41706 -1.2684599 -12.664442 -18.059828 77.082466
36007500000 -17.03371 63.712673 -1.2882317 -13.142096 -1.2915766 -13.093609 -17.663548 76.038223
36035000000 -16.835485 71.044334 -1.2971331 -13.805629 -1.2969729 -13.602233 -17.441481 71.173683
36062500000 -17.490885 64.776466 -1.2853489 -14.09614 -1.3051438 -14.274634 -17.680429 75.12674
36090000000 -16.492939 62.660233 -1.3037103 -14.706362 -1.2643275 -14.604377 -17.478523 73.352768
36117500000 -16.601019 66.76757 -1.2854227 -15.068743 -1.3295723 -15.419956 -17.558056 72.143066
36145000000 -17.745262 68.452393 -1.3295143 -16.156818 -1.3008643 -15.828954 -17.632334 72.901512
36172500000 -15.918118 59.563377 -1.3363723 -16.50955 -1.3042619 -16.380192 -16.966244 73.342384
36200000000 -16.240442 61.750629 -1.3123034 -17.080698 -1.3242435 -16.71319 -17.235312 70.3535
36227500000 -17.043905 70.655602 -1.3475417 -17.732788 -1.3363514 -17.545246 -17.20554 69.751671
36255000000 -16.738415 54.334232 -1.3251609 -18.171677 -1.2734272 -18.13274 -17.434187 71.597458
36282500000 -15.938936 61.841682 -1.3199483 -18.593624 -1.2970531 -18.689241 -17.014196 70.163246
36310000000 -16.519732 66.540726 -1.3014201 -19.012087 -1.330585 -19.398359 -17.306732 66.553375
36337500000 -16.526358 50.037083 -1.3140743 -19.888157 -1.3196108 -19.927473 -17.214354 68.549057
36365000000 -15.363961 62.613621 -1.3398473 -20.18516 -1.311504 -20.12406 -16.760223 67.767136
36392500000 -16.172619 61.328476 -1.3641466 -20.762541 -1.2918698 -20.829136 -16.877184 68.242699
36420000000 -17.587557 57.612484 -1.3344666 -21.377506 -1.3234357 -21.407238 -16.84083 64.841125
36447500000 -14.93713 53.903049 -1.3196148 -22.130499 -1.3498042 -22.010727 -16.655319 65.804504
36475000000 -16.36323 61.91626 -1.3225394 -22.663671 -1.3524958 -22.454113 -16.580664 63.566181
36502500000 -16.326307 53.884331 -1.2859869 -22.825933 -1.361317 -23.103392 -16.972311 62.572285
36530000000 -15.215169 50.757774 -1.3276049 -23.428211 -1.3405497 -23.61578 -16.424738 63.617893
36557500000 -15.398943 60.296516 -1.3146341 -24.109377 -1.3239858 -24.165459 -16.690725 63.503281
36585000000 -16.071976 50.798717 -1.3398185 -24.65757 -1.3163965 -24.816967 -16.711594 62.403206
36612500000 -15.628154 50.48315 -1.3388565 -25.210308 -1.3382941 -25.266838 -16.206238 60.364952
36640000000 -14.462794 58.151527 -1.3477319 -25.557188 -1.3677281 -25.665571 -16.317862 62.340885
36667500000 -16.714092 49.477619 -1.3204153 -26.616276 -1.3453777 -26.371782 -16.437588 61.574558
36695000000 -15.257579 48.290909 -1.3706527 -27.030813 -1.335538 -26.841333 -16.196157 60.826401
36722500000 -14.3317 53.128601 -1.3160337 -27.394833 -1.3477824 -27.386065 -15.959506 58.856445
36750000000 -16.975719 51.725716 -1.3647604 -28.117571 -1.3389291 -27.974831 -16.438932 58.965763
36777500000 -14.798096 45.809772 -1.3250087 -28.236881 -1.3583717 -28.542299 -15.92621 55.28561
36805000000 -14.714749 51.011112 -1.3555198 -28.967327 -1.3389231 -29.272289 -15.516431 57.008831
36832500000 -16.095228 54.993469 -1.3797222 -29.5401 -1.3746183 -29.642294 -16.042854 57.029991
36860000000 -15.365932 39.223873 -1.3873037 -30.235937 -1.3780513 -30.324272 -16.039532 55.169037
36887500000 -14.635897 51.701851 -1.35463 -30.738167 -1.3114057 -30.860188 -15.598165 55.162262
36915000000 -16.019247 49.097 -1.3285173 -31.342209 -1.333061 -31.434839 -15.932014 52.646656
36942500000 -15.962861 41.526573 -1.3700775 -31.975281 -1.3579673 -31.96184 -15.836917 51.009335
36970000000 -14.307535 46.267426 -1.3521826 -32.511467 -1.3344673 -32.052681 -15.425819 51.772751
36997500000 -15.071945 48.751457 -1.3442117 -32.974625 -1.3662558 -32.971275 -15.55384 50.288921
37025000000 -16.397305 46.260986 -1.3767918 -33.27401 -1.3938578 -33.458015 -15.864008 49.666927
37052500000 -13.985772 38.52523 -1.3884825 -34.282066 -1.3572699 -34.14394 -15.632607 49.775215
37080000000 -14.781081 54.263153 -1.3975857 -34.565605 -1.3649795 -34.268906 -15.60036 49.341869
37107500000 -16.194109 35.590122 -1.3656421 -35.141003 -1.3274854 -35.356327 -15.851281 50.217297
37135000000 -14.221923 37.661232 -1.3788375 -35.715519 -1.3985429 -35.92683 -15.470226 48.115246
37162500000 -14.913688 50.637806 -1.3299913 -36.198864 -1.3513402 -36.126682 -15.317492 47.192696
37190000000 -15.649408 36.098198 -1.3380409 -36.825851 -1.3750525 -37.095875 -15.604975 46.847256
37217500000 -14.932821 37.806072 -1.3486365 -37.488152 -1.3896408 -37.380005 -15.543913 47.082291
37245000000 -14.103264 46.156212 -1.3330909 -37.744072 -1.3796973 -37.764046 -15.077822 46.864014
37272500000 -16.178566 35.495895 -1.4168246 -38.4189 -1.3732582 -38.419086 -15.581094 47.190456
37300000000 -14.143791 37.142925 -1.3381332 -39.194912 -1.3514603 -38.971237 -15.579465 46.099552
37327500000 -14.564775 40.984589 -1.4036987 -39.513462 -1.3987533 -39.286938 -14.792135 45.100727
37355000000 -14.783686 42.090969 -1.3625705 -40.171246 -1.3872987 -40.109795 -15.318561 44.912834
37382500000 -14.922652 26.129709 -1.3699536 -40.939354 -1.3600717 -40.820164 -15.51878 44.08847
37410000000 -13.713475 40.691315 -1.3976011 -41.201576 -1.3751924 -41.250427 -14.850325 43.810009
37437500000 -15.038504 39.207489 -1.4096236 -41.681797 -1.376816 -41.672642 -15.313337 41.674084
37465000000 -14.577639 27.932682 -1.4153491 -42.288235 -1.4247018 -42.585873 -15.254262 40.609489
37492500000 -14.088727 36.526527 -1.3604753 -42.858131 -1.4240198 -42.970375 -14.806314 41.547329
37520000000 -14.767803 38.719498 -1.3883578 -43.375252 -1.3618635 -43.321274 -14.867016 39.704853
37547500000 -15.149154 25.605883 -1.4100677 -43.980202 -1.4282355 -43.994984 -15.165329 39.855099
37575000000 -13.983377 33.378456 -1.3658075 -44.540714 -1.3772507 -44.599277 -15.118948 36.316784
37602500000 -14.80168 36.136158 -1.3840033 -44.882439 -1.3606697 -45.037567 -14.824205 39.401043
37630000000 -14.741126 27.434298 -1.3938593 -45.606728 -1.4007077 -45.479565 -15.088815 37.064644
37657500000 -13.914319 30.247257 -1.3725835 -46.352036 -1.3927418 -46.003799 -14.933557 37.307648
37685000000 -14.630172 35.179749 -1.4017729 -46.40284 -1.3422455 -46.910271 -14.546826 38.051613
37712500000 -14.622381 27.651884 -1.4102855 -47.352512 -1.3897692 -47.351055 -14.86251 36.109653
37740000000 -14.097403 26.361845 -1.371374 -47.783676 -1.4157238 -47.599045 -14.760947 35.037289
37767500000 -14.099455 34.320667 -1.3864238 -48.382446 -1.4157647 -48.332855 -14.61727 35.456348
37795000000 -14.602455 27.049364 -1.4030328 -48.718277 -1.3847435 -48.820061 -14.550139 33.105026
37822500000 -13.77454 23.457563 -1.4015126 -49.419518 -1.3672436 -49.097046 -14.896832 32.280178
37850000000 -14.831011 31.247036 -1.3831095 -49.73682 -1.4410697 -50.203423 -14.41759 33.767151
37877500000 -14.405196 25.66048 -1.3751011 -50.633339 -1.3791126 -50.585011 -14.570177 32.498951
37905000000 -14.080832 21.70591 -1.3765672 -51.01321 -1.3892609 -50.845009 -14.755184 29.639071
37932500000 -14.124554 28.060364 -1.3973404 -51.492119 -1.4043939 -51.509335 -14.623217 30.604742
37960000000 -14.738328 23.872967 -1.3836697 -52.076397 -1.3473203 -52.134953 -14.330929 32.082802
37987500000 -13.599796 21.791639 -1.3849984 -52.722137 -1.3889372 -52.976627 -14.918059 29.680851
38015000000 -14.347129 23.493795 -1.4116998 -53.334148 -1.3781743 -53.230179 -14.59873 30.150002
38042500000 -14.478513 24.967968 -1.3651493 -53.706318 -1.4172393 -53.798267 -14.509714 29.378492
38070000000 -13.819039 20.359222 -1.423089 -54.390804 -1.4084831 -54.288765 -14.433908 29.19825
38097500000 -13.850447 21.092962 -1.3952657 -54.869884 -1.3838214 -54.824608 -14.54132 26.083641
38125000000 -14.583286 24.835583 -1.4062711 -55.538696 -1.3582624 -55.68795 -14.494637 27.238228
38152500000 -14.225984 15.998229 -1.427832 -56.101379 -1.3859333 -56.035782 -14.326356 26.528994
38180000000 -13.713243 20.862036 -1.410279 -56.326763 -1.4007038 -56.504997 -14.307184 24.927015
38207500000 -14.290326 22.16926 -1.3877299 -56.819424 -1.4241006 -57.239326 -14.179979 26.173977
38235000000 -14.482306 16.081102 -1.4063603 -57.583557 -1.4288837 -57.486092 -14.283143 23.988485
38262500000 -13.388622 18.692617 -1.3922992 -58.236866 -1.4077239 -58.324249 -14.150378 22.477329
38290000000 -14.793383 18.389547 -1.3992906 -58.731983 -1.4228444 -59.000595 -14.598283 23.131012
38317500000 -13.950161 17.000856 -1.4100237 -59.441284 -1.3999741 -59.399677 -13.966667 22.487213
38345000000 -13.20761 14.78916 -1.3933423 -59.613052 -1.4120667 -59.612896 -14.074075 19.556496
38372500000 -14.180478 19.293877 -1.403139 -60.284561 -1.3997908 -60.520721 -14.310471 18.193289
38400000000 -13.95791 10.709972 -1.4029588 -60.762032 -1.3935906 -60.933376 -14.036994 19.54707
38427500000 -13.64695 16.484589 -1.4174491 -61.446083 -1.4191213 -61.185158 -14.148911 18.950272
38455000000 -14.265696 13.631404 -1.3843775 -61.966221 -1.4190775 -61.926334 -14.568824 17.285942
38482500000 -14.57153 13.432039 -1.3928175 -62.52298 -1.3871138 -62.749496 -14.356918 20.452654
38510000000 -13.791304 13.505802 -1.4306909 -63.04958 -1.4001424 -63.231678 -14.154102 19.18931
38537500000 -13.812244 13.996516 -1.3964977 -63.77895 -1.4209266 -63.607182 -14.503927 15.814866
38565000000 -14.404512 11.469601 -1.3885623 -63.987152 -1.4259422 -64.021851 -14.374359 17.817848
38592500000 -13.860575 12.710992 -1.4216444 -64.765244 -1.3923244 -64.809441 -14.329838 17.045519
38620000000 -14.284469 11.032786 -1.4015945 -65.395561 -1.4189856 -65.066544 -14.189855 13.25726
38647500000 -14.017393 10.395679 -1.3883513 -65.786926 -1.4197114 -66.016266 -14.614956 14.9
38675000000 -14.32252 8.8420305 -1.4100796 -66.270859 -1.4248413 -66.241127 -13.957998 14.26444
38702500000 -13.608761 9.57617 -1.4236714 -66.55497 -1.4225818 -66.69059 -13.898535 11.558172
38730000000 -14.372965 7.70226 -1.4148668 -67.64283 -1.4308006 -67.431625 -14.553265 14.267887
38757500000 -14.041392 8.1205559 -1.4324487 -68.159882 -1.3994439 -67.894363 -14.350895 12.898379
38785000000 -13.510431 10.952986 -1.3814212 -68.42971 -1.4123315 -68.459824 -13.720886 12.054152
38812500000 -14.192528 7.707334 -1.3983443 -69.288864 -1.4003136 -69.302979 -14.373053 11.368711
38840000000 -13.967233 4.1265383 -1.4551491 -69.700096 -1.3734244 -69.683556 -14.469341 12.079208
38867500000 -13.915554 7.2909288 -1.4244848 -70.187103 -1.3935863 -70.08046 -13.801324 10.320987
38895000000 -14.038552 9.2849064 -1.3959932 -70.671318 -1.4294999 -70.735786 -14.378326 8.1345196
38922500000 -14.180683 0.57076883 -1.4106666 -71.279976 -1.360811 -71.113266 -14.580858 8.6787834
38950000000 -13.868532 3.8438492 -1.4139838 -71.789276 -1.401961 -71.95507 -13.825809 9.2524395
38977500000 -13.84178 4.7345395 -1.4217489 -72.13118 -1.3714961 -71.900322 -14.07112 5.903769
39005000000 -14.192519 3.1544197 -1.3893032 -72.815994 -1.3712338 -72.947281 -14.591677 7.3506737
39032500000 -14.032951 0.6612519 -1.423435 -73.203125 -1.4045854 -73.534225 -13.923446 6.8532014
39060000000 -13.806333 5.047132 -1.4231845 -73.809746 -1.4047327 -74.045212 -13.915976 5.4262543
39087500000 -14.150123 1.5019138 -1.4080948 -74.557434 -1.4556539 -74.564369 -14.539485 5.5513091
39115000000 -13.596098 -1.2475054 -1.4232969 -75.027481 -1.4399087 -75.148323 -14.260685 5.2887564
39142500000 -14.215122 1.9363917 -1.4030482 -75.497131 -1.3864737 -75.525787 -14.038169 5.1315217
39170000000 -14.078547 -1.3709917 -1.4160272 -75.758362 -1.3570317 -76.207245 -14.314262 2.615226
39197500000 -14.201672 -4.5346189 -1.4423252 -76.669716 -1.3553444 -76.760811 -14.520211 3.4721415
39225000000 -13.282329 1.8438761 -1.4380242 -77.076416 -1.4304296 -77.475197 -13.652313 6.0747361
39252500000 -14.272337 0.81482249 -1.3934062 -77.879311 -1.3706645 -78.109497 -14.231831 2.549552
39280000000 -14.11307 -6.0149245 -1.3741604 -78.340034 -1.3742921 -78.234489 -14.596113 -0.35816488
39307500000 -13.881453 -3.4937973 -1.4081656 -78.761147 -1.4169849 -78.79763 -13.875743 3.5171478
39335000000 -14.702188 1.7648135 -1.3814799 -79.601448 -1.3826011 -79.452568 -14.210948 -1.0999614
39362500000 -13.753165 -10.207729 -1.4060518 -80.318207 -1.3595215 -79.9133 -14.635664 -3.0329652
39390000000 -14.063219 -2.3930984 -1.3991759 -80.486732 -1.4060625 -80.548988 -13.981429 1.2175498
39417500000 -14.197573 -3.7021265 -1.4146388 -81.126244 -1.4205959 -81.192291 -14.180429 -0.86660635
39445000000 -14.450296 -5.7027903 -1.3853809 -81.779335 -1.4008665 -81.834473 -14.398078 -3.2552598
39472500000 -13.895892 -9.5700932 -1.3943689 -82.348083 -1.4048672 -82.162003 -14.298406 -2.3187056
39500000000 -14.589449 -3.0748694 -1.4289243 -82.741638 -1.3664167 -82.765236 -13.933226 -2.1585724
39527500000 -14.780044 -8.2181549 -1.3650979 -83.294312 -1.417046 -83.516319 -14.559565 -3.4178214
39555000000 -13.524012 -11.719945 -1.3499073 -83.846046 -1.3587494 -84.08239 -14.443409 -4.1505537
39582500000 -14.536749 -5.5259285 -1.3953224 -84.314407 -1.4375581 -84.404182 -14.004404 -2.593365
39610000000 -14.533966 -5.2262659 -1.4109696 -85.200378 -1.4285667 -85.128685 -14.428418 -4.2749653
39637500000 -14.021286 -17.264538 -1.368198 -85.752663 -1.4250605 -85.446198 -14.241838 -7.7349281
39665000000 -13.651394 -5.852952 -1.374825 -86.009148 -1.3676764 -86.127579 -14.149268 -6.1378126
39692500000 -15.600075 -8.8423033 -1.4238585 -87.048149 -1.3811632 -86.881462 -14.480747 -6.5165172
39720000000 -13.536289 -14.822031 -1.3817844 -87.351471 -1.405226 -87.744049 -14.425801 -8.3547382
39747500000 -13.730262 -6.8478327 -1.4018987 -87.591164 -1.4164943 -87.919868 -13.966562 -7.0013752
39775000000 -15.638983 -12.468431 -1.4396133 -87.995781 -1.4383667 -88.309753 -14.150085 -8.5597849
39802500000 -13.644053 -14.469134 -1.3799449 -88.868568 -1.4399732 -88.866531 -14.293859 -10.046417
39830000000 -13.539989 -10.557751 -1.367139 -88.93512 -1.4037205 -89.287323 -14.040797 -9.9107676
39857500000 -15.44208 -10.572783 -1.4421625 -89.709274 -1.4582704 -90.1092 -13.944737 -8.3196182
39885000000 -13.876399 -14.138032 -1.4269283 -90.531952 -1.3865446 -90.261703 -14.554315 -11.061353
39912500000 -14.21803 -14.063527 -1.3794879 -90.91317 -1.4294624 -90.931969 -14.603401 -13.022353
39940000000 -15.122211 -9.2619047 -1.4362701 -91.823563 -1.4135529 -91.412468 -13.98907 -9.9084177
39967500000 -14.308554 -19.056677 -1.4158289 -91.64827 -1.3976921 -92.064903 -14.53487 -11.765869
39995000000 -14.136633 -15.778591 -1.3741053 -92.376396 -1.3735839 -92.675766 -14.41081 -15.246469
40022500000 -14.292282 -9.0500393 -1.3658278 -93.015236 -1.3903453 -93.174767 -14.42553 -11.749294
40050000000 -16.127375 -24.533266 -1.4030868 -94.02137 -1.427139 -94.173431 -14.628066 -14.262259
40077500000 -12.992838 -15.546493 -1.354205 -94.086761 -1.3179573 -94.210487 -14.598651 -16.655914
40105000000 -15.640961 -15.813058 -1.3745795 -94.574547 -1.3537914 -94.488625 -14.283584 -14.76088
40132500000 -15.648986 -17.239248 -1.3974439 -95.50042 -1.3702723 -95.529259 -14.84738 -14.761703
40160000000 -13.704024 -21.438854 -1.3708571 -95.74173 -1.3872211 -95.973244 -14.718338 -16.751135
40187500000 -14.926767 -13.477201 -1.4085222 -96.276314 -1.366699 -96.346642 -14.61237 -16.319395
40215000000 -16.117834 -22.314238 -1.3700355 -97.178154 -1.3769454 -96.943207 -14.80817 -17.114481
40242500000 -13.7967 -27.141365 -1.3611747 -97.998993 -1.4143118 -97.793167 -15.024734 -19.60416
40270000000 -14.79743 -10.341161 -1.3322374 -98.317894 -1.3208805 -98.23819 -14.780046 -20.877831
40297500000 -15.646282 -30.506317 -1.3473376 -98.751617 -1.3996025 -98.879997 -14.714751 -18.242718
40325000000 -15.034543 -20.114752 -1.3319809 -99.010147 -1.3205079 -99.359222 -15.226635 -19.155176
40352500000 -14.38 -21.260311 -1.3821421 -99.666855 -1.3508279 -99.957291 -14.815859 -19.216442
40380000000 -16.435305 -25.343756 -1.3739991 -100.19917 -1.3583145 -100.5077 -14.763826 -20.591751
40407500000 -14.867115 -24.177731 -1.358031 -101.03671 -1.37186 -100.98878 -14.918851 -20.134005
40435000000 -13.997878 -21.97036 -1.3385197 -101.63229 -1.3163296 -101.2194 -14.926856 -21.840508
40462500000 -16.972626 -24.846933 -1.3538851 -102.09492 -1.3501534 -101.75938 -14.692478 -23.053951
40490000000 -13.776437 -30.175861 -1.3267897 -102.84277 -1.3590591 -102.36662 -14.917054 -23.672243
40517500000 -15.020895 -18.189203 -1.3520858 -102.85876 -1.3390943 -103.20947 -14.955403 -21.921698
40545000000 -15.715795 -25.407465 -1.3433665 -103.34746 -1.3616759 -103.32571 -14.598179 -25.723866
40572500000 -15.363519 -34.766167 -1.3850323 -104.57019 -1.3416697 -104.19655 -15.028633 -25.374949
40600000000 -14.407024 -22.275623 -1.3225032 -104.70941 -1.3468786 -104.63349 -15.09636 -25.55241
40627500000 -15.818918 -26.559359 -1.3334825 -104.92747 -1.3271809 -105.33456 -15.079145 -25.962679
40655000000 -15.867642 -33.432594 -1.366178 -105.5565 -1.3209352 -105.87216 -14.952217 -25.703609
40682500000 -14.831254 -23.022562 -1.2965776 -106.83369 -1.3689133 -106.08999 -15.691798 -25.988115
40710000000 -15.860694 -35.195549 -1.3098543 -106.72753 -1.3307457 -107.00169 -15.497027 -27.637239
40737500000 -15.48123 -28.038219 -1.3760878 -107.16895 -1.307844 -107.31199 -14.862252 -29.081203
40765000000 -15.118725 -35.009243 -1.3056358 -108.41791 -1.3314698 -108.29546 -15.570058 -29.068752
40792500000 -15.503902 -22.071102 -1.350192 -108.35403 -1.30715 -108.63498 -15.427848 -26.851879
40820000000 -16.21806 -41.993904 -1.3144225 -109.30797 -1.3344131 -109.32232 -15.058897 -30.888735
40847500000 -14.693032 -31.925114 -1.2490636 -109.61586 -1.2731923 -109.66676 -15.563957 -33.61388
40875000000 -16.277134 -27.824078 -1.3230772 -109.95887 -1.2975233 -110.15815 -15.565332 -32.119556
40902500000 -15.16359 -39.548706 -1.3454515 -110.85911 -1.3214847 -111.08435 -15.493106 -30.826756
40930000000 -16.295895 -33.390282 -1.3211741 -111.28778 -1.3266306 -111.32406 -15.767387 -34.285732
40957500000 -15.17252 -29.518446 -1.2628292 -112.16773 -1.3216416 -111.85691 -16.114094 -33.833168
40985000000 -17.343916 -40.635822 -1.3382512 -112.25683 -1.3178045 -112.68462 -15.326255 -30.463234
41012500000 -14.946621 -37.700268 -1.3604257 -112.82578 -1.2687501 -113.35006 -15.752282 -36.187153
41040000000 -16.622063 -30.236237 -1.3497297 -113.60331 -1.332478 -113.90092 -16.157904 -34.104145
41067500000 -16.547768 -37.640217 -1.3458788 -114.47211 -1.254624 -114.25208 -15.881899 -32.419807
41095000000 -15.988305 -41.238235 -1.2718508 -115.01077 -1.3489158 -114.78205 -15.786253 -38.110466
41122500000 -16.685635 -31.884529 -1.2799121 -115.24144 -1.2675947 -115.03782 -16.405769 -38.829037
41150000000 -16.525192 -38.239422 -1.249464 -115.91391 -1.217659 -115.80884 -16.131073 -35.777908
41177500000 -15.983651 -42.45665 -1.2914045 -116.32419 -1.3079797 -116.61663 -15.763091 -36.927341
41205000000 -16.699699 -30.189348 -1.2880887 -117.30152 -1.2885668 -117.09588 -16.334667 -38.795425
41232500000 -17.095095 -41.212173 -1.2514076 -117.77085 -1.2547383 -117.7601 -16.462841 -39.966972
41260000000 -16.342182 -41.06163 -1.2629714 -118.22752 -1.2780676 -118.17609 -16.007959 -37.724312
41287500000 -16.758223 -41.20652 -1.2745088 -118.7738 -1.2815951 -118.54628 -16.372665 -43.300762
41315000000 -17.200846 -38.107857 -1.2727659 -119.05606 -1.2830658 -119.13623 -16.935266 -38.953022
41342500000 -16.534883 -40.5172 -1.2960175 -120.0517 -1.2723311 -119.88206 -16.389776 -37.510792
41370000000 -17.438263 -44.61314 -1.2874075 -120.72102 -1.2671639 -120.33472 -16.45969 -42.496174
41397500000 -18.051319 -39.405064 -1.2574579 -120.94131 -1.2646115 -120.82208 -16.644386 -45.318127
41425000000 -15.995733 -47.52388 -1.2454448 -121.40897 -1.2156194 -121.77103 -16.571486 -42.058651
41452500000 -17.82707 -42.462433 -1.2019769 -122.07414 -1.2314609 -122.23565 -16.249487 -46.016907
41480000000 -17.440149 -41.625706 -1.3406875 -122.351 -1.2589619 -122.59944 -17.433733 -44.574951
41507500000 -17.448805 -48.289684 -1.2616096 -123.26668 -1.2321646 -123.35393 -16.955582 -43.973801
41535000000 -17.147589 -42.54493 -1.2604533 -123.72631 -1.2648356 -124.13111 -16.201969 -46.664726
41562500000 -18.248941 -50.93327 -1.2703905 -124.01865 -1.2614241 -123.87488 -16.80521 -51.630478
41590000000 -17.49906 -45.278328 -1.2363745 -124.97829 -1.2375956 -124.87162 -17.912642 -46.676723
41617500000 -17.192995 -45.61219 -1.2291497 -125.72436 -1.2652093 -125.67824 -16.795397 -45.182064
41645000000 -18.571611 -54.69051 -1.2106639 -126.11966 -1.2424079 -125.95461 -17.474348 -53.180462
41672500000 -18.048664 -40.691845 -1.2029145 -127.03174 -1.2675833 -126.27475 -18.227423 -48.190697
41700000000 -18.485975 -57.117527 -1.2406316 -127.60638 -1.2377894 -127.78445 -17.117432 -45.472355
41727500000 -18.432058 -47.506939 -1.3145322 -127.88708 -1.218235 -128.30765 -17.888775 -50.309669
41755000000 -18.863308 -51.845772 -1.2627243 -128.27481 -1.3246933 -128.35205 -17.740211 -51.266396
41782500000 -18.823372 -51.52113 -1.2289827 -128.60724 -1.2739462 -129.04675 -17.659979 -43.340252
41810000000 -18.447231 -45.384968 -1.290104 -129.65968 -1.2302495 -129.72122 -17.047848 -49.829384
41837500000 -18.928398 -60.918198 -1.225209 -130.21768 -1.2248321 -130.24495 -18.62277 -56.761333
41865000000 -18.588856 -42.843369 -1.2255831 -130.77135 -1.2671143 -130.77814 -18.513468 -49.450649
41892500000 -19.080494 -59.10371 -1.2188536 -131.13861 -1.2784206 -131.61607 -17.62468 -53.557083
41920000000 -18.86529 -53.847004 -1.2301859 -131.662 -1.2615279 -131.70845 -18.494587 -59.050819
41947500000 -19.232327 -46.67691 -1.2170557 -132.25398 -1.235974 -132.38499 -18.250006 -55.293255
41975000000 -19.05858 -59.261906 -1.2910469 -133.01971 -1.2571815 -132.85504 -18.097784 -50.342999
42002500000 -18.597534 -52.195511 -1.2628959 -133.50903 -1.2363019 -133.49576 -18.606205 -56.101044
42030000000 -20.725422 -56.573406 -1.1909276 -134.00429 -1.2121023 -133.96762 -19.322943 -54.13578
42057500000 -19.477066 -48.848488 -1.2562827 -134.77348 -1.2695603 -134.71303 -19.093248 -50.326538
42085000000 -19.326601 -62.666065 -1.2768275 -135.31076 -1.2566332 -135.4968 -18.723978 -63.076694
42112500000 -20.378206 -45.544991 -1.2495337 -135.70305 -1.2286481 -135.66109 -19.220304 -61.875977
42140000000 -20.637081 -53.391293 -1.2476095 -136.3954 -1.2549485 -136.72859 -19.695868 -55.461826
42167500000 -19.499739 -60.874043 -1.2167209 -136.90582 -1.2521384 -136.94713 -18.794798 -58.78548
42195000000 -19.707293 -52.262012 -1.2706097 -137.11052 -1.1983153 -136.77542 -19.206125 -62.973145
42222500000 -21.977854 -56.208572 -1.2027088 -138.23953 -1.2713641 -138.11919 -19.461021 -53.965405
42250000000 -19.13875 -60.480656 -1.2257513 -138.66849 -1.2304343 -138.96719 -19.840614 -58.883266
42277500000 -19.632658 -48.633659 -1.2888625 -139.01169 -1.2619654 -139.13443 -19.189211 -65.621864
42305000000 -23.649216 -57.872513 -1.2151448 -139.61681 -1.2184749 -139.76344 -20.438429 -61.142712
42332500000 -18.827295 -62.524967 -1.1459088 -140.17937 -1.2321148 -140.31415 -19.895544 -58.367191
42360000000 -21.292786 -52.105751 -1.2116164 -141.04521 -1.2704717 -140.92284 -19.267481 -68.790817
42387500000 -22.736877 -50.608757 -1.2674206 -141.78915 -1.2110214 -141.69664 -20.846125 -67.785629
42415000000 -21.370939 -78.823608 -1.2043359 -141.99585 -1.213641 -141.8699 -20.604456 -60.28817
42442500000 -19.926748 -49.316502 -1.2344702 -143.21716 -1.2170063 -142.40681 -20.692301 -64.532341
42470000000 -24.563057 -68.332199 -1.1606789 -143.41864 -1.2025198 -143.07477 -22.001808 -64.990082
42497500000 -22.090076 -66.731209 -1.21701 -143.41011 -1.1960021 -143.5 -21.547201 -59.411575
42525000000 -20.362669 -53.526798 -1.2316184 -144.55132 -1.1619766 -144.72351 -20.536541 -72.071823
42552500000 -24.845774 -59.371529 -1.2694882 -145.19568 -1.1946751 -144.85663 -20.552063 -65.978516
42580000000 -25.124113 -75.62487 -1.1921223 -145.64909 -1.1947637 -145.85699 -22.741077 -63.335545
42607500000 -20.220913 -51.811607 -1.2457235 -146.2218 -1.1324892 -146.03555 -20.916563 -71.190506
42635000000 -26.45162 -44.888294 -1.2152106 -146.82182 -1.1513686 -146.50981 -22.096174 -69.138611
42662500000 -23.482807 -70.348938 -1.1833642 -147.36989 -1.2114155 -147.16705 -21.841063 -65.566261
42690000000 -22.613628 -60.61636 -1.1769491 -147.64674 -1.237956 -147.64879 -22.230833 -69.634567
42717500000 -22.19549 -38.917049 -1.2333649 -148.55406 -1.2513896 -148.12886 -22.600182 -71.026787
42745000000 -25.434483 -101.46615 -1.2276229 -149.12178 -1.1648315 -148.79527 -23.60202 -64.648026
42772500000 -21.624426 -61.624092 -1.2716563 -149.35994 -1.194689 -149.61745 -23.335037 -64.164604
42800000000 -23.405951 -48.485889 -1.2270982 -150.23022 -1.1960351 -149.86047 -23.201586 -71.834961
42827500000 -29.403526 -102.63158 -1.2289312 -150.88811 -1.249892 -150.38745 -24.238756 -72.053116
42855000000 -22.822287 -53.321209 -1.2083966 -150.96735 -1.2516814 -151.09564 -23.571533 -67.187386
42882500000 -24.494175 -47.490452 -1.1910355 -151.47696 -1.2340775 -152.05315 -23.241362 -83.135124
42910000000 -32.784481 -74.912247 -1.2290425 -152.21739 -1.2679263 -152.14931 -25.433144 -70.405952
42937500000 -23.886858 -88.960106 -1.2002251 -152.99574 -1.1950759 -153.0531 -24.301243 -75.669518
42965000000 -24.481236 -22.396313 -1.1543223 -153.49879 -1.2072601 -153.76721 -25.121294 -81.058365
42992500000 -33.287071 -95.207466 -1.2243664 -154.19649 -1.2024293 -153.92653 -26.623005 -77.675438
43020000000 -23.510309 -94.04184 -1.1383742 -155.08017 -1.2193574 -154.75031 -24.246836 -76.984901
43047500000 -23.35494 -34.913979 -1.1986618 -155.31676 -1.2159629 -155.3875 -26.174414 -68.330437
43075000000 -36.064144 -118.09565 -1.1749645 -156.002 -1.1953219 -155.87323 -25.024107 -86.899811
43102500000 -30.498289 -101.54106 -1.3033832 -156.27982 -1.1563457 -156.54071 -25.938213 -62.804764
43130000000 -23.584372 -45.836079 -1.2281175 -156.90932 -1.2261324 -156.87798 -25.183901 -74.294456
43157500000 -37.759254 -32.107155 -1.2183237 -157.72903 -1.2577863 -157.48456 -26.972265 -92.426292
43185000000 -33.137379 -83.361961 -1.2144986 -158.3139 -1.1338586 -158.29395 -27.932096 -79.583023
43212500000 -24.532446 -60.400578 -1.2132326 -158.89748 -1.2304058 -158.74319 -24.868397 -84.960876
43240000000 -26.832821 28.637163 -1.299418 -159.46989 -1.2137188 -159.55434 -27.54454 -97.685455
43267500000 -27.02083 -104.61607 -1.247829 -159.93237 -1.2502848 -160.34888 -28.329374 -64.894318
43295000000 -31.758123 -51.297295 -1.2417419 -160.25043 -1.2507699 -160.37114 -28.615294 -73.907898
43322500000 -24.137201 -19.338379 -1.2492148 -161.28647 -1.1896545 -161.22266 -31.120289 -101.48141
43350000000 -30.602989 -153.33022 -1.3047289 -162.30632 -1.1545174 -162.02925 -31.554888 -91.421478
43377500000 -27.008434 -51.720764 -1.2378775 -162.33578 -1.2242172 -162.68292 -30.786924 -78.466545
43405000000 -33.670895 -23.248608 -1.1639171 -162.53038 -1.1999536 -162.75819 -31.687866 -70.434875
43432500000 -37.448761 101.77096 -1.2633197 -163.35718 -1.3247759 -163.63307 -29.35565 -106.87212
43460000000 -26.505144 -78.022781 -1.2194952 -164.38538 -1.2252872 -163.34119 -32.275936 -87.232109
43487500000 -27.294699 18.691931 -1.2706715 -165.15979 -1.1894209 -164.69714 -29.72728 -71.868507
43515000000 -36.6623 45.638931 -1.2215325 -165.19415 -1.2067567 -165.61794 -31.639431 -94.515221
43542500000 -29.681881 -125.35702 -1.2230318 -165.83578 -1.2029725 -165.47311 -35.880466 -78.168404
43570000000 -28.916597 14.315652 -1.238261 -166.34703 -1.1182898 -166.45821 -39.175632 -77.245476
43597500000 -37.040554 20.284842 -1.2359557 -166.91945 -1.2326659 -166.98402 -34.052822 -132.01178
43625000000 -38.237167 -171.31287 -1.2056909 -167.66716 -1.248224 -167.45166 -40.321461 -66.708702
43652500000 -26.601851 -4.9138908 -1.2097574 -168.15036 -1.1707693 -168.26709 -35.785637 -83.019592
43680000000 -27.808439 52.986744 -1.2163496 -168.4308 -1.2286533 -168.73334 -33.475365 -156.88205
43707500000 -39.834068 119.22617 -1.2717153 -169.38354 -1.2969656 -169.41345 -44.505207 -166.95261
43735000000 -30.830484 -43.676144 -1.254238 -170.04648 -1.2420609 -169.69899 -42.840374 16.388388
43762500000 -23.461336 55.858349 -1.2351201 -170.67438 -1.278161 -170.24948 -39.333427 -130.15123
43790000000 -33.723949 -169.57663 -1.2044636 -170.69904 -1.2394369 -171.0676 -51.33218 -80.149452
43817500000 -28.192402 20.116228 -1.1876974 -171.85899 -1.2549969 -171.71927 -49.265202 147.26064
43845000000 -24.500416 43.233936 -1.2676543 -171.99693 -1.1922879 -172.39043 -37.538414 -173.80965
43872500000 -44.834915 109.26207 -1.3162252 -172.81868 -1.2703326 -172.21899 -35.017612 134.27264
43900000000 -31.870409 7.5560412 -1.1903974 -173.4366 -1.235954 -172.8447 -31.986654 70.100189
43927500000 -27.278963 32.908581 -1.2294263 -174.36725 -1.2752664 -173.9688 -39.571609 43.726856
43955000000 -25.974182 78.390587 -1.261979 -174.00421 -1.3016915 -174.13354 -35.340145 124.85969
43982500000 -33.59742 15.444965 -1.2215743 -175.10246 -1.2295753 -175.12502 -30.704287 63.429714
44010000000 -27.468225 36.107418 -1.1768306 -175.64525 -1.2773275 -175.61304 -36.156849 107.54827
44037500000 -24.540382 49.185234 -1.2955585 -175.63773 -1.286415 -176.18564 -30.83246 107.45576
44065000000 -37.120296 56.729141 -1.2736487 -176.21878 -1.3413492 -176.59875 -30.684361 89.620483
44092500000 -25.707493 54.160076 -1.2669213 -177.12236 -1.2151605 -177.32254 -31.285711 73.62114
44120000000 -22.621382 62.992313 -1.316849 -177.58279 -1.2046489 -178.04832 -34.043629 83.027443
44147500000 -34.922085 114.57616 -1.2863544 -178.80162 -1.3208627 -178.74313 -29.31468 97.537598
44175000000 -23.274414 27.120617 -1.2184416 -179.21729 -1.2604064 -179.13803 -28.707947 74.070213
44202500000 -20.879341 67.256027 -1.2341535 -179.46725 -1.2206577 -179.8167 -33.482861 73.337898
44230000000 -27.282915 44.239063 -1.3015419 179.28296 -1.2965311 179.76422 -28.615932 96.437569
44257500000 -25.328823 34.065639 -1.2579513 179.90735 -1.2828289 179.03322 -26.938215 79.668159
44285000000 -21.834263 67.002739 -1.2622417 178.68829 -1.2416471 178.63475 -28.344309 59.005711
44312500000 -23.411053 53.708755 -1.299515 177.85092 -1.2863423 178.69942 -26.973167 88.909882
44340000000 -29.934544 47.844212 -1.3103247 177.77745 -1.2777535 177.52208 -26.635452 65.992149
44367500000 -19.80835 52.942711 -1.2337673 176.65646 -1.2506446 177.03645 -25.795183 77.291992
44395000000 -23.94717 75.136032 -1.2575352 176.58601 -1.3176547 176.36082 -29.07781 87.596176
44422500000 -26.6521 43.422894 -1.3365866 175.55022 -1.303977 175.79547 -24.150631 71.76638
44450000000 -19.85483 53.373367 -1.3240122 174.8434 -1.24466 175.1153 -26.466101 70.866386
44477500000 -23.082455 69.239548 -1.3111629 174.89922 -1.2331449 174.71239 -25.827507 71.320404
44505000000 -24.756533 48.530991 -1.3497583 173.96249 -1.3381469 173.92281 -24.16165 82.541862
44532500000 -21.136032 53.728779 -1.3243176 172.94502 -1.2871189 173.28804 -25.332029 60.986748
44560000000 -21.154491 73.974991 -1.3160334 173.10638 -1.2959456 172.94099 -25.559269 78.165489
44587500000 -23.085041 29.636789 -1.3602915 172.45111 -1.3616099 172.0432 -23.575264 76.952187
44615000000 -20.592615 45.422714 -1.2666212 172.14502 -1.3750012 172.06505 -23.506088 72.832321
44642500000 -19.824705 61.354069 -1.2397505 171.94658 -1.3086301 171.00101 -24.471088 64.170876
44670000000 -23.383963 49.182777 -1.2939813 170.32584 -1.3259361 170.95468 -22.278378 71.949654
44697500000 -20.173172 40.327911 -1.3390647 170.00732 -1.2631581 170.57669 -21.901989 67.374016
44725000000 -18.713428 65.515823 -1.3205823 169.32805 -1.3384844 169.63846 -23.159458 62.441616
44752500000 -22.15539 52.561981 -1.2821324 169.06657 -1.3193671 169.10526 -22.17909 73.835999
44780000000 -18.476149 45.074028 -1.3398603 167.87155 -1.3638546 167.86345 -21.309267 71.97419
44807500000 -21.522383 66.861176 -1.3274984 167.58969 -1.318222 168.08913 -22.423069 59.436493
44835000000 -19.049107 60.914707 -1.299088 167.23009 -1.334788 167.4512 -21.790699 68.284843
44862500000 -20.894012 34.318249 -1.2998314 166.24788 -1.3126371 166.34801 -21.010723 71.014236
44890000000 -20.106077 62.584164 -1.3498497 166.16646 -1.3210773 166.22638 -20.637253 59.543896
44917500000 -19.412878 52.180462 -1.3596514 165.17686 -1.2920848 166.06091 -21.991581 60.02494
44945000000 -19.70591 39.513599 -1.387081 165.10199 -1.3045307 164.62338 -20.765556 70.298508
44972500000 -18.921972 50.153446 -1.3063072 164.73909 -1.3500394 164.38684 -20.399956 58.669781
45000000000 -18.210827 61.056599 -1.3806403 163.77351 -1.398858 164.35417 -21.471575 56.427921
