!Keysight Technologies,N5247B,MY61255062,A.19.80.06
!Date: Tuesday, May 26, 2026 11:12:56
!Correction: S11(C  2-Port  ) 
!S21(C  2-Port  ) 
!S12(C  2-Port  ) 
!S22(C  2-Port  ) 
!S2P File: Measurements: S11, S21, S12, S22:
# Hz S  dB   R 50
1000000000 -25.529833 -13.93835 -0.46803576 -21.215477 -0.4676826 -21.225435 -26.533941 -11.614433
1027500000 -25.580858 -15.07216 -0.47233033 -21.795437 -0.47169861 -21.796171 -26.535753 -12.631121
1055000000 -25.529613 -15.300563 -0.47689378 -22.358162 -0.47789174 -22.358517 -26.605343 -13.266135
1082500000 -25.626783 -16.052725 -0.48402977 -22.93449 -0.48405033 -22.926636 -26.697735 -13.509521
1110000000 -25.71376 -16.322809 -0.4932189 -23.475874 -0.49299967 -23.477549 -26.775249 -13.562168
1137500000 -25.623672 -16.46419 -0.49677277 -23.989113 -0.49551132 -23.993277 -26.737799 -12.685849
1165000000 -25.443823 -16.162056 -0.49343351 -24.531393 -0.49261141 -24.545561 -26.625637 -12.988975
1192500000 -25.388254 -16.88398 -0.49753031 -25.108568 -0.49758053 -25.099924 -26.660046 -12.95298
1220000000 -25.341352 -17.264235 -0.49726734 -25.651617 -0.49859956 -25.651987 -26.550228 -13.524879
1247500000 -25.314722 -17.576323 -0.497953 -26.219692 -0.49836758 -26.216444 -26.410852 -13.940432
1275000000 -25.354189 -18.485188 -0.49925116 -26.804274 -0.49895903 -26.785959 -26.397284 -14.778412
1302500000 -25.449533 -19.345772 -0.50709045 -27.379675 -0.50655609 -27.386415 -26.496061 -16.232248
1330000000 -25.493389 -19.589474 -0.50970548 -27.916637 -0.50916523 -27.918776 -26.457508 -15.996427
1357500000 -25.483027 -19.98341 -0.51258475 -28.441544 -0.51137811 -28.450443 -26.448706 -15.595888
1385000000 -25.411098 -20.568495 -0.5107305 -28.996756 -0.51040095 -28.996748 -26.369322 -16.110331
1412500000 -25.39546 -21.216232 -0.51107734 -29.563713 -0.51092619 -29.550562 -26.195833 -16.667347
1440000000 -25.390074 -21.868088 -0.51106507 -30.109055 -0.50941873 -30.102095 -26.143429 -16.974649
1467500000 -25.271284 -23.00658 -0.51081032 -30.676928 -0.51026064 -30.670006 -26.138975 -17.743711
1495000000 -25.228704 -23.393108 -0.5111798 -31.242918 -0.51015174 -31.240616 -26.06662 -18.421402
1522500000 -25.183926 -23.68416 -0.51246041 -31.811121 -0.51217002 -31.803944 -26.000322 -18.864927
1550000000 -25.137135 -24.481916 -0.51315022 -32.380444 -0.51260835 -32.375031 -25.971128 -20.077986
1577500000 -25.177439 -25.240746 -0.5159443 -32.965992 -0.51493114 -32.960567 -25.986118 -21.433971
1605000000 -25.153339 -25.273928 -0.51731026 -33.510864 -0.51740241 -33.509113 -25.997362 -21.492722
1632500000 -25.188263 -25.944836 -0.52176774 -34.073597 -0.52077973 -34.079491 -26.025885 -22.497593
1660000000 -25.145227 -26.422234 -0.52167749 -34.615021 -0.52082586 -34.616032 -25.997522 -22.733072
1687500000 -25.053076 -27.083426 -0.52124727 -35.177334 -0.52017331 -35.176888 -25.942848 -22.664341
1715000000 -25.069902 -28.106861 -0.52251363 -35.745602 -0.52133715 -35.742481 -25.894489 -23.320602
1742500000 -24.984259 -28.756742 -0.52061164 -36.306301 -0.52094257 -36.307125 -25.849977 -24.38833
1770000000 -24.968384 -29.409651 -0.52300411 -36.877666 -0.52194315 -36.881718 -25.823349 -24.541534
1797500000 -24.952719 -30.081656 -0.52428788 -37.445889 -0.52326691 -37.445755 -25.756868 -25.133547
1825000000 -24.916723 -30.712297 -0.52515775 -38.009098 -0.52560592 -38.015511 -25.776154 -25.875378
1852500000 -24.901365 -31.453407 -0.52601904 -38.572048 -0.52633756 -38.573872 -25.705416 -26.50338
1880000000 -24.941332 -31.645247 -0.52687234 -39.136841 -0.52738321 -39.139576 -25.706238 -26.96118
1907500000 -24.934217 -32.544189 -0.52854258 -39.706749 -0.52912205 -39.703922 -25.643023 -27.903692
1935000000 -24.847759 -33.030739 -0.52922004 -40.273159 -0.52997655 -40.268524 -25.666046 -28.503525
1962500000 -24.946405 -33.466488 -0.52997977 -40.836063 -0.53199202 -40.844128 -25.631588 -29.062077
1990000000 -25.002089 -34.658638 -0.53514057 -41.412716 -0.53563958 -41.410084 -25.642811 -30.140211
2017500000 -24.96221 -35.064316 -0.53582257 -41.967079 -0.53629559 -41.968445 -25.656059 -30.76811
2045000000 -24.951672 -35.704563 -0.53912103 -42.522583 -0.53760523 -42.52589 -25.601816 -31.13846
2072500000 -24.963739 -36.595985 -0.53722793 -43.077667 -0.53970754 -43.087711 -25.640976 -31.995977
2100000000 -24.910788 -37.16621 -0.53856808 -43.646667 -0.54013079 -43.64233 -25.557837 -32.366943
2127500000 -24.957817 -37.642563 -0.53913128 -44.211269 -0.54005516 -44.205185 -25.581827 -33.125088
2155000000 -24.977167 -38.729645 -0.54140586 -44.77692 -0.54074675 -44.776455 -25.556335 -34.109158
2182500000 -24.912596 -39.320366 -0.54233521 -45.337326 -0.54320639 -45.347725 -25.536514 -34.549835
2210000000 -24.908142 -39.729977 -0.54353964 -45.908405 -0.54503137 -45.909065 -25.543327 -35.07864
2237500000 -24.984579 -40.91431 -0.54437286 -46.465191 -0.54652542 -46.476894 -25.533434 -36.05217
2265000000 -24.889957 -41.551399 -0.54688299 -47.029449 -0.54775035 -47.03186 -25.576271 -36.417191
2292500000 -24.857706 -41.869854 -0.54900092 -47.604366 -0.54800409 -47.601646 -25.492273 -36.903988
2320000000 -24.975761 -42.73526 -0.55180091 -48.172695 -0.55149114 -48.174793 -25.520178 -37.985554
2347500000 -24.872099 -43.465584 -0.55168599 -48.722935 -0.55477738 -48.718277 -25.551138 -38.439987
2375000000 -24.841295 -43.676201 -0.55353868 -49.284908 -0.55520421 -49.286037 -25.525585 -38.455448
2402500000 -24.953794 -44.348179 -0.55534041 -49.846397 -0.55789512 -49.86536 -25.439386 -39.356106
2430000000 -24.955843 -45.395252 -0.55766433 -50.413776 -0.55653077 -50.414402 -25.492811 -40.256615
2457500000 -24.879505 -45.747971 -0.55906117 -50.980446 -0.55923575 -50.984882 -25.455309 -40.446129
2485000000 -24.997105 -46.156715 -0.56089908 -51.541988 -0.56035948 -51.541656 -25.424603 -41.171581
2512500000 -24.993681 -47.199883 -0.56256711 -52.106461 -0.56137329 -52.09795 -25.441355 -41.936832
2540000000 -24.929653 -47.92963 -0.56450611 -52.662148 -0.56597972 -52.662884 -25.395906 -42.570717
2567500000 -24.969538 -48.200085 -0.56584084 -53.219723 -0.56770843 -53.22208 -25.439127 -43.013947
2595000000 -25.078262 -48.979168 -0.5689919 -53.771912 -0.56707919 -53.779339 -25.413092 -43.982151
2622500000 -25.010784 -50.080978 -0.56761104 -54.338936 -0.57041806 -54.347702 -25.38839 -44.828091
2650000000 -24.971661 -50.709976 -0.57072741 -54.901558 -0.57246834 -54.892239 -25.421227 -45.597309
2677500000 -25.111053 -50.847366 -0.57178497 -55.457657 -0.57346606 -55.460621 -25.421371 -46.122181
2705000000 -25.055984 -51.59568 -0.57451606 -56.0116 -0.5733633 -56.017265 -25.437521 -46.78157
2732500000 -25.00712 -52.446564 -0.57574779 -56.577492 -0.57309777 -56.567947 -25.419157 -46.975864
2760000000 -25.058546 -53.005795 -0.57542384 -57.151642 -0.57657689 -57.142265 -25.453642 -48.348362
2787500000 -25.19025 -53.929844 -0.57788455 -57.701439 -0.57900631 -57.700279 -25.400469 -48.957691
2815000000 -25.036226 -54.19376 -0.5795145 -58.266979 -0.57879925 -58.253002 -25.433611 -49.436939
2842500000 -25.132137 -55.405067 -0.5810234 -58.826595 -0.58403391 -58.833828 -25.484774 -50.371185
2870000000 -25.13415 -55.474968 -0.58144718 -59.378864 -0.58490962 -59.389709 -25.481077 -50.711163
2897500000 -25.13793 -56.144547 -0.58497566 -59.938141 -0.58320868 -59.939331 -25.422974 -51.534298
2925000000 -25.090452 -57.068359 -0.58462584 -60.499691 -0.58705389 -60.506699 -25.455359 -52.190769
2952500000 -25.13192 -57.792171 -0.58647013 -61.052563 -0.58775711 -61.055725 -25.554207 -53.138531
2980000000 -25.082401 -57.998341 -0.58742428 -61.616455 -0.58908331 -61.610638 -25.476891 -53.424263
3007500000 -25.149141 -58.515091 -0.59054929 -62.176716 -0.59043807 -62.179119 -25.477665 -53.91478
3035000000 -25.19178 -59.557739 -0.59090722 -62.738342 -0.59137738 -62.725277 -25.590166 -54.784439
3062500000 -25.152111 -59.580807 -0.59351325 -63.28727 -0.59399581 -63.28471 -25.548702 -55.275948
3090000000 -25.222898 -60.167751 -0.59243196 -63.837673 -0.5944562 -63.844162 -25.544405 -55.248486
3117500000 -25.291311 -61.142242 -0.59222728 -64.40313 -0.59682345 -64.411453 -25.626875 -56.373665
3145000000 -25.265175 -61.506046 -0.59537411 -64.968269 -0.59520453 -64.964584 -25.544428 -56.910973
3172500000 -25.281219 -62.038963 -0.5974341 -65.523529 -0.59773415 -65.521973 -25.530935 -57.145199
3200000000 -25.313175 -63.129021 -0.5986979 -66.085503 -0.59834492 -66.085091 -25.568861 -57.773094
3227500000 -25.371117 -63.540699 -0.59843612 -66.64521 -0.59981227 -66.648018 -25.580704 -58.617695
3255000000 -25.342888 -64.22963 -0.59926516 -67.197594 -0.60453194 -67.190369 -25.569094 -59.118011
3282500000 -25.362925 -65.087349 -0.60152328 -67.762787 -0.60443377 -67.768089 -25.596272 -59.467335
3310000000 -25.409195 -65.527054 -0.60271835 -68.310867 -0.60201979 -68.320641 -25.644861 -60.398174
3337500000 -25.444153 -66.181938 -0.60213876 -68.867981 -0.60363293 -68.872047 -25.58312 -61.14975
3365000000 -25.503218 -67.218315 -0.60451704 -69.447205 -0.60756028 -69.422012 -25.603203 -61.285347
3392500000 -25.504744 -67.686943 -0.60634363 -69.985886 -0.60738045 -69.984001 -25.680202 -61.863846
3420000000 -25.490601 -68.440048 -0.60529041 -70.544281 -0.60751295 -70.534523 -25.661045 -63.045296
3447500000 -25.613993 -69.469269 -0.60654426 -71.094002 -0.60865813 -71.092926 -25.642738 -63.137333
3475000000 -25.548441 -70.288551 -0.606897 -71.651878 -0.60711521 -71.651962 -25.643681 -63.201954
3502500000 -25.588909 -70.633339 -0.60717177 -72.21347 -0.60844702 -72.215744 -25.7402 -64.333969
3530000000 -25.641979 -71.152435 -0.60785264 -72.77681 -0.61131626 -72.751648 -25.663404 -65.056274
3557500000 -25.657457 -72.074654 -0.60933006 -73.341255 -0.6127221 -73.328476 -25.652403 -65.232758
3585000000 -25.682888 -72.494598 -0.61000353 -73.894417 -0.61070156 -73.884605 -25.674156 -65.79129
3612500000 -25.748642 -73.081963 -0.61142981 -74.464615 -0.61223978 -74.448364 -25.738314 -66.821152
3640000000 -25.708467 -73.994171 -0.61088747 -75.012604 -0.61518139 -75.014809 -25.675823 -67.208992
3667500000 -25.716499 -74.800011 -0.61245263 -75.577141 -0.61437762 -75.58419 -25.679598 -67.661957
3695000000 -25.879864 -75.115601 -0.61350191 -76.128632 -0.61681521 -76.134811 -25.793787 -68.587929
3722500000 -25.841026 -75.944283 -0.61450976 -76.692726 -0.61631787 -76.687126 -25.745598 -69.090179
3750000000 -25.810633 -76.990799 -0.61508352 -77.24826 -0.61704999 -77.248955 -25.694952 -69.167931
3777500000 -25.909081 -76.658195 -0.61825591 -77.804192 -0.61810613 -77.809799 -25.76882 -70.415131
3805000000 -25.968817 -78.039429 -0.61864662 -78.370255 -0.61926603 -78.371262 -25.838772 -71.117455
3832500000 -25.902563 -79.034882 -0.61915797 -78.91935 -0.61921024 -78.919609 -25.740974 -70.714256
3860000000 -25.858183 -78.785179 -0.6200372 -79.485046 -0.62238353 -79.481613 -25.748428 -71.796265
3887500000 -26.139196 -79.327545 -0.62099427 -80.050293 -0.62312716 -80.053993 -25.83535 -72.580208
3915000000 -26.03887 -81.310898 -0.62227988 -80.608665 -0.62180221 -80.604706 -25.751144 -72.918571
3942500000 -25.942835 -81.963501 -0.62241787 -81.169785 -0.62331724 -81.156738 -25.753311 -73.638268
3970000000 -26.0856 -81.330849 -0.62440115 -81.717087 -0.62571013 -81.716347 -25.846214 -74.376266
3997500000 -26.210426 -83.065849 -0.62600857 -82.270554 -0.62673938 -82.273903 -25.853552 -74.87722
4025000000 -26.056276 -84.151268 -0.62579119 -82.842499 -0.62595296 -82.843887 -25.832623 -75.453239
4052500000 -26.041552 -83.355415 -0.62630397 -83.391472 -0.62778676 -83.386406 -25.915907 -76.192886
4080000000 -26.28046 -84.293709 -0.62753546 -83.961632 -0.62728995 -83.955772 -25.912243 -76.935173
4107500000 -26.18469 -86.75885 -0.6274718 -84.509872 -0.62938255 -84.517555 -25.896807 -77.699257
4135000000 -26.101435 -86.300629 -0.62666249 -85.065849 -0.62982959 -85.069641 -25.976244 -77.678223
4162500000 -26.288317 -86.132019 -0.62923861 -85.637756 -0.63147461 -85.63504 -25.998268 -78.650986
4190000000 -26.316492 -87.870903 -0.62934273 -86.192535 -0.63127017 -86.198174 -25.979086 -78.971214
4217500000 -26.199436 -88.754265 -0.62936878 -86.747055 -0.63120341 -86.75634 -25.920212 -79.594154
4245000000 -26.25663 -88.452072 -0.63098401 -87.319489 -0.63286215 -87.31044 -25.985683 -80.367661
4272500000 -26.480768 -89.301437 -0.63258815 -87.874413 -0.63402605 -87.872673 -26.039879 -80.851311
4300000000 -26.352526 -90.85807 -0.63271904 -88.426682 -0.63517314 -88.436363 -26.012939 -81.234375
4327500000 -26.324612 -90.961288 -0.6332925 -88.99202 -0.635391 -88.993858 -26.033354 -82.440231
4355000000 -26.425272 -91.34668 -0.63517344 -89.552002 -0.63636762 -89.554764 -26.086203 -82.996399
4382500000 -26.470968 -92.23085 -0.63504404 -90.1175 -0.63681126 -90.123802 -26.052223 -82.816734
4410000000 -26.507517 -93.086716 -0.63718146 -90.669189 -0.6396153 -90.680489 -26.120186 -83.651794
4437500000 -26.538057 -93.013748 -0.63822657 -91.23793 -0.6384964 -91.235413 -26.169121 -84.10643
4465000000 -26.593771 -93.840744 -0.6393736 -91.78978 -0.63844186 -91.79483 -26.083546 -84.263916
4492500000 -26.641243 -94.764626 -0.63899088 -92.348869 -0.64020443 -92.353226 -26.153122 -85.34832
4520000000 -26.711685 -95.396484 -0.64159471 -92.906235 -0.64267063 -92.904167 -26.22838 -86.124588
4547500000 -26.698658 -95.871178 -0.64193714 -93.466949 -0.64233387 -93.473473 -26.161633 -86.197861
4575000000 -26.677898 -96.388123 -0.64301908 -94.022346 -0.64255959 -94.019104 -26.167225 -86.63092
4602500000 -26.823689 -97.526772 -0.64498568 -94.585823 -0.64451659 -94.592705 -26.249725 -88.178238
4630000000 -26.839031 -97.881699 -0.64587164 -95.145622 -0.64691347 -95.151184 -26.240347 -88.293709
4657500000 -26.873116 -98.214668 -0.64474154 -95.713181 -0.64826441 -95.706795 -26.205629 -88.683891
4685000000 -26.977758 -99.320885 -0.64596897 -96.276085 -0.64776468 -96.263039 -26.339136 -90.149834
4712500000 -26.984171 -99.782097 -0.646671 -96.826691 -0.64768744 -96.824486 -26.254423 -90.26416
4740000000 -26.937063 -100.64137 -0.64930981 -97.370323 -0.65038973 -97.389542 -26.295555 -90.781944
4767500000 -27.027964 -100.7159 -0.64895481 -97.94857 -0.64994115 -97.941879 -26.323206 -91.779182
4795000000 -27.128548 -102.11237 -0.65012753 -98.500748 -0.65074545 -98.497467 -26.391359 -92.320366
4822500000 -27.090746 -102.24341 -0.65041769 -99.064072 -0.65246791 -99.058403 -26.368219 -92.17289
4850000000 -27.136286 -103.02444 -0.65015459 -99.618874 -0.65315562 -99.623337 -26.435898 -93.349686
4877500000 -27.259331 -104.00707 -0.65241945 -100.18791 -0.65364099 -100.18383 -26.487644 -94.313248
4905000000 -27.22995 -103.92395 -0.65317398 -100.74545 -0.65473974 -100.74329 -26.435295 -94.122086
4932500000 -27.293524 -104.83717 -0.65295345 -101.30986 -0.6548655 -101.28454 -26.496063 -94.954643
4960000000 -27.348795 -105.74446 -0.65486884 -101.86073 -0.65639544 -101.86307 -26.532719 -96.210381
4987500000 -27.384779 -105.92009 -0.65777165 -102.41967 -0.6574536 -102.4083 -26.488955 -96.260933
5015000000 -27.417585 -106.25204 -0.65698653 -102.97199 -0.65881389 -102.97596 -26.518414 -96.492065
5042500000 -27.542442 -107.36012 -0.65752828 -103.53853 -0.65847588 -103.54012 -26.64168 -97.930923
5070000000 -27.485674 -107.76249 -0.65726656 -104.09377 -0.66055888 -104.08388 -26.566957 -97.916351
5097500000 -27.602196 -107.90876 -0.65890729 -104.65777 -0.6610176 -104.65576 -26.621912 -98.252579
5125000000 -27.713751 -109.75323 -0.66129547 -105.22003 -0.66136211 -105.2103 -26.684792 -99.832481
5152500000 -27.733908 -110.18667 -0.66208142 -105.77117 -0.66325676 -105.76545 -26.67152 -100.13717
5180000000 -27.780581 -110.46471 -0.66175157 -106.33253 -0.66320795 -106.31876 -26.67909 -100.13986
5207500000 -27.843294 -111.34009 -0.66400111 -106.89952 -0.66641355 -106.89075 -26.776665 -101.73708
5235000000 -27.855909 -112.14524 -0.66542774 -107.42538 -0.66729128 -107.4469 -26.74946 -102.57905
5262500000 -27.99415 -112.04009 -0.66683549 -108.00749 -0.66736579 -107.99444 -26.769646 -102.14368
5290000000 -28.09058 -113.09563 -0.66688406 -108.56684 -0.66730845 -108.56243 -26.926435 -102.90619
5317500000 -28.031208 -114.50903 -0.66701144 -109.11224 -0.6689744 -109.12669 -26.914799 -104.3037
5345000000 -28.126699 -114.80308 -0.66851664 -109.68194 -0.66902304 -109.68181 -26.856073 -104.35779
5372500000 -28.296421 -115.31525 -0.66836268 -110.24068 -0.67072374 -110.237 -26.955122 -104.78635
5400000000 -28.271215 -117.33764 -0.66963547 -110.79728 -0.67256325 -110.79661 -27.064682 -106.56618
5427500000 -28.167381 -116.69837 -0.6697104 -111.33395 -0.67230248 -111.34718 -26.947414 -106.22558
5455000000 -28.380268 -117.1401 -0.67117 -111.90579 -0.67305231 -111.90775 -27.039484 -106.55231
5482500000 -28.33342 -119.09268 -0.6724599 -112.45988 -0.6731475 -112.47701 -27.175686 -108.13605
5510000000 -28.429943 -118.82519 -0.67409456 -113.02081 -0.67478305 -113.02522 -27.117752 -108.55733
5537500000 -28.605221 -119.07545 -0.67415023 -113.57699 -0.67438149 -113.5779 -27.163376 -108.40622
5565000000 -28.568539 -121.24499 -0.67466086 -114.13952 -0.67522544 -114.15134 -27.274931 -109.70597
5592500000 -28.582504 -120.5217 -0.67561013 -114.6794 -0.67603505 -114.69689 -27.310785 -110.17223
5620000000 -28.794825 -120.49236 -0.67530948 -115.24618 -0.67739087 -115.25539 -27.290733 -110.2179
5647500000 -28.790159 -122.66542 -0.67495269 -115.80328 -0.67916209 -115.8256 -27.357824 -111.25976
5675000000 -28.708714 -122.74241 -0.67674768 -116.37489 -0.6800608 -116.36565 -27.428267 -112.19059
5702500000 -29.04884 -122.58458 -0.67813826 -116.9286 -0.67960399 -116.9342 -27.421768 -112.13568
5730000000 -29.125576 -124.72559 -0.67996156 -117.47805 -0.68050742 -117.50255 -27.509253 -112.64162
5757500000 -28.856012 -125.64051 -0.67995608 -118.04791 -0.6815424 -118.04852 -27.552261 -114.11309
5785000000 -29.226446 -124.76916 -0.68073207 -118.58312 -0.6828745 -118.59771 -27.597071 -114.57867
5812500000 -29.438702 -126.89818 -0.68236589 -119.15108 -0.6832341 -119.1588 -27.58053 -115.1216
5840000000 -29.209305 -128.10225 -0.68170232 -119.70335 -0.68474799 -119.7186 -27.764551 -115.92699
5867500000 -29.340258 -127.40535 -0.68225324 -120.26434 -0.68430674 -120.27268 -27.764915 -115.96496
5895000000 -29.59671 -129.09697 -0.68486887 -120.83217 -0.68499649 -120.83363 -27.826031 -116.95145
5922500000 -29.471884 -130.39195 -0.68261582 -121.38084 -0.68544781 -121.38094 -27.888847 -117.77224
5950000000 -29.582455 -129.3093 -0.68406004 -121.94157 -0.68617082 -121.93355 -27.962055 -118.00986
5977500000 -29.885254 -130.79094 -0.6848616 -122.49895 -0.68526745 -122.49854 -27.983299 -118.65569
6005000000 -29.711256 -132.00301 -0.68674684 -123.06023 -0.68642426 -123.05509 -28.013481 -120.05746
6032500000 -29.782368 -131.82751 -0.68661892 -123.60342 -0.68703008 -123.62476 -28.058083 -120.18946
6060000000 -30.233065 -132.20285 -0.6878913 -124.1668 -0.68795866 -124.16956 -28.184975 -120.45693
6087500000 -30.119839 -134.80174 -0.68870723 -124.7282 -0.68753499 -124.73985 -28.305624 -121.84562
6115000000 -29.956369 -133.87904 -0.68787795 -125.28239 -0.69011134 -125.29311 -28.282452 -122.53152
6142500000 -30.633989 -133.94499 -0.69048065 -125.83768 -0.6891374 -125.85068 -28.345497 -122.53995
6170000000 -30.635019 -138.05724 -0.69090033 -126.38889 -0.69109792 -126.41105 -28.479094 -123.17376
6197500000 -30.236547 -135.89539 -0.69073677 -126.96095 -0.69047368 -126.96699 -28.515741 -124.14584
6225000000 -30.798332 -135.81195 -0.68941408 -127.52203 -0.69096982 -127.50696 -28.537857 -123.958
6252500000 -31.144398 -138.93762 -0.69096589 -128.06805 -0.69207871 -128.06233 -28.715523 -124.38393
6280000000 -30.409248 -138.89191 -0.69169557 -128.63058 -0.69255531 -128.62965 -28.782185 -125.88984
6307500000 -31.055155 -135.50595 -0.68956244 -129.1631 -0.68968165 -129.16579 -28.76074 -125.84705
6335000000 -31.82185 -139.82086 -0.6908105 -129.72475 -0.69077229 -129.72203 -28.83946 -125.20431
6362500000 -31.017311 -142.69698 -0.69029582 -130.30568 -0.690938 -130.31294 -29.029129 -126.34313
6390000000 -31.101576 -137.46028 -0.690467 -130.86215 -0.68846393 -130.86604 -29.151777 -127.31853
6417500000 -32.19577 -140.17183 -0.69170588 -131.42754 -0.69231486 -131.42647 -29.071468 -127.49433
6445000000 -31.723928 -145.17018 -0.69350696 -131.99957 -0.69376081 -132.0011 -29.088392 -128.73802
6472500000 -31.219395 -141.32079 -0.68944317 -132.55713 -0.691953 -132.53607 -29.322502 -128.54994
6500000000 -32.319065 -140.4445 -0.69307542 -133.10399 -0.69430357 -133.09494 -29.36116 -128.36591
6527500000 -32.373726 -145.55852 -0.69276333 -133.66171 -0.69446367 -133.65604 -29.400467 -130.29475
6555000000 -31.446297 -145.48766 -0.69311523 -134.21974 -0.69312555 -134.22139 -29.472452 -131.02924
6582500000 -32.250015 -142.59032 -0.69251889 -134.77956 -0.69416505 -134.77982 -29.493572 -129.93781
6610000000 -32.764404 -146.2307 -0.69381094 -135.34891 -0.69281888 -135.34584 -29.661917 -130.72343
6637500000 -32.240219 -147.84177 -0.69411069 -135.9173 -0.69334507 -135.90768 -29.782984 -132.76836
6665000000 -32.302143 -145.89801 -0.69314802 -136.48117 -0.69475949 -136.47287 -29.652128 -132.15013
6692500000 -33.008392 -146.93768 -0.6946128 -137.03745 -0.69702071 -137.03923 -29.762589 -131.73985
6720000000 -32.790821 -149.23 -0.69463772 -137.58296 -0.69545156 -137.60281 -30.06665 -134.07372
6747500000 -32.579567 -148.68793 -0.69482571 -138.15726 -0.69537377 -138.15755 -29.991306 -134.24135
6775000000 -33.292233 -149.37212 -0.69744623 -138.72319 -0.69640869 -138.72566 -29.858202 -133.20673
6802500000 -33.177124 -151.07944 -0.69733137 -139.2903 -0.70134014 -139.2851 -30.247889 -133.55154
6830000000 -33.053776 -151.36226 -0.69792837 -139.84195 -0.70017785 -139.83878 -30.456539 -136.16249
6857500000 -33.430958 -151.70232 -0.70015413 -140.39574 -0.70107788 -140.40665 -30.087044 -134.69417
6885000000 -33.442757 -153.43311 -0.70012307 -140.96336 -0.70147306 -140.95755 -30.283539 -134.18295
6912500000 -33.385128 -152.84402 -0.70158869 -141.5285 -0.69940233 -141.52052 -30.626886 -136.48604
6940000000 -33.732849 -153.86543 -0.6994881 -142.07936 -0.70312691 -142.0778 -30.464846 -138.01936
6967500000 -34.025875 -156.58578 -0.70210779 -142.64272 -0.70186436 -142.64073 -30.370924 -136.1902
6995000000 -34.08226 -154.07564 -0.70469981 -143.20056 -0.70198029 -143.19814 -30.85331 -137.07304
7022500000 -34.187847 -154.87572 -0.70288467 -143.76245 -0.70369852 -143.76366 -30.908478 -139.93004
7050000000 -34.799442 -159.49304 -0.70329952 -144.34016 -0.70269173 -144.32387 -30.650661 -137.7605
7077500000 -34.383732 -156.84689 -0.70440203 -144.8958 -0.70500064 -144.896 -31.034416 -137.81531
7105000000 -34.398464 -157.85555 -0.70479476 -145.45987 -0.70517236 -145.46877 -31.290508 -140.70461
7132500000 -35.086407 -159.78189 -0.70678616 -146.01567 -0.70737988 -146.02309 -30.844141 -140.21527
7160000000 -34.876564 -160.94247 -0.70624888 -146.58455 -0.70887536 -146.57896 -31.185373 -138.26132
7187500000 -34.673428 -160.96715 -0.70977664 -147.14911 -0.70864832 -147.14537 -31.601084 -142.29417
7215000000 -34.914345 -161.18379 -0.71137446 -147.70518 -0.71294945 -147.71513 -31.334785 -141.86436
7242500000 -35.43119 -162.71338 -0.71273774 -148.2701 -0.71605891 -148.28055 -31.148077 -139.16066
7270000000 -35.457951 -163.97374 -0.71390069 -148.81633 -0.71639043 -148.83075 -31.928314 -143.168
7297500000 -35.300598 -165.92131 -0.71416914 -149.37833 -0.71724749 -149.37819 -31.683519 -144.78349
7325000000 -36.048214 -165.1154 -0.71689236 -149.92732 -0.71676415 -149.94002 -31.361353 -141.62727
7352500000 -36.107929 -163.08566 -0.71571338 -150.48184 -0.71687281 -150.47285 -32.374382 -143.65671
7380000000 -36.551243 -168.98097 -0.71698368 -151.05594 -0.7172212 -151.05251 -32.034126 -146.45663
7407500000 -36.385296 -167.74596 -0.71428573 -151.61195 -0.71786153 -151.60063 -31.698938 -142.61554
7435000000 -36.58326 -163.78189 -0.71637732 -152.16626 -0.71706396 -152.16452 -32.47224 -143.56895
7462500000 -37.012436 -167.00366 -0.7188279 -152.7338 -0.71564806 -152.73817 -32.524078 -147.91615
7490000000 -37.332321 -171.53845 -0.71535689 -153.28793 -0.71893209 -153.30424 -31.838867 -144.68909
7517500000 -36.696865 -168.79671 -0.71726394 -153.85242 -0.71754211 -153.84866 -32.653381 -141.75549
7545000000 -37.182968 -166.42709 -0.7178176 -154.42506 -0.71846598 -154.43556 -32.943859 -149.36102
7572500000 -38.078056 -169.05212 -0.71853346 -154.98085 -0.72010368 -154.99147 -32.269516 -146.42522
7600000000 -37.849182 -171.78751 -0.71836334 -155.55743 -0.72172916 -155.55908 -32.671825 -141.98721
7627500000 -37.742718 -169.59547 -0.72178632 -156.11314 -0.72271931 -156.12184 -33.331661 -150.54411
7655000000 -38.357422 -166.51762 -0.72269213 -156.69014 -0.72451186 -156.6951 -32.342861 -149.37514
7682500000 -38.52216 -172.59706 -0.72585356 -157.25092 -0.72588784 -157.25912 -32.835423 -142.20088
7710000000 -37.81184 -172.9594 -0.72662342 -157.80301 -0.72893554 -157.81825 -34.054707 -151.31673
7737500000 -38.700344 -167.06377 -0.731691 -158.38428 -0.73172808 -158.39003 -32.857536 -152.87073
7765000000 -39.067276 -171.36095 -0.73197168 -158.94415 -0.73135006 -158.95099 -32.832901 -141.82266
7792500000 -38.677567 -178.44284 -0.73554033 -159.48505 -0.73412114 -159.51006 -34.747318 -150.48433
7820000000 -38.973358 -171.09698 -0.73642719 -160.07632 -0.73881423 -160.07726 -33.297474 -157.60475
7847500000 -39.497803 -170.09291 -0.73625326 -160.64226 -0.73887867 -160.63521 -32.906284 -142.5473
7875000000 -39.19474 177.28152 -0.73988873 -161.18542 -0.74116117 -161.18758 -35.669769 -148.70554
7902500000 -39.155632 -170.8042 -0.74304885 -161.78528 -0.74308264 -161.77042 -33.72353 -163.44112
7930000000 -39.366035 -164.98405 -0.74682093 -162.31972 -0.74643821 -162.34496 -32.392212 -144.12555
7957500000 -40.20834 175.34499 -0.75109416 -162.89951 -0.75248444 -162.89694 -36.349712 -138.62169
7985000000 -40.407238 -173.257 -0.75582135 -163.46986 -0.7564252 -163.46645 -34.626488 -174.08655
8012500000 -39.568962 -159.74774 -0.76198184 -164.02422 -0.76271307 -164.03773 -31.548883 -149.51044
8040000000 -41.396049 172.38977 -0.77280688 -164.59738 -0.77235293 -164.60382 -35.618553 -120.77251
8067500000 -42.519852 178.85452 -0.78278255 -165.15811 -0.78247726 -165.13864 -36.868835 162.67755
8095000000 -38.427402 -153.76424 -0.79841787 -165.71165 -0.79850626 -165.71851 -29.896048 -163.94643
8122500000 -41.905827 172.74796 -0.81623369 -166.22124 -0.81634676 -166.23013 -31.352924 -109.23238
8150000000 -48.762192 165.78197 -0.83495891 -166.67218 -0.83675194 -166.68236 -42.615692 64.311317
8177500000 -36.416302 -165.44992 -0.85928947 -167.08406 -0.86030453 -167.06203 -28.201937 161.46725
8205000000 -42.479801 168.97765 -0.87586755 -167.32863 -0.87354296 -167.30438 -25.671078 -131.61194
8232500000 -45.072475 -73.92717 -0.86061633 -167.45277 -0.86120558 -167.42862 -28.608789 -46.15728
8260000000 -35.075096 160.80777 -0.81913483 -167.5314 -0.81934738 -167.51967 -27.451447 80.542435
8287500000 -42.370571 134.74304 -0.72143149 -168.00655 -0.71944648 -168.02321 -23.603783 167.61069
8315000000 -36.218548 -122.56534 -0.63568646 -168.83321 -0.63673961 -168.82169 -23.577341 -123.82539
8342500000 -41.688095 113.75578 -0.58454621 -169.8261 -0.58643728 -169.85191 -28.070679 -35.969696
8370000000 -50.84045 47.589325 -0.59228361 -170.81192 -0.59104991 -170.81609 -29.652559 94.706924
8397500000 -37.65715 -169.39815 -0.60998029 -171.68768 -0.61672747 -171.67191 -26.526356 -178.81194
8425000000 -50.5947 143.62703 -0.64472169 -172.37204 -0.6467548 -172.39375 -29.516689 -107.36958
8452500000 -52.280895 -85.535622 -0.66680592 -173.04628 -0.66904777 -173.02663 -41.15501 14.088837
8480000000 -41.700729 176.14862 -0.68626207 -173.6053 -0.68505073 -173.60846 -31.807796 157.09715
8507500000 -51.005661 168.25119 -0.70366168 -174.15031 -0.7062434 -174.15302 -31.493765 -140.67488
8535000000 -51.069946 -113.9528 -0.71346074 -174.71124 -0.71314281 -174.70424 -41.238117 -81.4561
8562500000 -46.47834 169.64194 -0.72088748 -175.2341 -0.72373873 -175.24738 -37.097157 152.41502
8590000000 -52.180573 161.1924 -0.7306596 -175.77367 -0.73126 -175.79497 -33.197842 -156.94733
8617500000 -53.165451 -118.22729 -0.73377997 -176.33749 -0.73449236 -176.32692 -38.991241 -109.41557
8645000000 -50.50935 -165.3741 -0.73508865 -176.86354 -0.73699123 -176.85712 -42.138618 158.50757
8672500000 -53.271835 159.84294 -0.74145406 -177.40869 -0.74150532 -177.41559 -35.256958 -168.09845
8700000000 -54.192631 -107.58678 -0.74455887 -177.94919 -0.74435788 -177.96555 -38.441151 -122.82716
8727500000 -54.62888 -148.51253 -0.74622363 -178.49593 -0.74912912 -178.52356 -45.577473 -174.75565
8755000000 -61.437248 151.58945 -0.74844724 -179.05408 -0.75098062 -179.06181 -36.948322 -174.02065
8782500000 -55.264244 -82.535942 -0.75161397 -179.59416 -0.7523936 -179.6042 -38.289536 -134.41127
8810000000 -55.660225 -108.30386 -0.75449288 179.84386 -0.75347143 179.8586 -46.620995 -145.01541
8837500000 -64.303337 -33.112068 -0.75651366 179.30225 -0.75648868 179.30429 -38.758705 -177.2997
8865000000 -55.751995 -58.46476 -0.75558382 178.76102 -0.75761932 178.76355 -38.49435 -140.82811
8892500000 -55.834679 -66.482979 -0.7592392 178.20471 -0.7576831 178.19897 -45.79071 -126.85072
8920000000 -57.332153 -35.13707 -0.75647944 177.63805 -0.76004362 177.65968 -41.120796 -176.96696
8947500000 -52.548302 -38.934898 -0.75965047 177.10831 -0.76016855 177.1013 -39.173931 -148.77568
8975000000 -51.965565 -41.175079 -0.76184583 176.55238 -0.76084793 176.55112 -44.569996 -123.02444
9002500000 -55.053394 -43.254791 -0.75989842 175.99559 -0.76265782 175.99094 -44.698078 -171.42445
9030000000 -50.248131 -32.350971 -0.7597698 175.44873 -0.76253349 175.4382 -39.989677 -154.00729
9057500000 -50.256317 -34.284058 -0.76255357 174.90146 -0.76374072 174.8788 -43.810871 -121.26972
9085000000 -50.743332 -35.397526 -0.7645781 174.34291 -0.76414746 174.33952 -47.571507 -156.57106
9112500000 -49.125412 -32.54142 -0.76274854 173.78873 -0.7667833 173.7831 -41.802124 -157.19571
9140000000 -47.535809 -37.036465 -0.76323521 173.2261 -0.76547772 173.23035 -43.323151 -119.27259
9167500000 -48.074066 -27.073303 -0.76459813 172.66316 -0.76716137 172.6799 -49.423187 -126.42519
9195000000 -46.97855 -34.912354 -0.76547551 172.11938 -0.76784307 172.10521 -43.735149 -154.38994
9222500000 -46.16534 -28.417744 -0.76673359 171.56224 -0.76981694 171.55405 -43.66016 -123.48149
9250000000 -46.14912 -24.605936 -0.76841307 171.01961 -0.76796854 171.01086 -48.685509 -103.33092
9277500000 -45.755684 -29.020176 -0.76773775 170.45679 -0.76884073 170.4408 -45.823051 -150.94315
9305000000 -46.044815 -27.697994 -0.77005833 169.88693 -0.76800776 169.89328 -43.812958 -119.42188
9332500000 -44.934334 -31.218197 -0.76690435 169.35243 -0.77092105 169.34081 -45.937481 -89.558098
9360000000 -44.129215 -36.075638 -0.77076989 168.77827 -0.76997674 168.77266 -49.162846 -128.89209
9387500000 -44.105942 -30.975523 -0.76967478 168.21634 -0.77156568 168.21684 -45.273273 -125.83173
9415000000 -44.547729 -36.75415 -0.77285546 167.67787 -0.77374691 167.66277 -45.809052 -90.818275
9442500000 -42.348606 -37.188374 -0.77388179 167.12563 -0.77543157 167.11794 -48.267235 -101.85611
9470000000 -42.812035 -34.405956 -0.77226079 166.55679 -0.77702129 166.55449 -45.891552 -113.22529
9497500000 -42.993279 -32.488873 -0.77256322 166.0005 -0.77470934 166.00102 -44.420166 -87.176178
9525000000 -41.266285 -38.96011 -0.77454013 165.43729 -0.77622509 165.45914 -45.782612 -82.870369
9552500000 -41.367516 -36.210079 -0.77319694 164.88553 -0.77941495 164.90302 -46.563011 -101.72817
9580000000 -42.166164 -31.594181 -0.77519637 164.33804 -0.77701634 164.32321 -44.564423 -84.630112
9607500000 -40.718063 -38.149044 -0.77851707 163.78374 -0.77969867 163.78093 -44.059345 -76.259666
9635000000 -40.546673 -38.025612 -0.77673894 163.23038 -0.78024358 163.22925 -45.482082 -87.139633
9662500000 -40.864693 -36.373886 -0.77848148 162.66803 -0.77919847 162.65938 -44.503845 -78.855743
9690000000 -40.547264 -38.490833 -0.77934188 162.10939 -0.78019589 162.10869 -43.186592 -71.417297
9717500000 -39.517246 -40.389297 -0.77947414 161.55507 -0.78078395 161.55069 -44.284512 -73.605385
9745000000 -40.145103 -37.071377 -0.77867502 160.98924 -0.7809785 160.98529 -43.867901 -76.946106
9772500000 -39.449203 -37.847347 -0.77895159 160.46066 -0.78184903 160.43767 -42.691681 -67.23616
9800000000 -38.729198 -42.695477 -0.78222775 159.89244 -0.78385496 159.88504 -42.587658 -66.093407
9827500000 -39.455914 -38.210442 -0.78250766 159.31812 -0.78238243 159.33331 -43.420364 -72.293228
9855000000 -39.227005 -38.879429 -0.78127664 158.77202 -0.78112417 158.77534 -42.076206 -66.028442
9882500000 -38.195217 -39.618305 -0.78157657 158.214 -0.78463852 158.22888 -41.314522 -65.846794
9910000000 -38.902042 -42.152916 -0.78431296 157.65259 -0.78419048 157.64488 -42.338047 -62.622353
9937500000 -38.647308 -43.877007 -0.78283435 157.10535 -0.78512144 157.0898 -41.75819 -64.345345
9965000000 -37.774265 -41.205639 -0.78532553 156.5504 -0.78674293 156.53249 -40.154114 -64.591881
9992500000 -38.363613 -45.937897 -0.78784639 155.98767 -0.78723037 155.97784 -40.373756 -60.841057
10020000000 -38.343323 -47.158543 -0.78447419 155.42502 -0.78647828 155.41103 -41.154579 -61.880306
10047500000 -37.27113 -45.274269 -0.78683972 154.87427 -0.78681397 154.88081 -39.233337 -65.479759
10075000000 -37.707359 -47.600883 -0.78793669 154.30867 -0.78877407 154.30177 -38.872841 -61.464081
10102500000 -38.041153 -48.298023 -0.78636038 153.72179 -0.7901414 153.74207 -40.451851 -58.981541
10130000000 -36.530361 -51.249241 -0.78857887 153.1906 -0.78847736 153.1981 -39.208126 -67.083427
10157500000 -36.629936 -49.485332 -0.79105252 152.63141 -0.7931025 152.63925 -38.229454 -63.21526
10185000000 -36.902328 -52.547722 -0.79081029 152.06934 -0.79162586 152.05624 -39.582809 -57.431549
10212500000 -36.40773 -50.782795 -0.78938192 151.51945 -0.79031712 151.52026 -38.978271 -64.209854
10240000000 -35.437027 -51.801571 -0.78896934 150.97629 -0.7909584 150.97531 -37.498966 -62.606216
10267500000 -36.260235 -49.636749 -0.79177779 150.41133 -0.79293346 150.38934 -38.853542 -56.086876
10295000000 -36.239544 -49.962597 -0.79160726 149.85246 -0.79232609 149.83464 -38.908257 -63.272484
10322500000 -35.464336 -53.533344 -0.79234284 149.30113 -0.79603392 149.29718 -37.125736 -66.135445
10350000000 -35.573917 -51.609512 -0.79378182 148.72556 -0.79514039 148.7308 -37.283459 -56.882786
10377500000 -35.798428 -50.66674 -0.7937389 148.16545 -0.79680634 148.15884 -38.50544 -56.151543
10405000000 -35.537067 -54.657879 -0.79418796 147.6046 -0.79431421 147.59697 -36.566711 -66.719772
10432500000 -34.99118 -53.865326 -0.79663223 147.05107 -0.79573017 147.05386 -36.262455 -58.260647
10460000000 -35.722275 -50.099472 -0.79600906 146.46849 -0.79911822 146.48747 -37.838127 -53.91494
10487500000 -35.58984 -56.295258 -0.79335421 145.95949 -0.79830992 145.95488 -36.6343 -64.750778
10515000000 -34.981838 -57.156322 -0.79503721 145.40149 -0.80109107 145.36237 -35.17791 -60.977478
10542500000 -34.797894 -55.590092 -0.80039912 144.80667 -0.80080318 144.80414 -36.826912 -54.779385
10570000000 -34.918701 -57.477886 -0.79970759 144.2757 -0.79898322 144.26089 -36.609863 -62.45842
10597500000 -34.918636 -57.703453 -0.8025977 143.72682 -0.80325204 143.694 -34.712029 -64.71946
10625000000 -34.513664 -58.229794 -0.80261701 143.14333 -0.80586028 143.12825 -35.575737 -53.619358
10652500000 -34.982319 -59.732456 -0.80205965 142.57649 -0.80350214 142.57994 -36.090454 -60.613434
10680000000 -34.890953 -59.977402 -0.80350339 142.02333 -0.80664253 142.03033 -34.319302 -65.079674
10707500000 -34.42421 -60.65538 -0.80565244 141.4805 -0.80770528 141.48006 -34.415825 -57.570789
10735000000 -34.87537 -67.254845 -0.80696332 140.90756 -0.80549788 140.88116 -35.828594 -60.061897
10762500000 -34.302197 -66.200439 -0.80521774 140.34634 -0.80680275 140.34352 -34.061977 -69.280205
10790000000 -34.24868 -63.763985 -0.80704749 139.79868 -0.80926877 139.81204 -33.49984 -62.667492
10817500000 -34.029823 -69.597404 -0.81267148 139.23759 -0.80890763 139.23566 -34.941021 -57.697239
10845000000 -33.808453 -72.342758 -0.80852902 138.67581 -0.81038952 138.69615 -34.113049 -70.074837
10872500000 -33.540005 -66.468277 -0.81170022 138.1362 -0.81163001 138.14189 -33.061642 -66.670601
10900000000 -33.468834 -70.572502 -0.81232005 137.58232 -0.81640488 137.57126 -34.31963 -60.124695
10927500000 -33.294792 -74.385132 -0.80962276 137.01158 -0.81207132 137.02948 -33.993729 -70.257607
10955000000 -32.829918 -67.755424 -0.81402445 136.46584 -0.81450874 136.47292 -32.827663 -68.620674
10982500000 -32.846519 -69.826126 -0.81403226 135.89555 -0.81729841 135.90181 -33.467106 -61.44178
11010000000 -33.265781 -74.275246 -0.81630743 135.35689 -0.8171016 135.35919 -34.211559 -67.70343
11037500000 -32.783085 -70.972603 -0.81507117 134.81425 -0.81757212 134.7886 -32.452774 -71.766884
11065000000 -32.797707 -69.195831 -0.81492126 134.25708 -0.82052886 134.2468 -32.825054 -62.938583
11092500000 -33.049564 -75.726799 -0.81902355 133.69547 -0.82005239 133.67973 -33.836727 -64.073723
11120000000 -32.656521 -75.565353 -0.81975192 133.14127 -0.81763965 133.13319 -32.554447 -72.424278
11147500000 -32.525875 -70.197571 -0.8193652 132.59975 -0.8213892 132.59525 -32.131897 -65.659187
11175000000 -32.855572 -76.741394 -0.82261914 132.04262 -0.82069558 132.02808 -33.190796 -62.13604
11202500000 -33.208626 -78.158127 -0.82066333 131.47298 -0.82073247 131.47394 -32.297993 -71.699692
11230000000 -32.456573 -75.62851 -0.82239449 130.93047 -0.82411039 130.91678 -31.489489 -70.160393
11257500000 -32.747417 -79.590675 -0.82305837 130.3627 -0.82502806 130.35446 -32.262344 -64.597511
11285000000 -33.032772 -83.719185 -0.82207167 129.81842 -0.82379746 129.82298 -32.138046 -72.052444
11312500000 -32.000462 -83.401657 -0.8244096 129.24803 -0.82535046 129.26317 -30.931625 -73.822029
11340000000 -31.744699 -82.090332 -0.82782918 128.68257 -0.82780099 128.70419 -31.866074 -68.102638
11367500000 -32.146954 -84.293701 -0.82729298 128.13387 -0.82807165 128.15366 -32.057396 -72.017914
11395000000 -32.528637 -85.717537 -0.82529849 127.59711 -0.82750911 127.59045 -30.769209 -76.724586
11422500000 -31.429962 -89.379341 -0.82693601 127.03674 -0.82892936 127.0301 -31.147953 -71.873802
11450000000 -30.534937 -88.11216 -0.8292408 126.46923 -0.83007932 126.46475 -32.063282 -74.399025
11477500000 -31.082903 -80.353477 -0.82762498 125.92528 -0.82818627 125.92037 -31.141758 -78.42424
11505000000 -31.67017 -82.555962 -0.83075035 125.37266 -0.83230424 125.37148 -30.919569 -73.264046
11532500000 -31.355034 -89.686378 -0.82915747 124.79914 -0.83048922 124.81123 -31.434298 -73.086906
11560000000 -31.303684 -86.120102 -0.8279404 124.25616 -0.8280732 124.25246 -30.79414 -78.524109
11587500000 -31.616823 -87.349045 -0.83080643 123.72671 -0.83206034 123.72501 -30.304661 -76.018723
11615000000 -31.011415 -89.1735 -0.83178604 123.15145 -0.83242655 123.1543 -31.190876 -74.69368
11642500000 -31.053057 -91.457001 -0.82753134 122.608 -0.83183521 122.59414 -30.569643 -79.768097
11670000000 -31.353346 -88.77562 -0.83177757 122.06763 -0.83152139 122.06377 -29.869722 -78.770203
11697500000 -30.977114 -92.452171 -0.83436155 121.49874 -0.83358055 121.49662 -30.657955 -75.797394
11725000000 -30.769873 -93.804504 -0.83217227 120.93163 -0.83393937 120.93418 -30.510935 -81.018219
11752500000 -30.708063 -90.986282 -0.83297873 120.40913 -0.83299881 120.40231 -29.779604 -81.652534
11780000000 -30.709726 -90.747887 -0.83669609 119.84627 -0.83767885 119.84013 -30.239761 -77.108818
11807500000 -31.228361 -90.313538 -0.83431768 119.28513 -0.83475494 119.26815 -30.293224 -78.988014
11835000000 -31.926994 -96.303848 -0.83461505 118.73801 -0.83586127 118.72517 -29.325714 -82.016815
11862500000 -31.127623 -100.16481 -0.8365382 118.19031 -0.83676386 118.18144 -29.400883 -80.748032
11890000000 -30.477356 -99.503304 -0.83253032 117.61432 -0.83929682 117.62768 -29.91395 -82.192291
11917500000 -31.058863 -99.710747 -0.83692455 117.08955 -0.83592403 117.07288 -29.216293 -85.652962
11945000000 -30.995974 -103.00993 -0.83514589 116.52679 -0.83749396 116.538 -29.139502 -84.293556
11972500000 -30.191681 -103.68546 -0.83767509 115.97028 -0.83848101 115.96608 -29.732212 -84.903793
12000000000 -30.334797 -103.35867 -0.83552772 115.41824 -0.83585501 115.42353 -29.062624 -88.220764
12027500000 -30.339949 -104.8987 -0.83908552 114.87125 -0.83641046 114.87347 -28.965698 -87.704277
12055000000 -29.972551 -103.3822 -0.83884746 114.3019 -0.83825713 114.31318 -29.6126 -87.552177
12082500000 -30.154009 -105.21367 -0.83510572 113.75684 -0.83767635 113.7643 -29.039289 -90.582146
12110000000 -30.084492 -107.98866 -0.83694875 113.23225 -0.83716375 113.20565 -28.573471 -89.562599
12137500000 -29.592161 -104.79935 -0.8364017 112.64695 -0.84321445 112.64602 -29.346577 -89.346077
12165000000 -30.038395 -104.64559 -0.83684736 112.10216 -0.84030002 112.10168 -29.108898 -92.004494
12192500000 -30.265343 -108.77358 -0.83597738 111.55433 -0.83842075 111.55434 -28.491169 -91.78466
12220000000 -29.719248 -109.08187 -0.83762205 110.98997 -0.8395443 110.99355 -28.933466 -91.045273
12247500000 -29.804005 -105.70236 -0.83655041 110.44131 -0.8396734 110.43066 -29.117071 -92.462196
12275000000 -30.008963 -111.08666 -0.8362937 109.88985 -0.83886665 109.86929 -28.415287 -93.504051
12302500000 -29.754753 -111.23377 -0.83600312 109.32854 -0.83871055 109.34291 -28.68388 -92.660622
12330000000 -29.643133 -107.4858 -0.83903021 108.7617 -0.83879757 108.78419 -29.099266 -93.339241
12357500000 -30.095131 -112.05132 -0.83524626 108.21991 -0.8373521 108.20162 -28.218346 -94.888535
12385000000 -30.099382 -114.28909 -0.83620709 107.65746 -0.83795327 107.66914 -28.286997 -93.898537
12412500000 -29.785597 -112.64438 -0.83883303 107.09793 -0.83893728 107.09399 -28.745317 -95.317856
12440000000 -30.226238 -115.24248 -0.83659184 106.54984 -0.83635807 106.54084 -28.185385 -97.029457
12467500000 -29.852348 -119.84191 -0.83763272 106.01504 -0.83770871 105.99653 -28.086142 -96.857811
12495000000 -29.732622 -116.55321 -0.83622026 105.44526 -0.8374629 105.42712 -28.587822 -98.201103
12522500000 -29.921215 -118.10911 -0.83464801 104.8955 -0.83665025 104.87476 -28.136658 -99.697464
12550000000 -29.416151 -124.42119 -0.835096 104.3233 -0.83655387 104.34872 -27.718781 -99.956512
12577500000 -29.461725 -120.26537 -0.83481926 103.77665 -0.83599496 103.7831 -28.261608 -100.33923
12605000000 -29.57235 -119.71832 -0.83548409 103.21959 -0.83652002 103.22691 -28.185558 -101.21227
12632500000 -29.664768 -123.81242 -0.83433396 102.66403 -0.83540535 102.65791 -27.840778 -101.56503
12660000000 -29.448219 -124.09519 -0.8357119 102.10101 -0.83674943 102.13215 -28.111874 -102.35866
12687500000 -29.397032 -121.42191 -0.83498025 101.54704 -0.83575428 101.56506 -28.117228 -103.81892
12715000000 -29.447054 -125.32515 -0.83198196 100.98206 -0.83538181 100.9984 -27.784626 -103.8484
12742500000 -29.360718 -126.83601 -0.83207226 100.42307 -0.83532315 100.4419 -27.946747 -104.52301
12770000000 -29.663269 -123.39417 -0.83195752 99.858162 -0.836676 99.881004 -28.061142 -104.84727
12797500000 -29.590956 -129.24602 -0.83306217 99.32386 -0.83522433 99.310257 -27.754454 -105.7016
12825000000 -29.06423 -129.1066 -0.83302325 98.768692 -0.83502698 98.764206 -27.81444 -106.63787
12852500000 -29.874477 -126.41511 -0.83326662 98.206924 -0.83566016 98.218742 -28.063618 -106.40366
12880000000 -29.647871 -131.27553 -0.83259463 97.646225 -0.83337951 97.630836 -27.685516 -106.82517
12907500000 -28.952597 -133.82059 -0.83101267 97.097855 -0.83206314 97.096962 -27.68107 -108.64868
12935000000 -29.475098 -129.20514 -0.83210582 96.538116 -0.83270967 96.526192 -27.894136 -108.63975
12962500000 -29.945274 -131.95232 -0.83274639 95.964096 -0.83275014 95.980141 -27.70174 -108.15462
12990000000 -29.12604 -137.22531 -0.83172518 95.407265 -0.8332817 95.39119 -27.668734 -109.8666
13017500000 -29.472282 -134.40213 -0.83042186 94.871773 -0.83328891 94.869316 -27.764763 -110.95881
13045000000 -29.893185 -133.34937 -0.83017617 94.30571 -0.83266956 94.283615 -27.612997 -110.40572
13072500000 -29.459972 -139.46454 -0.83213556 93.716728 -0.83105999 93.72316 -27.58494 -110.37763
13100000000 -29.019228 -138.45889 -0.8281064 93.164894 -0.83164024 93.164803 -27.65344 -113.56162
13127500000 -29.88846 -136.12534 -0.82830846 92.612076 -0.83260369 92.602234 -27.56262 -112.46894
13155000000 -29.463587 -141.16449 -0.83112115 92.041039 -0.83114308 92.040825 -27.512964 -112.1778
13182500000 -29.05711 -141.46416 -0.82940185 91.484207 -0.83194119 91.461906 -27.615499 -114.81538
13210000000 -29.836159 -140.63347 -0.83189481 90.936722 -0.8326962 90.917404 -27.447477 -114.49036
13237500000 -29.177954 -143.12611 -0.82990414 90.360268 -0.83280879 90.357857 -27.422935 -113.53094
13265000000 -28.846992 -143.98053 -0.82956541 89.7976 -0.83334124 89.796875 -27.578568 -116.43888
13292500000 -29.550337 -141.2534 -0.83267522 89.244263 -0.83333969 89.246559 -27.397636 -117.2587
13320000000 -29.53039 -145.54881 -0.83187848 88.677185 -0.83315247 88.682457 -27.424969 -115.2897
13347500000 -28.784674 -146.19989 -0.83156967 88.095947 -0.83532721 88.104637 -27.61355 -117.4866
13375000000 -29.255564 -144.47142 -0.8320964 87.560349 -0.83480358 87.562859 -27.474369 -119.14861
13402500000 -29.714169 -146.10265 -0.83286804 86.979195 -0.83472896 87.000023 -27.272133 -116.96897
13430000000 -28.790348 -147.8761 -0.83414543 86.419075 -0.83526069 86.427467 -27.547192 -118.43577
13457500000 -29.140642 -145.84273 -0.83209389 85.873062 -0.83687091 85.865532 -27.348686 -120.40461
13485000000 -29.871943 -148.67326 -0.83568931 85.312775 -0.83741802 85.32254 -27.277777 -118.67093
13512500000 -28.968645 -150.30009 -0.83596516 84.751968 -0.83960557 84.746178 -27.498819 -119.57768
13540000000 -28.948055 -148.5687 -0.83760726 84.181953 -0.83776456 84.206856 -27.352255 -122.36258
13567500000 -29.783915 -150.68861 -0.83611077 83.644577 -0.84040368 83.649216 -27.124149 -121.02998
13595000000 -29.089531 -153.65271 -0.83930218 83.075729 -0.83962566 83.080139 -27.301588 -120.81982
13622500000 -28.862556 -151.48785 -0.83821982 82.518646 -0.84018946 82.522667 -27.24382 -123.74544
13650000000 -29.645025 -153.74515 -0.84076744 81.965294 -0.83967495 81.98098 -27.021439 -123.09594
13677500000 -29.200062 -156.09822 -0.8364864 81.41481 -0.84088588 81.412514 -27.172844 -121.97952
13705000000 -28.672344 -154.51167 -0.83891624 80.837776 -0.84096068 80.837242 -27.216105 -125.16795
13732500000 -29.434566 -155.56215 -0.8392334 80.292183 -0.84029377 80.306694 -26.940073 -125.73891
13760000000 -29.37714 -159.50671 -0.83901644 79.737511 -0.8404398 79.753181 -27.052811 -124.03998
13787500000 -28.625179 -157.34592 -0.83835983 79.159447 -0.84108102 79.161667 -27.224066 -126.37343
13815000000 -29.250593 -158.02635 -0.84073603 78.602776 -0.84060156 78.590096 -26.938017 -128.29099
13842500000 -29.785139 -162.78728 -0.84160823 78.078255 -0.84161007 78.067513 -27.031803 -125.85476
13870000000 -28.511908 -160.59227 -0.84130251 77.487015 -0.8408488 77.479538 -27.219019 -127.864
13897500000 -29.126131 -160.15575 -0.84028023 76.928757 -0.84178954 76.932106 -26.901102 -130.7168
13925000000 -29.816952 -164.0107 -0.84022182 76.389824 -0.84207422 76.390114 -26.936893 -128.67181
13952500000 -28.638128 -165.80283 -0.84075743 75.812599 -0.8436929 75.805313 -27.262302 -129.45943
13980000000 -28.946978 -161.40819 -0.84172261 75.245255 -0.83871746 75.250053 -26.956696 -132.49518
14007500000 -29.658066 -166.98631 -0.83971298 74.691536 -0.83994448 74.699074 -26.772495 -131.02443
14035000000 -28.867966 -169.30626 -0.84194505 74.133263 -0.84249693 74.138191 -27.142298 -130.74609
14062500000 -28.841717 -163.21533 -0.8409192 73.556976 -0.84136504 73.54171 -26.997238 -133.65843
14090000000 -29.612305 -169.65804 -0.8396216 72.997414 -0.84347093 73.007866 -26.784534 -133.54895
14117500000 -29.166115 -171.58009 -0.84239852 72.438309 -0.84295577 72.430038 -27.089228 -132.40134
14145000000 -28.884813 -167.13457 -0.84435529 71.855072 -0.84455907 71.870766 -27.017847 -134.48474
14172500000 -29.388107 -171.1935 -0.84423268 71.306213 -0.84559965 71.294243 -26.715683 -135.93217
14200000000 -29.198605 -173.42337 -0.84275365 70.754173 -0.8458786 70.756569 -26.990807 -134.23216
14227500000 -28.913235 -171.09531 -0.84749049 70.179413 -0.84921759 70.179344 -27.005327 -136.43883
14255000000 -29.480516 -172.84351 -0.84903407 69.620689 -0.84979427 69.613716 -26.623941 -137.36021
14282500000 -29.029741 -178.21361 -0.84937501 69.055046 -0.85265493 69.056084 -26.851866 -136.19057
14310000000 -29.108078 -173.70192 -0.85092866 68.502716 -0.85395867 68.510178 -27.054569 -137.43251
14337500000 -29.357788 -175.14398 -0.85169768 67.940742 -0.85279351 67.954742 -26.685472 -139.30879
14365000000 -29.035501 177.72885 -0.8544997 67.392311 -0.85616308 67.389137 -26.715353 -138.84325
14392500000 -28.634981 -177.03745 -0.8529498 66.843636 -0.8556388 66.838821 -26.987982 -139.17635
14420000000 -29.287764 -175.83757 -0.85726732 66.280907 -0.85730356 66.278 -26.682648 -141.31696
14447500000 -29.086765 175.36607 -0.85960025 65.737877 -0.8611055 65.738571 -26.681858 -141.60515
14475000000 -28.298002 179.36063 -0.85887873 65.184662 -0.86042035 65.181366 -26.942579 -141.35904
14502500000 -29.106133 -178.62318 -0.8599959 64.634796 -0.86401945 64.625801 -26.680855 -143.11102
14530000000 -28.986893 175.06813 -0.85995299 64.088058 -0.8603664 64.083244 -26.539993 -144.216
14557500000 -28.094374 172.4312 -0.85550106 63.551346 -0.86116362 63.550438 -26.879156 -143.87988
14585000000 -28.844051 178.27451 -0.85874748 62.969269 -0.8589415 62.980698 -26.693314 -145.22855
14612500000 -29.094439 171.49797 -0.8544969 62.413422 -0.86022407 62.427834 -26.608061 -146.53342
14640000000 -28.496378 168.71082 -0.8565014 61.867329 -0.85531318 61.878605 -26.92836 -146.02087
14667500000 -28.854954 174.47694 -0.85619336 61.294502 -0.85757667 61.308556 -26.816109 -147.44302
14695000000 -29.371447 170.11719 -0.85664076 60.741802 -0.85657263 60.744499 -26.535551 -148.1983
14722500000 -28.631233 166.59334 -0.85312653 60.184952 -0.85642505 60.164139 -26.959385 -148.42694
14750000000 -28.821712 170.64352 -0.85573626 59.621971 -0.85853422 59.602573 -26.945347 -148.76445
14777500000 -29.813631 167.41602 -0.85595405 59.043488 -0.85868847 59.055305 -26.590466 -150.02309
14805000000 -28.629593 163.88852 -0.8528049 58.480701 -0.85847336 58.47887 -26.893261 -150.1626
14832500000 -29.008253 166.96089 -0.85560888 57.924896 -0.8558352 57.929901 -26.997374 -150.82494
14860000000 -29.877455 167.43542 -0.85480952 57.379074 -0.85763502 57.37038 -26.581314 -150.73651
14887500000 -28.981951 161.15535 -0.85500145 56.783741 -0.85724866 56.796459 -26.881851 -151.69661
14915000000 -28.989624 163.26343 -0.85679305 56.224537 -0.85817623 56.252529 -27.021929 -152.58311
14942500000 -29.68017 163.05374 -0.86028814 55.666992 -0.86277139 55.674282 -26.636591 -153.11667
14970000000 -29.265961 158.18102 -0.86028999 55.11562 -0.86252546 55.104572 -26.755899 -153.57889
14997500000 -28.911535 161.95972 -0.85988486 54.540268 -0.86040807 54.536785 -27.054455 -153.8475
15025000000 -29.664366 157.62949 -0.86021745 53.993839 -0.86243957 53.969772 -26.685356 -154.89484
15052500000 -29.34568 156.70026 -0.86286896 53.417717 -0.86213648 53.436031 -26.698559 -155.33176
15080000000 -28.753727 157.53282 -0.86260784 52.836452 -0.86479992 52.86721 -27.077736 -156.74519
15107500000 -29.42251 155.20869 -0.86406428 52.295227 -0.86393952 52.30941 -26.841209 -156.58292
15135000000 -29.477425 154.95116 -0.86508363 51.776218 -0.86779094 51.747185 -26.745939 -156.5452
15162500000 -28.613741 153.63466 -0.86420733 51.180893 -0.86830211 51.163105 -26.9869 -158.7572
15190000000 -29.452614 154.27617 -0.87065047 50.630299 -0.86718684 50.623859 -26.779877 -158.78508
15217500000 -29.521963 148.87279 -0.86938918 50.069149 -0.87222797 50.054798 -26.567381 -158.48656
15245000000 -28.879433 152.82246 -0.87017477 49.483452 -0.87148815 49.482601 -27.142574 -161.04807
15272500000 -29.168894 153.14197 -0.86727601 48.936504 -0.87266213 48.962292 -26.921957 -161.61511
15300000000 -29.859016 147.44672 -0.8718071 48.386597 -0.87546027 48.403412 -26.627619 -159.93867
15327500000 -28.974218 150.78801 -0.87294316 47.833725 -0.87701672 47.818844 -27.029411 -162.10884
15355000000 -29.168276 151.22163 -0.87465852 47.260475 -0.87435365 47.259693 -27.092245 -163.5432
15382500000 -29.888815 142.6237 -0.87701988 46.714233 -0.87788063 46.706627 -26.583218 -162.60353
15410000000 -28.844929 147.90358 -0.87487477 46.156437 -0.87729198 46.15807 -26.958073 -163.95801
15437500000 -29.166819 148.91069 -0.87776911 45.577122 -0.87995523 45.586918 -27.048738 -166.33589
15465000000 -29.571762 144.24446 -0.87841934 45.043041 -0.88232201 45.045284 -26.677986 -164.97131
15492500000 -29.149004 142.74423 -0.87994826 44.50206 -0.88078588 44.504017 -26.909286 -165.13295
15520000000 -28.974871 148.89369 -0.88356072 43.910023 -0.88133126 43.905678 -27.21454 -167.981
15547500000 -29.692656 141.25067 -0.87994289 43.376526 -0.88117367 43.375587 -26.75495 -167.18666
15575000000 -29.117414 136.54654 -0.88233531 42.836903 -0.88481629 42.821892 -26.828342 -166.29958
15602500000 -28.682871 146.57454 -0.88562441 42.242481 -0.88474399 42.247791 -27.225943 -169.90216
15630000000 -29.443861 139.1442 -0.88404393 41.686325 -0.88585609 41.703907 -26.975895 -170.16159
15657500000 -29.313581 136.98941 -0.88726985 41.141506 -0.88413948 41.151909 -26.771162 -168.89938
15685000000 -28.738838 140.86156 -0.88763726 40.577774 -0.88805389 40.576107 -27.371649 -171.2029
15712500000 -29.48114 139.789 -0.88580722 40.033131 -0.89158571 40.013882 -27.086821 -172.81578
15740000000 -29.150055 135.40196 -0.88659453 39.483299 -0.88727397 39.463711 -26.863508 -170.86584
15767500000 -28.867128 136.02272 -0.88981313 38.912266 -0.89432359 38.891026 -27.226728 -173.49435
15795000000 -29.306799 139.62256 -0.88995862 38.346603 -0.89072758 38.350975 -27.3251 -174.89995
15822500000 -28.999357 130.70412 -0.89081401 37.800739 -0.89685887 37.78632 -26.92116 -173.64174
15850000000 -29.095678 134.80849 -0.89159971 37.252411 -0.89532781 37.228531 -27.258509 -174.24948
15877500000 -28.927214 136.6091 -0.8933686 36.675014 -0.89606237 36.677536 -27.380705 -176.73622
15905000000 -29.25412 128.86159 -0.89431274 36.139465 -0.89560521 36.114716 -27.058884 -175.57098
15932500000 -28.847267 130.79424 -0.89747852 35.578163 -0.89685154 35.583305 -27.198782 -175.67276
15960000000 -29.304316 134.65924 -0.89621353 34.994785 -0.90126073 34.98357 -27.367685 -179.48979
15987500000 -29.321363 126.80937 -0.89314026 34.449722 -0.90113455 34.455406 -27.038326 -178.26895
16015000000 -28.618816 127.15147 -0.90064502 33.903915 -0.90098166 33.909153 -27.130131 -177.68477
16042500000 -29.439362 132.09935 -0.90129513 33.322933 -0.90525472 33.311832 -27.468149 179.38011
16070000000 -29.383251 126.70076 -0.8993482 32.808556 -0.90398431 32.790741 -27.380451 179.06566
16097500000 -28.570679 123.08464 -0.9039371 32.261181 -0.90318173 32.259609 -27.366163 -179.7375
16125000000 -29.281116 129.97997 -0.90411943 31.654041 -0.90758842 31.65959 -27.487215 177.34981
16152500000 -29.392914 124.1496 -0.90193009 31.121874 -0.90477616 31.136305 -27.446413 176.91869
16180000000 -28.743921 119.61287 -0.90456831 30.588251 -0.90784299 30.567389 -27.335831 178.36104
16207500000 -28.860497 125.44071 -0.90555704 29.995691 -0.90935236 30.024801 -27.523291 176.06857
16235000000 -29.635847 120.78639 -0.90735489 29.440596 -0.90967727 29.455502 -27.411137 174.21513
16262500000 -28.826443 117.29188 -0.90676415 28.923433 -0.90736926 28.895714 -27.342607 175.48479
16290000000 -28.594156 122.28103 -0.91049057 28.357504 -0.91023231 28.360943 -27.474541 173.88142
16317500000 -30.28488 119.63013 -0.91330141 27.78429 -0.91404802 27.791361 -27.531639 171.95041
16345000000 -28.45635 112.59177 -0.91144073 27.231031 -0.90806222 27.237772 -27.419657 173.31909
16372500000 -28.583145 118.5383 -0.90881968 26.67919 -0.91455704 26.670485 -27.64282 172.41075
16400000000 -29.525553 117.096 -0.91165274 26.106218 -0.91625535 26.124269 -27.559433 169.63568
16427500000 -28.968548 110.68791 -0.91588104 25.568556 -0.91365731 25.590717 -27.613907 169.79698
16455000000 -28.385332 114.85112 -0.91565287 25.033901 -0.91809058 25.021099 -27.728806 170.42035
16482500000 -29.350258 113.94666 -0.91693759 24.449753 -0.91947138 24.468769 -27.63217 167.55548
16510000000 -29.282328 107.99271 -0.91314459 23.894247 -0.91865027 23.917341 -27.72127 167.28085
16537500000 -27.964462 111.27921 -0.91490054 23.374916 -0.91835159 23.368767 -27.823637 167.47949
16565000000 -29.157057 110.60323 -0.91721511 22.826582 -0.92192793 22.799572 -27.691385 165.54074
16592500000 -29.617558 106.56153 -0.91652131 22.258266 -0.9206475 22.253275 -27.800713 164.32022
16620000000 -27.970631 106.61948 -0.92093706 21.698332 -0.92174262 21.706062 -28.081324 165.03972
16647500000 -29.135788 109.6565 -0.92234248 21.159632 -0.92192763 21.131464 -27.852701 163.9624
16675000000 -29.057283 103.0668 -0.9188844 20.600693 -0.92244011 20.592113 -27.93507 162.06033
16702500000 -28.343725 103.56295 -0.92143667 20.031023 -0.92063534 20.044277 -28.123371 162.17702
16730000000 -28.618265 109.60529 -0.92649114 19.483307 -0.92526829 19.49559 -27.891928 161.42244
16757500000 -29.540678 97.836281 -0.92446309 18.925631 -0.92708713 18.924932 -27.869766 160.04518
16785000000 -28.534903 101.66962 -0.9221738 18.374727 -0.92556971 18.363033 -28.297613 159.86234
16812500000 -28.33758 102.977 -0.92495245 17.837894 -0.92499793 17.812376 -28.059746 158.58598
16840000000 -29.488791 97.174767 -0.92568636 17.27224 -0.92747235 17.28093 -27.887911 158.29164
16867500000 -28.455902 96.971237 -0.92575264 16.752083 -0.92639536 16.715048 -28.461111 156.69322
16895000000 -28.303457 100.20299 -0.92630273 16.190487 -0.92853397 16.152094 -28.296635 157.30333
16922500000 -29.447575 98.314362 -0.92929888 15.610747 -0.92985523 15.597862 -28.134396 156.57547
16950000000 -28.713844 89.342735 -0.92812365 15.041555 -0.92894876 15.053872 -28.380594 155.42122
16977500000 -28.190254 100.13092 -0.92785537 14.518331 -0.93201381 14.498468 -28.622091 154.47255
17005000000 -29.258434 96.046593 -0.92750859 13.960635 -0.93306947 13.94908 -28.203476 154.14351
17032500000 -28.879683 86.376823 -0.92940664 13.393935 -0.93193936 13.401006 -28.507797 153.04155
17060000000 -28.147182 98.120872 -0.93398637 12.86122 -0.93421876 12.859989 -28.710642 151.18507
17087500000 -29.159994 91.703896 -0.93345582 12.29138 -0.93249959 12.299706 -28.266924 151.76288
17115000000 -28.920441 84.493454 -0.93224901 11.745894 -0.93554878 11.743295 -28.45693 150.17671
17142500000 -28.097832 91.746033 -0.93225414 11.190482 -0.93278897 11.189157 -28.737705 147.81555
17170000000 -29.085253 92.36274 -0.93400693 10.627339 -0.93521166 10.639733 -28.334425 148.91922
17197500000 -28.635824 81.895981 -0.93480331 10.080606 -0.93549901 10.10448 -28.463182 148.5506
17225000000 -28.270937 87.850212 -0.93919498 9.5297928 -0.93316346 9.5329437 -29.001686 143.93161
17252500000 -28.882662 91.659454 -0.9306637 9.0143251 -0.9356795 8.984066 -28.70838 145.51917
17280000000 -28.781387 79.413155 -0.93153644 8.4118519 -0.93548554 8.4248238 -28.533537 146.43979
17307500000 -28.238291 82.721748 -0.9338249 7.8943601 -0.93464023 7.8622375 -29.11441 143.3963
17335000000 -28.473194 90.251411 -0.93458211 7.3168974 -0.93499368 7.3260722 -28.920355 141.70251
17362500000 -29.100876 78.02903 -0.93572444 6.7709689 -0.93741792 6.7734218 -28.569042 143.11194
17390000000 -28.030048 80.018738 -0.93459529 6.2232742 -0.94164532 6.209734 -29.094439 139.6291
17417500000 -28.86482 88.041878 -0.93379766 5.6789961 -0.93524313 5.66045 -29.385067 138.27725
17445000000 -29.160133 76.373276 -0.94003475 5.1533837 -0.93897516 5.1036019 -28.588758 141.29002
17472500000 -28.064722 76.273514 -0.93588626 4.579844 -0.93561721 4.5527506 -29.227648 138.48
17500000000 -28.955566 84.297363 -0.93563771 3.9764652 -0.93904775 4.0191135 -29.499392 135.09998
17527500000 -29.1966 77.568504 -0.94112253 3.4623916 -0.93849283 3.4537914 -29.011801 137.39259
17555000000 -27.867708 71.812958 -0.93647844 2.9313817 -0.93916345 2.9128559 -29.155586 137.06743
17582500000 -28.766947 82.040199 -0.93830973 2.3636618 -0.93974417 2.3406999 -29.8223 132.63976
17610000000 -29.470217 76.497345 -0.93427843 1.8087101 -0.93967861 1.793712 -29.297699 133.31721
17637500000 -28.478765 69.014473 -0.94039828 1.2672354 -0.93748504 1.2438591 -29.404552 134.10812
17665000000 -28.336748 76.659813 -0.93689883 0.68910897 -0.93771923 0.6918236 -29.794392 129.95578
17692500000 -29.632801 76.850143 -0.93468386 0.12925203 -0.93746221 0.13721207 -29.670349 130.17079
17720000000 -28.452316 66.971451 -0.93861401 -0.40995699 -0.93737805 -0.40616086 -29.247375 131.72174
17747500000 -28.217907 73.303505 -0.93462479 -0.95303595 -0.93959439 -0.96800321 -30.056208 127.74137
17775000000 -29.739237 75.296036 -0.93389714 -1.5276291 -0.93657637 -1.5209295 -30.070356 127.31015
17802500000 -28.520287 64.03231 -0.9379319 -2.0762627 -0.93954045 -2.0861399 -29.354359 129.41418
17830000000 -28.120153 68.864647 -0.93795019 -2.6278086 -0.94012958 -2.6148734 -30.060369 125.72138
17857500000 -29.686007 70.09375 -0.93774527 -3.1696787 -0.94233412 -3.1505558 -30.218344 124.32528
17885000000 -28.806173 63.87365 -0.93705368 -3.7492514 -0.93619007 -3.7328622 -29.55937 126.06866
17912500000 -28.079624 64.018082 -0.93553597 -4.2575035 -0.94209486 -4.2755713 -30.05048 124.1588
17940000000 -29.344994 68.947426 -0.93794924 -4.8283067 -0.94053358 -4.8512697 -30.499126 120.76784
17967500000 -29.443392 59.293468 -0.94033784 -5.4119163 -0.94364411 -5.4221492 -29.67869 122.80053
17995000000 -27.81488 60.59235 -0.93825543 -5.9302492 -0.9417302 -5.9502301 -30.052675 121.43607
18022500000 -29.154566 66.843987 -0.93742305 -6.4744039 -0.93975991 -6.4864926 -30.839178 117.2704
18050000000 -29.364067 56.634579 -0.93871295 -7.0370374 -0.9413293 -7.0368805 -30.003717 119.03006
18077500000 -28.068275 58.533726 -0.93949223 -7.6205163 -0.9417643 -7.5869656 -29.949932 118.91593
18105000000 -28.730057 63.058479 -0.94045258 -8.1451292 -0.93735719 -8.1332836 -31.02215 113.85785
18132500000 -29.701763 54.423557 -0.94026774 -8.7018051 -0.9387753 -8.7206287 -30.421511 115.69382
18160000000 -28.258747 56.432743 -0.93169266 -9.2729454 -0.93995118 -9.2734947 -30.026598 117.05384
18187500000 -28.76647 56.550137 -0.93174338 -9.8131485 -0.93805331 -9.8038731 -30.833654 110.95193
18215000000 -29.441364 53.601353 -0.93734533 -10.388309 -0.94112736 -10.359128 -30.796436 110.44027
18242500000 -28.390366 53.041683 -0.93410093 -10.962201 -0.93737102 -10.946825 -30.181986 113.33653
18270000000 -28.627146 55.391033 -0.93689245 -11.469747 -0.94023693 -11.468378 -30.929018 109.16699
18297500000 -29.184261 51.829018 -0.93870717 -12.013106 -0.94375545 -12.03679 -31.259392 106.81953
18325000000 -28.63537 47.605064 -0.93998235 -12.613913 -0.93695956 -12.612709 -30.377546 110.41096
18352500000 -28.30072 54.066936 -0.93700224 -13.140905 -0.94047093 -13.151558 -30.725983 107.19363
18380000000 -29.122242 49.324757 -0.94231868 -13.699562 -0.94243765 -13.703382 -31.463726 102.8539
18407500000 -28.839727 44.039566 -0.93853337 -14.260935 -0.93852437 -14.244253 -30.665014 104.96731
18435000000 -28.015768 52.72604 -0.936481 -14.790789 -0.94478399 -14.821722 -30.719717 103.64473
18462500000 -29.287537 45.194847 -0.93854392 -15.347712 -0.93834567 -15.331473 -31.697908 97.92569
18490000000 -28.711086 43.278919 -0.94141865 -15.899219 -0.93858057 -15.917201 -31.15206 100.58303
18517500000 -28.106396 47.113289 -0.94087917 -16.479069 -0.94180161 -16.465992 -30.811514 102.3571
18545000000 -29.334505 45.40089 -0.93675047 -17.002085 -0.93679929 -17.035046 -31.687351 95.883675
18572500000 -28.707758 39.050114 -0.94208711 -17.569647 -0.94323915 -17.582087 -31.799931 95.217499
18600000000 -28.443092 41.774616 -0.93508005 -18.134045 -0.94117755 -18.154119 -30.962952 98.472137
18627500000 -28.792833 44.895214 -0.94145823 -18.682564 -0.94115824 -18.666304 -31.524971 92.883392
18655000000 -28.677387 34.586498 -0.93449831 -19.249166 -0.94123155 -19.261009 -31.965094 88.951363
18682500000 -28.953634 42.48682 -0.9358179 -19.81683 -0.93645853 -19.816162 -31.337471 92.771759
18710000000 -28.480988 39.649399 -0.93825895 -20.303764 -0.93957061 -20.319408 -31.767467 91.513939
18737500000 -29.228384 31.693619 -0.93969053 -20.914684 -0.9403131 -20.919287 -32.247181 84.9478
18765000000 -28.374596 35.981926 -0.93986827 -21.47394 -0.93728846 -21.452415 -31.552818 90.088089
18792500000 -28.896156 36.852356 -0.93757147 -22.026731 -0.93490344 -22.00569 -31.705467 89.063927
18820000000 -28.908413 33.782017 -0.93788111 -22.556675 -0.94111514 -22.577599 -32.347206 81.429787
18847500000 -28.349262 31.022631 -0.93655199 -23.110832 -0.94027323 -23.119963 -32.258492 83.551811
18875000000 -29.478445 35.365112 -0.93549454 -23.688753 -0.93705493 -23.698719 -31.995596 86.166435
18902500000 -28.4238 30.71784 -0.93381047 -24.20146 -0.93847197 -24.205797 -32.515156 77.731049
18930000000 -28.883488 27.62858 -0.9403494 -24.768349 -0.9371044 -24.805979 -32.339539 76.992783
18957500000 -28.792871 31.089504 -0.93408424 -25.344112 -0.93605226 -25.357996 -31.87001 82.351601
18985000000 -28.922333 30.217205 -0.93889064 -25.867064 -0.93707901 -25.909113 -32.384796 75.504707
19012500000 -28.677334 23.971853 -0.93552279 -26.468243 -0.93729198 -26.439247 -32.523865 72.379677
19040000000 -28.501732 27.844791 -0.9356252 -27.02379 -0.93688184 -27.004751 -32.327484 77.979263
19067500000 -29.534927 26.046486 -0.93709958 -27.559603 -0.93648553 -27.571747 -32.58868 74.345856
19095000000 -28.26132 22.778091 -0.93455577 -28.110964 -0.93414938 -28.102219 -32.80135 66.849777
19122500000 -28.809656 23.245451 -0.93672734 -28.671253 -0.93531728 -28.673538 -32.363605 71.810097
19150000000 -29.112778 25.490173 -0.93717635 -29.207737 -0.93113679 -29.200838 -32.826599 72.228584
19177500000 -28.391762 19.827368 -0.93263817 -29.775988 -0.93685228 -29.764473 -33.048454 62.290398
19205000000 -28.897593 21.026049 -0.9339568 -30.349049 -0.93491018 -30.36306 -32.992344 64.961823
19232500000 -29.246778 22.395626 -0.93153548 -30.909328 -0.93896776 -30.872053 -32.842529 68.582359
19260000000 -28.706768 19.297388 -0.93194449 -31.431868 -0.92958105 -31.4415 -32.940601 58.845516
19287500000 -28.683241 17.677197 -0.92701507 -31.998755 -0.93502545 -31.995071 -33.204014 56.361412
19315000000 -29.047834 18.869514 -0.93277359 -32.533352 -0.93031442 -32.553425 -33.247631 63.229855
19342500000 -29.135803 18.008545 -0.92841756 -33.095699 -0.93442518 -33.099777 -33.210411 57.379852
19370000000 -28.599834 13.621465 -0.92866474 -33.720398 -0.93086511 -33.654808 -33.383114 52.403584
19397500000 -28.942793 18.248156 -0.9292739 -34.247822 -0.93254256 -34.222332 -33.288448 56.62677
19425000000 -29.820072 15.59262 -0.9317174 -34.796333 -0.93037856 -34.763432 -33.495716 56.037018
19452500000 -28.629707 10.318631 -0.92517895 -35.352043 -0.93167281 -35.343113 -33.367355 46.343071
19480000000 -28.903124 13.115202 -0.9290998 -35.907574 -0.92870867 -35.912392 -33.49456 52.385639
19507500000 -30.06407 14.174824 -0.92864197 -36.453178 -0.92944956 -36.451027 -33.793343 51.992794
19535000000 -28.735785 9.4302721 -0.92510492 -37.012165 -0.92535961 -37.027237 -33.734245 41.659485
19562500000 -28.943975 10.867509 -0.92644662 -37.559097 -0.9266094 -37.560287 -33.757504 44.384865
19590000000 -29.951456 11.74412 -0.92870033 -38.11768 -0.92494607 -38.14225 -33.749027 48.804562
19617500000 -29.45318 8.957654 -0.923886 -38.685501 -0.92745602 -38.682629 -33.63567 41.324715
19645000000 -28.808914 5.3802991 -0.92434651 -39.255135 -0.92577571 -39.247108 -33.961205 37.901489
19672500000 -29.691944 9.4828939 -0.92603523 -39.826733 -0.92816758 -39.795414 -33.808949 44.24295
19700000000 -29.872494 4.5931482 -0.92455274 -40.375759 -0.92766368 -40.365208 -33.879627 39.514809
19727500000 -28.462896 4.5044384 -0.92448485 -40.95034 -0.9233253 -40.943089 -34.15332 30.340466
19755000000 -29.838686 6.3462973 -0.92397821 -41.476395 -0.92747718 -41.475025 -34.044388 36.942566
19782500000 -30.034416 1.3633547 -0.92323244 -42.051884 -0.92459339 -42.063618 -34.282314 37.311626
19810000000 -28.741577 1.3627995 -0.92654401 -42.617523 -0.91970205 -42.621609 -34.112816 27.186298
19837500000 -29.25518 4.2614894 -0.92184025 -43.164192 -0.92567128 -43.18433 -34.132839 29.785345
19865000000 -30.696514 1.3410119 -0.92693299 -43.751976 -0.92252719 -43.758308 -34.185318 34.354584
19892500000 -28.971478 -2.1745985 -0.91599643 -44.268951 -0.92104399 -44.311165 -34.3633 24.168274
19920000000 -29.252684 1.3276215 -0.9235158 -44.841007 -0.92446625 -44.829193 -34.092216 22.059093
19947500000 -30.769123 -3.9224129 -0.92378801 -45.417 -0.92410344 -45.425735 -34.236809 29.690861
19975000000 -29.437899 -5.3013649 -0.92564052 -45.962666 -0.92228001 -45.960506 -34.259827 21.843594
20002500000 -29.357252 -1.8520786 -0.91801065 -46.499416 -0.92161041 -46.520283 -34.270794 14.414604
20030000000 -30.442049 -3.367434 -0.92207009 -47.062363 -0.92448038 -47.076492 -34.433483 23.934864
20057500000 -30.415985 -11.440619 -0.91998935 -47.640762 -0.92352349 -47.656174 -34.580341 20.053705
20085000000 -28.743851 -3.3570986 -0.92052943 -48.199596 -0.92080623 -48.190948 -34.179672 8.3817434
20112500000 -30.42985 -7.2299013 -0.91726339 -48.757786 -0.92286652 -48.745239 -34.334949 16.378628
20140000000 -30.326117 -15.574594 -0.92253679 -49.331341 -0.91992599 -49.32893 -34.664276 18.72871
20167500000 -28.970751 -5.5541954 -0.91756684 -49.905972 -0.91645098 -49.865479 -34.145615 5.7106519
20195000000 -30.719612 -9.6599112 -0.92078704 -50.420971 -0.916583 -50.443275 -34.207684 7.9611416
20222500000 -30.41547 -18.26796 -0.91281271 -51.007305 -0.91880512 -51.011261 -34.449963 13.046367
20250000000 -29.484581 -11.821304 -0.91143465 -51.554588 -0.91551763 -51.529388 -34.295925 3.58025
20277500000 -29.931356 -9.3758535 -0.92026031 -52.150082 -0.91741139 -52.120922 -34.136139 1.2263945
20305000000 -30.602808 -20.566036 -0.91816545 -52.711002 -0.92130321 -52.712444 -34.369892 10.84278
20332500000 -29.739208 -13.930835 -0.91236937 -53.233917 -0.9164657 -53.247601 -34.158169 -1.0682418
20360000000 -29.724411 -9.5223579 -0.91999763 -53.800316 -0.91741014 -53.801861 -33.481796 -4.650856
20387500000 -31.051527 -22.415796 -0.9144097 -54.379353 -0.91811138 -54.387272 -34.118542 3.9810791
20415000000 -29.696571 -18.934635 -0.91383368 -54.925259 -0.9159798 -54.975433 -34.136024 0.2165955
20442500000 -30.000179 -10.762837 -0.91347331 -55.481483 -0.92073679 -55.514675 -33.095474 -9.1805687
20470000000 -30.984148 -24.409969 -0.91741139 -56.086071 -0.91441804 -56.070969 -33.77449 -1.9929751
20497500000 -29.721693 -24.072083 -0.91728288 -56.65416 -0.92021203 -56.651978 -34.045105 -3.6969697
20525000000 -30.9282 -12.032813 -0.91253132 -57.219345 -0.91299284 -57.21814 -33.111122 -15.865068
20552500000 -30.470617 -25.297939 -0.91610771 -57.739006 -0.91600478 -57.755131 -33.530823 -8.7954836
20580000000 -30.490448 -27.57918 -0.92095566 -58.357601 -0.91585964 -58.341385 -33.85854 -6.5117407
20607500000 -30.630419 -19.019127 -0.91521978 -58.854328 -0.91347039 -58.881226 -33.207531 -21.126816
20635000000 -30.880844 -24.105965 -0.91845906 -59.408813 -0.91649354 -59.416111 -33.126095 -16.865257
20662500000 -30.54443 -32.669289 -0.91841555 -60.040295 -0.9189378 -60.032772 -33.870605 -10.611293
20690000000 -30.695084 -24.532028 -0.91712976 -60.600368 -0.9222973 -60.571964 -33.010044 -22.285053
20717500000 -31.184975 -24.821131 -0.91635895 -61.117184 -0.92342299 -61.120678 -32.692924 -23.958426
20745000000 -30.27622 -34.031849 -0.92101008 -61.7216 -0.92155445 -61.710808 -33.289207 -16.029051
20772500000 -30.75967 -32.383312 -0.9210158 -62.270103 -0.91660798 -62.257851 -32.866608 -23.923916
20800000000 -31.471046 -23.581339 -0.92459339 -62.81004 -0.92684072 -62.810631 -32.348721 -29.925661
20827500000 -29.977982 -43.211525 -0.92262131 -63.387714 -0.92171061 -63.394196 -32.938297 -20.38765
20855000000 -30.420498 -32.735729 -0.92471832 -63.93829 -0.9278416 -63.942059 -32.721176 -25.775606
20882500000 -31.508846 -32.513813 -0.92642355 -64.515617 -0.92689264 -64.483917 -32.032658 -36.065109
20910000000 -30.664137 -43.287029 -0.92735797 -65.057594 -0.92973274 -65.071892 -32.567284 -30.346981
20937500000 -29.737995 -39.855583 -0.92722398 -65.642265 -0.93178219 -65.60891 -32.379837 -29.280329
20965000000 -32.048199 -37.461941 -0.92862916 -66.184792 -0.92810732 -66.199272 -31.564285 -39.472439
20992500000 -30.673061 -44.30344 -0.9351083 -66.725044 -0.93723899 -66.752075 -32.181061 -37.541431
21020000000 -29.820345 -45.395657 -0.93876821 -67.294121 -0.93595499 -67.303925 -32.287487 -32.750858
21047500000 -32.630207 -43.673981 -0.92956311 -67.87236 -0.93123138 -67.859398 -31.329426 -43.818108
21075000000 -30.906759 -48.489479 -0.9355337 -68.406754 -0.93349308 -68.375465 -31.62991 -45.467545
21102500000 -29.985567 -51.022469 -0.93548042 -68.966255 -0.94148809 -68.947105 -32.129883 -39.052521
21130000000 -31.829 -46.571415 -0.93274724 -69.500816 -0.93784261 -69.486671 -31.202423 -45.799328
21157500000 -31.929968 -57.194378 -0.94029576 -70.053764 -0.94255054 -70.05246 -31.201199 -52.021954
21185000000 -30.058233 -53.622326 -0.93920815 -70.580307 -0.94099104 -70.587372 -31.907133 -46.055191
21212500000 -31.378321 -53.954636 -0.93835986 -71.141037 -0.94570178 -71.112053 -31.321129 -49.24786
21240000000 -32.790916 -61.466629 -0.94112867 -71.690865 -0.93832481 -71.701096 -30.943781 -56.425087
21267500000 -30.125206 -57.114571 -0.94097465 -72.214424 -0.93883729 -72.224747 -31.731691 -53.695068
21295000000 -31.479807 -60.971844 -0.94090235 -72.759995 -0.94147462 -72.76709 -31.531811 -52.767479
21322500000 -33.056961 -62.059776 -0.93747282 -73.320496 -0.94108397 -73.338898 -30.715528 -60.284733
21350000000 -31.044014 -67.675194 -0.9332639 -73.839264 -0.94096434 -73.845909 -31.481667 -60.753391
21377500000 -30.680479 -60.930641 -0.93840063 -74.401794 -0.94232577 -74.396568 -31.457893 -55.003113
21405000000 -33.464764 -69.446632 -0.93110472 -74.989586 -0.93300462 -74.988617 -30.584227 -63.472839
21432500000 -32.139156 -74.102173 -0.93142897 -75.544228 -0.9343369 -75.527504 -31.018064 -67.001144
21460000000 -30.679691 -62.729729 -0.93184602 -76.098961 -0.93025827 -76.094757 -31.640007 -62.954182
21487500000 -34.358177 -81.558876 -0.9272083 -76.667236 -0.93264747 -76.65731 -30.757973 -65.603737
21515000000 -32.213051 -74.896942 -0.92803007 -77.215019 -0.92808008 -77.200073 -30.768616 -69.91964
21542500000 -31.326303 -69.617935 -0.92599326 -77.801994 -0.93173695 -77.783867 -31.525824 -66.419617
21570000000 -33.632843 -77.252106 -0.92504793 -78.350143 -0.92698365 -78.339386 -30.843365 -66.18795
21597500000 -33.434967 -83.214256 -0.93054086 -78.899147 -0.92564243 -78.920654 -30.45685 -74.95343
21625000000 -31.83325 -80.107407 -0.92616367 -79.48925 -0.92784834 -79.474876 -31.555412 -74.14019
21652500000 -32.758121 -73.082199 -0.92288411 -79.983368 -0.93008995 -80.01104 -30.865587 -69.061905
21680000000 -33.039337 -99.278587 -0.92483073 -80.633774 -0.93004662 -80.633011 -30.181257 -76.004669
21707500000 -32.336948 -76.80838 -0.92286009 -81.130829 -0.92448515 -81.152466 -30.955673 -77.328941
21735000000 -32.052048 -79.171364 -0.92426389 -81.705956 -0.93163687 -81.727264 -31.175016 -72.415039
21762500000 -35.021225 -102.80256 -0.92821658 -82.301392 -0.92913729 -82.268356 -30.088194 -77.324234
21790000000 -31.79493 -85.410004 -0.926669 -82.831726 -0.92619509 -82.838333 -30.547964 -82.017891
21817500000 -32.971203 -81.247269 -0.92698461 -83.382858 -0.92562646 -83.383049 -31.004519 -76.683945
21845000000 -34.062939 -100.04799 -0.92581898 -83.947655 -0.92702883 -83.96772 -30.063711 -78.259644
21872500000 -32.647099 -95.825981 -0.92559278 -84.520813 -0.93075699 -84.54216 -29.995487 -84.699501
21900000000 -33.106709 -86.497383 -0.92253101 -85.104988 -0.92485827 -85.089142 -30.868128 -82.942734
21927500000 -33.238171 -93.863541 -0.91983867 -85.639069 -0.92191803 -85.613838 -30.101351 -80.277954
21955000000 -33.642498 -111.75422 -0.92684585 -86.202858 -0.93069702 -86.194374 -29.787079 -87.597122
21982500000 -33.030563 -84.607964 -0.92320269 -86.78318 -0.91973883 -86.789627 -30.442886 -88.49791
22010000000 -33.266323 -103.81325 -0.92389399 -87.300911 -0.92545217 -87.308113 -30.152946 -83.757233
22037500000 -34.609455 -111.9697 -0.92661899 -87.885002 -0.9284727 -87.880287 -29.676418 -88.669701
22065000000 -32.690769 -95.65834 -0.91896307 -88.471718 -0.92108011 -88.47448 -29.93413 -92.125877
22092500000 -34.833378 -104.72865 -0.92030704 -89.020576 -0.91988343 -88.997368 -30.220274 -88.452835
22120000000 -33.227848 -117.54731 -0.9224782 -89.600288 -0.92673784 -89.5914 -29.343925 -89.648933
22147500000 -33.226971 -103.0423 -0.922337 -90.156631 -0.92029327 -90.168678 -29.397314 -96.147224
22175000000 -35.436073 -104.31831 -0.92189336 -90.720192 -0.92387897 -90.696526 -30.035767 -92.756577
22202500000 -32.565693 -119.49692 -0.92438591 -91.276314 -0.92376524 -91.296478 -29.384357 -92.175743
22230000000 -34.006317 -114.05587 -0.91910797 -91.863632 -0.92207617 -91.83345 -29.041546 -97.815765
22257500000 -34.141418 -105.28117 -0.91827929 -92.422745 -0.91906255 -92.433754 -29.836206 -97.304558
22285000000 -33.421246 -129.84146 -0.92260975 -93.010208 -0.92001426 -92.982788 -29.429041 -95.876198
22312500000 -32.481197 -120.0795 -0.92205215 -93.555305 -0.92782301 -93.554787 -28.822052 -100.65283
22340000000 -34.383869 -109.38105 -0.92027086 -94.131195 -0.91872835 -94.129852 -29.457571 -102.15916
22367500000 -34.054794 -131.79044 -0.921179 -94.674873 -0.91993177 -94.668762 -29.384306 -99.525574
22395000000 -31.682373 -125.43069 -0.92815411 -95.255524 -0.93207896 -95.259026 -28.657873 -101.15413
22422500000 -34.834038 -116.85551 -0.91661531 -95.836601 -0.91643631 -95.822975 -29.059076 -106.20003
22450000000 -34.055817 -130.89175 -0.91913873 -96.362854 -0.92492938 -96.367493 -29.096481 -103.75433
22477500000 -30.789179 -133.09506 -0.93312496 -96.974754 -0.92960829 -96.953331 -28.822124 -103.99325
22505000000 -35.538971 -117.39534 -0.92152113 -97.521881 -0.92137361 -97.546432 -28.702749 -108.17001
22532500000 -33.794178 -136.91663 -0.91989845 -98.048996 -0.92346555 -98.058121 -29.074871 -108.00833
22560000000 -32.342846 -135.65851 -0.93000209 -98.61911 -0.93125802 -98.625069 -28.826654 -105.43533
22587500000 -34.022289 -127.06032 -0.92378032 -99.220596 -0.92650974 -99.194275 -28.207968 -111.78481
22615000000 -35.14579 -146.3999 -0.9237262 -99.774673 -0.92243916 -99.787117 -28.659424 -112.64034
22642500000 -32.226952 -140.27515 -0.92986357 -100.33074 -0.92462963 -100.3241 -28.588041 -108.44083
22670000000 -32.719002 -135.93433 -0.93054563 -100.92213 -0.93181908 -100.88737 -28.364462 -113.25414
22697500000 -36.060349 -151.42725 -0.92393559 -101.48679 -0.92562705 -101.47723 -28.412432 -116.11488
22725000000 -32.232292 -145.91719 -0.92793101 -102.02935 -0.9292838 -102.01801 -28.440002 -112.09673
22752500000 -31.926233 -137.46794 -0.93718565 -102.59432 -0.94136369 -102.57198 -27.966583 -114.21204
22780000000 -37.683907 -161.36311 -0.92085356 -103.17952 -0.92748582 -103.19809 -27.815783 -119.87737
22807500000 -31.355448 -155.13293 -0.92967373 -103.70258 -0.93015534 -103.71961 -28.120911 -116.86172
22835000000 -31.524637 -142.17995 -0.9374404 -104.25385 -0.94209391 -104.27763 -28.132246 -115.4053
22862500000 -36.112667 -147.2652 -0.9343462 -104.90063 -0.93170679 -104.87726 -27.650112 -121.10477
22890000000 -32.101688 -169.36505 -0.93072623 -105.40023 -0.9291867 -105.37964 -27.921518 -120.79581
22917500000 -31.588713 -144.01387 -0.93850219 -105.98406 -0.94017619 -105.96921 -28.087803 -118.12418
22945000000 -34.064575 -155.91275 -0.93327546 -106.52832 -0.93629539 -106.51558 -27.685482 -123.67634
22972500000 -33.688686 -175.68079 -0.92943418 -107.10683 -0.93220824 -107.13033 -27.539946 -125.30281
23000000000 -30.33802 -151.09137 -0.94101065 -107.66068 -0.94116789 -107.6741 -27.806849 -121.20143
23027500000 -34.021496 -156.20609 -0.94056284 -108.23019 -0.93793637 -108.24354 -27.418919 -125.71019
23055000000 -33.209911 -179.9319 -0.9334417 -108.82449 -0.93230355 -108.78485 -27.319019 -128.868
23082500000 -30.251066 -161.30627 -0.94152957 -109.3555 -0.94323689 -109.37717 -27.50108 -124.40672
23110000000 -33.148556 -150.71788 -0.94882858 -109.93349 -0.95769769 -109.93702 -27.275341 -127.58937
23137500000 -32.484287 170.93349 -0.93824548 -110.53224 -0.93842214 -110.53091 -26.949604 -132.37862
23165000000 -30.201767 -169.27023 -0.93924189 -111.01763 -0.94312531 -111.0484 -27.414036 -129.1972
23192500000 -32.77832 -150.28467 -0.95765638 -111.63276 -0.95826477 -111.63334 -27.218807 -127.2877
23220000000 -31.826271 169.07266 -0.9424116 -112.20951 -0.94085765 -112.20795 -26.672667 -134.73207
23247500000 -30.058552 -176.28316 -0.93652308 -112.71029 -0.94239587 -112.70345 -27.003355 -132.77963
23275000000 -31.137161 -154.62202 -0.96139836 -113.30145 -0.96091652 -113.24181 -27.156271 -130.54683
23302500000 -32.620453 168.54587 -0.9459129 -113.92141 -0.95331669 -113.90351 -26.521481 -137.41771
23330000000 -28.997528 176.38231 -0.94410515 -114.38242 -0.94775301 -114.36625 -26.832453 -137.00974
23357500000 -31.073912 -164.75836 -0.95890808 -114.98719 -0.95908278 -114.9748 -27.062838 -133.66809
23385000000 -31.663345 -179.50369 -0.95304167 -115.56763 -0.95853108 -115.55514 -26.357208 -140.62605
23412500000 -29.130339 164.41556 -0.95045853 -116.12032 -0.9517926 -116.10262 -26.50808 -140.59158
23440000000 -30.288467 -167.14191 -0.96563208 -116.65757 -0.95990574 -116.64955 -26.812674 -136.54185
23467500000 -32.050282 176.83722 -0.96473432 -117.22658 -0.96062005 -117.20731 -26.394032 -141.21736
23495000000 -28.805099 160.10056 -0.95675999 -117.86274 -0.95703745 -117.83308 -26.034378 -144.08247
23522500000 -29.009474 -176.09177 -0.95835614 -118.34758 -0.95641667 -118.35861 -26.564743 -140.22803
23550000000 -31.89329 174.52213 -0.96876454 -118.91876 -0.96678746 -118.89969 -26.278025 -143.69179
23577500000 -28.753099 160.32945 -0.96053863 -119.4986 -0.96222085 -119.48326 -25.760174 -148.41673
23605000000 -28.441444 170.91795 -0.96220857 -119.96677 -0.9632237 -119.99245 -26.3867 -144.00262
23632500000 -31.62097 178.60506 -0.97168845 -120.59069 -0.97507542 -120.58495 -26.214748 -145.00966
23660000000 -28.366894 154.50888 -0.96325892 -121.18753 -0.96976829 -121.16209 -25.754509 -150.78403
23687500000 -27.867733 166.39987 -0.96220046 -121.68432 -0.96077633 -121.67824 -26.029692 -147.8815
23715000000 -30.312485 173.0023 -0.96945018 -122.19172 -0.9747268 -122.22088 -26.293461 -147.50671
23742500000 -28.968517 154.78955 -0.96817863 -122.83407 -0.97037774 -122.84487 -25.582888 -153.56847
23770000000 -27.356861 159.55513 -0.96790653 -123.36241 -0.96984017 -123.31897 -25.699846 -153.45789
23797500000 -29.046249 166.20973 -0.97533202 -123.9125 -0.97537708 -123.90323 -26.13311 -149.71764
23825000000 -29.675402 154.90422 -0.9726913 -124.4735 -0.97953004 -124.51434 -25.288046 -155.01987
23852500000 -26.367081 153.31743 -0.97293967 -125.03789 -0.97413486 -125.05402 -25.496971 -156.66585
23880000000 -28.785625 161.90601 -0.97383976 -125.59236 -0.97934228 -125.57456 -25.913231 -152.73491
23907500000 -29.231726 151.55367 -0.98268199 -126.16242 -0.98333186 -126.19232 -25.297863 -157.42255
23935000000 -26.262457 148.97716 -0.9798823 -126.74301 -0.98116446 -126.75532 -25.072104 -160.09355
23962500000 -27.685825 160.15752 -0.98183197 -127.22775 -0.98119628 -127.25741 -25.70911 -156.06705
23990000000 -29.585222 147.2462 -0.98899037 -127.82199 -0.98553443 -127.83325 -25.363174 -158.60899
24017500000 -26.118544 145.61096 -0.98292929 -128.43805 -0.98314387 -128.42271 -24.654184 -163.2616
24045000000 -26.794607 156.07819 -0.97996408 -128.93831 -0.97998744 -128.91623 -25.4245 -159.19064
24072500000 -29.197454 142.65874 -0.98918247 -129.50645 -0.99122638 -129.46165 -25.211067 -161.07275
24100000000 -26.080505 144.3786 -0.98356754 -130.11714 -0.98645794 -130.0811 -24.578915 -166.06439
24127500000 -26.022985 152.80252 -0.98140913 -130.59906 -0.98142338 -130.58971 -25.093842 -164.04175
24155000000 -28.803303 143.81064 -0.9870609 -131.17892 -0.99191594 -131.13998 -25.106323 -163.11145
24182500000 -26.51767 139.99921 -0.99476892 -131.74538 -0.99252617 -131.73022 -24.51907 -168.67082
24210000000 -25.537638 146.15457 -0.99308836 -132.25986 -0.98663759 -132.25194 -24.808443 -167.93388
24237500000 -28.054344 144.69162 -0.98707587 -132.8158 -0.99322832 -132.80745 -25.187006 -165.81799
24265000000 -26.527451 133.45201 -0.9956485 -133.42477 -0.99257237 -133.39505 -24.352539 -170.41022
24292500000 -25.121368 145.83014 -0.98999655 -133.96812 -0.99612188 -133.96674 -24.30463 -171.39813
24320000000 -27.311665 142.32043 -0.99482065 -134.49222 -0.99327058 -134.47305 -25.118401 -169.48669
24347500000 -26.775537 130.58731 -0.99672651 -135.05357 -0.99598449 -135.05815 -24.252295 -172.86201
24375000000 -24.875603 140.21701 -0.99584055 -135.6221 -1.0011786 -135.67101 -24.034351 -175.10828
24402500000 -26.790003 140.79439 -0.99272597 -136.17108 -0.99993789 -136.15825 -24.861526 -173.15865
24430000000 -26.241198 126.3252 -1.0037888 -136.70212 -1.000298 -136.71152 -24.346254 -175.38327
24457500000 -24.966562 137.47691 -1.002383 -137.31978 -0.9996286 -137.3166 -23.83638 -177.94662
24485000000 -25.801033 138.9968 -1.0002136 -137.80838 -0.99950576 -137.81508 -24.752707 -175.99414
24512500000 -26.564869 123.69424 -1.0060694 -138.35373 -1.005406 -138.32988 -24.417339 -177.63934
24540000000 -24.727036 130.34373 -1.0042406 -138.9736 -1.0031712 -138.96629 -23.585989 179.64679
24567500000 -25.375183 137.41203 -1.0033613 -139.48747 -1.0007309 -139.48383 -24.259914 179.94568
24595000000 -25.964033 121.00716 -1.0112313 -140.0275 -1.0085552 -140.04878 -24.365549 179.81548
24622500000 -24.715618 126.37365 -1.0031799 -140.62807 -1.0049042 -140.59781 -23.467978 176.89079
24650000000 -24.80673 135.39244 -1.0030228 -141.13579 -1.0067277 -141.16519 -23.997873 176.57889
24677500000 -26.050741 122.09956 -1.0043995 -141.71277 -1.008358 -141.67111 -24.262712 176.08725
24705000000 -24.522388 120.81902 -1.0026057 -142.26556 -1.0063014 -142.25674 -23.495855 174.90169
24732500000 -24.657566 129.73277 -1.0096296 -142.81828 -1.0109597 -142.83401 -23.6059 173.78687
24760000000 -25.715557 125.6991 -1.0084252 -143.36009 -1.0101552 -143.36531 -24.372618 172.22206
24787500000 -24.263481 113.96651 -1.0126854 -143.88565 -1.0120158 -143.91159 -23.580343 172.05911
24815000000 -24.365112 128.8911 -1.0064704 -144.53217 -1.0076514 -144.50984 -23.245619 170.99513
24842500000 -25.269081 123.3552 -1.0078627 -145.02357 -1.0098641 -145.02704 -24.107386 169.41945
24870000000 -24.483477 111.4563 -1.0111483 -145.54953 -1.0116681 -145.56778 -23.549255 168.81064
24897500000 -24.013403 122.27699 -1.0054301 -146.13768 -1.0106367 -146.16443 -23.013466 168.02171
24925000000 -24.880981 121.90064 -1.0066447 -146.69389 -1.0127299 -146.69785 -23.753298 167.09464
24952500000 -24.135628 110.03842 -1.0110669 -147.25583 -1.0158343 -147.27084 -23.658907 166.108
24980000000 -23.684904 118.47228 -1.0138148 -147.82321 -1.013515 -147.83788 -23.002974 164.08574
25007500000 -24.607012 119.67399 -1.0125093 -148.36183 -1.0165268 -148.37015 -23.567562 163.92195
25035000000 -24.10568 110.90651 -1.0142088 -148.89442 -1.014623 -148.95863 -23.610718 162.84282
25062500000 -23.205353 110.59643 -1.0146528 -149.50996 -1.0190095 -149.49307 -22.853727 161.66982
25090000000 -24.359095 121.78192 -1.0090274 -150.07375 -1.0156002 -150.08615 -23.204082 160.1617
25117500000 -23.881775 107.57795 -1.0137737 -150.60197 -1.0138897 -150.57646 -23.565289 159.52216
25145000000 -23.066069 108.65336 -1.0146257 -151.15602 -1.0177321 -151.17169 -22.924351 159.34001
25172500000 -23.640491 117.14147 -1.0173261 -151.70146 -1.0204139 -151.76457 -23.05426 158.22342
25200000000 -23.822653 106.86205 -1.0208992 -152.26065 -1.0234514 -152.29626 -23.458393 154.76492
25227500000 -22.703209 108.02985 -1.0248481 -152.85243 -1.0200465 -152.84363 -22.943468 156.23714
25255000000 -23.271421 111.06601 -1.0172777 -153.42216 -1.0229495 -153.38756 -22.635143 156.58824
25282500000 -23.849123 109.61014 -1.0265659 -153.96317 -1.0206019 -153.95694 -23.325006 153.2065
25310000000 -22.620327 103.6095 -1.0273329 -154.51915 -1.018966 -154.50525 -22.920185 152.87924
25337500000 -22.861227 107.78052 -1.0205606 -155.07188 -1.0218868 -155.07445 -22.608349 153.90128
25365000000 -23.68692 108.7103 -1.0214149 -155.66039 -1.021466 -155.63466 -23.169266 150.18117
25392500000 -22.553078 100.41653 -1.0265429 -156.19479 -1.0197804 -156.18582 -22.979189 149.51599
25420000000 -22.533585 106.52188 -1.0221502 -156.76663 -1.0228132 -156.77151 -22.491987 151.65352
25447500000 -23.378206 104.40608 -1.0241199 -157.31892 -1.0255765 -157.33824 -23.053991 148.67844
25475000000 -22.575752 100.18414 -1.0241563 -157.85776 -1.0248307 -157.86124 -22.954987 146.24243
25502500000 -21.993349 101.84892 -1.0267528 -158.4044 -1.0285172 -158.45486 -22.364578 148.52547
25530000000 -23.373167 102.7652 -1.0288826 -159.00446 -1.0270771 -159.00781 -22.723936 146.2301
25557500000 -22.586586 97.521179 -1.0335213 -159.54437 -1.0266753 -159.52702 -22.979895 142.92447
25585000000 -21.7432 99.39193 -1.0311488 -160.07846 -1.0360265 -160.06741 -22.278774 145.90161
25612500000 -23.010838 98.716835 -1.0293895 -160.65561 -1.0298594 -160.70741 -22.478275 144.63327
25640000000 -22.145885 97.070496 -1.0343254 -161.16931 -1.0381383 -161.21065 -22.767305 140.24297
25667500000 -21.714706 96.751793 -1.0341614 -161.74794 -1.0356072 -161.73338 -22.474995 141.73643
25695000000 -22.24317 98.688431 -1.0313717 -162.31042 -1.0342464 -162.30797 -22.337313 142.57298
25722500000 -22.415607 93.172356 -1.038275 -162.86371 -1.0372372 -162.86165 -22.713478 137.47993
25750000000 -21.332619 96.64418 -1.0328665 -163.43404 -1.0417926 -163.466 -22.499266 137.98285
25777500000 -22.053288 94.897301 -1.0324143 -164.03703 -1.0318704 -163.97166 -22.197641 139.24095
25805000000 -22.266483 93.978935 -1.0425119 -164.51935 -1.0374199 -164.4922 -22.453424 135.52089
25832500000 -21.439501 91.808289 -1.0419956 -165.10182 -1.0424011 -165.05437 -22.404982 134.14583
25860000000 -21.461859 94.949165 -1.0412372 -165.63484 -1.0471556 -165.64635 -22.125647 137.21716
25887500000 -22.253357 89.1726 -1.0364618 -166.2309 -1.0419091 -166.21777 -22.384726 134.75323
25915000000 -21.362661 89.362976 -1.0472149 -166.7381 -1.0455416 -166.75768 -22.330496 131.04517
25942500000 -21.270998 92.57431 -1.0433173 -167.29919 -1.0449239 -167.33597 -22.08371 134.43031
25970000000 -21.866209 86.304321 -1.0404185 -167.87036 -1.0420381 -167.91302 -22.127665 132.81543
25997500000 -21.499168 88.802048 -1.0456526 -168.42821 -1.045872 -168.40045 -22.270906 128.3802
26025000000 -20.89106 88.505524 -1.0399281 -168.9874 -1.0467458 -169.00522 -22.151775 131.75391
26052500000 -21.624811 86.958504 -1.0466983 -169.53709 -1.0439651 -169.5192 -21.944221 131.64398
26080000000 -21.506758 84.876457 -1.0430233 -170.05629 -1.0509211 -170.08801 -22.128603 125.97472
26107500000 -20.726276 85.999229 -1.0441051 -170.64095 -1.0505334 -170.64842 -22.132034 127.88867
26135000000 -21.08959 85.791061 -1.0515882 -171.1841 -1.05005 -171.21896 -21.84737 128.39075
26162500000 -21.381403 81.253006 -1.0444932 -171.74951 -1.0504879 -171.75389 -21.928703 124.35155
26190000000 -20.707932 85.741798 -1.0546678 -172.3266 -1.0586027 -172.28355 -22.065134 123.39551
26217500000 -20.808296 83.515846 -1.0517379 -172.86111 -1.0505548 -172.85719 -21.884029 126.46232
26245000000 -21.221746 79.424889 -1.0474439 -173.36186 -1.0519731 -173.42467 -21.820492 122.71936
26272500000 -20.522976 83.2658 -1.0507603 -173.97726 -1.0555242 -173.96483 -22.032137 121.32256
26300000000 -20.678524 79.363838 -1.0520496 -174.52946 -1.0551569 -174.53821 -21.761429 124.07419
26327500000 -20.641888 79.94445 -1.0494422 -175.05603 -1.0519487 -175.05811 -21.684441 121.21563
26355000000 -20.905708 78.460846 -1.0585861 -175.64709 -1.0554167 -175.65337 -21.745516 117.94062
26382500000 -20.223957 81.289734 -1.0567189 -176.21857 -1.0500866 -176.15625 -21.786055 119.90893
26410000000 -20.703459 75.656532 -1.0494732 -176.74391 -1.0549797 -176.76602 -21.564327 119.64326
26437500000 -20.465845 76.591522 -1.0543817 -177.32344 -1.055388 -177.28761 -21.606735 115.64911
26465000000 -20.175476 78.263359 -1.0581059 -177.83463 -1.0613749 -177.86971 -21.748642 116.51917
26492500000 -20.374832 76.444054 -1.0545712 -178.36948 -1.0584686 -178.43102 -21.420193 117.15617
26520000000 -20.629597 72.847755 -1.0646377 -179.03917 -1.0637801 -178.90417 -21.261303 114.27715
26547500000 -20.211905 75.931046 -1.0765741 -179.49057 -1.0577176 -179.56129 -21.593054 113.33674
26575000000 -20.278934 75.352295 -1.0602641 179.96875 -1.0504872 179.86661 -21.371284 113.84159
26602500000 -20.074871 70.371719 -1.0512588 179.37735 -1.051091 179.37628 -21.141844 111.48695
26630000000 -20.1485 72.647339 -1.0594398 178.83936 -1.0627811 178.82022 -21.362007 111.54576
26657500000 -20.003489 74.701584 -1.0605114 178.25786 -1.0619071 178.22496 -21.229406 111.81234
26685000000 -20.25185 68.955536 -1.0487471 177.69577 -1.0691819 177.69234 -21.039925 109.0515
26712500000 -19.946991 72.502968 -1.0665629 177.04024 -1.0546391 177.18181 -21.268156 108.41424
26740000000 -20.058533 70.621948 -1.0610037 176.61028 -1.0758773 176.56703 -21.30954 110.4594
26767500000 -19.532438 67.654968 -1.0605638 175.91835 -1.0627385 176.10809 -21.217476 108.17395
26795000000 -19.768583 69.09446 -1.0569904 175.4406 -1.065683 175.47249 -21.215128 106.72119
26822500000 -19.53076 69.642273 -1.0650022 174.90215 -1.0820174 174.89882 -21.119286 105.06686
26850000000 -20.138559 66.659714 -1.0668631 174.31021 -1.0666257 174.26645 -20.771507 105.88612
26877500000 -19.479242 65.513878 -1.0717601 173.84134 -1.0693272 173.82297 -21.067963 102.63136
26905000000 -19.752848 67.527397 -1.0746455 173.27103 -1.0706033 173.23625 -21.091806 103.70628
26932500000 -19.805979 65.685341 -1.0593354 172.75581 -1.0665894 172.70116 -20.617237 103.68766
26960000000 -18.996225 63.900211 -1.0561987 172.16373 -1.0634123 172.17645 -20.944275 101.16682
26987500000 -19.95857 66.037849 -1.0811116 171.6413 -1.0752326 171.63483 -21.166628 101.08803
27015000000 -19.456072 64.807663 -1.0549678 171.02853 -1.0559405 171.09529 -20.849432 100.48289
27042500000 -19.26819 60.653187 -1.0723926 170.51065 -1.0719155 170.4431 -20.570009 100.0367
27070000000 -19.468105 64.884018 -1.0627841 169.99286 -1.0721941 169.87048 -21.019484 98.829185
27097500000 -19.527512 61.200832 -1.0711575 169.27278 -1.0677444 169.41898 -20.914658 97.510094
27125000000 -19.107395 60.707878 -1.0689998 168.72047 -1.0675892 168.81564 -20.44841 97.99585
27152500000 -19.286791 62.696472 -1.0644257 168.30667 -1.0839387 168.32376 -21.164333 95.773247
27180000000 -19.538509 57.397236 -1.0894428 167.66573 -1.0870942 167.60304 -20.923485 95.559029
27207500000 -18.955864 62.62233 -1.0625592 167.259 -1.0561601 167.08669 -20.600929 94.123856
27235000000 -19.164057 56.435322 -1.0592042 166.53574 -1.0816299 166.61264 -20.802397 92.841957
27262500000 -19.689114 58.806515 -1.0706732 165.96738 -1.0757606 166.07582 -20.710136 92.341499
27290000000 -18.888039 57.801746 -1.0570604 165.46883 -1.0786234 165.45695 -20.396997 92.43779
27317500000 -19.116854 55.829098 -1.0642242 164.88266 -1.0858064 164.90674 -20.81448 90.941071
27345000000 -19.193609 57.72591 -1.0701714 164.4061 -1.0912875 164.46886 -20.922174 89.013054
27372500000 -18.9732 54.788471 -1.0657076 163.76245 -1.0764302 163.91333 -20.608744 90.760864
27400000000 -19.08856 57.32399 -1.0745298 163.3118 -1.0737083 163.26825 -20.431665 87.899559
27427500000 -19.181513 50.164448 -1.0760664 162.68272 -1.0730321 162.75877 -20.811102 87.323868
27455000000 -19.18656 52.793758 -1.0725894 162.18817 -1.0724695 162.17221 -20.481117 87.401939
27482500000 -18.572676 55.229366 -1.0892113 161.49057 -1.0922914 161.60452 -20.393171 85.33004
27510000000 -19.352255 50.133526 -1.0935985 161.12508 -1.0834523 161.07092 -20.721891 84.390953
27537500000 -18.957384 53.36182 -1.0837669 160.51788 -1.069769 160.42909 -20.3918 85.246338
27565000000 -18.813171 49.25515 -1.0881341 159.89702 -1.0924858 159.94217 -20.145229 84.789734
27592500000 -19.178022 50.212009 -1.0905248 159.41618 -1.0830829 159.38501 -20.510801 81.644592
27620000000 -18.631155 47.451649 -1.0816581 158.84441 -1.0839241 158.83173 -20.4027 82.580757
27647500000 -18.994469 48.142303 -1.0895293 158.18768 -1.0917917 158.2933 -20.219063 81.246986
27675000000 -18.487328 49.094246 -1.0924176 157.66292 -1.0964592 157.80472 -20.280104 79.04747
27702500000 -18.812933 43.708744 -1.0908149 157.17674 -1.1086332 157.17656 -20.618116 80.432205
27730000000 -18.766558 48.99086 -1.0940371 156.58295 -1.0916247 156.6315 -20.158197 79.424377
27757500000 -18.426699 45.773933 -1.0895972 156.03156 -1.104381 156.03316 -20.163485 76.838333
27785000000 -18.901434 42.951897 -1.0932778 155.44136 -1.1078857 155.53496 -20.278898 77.747139
27812500000 -18.446093 46.226517 -1.0910898 154.99477 -1.0847189 154.94377 -19.944178 74.980965
27840000000 -18.954191 44.521706 -1.0832417 154.50386 -1.0887502 154.52843 -20.07601 74.982346
27867500000 -18.586218 42.931854 -1.0823808 153.87839 -1.0853324 153.86305 -20.386362 72.930649
27895000000 -18.627802 40.567013 -1.1113719 153.41168 -1.0822233 153.33401 -20.380207 74.732368
27922500000 -18.577415 44.413731 -1.0982234 152.78665 -1.1109524 152.74759 -20.045641 73.256241
27950000000 -18.493002 39.29641 -1.1068355 152.24414 -1.1105124 152.33229 -20.089346 71.603043
27977500000 -18.527964 37.583897 -1.1211724 151.77101 -1.09482 151.69563 -20.153477 71.676933
28005000000 -18.548712 43.332291 -1.1048189 151.14909 -1.1118474 151.04005 -20.270386 69.011436
28032500000 -18.424227 37.792908 -1.0832065 150.58945 -1.1000009 150.65759 -20.273464 68.385361
28060000000 -18.757034 37.979733 -1.1111429 150.04176 -1.1141964 150.11179 -19.985636 68.321991
28087500000 -18.04479 39.112091 -1.1184402 149.52332 -1.1088901 149.47162 -20.062435 66.903397
28115000000 -19.200605 39.42263 -1.1022354 148.98311 -1.0989249 149.04431 -20.046726 64.064453
28142500000 -18.147177 34.219376 -1.1143781 148.4841 -1.0825548 148.29727 -20.230429 66.326675
28170000000 -18.54925 36.639107 -1.0986232 147.86339 -1.1063381 147.88994 -19.900942 66.276192
28197500000 -18.7222 38.138573 -1.1085262 147.33707 -1.1202104 147.37273 -20.077291 63.731873
28225000000 -18.053007 31.982965 -1.1033446 146.87386 -1.0838675 146.7621 -20.357559 63.219215
28252500000 -18.344404 37.512856 -1.0954872 146.28503 -1.0975698 146.27376 -20.131369 62.045315
28280000000 -18.892412 35.696358 -1.1057575 145.62445 -1.0964605 145.7038 -20.10512 61.738144
28307500000 -18.229492 31.189899 -1.0920774 145.16432 -1.0894958 145.18655 -20.107973 59.192299
28335000000 -18.42956 33.732754 -1.0862753 144.70091 -1.1053795 144.57208 -20.532919 61.622147
28362500000 -18.37731 32.56477 -1.100228 144.08553 -1.0877246 143.88934 -20.095049 59.59433
28390000000 -18.417948 30.251652 -1.0749382 143.438 -1.1079295 143.459 -20.082794 58.672813
28417500000 -17.999619 30.893866 -1.0904683 142.94107 -1.089914 142.9843 -20.417173 58.859272
28445000000 -18.784042 35.354359 -1.1008734 142.21928 -1.0936431 142.31859 -20.192095 59.488266
28472500000 -18.698387 29.293135 -1.0826857 141.75624 -1.0993479 141.81143 -19.676418 55.936714
28500000000 -18.234289 29.54563 -1.0870845 141.33481 -1.0965371 141.27327 -19.98617 55.728424
28527500000 -18.694038 27.397715 -1.0954449 140.74274 -1.1137501 140.71635 -19.873016 54.769272
28555000000 -18.359625 28.298918 -1.0859603 140.07204 -1.0878749 140.18733 -19.618956 54.620251
28582500000 -18.151508 28.060787 -1.0784588 139.69789 -1.0968896 139.5798 -20.072582 52.485176
28610000000 -18.214394 28.39069 -1.0869439 139.11943 -1.083459 138.99809 -20.102148 53.330498
28637500000 -19.072443 27.409506 -1.087724 138.38771 -1.1034987 138.53458 -19.796339 52.604549
28665000000 -17.925747 23.04867 -1.081763 137.90495 -1.0805804 137.92467 -19.962881 51.73835
28692500000 -18.114475 27.283491 -1.0962706 137.44029 -1.0950106 137.3511 -20.116533 51.946354
28720000000 -18.708847 24.027843 -1.0941945 136.72464 -1.0775795 136.85262 -20.002323 50.109432
28747500000 -18.236885 25.124338 -1.1023462 136.18318 -1.0773149 136.26445 -19.896332 49.401348
28775000000 -18.234194 22.894257 -1.0877825 135.70831 -1.0825442 135.64551 -20.252499 47.959141
28802500000 -18.507996 24.440943 -1.089209 135.08936 -1.0964285 135.0788 -19.923115 49.082802
28830000000 -18.115143 21.096077 -1.0814649 134.61731 -1.0883245 134.63669 -19.630484 47.914589
28857500000 -17.880302 22.132593 -1.0929033 134.15746 -1.0743494 134.1032 -20.054159 45.127525
28885000000 -18.208927 20.132393 -1.0958481 133.39992 -1.0993756 133.48347 -19.936611 46.201138
28912500000 -18.695801 20.798946 -1.0823445 132.8011 -1.0942552 132.81207 -19.66485 45.010941
28940000000 -17.681429 18.519484 -1.0820895 132.37276 -1.0845424 132.30978 -19.829124 44.072353
28967500000 -18.458948 19.422289 -1.1035899 131.69283 -1.0846152 131.70589 -19.933777 43.196541
28995000000 -18.155443 18.679836 -1.0889282 131.22717 -1.0983821 131.24219 -19.744949 43.529385
29022500000 -17.96047 16.936447 -1.0853802 130.608 -1.0866134 130.47021 -19.767023 43.291168
29050000000 -18.259882 17.844624 -1.0944124 130.08766 -1.1091982 130.01208 -20.052551 42.48769
29077500000 -18.245071 17.619637 -1.1167921 129.4709 -1.0983042 129.62361 -19.946136 41.754448
29105000000 -18.349924 12.682053 -1.0894887 128.76016 -1.0934287 129.11392 -19.868658 40.824089
29132500000 -17.478853 17.120392 -1.0973788 128.43651 -1.0976065 128.45674 -19.850727 39.672565
29160000000 -18.811146 13.83876 -1.1081837 127.80626 -1.1089308 127.804 -19.58613 38.500183
29187500000 -18.051638 15.777457 -1.0842304 127.38374 -1.080259 127.37326 -19.425356 36.406631
29215000000 -17.667957 13.667977 -1.0957282 126.85786 -1.1020259 126.74956 -19.753044 37.429939
29242500000 -18.392595 13.876259 -1.0891993 126.31389 -1.114199 126.25904 -20.113483 35.363369
29270000000 -18.097506 12.054077 -1.0722734 125.81425 -1.1066207 125.69794 -19.579145 34.363644
29297500000 -18.054853 11.052135 -1.0923417 125.06651 -1.0841148 125.0668 -19.763298 34.137394
29325000000 -18.458109 14.971015 -1.0958927 124.52216 -1.1007849 124.55591 -20.189169 32.724609
29352500000 -18.351963 7.0603309 -1.0874735 124.04607 -1.1065573 123.98064 -19.67399 31.244474
29380000000 -18.23946 14.64045 -1.1013693 123.47301 -1.1091447 123.43316 -19.621357 32.525063
29407500000 -17.927559 10.577909 -1.1154255 122.88705 -1.1157649 122.90237 -20.067268 31.232031
29435000000 -19.228436 6.8971648 -1.114079 122.1926 -1.1054577 122.38299 -19.814062 30.554554
29462500000 -18.017439 10.132827 -1.0835377 121.8628 -1.1074982 121.81592 -19.656771 28.817635
29490000000 -18.047117 8.4758606 -1.1242987 121.26181 -1.1084754 121.28886 -20.024731 28.389442
29517500000 -18.987448 9.523201 -1.1081469 120.79811 -1.1135825 120.65212 -19.826445 28.952448
29545000000 -17.932396 4.1015263 -1.09664 120.27324 -1.1066742 120.1743 -19.569727 26.987108
29572500000 -18.239279 7.9586277 -1.1070796 119.63124 -1.0965158 119.53473 -19.912029 26.244251
29600000000 -18.795408 7.1774683 -1.1051772 118.9427 -1.0876062 118.99534 -20.033339 24.399488
29627500000 -18.589626 -0.52598691 -1.096108 118.49249 -1.1087077 118.45879 -20.053911 24.46685
29655000000 -18.230091 9.9697962 -1.1035185 118.02898 -1.0891618 117.96144 -19.804605 23.811188
29682500000 -18.673235 1.4863503 -1.0795519 117.44856 -1.1008416 117.38817 -20.088486 22.891026
29710000000 -18.710869 2.9950297 -1.0764931 116.85616 -1.0825773 116.92667 -19.659309 20.604086
29737500000 -17.916386 5.2249336 -1.0853912 116.3103 -1.1059846 116.32752 -19.877863 20.961302
29765000000 -18.870953 1.6513623 -1.0927515 115.87879 -1.0854679 115.69537 -20.10347 20.806452
29792500000 -18.905258 1.5343188 -1.0918521 115.17273 -1.0944307 115.3571 -20.04727 19.637228
29820000000 -18.149538 -2.3411558 -1.085228 114.64081 -1.090431 114.72884 -19.979773 18.00124
29847500000 -18.729202 5.6987929 -1.0952214 114.05407 -1.102168 114.1423 -20.038231 19.194351
29875000000 -18.595692 -2.5994701 -1.0958158 113.46261 -1.0826718 113.42752 -20.095123 17.722319
29902500000 -18.902159 -2.0602326 -1.0962806 112.95947 -1.0621381 113.0162 -19.671993 16.382473
29930000000 -18.115248 4.9019165 -1.1037635 112.42886 -1.0756594 112.25847 -19.987898 15.330614
29957500000 -19.151468 -5.8984303 -1.0984541 111.88169 -1.0795653 111.70103 -20.082123 14.829042
29985000000 -18.593456 -0.45411494 -1.0675137 111.33482 -1.0871334 111.3317 -19.823618 13.362155
30012500000 -18.094946 -1.8813299 -1.1064507 110.66006 -1.0910575 110.84129 -19.73283 13.270928
30040000000 -19.078678 -1.194401 -1.0805697 110.18071 -1.0789639 110.22798 -20.00919 11.657002
30067500000 -18.741604 -6.9982347 -1.0729831 109.66055 -1.0762298 109.67275 -19.760204 10.235023
30095000000 -18.396351 -3.4924889 -1.0983341 109.03207 -1.0868714 109.10532 -20.386946 11.348149
30122500000 -19.02977 -0.82663792 -1.0838164 108.4951 -1.0611935 108.55177 -20.154028 10.755366
30150000000 -19.087559 -9.6361132 -1.0615332 107.70696 -1.0638531 107.97012 -20.154381 10.37598
30177500000 -19.105642 -4.0106645 -1.0623103 107.45 -1.0715057 107.3012 -20.150438 7.7394915
30205000000 -18.498247 -2.1186023 -1.0771042 106.80498 -1.0707338 106.86134 -20.08679 7.9560637
30232500000 -19.789677 -12.8591 -1.0710388 106.09243 -1.064895 106.30307 -20.184593 6.8176808
30260000000 -18.559711 -5.5245843 -1.0822449 105.671 -1.0635238 105.71873 -19.931789 4.9348545
30287500000 -18.82774 -6.2625661 -1.0742487 105.15757 -1.0811979 105.10869 -20.124121 3.7873042
30315000000 -19.715923 -8.0634699 -1.0808231 104.52964 -1.0753411 104.5687 -20.237188 4.1613646
30342500000 -18.349554 -12.52585 -1.0924828 104.00376 -1.0766236 104.16534 -19.958164 1.2288698
30370000000 -19.234186 -2.8104866 -1.1066531 103.46767 -1.087202 103.39252 -20.353325 3.392477
30397500000 -19.267876 -11.259942 -1.0734806 102.87435 -1.0647843 102.90912 -20.307081 1.4029186
30425000000 -18.599525 -14.951853 -1.0848196 102.37438 -1.0651666 102.36893 -19.928514 -1.5844753
30452500000 -19.393045 -3.4791708 -1.086518 101.70631 -1.1026721 101.76627 -20.310516 0.86292613
30480000000 -18.958683 -15.851277 -1.056192 101.20753 -1.0648164 101.16566 -20.426435 -0.30469435
30507500000 -19.568363 -12.408318 -1.0789304 100.6198 -1.0739496 100.68586 -20.32909 -3.1775379
30535000000 -18.634083 -8.6066647 -1.0712237 100.06636 -1.1035612 100.02169 -20.099934 -3.5596535
30562500000 -19.632227 -10.039273 -1.063792 99.505554 -1.0905454 99.589035 -20.751789 -1.9476347
30590000000 -19.658783 -14.218624 -1.075662 98.85881 -1.0749186 98.991768 -20.487972 -4.9167519
30617500000 -18.92659 -16.737974 -1.0714658 98.315994 -1.0739298 98.408562 -20.14892 -6.5469108
30645000000 -19.938656 -7.3246779 -1.0842128 97.853065 -1.0858914 97.812057 -20.553312 -6.0846367
30672500000 -19.332935 -21.829128 -1.0863419 97.335808 -1.0653138 97.344513 -20.424175 -8.8078804
30700000000 -19.863831 -13.57421 -1.0740179 96.944969 -1.0740212 96.690727 -20.337282 -8.6246185
30727500000 -19.629877 -12.185321 -1.0830297 96.099472 -1.0823721 96.125389 -21.205627 -9.836257
30755000000 -20.281048 -21.3678 -1.069514 95.664955 -1.078934 95.694412 -20.829823 -10.035758
30782500000 -19.34239 -15.896649 -1.0702015 94.997444 -1.0760238 94.953949 -20.218241 -12.472199
30810000000 -20.056602 -16.559336 -1.0764769 94.579445 -1.0870035 94.490341 -20.692747 -10.886683
30837500000 -20.085829 -11.471933 -1.0750118 94.006058 -1.0836254 93.997627 -20.863382 -12.759843
30865000000 -19.492531 -23.923164 -1.060734 93.196709 -1.0776684 93.445892 -20.552433 -14.6267
30892500000 -20.181206 -18.470499 -1.0824767 92.824532 -1.0938183 92.819389 -20.835732 -16.862328
30920000000 -20.427713 -15.224795 -1.0964984 92.319046 -1.066907 92.359108 -21.291351 -13.172482
30947500000 -20.143158 -27.691755 -1.0655993 91.805206 -1.0682936 91.810677 -20.916233 -15.601252
30975000000 -20.214113 -20.417091 -1.0814528 91.252022 -1.0610087 91.13578 -20.949825 -16.933559
31002500000 -19.746609 -17.580416 -1.073174 90.711784 -1.0862348 90.691856 -21.090668 -17.652615
31030000000 -21.483534 -32.594421 -1.0765114 90.079048 -1.0710061 89.920128 -21.207455 -20.444338
31057500000 -18.939817 -23.021929 -1.0883615 89.513962 -1.0750407 89.400719 -20.65477 -20.417791
31085000000 -22.29034 -23.320257 -1.0735903 88.904877 -1.0773901 88.902969 -21.427561 -21.664406
31112500000 -20.115334 -27.478697 -1.0604528 88.195885 -1.0805731 88.288307 -21.443266 -20.98037
31140000000 -20.478989 -29.392241 -1.0760096 87.887238 -1.0684515 87.728386 -20.988125 -22.072069
31167500000 -21.066336 -22.868769 -1.077211 87.370193 -1.0835301 87.357964 -21.291243 -23.004629
31195000000 -21.561813 -29.075275 -1.0913588 86.798553 -1.0545325 86.514816 -22.285124 -21.656557
31222500000 -20.48941 -33.152527 -1.0717958 86.195969 -1.0823838 86.173424 -21.23344 -24.586012
31250000000 -20.564978 -22.507158 -1.0577198 85.579269 -1.0634805 85.681358 -21.428703 -27.631939
31277500000 -22.000366 -31.870968 -1.0820001 84.989723 -1.1000342 85.017944 -21.805349 -26.718056
31305000000 -20.345194 -34.550037 -1.0779637 84.386757 -1.0844853 84.610863 -21.283134 -26.62994
31332500000 -20.739317 -24.880356 -1.0714384 83.901917 -1.0614585 83.932243 -21.231356 -25.902338
31360000000 -23.795088 -31.918499 -1.0698078 83.477051 -1.0938042 83.23954 -22.389505 -29.166445
31387500000 -19.970201 -35.502392 -1.0587893 82.575928 -1.0832849 82.612221 -21.76815 -27.140354
31415000000 -20.87501 -21.250168 -1.0445933 82.256676 -1.0714377 82.211105 -21.506384 -27.879316
31442500000 -23.269207 -31.280781 -1.0851376 81.590836 -1.083845 81.677727 -22.441725 -30.39397
31470000000 -21.186052 -36.615196 -1.067476 80.956711 -1.0710001 81.09758 -22.228954 -32.522224
31497500000 -21.206926 -26.280783 -1.0806739 80.44915 -1.0608619 80.453842 -21.725704 -29.666967
31525000000 -22.593822 -33.193203 -1.0799487 79.983727 -1.0547938 79.916161 -22.160036 -36.479664
31552500000 -22.633711 -41.632366 -1.0579517 79.460167 -1.0675316 79.288849 -22.430445 -34.285236
31580000000 -20.303003 -30.12945 -1.0605989 78.830116 -1.0323851 78.917389 -21.890507 -35.520187
31607500000 -23.758045 -33.403252 -1.0452034 78.158829 -1.072057 78.349251 -22.202719 -38.223679
31635000000 -22.821032 -40.76524 -1.0829979 77.783867 -1.0939008 77.617783 -22.984207 -36.495537
31662500000 -20.803307 -33.628265 -1.0601164 77.052315 -1.0577377 77.047585 -22.116409 -36.705391
31690000000 -24.198557 -26.684624 -1.0577585 76.645348 -1.083565 76.788971 -22.344522 -37.774841
31717500000 -22.729591 -47.157555 -1.0745258 76.183914 -1.083845 76.037224 -22.492937 -40.773212
31745000000 -21.330778 -32.152233 -1.0736837 75.462654 -1.0646936 75.424431 -22.374763 -39.69936
31772500000 -24.141539 -31.626898 -1.0378335 74.920158 -1.0776057 74.79538 -22.473864 -41.208687
31800000000 -22.959743 -46.591106 -1.1020359 74.333954 -1.0457933 74.388687 -22.702087 -45.203606
31827500000 -22.088524 -38.01078 -1.0822376 73.931465 -1.0789326 73.759155 -22.476875 -43.736908
31855000000 -23.06444 -30.678017 -1.0686432 73.184807 -1.0728573 73.398834 -22.658289 -42.715504
31882500000 -24.32299 -55.233669 -1.0756104 72.692734 -1.0588409 72.639259 -22.60939 -45.296215
31910000000 -21.941351 -41.318024 -1.062348 72.159088 -1.0700548 72.156723 -23.371845 -48.915604
31937500000 -24.327288 -36.053509 -1.07166 71.543861 -1.0763854 71.465416 -22.822397 -45.990749
31965000000 -24.397743 -47.426289 -1.0689759 71.069824 -1.067947 71.004128 -22.760702 -49.135193
31992500000 -23.591692 -46.63102 -1.0444725 70.23214 -1.0903022 70.476906 -23.572315 -52.085449
32020000000 -23.479399 -32.743572 -1.0315924 69.763603 -1.0899881 69.819946 -22.874752 -48.407139
32047500000 -25.774897 -47.624924 -1.0604888 69.469688 -1.0626853 69.292923 -22.901346 -52.145248
32075000000 -23.580528 -49.697777 -1.0730457 68.713455 -1.0777839 68.745781 -23.444918 -52.577015
32102500000 -24.080944 -31.7782 -1.0593199 67.995041 -1.0640522 68.290474 -23.429901 -51.500805
32130000000 -25.779322 -39.91893 -1.0575788 67.666504 -1.0649519 67.611443 -23.538391 -55.054199
32157500000 -24.168526 -63.56258 -1.0631422 67.123627 -1.0829397 67.174332 -24.052605 -59.685928
32185000000 -23.711729 -27.89782 -1.0601104 66.459099 -1.0509903 66.343803 -23.715866 -57.028801
32212500000 -26.771078 -56.488644 -1.0414343 65.982391 -1.0504014 65.879303 -23.352327 -57.763874
32240000000 -25.227863 -55.189972 -1.0794816 65.427513 -1.0598462 65.343613 -23.905708 -63.364525
32267500000 -25.081215 -45.281414 -1.0440432 64.853996 -1.0802404 64.856529 -24.558599 -63.041275
32295000000 -26.454685 -38.782032 -1.0600358 64.155273 -1.1020619 64.307152 -24.523195 -58.791039
32322500000 -25.207687 -60.532299 -1.0838128 63.738594 -1.0928833 63.76791 -24.130434 -65.235718
32350000000 -25.675146 -49.638214 -1.0639055 63.166656 -1.0560141 63.115723 -24.257517 -63.597591
32377500000 -27.49544 -30.52389 -1.0532048 62.388649 -1.0592046 62.466652 -25.095793 -62.999584
32405000000 -25.879318 -69.649696 -1.063345 62.091064 -1.0793326 62.105728 -24.453413 -68.626228
32432500000 -25.025887 -48.021645 -1.0528281 61.351791 -1.0600328 61.461651 -24.283155 -69.147079
32460000000 -27.077791 -38.761852 -1.070236 60.715702 -1.0411899 60.869514 -24.936758 -72.004654
32487500000 -28.820673 -77.123283 -1.0500705 60.404007 -1.0560237 60.327877 -25.315836 -66.586197
32515000000 -24.704441 -44.296112 -1.0529534 59.665779 -1.071128 59.675179 -24.614676 -71.144798
32542500000 -29.161436 -54.144753 -1.0540619 59.174759 -1.0424136 59.189293 -25.480242 -72.549614
32570000000 -28.943842 -43.278557 -1.0528251 58.653164 -1.0373898 58.495995 -25.264624 -74.51104
32597500000 -25.78126 -69.570808 -1.0600748 58.067802 -1.0559765 58.131687 -24.572386 -76.658539
32625000000 -28.746681 -35.85714 -1.0592316 57.480511 -1.0715828 57.350231 -25.190205 -77.257401
32652500000 -29.504486 -57.428886 -1.0322105 56.820892 -1.0475315 57.008247 -25.03281 -77.199631
32680000000 -26.414675 -68.95311 -1.0381892 56.45797 -1.0553309 56.473026 -24.915627 -81.337791
32707500000 -29.246033 -34.581451 -1.0736696 55.725822 -1.0498717 55.742649 -25.774258 -79.016747
32735000000 -30.101934 -63.429008 -1.0471935 55.427841 -1.0483711 55.209175 -25.69644 -80.91893
32762500000 -30.013638 -56.555748 -1.0695502 54.70792 -1.0501648 54.657997 -25.425699 -87.560486
32790000000 -27.10766 -47.573742 -1.0678924 54.041298 -1.0886086 54.040401 -26.175003 -85.29187
32817500000 -36.891262 -36.763779 -1.0829673 53.379593 -1.0583302 53.455879 -26.768511 -89.846222
32845000000 -28.988926 -61.136791 -1.0435053 52.989628 -1.0658386 52.830944 -25.947472 -90.827385
32872500000 -30.690792 -64.699699 -1.049467 52.494759 -1.0475658 52.366116 -26.486717 -91.734726
32900000000 -33.142036 -20.111746 -1.0666645 51.845837 -1.0643344 51.829941 -26.372608 -90.254326
32927500000 -29.205151 -77.150558 -1.0179909 51.421616 -1.046899 51.371002 -26.156101 -91.302765
32955000000 -31.885336 -47.014507 -1.0363715 50.661156 -1.0958947 50.659389 -25.990868 -94.958786
32982500000 -33.250237 -37.476063 -1.0672529 50.273766 -1.0586594 50.086487 -27.425121 -98.819138
33010000000 -36.606228 -82.652649 -1.0625603 49.42041 -1.0440389 49.487564 -26.005453 -100.83295
33037500000 -30.973772 -54.137249 -1.0157925 49.119888 -1.0343677 48.884724 -25.538389 -97.780563
33065000000 -39.356606 -48.426716 -1.0553995 48.343849 -1.0566992 48.374584 -26.484085 -104.07233
33092500000 -37.149277 -53.78648 -1.0515127 47.726151 -1.0596123 47.778111 -27.091824 -107.63035
33120000000 -32.810581 -62.28059 -1.047399 47.204597 -1.0495232 47.323296 -26.489759 -103.40031
33147500000 -41.864727 -32.655144 -1.0519177 46.639641 -1.0404733 46.706272 -26.767483 -105.32262
33175000000 -40.567638 -49.8241 -1.0312358 46.22295 -1.052104 46.221504 -27.011477 -108.682
33202500000 -37.39946 -83.560715 -1.0281551 45.667023 -1.069577 45.585655 -26.225475 -111.50306
33230000000 -37.209972 -23.526064 -1.0520127 45.09901 -1.0752996 45.074554 -26.771889 -112.34202
33257500000 -55.734303 -112.01006 -1.078626 44.398861 -1.044026 44.538216 -27.728373 -116.38274
33285000000 -43.815098 -62.653217 -1.0457817 43.750843 -1.0443954 43.860031 -28.040327 -123.02272
33312500000 -38.849823 -44.257099 -1.0505766 43.181374 -1.0679053 43.388088 -27.701368 -126.83334
33340000000 -44.525368 78.436089 -1.0498562 42.697712 -1.06673 42.849865 -27.622137 -123.81609
33367500000 -39.913395 -52.626595 -1.0296868 42.127159 -1.0615025 42.197662 -26.779003 -125.95022
33395000000 -43.391869 -15.626138 -1.0656625 41.684986 -1.0713794 41.504745 -27.169718 -126.99612
33422500000 -43.328907 52.385387 -1.046513 40.983246 -1.0476874 40.948334 -27.604887 -131.03108
33450000000 -44.534954 -13.305008 -1.0792466 40.641701 -1.0739748 40.260818 -27.719896 -131.71613
33477500000 -41.871403 33.387276 -1.0506757 39.903728 -1.0502412 39.789795 -26.653131 -129.80415
33505000000 -42.99802 66.535118 -1.0713636 39.244019 -1.074126 39.250736 -27.664413 -141.1322
33532500000 -37.950314 67.135368 -1.0625348 38.699432 -1.0671291 38.561363 -27.817852 -140.87857
33560000000 -40.356518 75.176498 -1.077271 38.19659 -1.0557537 38.230511 -26.622536 -137.23175
33587500000 -39.709995 64.076775 -1.0419962 37.702232 -1.0594107 37.591331 -27.829332 -143.04634
33615000000 -33.500435 86.182182 -1.0789293 37.080391 -1.0591239 37.18251 -28.62998 -140.98529
33642500000 -44.149525 99.296577 -1.0611253 36.34206 -1.0708315 36.542946 -27.41239 -145.65308
33670000000 -34.057545 67.482101 -1.0917991 35.799252 -1.0578443 35.787861 -27.156488 -152.80751
33697500000 -35.285286 89.645653 -1.0667535 35.182831 -1.0950998 35.293739 -28.03809 -163.77788
33725000000 -33.699089 70.556892 -1.0888205 34.610058 -1.0717578 34.750851 -27.465595 -151.33752
33752500000 -34.367981 54.991539 -1.0474373 34.206505 -1.0634904 34.162899 -26.998974 -154.78055
33780000000 -30.583979 90.727608 -1.0609941 33.640366 -1.1049281 33.65451 -28.072435 -159.18486
33807500000 -31.542004 65.963417 -1.0699458 33.121391 -1.0863774 33.022335 -27.214773 -163.58932
33835000000 -32.29213 82.413162 -1.0824451 32.56456 -1.0941793 32.457504 -27.369967 -160.0042
33862500000 -30.511768 78.918182 -1.104641 31.917212 -1.0788709 32.098755 -27.020723 -172.3235
33890000000 -29.829449 86.946854 -1.0843098 31.303837 -1.1033806 31.287287 -27.2715 -168.52245
33917500000 -30.69327 87.593231 -1.0673175 30.773403 -1.0678421 30.865143 -27.504007 -165.23241
33945000000 -29.123142 73.438118 -1.0621821 30.363678 -1.1030239 30.072552 -26.472439 -177.20503
33972500000 -27.717516 104.2001 -1.082033 29.595438 -1.0961329 29.768663 -27.749874 -169.64476
34000000000 -30.077394 74.208435 -1.100476 29.084377 -1.1069404 28.97928 -27.027525 -168.47076
34027500000 -28.748093 78.852509 -1.1003387 28.561602 -1.1026341 28.586931 -25.690048 177.35349
34055000000 -26.714762 84.593796 -1.0991489 27.842243 -1.0962828 28.172047 -26.751715 179.25958
34082500000 -28.161364 90.999557 -1.0803888 27.355078 -1.1240348 27.242268 -27.292547 -175.67419
34110000000 -26.87104 75.882553 -1.0958427 26.860859 -1.0851276 26.796789 -26.246407 176.40736
34137500000 -26.906603 84.964699 -1.107102 26.294657 -1.1225157 26.292311 -26.101004 168.79091
34165000000 -27.079885 92.502724 -1.1302465 25.511135 -1.113518 25.620684 -26.626301 173.05472
34192500000 -26.843458 61.317169 -1.0851363 24.998087 -1.1017413 25.262762 -25.660578 169.45872
34220000000 -26.11315 86.975479 -1.116852 24.781239 -1.0981234 24.62455 -25.543034 163.64709
34247500000 -25.395798 84.54538 -1.0989939 24.010695 -1.1272789 24.023125 -26.185102 170.47716
34275000000 -26.52084 73.238564 -1.0851815 23.446035 -1.1144811 23.583008 -26.66872 170.34151
34302500000 -25.146132 81.619751 -1.09673 23.067007 -1.1034935 22.861689 -25.020962 157.67453
34330000000 -25.628845 85.709709 -1.1128851 22.352983 -1.0982552 22.349655 -26.283993 162.7715
34357500000 -26.009293 70.262482 -1.101528 21.791031 -1.1071154 21.669659 -26.054094 162.86079
34385000000 -24.171045 82.922966 -1.0978224 21.218445 -1.0920464 21.245272 -25.375984 154.16539
34412500000 -24.830141 77.638695 -1.111503 20.570854 -1.1021463 20.552826 -25.535072 159.08514
34440000000 -25.715712 84.307663 -1.1344666 20.096418 -1.1020315 19.956758 -25.962151 157.24963
34467500000 -23.359312 72.90609 -1.0949476 19.610764 -1.1027246 19.445847 -25.16313 153.92989
34495000000 -24.796762 85.257301 -1.1106328 19.11751 -1.1104379 18.955612 -24.56007 148.59265
34522500000 -23.042837 75.193451 -1.1134437 18.492825 -1.1078633 18.435051 -24.945272 157.75378
34550000000 -24.024052 73.661461 -1.1153582 17.836863 -1.1414466 17.970755 -24.773041 149.09195
34577500000 -23.475098 82.272415 -1.106951 17.27408 -1.1537256 17.45813 -24.150665 144.888
34605000000 -23.541245 74.079926 -1.1283963 16.681541 -1.1053164 16.749691 -25.066589 151.77037
34632500000 -23.078072 74.371765 -1.1124597 16.079086 -1.1102797 16.051098 -24.240721 147.88759
34660000000 -22.919483 79.751228 -1.1344558 15.76972 -1.147687 15.633778 -23.317736 143.78333
34687500000 -23.448076 69.091888 -1.1175011 14.822945 -1.135148 14.939029 -24.084663 146.58064
34715000000 -22.256016 80.041 -1.119728 14.431371 -1.127035 14.529211 -24.021605 141.9563
34742500000 -22.547838 73.754929 -1.0709077 13.901177 -1.1302146 14.078139 -22.918785 140.79228
34770000000 -23.383369 74.749367 -1.1215079 13.345184 -1.123386 13.307112 -23.949732 142.28175
34797500000 -20.92868 76.232162 -1.1397101 12.865042 -1.1113271 12.814874 -24.13929 136.00438
34825000000 -22.980017 71.047379 -1.1238923 12.250465 -1.135112 11.888887 -23.189451 134.61989
34852500000 -21.84436 75.546104 -1.1278468 11.563504 -1.1424406 11.597135 -23.086206 135.92957
34880000000 -21.43224 73.479828 -1.1156175 11.041427 -1.1698925 11.08424 -24.857496 129.82344
34907500000 -21.608755 73.210739 -1.1174061 10.540053 -1.1476552 10.281706 -22.951612 135.85287
34935000000 -21.147934 64.661728 -1.1537378 9.8424702 -1.1294141 9.6388016 -22.551558 135.15541
34962500000 -21.299305 76.952568 -1.1555033 9.3565092 -1.1551223 9.3446274 -24.075806 130.6002
34990000000 -20.119217 71.96669 -1.1452082 8.7741423 -1.1455142 8.5388603 -22.590145 129.81189
35017500000 -21.871071 69.202034 -1.1588893 8.1194639 -1.1246146 8.0689583 -22.071255 129.70291
35045000000 -19.927406 69.446762 -1.1726072 7.7316003 -1.1634047 7.7256622 -23.25914 128.16153
35072500000 -20.909729 72.293739 -1.1482815 6.9486022 -1.1320881 7.0746284 -22.757803 126.9487
35100000000 -20.390657 65.07093 -1.1549342 6.4171576 -1.1301349 6.2899737 -21.287878 127.73629
35127500000 -20.612703 63.476044 -1.1605984 6.0531497 -1.1767336 5.8673496 -22.104359 123.95
35155000000 -19.588188 73.223152 -1.1616489 5.3517199 -1.1652042 5.3373446 -22.806307 119.48677
35182500000 -20.487583 65.28627 -1.1598941 4.8102684 -1.167418 4.6323643 -20.903391 125.92622
35210000000 -19.515173 60.752785 -1.1771026 4.2053494 -1.1835977 4.2284636 -21.497843 120.64203
35237500000 -19.519365 74.206329 -1.1711775 3.6151266 -1.1485758 3.8607256 -22.164356 114.44016
35265000000 -19.810495 60.700596 -1.1429754 2.9332592 -1.1560258 2.9575925 -21.556036 119.67123
35292500000 -19.764387 65.227928 -1.1464231 2.494874 -1.1790532 2.6236475 -21.119118 118.59909
35320000000 -18.884935 64.688019 -1.1551915 2.1170285 -1.199641 1.7796239 -21.518784 112.58957
35347500000 -19.822712 68.910011 -1.1733065 1.318385 -1.1870646 1.3522345 -20.558357 114.01465
35375000000 -18.929132 60.846661 -1.1702386 0.85259467 -1.1759415 0.68933928 -20.550455 117.33797
35402500000 -18.764355 59.438637 -1.1827788 0.046692364 -1.1699911 0.17882498 -21.289774 113.78691
35430000000 -19.113234 68.113792 -1.2209285 -0.185945 -1.1801879 -0.21193957 -20.608231 111.67325
35457500000 -18.527727 56.880096 -1.1734958 -1.1903695 -1.1570234 -0.91971123 -20.512405 114.84739
35485000000 -18.611992 59.349392 -1.1709961 -1.2532563 -1.1968378 -1.335045 -20.821772 106.14874
35512500000 -17.964968 69.171341 -1.2123531 -2.0979884 -1.1813858 -2.1152532 -20.603378 105.92915
35540000000 -19.51026 54.824577 -1.2062218 -2.4732745 -1.1823848 -2.5131688 -19.656986 108.40234
35567500000 -17.577637 59.099018 -1.2159095 -3.2106938 -1.1992691 -3.2887335 -20.121355 103.82285
35595000000 -18.795055 65.309715 -1.1982433 -3.5076659 -1.1775764 -3.6812756 -20.377878 103.14209
35622500000 -18.734783 61.368767 -1.2102363 -4.3274865 -1.1612724 -4.1852713 -19.511658 105.56168
35650000000 -17.657568 52.923592 -1.1833904 -4.8520837 -1.2114768 -4.6561079 -19.75498 105.2821
35677500000 -17.837902 64.157173 -1.1837429 -5.4674282 -1.200621 -5.1775794 -20.512871 100.0444
35705000000 -18.669155 58.188602 -1.2222935 -5.8726377 -1.199095 -5.9138765 -19.447474 101.73253
35732500000 -17.491623 49.457325 -1.235034 -6.4549408 -1.2147157 -6.252521 -19.284685 101.63328
35760000000 -17.479479 59.240089 -1.2132399 -7.0106115 -1.2386986 -6.933497 -19.932955 94.912483
35787500000 -18.00536 59.224228 -1.1952143 -7.4629183 -1.2207955 -7.700633 -19.314362 98.781082
35815000000 -17.84444 50.305847 -1.24608 -8.0895376 -1.2317538 -8.1700182 -18.940767 100.67126
35842500000 -16.539368 53.79147 -1.2403988 -8.6123857 -1.2636044 -8.4125404 -19.478088 94.018044
35870000000 -18.188528 56.011242 -1.2399689 -9.1627302 -1.2335389 -9.4859533 -19.506712 96.904015
35897500000 -17.383579 51.528847 -1.2083384 -9.770649 -1.2331672 -9.6518173 -18.952044 96.807907
35925000000 -16.300278 46.970219 -1.239431 -10.350388 -1.2509929 -10.262747 -18.954395 93.581017
35952500000 -17.512371 62.783379 -1.1921976 -11.077152 -1.2426839 -10.95215 -19.406267 91.661247
35980000000 -17.142469 45.767975 -1.2505317 -11.340544 -1.2380672 -11.618913 -18.959663 93.767273
36007500000 -16.602102 49.371582 -1.2318166 -12.019218 -1.2719903 -12.066915 -18.958536 90.945061
36035000000 -16.715044 56.301266 -1.2502735 -12.35768 -1.2672585 -12.580857 -18.504755 87.379982
36062500000 -17.234762 48.512054 -1.2423724 -13.110523 -1.2422612 -13.030536 -18.74542 90.875618
36090000000 -15.915661 48.121834 -1.2187744 -13.47683 -1.2456686 -13.698013 -18.578022 89.499451
36117500000 -16.512226 51.255627 -1.2524022 -13.941023 -1.2201588 -14.204801 -18.505978 87.082939
36145000000 -17.52527 49.704094 -1.2615906 -14.918349 -1.2441936 -14.724336 -18.714453 89.227341
36172500000 -15.468114 45.598335 -1.2735741 -15.131718 -1.2435583 -15.236075 -18.183834 87.475609
36200000000 -16.059605 47.772552 -1.2736716 -15.968525 -1.2564452 -15.543605 -18.199562 85.371109
36227500000 -17.077576 54.019367 -1.2738067 -16.480289 -1.2594528 -16.497766 -18.261717 86.522644
36255000000 -16.078707 39.070351 -1.2773435 -17.035458 -1.2283125 -16.904507 -18.097237 85.022614
36282500000 -15.653501 48.152512 -1.2902128 -17.281965 -1.2730855 -17.395266 -17.729784 82.377342
36310000000 -16.654675 50.266827 -1.2835145 -18.061163 -1.3007878 -18.164696 -18.310677 82.632462
36337500000 -16.041325 34.181694 -1.28202 -18.783178 -1.2535739 -18.962355 -17.97036 81.646141
36365000000 -15.057999 48.908848 -1.2800244 -18.935734 -1.2611185 -19.119108 -17.717653 82.011871
36392500000 -15.953909 46.38224 -1.3286203 -19.632267 -1.2636037 -19.831202 -17.727131 82.484138
36420000000 -17.093681 39.960823 -1.2697684 -20.274658 -1.2972202 -20.505997 -17.73559 80.259506
36447500000 -14.564604 42.221809 -1.2557803 -20.785446 -1.304703 -20.774364 -17.330853 78.697868
36475000000 -16.341194 46.861946 -1.2918513 -21.326 -1.2858049 -21.436548 -17.272585 80.665047
36502500000 -16.005722 37.664585 -1.2963295 -21.837086 -1.3115138 -22.040859 -17.817141 78.992577
36530000000 -14.804332 37.700783 -1.2912458 -22.533482 -1.3235191 -22.318674 -17.183634 78.388657
36557500000 -15.339808 46.476051 -1.3070583 -22.865559 -1.2898355 -23.080231 -17.358582 77.628242
36585000000 -15.574793 37.404961 -1.3011295 -23.367632 -1.3011926 -23.466219 -17.519163 77.733421
36612500000 -15.197206 36.870766 -1.3107495 -23.994408 -1.3268596 -24.052443 -17.075655 74.867813
36640000000 -14.244702 45.913071 -1.3095329 -24.308527 -1.3141913 -24.585365 -17.059391 75.654945
36667500000 -15.97029 35.013741 -1.2680751 -25.240465 -1.3007036 -25.162399 -17.327047 74.695457
36695000000 -14.615707 36.453968 -1.3166353 -25.82482 -1.2656451 -25.668518 -16.474842 75.432953
36722500000 -13.968311 41.903553 -1.2876137 -26.193024 -1.2946781 -26.323217 -16.609783 70.576866
36750000000 -16.61591 35.642448 -1.358639 -26.914845 -1.2844609 -26.811802 -17.26086 73.54171
36777500000 -14.189889 34.199661 -1.2852995 -27.246336 -1.3170699 -27.321552 -16.657131 70.287735
36805000000 -14.518589 39.009037 -1.2891366 -27.970297 -1.3137906 -28.078644 -16.118759 71.480782
36832500000 -15.702479 41.219437 -1.3137306 -28.353022 -1.3091669 -28.488632 -16.68939 70.816277
36860000000 -14.46806 27.427504 -1.3204535 -29.15593 -1.2577044 -29.041965 -16.787195 69.705254
36887500000 -14.15832 39.517902 -1.3026959 -29.550978 -1.3011134 -29.677559 -16.33396 69.360909
36915000000 -15.561736 35.555248 -1.2992176 -29.994253 -1.2888291 -30.205912 -16.40563 67.081146
36942500000 -15.126891 28.761154 -1.3051373 -30.94589 -1.325079 -30.702965 -16.390696 65.429329
36970000000 -13.681836 35.476646 -1.3092327 -31.054152 -1.286674 -31.132057 -15.915065 65.290726
36997500000 -14.505614 36.451363 -1.3026491 -31.802 -1.3187228 -31.766384 -16.159021 65.729439
37025000000 -15.70773 31.933365 -1.2838155 -32.499199 -1.3240582 -32.307613 -16.403561 62.275917
37052500000 -13.337786 28.678957 -1.3128462 -33.065228 -1.2921256 -32.961639 -16.109524 64.262978
37080000000 -14.453006 43.373337 -1.3264261 -33.328789 -1.2700132 -33.182346 -16.057526 64.446762
37107500000 -15.298074 23.065561 -1.3202472 -33.927647 -1.2727329 -34.322533 -16.232553 63.719593
37135000000 -13.452158 26.737883 -1.3165988 -34.643734 -1.3416661 -34.768749 -15.951722 61.176426
37162500000 -14.432073 39.126835 -1.3067209 -35.075409 -1.3098545 -35.051762 -15.756164 60.425148
37190000000 -14.85171 24.724405 -1.3144042 -35.866341 -1.3548751 -35.839706 -16.19545 61.222729
37217500000 -14.246043 26.987528 -1.303903 -36.411572 -1.3259975 -36.079628 -16.075779 60.610149
37245000000 -13.636187 35.787983 -1.307144 -36.88081 -1.2970378 -36.648338 -15.376266 58.571934
37272500000 -15.10846 22.986496 -1.3123083 -37.424911 -1.3316795 -37.506813 -16.032745 61.074631
37300000000 -13.393831 26.824411 -1.303429 -38.015343 -1.2657002 -37.742138 -15.851794 59.113075
37327500000 -13.841209 30.148264 -1.3821876 -38.204678 -1.3334252 -38.45686 -15.124853 57.354362
37355000000 -14.279388 30.507601 -1.330516 -39.098621 -1.3360733 -38.986755 -15.855674 58.514572
37382500000 -13.867714 17.545088 -1.3113146 -39.58849 -1.342342 -39.850338 -15.893359 56.836967
37410000000 -13.18512 30.846371 -1.313491 -40.144848 -1.3182164 -39.976215 -15.043016 55.00634
37437500000 -14.360162 28.804226 -1.3651263 -40.686188 -1.3365666 -40.648933 -15.475239 54.70916
37465000000 -13.763692 18.264452 -1.3459409 -41.292404 -1.3478554 -41.474274 -15.754451 52.169827
37492500000 -13.425639 26.869431 -1.3371526 -41.823833 -1.3395904 -42.088596 -15.072527 53.10899
37520000000 -14.064853 27.83128 -1.3267233 -42.270653 -1.3725899 -42.181717 -15.088048 52.067204
37547500000 -14.00613 14.561725 -1.3360124 -42.921478 -1.3983675 -42.797672 -15.458426 52.071678
37575000000 -12.997406 24.416027 -1.3442367 -43.227505 -1.2901267 -43.485584 -15.229044 49.830387
37602500000 -14.064627 26.139351 -1.3604286 -43.951267 -1.3435295 -44.039356 -14.915368 52.463017
37630000000 -13.700493 17.45648 -1.3488703 -44.666611 -1.3561755 -44.439552 -15.236834 51.253666
37657500000 -13.107885 20.730476 -1.3426107 -45.075615 -1.3372234 -45.216118 -15.140054 47.873535
37685000000 -13.878942 25.056536 -1.375644 -45.491974 -1.3058883 -45.672832 -14.663802 49.629459
37712500000 -13.732234 17.880651 -1.378682 -46.179161 -1.3511014 -46.444603 -14.795177 48.961571
37740000000 -13.190619 17.309391 -1.3449557 -46.73941 -1.3659359 -46.580967 -15.151831 45.60495
37767500000 -13.301596 24.770908 -1.3459663 -47.301865 -1.3383685 -47.332092 -14.540211 47.66346
37795000000 -13.650481 18.290697 -1.3292682 -47.831146 -1.358604 -47.679245 -14.817834 46.376076
37822500000 -12.75948 14.551097 -1.3937972 -48.324963 -1.3542308 -48.279373 -15.127235 44.49221
37850000000 -13.705403 21.792738 -1.3552527 -48.856365 -1.4109235 -48.680256 -14.665341 46.509193
37877500000 -13.355994 16.129963 -1.320591 -49.529217 -1.3408021 -49.294453 -14.569315 45.200615
37905000000 -13.163527 12.899199 -1.3626648 -49.948906 -1.3529518 -50.004383 -14.966461 41.778866
37932500000 -13.220444 18.798925 -1.361882 -50.358089 -1.3537599 -50.18084 -14.598699 42.534931
37960000000 -13.736414 14.053534 -1.3561455 -51.033333 -1.3848205 -51.203991 -14.439857 42.878643
37987500000 -12.673013 13.544152 -1.3579295 -51.601444 -1.3209566 -51.827888 -15.001841 41.064163
38015000000 -13.221741 13.893872 -1.3384745 -52.139156 -1.3512155 -52.231506 -14.400821 40.912773
38042500000 -13.378071 15.578065 -1.336854 -52.626289 -1.4075904 -52.728325 -14.278283 42.294537
38070000000 -12.571872 12.159448 -1.3610801 -53.370041 -1.3769425 -53.283249 -14.509338 39.672001
38097500000 -12.833604 12.349551 -1.3751373 -53.74781 -1.3701055 -53.618362 -14.588804 36.952774
38125000000 -13.401226 15.250493 -1.3537959 -54.40897 -1.3557957 -54.270897 -14.396785 38.7915
38152500000 -12.935172 8.6539164 -1.3912692 -55.015018 -1.368142 -55.091129 -14.121382 37.321205
38180000000 -12.553343 12.417549 -1.403733 -55.553856 -1.3872827 -55.551376 -14.612362 35.679409
38207500000 -13.186461 13.143479 -1.329201 -55.866428 -1.3848112 -56.054699 -14.250299 37.509331
38235000000 -13.293063 8.8689775 -1.3808612 -56.631123 -1.3956816 -56.474018 -14.287176 35.581806
38262500000 -12.302042 10.780339 -1.3929495 -57.200848 -1.3626853 -57.176937 -14.220742 34.820633
38290000000 -13.546344 9.4032965 -1.3884867 -57.532063 -1.3832539 -57.818604 -14.415955 33.503899
38317500000 -12.896177 9.5423946 -1.3835658 -58.203896 -1.3318908 -57.947433 -14.076306 34.462601
38345000000 -12.079242 6.9577007 -1.3843404 -58.448936 -1.3944199 -58.524406 -14.230876 29.849754
38372500000 -13.118625 10.225481 -1.3523548 -58.988014 -1.3598064 -59.577999 -14.339125 29.194107
38400000000 -12.661939 3.6125124 -1.4283574 -59.660072 -1.3812927 -59.763222 -14.120417 31.717554
38427500000 -12.369561 10.309464 -1.4209642 -60.218037 -1.3896073 -59.912399 -14.007607 29.494625
38455000000 -12.883406 6.2702241 -1.3698372 -60.97982 -1.3824317 -60.766247 -14.620729 30.304047
38482500000 -13.209394 5.5898371 -1.3835536 -61.671417 -1.422529 -61.607243 -14.280356 30.706392
38510000000 -12.560586 6.5067215 -1.3935256 -61.99596 -1.3745302 -62.27425 -13.90903 29.09374
38537500000 -12.788304 6.3293552 -1.3924822 -62.585098 -1.3895407 -62.629864 -14.398104 26.132828
38565000000 -12.97256 4.1189342 -1.3904922 -63.039574 -1.3898747 -63.086399 -14.112386 28.991074
38592500000 -12.703032 3.8246405 -1.3987705 -63.722416 -1.3915862 -63.620037 -13.991879 26.98016
38620000000 -12.955897 4.0966687 -1.4058084 -64.142967 -1.3914222 -63.91185 -13.927345 23.862873
38647500000 -12.73009 2.354552 -1.4162557 -64.882927 -1.3390433 -64.791107 -14.299781 26.888758
38675000000 -12.927002 1.3805727 -1.4155524 -65.222046 -1.4061348 -65.109138 -13.58188 24.4711
38702500000 -12.192718 3.4300287 -1.3773197 -65.657669 -1.4362835 -65.462807 -13.581689 22.220045
38730000000 -13.157092 1.5683209 -1.426603 -66.343613 -1.4336787 -66.440338 -14.236384 25.521318
38757500000 -12.897243 0.95004326 -1.4049774 -66.824554 -1.4369097 -66.69487 -13.981834 24.020046
38785000000 -12.34431 3.4584301 -1.4138569 -67.356071 -1.3834387 -67.490746 -13.516518 21.432749
38812500000 -12.812465 0.58450681 -1.3603506 -68.011292 -1.3913894 -68.026703 -14.000757 20.809757
38840000000 -12.648983 -2.2185292 -1.4090357 -68.633156 -1.4127311 -68.352074 -13.938177 22.999979
38867500000 -12.623406 1.2020037 -1.4147463 -69.056786 -1.3577985 -68.941963 -13.536969 20.902821
38895000000 -12.717532 1.4715412 -1.3883352 -69.528427 -1.4234245 -69.950089 -13.922697 19.212391
38922500000 -12.839878 -4.7364531 -1.401211 -70.246452 -1.3741159 -70.169601 -14.179334 19.140493
38950000000 -12.41693 -1.9942536 -1.3926412 -70.726913 -1.4138949 -70.812485 -13.531157 19.413181
38977500000 -12.3733 -1.0708407 -1.4092017 -71.109123 -1.3913387 -70.911827 -13.66983 15.367664
39005000000 -12.818438 -4.8794909 -1.3539606 -71.769287 -1.3767346 -71.94101 -14.185003 17.371471
39032500000 -12.552516 -4.806869 -1.4276227 -72.010254 -1.4026971 -72.535347 -13.479002 17.171434
39060000000 -12.441904 -0.38867438 -1.4261539 -72.668022 -1.3677409 -72.647583 -13.432203 15.220971
39087500000 -12.650455 -4.14712 -1.3839442 -73.427475 -1.4118277 -73.404694 -14.426735 16.002836
39115000000 -12.297921 -5.5255032 -1.4373317 -73.866966 -1.4432479 -73.755135 -13.626431 15.861153
39142500000 -12.630432 -3.0520093 -1.3926476 -74.614395 -1.4171556 -74.393974 -13.517332 14.607074
39170000000 -12.447985 -6.4182725 -1.3908573 -74.711197 -1.3663405 -75.120361 -13.723415 12.570834
39197500000 -12.558351 -8.8734436 -1.4132862 -75.642624 -1.399649 -75.596031 -13.989285 12.7684
39225000000 -12.041739 -2.9261384 -1.4508733 -76.100571 -1.4649425 -76.179306 -12.971946 14.852708
39252500000 -12.904535 -4.3127618 -1.4330367 -76.82061 -1.4240109 -76.742691 -13.774808 13.960508
39280000000 -12.474363 -10.699074 -1.3716946 -77.003433 -1.3894078 -77.082565 -14.136199 10.253433
39307500000 -12.14566 -8.4097223 -1.4471564 -77.463097 -1.4349343 -77.465858 -13.420735 11.535765
39335000000 -13.115232 -4.4805775 -1.4209951 -78.183517 -1.4176515 -78.446243 -13.639287 11.198139
39362500000 -12.157282 -14.334964 -1.3830037 -79.258209 -1.4023045 -78.83606 -14.289016 9.5008688
39390000000 -12.537661 -6.0811296 -1.4350296 -79.335289 -1.3944402 -79.108948 -13.610951 11.563951
39417500000 -12.591068 -8.8795118 -1.4493244 -79.871048 -1.4099442 -80.041519 -13.325893 8.8441582
39445000000 -12.740809 -11.405364 -1.4172353 -80.570145 -1.4222453 -80.665604 -13.948668 7.9336224
39472500000 -12.225446 -13.961647 -1.386873 -80.977272 -1.3764982 -80.928383 -13.702963 7.6226177
39500000000 -12.596867 -8.6091995 -1.4301083 -81.147675 -1.4165376 -81.373985 -13.309188 7.579741
39527500000 -12.870667 -13.04404 -1.4516915 -82.019119 -1.3882016 -81.975426 -13.996653 6.4172473
39555000000 -11.803624 -15.256918 -1.3266573 -82.832039 -1.4040499 -82.810547 -13.847492 5.4092441
39582500000 -12.820665 -9.3596029 -1.4142698 -83.271545 -1.4642737 -82.824532 -13.309788 7.1499939
39610000000 -12.730749 -9.9063549 -1.4363029 -83.62944 -1.440146 -83.483292 -13.577552 5.7714729
39637500000 -12.206386 -19.452351 -1.3853794 -84.127357 -1.3918344 -84.034065 -13.627091 0.58492672
39665000000 -12.090614 -10.773862 -1.3617887 -84.804504 -1.4018351 -84.59108 -13.414814 3.4849863
39692500000 -13.634109 -13.983433 -1.4658102 -85.428879 -1.3933012 -85.193466 -13.749258 3.4035199
39720000000 -11.856684 -18.743132 -1.4112842 -85.981453 -1.3996226 -86.060333 -13.721765 0.88159406
39747500000 -12.2158 -11.353852 -1.3836701 -86.279457 -1.4263082 -86.084785 -13.181305 1.7319372
39775000000 -13.480988 -17.201061 -1.4248313 -86.848244 -1.4254138 -86.941963 -13.453543 0.57062876
39802500000 -12.008735 -18.541796 -1.3805361 -87.34613 -1.3751558 -87.551598 -13.594228 0.37614849
39830000000 -11.96307 -14.303908 -1.3900344 -87.723213 -1.3994471 -87.879105 -13.25788 -1.4134789
39857500000 -13.62604 -16.733868 -1.43938 -88.852875 -1.4637367 -88.551987 -13.131153 -0.01776137
39885000000 -12.11679 -18.24408 -1.3690857 -89.245491 -1.3693469 -89.245407 -13.776015 -2.8727024
39912500000 -12.376143 -18.193506 -1.3705193 -89.658203 -1.4124064 -89.220642 -13.409197 -3.3523924
39940000000 -13.283402 -14.331151 -1.4026799 -90.180084 -1.436446 -90.213463 -13.284691 -1.1893265
39967500000 -12.321235 -22.323933 -1.4116601 -90.555557 -1.3950248 -90.715538 -13.745352 -2.8017402
39995000000 -12.365165 -19.310381 -1.3522038 -91.052994 -1.3595551 -91.291565 -13.76755 -6.3849831
40022500000 -12.604453 -15.088449 -1.3755494 -91.810669 -1.3762569 -91.923851 -13.466929 -1.9801433
40050000000 -14.091992 -27.426321 -1.422696 -92.45134 -1.45311 -92.572563 -13.622682 -5.6653266
40077500000 -11.296242 -18.998415 -1.3390168 -92.828377 -1.3159338 -92.715096 -13.614092 -7.175509
40105000000 -13.430319 -20.12952 -1.3574026 -93.322815 -1.3349108 -93.285797 -13.291635 -6.5314822
40132500000 -13.698201 -21.891201 -1.3725178 -94.268799 -1.3243735 -94.212852 -13.760745 -6.7168875
40160000000 -12.031479 -24.595657 -1.3521152 -94.253555 -1.3931357 -94.546707 -13.690819 -8.6514397
40187500000 -13.189388 -17.550526 -1.3537097 -94.931702 -1.3197536 -94.966194 -13.484171 -8.459384
40215000000 -13.779869 -25.761732 -1.3522972 -95.815857 -1.417955 -95.460121 -13.781468 -8.4652824
40242500000 -12.061225 -28.832108 -1.3247018 -95.943619 -1.3964313 -96.212906 -13.830008 -10.980698
40270000000 -13.033279 -18.391724 -1.2731094 -96.497704 -1.2826637 -96.577705 -13.622025 -10.187118
40297500000 -13.34171 -33.303684 -1.3147553 -97.281174 -1.3725747 -97.360092 -13.852092 -10.773351
40325000000 -13.062361 -24.033194 -1.3669308 -97.613777 -1.3229761 -97.818474 -14.015771 -10.147147
40352500000 -12.565131 -23.938293 -1.3879184 -98.302521 -1.3476151 -98.363297 -13.722725 -12.899154
40380000000 -14.209804 -28.182907 -1.3655282 -99.065277 -1.3620371 -98.773788 -13.733898 -12.950528
40407500000 -12.927335 -27.408197 -1.3304974 -99.798958 -1.37867 -99.804504 -14.151297 -13.460078
40435000000 -12.193885 -24.527832 -1.3555113 -100.17743 -1.3723137 -99.654594 -13.927662 -13.172705
40462500000 -14.789234 -27.445421 -1.2915264 -100.41782 -1.3838 -100.28076 -13.531409 -13.552703
40490000000 -12.063515 -33.512859 -1.342427 -101.25146 -1.3269014 -101.14101 -13.943316 -17.026245
40517500000 -13.041626 -22.572317 -1.3442914 -101.39168 -1.3432307 -102.12761 -13.756001 -14.157829
40545000000 -13.495334 -27.743067 -1.3327988 -101.9184 -1.3150034 -102.12006 -13.526974 -18.996593
40572500000 -13.191818 -34.658577 -1.3790706 -102.91053 -1.3440117 -102.80925 -13.748424 -17.425272
40600000000 -12.422771 -24.515018 -1.3041364 -103.11966 -1.3505766 -103.20013 -14.021491 -16.624765
40627500000 -13.385374 -30.262218 -1.3580431 -103.56323 -1.3186597 -103.83295 -13.693434 -18.243711
40655000000 -13.755571 -33.670605 -1.3722847 -104.33837 -1.3311645 -104.32775 -13.696655 -18.89102
40682500000 -12.847825 -24.576099 -1.2943081 -105.50239 -1.2907252 -104.90962 -14.469211 -19.178425
40710000000 -13.709135 -35.153404 -1.3645141 -105.38268 -1.3035258 -105.32815 -14.238406 -20.156879
40737500000 -13.486633 -30.469658 -1.3614552 -105.96902 -1.3030912 -106.19064 -13.864808 -21.254726
40765000000 -13.102194 -35.647503 -1.3004267 -106.93497 -1.3183055 -106.70483 -14.417884 -21.839975
40792500000 -13.397215 -25.520399 -1.3386197 -107.35693 -1.3259958 -107.49888 -14.058358 -20.017019
40820000000 -14.058298 -41.519909 -1.3376249 -107.86961 -1.3434716 -107.92721 -13.976237 -23.273842
40847500000 -12.779882 -32.503731 -1.3157772 -108.49191 -1.2859273 -108.7486 -14.300248 -25.581589
40875000000 -14.148717 -29.847429 -1.3209791 -108.36787 -1.2971418 -108.73245 -14.246274 -23.923332
40902500000 -13.235396 -38.170017 -1.301514 -109.56259 -1.2936288 -109.45337 -14.097136 -23.137053
40930000000 -14.091391 -34.054588 -1.3535471 -109.8269 -1.347947 -109.65554 -14.35522 -26.26557
40957500000 -13.12293 -31.176405 -1.3230364 -110.5264 -1.3084552 -110.4854 -14.561493 -24.5686
40985000000 -14.830012 -37.42345 -1.3171295 -110.97233 -1.3009548 -111.4288 -13.953306 -24.280182
41012500000 -12.857289 -36.415436 -1.3079276 -111.81429 -1.2444311 -111.84715 -14.455717 -28.012568
41040000000 -14.287223 -32.298119 -1.3374249 -112.19082 -1.3381974 -112.43388 -14.916875 -27.382139
41067500000 -13.885044 -37.108799 -1.3337116 -113.06944 -1.2936254 -112.86692 -14.488266 -26.329296
41095000000 -13.691684 -39.175453 -1.3047845 -113.31644 -1.3403319 -113.38626 -14.496251 -28.712271
41122500000 -14.357677 -33.179081 -1.33006 -113.83488 -1.2550335 -113.71385 -15.031384 -29.544645
41150000000 -14.182021 -37.32156 -1.2834871 -114.30912 -1.2498292 -114.34188 -14.73767 -28.460363
41177500000 -13.702514 -41.460136 -1.3253617 -115.09862 -1.3104019 -115.29237 -13.968647 -29.468458
41205000000 -14.39183 -32.525761 -1.3040602 -115.55854 -1.3096761 -115.73422 -14.889194 -30.153622
41232500000 -14.398762 -40.664478 -1.2574308 -116.34028 -1.2893404 -116.01762 -15.113593 -31.21266
41260000000 -14.03728 -38.4977 -1.3501421 -116.83691 -1.3053502 -116.74964 -14.216197 -29.241945
41287500000 -14.242542 -39.680256 -1.3532836 -117.24662 -1.2871726 -117.17183 -14.770504 -34.494244
41315000000 -14.637227 -38.209522 -1.2989756 -117.69225 -1.3184124 -117.47401 -15.249378 -31.174347
41342500000 -13.935632 -39.580593 -1.259806 -118.67562 -1.3049285 -118.74187 -14.636625 -30.808905
41370000000 -14.438924 -42.622307 -1.3261847 -118.97977 -1.2840917 -118.74878 -15.095488 -36.08197
41397500000 -15.343032 -36.119926 -1.2214059 -119.53918 -1.2422022 -118.91037 -15.023073 -35.487194
41425000000 -13.579469 -45.694862 -1.2771358 -120.22138 -1.2905012 -120.02816 -15.008229 -34.289185
41452500000 -15.147161 -40.22813 -1.2372262 -120.78909 -1.3076023 -120.57681 -14.595442 -38.147087
41480000000 -14.42754 -39.884758 -1.3751789 -121.07822 -1.3089339 -121.22498 -15.570737 -36.982681
41507500000 -14.794396 -44.064774 -1.2955996 -121.63829 -1.2271019 -121.65176 -15.217201 -36.928753
41535000000 -14.312305 -41.006439 -1.263023 -122.21279 -1.2635628 -122.54376 -14.67966 -39.01009
41562500000 -15.051231 -44.154137 -1.3048285 -122.51733 -1.2680993 -122.54057 -14.913188 -42.853935
41590000000 -14.683294 -42.66552 -1.2634341 -123.29835 -1.2845761 -123.63381 -15.708352 -39.901581
41617500000 -14.323852 -43.278976 -1.2339784 -124.02122 -1.267646 -123.84776 -14.882438 -36.87093
41645000000 -15.502736 -49.311363 -1.256125 -124.7239 -1.2238877 -124.29221 -15.431248 -45.693527
41672500000 -15.013802 -39.27158 -1.225579 -125.22071 -1.2731777 -124.9509 -15.873704 -41.308147
41700000000 -15.502512 -48.621819 -1.3096128 -125.70582 -1.2745814 -125.72728 -15.493604 -37.661057
41727500000 -15.054265 -44.16592 -1.3304011 -126.1316 -1.2397926 -126.57664 -15.569482 -43.702988
41755000000 -15.356245 -46.69595 -1.2544848 -126.60868 -1.2932261 -126.79316 -15.852113 -44.33186
41782500000 -15.45229 -48.638599 -1.2807978 -127.13839 -1.2753953 -126.9686 -15.391929 -39.867771
41810000000 -15.065319 -43.602306 -1.3114917 -128.11575 -1.236815 -128.12854 -15.266491 -42.962242
41837500000 -15.612374 -54.647472 -1.2445118 -128.72285 -1.2306862 -128.04968 -16.254856 -49.144073
41865000000 -15.467839 -40.897743 -1.2725629 -129.34242 -1.2400908 -128.96526 -16.185625 -41.375957
41892500000 -15.803219 -53.268124 -1.229116 -129.35173 -1.2373794 -129.47937 -15.351866 -46.66153
41920000000 -15.464477 -50.492989 -1.252063 -129.89671 -1.2877418 -129.78786 -16.211905 -50.773418
41947500000 -16.043282 -42.945663 -1.2214535 -130.28993 -1.2631294 -130.78862 -16.260397 -48.513412
41975000000 -16.219042 -52.607346 -1.303861 -131.37846 -1.245049 -131.11237 -16.048311 -45.574223
42002500000 -14.923321 -48.551849 -1.2617415 -131.86778 -1.2843857 -131.87737 -16.197882 -50.526535
42030000000 -17.105333 -51.510574 -1.2127888 -132.11378 -1.2226098 -132.51602 -16.821302 -48.894672
42057500000 -16.018934 -45.124371 -1.2820711 -133.21936 -1.2337642 -132.95677 -16.358334 -45.27021
42085000000 -15.776137 -54.945187 -1.2559121 -133.29857 -1.2539046 -133.84889 -16.036627 -53.670208
42112500000 -16.620056 -45.45562 -1.2272953 -133.93494 -1.2296835 -133.83075 -16.869289 -54.721012
42140000000 -16.829788 -49.311802 -1.2364327 -134.94949 -1.2518123 -134.66064 -16.949669 -50.088463
42167500000 -15.981936 -53.640026 -1.2603347 -135.23793 -1.2884927 -135.03633 -16.309425 -51.730415
42195000000 -16.317856 -47.256073 -1.2415826 -135.50554 -1.2659016 -135.07036 -16.292673 -57.015446
42222500000 -17.617104 -51.161846 -1.2328831 -136.41377 -1.2621617 -136.66039 -17.0994 -49.484695
42250000000 -15.837687 -55.663548 -1.2008013 -137.15486 -1.2221299 -136.68294 -16.768513 -53.438358
42277500000 -16.086813 -45.45055 -1.2693852 -137.08904 -1.2988722 -137.4212 -16.40374 -60.060581
42305000000 -18.387051 -50.677559 -1.2203516 -137.68784 -1.1734296 -137.722 -17.487278 -55.814297
42332500000 -15.426741 -55.239975 -1.2676734 -138.6082 -1.2136739 -138.52921 -16.60725 -53.391216
42360000000 -17.02388 -48.633781 -1.2583491 -139.15036 -1.2483397 -139.13261 -16.736923 -61.940918
42387500000 -17.763813 -45.929924 -1.2829705 -139.9101 -1.2478597 -139.80412 -17.320042 -58.929745
42415000000 -17.227264 -60.211826 -1.2522289 -140.56293 -1.1923305 -140.34383 -17.37768 -54.886993
42442500000 -16.369888 -47.353413 -1.2634493 -140.87704 -1.2097917 -140.59537 -17.241417 -58.906456
42470000000 -18.610409 -57.225788 -1.2026707 -141.65308 -1.1931484 -141.3902 -17.950558 -63.195587
42497500000 -17.248911 -55.773106 -1.2628849 -141.70767 -1.1796672 -142.08174 -17.713825 -56.391796
42525000000 -16.84128 -50.987755 -1.2024357 -142.85005 -1.1694063 -142.59644 -17.509069 -66.458038
42552500000 -18.728016 -50.876156 -1.2406257 -143.10355 -1.2176939 -143.14839 -17.445257 -62.350948
42580000000 -19.122616 -57.779221 -1.2364382 -143.52693 -1.1984434 -144.0237 -17.972095 -60.810719
42607500000 -15.943521 -49.508705 -1.2371582 -144.57744 -1.1796217 -144.54013 -17.415808 -62.382004
42635000000 -19.660967 -44.318264 -1.21767 -145.08423 -1.2423239 -144.79781 -18.565954 -64.454628
42662500000 -18.66024 -58.711399 -1.2198048 -145.65009 -1.1951716 -145.50806 -18.304583 -62.655861
42690000000 -17.582088 -54.011604 -1.2046597 -146.61652 -1.2649717 -145.89536 -18.133188 -64.643677
42717500000 -17.551596 -42.45628 -1.1876624 -146.35371 -1.2503273 -146.34099 -18.418665 -67.903183
42745000000 -20.270931 -72.630302 -1.224443 -147.21843 -1.2031187 -147.3253 -19.818419 -60.625832
42772500000 -17.082773 -50.53775 -1.2149653 -147.5777 -1.2442364 -147.6021 -18.930635 -64.439499
42800000000 -18.331944 -45.775787 -1.2583649 -148.29865 -1.1716216 -148.2234 -19.051008 -69.765076
42827500000 -21.933632 -58.294827 -1.3122824 -149.00281 -1.2607485 -148.9417 -19.614382 -64.833992
42855000000 -17.889147 -48.505829 -1.2510382 -149.18242 -1.2122508 -149.46796 -18.87619 -66.626465
42882500000 -19.147669 -46.110657 -1.2095612 -149.69731 -1.1694775 -150.39693 -19.313141 -73.791054
42910000000 -22.667349 -54.170113 -1.2432016 -150.45621 -1.2288649 -150.36415 -19.988482 -67.907623
42937500000 -19.000372 -65.771614 -1.1604776 -150.80037 -1.16684 -150.97719 -19.963177 -71.10833
42965000000 -18.087675 -38.372772 -1.156692 -151.71307 -1.1931212 -151.34309 -19.722557 -71.685402
42992500000 -22.034567 -57.137058 -1.1908772 -151.94804 -1.2622881 -152.23444 -20.194323 -72.970795
43020000000 -19.249908 -70.625488 -1.1758994 -152.78639 -1.2454524 -153.03601 -19.924364 -71.931892
43047500000 -17.916342 -38.063171 -1.1961101 -153.29919 -1.1779251 -153.48849 -20.530685 -69.418068
43075000000 -23.829376 -55.568817 -1.2270724 -153.85101 -1.1572235 -153.85052 -20.125935 -73.370773
43102500000 -21.36392 -68.667397 -1.2499506 -154.22102 -1.2266288 -154.74693 -20.713743 -63.838837
43130000000 -17.392927 -43.777172 -1.2672744 -154.96735 -1.144966 -155.35582 -19.705366 -73.832008
43157500000 -22.793238 -51.398186 -1.1828325 -155.54408 -1.2250257 -155.93983 -20.816393 -83.870522
43185000000 -21.616327 -56.905464 -1.1794981 -156.24301 -1.108584 -156.03192 -20.939016 -74.503601
43212500000 -19.119389 -51.641735 -1.2806922 -157.02493 -1.2378259 -156.69098 -20.06934 -82.273567
43240000000 -21.881458 -18.283434 -1.2824759 -157.75285 -1.1581068 -157.51176 -20.852684 -86.922951
43267500000 -20.5282 -74.295921 -1.2074468 -157.90254 -1.2328188 -158.15149 -22.509359 -71.917488
43295000000 -21.811035 -52.115391 -1.2099435 -158.58578 -1.1640115 -158.88228 -21.375816 -80.936409
43322500000 -18.402121 -31.722668 -1.1541659 -159.63933 -1.1673462 -159.26996 -22.503511 -89.345154
43350000000 -25.584347 -76.561157 -1.2893589 -160.37254 -1.2302172 -159.5753 -22.581242 -88.016327
43377500000 -19.529348 -47.982872 -1.1855141 -160.02379 -1.1762639 -160.60464 -22.566858 -82.716942
43405000000 -21.810413 -42.446777 -1.2006897 -160.76784 -1.1880201 -160.48932 -22.572018 -85.136131
43432500000 -25.804811 -41.067905 -1.274237 -161.31358 -1.2283819 -161.88647 -21.924265 -90.862305
43460000000 -19.210442 -58.725719 -1.2194825 -162.11885 -1.1619204 -161.96521 -23.529839 -89.546013
43487500000 -21.194239 -16.626938 -1.1749309 -162.96494 -1.1277908 -162.83235 -21.770834 -88.135612
43515000000 -25.03611 -32.08424 -1.1506112 -162.62808 -1.18971 -163.52391 -23.166674 -88.955971
43542500000 -22.326315 -68.427887 -1.1854478 -164.15474 -1.1960491 -164.19687 -24.567503 -84.169731
43570000000 -21.326193 -30.352587 -1.2151054 -164.64359 -1.1281075 -164.23451 -24.172033 -86.698059
43597500000 -23.873137 -33.58894 -1.1803391 -164.81427 -1.2373351 -165.19148 -23.246578 -105.19562
43625000000 -23.961113 -62.19228 -1.1273652 -165.51744 -1.2028561 -165.35013 -25.113325 -92.396194
43652500000 -20.636778 -34.713921 -1.1805466 -165.87865 -1.1020862 -166.2623 -24.138803 -93.250954
43680000000 -24.001528 -13.85848 -1.173196 -166.72348 -1.1852828 -166.5836 -23.270515 -109.65884
43707500000 -26.501976 -54.466816 -1.1307106 -167.03627 -1.1782979 -167.2382 -25.879229 -101.29007
43735000000 -20.869064 -47.105343 -1.1881324 -168.18646 -1.2101532 -167.75671 -26.876127 -94.234062
43762500000 -21.446239 12.302409 -1.1973275 -168.47885 -1.1725143 -168.27756 -24.157536 -104.19325
43790000000 -25.460249 -71.512398 -1.1769528 -169.47791 -1.2141449 -169.13206 -25.766497 -103.8106
43817500000 -22.061771 -24.722107 -1.0729858 -169.7282 -1.1606441 -169.37582 -27.46604 -99.98278
43845000000 -21.759649 -4.6028457 -1.1632159 -170.22874 -1.1243826 -170.67058 -25.454361 -116.3297
43872500000 -24.98484 -48.278919 -1.2337965 -170.60736 -1.2056427 -170.51949 -28.792271 -115.52576
43900000000 -22.637207 -32.244682 -1.1796474 -171.35956 -1.1734785 -171.10901 -31.677704 -98.223473
43927500000 -22.905375 -15.109668 -1.2157989 -172.45381 -1.1622425 -171.88187 -26.269499 -110.90166
43955000000 -25.577305 0.16138726 -1.1551236 -172.20436 -1.2189304 -172.33971 -26.722054 -121.27912
43982500000 -22.950741 -40.849384 -1.1676612 -173.1048 -1.1910723 -173.23712 -33.818993 -105.15975
44010000000 -23.149618 -11.182734 -1.1644132 -173.45883 -1.1330625 -173.64076 -28.782408 -127.82686
44037500000 -22.435389 2.6145289 -1.1438013 -173.94044 -1.1711246 -174.38124 -28.02883 -141.62161
44065000000 -24.952671 -40.132805 -1.2090461 -174.21071 -1.2837076 -174.69112 -34.374371 -143.21457
44092500000 -23.09133 -6.6719522 -1.1768687 -175.35426 -1.1809452 -175.3277 -32.829247 -120.19489
44120000000 -22.996622 13.89691 -1.1991411 -175.80542 -1.1371834 -176.20874 -29.79916 -127.21227
44147500000 -27.542465 -40.406467 -1.2204006 -177.21626 -1.2205884 -176.75137 -32.331097 -166.47987
44175000000 -20.011225 -14.274406 -1.1911435 -177.73787 -1.1481037 -177.46414 -34.255268 -161.45041
44202500000 -22.893955 30.985157 -1.1930864 -177.71521 -1.1508254 -178.062 -30.062344 -137.86462
44230000000 -24.082949 -8.3518257 -1.1455984 -178.24341 -1.2359334 -177.7758 -29.880484 -159.53722
44257500000 -22.662073 -18.691813 -1.18232 -178.46419 -1.2050523 -178.91693 -36.18977 -171.69646
44285000000 -21.800165 25.612791 -1.119994 -179.69881 -1.1799709 -179.02924 -35.521908 -160.53294
44312500000 -23.590374 8.7930527 -1.2452393 179.38515 -1.1303039 -179.94823 -31.079203 -169.7442
44340000000 -24.424582 -18.01619 -1.2321581 179.18567 -1.1769947 179.02164 -36.947159 169.59525
44367500000 -19.867258 17.386688 -1.1658343 178.25331 -1.200422 178.88916 -34.266376 160.57118
44395000000 -24.94462 11.145948 -1.2385994 178.41347 -1.2346832 178.50865 -28.822411 178.85109
44422500000 -23.98658 -16.85582 -1.2661368 177.35312 -1.1809859 177.7303 -31.562681 123.54032
44450000000 -19.959671 19.661112 -1.2357304 176.98518 -1.2339196 176.91869 -35.057171 159.50146
44477500000 -25.28441 19.762604 -1.2030022 176.66901 -1.1619766 176.73831 -31.712721 144.39926
44505000000 -22.825642 -3.5374088 -1.3039567 175.7664 -1.2801166 175.44461 -29.654549 122.36192
44532500000 -20.874735 16.121572 -1.1813811 175.11636 -1.2320442 175.26485 -39.580635 94.839172
44560000000 -22.912792 35.28376 -1.2276809 174.76529 -1.2679628 174.96092 -31.178408 149.49352
44587500000 -20.43824 -1.9336197 -1.2250013 173.97556 -1.2714558 173.97511 -28.90369 117.60306
44615000000 -20.095358 14.558418 -1.1526231 173.5829 -1.2447524 173.50073 -30.030687 107.68336
44642500000 -20.615593 28.96299 -1.212337 173.45976 -1.227753 172.86124 -30.160069 122.35342
44670000000 -23.002071 4.6140757 -1.2108308 172.32785 -1.2544439 172.55794 -28.81024 117.60142
44697500000 -19.775702 10.335763 -1.1992093 171.99339 -1.2402231 171.84859 -27.717911 99.28511
44725000000 -20.638203 33.78186 -1.2469527 171.25954 -1.2572286 171.51076 -32.422199 88.717461
44752500000 -22.138985 9.9961605 -1.2956892 170.54041 -1.2228529 171.02159 -26.634541 113.60951
44780000000 -18.665581 20.195871 -1.2594399 169.8083 -1.2794054 170.32343 -25.962988 106.38609
44807500000 -22.131176 23.534267 -1.295172 169.80106 -1.2600067 170.23828 -28.952215 96.389572
44835000000 -19.943682 29.103081 -1.2401472 168.79349 -1.2725487 169.10342 -25.592037 108.14088
44862500000 -20.080988 2.2814322 -1.277881 168.38095 -1.2928698 168.28055 -24.984594 99.469421
44890000000 -20.242659 28.754047 -1.3055358 167.69054 -1.271189 167.85519 -25.026068 87.016335
44917500000 -19.546991 22.270168 -1.254588 166.75166 -1.2470955 167.57182 -27.04426 95.814697
44945000000 -19.644419 9.7178993 -1.2572545 166.64543 -1.2390811 166.72253 -23.215372 95.522171
44972500000 -19.203518 20.975027 -1.2817798 166.32242 -1.2554226 166.28532 -25.161263 86.081802
45000000000 -19.238632 33.316475 -1.2322052 165.41576 -1.3056812 165.7386 -27.531307 86.917557
