! Quiescent point : V1=-1.56882E-02 I1=+1.26855E-03 V2=-2.24137E-02 I2=-1.28160E-03
! Pulsed point : V1=-1.60646E-02 I1=+1.29160E-03 V2=-2.26602E-02 I2=-1.28700E-03
! Period : +2.00000E-04
! Input Supply timing : delay=+1.60000E-06 width=+2.20000E-06
! Output Supply timing : delay=+1.70000E-06 width=+2.00000E-06
! VNA timing : delay=+2.40000E-06 width=+1.10000E-06
# Hz S RI R 50
+2.70000E+10 +1.57711E-03 -2.26817E-01 +9.35029E-01 -1.80234E-01 +9.57587E-01 -1.80736E-01 -5.35509E-02 -1.64896E-01
+2.71000E+10 -5.91628E-03 -1.86665E-01 +8.69947E-01 -1.95689E-01 +9.11762E-01 -2.15243E-01 +4.92593E-03 -2.46585E-01
+2.72000E+10 +1.20668E-02 -2.14033E-01 +9.53112E-01 -1.82476E-01 +8.65608E-01 -2.29021E-01 -1.61521E-02 -1.71817E-01
+2.73000E+10 -2.67090E-02 -2.78209E-01 +9.71065E-01 -2.81615E-01 +9.29184E-01 -1.77469E-01 -2.06021E-02 -1.84798E-01
+2.74000E+10 -2.15299E-02 -2.39236E-01 +9.23653E-01 -2.59304E-01 +8.72007E-01 -2.74213E-01 -9.36586E-02 -2.74634E-01
+2.75000E+10 -4.89288E-02 -1.75923E-01 +9.33908E-01 -2.64293E-01 +8.38204E-01 -2.98398E-01 +4.71310E-02 -1.58143E-01
+2.76000E+10 -9.87538E-02 -1.17172E-01 +8.12289E-01 -3.04003E-01 +9.12115E-01 -2.43074E-01 -1.39646E-01 -2.46325E-01
+2.77000E+10 -1.16057E-01 -1.15658E-01 +9.84690E-01 -3.34459E-01 +8.47151E-01 -2.56805E-01 -9.57381E-02 -2.34275E-01
+2.78000E+10 -7.47136E-02 -1.74354E-01 +7.58844E-01 -3.97924E-01 +8.95224E-01 -3.53266E-01 +2.95822E-03 -1.68153E-01
+2.79000E+10 -8.65363E-02 -2.26268E-01 +8.47839E-01 -4.28899E-01 +8.04308E-01 -3.58135E-01 -7.10107E-02 -1.82541E-01
+2.80000E+10 -7.51713E-02 -1.74675E-01 +8.08524E-01 -3.32743E-01 +8.00114E-01 -3.50734E-01 -8.25393E-02 -1.13250E-01
+2.81000E+10 +3.40732E-02 -1.77764E-01 +8.00827E-01 -3.35087E-01 +7.95154E-01 -3.42748E-01 -5.73754E-02 -1.24480E-01
+2.82000E+10 -4.83629E-02 -1.01871E-01 +8.30283E-01 -5.34027E-01 +8.27223E-01 -3.49861E-01 -2.24000E-02 -1.35975E-01
+2.83000E+10 -2.79698E-02 -1.88183E-01 +9.62189E-01 -4.37410E-01 +8.60758E-01 -4.62935E-01 -4.04051E-02 -1.84816E-01
+2.84000E+10 -3.77971E-02 -8.68478E-02 +8.40142E-01 -4.35338E-01 +8.65207E-01 -4.13997E-01 -4.15043E-02 -2.49189E-01
+2.85000E+10 -9.08351E-02 -2.53575E-01 +7.28495E-01 -4.11873E-01 +7.97928E-01 -5.06932E-01 -7.33353E-02 -2.38437E-01
+2.86000E+10 -6.04356E-02 -1.91809E-01 +8.22164E-01 -5.53904E-01 +8.01675E-01 -5.41954E-01 -6.77471E-02 -2.21770E-01
+2.87000E+10 -7.60197E-03 -5.84926E-02 +7.05306E-01 -5.40051E-01 +7.51157E-01 -4.66013E-01 -1.54671E-01 -9.94067E-02
+2.88000E+10 +1.10660E-02 -1.64454E-01 +7.38666E-01 -4.88726E-01 +8.60016E-01 -5.02493E-01 -1.22681E-01 -1.05131E-01
+2.89000E+10 -9.70572E-02 -2.24141E-01 +7.62906E-01 -5.68492E-01 +7.04091E-01 -5.56886E-01 -2.82903E-02 -2.64321E-01
+2.90000E+10 -4.33326E-02 -1.92048E-01 +6.99931E-01 -4.95196E-01 +6.68296E-01 -5.94808E-01 -5.54797E-02 -1.85975E-01
+2.91000E+10 -1.10879E-01 -1.58428E-01 +7.44595E-01 -6.31831E-01 +7.82068E-01 -6.45765E-01 -4.64124E-02 -1.89115E-01
+2.92000E+10 -2.25733E-02 -1.41093E-01 +7.78394E-01 -6.59626E-01 +7.66278E-01 -5.65942E-01 -6.19114E-02 -1.70161E-01
+2.93000E+10 -2.68985E-02 -1.31322E-01 +7.35092E-01 -6.06373E-01 +7.78358E-01 -7.26792E-01 -2.94019E-02 -1.67989E-01
+2.94000E+10 -7.67007E-02 -8.53437E-02 +7.48084E-01 -6.18805E-01 +7.03528E-01 -6.89020E-01 -2.93501E-03 -2.04867E-01
+2.95000E+10 -4.29289E-02 -1.15259E-01 +7.25232E-01 -6.36317E-01 +7.43279E-01 -6.99927E-01 -5.04278E-02 -1.04915E-01
+2.96000E+10 -7.59765E-02 -6.23334E-02 +6.96755E-01 -6.89429E-01 +6.92488E-01 -6.78510E-01 -5.39196E-02 -1.58017E-01
+2.97000E+10 -7.82336E-02 -1.02218E-01 +6.78546E-01 -7.22984E-01 +7.14387E-01 -6.95406E-01 -3.87326E-02 -7.83758E-02
+2.98000E+10 -5.32881E-02 -1.57611E-01 +6.59922E-01 -7.05437E-01 +6.27714E-01 -6.73298E-01 -1.46966E-01 -1.27875E-01
+2.99000E+10 -1.01037E-01 -1.10455E-01 +6.64864E-01 -5.77625E-01 +5.84461E-01 -6.68178E-01 -9.75137E-02 -2.40167E-01
+3.00000E+10 -2.42019E-02 -8.82216E-02 +6.31370E-01 -7.29539E-01 +5.52357E-01 -7.10513E-01 -6.28691E-02 -7.75618E-02
+3.01000E+10 -1.47798E-01 -7.12069E-02 +5.53408E-01 -7.56851E-01 +5.45339E-01 -7.75210E-01 -1.55556E-01 -1.06459E-01
+3.02000E+10 -2.37182E-02 -1.31854E-01 +5.97414E-01 -8.63811E-01 +6.28146E-01 -7.16680E-01 -6.19654E-02 -6.11935E-03
+3.03000E+10 -1.05526E-01 -1.61886E-01 +4.86161E-01 -7.66512E-01 +5.67429E-01 -7.70216E-01 -1.22365E-01 -6.80117E-02
+3.04000E+10 -4.87948E-02 -5.65620E-02 +5.17848E-01 -8.15973E-01 +6.50783E-01 -7.67324E-01 -5.42355E-02 -9.77570E-02
+3.05000E+10 -8.03433E-02 -1.39229E-01 +4.86649E-01 -7.44626E-01 +5.63517E-01 -6.53473E-01 -5.53116E-02 -1.31305E-01
+3.06000E+10 -5.14806E-02 -8.56463E-02 +4.13261E-01 -8.19669E-01 +4.83110E-01 -8.09919E-01 -7.92212E-02 -1.49125E-01
+3.07000E+10 +2.69318E-02 -4.42286E-02 +4.58737E-01 -7.09812E-01 +4.52654E-01 -7.77514E-01 -1.70604E-02 -3.82807E-02
+3.08000E+10 -5.93660E-02 -6.46540E-02 +4.54725E-01 -8.06060E-01 +4.19825E-01 -7.99539E-01 -6.47482E-02 +1.16222E-02
+3.09000E+10 -6.00601E-02 -9.50716E-02 +4.02039E-01 -7.77336E-01 +4.18910E-01 -8.11745E-01 -5.77088E-02 -1.66743E-01
+3.10000E+10 -1.03274E-01 -1.12370E-01 +4.84492E-01 -8.06517E-01 +3.49407E-01 -8.51807E-01 +2.30565E-02 -1.47123E-01
+3.11000E+10 -9.26428E-02 -9.16366E-02 +4.76215E-01 -8.53816E-01 +4.43686E-01 -8.36387E-01 -6.70075E-02 -1.07763E-01
+3.12000E+10 -4.45493E-02 -1.97669E-01 +3.71907E-01 -8.02784E-01 +3.26397E-01 -8.98064E-01 -2.63805E-02 -1.06302E-01
+3.13000E+10 -1.10705E-01 -2.91562E-02 +4.05223E-01 -8.42588E-01 +3.28842E-01 -8.90690E-01 +2.51860E-03 -8.88857E-02
+3.14000E+10 -7.31817E-02 -1.11255E-01 +4.76354E-01 -8.53651E-01 +2.71278E-01 -9.28787E-01 -4.84515E-03 -1.06860E-01
+3.15000E+10 -4.81765E-03 -7.99340E-02 +2.80126E-01 -9.23597E-01 +3.85012E-01 -8.96675E-01 -2.40013E-02 -1.04810E-01
+3.16000E+10 -6.77545E-02 -1.75152E-01 +2.15270E-01 -9.34741E-01 +2.21934E-01 -9.96847E-01 -9.08772E-02 -1.50527E-01
+3.17000E+10 +1.72060E-03 -6.81684E-02 +1.75766E-01 -9.18121E-01 +3.60032E-01 -8.75685E-01 -1.55644E-01 -4.94843E-02
+3.18000E+10 +3.35849E-03 -9.93201E-02 +3.02363E-01 -9.38692E-01 +1.91300E-01 -9.10761E-01 -4.35356E-03 -8.69108E-02
+3.19000E+10 -6.50092E-02 -9.98228E-02 +1.95243E-01 -9.69295E-01 +1.83200E-01 -9.62352E-01 -5.02769E-02 -5.78651E-02
+3.20000E+10 -1.34829E-01 -1.58596E-01 +1.49404E-01 -1.02407E+00 +1.59527E-01 -8.83001E-01 -6.52181E-02 -7.77670E-02
+3.21000E+10 +5.94556E-02 -1.46616E-01 +2.20274E-01 -8.85368E-01 +2.17209E-01 -1.02923E+00 -1.25973E-02 -1.81624E-02
+3.22000E+10 -1.11504E-01 -9.00194E-02 +1.31963E-01 -1.01136E+00 +1.17416E-01 -9.30749E-01 -5.50471E-02 -1.38415E-02
+3.23000E+10 -1.09375E-01 -1.22161E-01 +1.20699E-01 -9.19553E-01 +1.21821E-01 -9.40367E-01 -5.11627E-02 -8.52754E-02
+3.24000E+10 -1.49644E-03 -8.49933E-02 +1.79266E-01 -9.94343E-01 +7.13685E-02 -8.83058E-01 -4.96958E-02 -9.48192E-02
+3.25000E+10 -9.23762E-02 -1.40168E-01 +4.37831E-02 -8.56210E-01 +8.53682E-02 -9.08664E-01 -6.45187E-02 -1.58132E-01
+3.26000E+10 -1.32438E-02 -1.29446E-01 +5.30392E-02 -7.26010E-01 +1.58129E-03 -9.18643E-01 +5.36664E-02 +3.37884E-02
+3.27000E+10 -7.25282E-02 -5.10391E-02 +8.67218E-02 -9.48894E-01 +1.96338E-02 -9.68469E-01 +1.57310E-02 -1.34700E-01
+3.28000E+10 +4.29074E-02 -5.31367E-02 +6.68530E-02 -1.00901E+00 +4.87402E-02 -8.92518E-01 -1.24105E-01 -1.16898E-01
+3.29000E+10 +3.30131E-02 -1.40652E-01 -3.84836E-02 -1.09950E+00 -2.08633E-03 -1.02707E+00 +2.94107E-02 -2.80915E-02
+3.30000E+10 +6.00052E-02 -1.63380E-01 -3.56241E-02 -8.49074E-01 -3.79577E-02 -9.66964E-01 +3.66121E-02 -1.26510E-01
+3.31000E+10 +4.51947E-02 -8.39102E-02 -1.04380E-02 -1.10028E+00 -1.11992E-02 -1.08896E+00 -5.68581E-02 -1.52918E-01
+3.32000E+10 +7.88727E-03 -8.79084E-03 -4.03400E-02 -8.91013E-01 -7.22582E-02 -8.94904E-01 +2.72173E-02 -4.30247E-02
+3.33000E+10 +4.76743E-02 -5.95992E-02 -2.22273E-01 -9.51599E-01 +3.32132E-02 -8.34740E-01 -3.56954E-02 -5.15969E-02
+3.34000E+10 -7.12926E-02 -1.42959E-01 -1.13795E-01 -8.88169E-01 -2.02147E-01 -8.17189E-01 -3.41034E-02 +1.91282E-02
+3.35000E+10 -6.22472E-02 +8.04353E-02 -1.69960E-01 -8.46215E-01 -1.61722E-01 -8.19820E-01 -2.46989E-02 -3.39470E-02
+3.36000E+10 +7.83449E-02 -1.84040E-01 -1.15297E-01 -9.83184E-01 -2.25426E-01 -1.01429E+00 +8.37481E-03 -2.23908E-01
+3.37000E+10 +1.75337E-02 -3.61823E-02 -2.07835E-01 -9.41273E-01 -1.18514E-01 -7.72735E-01 -9.70417E-02 -1.05298E-02
+3.38000E+10 +4.74453E-02 -8.36911E-02 -2.54938E-01 -9.35007E-01 -1.53323E-01 -9.12004E-01 -1.99591E-02 -5.94984E-02
+3.39000E+10 +8.09913E-02 -1.39089E-01 -3.23615E-01 -7.88495E-01 -3.05507E-01 -7.91770E-01 -4.95112E-02 -3.36765E-02
+3.40000E+10 +4.90900E-02 -1.09846E-01 -2.89702E-01 -9.36255E-01 -3.51554E-01 -9.64431E-01 -8.61106E-02 +3.93929E-02
+3.41000E+10 +6.20539E-02 -2.00318E-02 -2.11713E-01 -9.37634E-01 -3.34958E-01 -7.55110E-01 +3.44730E-02 -2.41251E-02
+3.42000E+10 +3.62950E-02 -1.53103E-02 -3.36591E-01 -8.16403E-01 -2.32635E-01 -7.91916E-01 +1.51852E-02 -4.13530E-02
+3.43000E+10 +9.27416E-02 -6.19528E-02 -3.64131E-01 -8.51666E-01 -3.44757E-01 -9.83380E-01 +4.30838E-02 -4.25866E-02
+3.44000E+10 +4.92077E-02 -1.21893E-01 -3.45420E-01 -8.23054E-01 -3.93640E-01 -8.98319E-01 +4.72667E-02 -3.71497E-02
+3.45000E+10 +1.07832E-01 -1.58860E-01 -2.58081E-01 -8.54665E-01 -4.36286E-01 -9.20951E-01 +1.01673E-01 -1.55265E-01
+3.46000E+10 +4.37413E-02 -1.51251E-01 -4.37833E-01 -9.93389E-01 -4.02676E-01 -9.13379E-01 -1.33198E-01 -1.33844E-01
+3.47000E+10 +3.21624E-02 -1.72227E-01 -3.82459E-01 -8.73601E-01 -3.82917E-01 -8.71679E-01 +1.48005E-01 +2.00976E-02
+3.48000E+10 -5.93710E-02 -9.08074E-02 -4.99549E-01 -8.59453E-01 -4.27960E-01 -6.68762E-01 +5.82615E-02 -1.68676E-01
+3.49000E+10 +1.05723E-01 -1.09287E-01 -4.70564E-01 -7.82014E-01 -4.41189E-01 -8.42803E-01 +1.16209E-02 -3.18553E-02
+3.50000E+10 +6.49277E-02 -1.46226E-01 -3.80452E-01 -9.15016E-01 -3.75981E-01 -9.09900E-01 +6.48959E-02 -1.23822E-01
+3.51000E+10 +7.91448E-02 -1.22575E-01 -5.12143E-01 -7.84723E-01 -5.62564E-01 -8.06177E-01 +9.58303E-02 -1.34002E-01
+3.52000E+10 -1.35513E-02 -1.64502E-01 -5.41522E-01 -8.85519E-01 -6.20655E-01 -8.15220E-01 +7.74275E-02 -1.50548E-01
+3.53000E+10 +6.04638E-02 -9.00080E-02 -5.16710E-01 -7.95412E-01 -4.68389E-01 -6.82457E-01 +2.14097E-01 -1.50788E-01
+3.54000E+10 +6.90433E-02 -6.81689E-02 -4.79662E-01 -8.45218E-01 -5.99011E-01 -7.23454E-01 +1.11767E-01 -5.22974E-02
+3.55000E+10 -9.99595E-02 -1.73964E-01 -6.54161E-01 -8.08250E-01 -6.71923E-01 -7.56450E-01 +1.04662E-01 -1.44614E-01
+3.56000E+10 -6.18389E-03 -3.26994E-01 -5.78773E-01 -6.66810E-01 -5.15538E-01 -7.54064E-01 +1.14083E-01 -1.49495E-01
+3.57000E+10 +8.33577E-02 -1.63161E-01 -6.84441E-01 -6.44215E-01 -6.72635E-01 -6.61827E-01 +5.68684E-02 -1.57393E-01
+3.58000E+10 +6.96726E-02 -2.43386E-01 -7.41566E-01 -6.89728E-01 -7.19297E-01 -8.56912E-01 +4.43123E-02 -7.83497E-02
+3.59000E+10 -2.16593E-02 -2.46635E-01 -5.48782E-01 -6.96153E-01 -7.66844E-01 -5.93506E-01 +3.37033E-02 -7.77265E-02
+3.60000E+10 -4.77182E-02 -2.20139E-01 -7.52115E-01 -7.59732E-01 -6.42034E-01 -6.98055E-01 -5.52735E-03 -1.83241E-01
+3.61000E+10 -4.50498E-02 -7.23278E-02 -6.61859E-01 -6.74541E-01 -7.82032E-01 -6.58675E-01 -2.00828E-02 -1.28740E-01
+3.62000E+10 +1.69546E-01 -9.56341E-02 -6.79998E-01 -6.27086E-01 -7.18201E-01 -7.44652E-01 +1.79676E-01 -1.73841E-01
+3.63000E+10 +6.73156E-02 -1.32198E-01 -6.98409E-01 -6.64521E-01 -5.88226E-01 -7.39811E-01 +1.43844E-01 -1.42842E-01
+3.64000E+10 +4.62324E-02 -3.40623E-01 -7.08564E-01 -6.09059E-01 -4.11668E-01 -5.96253E-01 +1.50388E-01 -3.03828E-01
+3.65000E+10 -8.60981E-02 -2.26356E-01 -7.76585E-01 -5.61505E-01 -7.07626E-01 -6.46346E-01 +2.23541E-02 -1.98857E-01
+3.66000E+10 +8.52401E-02 -1.22186E-01 -8.84299E-01 -6.41521E-01 -7.59216E-01 -5.23633E-01 +1.03279E-03 +3.23530E-02
+3.67000E+10 +9.96303E-03 -2.03126E-01 -7.98503E-01 -6.23328E-01 -7.99578E-01 -6.22039E-01 +1.53744E-01 -3.31369E-01
+3.68000E+10 +1.30376E-01 -2.06661E-01 -7.84377E-01 -3.74325E-01 -7.03605E-01 -6.31347E-01 -1.94692E-02 -5.00692E-02
+3.69000E+10 +1.85171E-02 +1.03009E-02 -1.05876E+00 -5.71318E-01 -6.95802E-01 -6.54239E-01 +1.85919E-01 -1.81924E-01
+3.70000E+10 -8.01606E-02 -2.10878E-01 -7.30463E-01 -5.48286E-01 -7.98070E-01 -5.19972E-01 -1.77438E-02 -2.11180E-01
+3.71000E+10 +1.69269E-01 -1.30472E-01 -7.97461E-01 -6.39320E-01 -5.75423E-01 -4.90076E-01 +8.16736E-02 -3.32491E-01
+3.72000E+10 +1.24976E-01 -2.62521E-01 -6.65409E-01 -4.34259E-01 -9.21614E-01 -6.76246E-01 +2.91001E-01 -1.14431E-01
+3.73000E+10 +1.60973E-01 -3.48515E-01 -8.87762E-01 -4.47301E-01 -8.12993E-01 -3.91710E-01 +8.22818E-02 -3.02784E-01
+3.74000E+10 +2.11274E-02 -2.47537E-01 -7.94045E-01 -5.42741E-01 -7.81061E-01 -4.16994E-01 +2.13866E-01 -1.68268E-01
+3.75000E+10 -1.99163E-02 -2.52224E-01 -7.21248E-01 -1.20915E-01 -7.24381E-01 -3.38322E-01 +2.10982E-01 -1.95447E-01
+3.76000E+10 +7.01192E-02 -4.06291E-01 -8.61184E-01 -2.29706E-01 -8.88454E-01 -3.68766E-01 +5.80516E-02 -1.99716E-01
+3.77000E+10 +5.82649E-02 -2.26618E-01 -9.18281E-01 -4.50181E-01 -8.86289E-01 -4.12956E-01 +2.99574E-01 -4.22734E-01
+3.78000E+10 -5.94481E-02 -2.01620E-01 -8.58219E-01 -3.17657E-01 -8.56580E-01 -5.11727E-01 -1.71106E-01 -1.27109E-01
+3.79000E+10 +3.96099E-02 -2.28063E-01 -7.88896E-01 -3.98775E-01 -7.75357E-01 -3.91411E-01 -4.37603E-02 -2.80994E-01
+3.80000E+10 +2.76930E-02 -2.28225E-01 -8.58076E-01 -6.00514E-02 -1.09757E+00 -3.30365E-01 +4.18256E-02 -1.89933E-01
+3.81000E+10 -1.84835E-02 -1.09518E-01 -9.50726E-01 -2.20294E-01 -9.02606E-01 -3.31158E-01 +1.70630E-01 -3.91631E-01
+3.82000E+10 +4.65377E-02 -2.16672E-01 -9.24122E-01 -3.21745E-01 -9.03762E-01 -8.34832E-02 -4.14699E-02 -1.66104E-01
+3.83000E+10 +2.00453E-02 -3.43913E-01 -9.36108E-01 -1.88772E-01 -1.07851E+00 -2.69173E-01 +2.69647E-01 -3.52300E-01
+3.84000E+10 -1.38414E-01 -2.15043E-01 -7.59343E-01 -1.26385E-01 -7.23371E-01 -3.74652E-01 -6.22814E-02 -1.29840E-01
+3.85000E+10 -1.51660E-01 -1.64741E-01 -7.01548E-01 -5.90332E-02 -8.87463E-01 -5.98006E-02 -2.41695E-02 -2.36632E-01
+3.86000E+10 +8.07429E-02 -3.01522E-01 -7.98680E-01 -2.97759E-01 -1.04953E+00 -1.13764E-01 -1.83872E-01 -3.98037E-01
+3.87000E+10 -3.70414E-03 -3.18882E-01 -1.03492E+00 -2.37792E-01 -1.07766E+00 -8.85241E-02 +7.15924E-03 -4.88462E-02
+3.88000E+10 +1.90471E-02 -4.72353E-01 -1.05603E+00 -1.07956E-01 -8.24700E-01 -3.15519E-01 +5.16472E-02 -1.81454E-01
+3.89000E+10 +2.11623E-01 -2.19193E-01 -9.47360E-01 -5.61556E-02 -7.41552E-01 +6.34465E-02 +1.20579E-01 -2.77497E-01
+3.90000E+10 -1.06309E-01 -2.96474E-01 -7.60609E-01 -1.37096E-01 -9.33229E-01 -1.36046E-01 -1.99560E-01 -2.75535E-01
+3.91000E+10 +7.99538E-02 -3.87329E-01 -1.10526E+00 -1.44432E-01 -8.64502E-01 +3.43775E-02 -4.53836E-02 -2.08039E-01
+3.92000E+10 +1.15460E-01 -4.84297E-01 -1.06966E+00 -4.31259E-02 -8.17111E-01 +5.54190E-02 +6.73348E-02 -2.92301E-01
+3.93000E+10 +1.12643E-01 -9.02071E-02 -7.45035E-01 -1.93178E-02 -1.00097E+00 +5.17051E-03 -1.16415E-01 -8.32340E-03
+3.94000E+10 -1.94920E-01 -1.00533E-01 -9.50924E-01 +1.26339E-01 -1.03790E+00 -9.71615E-02 +1.72564E-01 -1.47922E-01
+3.95000E+10 +8.26220E-02 -1.14339E-01 -8.80438E-01 +6.70313E-02 -9.05218E-01 -1.92353E-02 -1.93127E-01 -1.94363E-01
+3.96000E+10 +1.96411E-01 -2.47583E-01 -1.07255E+00 +8.81804E-02 -8.68811E-01 +1.21170E-01 -5.17762E-02 -5.70533E-01
+3.97000E+10 +1.21932E-01 -2.79046E-01 -1.12180E+00 +4.81337E-02 -7.93803E-01 +2.97877E-01 +3.31503E-02 -2.32121E-01
+3.98000E+10 -8.22076E-04 -5.12935E-01 -8.04253E-01 +1.19314E-01 -8.97224E-01 +1.32786E-01 -1.74541E-01 -2.70077E-01
+3.99000E+10 +6.59905E-02 -2.84593E-01 -8.76467E-01 +8.06104E-02 -1.02640E+00 +1.53858E-01 +6.61063E-02 -3.45409E-01
+4.00000E+10 -7.24602E-02 -2.24946E-01 -9.16644E-01 +4.46046E-02 -8.90254E-01 +1.83481E-01 +8.05078E-02 -3.02905E-01
