! Quiescent point : V1=-1.64890E-02 I1=+1.35884E-03 V2=-2.38210E-02 I2=-1.35982E-03
! Pulsed point : V1=-1.70336E-02 I1=+1.35366E-03 V2=-2.39701E-02 I2=-1.38304E-03
! Period : +2.00000E-04
! Input Supply timing : delay=+1.60000E-06 width=+2.20000E-06
! Output Supply timing : delay=+1.70000E-06 width=+2.00000E-06
! VNA timing : delay=+2.40000E-06 width=+1.10000E-06
# Hz S RI R 50
+2.70000E+10 -7.40295E-02 -1.86981E-01 +9.06978E-01 -9.92421E-02 +8.43384E-01 -1.40364E-01 +7.30261E-03 -2.24361E-01
+2.71000E+10 -3.81126E-02 -1.80747E-01 +9.04684E-01 -2.36062E-01 +9.45460E-01 -1.61879E-01 -6.45448E-02 -2.35110E-01
+2.72000E+10 +1.25372E-02 -1.91929E-01 +9.06577E-01 -1.78886E-01 +9.86746E-01 -1.88436E-01 -1.77068E-02 -2.35023E-01
+2.73000E+10 -2.73159E-03 -2.16995E-01 +8.70436E-01 -2.63120E-01 +8.84020E-01 -2.73953E-01 -3.39673E-02 -2.23198E-01
+2.74000E+10 -7.81855E-02 -2.63690E-01 +9.05390E-01 -2.14726E-01 +8.92357E-01 -2.46636E-01 -5.66272E-02 -1.54812E-01
+2.75000E+10 -4.92625E-02 -1.66397E-01 +8.81586E-01 -2.25081E-01 +9.26944E-01 -2.75597E-01 -6.06492E-02 -2.04458E-01
+2.76000E+10 -5.17447E-02 -2.34056E-01 +9.26423E-01 -2.88111E-01 +9.19610E-01 -2.74673E-01 -3.64527E-02 -2.52770E-01
+2.77000E+10 -9.08257E-03 -2.20625E-01 +9.61668E-01 -3.35705E-01 +8.44291E-01 -2.36177E-01 -3.50563E-02 -2.27811E-01
+2.78000E+10 -5.91412E-02 -1.63294E-01 +9.09117E-01 -2.64505E-01 +8.20432E-01 -3.52054E-01 -3.77677E-02 -1.39236E-01
+2.79000E+10 -5.63462E-02 -1.68376E-01 +8.79253E-01 -3.63684E-01 +8.57971E-01 -3.94392E-01 +3.89440E-03 -2.07931E-01
+2.80000E+10 -6.72452E-03 -3.05306E-01 +9.47143E-01 -3.89270E-01 +8.47869E-01 -3.21696E-01 -6.05600E-02 -1.29113E-01
+2.81000E+10 +3.11446E-02 -2.86269E-01 +8.60884E-01 -4.23677E-01 +8.86249E-01 -3.96253E-01 -7.42581E-02 -1.64486E-01
+2.82000E+10 -1.31393E-02 -1.14555E-01 +8.11637E-01 -4.30989E-01 +7.80648E-01 -3.72441E-01 -1.43473E-01 -2.21532E-01
+2.83000E+10 -8.48752E-03 -1.53201E-01 +7.74729E-01 -4.24012E-01 +8.42980E-01 -5.39513E-01 -6.26506E-02 -1.73807E-01
+2.84000E+10 +1.38030E-02 -1.92786E-01 +8.61807E-01 -4.83335E-01 +8.83881E-01 -5.00315E-01 -2.17300E-02 -1.45791E-01
+2.85000E+10 +3.82441E-02 -2.30538E-01 +8.01931E-01 -4.39482E-01 +7.39380E-01 -4.29741E-01 -5.77678E-02 -1.84120E-01
+2.86000E+10 -6.53579E-02 -1.56227E-01 +8.12503E-01 -4.63092E-01 +8.69200E-01 -4.53162E-01 -9.56722E-02 -1.74370E-01
+2.87000E+10 -7.91016E-02 -1.28111E-01 +7.44462E-01 -5.10233E-01 +7.38440E-01 -4.79704E-01 -8.90167E-02 -1.93021E-01
+2.88000E+10 -7.89601E-02 -1.24253E-01 +7.96518E-01 -5.19462E-01 +7.12064E-01 -5.59024E-01 -1.07986E-01 -1.91586E-01
+2.89000E+10 +8.64781E-04 -2.05856E-01 +7.84585E-01 -5.22885E-01 +7.61889E-01 -5.73282E-01 -7.77106E-02 -1.70226E-01
+2.90000E+10 +7.08643E-03 -2.49356E-01 +7.26098E-01 -6.66617E-01 +7.69763E-01 -6.11978E-01 -6.80097E-02 -1.73878E-01
+2.91000E+10 -5.22876E-02 -2.08610E-01 +6.70234E-01 -5.32063E-01 +7.01990E-01 -5.76870E-01 -7.08157E-02 -1.03468E-01
+2.92000E+10 -7.67771E-02 -2.50535E-01 +7.09413E-01 -5.09892E-01 +6.96588E-01 -6.33001E-01 -9.55507E-02 -1.62037E-01
+2.93000E+10 -9.00240E-03 -2.38591E-01 +6.79983E-01 -6.17239E-01 +7.22293E-01 -6.48563E-01 -1.28433E-01 -2.31573E-01
+2.94000E+10 -5.24217E-02 -2.35741E-01 +6.43544E-01 -6.11200E-01 +6.65894E-01 -6.84148E-01 -4.35794E-02 -1.17560E-01
+2.95000E+10 -5.92916E-02 -1.93221E-01 +6.55539E-01 -5.58391E-01 +6.29290E-01 -6.20827E-01 -8.49330E-02 -1.43015E-01
+2.96000E+10 -4.50147E-02 -1.43087E-01 +7.15160E-01 -6.92067E-01 +6.19860E-01 -7.37312E-01 -7.47530E-02 -8.11186E-02
+2.97000E+10 -5.98433E-02 -1.47031E-01 +6.21243E-01 -7.38798E-01 +5.79570E-01 -6.31373E-01 -3.32048E-02 -1.07924E-01
+2.98000E+10 -1.13508E-01 -7.08624E-02 +6.72642E-01 -7.44694E-01 +6.94644E-01 -7.09884E-01 -6.61677E-02 -1.82845E-01
+2.99000E+10 -6.98277E-02 -9.22566E-02 +6.52703E-01 -7.84184E-01 +6.37696E-01 -7.24546E-01 -1.46889E-01 -1.13818E-01
+3.00000E+10 -3.19690E-02 -5.25045E-02 +6.56411E-01 -7.24121E-01 +6.29681E-01 -7.83369E-01 -3.37521E-03 -1.56731E-01
+3.01000E+10 -4.63886E-02 -8.64603E-02 +5.91846E-01 -7.21722E-01 +5.93129E-01 -8.78864E-01 -8.16068E-02 -4.33069E-03
+3.02000E+10 -6.61703E-02 -2.21761E-01 +5.80052E-01 -8.31856E-01 +5.54626E-01 -7.37817E-01 -3.84701E-02 -6.84909E-02
+3.03000E+10 -2.77814E-02 -1.79040E-01 +5.38507E-01 -8.18563E-01 +6.13482E-01 -8.36893E-01 -8.98458E-02 -1.64312E-01
+3.04000E+10 -7.56251E-02 -1.98086E-01 +5.13284E-01 -9.00751E-01 +5.38248E-01 -7.79334E-01 -6.19876E-02 -1.16413E-01
+3.05000E+10 -2.22433E-02 -1.20138E-01 +4.48925E-01 -8.22402E-01 +4.98468E-01 -7.81913E-01 -8.54779E-02 -7.74351E-02
+3.06000E+10 -7.20963E-02 -1.12941E-01 +4.17057E-01 -7.66998E-01 +4.61616E-01 -8.05245E-01 -4.41161E-02 -7.29571E-02
+3.07000E+10 -8.16139E-02 -5.14235E-02 +4.94421E-01 -8.41879E-01 +4.95629E-01 -8.53321E-01 -1.22672E-01 -9.84198E-02
+3.08000E+10 -1.38772E-02 -1.69030E-01 +4.39806E-01 -8.54489E-01 +3.95878E-01 -8.50961E-01 -6.08779E-02 -1.91420E-02
+3.09000E+10 -6.58505E-02 -2.46792E-01 +4.39761E-01 -8.43856E-01 +3.66530E-01 -7.82012E-01 -1.25925E-01 -4.35842E-02
+3.10000E+10 -1.65172E-01 -2.10212E-01 +4.15993E-01 -8.05994E-01 +2.79533E-01 -8.15134E-01 -9.02585E-02 -2.08608E-01
+3.11000E+10 -4.63064E-02 +1.32382E-02 +3.66610E-01 -8.31211E-01 +4.63319E-01 -8.62093E-01 -7.62460E-02 -1.76842E-02
+3.12000E+10 -1.13287E-01 -1.01761E-01 +2.39249E-01 -8.91055E-01 +3.47120E-01 -8.37079E-01 -5.51067E-02 -1.45783E-01
+3.13000E+10 +1.94977E-02 -1.22987E-01 +3.33064E-01 -7.82871E-01 +4.42994E-01 -9.79521E-01 -2.98673E-02 -2.12350E-01
+3.14000E+10 +4.00045E-02 -1.36508E-01 +3.35252E-01 -8.34051E-01 +2.98866E-01 -9.46633E-01 -1.35253E-01 -8.61470E-02
+3.15000E+10 -1.42432E-02 -1.25731E-01 +2.74642E-01 -8.79950E-01 +2.32106E-01 -8.64752E-01 -1.11667E-01 -9.72714E-02
+3.16000E+10 +5.45267E-02 -1.13714E-01 +3.14956E-01 -8.69183E-01 +2.75005E-01 -9.27403E-01 -3.17783E-02 -8.84673E-02
+3.17000E+10 -1.79644E-02 -7.60973E-02 +2.72174E-01 -8.77194E-01 +2.54765E-01 -9.98375E-01 -7.80894E-02 -8.17742E-03
+3.18000E+10 -1.04935E-02 -1.07251E-01 +2.72643E-01 -8.30353E-01 +1.96364E-01 -8.92082E-01 -8.64648E-02 -7.94731E-02
+3.19000E+10 -5.99710E-02 -4.89319E-02 +2.09294E-01 -9.24391E-01 +2.27173E-01 -9.57484E-01 -5.40006E-02 -1.04768E-01
+3.20000E+10 -3.66939E-02 -1.37279E-01 +1.38593E-01 -8.35244E-01 +1.08234E-01 -9.66985E-01 -1.16238E-01 -1.35272E-01
+3.21000E+10 -3.06649E-03 -9.07299E-02 +1.99061E-01 -9.12516E-01 +1.47867E-01 -9.32027E-01 -3.35754E-02 -5.42711E-02
+3.22000E+10 -4.11960E-03 -1.50426E-01 +8.96237E-02 -8.81371E-01 +2.22919E-01 -9.25661E-01 -1.38723E-01 -3.05322E-02
+3.23000E+10 -2.85095E-02 -4.67143E-02 +9.30424E-02 -9.27741E-01 +1.27117E-01 -8.62549E-01 -6.87115E-03 -5.63203E-02
+3.24000E+10 +1.28163E-02 -1.05502E-01 +1.81095E-01 -9.23462E-01 +8.00948E-02 -8.99963E-01 +1.04498E-02 -7.33472E-02
+3.25000E+10 -3.34878E-02 -1.14314E-01 +1.68652E-01 -8.82746E-01 +2.72632E-02 -8.84725E-01 +9.38681E-03 -9.99463E-02
+3.26000E+10 +4.11516E-02 -5.10021E-02 +1.65318E-01 -7.43658E-01 +7.12899E-02 -8.30190E-01 +1.89024E-02 +2.55693E-02
+3.27000E+10 +1.75593E-03 -1.88715E-01 +1.25430E-01 -9.21197E-01 +5.74177E-02 -9.01790E-01 -2.32473E-02 +2.81673E-02
+3.28000E+10 -3.20118E-02 -1.66493E-01 -1.52238E-02 -1.01000E+00 +4.15761E-02 -9.48854E-01 +6.89128E-02 -8.25724E-02
+3.29000E+10 +2.04684E-02 +2.38621E-03 -7.62223E-03 -8.85460E-01 -4.85955E-02 -1.04080E+00 -4.88841E-02 -4.50246E-02
+3.30000E+10 +9.10346E-02 -1.43784E-02 +8.86797E-02 -8.58873E-01 +1.07882E-04 -8.91287E-01 +4.07796E-02 -1.04654E-01
+3.31000E+10 -7.27565E-02 -1.25105E-01 -7.81898E-02 -7.78555E-01 +2.45844E-02 -9.14203E-01 +5.57122E-02 -5.52113E-03
+3.32000E+10 +7.41151E-02 -1.70353E-01 -1.33237E-01 -9.25495E-01 -8.47523E-02 -1.07371E+00 -2.11030E-02 -3.63806E-02
+3.33000E+10 -4.46217E-02 -1.43103E-01 -1.01312E-01 -9.15689E-01 -1.26426E-01 -9.59295E-01 +3.14932E-02 -3.64009E-02
+3.34000E+10 +7.22739E-03 -3.01579E-01 -8.87258E-03 -1.05246E+00 -4.01086E-02 -9.25685E-01 -2.35392E-02 -6.92356E-02
+3.35000E+10 +9.80289E-03 -1.18277E-01 -2.20202E-01 -9.55746E-01 -7.52338E-02 -9.25731E-01 +5.08433E-03 -9.13278E-03
+3.36000E+10 +2.98815E-02 -1.62541E-01 -1.64964E-01 -9.88614E-01 -2.36491E-01 -9.10263E-01 -1.09379E-02 -4.20392E-02
+3.37000E+10 +8.82450E-02 -1.63423E-01 -3.65847E-01 -1.01224E+00 -2.05045E-01 -8.45526E-01 +4.31288E-02 -1.32289E-01
+3.38000E+10 +7.06853E-02 -8.87150E-02 -2.60000E-01 -1.04050E+00 -2.82047E-01 -8.77857E-01 +9.83160E-02 -1.06162E-01
+3.39000E+10 -3.85227E-02 -9.21751E-02 -3.32382E-01 -9.42134E-01 -2.08216E-01 -8.95043E-01 -3.53494E-02 +3.60048E-02
+3.40000E+10 +1.25415E-02 -2.11979E-01 -3.04867E-01 -9.43417E-01 -2.54530E-01 -8.02278E-01 +8.88379E-02 -1.27384E-01
+3.41000E+10 +1.84048E-01 -8.85201E-02 -2.83209E-01 -1.00427E+00 -3.39450E-01 -9.95759E-01 +1.70390E-01 -1.03230E-01
+3.42000E+10 +9.44268E-02 -1.13831E-01 -2.79552E-01 -8.34148E-01 -3.87916E-01 -8.07378E-01 -1.92022E-02 -4.71392E-02
+3.43000E+10 +5.76185E-02 -8.94698E-02 -3.25525E-01 -9.38673E-01 -3.59731E-01 -9.37724E-01 +2.08874E-02 -1.58165E-01
+3.44000E+10 +9.92563E-02 +8.26329E-02 -3.27002E-01 -9.27364E-01 -4.04135E-01 -9.46395E-01 +1.24444E-01 -1.32577E-01
+3.45000E+10 +8.59361E-02 -1.88493E-01 -4.22783E-01 -8.61743E-01 -2.80955E-01 -8.52568E-01 -1.89869E-03 -5.06516E-02
+3.46000E+10 -3.82749E-02 -1.17239E-01 -3.70154E-01 -8.95559E-01 -4.21056E-01 -9.26110E-01 +6.17491E-02 -1.36453E-01
+3.47000E+10 -1.63808E-02 -1.08676E-01 -3.17642E-01 -9.63556E-01 -4.63998E-01 -8.82590E-01 -7.15166E-02 -9.12525E-02
+3.48000E+10 +6.14530E-02 -1.72201E-01 -4.33846E-01 -1.01893E+00 -3.35744E-01 -9.49464E-01 +1.03669E-02 -4.13265E-02
+3.49000E+10 -3.47382E-02 -7.79841E-02 -3.93109E-01 -8.59495E-01 -3.71073E-01 -8.03587E-01 +1.35231E-01 -6.31958E-02
+3.50000E+10 -6.48894E-05 -9.03264E-02 -4.08300E-01 -8.17787E-01 -5.39157E-01 -7.68373E-01 +7.65378E-02 -1.76211E-01
+3.51000E+10 +1.64123E-01 -1.69110E-01 -4.64858E-01 -7.53337E-01 -4.40774E-01 -8.36469E-01 +1.17871E-01 -6.20707E-03
+3.52000E+10 -6.45063E-02 -1.61701E-01 -3.75931E-01 -7.89523E-01 -6.51859E-01 -7.40100E-01 +1.58655E-01 -1.32881E-01
+3.53000E+10 +4.10037E-02 -2.17291E-01 -5.35742E-01 -7.45627E-01 -5.97562E-01 -7.23550E-01 +2.64856E-01 -1.29117E-01
+3.54000E+10 -7.41777E-02 -1.63051E-01 -6.67401E-01 -7.27903E-01 -5.60810E-01 -7.76131E-01 +1.13929E-01 -1.19676E-01
+3.55000E+10 +6.74167E-02 -1.49782E-01 -6.44119E-01 -7.75648E-01 -4.91612E-01 -5.80866E-01 +4.80654E-02 -6.52293E-02
+3.56000E+10 -2.86531E-02 -2.12808E-01 -4.70357E-01 -7.37245E-01 -5.99908E-01 -7.16332E-01 +1.93651E-01 -1.59304E-01
+3.57000E+10 +7.57136E-02 -2.44915E-01 -5.65150E-01 -6.52258E-01 -6.12158E-01 -7.38846E-01 +9.70005E-02 -6.03207E-03
+3.58000E+10 +4.93386E-02 -1.18690E-01 -5.75797E-01 -7.24714E-01 -4.90923E-01 -5.37162E-01 +1.22867E-01 -5.00884E-02
+3.59000E+10 -6.38663E-03 -1.98006E-01 -5.24654E-01 -5.87592E-01 -5.21420E-01 -6.38878E-01 +5.62120E-02 -2.82735E-01
+3.60000E+10 +4.12539E-02 -5.97122E-02 -7.55093E-01 -5.86344E-01 -7.45522E-01 -5.91789E-01 -1.78254E-02 -1.47343E-01
+3.61000E+10 +1.28329E-01 -3.05354E-01 -5.64166E-01 -6.32718E-01 -7.06786E-01 -6.46660E-01 +3.91446E-01 -1.91790E-01
+3.62000E+10 +7.50027E-02 -2.55327E-01 -6.19650E-01 -5.27401E-01 -7.68389E-01 -4.93875E-01 -7.27918E-02 -1.40160E-01
+3.63000E+10 -2.36432E-02 -2.43902E-01 -5.72833E-01 -6.70342E-01 -7.89837E-01 -5.44976E-01 +3.00934E-01 -1.53292E-01
+3.64000E+10 +2.52157E-01 -1.93816E-01 -5.22211E-01 -5.05616E-01 -6.90222E-01 -6.62011E-01 +5.80767E-02 +8.72764E-02
+3.65000E+10 +1.33675E-01 -1.26683E-01 -5.92567E-01 -4.55971E-01 -7.43123E-01 -6.24836E-01 +1.14918E-01 -4.51195E-02
+3.66000E+10 -7.66860E-02 -1.54182E-01 -7.15505E-01 -5.31195E-01 -8.47882E-01 -5.66159E-01 +8.64821E-02 -1.32693E-01
+3.67000E+10 +7.26250E-03 -2.47141E-01 -7.79537E-01 -3.38034E-01 -7.18855E-01 -3.67244E-01 +1.23617E-02 -1.55912E-01
+3.68000E+10 +1.29440E-01 -1.60886E-01 -6.38238E-01 -5.82835E-01 -7.45445E-01 -5.56425E-01 -6.96521E-02 -3.39831E-01
+3.69000E+10 +2.89235E-01 -3.35971E-01 -7.78522E-01 -5.28103E-01 -7.49916E-01 -6.81645E-01 +2.43673E-01 -1.81662E-01
+3.70000E+10 +1.55537E-01 -2.63527E-01 -8.13428E-01 -5.08671E-01 -6.61579E-01 -4.27342E-01 -4.02710E-02 -2.58024E-01
+3.71000E+10 -8.45836E-02 -1.05746E-01 -9.10137E-01 -3.28670E-01 -7.67637E-01 -4.19552E-01 +4.13970E-01 -3.59385E-01
+3.72000E+10 -2.30979E-01 -2.86627E-01 -8.27742E-01 -4.28180E-01 -8.52925E-01 -3.59601E-01 +1.29613E-01 -1.93178E-01
+3.73000E+10 +1.38840E-01 -3.82334E-01 -8.38765E-01 -3.99777E-01 -8.13476E-01 -4.13166E-01 +3.28653E-03 -3.10681E-01
+3.74000E+10 +9.80607E-02 -1.90142E-01 -7.42865E-01 -4.17525E-01 -7.72885E-01 -6.02190E-01 +1.22662E-03 -2.83342E-01
+3.75000E+10 +1.07709E-01 -2.32443E-01 -8.26767E-01 -3.99711E-01 -6.92317E-01 -3.87642E-01 +7.48250E-02 -1.26336E-01
+3.76000E+10 +6.67422E-02 -2.10635E-01 -8.66652E-01 -4.17947E-01 -8.59317E-01 -3.28743E-01 +2.84359E-01 -3.54484E-01
+3.77000E+10 +1.46691E-01 -3.04456E-01 -8.97197E-01 -3.34912E-01 -7.94374E-01 -2.82112E-01 +3.68045E-02 -2.53470E-01
+3.78000E+10 +1.90092E-01 -2.98273E-01 -1.02000E+00 -3.98865E-01 -9.39633E-01 -1.36301E-01 +1.41857E-01 -3.71033E-01
+3.79000E+10 +9.49766E-02 -2.61866E-01 -8.60132E-01 -4.47925E-01 -9.34136E-01 -3.09238E-01 +2.53876E-01 -1.99276E-01
+3.80000E+10 +7.50593E-02 -2.51653E-01 -9.65326E-01 -3.80100E-01 -8.64472E-01 -4.49936E-01 +1.36853E-01 -7.16763E-02
+3.81000E+10 +1.94879E-01 -2.03686E-01 -9.40433E-01 -2.09374E-01 -9.37743E-01 -3.45778E-01 +1.03008E-01 -2.04882E-01
+3.82000E+10 +8.99891E-02 -2.85980E-01 -9.66783E-01 -1.94410E-01 -9.30923E-01 -2.96802E-01 +7.35050E-02 -3.10260E-01
+3.83000E+10 +9.86692E-02 -2.07909E-01 -8.42118E-01 -1.89603E-01 -8.65835E-01 -2.87593E-01 +2.43766E-02 -3.81824E-02
+3.84000E+10 +2.60090E-02 -1.92329E-01 -8.34192E-01 -2.22590E-01 -8.64826E-01 -3.50720E-01 +6.27274E-02 -2.79348E-01
+3.85000E+10 +1.13947E-01 -2.58508E-01 -8.37040E-01 -2.20287E-01 -7.93110E-01 -1.92855E-01 +1.69038E-01 -2.00204E-01
+3.86000E+10 +2.49385E-01 -4.03175E-01 -1.03431E+00 -1.29605E-01 -1.07828E+00 -2.13004E-01 -1.71264E-01 -8.59956E-02
+3.87000E+10 +1.45945E-01 -2.07085E-01 -9.09628E-01 -2.09124E-01 -9.92996E-01 -3.38452E-01 -3.01884E-02 -3.08314E-01
+3.88000E+10 -1.79970E-01 -1.26953E-01 -1.01542E+00 +6.40457E-02 -9.05687E-01 -2.72614E-01 +7.24950E-02 -2.67460E-01
+3.89000E+10 -1.20599E-01 -2.85216E-01 -9.59433E-01 -2.42887E-01 -9.95711E-01 -7.02579E-02 +1.96506E-01 -5.65436E-01
+3.90000E+10 +6.03290E-02 -3.21426E-01 -9.43529E-01 -2.97012E-01 -9.05598E-01 -1.71696E-01 -1.75152E-02 -4.71361E-01
+3.91000E+10 +1.71524E-01 -1.56839E-01 -1.02418E+00 -2.64182E-02 -8.12784E-01 -4.54143E-02 +9.08764E-02 -3.40443E-01
+3.92000E+10 +7.39079E-02 -4.01433E-01 -8.73230E-01 +8.86843E-02 -8.70094E-01 -2.79252E-01 -5.95545E-02 -3.17068E-01
+3.93000E+10 +1.01630E-01 -1.99955E-01 -1.05122E+00 -1.74319E-01 -7.80626E-01 -5.45589E-02 +2.38435E-02 -2.26558E-01
+3.94000E+10 -4.83254E-02 -3.92716E-01 -7.76750E-01 +3.11348E-03 -9.42935E-01 -1.50913E-01 +1.40932E-01 -2.98953E-01
+3.95000E+10 +1.22608E-01 -3.50901E-01 -7.13270E-01 +1.31683E-01 -8.60117E-01 -6.19048E-02 -3.85299E-02 -3.30676E-02
+3.96000E+10 +6.43004E-02 -2.25660E-01 -8.78699E-01 -4.87158E-02 -9.80417E-01 +5.14587E-02 +1.69362E-02 -3.30518E-01
+3.97000E+10 +9.58522E-02 -3.25894E-01 -9.74410E-01 +5.92362E-02 -6.78544E-01 +1.09704E-01 -3.41421E-02 -2.42818E-01
+3.98000E+10 +2.44813E-01 -2.72754E-01 -8.85065E-01 +2.30256E-01 -1.11341E+00 -7.18464E-02 -1.98061E-01 -2.85072E-01
+3.99000E+10 -6.58423E-02 -8.19760E-02 -1.09332E+00 +2.67947E-01 -9.91994E-01 +1.21641E-01 +1.21026E-01 -1.32747E-01
+4.00000E+10 -7.32834E-02 -3.21472E-01 -9.47175E-01 -2.42380E-02 -8.64817E-01 +1.55209E-01 -3.12487E-02 -3.38250E-01
