! Quiescent point : V1=-1.66492E-02 I1=+1.27349E-03 V2=-2.15060E-02 I2=-1.25637E-03
! Pulsed point : V1=-1.63289E-02 I1=+1.28781E-03 V2=-2.19457E-02 I2=-1.28422E-03
! Period : +2.00000E-04
! Input Supply timing : delay=+1.60000E-06 width=+2.20000E-06
! Output Supply timing : delay=+1.70000E-06 width=+2.00000E-06
! VNA timing : delay=+2.40000E-06 width=+1.10000E-06
# Hz S RI R 50
+2.70000E+10 +1.33230E-02 -1.25030E-01 -9.95947E-01 -3.87366E-02 -9.46787E-01 -7.59017E-02 -3.24169E-02 -5.11792E-02
+2.71000E+10 -1.79470E-02 -1.27733E-01 -9.87898E-01 -1.38284E-01 -9.47976E-01 -4.98413E-02 -2.15878E-02 -1.02786E-01
+2.72000E+10 +7.05693E-02 -1.40050E-01 -9.91082E-01 +4.71416E-02 -1.00719E+00 -4.93820E-02 -7.51219E-03 -1.67338E-01
+2.73000E+10 +2.25641E-02 -5.03552E-02 -1.00791E+00 -5.02293E-02 -9.72971E-01 -4.36481E-02 +7.43038E-02 -1.01424E-01
+2.74000E+10 +3.48809E-02 -1.24141E-01 -9.84579E-01 +2.80698E-02 -9.72790E-01 +1.16654E-02 +1.33168E-02 -1.48455E-01
+2.75000E+10 +5.80499E-02 -7.95996E-02 -9.88347E-01 +2.67363E-02 -9.43006E-01 +6.96735E-02 +3.88485E-03 -9.40812E-02
+2.76000E+10 -1.72098E-02 -1.43571E-01 -9.75691E-01 +2.66755E-03 -9.49427E-01 +3.21495E-02 -7.53474E-03 -1.05115E-01
+2.77000E+10 -6.32041E-02 -1.08239E-01 -1.00486E+00 -1.20149E-02 -1.01883E+00 +6.92428E-02 -3.45134E-03 -1.83403E-02
+2.78000E+10 +1.76514E-02 -1.34314E-01 -9.68605E-01 -8.54602E-03 -9.31686E-01 -2.98877E-02 +4.55562E-03 -1.22815E-01
+2.79000E+10 +2.15560E-02 -1.60019E-01 -1.00289E+00 +6.10654E-02 -1.01135E+00 +5.52148E-02 -3.76729E-02 -6.46619E-02
+2.80000E+10 -3.48993E-03 -5.12436E-02 -1.03041E+00 +5.46439E-02 -1.02994E+00 +5.20906E-02 -7.12654E-02 -1.49228E-01
+2.81000E+10 +1.10462E-03 -4.50316E-02 -9.30460E-01 +6.67143E-02 -9.23142E-01 +1.11988E-01 -7.02026E-02 -1.65609E-01
+2.82000E+10 -2.64617E-02 -1.13421E-01 -9.97198E-01 +1.63005E-01 -9.41475E-01 +1.23521E-01 -2.08849E-02 -7.98828E-02
+2.83000E+10 -6.22560E-03 -1.45937E-01 -9.52253E-01 +1.08885E-01 -9.51636E-01 +1.36219E-01 -5.13069E-02 -4.54230E-02
+2.84000E+10 -4.28674E-04 -1.04346E-01 -9.41330E-01 +1.02575E-01 -9.84599E-01 +1.29332E-01 -4.95961E-02 -1.02288E-01
+2.85000E+10 +2.03767E-04 -1.94740E-01 -8.92835E-01 +1.59678E-01 -8.93664E-01 +1.54035E-01 +4.23528E-02 -6.98361E-02
+2.86000E+10 -2.79618E-02 -1.42767E-01 -9.28907E-01 +1.44379E-01 -9.92293E-01 +1.51731E-01 +1.03751E-02 -1.26236E-01
+2.87000E+10 +4.51578E-03 -9.97095E-02 -9.81456E-01 +1.76597E-01 -9.57752E-01 +2.06534E-01 -6.29066E-02 -1.27589E-01
+2.88000E+10 +3.35778E-03 -1.34368E-01 -1.00033E+00 +1.01880E-01 -8.62881E-01 +1.84472E-01 -1.26807E-02 -7.88591E-02
+2.89000E+10 -2.20098E-03 -9.30760E-02 -8.67862E-01 +1.97508E-01 -8.58296E-01 +1.25800E-01 -2.60318E-02 -4.65355E-02
+2.90000E+10 -7.38676E-02 -1.09918E-01 -1.03491E+00 +2.70297E-01 -9.38294E-01 +1.92479E-01 -2.78417E-02 -1.98261E-01
+2.91000E+10 -7.87536E-03 -7.90375E-02 -8.92714E-01 +2.13415E-01 -9.55624E-01 +1.17227E-01 -1.04290E-01 -7.37646E-02
+2.92000E+10 +8.18050E-02 -7.54425E-02 -9.74539E-01 +2.19327E-01 -9.48693E-01 +1.84124E-01 -1.76690E-02 -2.18040E-02
+2.93000E+10 +3.97147E-02 -1.03535E-01 -8.92646E-01 +2.31505E-01 -9.02574E-01 +2.25000E-01 +6.29469E-03 -8.28930E-02
+2.94000E+10 +1.30924E-02 -6.61839E-02 -9.52484E-01 +2.22995E-01 -9.70848E-01 +1.78252E-01 -1.22610E-02 -8.50394E-02
+2.95000E+10 +3.99004E-02 -1.52152E-01 -9.92012E-01 +3.78609E-01 -9.84101E-01 +2.42366E-01 +2.34518E-02 -1.64491E-01
+2.96000E+10 +2.73715E-02 -1.32884E-01 -9.90889E-01 +2.37813E-01 -9.57212E-01 +2.25285E-01 +2.75321E-03 -1.05930E-01
+2.97000E+10 -5.14382E-02 -8.03311E-02 -9.44264E-01 +1.71367E-01 -9.40033E-01 +2.74208E-01 +3.13999E-02 -4.82763E-02
+2.98000E+10 -1.14402E-02 -1.07526E-01 -1.00918E+00 +2.88196E-01 -9.05716E-01 +3.57059E-01 -9.54244E-02 -1.00639E-01
+2.99000E+10 -6.38484E-02 -7.88071E-02 -9.48381E-01 +3.16449E-01 -9.35956E-01 +2.26499E-01 +1.95624E-02 -1.13485E-01
+3.00000E+10 +6.43525E-02 -3.55303E-03 -9.47968E-01 +3.40207E-01 -1.00016E+00 +2.85701E-01 -6.17055E-02 -5.67607E-02
+3.01000E+10 +1.24292E-02 -1.00841E-01 -9.21966E-01 +3.78759E-01 -1.01012E+00 +3.68916E-01 -4.52339E-02 -1.05201E-01
+3.02000E+10 +1.06381E-01 -6.43190E-02 -8.98737E-01 +2.88322E-01 -8.99186E-01 +3.35087E-01 -9.83038E-02 -9.47264E-02
+3.03000E+10 -9.81359E-02 -1.86915E-01 -1.08860E+00 +2.94632E-01 -9.43623E-01 +3.58156E-01 -5.51123E-02 -1.26407E-01
+3.04000E+10 +7.50792E-02 -8.49138E-02 -9.02058E-01 +3.44767E-01 -9.98516E-01 +2.81031E-01 +4.08457E-02 -1.83539E-01
+3.05000E+10 -7.12539E-02 -2.10174E-01 -9.38907E-01 +3.23755E-01 -8.96398E-01 +3.82085E-01 -4.96462E-02 -1.00414E-01
+3.06000E+10 +7.87762E-02 -1.47098E-01 -9.23485E-01 +3.64626E-01 -8.88895E-01 +3.60109E-01 -4.70723E-02 -4.33182E-02
+3.07000E+10 -6.07613E-02 -2.22741E-01 -9.15568E-01 +3.08273E-01 -8.72842E-01 +4.68348E-01 -9.01500E-02 -1.00781E-01
+3.08000E+10 +9.54061E-03 -1.22989E-01 -9.12682E-01 +4.34296E-01 -8.89817E-01 +4.45266E-01 -1.35831E-01 -1.02533E-01
+3.09000E+10 +2.70421E-02 -8.66179E-02 -8.81534E-01 +4.63941E-01 -8.25039E-01 +4.31499E-01 -5.80866E-02 -2.27752E-02
+3.10000E+10 +7.10242E-02 -4.93558E-02 -9.29762E-01 +3.89875E-01 -9.82032E-01 +3.28002E-01 -1.06100E-01 -1.22146E-01
+3.11000E+10 +2.43268E-02 -1.70150E-01 -8.40459E-01 +3.92629E-01 -8.13328E-01 +4.28617E-01 -1.47834E-01 -3.44105E-02
+3.12000E+10 +4.03999E-02 -1.19013E-01 -7.89249E-01 +4.46400E-01 -9.34512E-01 +5.32676E-01 -2.52422E-02 -1.65148E-01
+3.13000E+10 -4.11971E-03 -1.76325E-01 -9.73986E-01 +5.33358E-01 -9.31304E-01 +5.30181E-01 -8.41188E-02 -1.43839E-01
+3.14000E+10 -1.51477E-02 -8.89873E-02 -9.22131E-01 +4.65930E-01 -8.28837E-01 +4.20753E-01 -1.72999E-01 -1.04261E-01
+3.15000E+10 +1.79009E-02 -2.28305E-01 -8.16753E-01 +4.44683E-01 -8.29637E-01 +4.09035E-01 -8.90000E-02 -1.12272E-01
+3.16000E+10 -4.94695E-02 -1.49316E-01 -8.96194E-01 +4.26392E-01 -7.60001E-01 +5.04459E-01 -2.98072E-02 +7.98845E-03
+3.17000E+10 -4.37653E-02 -7.78710E-02 -9.25756E-01 +4.98261E-01 -8.08297E-01 +5.90361E-01 -2.99251E-02 -1.25773E-01
+3.18000E+10 +5.28240E-02 -1.76006E-01 -8.42577E-01 +3.88636E-01 -8.47213E-01 +4.98220E-01 -7.63676E-02 -7.42099E-02
+3.19000E+10 +2.84494E-02 -1.39053E-01 -7.85142E-01 +6.24924E-01 -9.27432E-01 +5.20042E-01 -1.18286E-01 -1.56286E-01
+3.20000E+10 -2.23284E-02 -2.92597E-01 -8.79892E-01 +5.08002E-01 -8.24649E-01 +3.91718E-01 -3.95471E-02 -7.06579E-02
+3.21000E+10 -8.44539E-02 -1.44699E-01 -8.05366E-01 +5.85281E-01 -8.71507E-01 +5.01298E-01 -5.10384E-02 -1.33432E-01
+3.22000E+10 +8.56167E-02 -1.53044E-01 -8.06360E-01 +5.77269E-01 -8.72897E-01 +4.39218E-01 -3.67952E-03 -1.34960E-01
+3.23000E+10 -4.57906E-02 -1.45682E-01 -8.76755E-01 +5.35965E-01 -9.60379E-01 +4.45641E-01 -1.27578E-01 -9.24856E-02
+3.24000E+10 -7.95653E-03 -8.50618E-02 -8.30066E-01 +5.43236E-01 -7.82243E-01 +4.80249E-01 -1.21333E-01 -7.11277E-02
+3.25000E+10 +3.89847E-03 -1.77033E-01 -8.21504E-01 +5.95659E-01 -8.39623E-01 +4.58866E-01 -1.43177E-01 -1.17624E-01
+3.26000E+10 -3.06421E-03 -1.76198E-01 -7.99424E-01 +5.49332E-01 -7.66661E-01 +5.66016E-01 -3.72780E-02 -1.03430E-01
+3.27000E+10 -3.15338E-02 -2.14777E-01 -9.12679E-01 +5.63492E-01 -6.95959E-01 +5.01150E-01 -4.07346E-02 -1.03820E-01
+3.28000E+10 +8.97984E-02 -1.99043E-01 -7.09664E-01 +4.89497E-01 -8.43598E-01 +6.31201E-01 -1.36809E-01 -6.95041E-02
+3.29000E+10 -1.68979E-02 -2.36078E-01 -8.29728E-01 +6.25411E-01 -7.79845E-01 +6.44275E-01 -8.04267E-02 -8.87667E-02
+3.30000E+10 +9.83114E-02 -1.57735E-01 -7.83775E-01 +5.70063E-01 -7.89720E-01 +5.93861E-01 -7.34235E-02 -1.97009E-01
+3.31000E+10 +2.51968E-02 -9.87316E-02 -7.77554E-01 +5.88782E-01 -8.33350E-01 +6.72799E-01 -9.93322E-02 -3.56841E-02
+3.32000E+10 +8.29370E-03 -1.28654E-01 -7.84154E-01 +5.63049E-01 -6.74077E-01 +5.94565E-01 -1.98491E-01 +6.84023E-02
+3.33000E+10 +1.99928E-02 -7.78815E-02 -7.40314E-01 +6.15722E-01 -5.93690E-01 +6.19236E-01 +8.29925E-02 -3.72803E-02
+3.34000E+10 +3.82134E-03 -1.20465E-01 -8.75573E-01 +6.79820E-01 -6.57513E-01 +6.23949E-01 -5.22564E-02 -1.25709E-01
+3.35000E+10 +1.04324E-01 -1.73921E-01 -6.87155E-01 +7.97017E-01 -6.12093E-01 +6.88845E-01 -1.60502E-01 -1.31503E-01
+3.36000E+10 -1.02643E-01 -8.96773E-02 -6.92120E-01 +5.94262E-01 -7.03725E-01 +4.82008E-01 -1.38616E-01 -1.58254E-02
+3.37000E+10 -4.71155E-03 -1.35063E-01 -6.27185E-01 +7.31660E-01 -6.89395E-01 +6.05849E-01 -1.91618E-01 -3.59765E-02
+3.38000E+10 -1.02110E-01 -9.84502E-02 -7.25310E-01 +5.60993E-01 -5.63611E-01 +7.13274E-01 -1.04171E-01 -3.57654E-02
+3.39000E+10 -3.30511E-02 -1.61685E-01 -7.29298E-01 +6.54241E-01 -5.73158E-01 +7.39640E-01 -1.10210E-01 -2.31582E-01
+3.40000E+10 +9.66826E-02 -1.66283E-01 -7.17510E-01 +6.66341E-01 -7.13696E-01 +6.39524E-01 -8.84049E-02 -1.23736E-01
+3.41000E+10 +2.73015E-02 -1.25562E-01 -7.88877E-01 +6.03526E-01 -7.59052E-01 +6.63563E-01 +7.78070E-02 -9.05992E-02
+3.42000E+10 +3.70400E-02 +3.18978E-03 -8.29319E-01 +7.35103E-01 -6.85145E-01 +6.57202E-01 -1.36768E-01 -1.33362E-01
+3.43000E+10 -5.60723E-02 -1.61050E-01 -6.26412E-01 +7.00131E-01 -6.36430E-01 +7.04212E-01 -6.59573E-02 -5.86367E-02
+3.44000E+10 +2.54280E-02 -1.76225E-01 -7.03142E-01 +6.23709E-01 -6.61895E-01 +7.19139E-01 -1.77970E-01 -1.54407E-01
+3.45000E+10 +4.67072E-02 -2.18158E-01 -7.89583E-01 +6.30162E-01 -6.16074E-01 +6.34998E-01 -1.74871E-02 +2.57122E-02
+3.46000E+10 +1.69522E-01 -2.49760E-01 -7.69303E-01 +6.67626E-01 -5.84050E-01 +7.31164E-01 -2.12370E-01 +7.16521E-03
+3.47000E+10 +2.77266E-02 -2.27622E-01 -6.42152E-01 +6.05107E-01 -6.85223E-01 +7.03254E-01 -1.35305E-01 -1.86652E-01
+3.48000E+10 -3.30583E-02 -1.92072E-01 -5.57372E-01 +7.44736E-01 -5.63450E-01 +6.75010E-01 -1.33993E-01 +2.74652E-02
+3.49000E+10 -6.09845E-02 -1.13520E-01 -6.43801E-01 +6.77609E-01 -6.19091E-01 +7.66131E-01 -7.69912E-02 -1.58479E-01
+3.50000E+10 -2.05349E-04 -2.05619E-01 -5.33043E-01 +8.76283E-01 -7.36477E-01 +7.55065E-01 -7.53509E-02 +1.60547E-02
+3.51000E+10 +2.04790E-02 -1.54469E-01 -5.66232E-01 +8.12250E-01 -6.61138E-01 +8.13178E-01 +1.31509E-02 -1.12109E-01
+3.52000E+10 +5.37722E-02 -1.21943E-01 -5.56280E-01 +7.01398E-01 -7.10161E-01 +7.70627E-01 -1.44095E-01 -1.88545E-02
+3.53000E+10 +1.18262E-02 -2.60923E-01 -4.93481E-01 +7.38713E-01 -6.50420E-01 +7.95012E-01 -2.60433E-01 -4.17076E-03
+3.54000E+10 +5.56257E-02 -1.88390E-01 -5.54753E-01 +8.38937E-01 -5.75410E-01 +7.12046E-01 -1.61678E-02 -1.50975E-01
+3.55000E+10 -3.03712E-02 -1.17728E-01 -4.63978E-01 +8.03029E-01 -5.46927E-01 +7.99304E-01 +5.36307E-02 -3.84729E-02
+3.56000E+10 +4.34473E-02 -1.98190E-01 -5.71213E-01 +8.13014E-01 -5.43480E-01 +7.52585E-01 -2.37167E-01 +6.19135E-02
+3.57000E+10 -1.80048E-02 -1.13619E-01 -5.05009E-01 +7.74739E-01 -4.18274E-01 +8.58343E-01 -9.41496E-02 -1.06656E-01
+3.58000E+10 +4.27032E-04 -2.49122E-01 -4.67158E-01 +7.91841E-01 -7.06822E-01 +7.96393E-01 +5.43992E-02 +1.27396E-01
+3.59000E+10 -7.59757E-03 -8.59081E-02 -6.20270E-01 +8.94356E-01 -4.46733E-01 +7.89522E-01 -3.07376E-02 +1.87628E-01
+3.60000E+10 +1.09247E-01 -4.50836E-02 -5.47766E-01 +7.87897E-01 -5.37576E-01 +9.16922E-01 +7.89289E-02 +2.02300E-01
+3.61000E+10 -1.22351E-01 -1.14121E-01 -4.58057E-01 +7.92801E-01 -4.48962E-01 +8.58819E-01 +3.27239E-02 +6.91805E-02
+3.62000E+10 -3.59124E-03 -1.12168E-01 -3.19576E-01 +8.10094E-01 -5.31826E-01 +6.83954E-01 -2.68612E-01 -8.50146E-02
+3.63000E+10 +4.27717E-02 -2.95390E-01 -3.71122E-01 +8.40247E-01 -5.63229E-01 +8.02114E-01 +9.39629E-02 +4.17499E-02
+3.64000E+10 +1.92686E-01 -1.40501E-01 -6.31159E-01 +7.62392E-01 -7.44731E-01 +7.20087E-01 -3.82407E-03 +6.19350E-02
+3.65000E+10 +1.05794E-01 -1.20350E-01 -4.76199E-01 +9.52106E-01 -4.65365E-01 +9.11604E-01 +6.12731E-02 -7.51940E-02
+3.66000E+10 +9.99012E-02 -2.32983E-01 -4.92538E-01 +8.49909E-01 -4.40623E-01 +1.12233E+00 -2.05929E-01 -7.40476E-02
+3.67000E+10 -1.51391E-01 -1.55287E-01 -4.76290E-01 +7.75703E-01 -4.78712E-01 +8.94966E-01 +3.76042E-02 +3.02242E-02
+3.68000E+10 +2.78432E-02 -1.03026E-01 -3.97017E-01 +8.62650E-01 -4.02188E-01 +1.00659E+00 -1.55136E-01 +1.17941E-01
+3.69000E+10 -3.34657E-02 -2.42827E-01 -2.41515E-01 +9.46277E-01 -3.39496E-01 +9.31071E-01 -4.82019E-01 -4.44388E-02
+3.70000E+10 -1.47371E-01 -3.98605E-01 -3.42976E-01 +9.60017E-01 -4.08035E-01 +1.06165E+00 -1.47599E-01 -2.13992E-01
+3.71000E+10 +2.22156E-02 -1.85860E-01 -4.80078E-01 +8.40299E-01 -4.49824E-01 +9.09803E-01 -1.76039E-01 +2.11555E-01
+3.72000E+10 -1.58782E-01 -8.10893E-02 -4.21260E-01 +8.36503E-01 -4.48718E-01 +8.34069E-01 -1.87648E-02 -7.63854E-02
+3.73000E+10 +6.86822E-02 -1.54376E-01 -4.96194E-01 +9.66069E-01 -4.63694E-01 +9.28019E-01 -7.01680E-02 -5.99589E-02
+3.74000E+10 +5.74736E-02 -1.75987E-01 -4.52530E-01 +9.09181E-01 -3.37851E-01 +9.07558E-01 -1.12086E-02 -7.06040E-02
+3.75000E+10 -8.69121E-02 -1.53688E-01 -3.72723E-01 +9.60385E-01 -3.04929E-01 +6.83610E-01 +1.32686E-01 -2.90271E-03
+3.76000E+10 -2.00065E-02 -2.30844E-01 -4.42775E-01 +8.92056E-01 -2.60165E-01 +9.61430E-01 -6.83899E-02 -1.39593E-01
+3.77000E+10 +8.27914E-02 -1.30971E-01 -4.25035E-01 +8.53897E-01 -3.31920E-01 +8.03691E-01 -1.12552E-01 +7.27476E-03
+3.78000E+10 +6.94433E-02 -1.19855E-01 -2.70671E-01 +9.17064E-01 -3.15541E-01 +6.67522E-01 +5.80335E-02 +3.98824E-02
+3.79000E+10 -1.30440E-01 -1.01441E-01 -3.45397E-01 +8.81610E-01 -3.49430E-01 +8.84756E-01 -1.16515E-01 +6.15807E-02
+3.80000E+10 +7.82817E-03 -1.51840E-01 -2.78090E-01 +9.93712E-01 -3.57415E-01 +9.50418E-01 -4.48290E-02 -4.51877E-02
+3.81000E+10 -3.78662E-02 -9.71272E-02 -2.74890E-01 +8.76165E-01 -1.02237E-01 +9.41988E-01 -1.06515E-02 +9.29236E-02
+3.82000E+10 -1.72796E-03 -3.72701E-02 -4.41553E-01 +8.55668E-01 -4.38086E-01 +8.58475E-01 -9.63258E-02 +5.49817E-02
+3.83000E+10 -1.23639E-01 -8.63765E-02 -2.92993E-01 +1.07743E+00 -1.83146E-01 +8.31693E-01 +2.26820E-02 +9.70879E-02
+3.84000E+10 -1.93224E-01 -4.42454E-01 -5.44836E-01 +1.02326E+00 -2.83290E-01 +1.11230E+00 +1.80475E-01 -1.12218E-01
+3.85000E+10 +2.73980E-02 -1.41063E-01 -2.02384E-01 +1.00983E+00 -1.59977E-01 +1.00929E+00 -6.95541E-03 -1.43193E-01
+3.86000E+10 -4.37551E-02 -1.25019E-02 -3.24665E-01 +9.73223E-01 -3.60072E-01 +9.29115E-01 -2.79512E-02 -2.50206E-01
+3.87000E+10 +2.96772E-03 -1.18925E-01 -1.58433E-01 +7.61316E-01 -2.20039E-01 +8.85215E-01 -2.65665E-02 -9.96211E-02
+3.88000E+10 -5.26974E-02 -2.91752E-01 -3.25534E-01 +8.72028E-01 -1.72816E-01 +1.10212E+00 +1.04218E-01 +2.22837E-01
+3.89000E+10 -1.39816E-02 -1.33994E-01 -8.62102E-02 +8.20652E-01 -2.05419E-01 +9.92096E-01 +1.25172E-01 -8.61614E-03
+3.90000E+10 -2.33061E-02 -1.19001E-01 -3.03049E-01 +1.02118E+00 -3.28393E-01 +9.76272E-01 -2.03661E-01 +3.28111E-02
+3.91000E+10 -6.83098E-02 +8.88837E-02 -1.92245E-01 +9.43907E-01 -2.89917E-01 +8.44934E-01 +7.39193E-02 +5.98493E-02
+3.92000E+10 +9.39310E-02 -2.24977E-01 -3.10666E-01 +1.02206E+00 -3.64122E-01 +8.41686E-01 -8.64428E-02 +5.25261E-02
+3.93000E+10 -1.30729E-01 -2.30903E-01 -2.84932E-01 +1.03151E+00 -1.94810E-01 +9.28489E-01 +7.67583E-02 +1.01738E-03
+3.94000E+10 +2.23741E-02 -1.61593E-02 -1.25835E-01 +8.67865E-01 -1.75340E-01 +1.12586E+00 -3.48121E-01 +3.24078E-03
+3.95000E+10 +4.79939E-02 -1.61338E-01 -7.01838E-02 +8.86134E-01 -1.44431E-01 +1.12304E+00 -9.37787E-02 -2.15071E-01
+3.96000E+10 -1.92205E-02 +7.19934E-02 -1.33393E-01 +7.85439E-01 -5.66820E-03 +8.39880E-01 -1.54222E-01 +1.58473E-01
+3.97000E+10 +2.42969E-02 -4.31096E-01 -1.08609E-01 +9.74042E-01 -7.21498E-02 +9.39134E-01 +8.79464E-02 +7.57660E-02
+3.98000E+10 +1.36837E-01 -8.82416E-02 -3.82862E-02 +9.79965E-01 -2.56606E-01 +9.07972E-01 +1.55379E-01 +2.26082E-01
+3.99000E+10 -1.34043E-01 -2.03965E-02 -9.00533E-02 +8.98602E-01 -1.15663E-01 +7.73870E-01 +4.45436E-02 +1.10362E-01
+4.00000E+10 +4.67686E-02 -9.49768E-02 -1.87789E-01 +1.00222E+00 +5.64217E-03 +9.72672E-01 +1.39678E-01 -3.30481E-02
