!Keysight Technologies,N5224A,MY55441802,A.10.65.16
!Date: Tuesday, March 03, 2026 15:14:56
!Correction: S11(Full 2 Port(1,2)) 
!S21(Full 2 Port(1,2)) 
!S12(Full 2 Port(1,2)) 
!S22(Full 2 Port(1,2)) 
!S2P File: Measurements: S11, S21, S12, S22:
# Hz S  dB   R 50
25000000000 -21.390039 176.07945 -5.3807874 -80.411369 -5.4070845 -80.178284 -18.513321 172.28934
25025000000 -22.083187 165.23759 -5.3792024 -83.475273 -5.3977242 -83.186661 -18.793535 170.16518
25050000000 -21.444725 154.00374 -5.3772001 -86.380119 -5.3964996 -86.122757 -18.999414 167.39905
25075000000 -20.401964 149.81349 -5.3697658 -89.288445 -5.3922567 -88.969208 -19.00672 163.72011
25100000000 -19.671 151.44049 -5.3635607 -92.191978 -5.3756189 -91.869209 -18.933928 159.85942
25125000000 -19.516714 155.23135 -5.3553653 -95.120728 -5.3681803 -94.814728 -18.829445 156.3022
25150000000 -20.085464 157.14717 -5.3373861 -98.091377 -5.3591185 -97.793907 -18.916636 153.33676
25175000000 -21.376553 156.00662 -5.3261695 -101.15504 -5.3407521 -100.7933 -19.106955 151.65273
25200000000 -22.571211 149.25481 -5.3290896 -104.17852 -5.3348832 -103.83103 -19.371656 149.75955
25225000000 -22.705822 136.84825 -5.3227015 -107.05564 -5.3327956 -106.75657 -19.582129 147.76965
25250000000 -21.898594 127.66536 -5.3014722 -109.97597 -5.3106108 -109.62815 -19.673239 144.45328
25275000000 -20.905363 126.51656 -5.2865295 -112.95674 -5.2891788 -112.64344 -19.67083 141.13716
25300000000 -20.286587 128.96593 -5.2819552 -115.93404 -5.2865639 -115.62653 -19.51403 137.73557
25325000000 -20.447763 132.00725 -5.2747421 -118.88752 -5.2761726 -118.59815 -19.473129 134.36615
25350000000 -21.440903 133.66423 -5.2655153 -121.9091 -5.2682419 -121.64794 -19.630075 131.78067
25375000000 -22.834234 131.22139 -5.2656403 -124.92964 -5.2711473 -124.67131 -19.928541 130.02646
25400000000 -23.81451 120.1168 -5.260283 -127.8608 -5.267036 -127.61104 -20.204504 128.43835
25425000000 -23.708775 106.32427 -5.2426848 -130.86862 -5.2551212 -130.59952 -20.410112 126.01431
25450000000 -22.644049 99.992683 -5.2325215 -133.8885 -5.2453656 -133.59091 -20.436035 122.80058
25475000000 -21.521662 100.68753 -5.2312603 -136.83678 -5.244328 -136.54128 -20.346441 119.21881
25500000000 -21.059465 103.75723 -5.2296128 -139.74265 -5.2445321 -139.44489 -20.233585 115.59642
25525000000 -21.47047 107.46737 -5.2204356 -142.70476 -5.2398844 -142.3609 -20.325714 112.43228
25550000000 -22.547005 109.42051 -5.2158585 -145.68991 -5.2301145 -145.30544 -20.525356 110.48275
25575000000 -23.957981 105.05035 -5.2130938 -148.64897 -5.2197547 -148.27818 -20.792887 108.85413
25600000000 -25.158791 92.715553 -5.1992006 -151.65598 -5.2026305 -151.31105 -21.014353 107.24257
25625000000 -24.864414 81.065491 -5.1920004 -154.73407 -5.1934333 -154.37358 -21.138208 104.75961
25650000000 -23.456419 75.352318 -5.198276 -157.703 -5.1955452 -157.3721 -21.141108 101.56384
25675000000 -22.475277 75.13649 -5.1919742 -160.58229 -5.1913033 -160.24522 -21.105581 97.569702
25700000000 -22.212845 78.884193 -5.1809869 -163.48648 -5.1776514 -163.15427 -21.167084 93.710678
25725000000 -22.626339 82.922371 -5.170692 -166.42174 -5.1636658 -166.10065 -21.339243 90.860725
25750000000 -23.664295 83.085976 -5.1563954 -169.36157 -5.1486917 -169.0647 -21.492256 88.953186
25775000000 -25.215309 76.959335 -5.1386347 -172.35931 -5.1291471 -172.09941 -21.679144 86.832634
25800000000 -26.100391 65.927956 -5.1261129 -175.44965 -5.123703 -175.22466 -21.946238 84.795471
25825000000 -25.302158 55.240437 -5.1286492 -178.54771 -5.1238098 -178.25957 -22.124418 82.46286
25850000000 -24.073645 49.859131 -5.1328254 178.49298 -5.1243019 178.71745 -22.18152 79.589439
25875000000 -23.358324 51.919247 -5.1252871 175.57291 -5.1239419 175.77887 -22.146048 75.713211
25900000000 -23.222622 56.626087 -5.1144209 172.63705 -5.1173902 172.84273 -22.238628 71.724518
25925000000 -23.947605 60.197941 -5.1041446 169.66351 -5.1062217 169.85957 -22.34057 68.662712
25950000000 -25.537834 60.121094 -5.0938797 166.64856 -5.1031518 166.81978 -22.575384 66.215691
25975000000 -27.56073 53.254734 -5.0915847 163.59515 -5.1086965 163.77052 -22.895115 65.275169
26000000000 -28.100054 37.174622 -5.1003294 160.56573 -5.1177344 160.76501 -23.107862 64.084
26025000000 -26.830629 23.522135 -5.1013255 157.63316 -5.1230841 157.84648 -23.213606 61.748798
26050000000 -25.385696 21.622784 -5.0883665 154.69824 -5.1143842 154.96854 -23.342323 57.809357
26075000000 -24.421188 26.226551 -5.0749192 151.72626 -5.0987554 152.04968 -23.488594 53.121292
26100000000 -24.37583 31.944918 -5.0664954 148.73413 -5.079658 149.10448 -23.618862 49.389256
26125000000 -25.416182 36.888405 -5.0568709 145.74194 -5.0641384 146.07741 -23.6814 46.295147
26150000000 -27.485064 38.174534 -5.049211 142.73413 -5.0606751 143.06671 -23.961922 44.465687
26175000000 -29.761341 29.771805 -5.0505862 139.71484 -5.0581069 140.11546 -24.24618 44.038578
26200000000 -30.227318 6.5424352 -5.0519133 136.74759 -5.046855 137.09674 -24.590715 42.575508
26225000000 -28.721209 -6.0401201 -5.0422215 133.75526 -5.0460505 134.07681 -24.839148 40.267345
26250000000 -26.811769 -4.4976969 -5.0353537 130.75635 -5.0380783 131.12361 -24.947664 35.392807
26275000000 -25.933399 0.71789724 -5.0294676 127.7488 -5.0192504 128.10768 -25.079737 30.942331
26300000000 -26.405828 7.6379752 -5.0216718 124.7544 -5.0156946 125.00362 -25.025627 26.897984
26325000000 -28.121771 14.769311 -5.0150433 121.7367 -5.0180006 121.9933 -25.329107 24.267948
26350000000 -31.027859 15.070816 -5.0134816 118.76424 -5.0111074 119.03237 -25.713465 24.272255
26375000000 -33.984898 -6.7843094 -5.0167866 115.79485 -5.0091944 116.03024 -26.239782 24.545168
26400000000 -32.97702 -37.398258 -5.0107355 112.84508 -5.0122356 113.02494 -26.623695 23.592808
26425000000 -30.01543 -40.5788 -5.0001483 109.82268 -5.0067081 110.04859 -26.900864 19.16198
26450000000 -28.048061 -34.901649 -4.9955182 106.78736 -4.9989481 107.02698 -27.136034 13.591922
26475000000 -27.797276 -24.885677 -4.993988 103.77411 -4.9973111 103.94903 -27.153027 8.4995451
26500000000 -28.979631 -13.416871 -4.9902282 100.76044 -5.0085292 100.95543 -27.340345 4.4734964
26525000000 -31.902977 -5.1570745 -4.9884148 98.059677 -5.0046358 97.970818 -27.801836 5.0019631
26550000000 -37.275341 -11.187323 -4.9764519 95.141739 -4.985971 95.037506 -28.242962 5.7865229
26575000000 -41.30632 -76.325966 -4.9580827 92.131592 -4.9805827 91.978767 -29.224653 5.1701126
26600000000 -35.222229 -92.648186 -4.9527712 89.038757 -4.9844761 89.021973 -29.870081 2.8681884
26625000000 -31.271488 -84.010674 -4.958488 85.973099 -4.9726954 86.027771 -30.227549 -3.7107928
26650000000 -30.305986 -72.6632 -4.9682565 82.969406 -4.9751453 82.968948 -29.849382 -9.6298409
26675000000 -31.184595 -56.565987 -4.9706922 80.014244 -4.9896598 80.011856 -29.830688 -15.894371
26700000000 -33.940414 -41.144672 -4.9670668 77.059799 -4.9788818 77.136566 -30.479176 -14.830606
26725000000 -41.230415 -28.94545 -4.9569845 74.096779 -4.9552555 74.107002 -31.181555 -11.719298
26750000000 -45.120491 -178.87013 -4.9421768 71.106575 -4.9504008 71.054192 -32.661987 -7.9423671
26775000000 -36.276688 -172.42908 -4.9352078 68.044884 -4.9484086 68.09446 -33.881405 -8.3131638
26800000000 -32.927078 -150.15176 -4.9413338 65.04834 -4.937953 65.096886 -34.989479 -17.907206
26825000000 -31.872118 -135.30241 -4.9405313 62.102779 -4.937531 62.069542 -34.944206 -27.664063
26850000000 -33.190826 -118.64304 -4.9325666 59.125343 -4.9370012 59.073235 -34.511452 -34.680851
26875000000 -36.872871 -104.3391 -4.9242945 56.104191 -4.9309893 56.106503 -34.416348 -33.793472
26900000000 -48.353485 -136.26575 -4.9156957 53.061676 -4.9172587 53.061943 -35.186981 -27.703356
26925000000 -37.751038 132.46649 -4.911427 49.997486 -4.9114027 49.96946 -37.682594 -18.610147
26950000000 -32.209702 138.61951 -4.9091353 46.941917 -4.9185991 46.932671 -41.282043 0.52164191
26975000000 -29.942087 155.4361 -4.9109797 43.903149 -4.9118471 43.991154 -45.879433 6.4770584
27000000000 -28.912661 169.13487 -4.9113951 40.938831 -4.8978772 40.953842 -50.894176 -17.776346
27025000000 -30.158009 -178.3078 -4.9057927 37.973324 -4.9013987 37.908386 -44.038403 -51.295036
27050000000 -32.592716 -169.14359 -4.905879 34.962719 -4.9074998 34.968178 -41.425537 -57.064457
27075000000 -36.79932 174.38246 -4.9138684 31.934843 -4.8978124 31.919653 -41.880089 -32.152794
27100000000 -35.397217 124.88853 -4.9158473 28.922167 -4.9113364 28.777336 -43.393608 18.979559
27125000000 -30.689007 110.29285 -4.9182363 25.905844 -4.9335032 25.833008 -38.582024 61.049713
27150000000 -28.123924 116.80737 -4.9229693 22.877115 -4.9251904 22.926262 -37.224239 83.175606
27175000000 -26.768738 126.12181 -4.9216771 19.9249 -4.9154949 19.866257 -36.849918 105.8077
27200000000 -27.054464 135.00612 -4.9134579 16.934107 -4.9169993 16.894915 -39.15905 127.18124
27225000000 -28.12705 143.20845 -4.9084396 13.906004 -4.9080634 13.907471 -44.093056 153.55481
27250000000 -29.46788 138.72716 -4.9142962 10.8516 -4.911005 10.828727 -55.917419 -61.894985
27275000000 -30.134037 117.11943 -4.9321418 7.8255405 -4.9309611 7.7783432 -40.658833 7.2227664
27300000000 -28.311176 97.096512 -4.9539981 4.8843369 -4.9559169 4.8331604 -33.460575 29.766172
27325000000 -26.425896 92.398064 -4.9810562 2.0064023 -4.9808493 2.0000343 -29.565651 43.812012
27350000000 -25.105219 99.16375 -4.9923167 -0.69566208 -4.982656 -0.74655908 -27.570635 56.542217
27375000000 -24.349009 107.12656 -4.9584374 -3.4345417 -4.9601841 -3.5333786 -27.009546 67.989799
27400000000 -24.405941 112.05066 -4.9230371 -6.4234905 -4.9312987 -6.4590516 -27.925335 80.037575
27425000000 -25.426441 110.57265 -4.9055724 -9.4649429 -4.9077706 -9.4693089 -29.246399 92.399025
27450000000 -26.854898 101.55936 -4.8981862 -12.505764 -4.8970122 -12.593749 -31.445618 97.241043
27475000000 -27.008228 86.968773 -4.8886542 -15.545812 -4.9026489 -15.619051 -33.369781 86.474899
27500000000 -25.668076 78.018356 -4.8834672 -18.569172 -4.8943791 -18.555044 -33.125748 59.34248
27525000000 -23.890934 76.363091 -4.8773632 -21.615314 -4.8777881 -21.621521 -30.345879 47.557331
27550000000 -22.833794 78.23455 -4.8702059 -24.635107 -4.8815618 -24.684513 -27.96435 44.995903
27575000000 -22.679682 82.392776 -4.8642149 -27.677505 -4.8760943 -27.603161 -27.140057 50.053455
27600000000 -22.966469 84.845718 -4.8674569 -30.693945 -4.8669772 -30.635553 -26.883921 55.981556
27625000000 -23.853235 81.467049 -4.8692703 -33.636765 -4.8716807 -33.650154 -27.439831 61.359482
27650000000 -24.609282 73.462753 -4.8634505 -36.630779 -4.8728228 -36.5891 -28.033514 60.970551
27675000000 -24.292242 62.986771 -4.8627448 -39.66293 -4.8600683 -39.607426 -28.679325 53.41605
27700000000 -23.101135 56.838257 -4.8667665 -42.67131 -4.8625064 -42.650902 -28.126593 42.455112
27725000000 -21.887508 54.976837 -4.8655214 -45.692341 -4.862534 -45.677135 -26.853558 33.640842
27750000000 -21.306313 57.518402 -4.8652191 -48.738308 -4.8628335 -48.716412 -25.681774 31.058664
27775000000 -21.118292 60.541664 -4.8710942 -51.747063 -4.8679576 -51.703148 -25.212729 32.412441
27800000000 -21.588696 60.597126 -4.8716006 -54.69138 -4.8657513 -54.624676 -25.218964 36.236721
27825000000 -22.509138 57.422508 -4.8667765 -57.622299 -4.859735 -57.599861 -25.578405 38.812599
27850000000 -22.950619 50.554283 -4.8618836 -60.602856 -4.8570757 -60.5644 -25.915201 36.792221
27875000000 -22.483421 41.562408 -4.8588715 -63.602444 -4.8455148 -63.584957 -26.220776 29.110088
27900000000 -21.510534 35.995026 -4.8557658 -66.595924 -4.8422885 -66.641968 -25.780483 20.272234
27925000000 -20.657301 34.92057 -4.8507118 -69.631432 -4.8499527 -69.656784 -24.847862 12.891856
27950000000 -20.079279 36.898346 -4.8573103 -72.66951 -4.848423 -72.693207 -23.956028 11.05896
27975000000 -20.076298 37.766678 -4.8581038 -75.616974 -4.8556709 -75.6959 -23.480881 11.636501
28000000000 -20.668505 37.533184 -4.8474278 -78.574829 -4.8559942 -78.618439 -23.464155 14.670707
28025000000 -21.337446 33.899601 -4.839047 -81.591446 -4.8445988 -81.6026 -23.764713 15.867774
28050000000 -21.63682 26.078398 -4.8344789 -84.613945 -4.8474102 -84.6297 -24.262663 14.838372
28075000000 -21.227379 17.620451 -4.8404365 -87.620346 -4.8572273 -87.572769 -24.403559 7.9076309
28100000000 -20.343187 13.554174 -4.8508773 -90.603279 -4.8570347 -90.531998 -24.162411 -1.6917509
28125000000 -19.380754 13.098141 -4.8537264 -93.571175 -4.8628569 -93.516716 -23.331522 -9.3388109
28150000000 -18.882694 13.839126 -4.85184 -96.503929 -4.8587179 -96.388412 -22.582001 -12.247996
28175000000 -19.079514 14.691506 -4.8333964 -99.400978 -4.8354821 -99.296989 -21.856167 -10.804913
28200000000 -19.609453 14.954278 -4.8075972 -102.38246 -4.8120174 -102.30039 -21.485083 -7.6554151
28225000000 -20.257856 11.157874 -4.7838283 -105.38198 -4.7858152 -105.24937 -21.328974 -3.7403274
28250000000 -20.583099 5.3455215 -4.7509508 -108.37017 -4.7463565 -108.25965 -21.65299 -1.2110512
28275000000 -20.0177 -0.48296347 -4.703752 -111.47823 -4.7050915 -111.39927 -22.432209 0.33262968
28300000000 -18.838522 -5.2395968 -4.6605058 -114.76669 -4.661612 -114.63547 -23.883522 -0.74492943
28325000000 -18.118299 -9.7453089 -4.6408124 -118.32221 -4.6376758 -118.20583 -25.834444 -4.0696955
28350000000 -18.482828 -9.9650545 -4.6987433 -122.1077 -4.6962571 -121.96832 -28.119389 -11.927142
28375000000 -18.791656 -4.8182154 -4.8562598 -125.42329 -4.8456807 -125.2607 -29.274578 -23.64101
28400000000 -18.671021 -5.9023561 -4.9860868 -127.93514 -4.9704413 -127.78278 -28.046864 -39.596653
28425000000 -19.05982 -13.642889 -5.021565 -130.22684 -5.0038271 -130.10037 -25.43582 -50.232132
28450000000 -19.36718 -21.246626 -4.9920583 -132.76282 -4.9719772 -132.65945 -23.008301 -54.828548
28475000000 -18.913364 -26.811546 -4.9477563 -135.6232 -4.9308238 -135.54797 -21.222479 -54.849239
28500000000 -18.186579 -29.412203 -4.9207482 -138.55331 -4.9049091 -138.45238 -20.121332 -53.639614
28525000000 -17.669222 -29.952641 -4.8915458 -141.53262 -4.8687425 -141.47141 -19.729393 -50.899132
28550000000 -17.528114 -28.523062 -4.8703175 -144.64722 -4.852602 -144.61398 -19.787836 -48.904388
28575000000 -17.685875 -28.899839 -4.876709 -147.70729 -4.8624959 -147.66385 -20.312311 -48.4137
28600000000 -18.238356 -31.81201 -4.8760734 -150.70088 -4.8620872 -150.63391 -20.824247 -51.290371
28625000000 -18.659885 -37.231602 -4.8734884 -153.70052 -4.8561206 -153.71939 -21.197882 -57.188225
28650000000 -18.482519 -44.145531 -4.8730869 -156.75609 -4.8710794 -156.77057 -20.828699 -63.602982
28675000000 -17.88888 -50.056313 -4.8766642 -159.74338 -4.8700833 -159.68304 -20.186699 -69.323555
28700000000 -17.309576 -52.419685 -4.8748174 -162.70413 -4.8618021 -162.7137 -19.614429 -71.930664
28725000000 -16.930616 -51.996433 -4.8645492 -165.69785 -4.8723531 -165.6996 -19.351442 -72.839531
28750000000 -16.832401 -51.195171 -4.86972 -168.73174 -4.8708649 -168.64684 -19.40044 -72.67749
28775000000 -17.15671 -52.546726 -4.879529 -171.69789 -4.8694277 -171.61615 -19.635365 -74.265251
28800000000 -17.661652 -55.38538 -4.8701401 -174.66371 -4.870863 -174.66008 -19.913132 -77.269386
28825000000 -17.806719 -61.384373 -4.8707833 -177.76129 -4.8772602 -177.6882 -19.871828 -82.083191
28850000000 -17.557083 -68.359093 -4.8839207 179.17662 -4.8915553 179.28204 -19.463617 -87.261307
28875000000 -17.035349 -72.819748 -4.8884521 176.19897 -4.8938923 176.36743 -19.038658 -91.277275
28900000000 -16.527536 -74.027618 -4.890696 173.20464 -4.8827534 173.36824 -18.732201 -92.978561
28925000000 -16.239475 -73.971558 -4.8899522 170.25841 -4.8890519 170.38252 -18.653185 -94.075432
28950000000 -16.362638 -74.300285 -4.8885117 167.31572 -4.8848848 167.51291 -18.808523 -94.935059
28975000000 -16.758108 -75.778938 -4.8856454 164.33366 -4.8692818 164.53288 -19.01232 -97.588081
29000000000 -17.019245 -79.85099 -4.881444 161.31766 -4.8712139 161.44701 -19.093973 -101.30495
29025000000 -17.043139 -86.708496 -4.8900638 158.27753 -4.8817668 158.46973 -18.817646 -106.38908
29050000000 -16.718903 -92.164185 -4.8939157 155.28436 -4.8645496 155.49474 -18.542141 -110.72853
29075000000 -16.174185 -95.180336 -4.8923821 152.28989 -4.8650804 152.29771 -18.134571 -113.04108
29100000000 -15.743305 -96.012421 -4.8934155 149.2236 -4.8846459 149.32782 -17.897852 -114.92594
29125000000 -15.663445 -96.46769 -4.9019084 146.28297 -4.879149 146.37491 -17.880028 -116.30504
29150000000 -15.974164 -96.900246 -4.8908319 143.3215 -4.8748841 143.34009 -18.071505 -118.55931
29175000000 -16.303408 -99.462479 -4.8928537 140.28343 -4.8863268 140.29131 -18.244432 -120.99337
29200000000 -16.546597 -105.21899 -4.9084682 137.25925 -4.901535 137.34019 -18.098299 -125.11213
29225000000 -16.507175 -111.64046 -4.9191394 134.27275 -4.9089694 134.33258 -17.87524 -129.25325
29250000000 -16.063026 -116.38571 -4.9300485 131.28777 -4.9235682 131.33925 -17.567793 -132.53619
29275000000 -15.544147 -119.08399 -4.9349618 128.32509 -4.9339056 128.38731 -17.334255 -134.77779
29300000000 -15.251513 -119.93697 -4.936512 125.36533 -4.9340134 125.45625 -17.258701 -136.51895
29325000000 -15.286368 -120.16385 -4.923748 122.4457 -4.9203043 122.50034 -17.311741 -138.27962
29350000000 -15.502558 -120.86163 -4.909616 119.4121 -4.9184852 119.4524 -17.441883 -141.15886
29375000000 -15.752735 -124.6269 -4.9180427 116.39854 -4.9314213 116.48944 -17.463804 -144.53261
29400000000 -15.968509 -129.75304 -4.9206591 113.42442 -4.9288373 113.59126 -17.336285 -148.69286
29425000000 -15.770792 -135.0208 -4.9249835 110.39188 -4.9205685 110.54044 -17.156677 -151.64566
29450000000 -15.388905 -139.24855 -4.936595 107.39363 -4.9431081 107.49479 -16.831215 -154.33055
29475000000 -15.051475 -141.68463 -4.9488921 104.43213 -4.950779 104.64417 -16.686777 -156.81412
29500000000 -14.950077 -142.44095 -4.9414134 101.48738 -4.9380383 101.63765 -16.658691 -158.88286
29525000000 -14.999247 -143.20316 -4.9404855 98.428314 -4.9410114 98.582581 -16.784157 -161.48172
29550000000 -15.202039 -145.63136 -4.943553 95.434013 -4.9499965 95.637413 -16.822065 -164.00252
29575000000 -15.460533 -149.77676 -4.9499416 92.482002 -4.9421124 92.719177 -16.737816 -167.814
29600000000 -15.462104 -154.48482 -4.9484715 89.499802 -4.9379764 89.671181 -16.600513 -170.89449
29625000000 -15.185596 -159.68027 -4.9563971 86.505608 -4.9521551 86.668762 -16.34272 -173.75262
29650000000 -14.884527 -163.13449 -4.9669404 83.519035 -4.9546571 83.711578 -16.149881 -176.22281
29675000000 -14.661279 -164.87663 -4.9706111 80.597137 -4.954915 80.676445 -16.063446 -178.70451
29700000000 -14.592797 -165.65402 -4.9608092 77.582016 -4.9584789 77.647537 -16.103815 179.0381
29725000000 -14.671288 -167.50647 -4.9697123 74.56852 -4.971375 74.660919 -16.179918 176.45131
29750000000 -14.934599 -170.44345 -4.968049 71.634369 -4.9705696 71.743477 -16.19071 173.51839
29775000000 -15.05465 -174.37158 -4.9602399 68.60601 -4.9661846 68.772339 -16.149498 170.3226
29800000000 -14.965873 -179.53932 -4.9700618 65.56855 -4.9743848 65.739441 -15.98097 167.6091
29825000000 -14.76196 175.87895 -4.9856648 62.623184 -4.9915552 62.851593 -15.772251 164.45732
29850000000 -14.504448 173.26428 -4.9930854 59.68095 -4.9827452 59.914562 -15.672016 161.88577
29875000000 -14.277495 171.73923 -4.9958959 56.712646 -4.9894843 56.853096 -15.600525 159.23547
29900000000 -14.219778 170.41617 -4.9966159 53.696087 -4.999989 53.890541 -15.659518 156.76067
29925000000 -14.347631 168.44427 -5.0003076 50.695496 -4.9939775 50.939758 -15.674456 154.27425
29950000000 -14.54707 165.89233 -4.9971066 47.724766 -4.9856129 47.90617 -15.717018 151.51927
29975000000 -14.603866 161.61481 -5.0071321 44.709797 -4.9987855 44.868969 -15.587968 148.81737
30000000000 -14.603945 156.96223 -5.0213981 41.778023 -5.0147371 41.949013 -15.422426 145.41644
30025000000 -14.42534 153.21417 -5.0244341 38.87455 -5.0132427 39.014668 -15.333755 142.53249
30050000000 -14.192416 150.54007 -5.0196686 35.950352 -5.0179949 36.073006 -15.272526 139.976
30075000000 -14.027376 148.42183 -5.019702 32.983295 -5.0202441 33.119785 -15.240108 137.83034
30100000000 -14.032637 146.67178 -5.0150127 29.993038 -5.0205746 30.16074 -15.197175 135.33774
30125000000 -14.107018 144.5769 -5.0125389 26.967016 -5.0148959 27.144789 -15.204969 132.62814
30150000000 -14.19536 141.2813 -5.0131116 23.934538 -5.0148044 24.113415 -15.218568 129.81708
30175000000 -14.29003 136.9471 -5.0199995 20.935816 -5.021265 21.123003 -15.160378 127.01582
30200000000 -14.242023 133.05632 -5.025023 17.947882 -5.0200801 18.165346 -15.091931 124.03077
30225000000 -14.032895 129.50964 -5.0379834 14.9699 -5.0284858 15.133807 -14.967604 121.34304
30250000000 -13.844559 126.94283 -5.048429 12.047653 -5.0470524 12.212278 -14.876541 118.266
30275000000 -13.731831 125.09613 -5.0502076 9.1264925 -5.0475068 9.2879248 -14.87598 115.77286
30300000000 -13.756619 123.48431 -5.0459304 6.1384583 -5.0455713 6.2788153 -14.870272 113.33177
30325000000 -13.83561 121.0675 -5.0512719 3.1037657 -5.0546179 3.2658892 -14.902289 111.07639
30350000000 -13.986165 117.67512 -5.0624418 0.13843663 -5.0687809 0.31758553 -14.83039 108.24911
30375000000 -14.027843 113.99165 -5.0655966 -2.7924657 -5.0701342 -2.5762377 -14.79257 105.0218
30400000000 -13.916751 110.14588 -5.0653563 -5.7373056 -5.0694199 -5.5248652 -14.7245 102.2885
30425000000 -13.763492 106.56193 -5.0583248 -8.6619625 -5.0654078 -8.4192991 -14.65121 99.594864
30450000000 -13.641288 104.21006 -5.0587091 -11.653239 -5.058095 -11.379605 -14.571241 97.240448
30475000000 -13.550522 102.38358 -5.0636015 -14.63108 -5.060812 -14.405167 -14.539199 94.713593
30500000000 -13.558106 100.34843 -5.0678453 -17.639395 -5.066206 -17.412428 -14.564099 92.239304
30525000000 -13.652732 97.584335 -5.0745401 -20.623238 -5.0674591 -20.398624 -14.618512 89.656448
30550000000 -13.758148 94.426674 -5.0749588 -23.585052 -5.0687165 -23.380262 -14.629672 86.969681
30575000000 -13.749167 90.544533 -5.0780497 -26.573608 -5.0725265 -26.37335 -14.584321 84.092636
30600000000 -13.690999 86.949448 -5.0863838 -29.547012 -5.0825286 -29.325493 -14.467356 81.12989
30625000000 -13.564789 84.224434 -5.0942526 -32.467812 -5.0814085 -32.21563 -14.400022 78.230782
30650000000 -13.432795 82.19558 -5.0910406 -35.407211 -5.0790396 -35.222916 -14.367038 76.028252
30675000000 -13.375058 80.128639 -5.0935397 -38.372677 -5.0858355 -38.195469 -14.399927 73.79921
30700000000 -13.444176 77.787178 -5.0965052 -41.33894 -5.0899739 -41.167271 -14.449266 71.67646
30725000000 -13.549591 75.100708 -5.0982566 -44.322609 -5.0939808 -44.121071 -14.472727 68.724548
30750000000 -13.566334 71.939827 -5.1024346 -47.302467 -5.0923839 -47.119862 -14.509124 65.728653
30775000000 -13.542929 68.298882 -5.1026978 -50.232628 -5.1007824 -50.093502 -14.460965 62.634216
30800000000 -13.500343 65.327087 -5.0921373 -53.235962 -5.092483 -53.022007 -14.425274 59.869511
30825000000 -13.423112 62.751236 -5.0953798 -56.239647 -5.0942335 -56.096405 -14.327262 57.547897
30850000000 -13.3894 60.234539 -5.1066847 -59.238026 -5.1131544 -59.074322 -14.298682 55.073685
30875000000 -13.382612 57.511852 -5.118782 -62.195942 -5.127604 -62.018665 -14.328512 52.70813
30900000000 -13.369953 54.745216 -5.1237588 -65.151077 -5.1381598 -64.952431 -14.41153 50.039387
30925000000 -13.296054 51.977325 -5.1308756 -68.103439 -5.1426077 -67.861702 -14.486662 47.250332
30950000000 -13.239995 49.63887 -5.1269836 -71.023613 -5.1369457 -70.772369 -14.521704 44.612431
30975000000 -13.228579 48.065369 -5.1233296 -74.053741 -5.1354322 -73.780045 -14.467884 42.055275
31000000000 -13.353408 46.897976 -5.1405573 -77.143646 -5.1494198 -76.815056 -14.361116 39.637684
31025000000 -13.729711 44.812935 -5.1866546 -80.085434 -5.1852717 -79.786674 -14.260961 37.065544
31050000000 -14.367267 41.276642 -5.2362914 -82.870811 -5.2371321 -82.595772 -14.287963 34.316071
31075000000 -14.974358 35.861637 -5.2770133 -85.41954 -5.2795377 -85.145119 -14.452862 31.485697
31100000000 -15.107418 29.252556 -5.2655234 -87.855354 -5.2618742 -87.559357 -14.68966 29.43256
31125000000 -14.580348 23.327923 -5.1874766 -90.511963 -5.1836047 -90.287697 -14.655294 27.8589
31150000000 -13.707121 20.31909 -5.1006494 -93.644188 -5.1033754 -93.382751 -14.51173 24.32823
31175000000 -12.913881 19.646036 -5.0517812 -96.944824 -5.0406103 -96.67643 -14.601105 20.836782
31200000000 -12.510582 20.339851 -5.0355482 -100.17331 -5.0333152 -100.00859 -14.663709 18.487593
31225000000 -12.54785 21.204412 -5.0444431 -103.32191 -5.0470614 -103.07622 -14.616328 16.459997
31250000000 -12.946218 20.804062 -5.0624228 -106.36106 -5.0580902 -106.13246 -14.521928 13.7198
31275000000 -13.398736 17.827982 -5.085464 -109.37602 -5.0762758 -109.19126 -14.520106 10.713943
31300000000 -13.579534 12.666549 -5.1013246 -112.35403 -5.0971379 -112.21339 -14.561267 8.0289469
31325000000 -13.289729 7.9497776 -5.1118412 -115.42551 -5.1109724 -115.29855 -14.600722 5.731513
31350000000 -12.750071 6.3269367 -5.1371155 -118.55408 -5.1399298 -118.4616 -14.625411 3.7664068
31375000000 -12.502035 7.9033394 -5.1780677 -121.55337 -5.193408 -121.49535 -14.598314 1.9725813
31400000000 -12.954363 12.104522 -5.2357516 -124.40582 -5.2660613 -124.32551 -14.550338 -0.43525314
31425000000 -14.41916 16.836279 -5.3314509 -126.9528 -5.3735499 -126.79682 -14.612594 -4.2809277
31450000000 -17.387455 17.737324 -5.4408441 -128.89868 -5.4897332 -128.62079 -14.982698 -8.9158802
31475000000 -22.320932 -1.1137338 -5.4765759 -129.96393 -5.5127449 -129.58591 -15.577981 -10.339234
31500000000 -21.373461 -54.598778 -5.3103204 -130.79649 -5.3495636 -130.37296 -15.454021 -7.8269477
31525000000 -15.623436 -66.557671 -4.9467387 -132.77043 -4.9653816 -132.18338 -14.316483 -10.506643
31550000000 -11.62473 -62.615055 -4.5244603 -136.57652 -4.5104361 -136.11003 -14.108746 -21.082304
31575000000 -9.1983891 -55.764278 -4.2162228 -142.20033 -4.20994 -141.83293 -15.320643 -25.222221
31600000000 -8.1738586 -47.383755 -4.2181025 -148.56819 -4.2006421 -148.14554 -15.49186 -19.91584
31625000000 -8.0122347 -37.480938 -4.4466648 -153.72208 -4.4121571 -153.49121 -14.754189 -21.056976
31650000000 -8.6218328 -26.828028 -4.7008224 -157.24467 -4.6936221 -157.10202 -14.61404 -26.886816
31675000000 -9.8292646 -17.047441 -4.8687158 -159.90536 -4.8669968 -159.66367 -14.960897 -32.218357
31700000000 -11.684828 -10.773154 -4.9479642 -162.30954 -4.9456706 -162.15181 -15.430866 -35.606869
31725000000 -14.086979 -12.556909 -4.9800725 -164.81065 -4.9886446 -164.65852 -15.662927 -36.675705
31750000000 -16.016397 -26.594288 -5.0063009 -167.46477 -5.0218496 -167.26057 -15.532109 -37.806686
31775000000 -15.593872 -44.592361 -5.0397825 -170.26712 -5.0544076 -169.98558 -15.313837 -40.101913
31800000000 -13.937555 -52.562172 -5.0810518 -173.11086 -5.0926075 -172.79231 -15.224478 -43.142704
31825000000 -12.657474 -51.829758 -5.1095719 -175.90628 -5.1088729 -175.59494 -15.277789 -45.94265
31850000000 -12.084256 -47.47646 -5.1115441 -178.72375 -5.1143632 -178.45953 -15.448906 -48.838551
31875000000 -12.175923 -43.063351 -5.1001973 178.32733 -5.0968671 178.65041 -15.618064 -51.411072
31900000000 -12.876764 -41.194977 -5.0840421 175.42227 -5.071209 175.63416 -15.769439 -53.937599
31925000000 -13.949538 -43.691963 -5.0678444 172.50876 -5.0679789 172.67393 -15.824412 -55.913177
31950000000 -14.6837 -51.206249 -5.054213 169.57724 -5.0591545 169.81966 -15.766573 -58.608139
31975000000 -14.478127 -60.616653 -5.0545621 166.60298 -5.0493836 166.75893 -15.682496 -61.127071
32000000000 -13.684318 -66.217705 -5.0697017 163.62213 -5.0848188 163.73222 -15.603369 -64.312714
32025000000 -12.951373 -67.177933 -5.0947452 160.64822 -5.114996 160.87032 -15.721504 -67.517387
32050000000 -12.605402 -65.307076 -5.1072998 157.70766 -5.1191893 157.93993 -15.896223 -70.33857
32075000000 -12.75332 -63.356747 -5.108439 154.73415 -5.1275902 154.98477 -16.113625 -72.550842
32100000000 -13.389368 -62.926231 -5.1049132 151.79495 -5.1237011 152.08928 -16.135504 -74.562927
32125000000 -14.135498 -65.986237 -5.0999613 148.82547 -5.1103973 149.15337 -16.053257 -77.555
32150000000 -14.599601 -73.011024 -5.0986876 145.87186 -5.1068997 146.17468 -15.928339 -80.654205
32175000000 -14.480341 -80.746223 -5.1000376 142.97205 -5.1026912 143.27324 -15.852788 -83.568512
32200000000 -13.904292 -85.273727 -5.0994229 140.10126 -5.0986915 140.37425 -15.875192 -86.116043
32225000000 -13.300414 -86.226166 -5.0968623 137.1958 -5.0922375 137.43973 -15.989584 -88.424019
32250000000 -12.995681 -85.556641 -5.0907898 134.18179 -5.0843077 134.37834 -16.129145 -90.951294
32275000000 -13.187093 -84.917534 -5.08567 131.1557 -5.0918279 131.29593 -16.312284 -93.719055
32300000000 -13.729012 -85.501884 -5.077776 128.13963 -5.0947323 128.2999 -16.371723 -96.355675
32325000000 -14.320623 -89.635429 -5.0704203 125.09863 -5.0867167 125.31596 -16.345818 -99.410423
32350000000 -14.615005 -96.450562 -5.0717573 122.05156 -5.0919724 122.23083 -16.179712 -102.19663
32375000000 -14.348854 -102.93899 -5.0806432 119.06573 -5.1129503 119.32288 -16.087538 -105.45409
32400000000 -13.748075 -106.46886 -5.089088 116.09529 -5.1100645 116.44795 -16.152699 -107.97639
32425000000 -13.252222 -107.35089 -5.1047997 113.15377 -5.1235681 113.47134 -16.33812 -110.69926
32450000000 -13.148517 -106.36105 -5.1108341 110.25175 -5.1298099 110.62859 -16.580242 -112.75221
32475000000 -13.419368 -105.44745 -5.1098843 107.29929 -5.1184049 107.72819 -16.626699 -115.28027
32500000000 -13.951156 -106.98115 -5.1132779 104.33486 -5.1102633 104.7019 -16.564352 -118.87043
32525000000 -14.546524 -111.7542 -5.1111536 101.36422 -5.1082778 101.71317 -16.411617 -122.58787
32550000000 -14.744513 -118.44819 -5.0943198 98.386604 -5.090374 98.732658 -16.309116 -125.51154
32575000000 -14.376862 -124.59016 -5.0859289 95.348755 -5.0810752 95.635284 -16.262236 -127.82397
32600000000 -13.809773 -127.95578 -5.0911412 92.349419 -5.0893126 92.630066 -16.363453 -130.06549
32625000000 -13.420051 -128.60033 -5.098846 89.420998 -5.1005344 89.646088 -16.563332 -132.62483
32650000000 -13.393843 -127.63389 -5.0909972 86.506447 -5.1072259 86.747314 -16.776102 -135.36131
32675000000 -13.695493 -127.75696 -5.0830708 83.49192 -5.1019597 83.834015 -16.815256 -138.66142
32700000000 -14.33048 -130.59126 -5.075779 80.437187 -5.0852995 80.802925 -16.752319 -141.93311
32725000000 -14.86561 -136.30099 -5.0761228 77.305473 -5.0887132 77.674835 -16.492123 -145.04976
32750000000 -14.87015 -143.50403 -5.0967712 74.13739 -5.100162 74.611435 -16.320894 -148.33806
32775000000 -14.396073 -149.1963 -5.1304817 71.204201 -5.1126041 71.601501 -16.37582 -150.80353
32800000000 -13.831484 -151.29897 -5.1346583 68.424141 -5.1279235 68.697525 -16.606882 -152.99963
32825000000 -13.472741 -150.78348 -5.1181407 65.586868 -5.1153979 65.917404 -16.829187 -154.96016
32850000000 -13.464167 -149.82857 -5.1028562 62.646763 -5.0915427 62.938663 -16.915421 -158.28378
32875000000 -13.880132 -150.53189 -5.0951691 59.640633 -5.0894442 59.907841 -16.947447 -162.06593
32900000000 -14.495965 -153.57344 -5.0920253 56.590454 -5.0972562 56.888233 -16.777109 -165.39699
32925000000 -14.850175 -159.7966 -5.097333 53.513859 -5.0976014 53.851891 -16.598646 -168.22867
32950000000 -14.749262 -166.76598 -5.1060233 50.539608 -5.1127868 50.819008 -16.516186 -170.54985
32975000000 -14.256384 -171.3432 -5.1138968 47.562805 -5.1145453 47.926453 -16.60343 -172.61955
33000000000 -13.73102 -172.63969 -5.1080813 44.628422 -5.1070995 44.94149 -16.811987 -175.20804
33025000000 -13.455132 -172.36409 -5.098496 41.635372 -5.097579 41.973839 -17.021204 -178.30269
33050000000 -13.646975 -172.12885 -5.0957031 38.644184 -5.0894561 38.975647 -17.116938 177.90338
33075000000 -14.216701 -173.09906 -5.0920501 35.660908 -5.0871162 35.942509 -17.05057 174.66595
33100000000 -14.776747 -177.31372 -5.1001081 32.618355 -5.1030951 32.931343 -16.784781 171.38004
33125000000 -15.04909 175.49634 -5.1211591 29.605806 -5.1125093 29.960711 -16.643686 168.51205
33150000000 -14.788028 168.91074 -5.1303115 26.648569 -5.1195612 26.896553 -16.604109 166.24286
33175000000 -14.200537 165.12212 -5.1361585 23.652908 -5.1411891 23.918156 -16.788271 163.58334
33200000000 -13.716182 164.22942 -5.1339216 20.715715 -5.1320534 21.056458 -17.018639 161.10158
33225000000 -13.556938 164.61259 -5.1241703 17.746477 -5.1197004 18.015768 -17.153946 157.47357
33250000000 -13.842389 164.81819 -5.115335 14.801006 -5.1238475 15.063018 -17.151342 154.29321
33275000000 -14.32621 162.89594 -5.114728 11.830749 -5.126308 12.202833 -16.924536 150.909
33300000000 -14.83314 157.817 -5.1164513 8.8710279 -5.1155624 9.2617388 -16.789509 148.12447
33325000000 -14.94757 151.15327 -5.1212955 5.9191508 -5.1234789 6.2581606 -16.672585 145.90047
33350000000 -14.547976 145.6989 -5.1216679 2.9163437 -5.1247559 3.3238571 -16.75555 143.6033
33375000000 -13.977805 142.91406 -5.122941 -0.13349855 -5.1158433 0.27145535 -16.928864 140.9585
33400000000 -13.620162 142.23111 -5.127955 -3.1568305 -5.1177945 -2.8071411 -17.134418 137.51781
33425000000 -13.663122 142.55742 -5.1277432 -6.1671276 -5.1194143 -5.8401365 -17.254412 133.6636
33450000000 -14.023988 142.39464 -5.1240625 -9.1459103 -5.1220036 -8.8365049 -17.179008 130.81604
33475000000 -14.568291 139.21721 -5.1234694 -12.110231 -5.1227579 -11.756495 -16.956425 127.89949
33500000000 -15.019065 133.6656 -5.1236825 -15.062603 -5.1201906 -14.747871 -16.805796 125.47558
33525000000 -14.952493 127.11752 -5.1334767 -18.052603 -5.1381516 -17.749939 -16.773092 122.70013
33550000000 -14.506048 122.24911 -5.142323 -20.98439 -5.1522536 -20.600601 -16.98266 120.05975
33575000000 -13.999847 120.02491 -5.1415982 -23.958368 -5.1422086 -23.588528 -17.152756 117.19715
33600000000 -13.773945 119.75699 -5.1427131 -26.94791 -5.1470528 -26.631784 -17.295542 113.33266
33625000000 -13.842499 119.92282 -5.1372542 -29.930573 -5.1497211 -29.552992 -17.246788 110.1311
33650000000 -14.228284 118.34576 -5.1322136 -32.881805 -5.134202 -32.475475 -17.050665 106.69869
33675000000 -14.756165 114.42107 -5.125701 -35.843163 -5.1233535 -35.501453 -16.912558 104.54963
33700000000 -14.974617 108.68318 -5.1210136 -38.822124 -5.1345034 -38.490017 -16.793018 102.18375
33725000000 -14.751082 102.52799 -5.1258326 -41.851192 -5.1300783 -41.409557 -16.899389 99.999771
33750000000 -14.279981 98.547447 -5.1336336 -44.854435 -5.1355376 -44.491547 -17.032721 97.011879
33775000000 -13.867553 97.004456 -5.1479359 -47.854279 -5.1599212 -47.488987 -17.267256 93.137901
33800000000 -13.721157 97.10228 -5.1546092 -50.831463 -5.1596456 -50.405746 -17.354759 89.745453
33825000000 -13.894813 96.679337 -5.1501398 -53.771893 -5.1546407 -53.367245 -17.245892 86.523964
33850000000 -14.38971 94.711525 -5.1382313 -56.742813 -5.1437073 -56.320751 -17.076225 83.858665
33875000000 -14.794626 90.575539 -5.1347961 -59.754757 -5.1402063 -59.348476 -16.919275 81.702805
33900000000 -14.902432 84.404343 -5.1359873 -62.756454 -5.1486311 -62.316483 -16.897871 79.21936
33925000000 -14.621513 79.005287 -5.1459436 -65.745583 -5.1488585 -65.207458 -17.056332 76.821381
33950000000 -14.184595 75.988686 -5.1585813 -68.658897 -5.1541948 -68.21769 -17.237152 73.331375
33975000000 -13.83578 75.378036 -5.1566091 -71.564018 -5.1598563 -71.112213 -17.439951 69.739418
34000000000 -13.766941 75.26886 -5.1516733 -74.556885 -5.1443543 -74.060448 -17.392174 66.168358
34025000000 -14.114861 74.34993 -5.1426606 -77.573822 -5.1320767 -77.12233 -17.280371 62.932812
34050000000 -14.623481 71.928696 -5.1346231 -80.634796 -5.1370997 -80.243042 -17.076168 60.904362
34075000000 -14.988783 66.47982 -5.1437078 -83.632408 -5.1449075 -83.154808 -16.942894 58.305767
34100000000 -15.027465 60.101437 -5.1455727 -86.534569 -5.1322584 -86.061394 -17.015905 56.365749
34125000000 -14.586779 54.899574 -5.1378226 -89.514915 -5.1384492 -89.095795 -17.107841 53.496235
34150000000 -14.046273 52.239113 -5.1408114 -92.495041 -5.1436505 -92.000221 -17.337069 49.955162
34175000000 -13.686594 51.483223 -5.1489716 -95.50441 -5.1357517 -95.012711 -17.416382 46.079876
34200000000 -13.768802 51.479076 -5.1514606 -98.462471 -5.1403279 -98.035767 -17.436689 42.419388
34225000000 -14.107818 50.972202 -5.1501298 -101.48687 -5.1423879 -101.04456 -17.279755 39.912144
34250000000 -14.575598 47.779907 -5.1532173 -104.50254 -5.1413417 -104.0437 -17.112461 37.393368
34275000000 -14.921135 42.141819 -5.1550307 -107.50553 -5.1415544 -107.05208 -17.041084 35.194893
34300000000 -14.835929 36.012379 -5.1533771 -110.52333 -5.1380992 -110.08674 -17.079292 32.706211
34325000000 -14.389343 31.235764 -5.1686778 -113.5089 -5.1572895 -113.11974 -17.267014 29.073725
34350000000 -13.914948 29.261894 -5.1757045 -116.34472 -5.1656556 -115.93716 -17.516369 25.749889
34375000000 -13.660404 28.987553 -5.1681676 -119.23845 -5.1524124 -118.86948 -17.52618 22.225464
34400000000 -13.735486 29.318373 -5.1599884 -122.19349 -5.1530018 -121.84827 -17.451122 19.081335
34425000000 -14.061666 27.916582 -5.1602879 -125.16399 -5.1556759 -124.77354 -17.256464 16.42687
34450000000 -14.553393 24.333761 -5.1511602 -128.12433 -5.1418514 -127.74037 -17.214264 14.071211
34475000000 -14.778363 18.726732 -5.1422391 -131.21626 -5.1331835 -130.87433 -17.184898 12.474643
34500000000 -14.594449 12.46404 -5.1498952 -134.29967 -5.1538248 -133.93256 -17.279306 9.2807846
34525000000 -14.12323 8.3664007 -5.1576266 -137.29518 -5.1536469 -136.83171 -17.507061 6.0015607
34550000000 -13.6894 6.7711349 -5.1652513 -140.23013 -5.1593995 -139.85893 -17.653357 1.8427056
34575000000 -13.495873 6.9125352 -5.1617842 -143.1355 -5.1674113 -142.72209 -17.73065 -1.7153238
34600000000 -13.625612 6.8617287 -5.1590381 -146.0939 -5.1569905 -145.62924 -17.552868 -4.5800681
34625000000 -14.055194 5.1012011 -5.1562452 -149.03769 -5.1464834 -148.58997 -17.433035 -6.9654994
34650000000 -14.499872 1.3793334 -5.1518698 -152.07115 -5.1479406 -151.66444 -17.290274 -9.0403204
34675000000 -14.622188 -4.5552692 -5.1614866 -155.13947 -5.153873 -154.68796 -17.332708 -11.883444
34700000000 -14.372318 -10.175875 -5.1741252 -158.09001 -5.1628399 -157.67813 -17.548038 -14.968315
34725000000 -13.874288 -13.57916 -5.1680307 -161.03758 -5.1604762 -160.61716 -17.73616 -18.368355
34750000000 -13.486728 -14.664019 -5.1626072 -164.00113 -5.1511302 -163.57896 -17.800646 -22.219374
34775000000 -13.348891 -14.68813 -5.1542711 -166.9552 -5.152842 -166.5377 -17.753412 -25.679937
34800000000 -13.601668 -15.358112 -5.1483755 -169.90804 -5.1439981 -169.43982 -17.608084 -28.547375
34825000000 -14.03634 -17.432783 -5.1427178 -172.90723 -5.1338749 -172.45229 -17.54504 -30.293707
34850000000 -14.381951 -22.133232 -5.1474643 -175.94971 -5.1416454 -175.52803 -17.460981 -32.289745
34875000000 -14.42061 -28.315926 -5.1611552 -179.00491 -5.1538248 -178.4783 -17.627445 -35.215839
34900000000 -14.057269 -33.39016 -5.1716928 178.01437 -5.1455579 178.48558 -17.800737 -38.523369
34925000000 -13.554435 -36.139713 -5.175189 175.04204 -5.1641288 175.43582 -17.994612 -42.973545
34950000000 -13.223488 -36.808342 -5.174655 172.10635 -5.1598291 172.58092 -18.053047 -46.595032
34975000000 -13.205126 -36.921211 -5.1658201 169.17807 -5.1459026 169.57217 -17.878784 -50.083054
35000000000 -13.518197 -37.334755 -5.1531019 166.22121 -5.1431785 166.57423 -17.733917 -52.284172
35025000000 -13.901082 -39.984032 -5.1501923 163.22398 -5.145741 163.6344 -17.592724 -54.432198
35050000000 -14.213561 -45.133652 -5.160213 160.21941 -5.145318 160.65128 -17.661596 -56.916031
35075000000 -14.137484 -50.997524 -5.1606112 157.2227 -5.1550498 157.5919 -17.77099 -59.877777
35100000000 -13.727144 -55.509575 -5.1671886 154.21452 -5.1690531 154.66161 -17.980801 -63.739147
35125000000 -13.258555 -57.771305 -5.1684551 151.20721 -5.1595082 151.68896 -18.05094 -67.617264
35150000000 -13.038592 -58.27422 -5.1650758 148.21463 -5.1549401 148.70091 -17.994434 -71.314468
35175000000 -13.115548 -58.281704 -5.1582384 145.25786 -5.146225 145.74716 -17.8363 -74.138565
35200000000 -13.430176 -59.287769 -5.1518373 142.29675 -5.1391335 142.7701 -17.724913 -76.015556
35225000000 -13.80902 -62.73539 -5.1541705 139.33092 -5.1407185 139.80014 -17.661722 -78.067795
35250000000 -14.042737 -67.796646 -5.156774 136.40494 -5.1378574 136.87056 -17.780544 -80.670174
35275000000 -13.837266 -73.310898 -5.1550665 133.37556 -5.136291 133.80452 -17.889473 -84.055122
35300000000 -13.44419 -77.345146 -5.1636348 130.3544 -5.1505036 130.82928 -18.03908 -88.259232
35325000000 -13.064721 -79.20108 -5.1664939 127.36184 -5.144485 127.81731 -18.020048 -92.257378
35350000000 -12.940652 -79.537735 -5.1633434 124.36761 -5.1471276 124.77473 -17.931425 -95.77343
35375000000 -13.036781 -79.848747 -5.1601534 121.36671 -5.149128 121.84824 -17.765875 -97.606232
35400000000 -13.374125 -81.817116 -5.1547422 118.42657 -5.1383457 118.92786 -17.648743 -99.648933
35425000000 -13.745502 -85.429367 -5.1523895 115.4521 -5.1271019 115.93711 -17.673698 -101.7729
35450000000 -13.81298 -90.407539 -5.1494904 112.49405 -5.1299133 112.94721 -17.779364 -104.98102
35475000000 -13.57375 -95.578186 -5.1460824 109.49898 -5.1263866 109.98093 -17.92342 -108.48247
35500000000 -13.245532 -98.898888 -5.1541495 106.47879 -5.1275182 106.91923 -17.94212 -112.57003
35525000000 -12.959297 -100.2361 -5.1593428 103.49283 -5.1398015 103.91581 -17.881899 -116.22781
35550000000 -12.900912 -100.74129 -5.1588492 100.51949 -5.1386123 100.91407 -17.729633 -119.24014
35575000000 -13.05688 -101.84251 -5.155623 97.5242 -5.1362677 97.91169 -17.664986 -121.33566
35600000000 -13.42188 -104.16358 -5.1449695 94.600807 -5.1305327 94.943459 -17.583485 -123.06403
35625000000 -13.653565 -108.01221 -5.1383529 91.567322 -5.1256242 91.971313 -17.624102 -125.61655
35650000000 -13.663217 -113.33348 -5.1429992 88.540337 -5.1297483 88.952911 -17.673878 -129.05872
35675000000 -13.452891 -117.73681 -5.1529336 85.582542 -5.1391668 86.014771 -17.750895 -133.03381
35700000000 -13.126465 -120.40055 -5.1583505 82.611938 -5.1381083 83.037407 -17.702717 -136.75815
35725000000 -12.895401 -121.7733 -5.160933 79.639442 -5.1464677 80.046982 -17.612127 -139.95763
35750000000 -12.91283 -122.62975 -5.1568613 76.662827 -5.1414895 77.088203 -17.470276 -142.20413
35775000000 -13.14249 -123.86855 -5.1484923 73.671547 -5.1295996 74.111534 -17.374615 -144.21046
35800000000 -13.408277 -126.36402 -5.1413941 70.66523 -5.1258631 71.05732 -17.333467 -146.48465
35825000000 -13.572752 -130.89622 -5.1444621 67.615891 -5.1249285 68.087067 -17.418406 -149.16235
35850000000 -13.580544 -135.77075 -5.1439867 64.669937 -5.1232853 65.065521 -17.454689 -152.0946
35875000000 -13.31642 -139.56789 -5.1445837 61.662586 -5.1289554 62.077393 -17.45573 -155.7653
35900000000 -13.054325 -142.24495 -5.1584516 58.659119 -5.1366944 59.081409 -17.440115 -159.24831
35925000000 -12.921987 -143.59839 -5.1683989 55.721287 -5.1467981 56.074303 -17.404148 -162.22845
35950000000 -13.007235 -144.5638 -5.1628981 52.778149 -5.1487479 53.129173 -17.30938 -164.1561
35975000000 -13.209311 -146.0378 -5.1527715 49.769531 -5.1406751 50.12793 -17.218044 -166.60356
36000000000 -13.451622 -149.3011 -5.1529751 46.720512 -5.1401482 47.099636 -17.235985 -169.17133
36025000000 -13.618307 -153.83737 -5.1566005 43.745602 -5.1487179 44.104019 -17.217936 -172.08025
36050000000 -13.542969 -158.18307 -5.1500721 40.797302 -5.1463227 41.174339 -17.22471 -175.20392
36075000000 -13.281896 -161.95093 -5.1523719 37.781776 -5.1441464 38.183102 -17.173231 -178.32883
36100000000 -13.097095 -164.1514 -5.1613984 34.818211 -5.1521053 35.211521 -17.147474 178.67969
36125000000 -13.010692 -165.19144 -5.1601548 31.884037 -5.1501694 32.269825 -17.100027 176.38268
36150000000 -13.110053 -166.15749 -5.151135 28.887712 -5.1439238 29.265066 -17.039705 174.04767
36175000000 -13.314843 -168.2951 -5.1508589 25.811718 -5.1443915 26.239285 -17.024202 171.7509
36200000000 -13.619676 -171.9214 -5.1582656 22.823099 -5.1411648 23.226934 -16.999866 169.44104
36225000000 -13.750357 -176.20992 -5.1476693 19.816835 -5.141315 20.18079 -16.953016 166.70193
36250000000 -13.627341 179.06862 -5.1515079 16.759977 -5.1451669 17.162312 -16.947155 163.46468
36275000000 -13.413237 175.47433 -5.1640692 13.812007 -5.1556373 14.187135 -16.977713 160.26112
36300000000 -13.194261 173.64941 -5.1656704 10.902175 -5.1638222 11.277725 -17.006161 157.63931
36325000000 -13.088931 172.61037 -5.1608553 7.9334474 -5.1582751 8.3551788 -16.929598 155.12328
36350000000 -13.177884 171.38766 -5.1587987 4.921586 -5.1547537 5.3227239 -16.913546 152.28185
36375000000 -13.431252 169.15408 -5.162364 1.903568 -5.1558909 2.3285069 -16.87306 150.42798
36400000000 -13.714439 165.93216 -5.1579652 -1.1122133 -5.1593962 -0.69351643 -16.770468 147.83704
36425000000 -13.781528 161.39604 -5.1605544 -4.192008 -5.1543779 -3.7109861 -16.754553 145.14293
36450000000 -13.720913 156.90135 -5.1787105 -7.180974 -5.1684771 -6.75598 -16.771078 142.17871
36475000000 -13.473642 154.03777 -5.1770577 -10.057833 -5.1805353 -9.6188698 -16.857725 139.54034
36500000000 -13.251637 152.25932 -5.1736379 -12.992443 -5.164855 -12.545704 -16.835997 137.03358
36525000000 -13.18611 151.20523 -5.1727004 -15.969196 -5.1680655 -15.55954 -16.832827 134.26489
36550000000 -13.344226 149.92984 -5.1729889 -18.936022 -5.1707397 -18.504776 -16.779037 132.12967
36575000000 -13.64179 147.88643 -5.1693459 -21.894131 -5.1635585 -21.480148 -16.655846 129.89619
36600000000 -13.879838 144.3037 -5.1636791 -24.949038 -5.162169 -24.521664 -16.607647 127.42104
36625000000 -13.979302 139.29703 -5.1696286 -28.022873 -5.164114 -27.587942 -16.603462 124.84377
36650000000 -13.865613 135.09573 -5.1773305 -30.990379 -5.1779618 -30.591291 -16.662415 121.91307
36675000000 -13.578326 132.01994 -5.175396 -33.94722 -5.1815696 -33.500622 -16.747005 119.18613
36700000000 -13.382571 130.33018 -5.1786489 -36.908623 -5.1744719 -36.421661 -16.733225 116.37954
36725000000 -13.35462 129.48189 -5.1767821 -39.848515 -5.1738443 -39.387234 -16.690214 113.84477
36750000000 -13.548028 128.46733 -5.1727166 -42.786289 -5.1658974 -42.339321 -16.53982 111.78387
36775000000 -13.798141 126.14345 -5.1654134 -45.845673 -5.1613307 -45.362644 -16.447348 109.46879
36800000000 -14.051304 121.92023 -5.1771536 -48.897614 -5.1634192 -48.455799 -16.423576 107.4092
36825000000 -14.126873 117.32137 -5.1850996 -51.834217 -5.1896987 -51.468563 -16.521791 104.88693
36850000000 -13.883167 113.22822 -5.1789098 -54.832615 -5.1810522 -54.325169 -16.638845 102.7028
36875000000 -13.592704 110.43909 -5.1789165 -57.841343 -5.1716065 -57.383335 -16.70365 99.721786
36900000000 -13.412854 109.35941 -5.1834574 -60.796806 -5.1868944 -60.372219 -16.772873 96.788231
36925000000 -13.429527 108.91679 -5.1796083 -63.752754 -5.1848001 -63.240402 -16.66338 94.405212
36950000000 -13.645088 108.07157 -5.1695037 -66.709541 -5.1697311 -66.223595 -16.515076 92.035393
36975000000 -13.997823 105.32816 -5.172576 -69.78376 -5.1696157 -69.263184 -16.429113 90.034164
37000000000 -14.338091 101.40758 -5.1864057 -72.739243 -5.1809554 -72.274803 -16.413092 87.905312
37025000000 -14.327251 96.451286 -5.1786351 -75.719215 -5.1834559 -75.231705 -16.505808 85.586334
37050000000 -14.136785 91.868546 -5.1812792 -78.794289 -5.1817207 -78.231918 -16.614895 82.974991
37075000000 -13.874384 89.453865 -5.1906152 -81.743118 -5.1867242 -81.181946 -16.708845 80.100189
37100000000 -13.669743 88.550308 -5.1864643 -84.649666 -5.1835623 -84.065041 -16.686092 77.555809
37125000000 -13.678896 87.971107 -5.1783929 -87.591965 -5.1691928 -87.033607 -16.566975 74.807083
37150000000 -13.907296 86.589127 -5.176826 -90.586403 -5.165637 -90.011894 -16.493937 72.701202
37175000000 -14.251318 83.760841 -5.1816478 -93.570557 -5.1650348 -93.043907 -16.408802 70.844276
37200000000 -14.432239 79.617729 -5.173131 -96.527046 -5.1674695 -96.032097 -16.465746 68.699898
37225000000 -14.36498 74.428032 -5.1662307 -99.612373 -5.1538415 -99.059624 -16.553223 66.450058
37250000000 -14.133307 70.697144 -5.1765971 -102.67162 -5.1612201 -102.18951 -16.683689 63.166183
37275000000 -13.823532 68.502686 -5.1855593 -105.64636 -5.1772985 -105.15657 -16.787151 60.152706
37300000000 -13.687284 67.701569 -5.1871448 -108.55788 -5.172905 -108.05408 -16.718206 57.337021
37325000000 -13.756144 67.370628 -5.1796741 -111.49348 -5.1689305 -111.01188 -16.578508 55.167141
37350000000 -14.052476 66.26461 -5.1763563 -114.43485 -5.1668048 -113.91792 -16.387659 53.337776
37375000000 -14.363306 63.6105 -5.17239 -117.37314 -5.1625996 -116.86575 -16.35321 51.343727
37400000000 -14.556785 58.955223 -5.1661067 -120.39937 -5.1577044 -119.87623 -16.428661 49.526524
37425000000 -14.550811 54.177902 -5.1729856 -123.45137 -5.1611834 -122.93621 -16.5557 47.107349
37450000000 -14.266289 50.664558 -5.1748381 -126.44457 -5.1680598 -125.94674 -16.708866 44.237099
37475000000 -13.988122 48.474525 -5.1769009 -129.43794 -5.1651101 -128.90358 -16.762072 41.252293
37500000000 -13.881827 47.721325 -5.1733193 -132.38557 -5.1577024 -131.91219 -16.71619 38.151512
37525000000 -13.962465 46.932434 -5.1672378 -135.36423 -5.1591611 -134.88287 -16.59798 35.933559
37550000000 -14.239387 45.348175 -5.1592059 -138.2979 -5.1482353 -137.83141 -16.426191 33.832607
37575000000 -14.516388 41.898014 -5.1490822 -141.32161 -5.1454954 -140.82904 -16.423702 31.765602
37600000000 -14.692523 37.38599 -5.1543627 -144.32907 -5.148057 -143.83992 -16.495106 29.580658
37625000000 -14.55511 33.00452 -5.1622825 -147.32645 -5.1600547 -146.82852 -16.667738 26.84968
37650000000 -14.278623 29.477163 -5.1743593 -150.32381 -5.1674471 -149.75879 -16.779636 24.072306
37675000000 -14.052125 27.952545 -5.1760416 -153.24693 -5.1626492 -152.74567 -16.752741 20.97591
37700000000 -13.940626 27.535185 -5.1638212 -156.21703 -5.1600566 -155.71567 -16.627748 18.391016
37725000000 -14.058722 26.839567 -5.1562247 -159.22487 -5.1490002 -158.68098 -16.468695 16.080093
37750000000 -14.348058 25.090502 -5.1492395 -162.20445 -5.1386189 -161.67921 -16.420731 14.347393
37775000000 -14.678435 21.671717 -5.1432004 -165.22136 -5.1308947 -164.68538 -16.41831 12.701559
37800000000 -14.819673 17.229374 -5.1436296 -168.19923 -5.1318631 -167.73174 -16.538906 10.280413
37825000000 -14.709824 12.310776 -5.1459951 -171.22206 -5.1417422 -170.74974 -16.728579 7.2224975
37850000000 -14.475842 9.1703777 -5.1523805 -174.20032 -5.1450081 -173.69044 -16.837921 4.0956268
37875000000 -14.213503 7.6678505 -5.1495209 -177.13997 -5.1436234 -176.65668 -16.793867 0.89887714
37900000000 -14.159614 6.7425408 -5.1421189 179.87805 -5.1407862 -179.62384 -16.640648 -1.9721119
37925000000 -14.315805 5.6570706 -5.1335912 176.85983 -5.1317797 177.38435 -16.51828 -4.3109722
37950000000 -14.615265 3.3026211 -5.1278219 173.85251 -5.1232338 174.37634 -16.452478 -5.7694297
37975000000 -14.883096 -0.4377577 -5.1269441 170.85016 -5.1227493 171.35886 -16.473675 -7.7828531
38000000000 -14.898549 -5.365221 -5.1240339 167.84747 -5.1247606 168.3821 -16.666943 -10.30223
38025000000 -14.731717 -9.9033508 -5.1329794 164.81366 -5.1251268 165.38959 -16.833553 -13.271793
38050000000 -14.408029 -12.421439 -5.1395922 161.87904 -5.1315703 162.39598 -16.926622 -16.612755
38075000000 -14.158014 -13.664234 -5.1350408 158.91533 -5.135428 159.43597 -16.859064 -19.644016
38100000000 -14.150309 -13.925184 -5.1291294 155.93684 -5.1280026 156.45621 -16.722555 -22.264025
38125000000 -14.362554 -14.816308 -5.1236639 152.92339 -5.1259141 153.47166 -16.585571 -24.027201
38150000000 -14.749621 -17.132826 -5.1208735 149.93192 -5.1166205 150.47626 -16.550541 -26.004995
38175000000 -15.031676 -21.557247 -5.1119227 146.95117 -5.1101699 147.45755 -16.700497 -28.335363
38200000000 -15.086082 -27.096537 -5.1039896 143.9335 -5.1098986 144.45801 -16.910103 -31.204464
38225000000 -14.83652 -31.572329 -5.1023684 140.91893 -5.1042256 141.47771 -17.049105 -34.741215
38250000000 -14.461895 -34.498966 -5.1068478 137.9007 -5.1096411 138.44745 -17.089558 -38.590199
38275000000 -14.258388 -35.629601 -5.1122074 134.91325 -5.116806 135.49367 -16.973955 -41.613785
38300000000 -14.272648 -35.796707 -5.1094222 131.95561 -5.1110759 132.51958 -16.771112 -43.811733
38325000000 -14.53154 -36.835789 -5.1086497 128.92503 -5.1023798 129.54001 -16.603477 -45.616692
38350000000 -14.895965 -39.712852 -5.1014228 125.92573 -5.0966096 126.48423 -16.662607 -47.793644
38375000000 -15.205744 -44.736748 -5.0963049 122.86349 -5.0886559 123.47862 -16.902201 -50.148083
38400000000 -15.186457 -49.940624 -5.0999417 119.88136 -5.0838971 120.44216 -17.120001 -53.297333
38425000000 -14.836931 -54.455193 -5.0989304 116.91109 -5.0903664 117.43815 -17.267204 -57.277729
38450000000 -14.504153 -56.783638 -5.0991998 113.96112 -5.093935 114.48444 -17.217966 -60.958549
38475000000 -14.320013 -57.238583 -5.0931425 110.99007 -5.0926895 111.50449 -17.031645 -63.996941
38500000000 -14.390374 -57.558006 -5.0852919 107.9907 -5.092567 108.5345 -16.839159 -66.052673
38525000000 -14.731595 -59.018196 -5.0792961 104.94566 -5.0827403 105.53692 -16.782207 -67.904716
38550000000 -15.156168 -62.830311 -5.0747962 101.88971 -5.0786343 102.49239 -16.935753 -70.011894
38575000000 -15.394219 -68.546684 -5.0740199 98.830009 -5.0754423 99.479538 -17.204918 -72.985504
38600000000 -15.217174 -74.458649 -5.0809431 95.803993 -5.0673404 96.446053 -17.437956 -77.030327
38625000000 -14.823993 -78.459015 -5.0841036 92.877441 -5.0743227 93.440025 -17.545485 -81.225609
38650000000 -14.440382 -79.501984 -5.0817618 89.931793 -5.0709968 90.538353 -17.363123 -84.768219
38675000000 -14.251697 -79.486748 -5.0760827 86.933464 -5.0600066 87.513077 -17.108913 -87.609413
38700000000 -14.458044 -79.628883 -5.0752378 83.916603 -5.0584459 84.446594 -16.910099 -89.50692
38725000000 -14.924101 -81.238945 -5.0749068 80.88681 -5.0685048 81.438126 -16.917446 -91.559433
38750000000 -15.425557 -85.290756 -5.0762258 77.855377 -5.0614662 78.433792 -17.140236 -93.81321
38775000000 -15.564472 -91.429192 -5.0704093 74.88755 -5.0558052 75.369019 -17.369658 -97.112877
38800000000 -15.337801 -97.751274 -5.0586476 71.8853 -5.0561919 72.391937 -17.518892 -101.202
38825000000 -14.902917 -101.34492 -5.0537963 68.851189 -5.0476084 69.406898 -17.477413 -105.2934
38850000000 -14.50576 -102.35069 -5.0521927 65.842094 -5.0483999 66.351845 -17.367012 -108.5774
38875000000 -14.450155 -102.42341 -5.0545263 62.846428 -5.0612502 63.374165 -17.209703 -110.53722
38900000000 -14.729364 -102.71201 -5.0531597 59.846977 -5.0587845 60.437325 -17.117777 -112.38943
38925000000 -15.207655 -105.38955 -5.0528822 56.83049 -5.0565486 57.439049 -17.229319 -114.72844
38950000000 -15.580925 -110.70074 -5.052022 53.78405 -5.0483522 54.388012 -17.466 -118.10116
38975000000 -15.597502 -117.55232 -5.0531392 50.708874 -5.0463786 51.283012 -17.682081 -122.52875
39000000000 -15.251582 -122.45126 -5.0600471 47.694118 -5.0568085 48.259529 -17.74782 -126.67732
39025000000 -14.736349 -124.44972 -5.0612159 44.761555 -5.0505376 45.340324 -17.539957 -130.03624
39050000000 -14.449322 -124.67641 -5.0562768 41.808414 -5.048893 42.341972 -17.317041 -132.61514
39075000000 -14.536462 -124.03797 -5.0448956 38.865715 -5.0481162 39.400948 -17.14253 -134.50156
39100000000 -14.939861 -124.77824 -5.0345225 35.85054 -5.0377736 36.464912 -17.239443 -136.36339
39125000000 -15.501482 -128.42825 -5.0266747 32.812218 -5.0210872 33.40028 -17.389475 -138.55476
39150000000 -15.847258 -134.88814 -5.0197821 29.732101 -5.020359 30.27351 -17.544611 -142.81619
39175000000 -15.738231 -142.05432 -5.0220833 26.613831 -5.0287981 27.208927 -17.681307 -147.65472
39200000000 -15.255575 -146.55969 -5.039032 23.5116 -5.0313878 24.191515 -17.663313 -152.03522
39225000000 -14.776565 -148.17244 -5.0583849 20.568146 -5.0440283 21.158991 -17.515757 -154.68739
39250000000 -14.582207 -147.44807 -5.0545926 17.693041 -5.0448961 18.258966 -17.224648 -156.52016
39275000000 -14.725176 -146.93384 -5.041656 14.742867 -5.033133 15.339961 -17.088274 -158.39243
39300000000 -15.22808 -148.31818 -5.0335145 11.748033 -5.0198836 12.269453 -17.182072 -160.81525
39325000000 -15.806329 -152.73146 -5.0237951 8.6949387 -5.0211077 9.1888075 -17.42057 -164.28194
39350000000 -16.087807 -159.35304 -5.0228009 5.6280055 -5.0268006 6.1453538 -17.603962 -168.48779
39375000000 -15.831745 -165.51738 -5.0273404 2.5799444 -5.030663 3.1253204 -17.616459 -172.7021
39400000000 -15.292211 -169.21524 -5.0334225 -0.41744816 -5.0358348 0.10099131 -17.502676 -176.18083
39425000000 -14.885754 -170.03452 -5.0383472 -3.3871052 -5.0485439 -2.8094001 -17.322908 -178.23326
39450000000 -14.777538 -169.36911 -5.0306597 -6.3641362 -5.0418415 -5.7333322 -17.16123 179.87834
39475000000 -15.073527 -169.51782 -5.0289989 -9.4171591 -5.0269036 -8.7529516 -17.229128 177.97806
39500000000 -15.643519 -171.5242 -5.0260205 -12.421038 -5.0239625 -11.848028 -17.347654 175.25731
39525000000 -16.190491 -176.55402 -5.0174708 -15.453738 -5.0295734 -14.842445 -17.565212 171.03752
39550000000 -16.35873 176.72188 -5.0216551 -18.500055 -5.0202684 -17.826811 -17.635199 166.66432
39575000000 -15.979134 170.7101 -5.0290337 -21.511272 -5.019321 -20.914204 -17.56628 162.25726
39600000000 -15.520492 167.65694 -5.0356221 -24.445332 -5.0314112 -23.866888 -17.399326 159.49866
39625000000 -15.173628 167.49962 -5.0186653 -27.386768 -5.0177526 -26.777134 -17.175463 157.23441
39650000000 -15.152455 167.68942 -5.0076222 -30.461817 -5.0033598 -29.838139 -17.138315 155.496
39675000000 -15.560751 167.03976 -5.0043936 -33.54871 -5.0040088 -32.937508 -17.177805 153.62691
39700000000 -16.156733 164.14314 -5.0073848 -36.606899 -5.0159764 -35.996487 -17.321207 150.13744
39725000000 -16.623152 158.32204 -5.0152287 -39.689156 -5.0268488 -39.01115 -17.495365 145.75151
39750000000 -16.587273 151.63098 -5.0293798 -42.659626 -5.0321846 -41.969296 -17.55809 141.58006
39775000000 -16.167971 146.69705 -5.0309467 -45.555717 -5.0337591 -44.874012 -17.436666 138.38638
39800000000 -15.670278 145.04803 -5.0162449 -48.477798 -5.0176091 -47.756596 -17.185411 135.96303
39825000000 -15.39399 144.70248 -5.0052814 -51.591343 -4.9914327 -50.811016 -17.077536 133.46519
39850000000 -15.578618 144.74594 -5.0163565 -54.667633 -4.9875402 -54.000362 -17.134516 131.69505
39875000000 -16.051266 143.74419 -5.0196447 -57.665333 -4.9988818 -57.069851 -17.190208 129.41656
39900000000 -16.614006 140.0603 -5.0181575 -60.676628 -4.9922347 -60.037399 -17.359947 125.99422
39925000000 -16.932301 133.55594 -5.0130177 -63.674366 -4.986238 -63.181763 -17.403259 121.78628
39950000000 -16.823572 126.65451 -5.0099316 -66.700317 -5.002738 -66.249092 -17.453934 117.53354
39975000000 -16.352278 122.62839 -5.0087843 -69.721886 -5.009798 -69.155342 -17.384098 114.55386
40000000000 -15.85363 121.31737 -5.0082068 -72.73156 -5.0115786 -72.196259 -17.32448 111.8645
40025000000 -15.730578 121.53873 -5.0207019 -75.750717 -5.0282435 -75.157211 -17.272934 110.3457
40050000000 -15.96521 122.1468 -5.0226121 -78.681778 -5.0314832 -78.057449 -17.209591 108.10954
40075000000 -16.524326 120.4614 -5.0189276 -81.716904 -5.019475 -80.993134 -17.336359 104.95831
40100000000 -17.18153 115.78219 -5.0183964 -84.779251 -5.0040779 -84.042137 -17.468962 101.24448
40125000000 -17.494104 108.73254 -5.0147004 -87.805138 -4.9963708 -87.141403 -17.504507 97.059128
40150000000 -17.266035 102.17545 -5.0076699 -90.850906 -4.9896955 -90.21315 -17.461941 93.407951
40175000000 -16.660267 98.206726 -5.0130515 -93.862732 -4.9842129 -93.250198 -17.373199 90.26075
40200000000 -16.250515 96.77079 -5.0219493 -96.853294 -4.992806 -96.324959 -17.342392 87.833977
40225000000 -16.17808 97.450119 -5.0217161 -99.789009 -5.0080976 -99.313454 -17.297384 86.041718
40250000000 -16.434834 97.453171 -5.0132799 -102.75858 -5.0079794 -102.21539 -17.33238 83.581841
40275000000 -17.046562 95.185463 -5.0056162 -105.80249 -4.9964595 -105.26241 -17.420918 80.80162
40300000000 -17.666807 90.257156 -5.0042772 -108.90951 -5.0004296 -108.40142 -17.438482 76.84166
40325000000 -17.888336 83.161057 -5.0085349 -112.00862 -5.0148845 -111.42037 -17.538568 72.824295
40350000000 -17.519033 77.081566 -5.0224104 -115.05596 -5.0079737 -114.40524 -17.519835 69.502312
40375000000 -16.997875 73.721031 -5.0313377 -117.97166 -5.018847 -117.4505 -17.514645 66.91745
40400000000 -16.625256 73.673088 -5.0253034 -120.86492 -5.0211277 -120.32081 -17.419134 65.030319
40425000000 -16.546581 74.045731 -5.0105181 -123.85808 -4.9975343 -123.26529 -17.394907 62.486439
40450000000 -16.986513 73.587112 -5.0080776 -126.90235 -4.9896345 -126.35958 -17.490957 59.846363
40475000000 -17.653992 70.937477 -5.0117741 -129.90393 -4.9992919 -129.44911 -17.584719 56.265995
40500000000 -18.195063 65.199631 -5.0089002 -132.95724 -5.00559 -132.46593 -17.723633 52.412785
40525000000 -18.163828 57.892021 -5.008976 -136.04929 -5.0023189 -135.5168 -17.711561 48.680252
40550000000 -17.669744 51.863716 -5.0127959 -139.08072 -5.0079908 -138.58252 -17.689186 45.051239
40575000000 -17.130445 49.614025 -5.0136733 -142.05566 -5.0189943 -141.56078 -17.697546 42.589603
40600000000 -16.806997 49.841557 -5.0057678 -145.04398 -5.0177164 -144.52327 -17.655588 40.428452
40625000000 -16.970917 50.426193 -5.0081854 -148.07515 -5.0121689 -147.47316 -17.702068 38.085079
40650000000 -17.507435 50.145924 -5.0097342 -151.03116 -5.0095253 -150.44321 -17.762184 35.318729
40675000000 -18.195831 46.322952 -5.0063567 -154.02243 -5.0109558 -153.42654 -17.890448 31.312384
40700000000 -18.66637 38.898899 -5.0043483 -157.10194 -5.002995 -156.41205 -17.983055 27.41444
40725000000 -18.504005 30.568382 -5.0121317 -160.1756 -4.9865637 -159.54736 -17.969248 23.20504
40750000000 -17.924534 25.891212 -5.0094624 -163.19849 -4.9962087 -162.65948 -18.007458 19.753099
40775000000 -17.25407 24.778463 -5.0024257 -166.20715 -4.9885879 -165.66977 -17.947344 17.207899
40800000000 -16.988066 25.135283 -5.0006289 -169.27901 -4.9841528 -168.80139 -17.970478 14.689912
40825000000 -17.294098 25.81225 -5.0095682 -172.25967 -5.0073676 -171.86575 -17.968435 12.331711
40850000000 -17.968473 24.838631 -5.0120912 -175.2094 -5.0205574 -174.75919 -18.036175 8.6560593
40875000000 -18.673841 20.181295 -5.0077085 -178.21231 -5.0187273 -177.72067 -18.130705 5.1312447
40900000000 -18.929998 12.316601 -5.0097098 178.80252 -5.026525 179.27042 -18.144903 1.221434
40925000000 -18.617065 4.8072176 -5.0080285 175.77864 -5.0348868 176.33342 -18.182781 -2.0701883
40950000000 -17.935787 1.3761706 -4.9998965 172.72737 -5.0200243 173.37057 -18.147829 -4.8969646
40975000000 -17.378609 0.45716035 -4.9963741 169.56787 -5.0104547 170.24823 -18.225437 -7.6170101
41000000000 -17.380682 1.4269485 -5.0079541 166.52567 -5.0142674 167.19371 -18.327326 -9.8741713
41025000000 -17.777416 1.9743414 -5.0039978 163.56645 -5.015182 164.25119 -18.393654 -12.943296
41050000000 -18.535852 -0.6092025 -4.99928 160.5721 -5.002573 161.30142 -18.484707 -17.111708
41075000000 -19.241022 -7.3187742 -4.9993749 157.51682 -4.9974937 158.24591 -18.480295 -21.669388
41100000000 -19.412004 -15.944632 -5.0079331 154.48521 -5.0059242 155.14871 -18.500589 -26.502363
41125000000 -18.822287 -21.953966 -5.0162582 151.49876 -5.0178514 152.17604 -18.55368 -29.735468
41150000000 -18.08029 -24.710033 -5.0200896 148.47287 -5.0150189 149.16283 -18.481415 -32.408173
41175000000 -17.749329 -24.857529 -5.027658 145.45512 -5.0215592 146.11157 -18.457581 -34.768387
41200000000 -17.881363 -23.652998 -5.0224595 142.50481 -5.022234 143.17003 -18.485716 -37.773899
41225000000 -18.424208 -24.557732 -5.006238 139.50034 -5.0055404 140.20807 -18.687658 -41.434273
41250000000 -19.224688 -28.959084 -4.9954014 136.44769 -4.9885769 137.14934 -18.748821 -44.920364
41275000000 -19.703825 -36.833122 -4.9937577 133.3728 -4.9902649 134.09155 -18.695171 -49.539639
41300000000 -19.382669 -44.913391 -5.0031195 130.27773 -4.9933567 131.04579 -18.738182 -53.788418
41325000000 -18.59203 -50.573681 -5.0257497 127.15051 -5.0036187 127.90667 -18.825239 -57.466377
41350000000 -18.02532 -52.104919 -5.0499549 124.17299 -5.025876 124.85832 -18.866852 -59.962025
41375000000 -17.805811 -50.830151 -5.047658 121.26874 -5.0267835 121.89735 -18.817013 -62.735481
41400000000 -18.012629 -49.869015 -5.0357771 118.29985 -5.0109692 118.91505 -18.886433 -66.25441
41425000000 -18.663343 -51.073689 -5.0263624 115.27198 -5.0018301 115.86595 -18.953663 -69.946571
41450000000 -19.436937 -55.668152 -5.0239739 112.25298 -5.0100665 112.80907 -18.894323 -74.414474
41475000000 -19.775661 -63.209515 -5.0266194 109.26705 -5.0160317 109.89272 -18.929256 -78.881279
41500000000 -19.392065 -70.583206 -5.0267639 106.31208 -5.0134816 106.93302 -18.899134 -82.223145
41525000000 -18.785021 -75.047424 -5.0288363 103.29052 -5.0082464 103.92258 -18.832159 -85.609711
41550000000 -18.322624 -75.838936 -5.0260501 100.30413 -5.0128684 100.8904 -18.883814 -88.544914
41575000000 -18.180861 -75.863403 -5.0182004 97.173264 -5.0017934 97.827637 -18.90357 -91.756622
41600000000 -18.592728 -76.584549 -5.0251498 94.041016 -4.9947724 94.684555 -18.958361 -94.912483
41625000000 -19.224154 -79.032532 -5.0310259 91.036491 -5.0052667 91.615982 -18.885309 -98.972153
41650000000 -19.71332 -84.778961 -5.032413 88.070915 -5.0087194 88.660187 -18.927063 -103.90744
41675000000 -19.721886 -92.457077 -5.032577 85.108154 -5.0048132 85.720047 -18.998476 -107.8362
41700000000 -19.289135 -98.771698 -5.0322318 82.123993 -5.0079365 82.666214 -18.94676 -111.81089
41725000000 -18.751785 -101.76196 -5.0345936 79.087013 -5.0125613 79.677208 -18.893568 -115.51913
41750000000 -18.393267 -102.2998 -5.0412974 76.037476 -5.011271 76.601791 -18.853193 -119.25882
41775000000 -18.47109 -102.60276 -5.0470123 72.971054 -5.0178795 73.507179 -18.85487 -122.33308
41800000000 -18.94381 -103.5221 -5.0526748 69.914551 -5.0234504 70.453911 -18.752888 -125.42142
41825000000 -19.546249 -107.33316 -5.0512738 66.887848 -5.0213866 67.425453 -18.678221 -129.18904
41850000000 -19.939842 -114.30079 -5.0460052 63.909458 -5.0146708 64.409142 -18.664473 -133.10394
41875000000 -19.815773 -121.77498 -5.0380945 60.911587 -5.0078883 61.405506 -18.630293 -137.05493
41900000000 -19.307673 -127.0959 -5.037744 57.89579 -5.0111804 58.349178 -18.627531 -141.33569
41925000000 -18.710175 -129.59821 -5.0433264 54.853603 -5.0171084 55.365944 -18.608675 -144.90346
41950000000 -18.464272 -130.37373 -5.0534744 51.835785 -5.0234575 52.297894 -18.531612 -148.16994
41975000000 -18.607786 -130.5016 -5.0590997 48.823574 -5.0373187 49.223766 -18.435503 -150.86806
42000000000 -19.027273 -131.89047 -5.0615687 45.798176 -5.045794 46.224277 -18.338093 -154.14824
42025000000 -19.548277 -135.87399 -5.0598783 42.771072 -5.0432167 43.226048 -18.384048 -157.64098
42050000000 -19.836584 -142.00117 -5.0594358 39.732784 -5.042531 40.164249 -18.329208 -161.25867
42075000000 -19.685112 -148.84485 -5.0626297 36.715893 -5.0500836 37.17181 -18.322407 -165.52792
42100000000 -19.20512 -153.74568 -5.0660105 33.722439 -5.0479383 34.186108 -18.276234 -169.28537
42125000000 -18.696442 -156.02522 -5.0695863 30.749464 -5.0550785 31.167292 -18.191547 -172.78535
42150000000 -18.50592 -156.51202 -5.0738044 27.774803 -5.059381 28.220821 -18.089024 -175.38333
42175000000 -18.615416 -156.82465 -5.0734406 24.76745 -5.0601053 25.220722 -18.021606 -178.15543
42200000000 -19.05142 -158.64108 -5.0731306 21.715712 -5.0621266 22.173477 -18.013386 178.98201
42225000000 -19.563564 -162.59227 -5.0725675 18.656822 -5.062077 19.129438 -18.031946 175.23157
42250000000 -19.773687 -168.739 -5.0714455 15.611318 -5.0575695 16.096754 -18.026695 170.88033
42275000000 -19.560898 -175.5993 -5.0750551 12.552115 -5.0569263 13.034031 -17.928377 166.5649
42300000000 -19.094398 179.73482 -5.0787559 9.559926 -5.0592995 10.003707 -17.767599 162.86046
42325000000 -18.668978 177.8567 -5.080153 6.5710225 -5.0648293 7.003088 -17.606251 159.912
42350000000 -18.514931 177.66685 -5.0820179 3.5847492 -5.0691986 4.0351105 -17.485394 157.71422
42375000000 -18.707218 177.16241 -5.0834727 0.56726617 -5.0741096 1.0207764 -17.475639 155.2818
42400000000 -19.198442 175.05615 -5.0883021 -2.4737408 -5.0749664 -2.0000961 -17.507116 152.56238
42425000000 -19.675295 170.05432 -5.0921917 -5.5451946 -5.0780396 -5.0698681 -17.493057 148.80122
42450000000 -19.767115 162.83601 -5.0968351 -8.6224947 -5.0780625 -8.1041737 -17.426722 144.57751
42475000000 -19.364712 156.57593 -5.1026521 -11.631222 -5.080204 -11.178764 -17.262453 140.59254
42500000000 -18.772659 153.54703 -5.1046572 -14.596704 -5.0868592 -14.156053 -17.122503 137.68898
42525000000 -18.296593 153.31885 -5.1012015 -17.574558 -5.0840816 -17.094263 -16.99642 135.87033
42550000000 -18.223442 154.15164 -5.1023946 -20.549187 -5.0880136 -20.13191 -16.976635 134.00465
42575000000 -18.624275 154.49545 -5.1068554 -23.567024 -5.094698 -23.115755 -17.03727 131.83594
42600000000 -19.316996 152.69461 -5.109448 -26.59053 -5.0963144 -26.136803 -17.105511 128.58009
42625000000 -19.970192 146.42946 -5.1091528 -29.66218 -5.0973997 -29.202963 -17.03738 124.65265
42650000000 -20.195892 137.95152 -5.1091738 -32.767544 -5.1005759 -32.26675 -16.854612 120.24651
42675000000 -19.643766 131.31754 -5.116406 -35.871704 -5.0957489 -35.312916 -16.647968 116.64217
42700000000 -18.869577 128.1718 -5.1311979 -38.888821 -5.1017761 -38.394169 -16.537785 114.33134
42725000000 -18.393387 128.0361 -5.1425042 -41.847042 -5.1152167 -41.403496 -16.512001 113.14719
42750000000 -18.409624 129.47238 -5.1450343 -44.772045 -5.1162934 -44.346428 -16.540236 111.75283
42775000000 -18.814892 130.46024 -5.1398244 -47.686031 -5.1131058 -47.29977 -16.666891 109.06731
42800000000 -19.483269 127.88375 -5.1324029 -50.683384 -5.11408 -50.319324 -16.780226 105.24656
42825000000 -20.133127 121.17464 -5.1334844 -53.735638 -5.1194811 -53.386658 -16.706196 101.1156
42850000000 -20.101585 113.58495 -5.1320009 -56.817974 -5.1285191 -56.404026 -16.491674 97.131142
42875000000 -19.369785 108.01335 -5.1339884 -59.905369 -5.1296406 -59.42408 -16.279734 94.393219
42900000000 -18.668684 106.1459 -5.1410122 -62.940022 -5.1321173 -62.498241 -16.178492 92.716194
42925000000 -18.334585 107.34327 -5.1470351 -65.973015 -5.141849 -65.47364 -16.245224 91.673721
42950000000 -18.515957 109.44173 -5.1536503 -68.946426 -5.136724 -68.419243 -16.384359 89.983978
42975000000 -19.179667 109.60094 -5.1488781 -71.921227 -5.1282697 -71.425583 -16.523783 87.27626
43000000000 -20.193468 106.37925 -5.1499691 -74.95433 -5.1322908 -74.459335 -16.482878 83.181709
43025000000 -20.768581 99.376793 -5.1601806 -78.009697 -5.1366339 -77.463837 -16.359076 78.4683
43050000000 -20.482809 90.45816 -5.175837 -81.009712 -5.1372933 -80.529282 -16.182688 75.030716
43075000000 -19.738869 85.141182 -5.1764064 -83.966331 -5.1460152 -83.571434 -15.976907 73.252251
43100000000 -19.052961 84.890259 -5.1666498 -86.953033 -5.1402626 -86.545044 -15.893616 72.21299
43125000000 -18.768507 86.930313 -5.1615167 -90.014542 -5.1265035 -89.615097 -16.01366 70.705582
43150000000 -19.090788 88.643974 -5.1631994 -93.035431 -5.132165 -92.732826 -16.248985 68.698257
43175000000 -20.035461 87.921524 -5.1660676 -96.071037 -5.1476283 -95.752777 -16.314442 65.500031
43200000000 -21.101149 83.442078 -5.1762733 -99.115005 -5.1606455 -98.759529 -16.219175 60.988705
43225000000 -21.407246 74.273331 -5.1978207 -102.08842 -5.1757884 -101.71011 -16.085588 56.715439
43250000000 -20.949492 65.377388 -5.2099619 -104.97253 -5.1822205 -104.66795 -15.900102 54.118004
43275000000 -20.047962 62.482742 -5.1921873 -107.88229 -5.1817346 -107.64479 -15.741029 52.777191
43300000000 -19.321695 63.218803 -5.1775851 -110.99443 -5.1743279 -110.63681 -15.737924 51.70076
43325000000 -19.219593 65.381523 -5.1799636 -114.10788 -5.1656084 -113.77473 -15.917941 49.957924
43350000000 -19.791 67.067162 -5.1817565 -117.1429 -5.1776505 -116.89295 -16.095417 47.548424
43375000000 -20.777399 66.645149 -5.1846604 -120.16263 -5.1922426 -119.81026 -16.116716 43.617306
43400000000 -21.56934 60.825745 -5.1869884 -123.15276 -5.1895423 -122.72326 -16.084812 39.47599
43425000000 -21.781708 50.583076 -5.1897984 -126.12997 -5.1832333 -125.73721 -15.893891 36.23822
43450000000 -21.151913 43.895905 -5.182827 -129.12744 -5.1886048 -128.7112 -15.715621 33.717907
43475000000 -20.189146 41.792046 -5.1843777 -132.25108 -5.1829286 -131.75284 -15.684662 32.027367
43500000000 -19.787355 43.207104 -5.2090354 -135.29762 -5.1956625 -134.87576 -15.801563 30.8417
