!Keysight Technologies,N5224A,MY55441802,A.10.65.16
!Date: Tuesday, March 03, 2026 16:29:42
!Correction: S11(Full 2 Port(1,2)) 
!S21(Full 2 Port(1,2)) 
!S12(Full 2 Port(1,2)) 
!S22(Full 2 Port(1,2)) 
!S2P File: Measurements: S11, S21, S12, S22:
# Hz S  dB   R 50
25000000000 -44.298031 117.49467 0.0066586672 -10.258002 0.00032859237 -10.267219 -56.548302 -26.392962
25025000000 -46.04636 -122.67799 0.0089934384 -10.19703 0.0046874997 -10.185838 -58.843895 77.965981
25050000000 -46.198284 6.3393493 -0.00030578012 -10.189677 -0.0059140678 -10.184827 -54.880856 -174.10455
25075000000 -45.319832 131.76575 0.00049248076 -10.247993 -0.0031055838 -10.249492 -55.636486 -42.639214
25100000000 -44.614513 -119.39772 0.0042721997 -10.238016 0.0042078565 -10.245708 -65.365051 141.28723
25125000000 -45.912529 -9.8776751 0.0056739743 -10.238899 -0.00017541749 -10.242492 -52.426517 -161.72989
25150000000 -43.828209 110.05813 0.0032167309 -10.346921 -0.0060026268 -10.33915 -51.365944 -22.312576
25175000000 -44.361404 -145.5545 0.00482103 -10.326621 0.0056483275 -10.293593 -57.577072 31.013998
25200000000 -46.881905 -21.656725 0.0037510195 -10.260038 0.0012328929 -10.216324 -53.054771 -165.62993
25225000000 -46.915268 119.06547 -0.0010462319 -10.251648 -0.0026755258 -10.247421 -51.276424 -69.99498
25250000000 -44.47871 -146.46672 0.0032869286 -10.298616 0.0035329023 -10.296299 -55.060757 -27.798254
25275000000 -46.170021 -35.901615 0.0041119936 -10.311528 0.0031267579 -10.280183 -59.536579 -152.94521
25300000000 -44.051357 101.80887 0.0046535642 -10.364759 5.6698478e-005 -10.367368 -56.449661 -33.034115
25325000000 -44.209927 -155.76472 0.0046312208 -10.381242 0.0044589657 -10.398363 -55.648792 -14.27312
25350000000 -47.489452 -46.851498 0.0058120303 -10.353323 0.0050472762 -10.344393 -55.85675 -150.59435
25375000000 -47.63913 95.255173 -0.0010686214 -10.308557 -0.0043067271 -10.331278 -51.643806 -50.123093
25400000000 -44.016975 -167.42023 -0.00023532131 -10.346246 -0.0019452829 -10.374191 -51.411076 -12.638701
25425000000 -45.169956 -52.225975 0.0036735756 -10.378546 -0.0013601691 -10.400835 -60.779037 159.68275
25450000000 -45.29871 72.514915 0.0051467675 -10.38094 -0.0016507717 -10.41666 -61.235851 -80.273613
25475000000 -44.817966 169.86467 0.0018212377 -10.423775 -0.0014246124 -10.459448 -52.358204 -21.934612
25500000000 -47.343357 -92.228622 0.0044183144 -10.423386 -0.00069348677 -10.434841 -65.889984 -115.04612
25525000000 -49.053837 46.122013 0.0045524919 -10.406393 -0.0017090527 -10.399933 -59.389297 -49.35009
25550000000 -46.344563 170.62904 0.0010713616 -10.382461 -0.003460841 -10.401086 -53.820221 0.95818257
25575000000 -45.941692 -62.26165 0.0024393983 -10.43218 -0.0016003965 -10.435189 -58.035179 130.57581
25600000000 -45.58633 50.190102 0.0049899663 -10.463371 -0.002023848 -10.474397 -64.250237 -151.89745
25625000000 -44.31197 147.77472 0.0042624325 -10.482157 -0.002869288 -10.5196 -52.075821 -29.648458
25650000000 -44.791847 -109.67786 -0.0016883134 -10.510881 -0.0028933671 -10.526396 -69.929703 33.713181
25675000000 -45.931427 7.2468648 0.0030225778 -10.508454 -0.00084749388 -10.504675 -58.961121 139.94009
25700000000 -49.757088 134.56674 0.0047673411 -10.481397 -0.00059497968 -10.502043 -62.287163 -11.294985
25725000000 -51.308384 -87.262497 0.0040517934 -10.467601 4.6284877e-005 -10.489705 -63.788486 91.533836
25750000000 -48.615551 25.149883 0.0033910633 -10.50119 -0.003547559 -10.531576 -64.764824 135.0641
25775000000 -45.880852 137.76521 0.004332005 -10.521956 -0.0022612822 -10.574212 -56.661343 -15.23895
25800000000 -44.493938 -105.85974 0.003567352 -10.559803 -0.0015624959 -10.603609 -67.714172 58.747135
25825000000 -43.810303 -1.2828187 -0.00014444465 -10.618242 -0.0058331667 -10.625155 -53.752243 150.05284
25850000000 -45.911751 96.536308 0.0039523561 -10.589088 -0.0052299448 -10.637666 -64.501625 14.653225
25875000000 -49.215736 -157.71022 0.0045808698 -10.530455 -0.0028264129 -10.587315 -64.847519 31.778156
25900000000 -48.310696 -24.442343 0.0038448374 -10.548642 -0.0041035241 -10.57822 -60.124321 134.82158
25925000000 -47.546043 103.99847 0.0035348483 -10.566828 -0.0065211225 -10.628507 -69.518166 5.1704431
25950000000 -46.889839 -130.63795 0.0027343619 -10.580029 -0.0042773583 -10.636709 -83.465057 -148.57947
25975000000 -44.515938 -18.164436 -0.004390459 -10.642583 -0.013369978 -10.657933 -57.53508 152.23558
26000000000 -43.507469 79.701057 -0.0066292458 -10.692337 -0.015771551 -10.723901 -57.684925 -6.7047868
26025000000 -44.466263 -176.91475 -0.00069290918 -10.664625 -0.0074891839 -10.705247 -59.326546 -18.493839
26050000000 -46.130772 -56.060383 0.0025413476 -10.606018 -0.005892518 -10.63174 -56.725777 159.06607
26075000000 -48.014381 68.515137 0.0033525173 -10.641858 -0.0079738777 -10.670077 -64.775841 -117.28967
26100000000 -48.30674 -175.19693 0.0035899582 -10.643003 -0.0039685098 -10.679458 -60.305016 -33.706932
26125000000 -48.367062 -59.711777 0.0025547645 -10.625097 -0.0044343323 -10.645964 -64.567863 162.61087
26150000000 -46.158466 66.727196 -0.003587917 -10.687495 -0.013585067 -10.711091 -62.440357 -50.600418
26175000000 -44.365227 176.70419 -0.00064584881 -10.723435 -0.0060940455 -10.774912 -56.586655 -32.417019
26200000000 -46.515167 -77.12793 0.0041195694 -10.688426 -0.0025655252 -10.721975 -61.525116 -156.50101
26225000000 -48.945103 42.898178 0.0043184147 -10.658784 -0.0073984098 -10.713563 -60.127327 -97.7015
26250000000 -46.179707 155.94249 0.0052237473 -10.719241 -0.0068113254 -10.783591 -55.26759 -34.351036
26275000000 -47.156349 -91.592331 0.0068064313 -10.715805 -0.002152211 -10.752287 -72.421707 -79.069748
26300000000 -46.807846 46.244106 0.001191473 -10.718572 -0.010247068 -10.762323 -69.03611 -87.982529
26325000000 -44.573078 160.62282 -0.0015741908 -10.768673 -0.011086947 -10.838749 -53.910641 -37.668934
26350000000 -45.544277 -107.04766 0.0034195082 -10.784186 -0.0027573756 -10.837865 -61.497883 -82.359375
26375000000 -47.928558 18.9832 0.0020613945 -10.740804 -0.0080994517 -10.793508 -65.580818 -74.04174
26400000000 -44.146328 144.68761 0.0038066015 -10.764041 -0.0085281143 -10.846524 -52.891697 -31.611311
26425000000 -44.962219 -110.99821 0.0067307381 -10.799432 -0.0035315801 -10.854873 -64.767578 -34.693619
26450000000 -46.978832 18.51885 0.0066702631 -10.769197 -0.0059126522 -10.808767 -64.643425 -123.92219
26475000000 -44.310638 136.41432 -0.0043070298 -10.806827 -0.016998785 -10.88128 -54.611584 -46.110073
26500000000 -43.271725 -131.24026 -0.0032363448 -10.848919 -0.01197659 -10.923072 -62.393295 -62.582401
26525000000 -45.461922 -14.778591 0.0029457863 -10.830374 -0.010435733 -10.870484 -76.48333 -87.69149
26550000000 -45.008636 114.731 -0.00095316931 -10.810913 -0.016379781 -10.898446 -56.348427 -29.719086
26575000000 -45.766605 -139.62376 0.0051780101 -10.869699 -0.0078080585 -10.926766 -61.329865 -31.298496
26600000000 -48.783592 -19.780167 0.0097215809 -10.852954 -0.0046189432 -10.870199 -74.165665 -117.58549
26625000000 -46.293194 113.2894 0.0016593672 -10.85386 -0.011548419 -10.893001 -58.458916 -29.657413
26650000000 -43.820164 -137.3968 -0.0054465258 -10.903238 -0.011079689 -10.962068 -64.358902 -48.944996
26675000000 -44.600891 -24.175125 0.0024055606 -10.904634 -0.0082615931 -10.940926 -62.168488 164.54858
26700000000 -45.176098 97.622559 0.00072508596 -10.876946 -0.010859607 -10.943006 -60.603664 -25.623388
26725000000 -45.039459 -156.65018 -0.0024246587 -10.934257 -0.0096314633 -11.0032 -61.753769 -44.185726
26750000000 -45.757549 -47.49229 0.0058131269 -10.950741 -0.0045124032 -10.9943 -63.164921 -176.58864
26775000000 -46.050156 83.427307 0.0073761479 -10.917449 -0.007784117 -10.946646 -65.279114 -11.660264
26800000000 -45.069489 -148.31853 -0.004584597 -10.944221 -0.010768317 -11.004024 -73.740089 -4.2392058
26825000000 -44.990108 -32.236778 -0.00069767563 -10.955098 -0.0067473613 -11.007124 -61.222569 152.12512
26850000000 -45.476418 80.085434 0.0015654525 -10.940012 -0.010780626 -10.99902 -67.564629 -10.877522
26875000000 -44.137508 -166.80341 -0.0015268223 -10.969825 -0.011701299 -11.066951 -67.233818 -32.643135
26900000000 -42.784996 -57.013927 0.0067985891 -11.053076 -0.0049668257 -11.10872 -58.753632 -162.96475
26925000000 -44.732952 55.041584 0.012392726 -10.993215 -0.0033455004 -11.065682 -66.128288 153.67407
26950000000 -46.614975 -178.8205 0.0065626409 -10.985095 -0.007106707 -11.065922 -66.725212 7.7617254
26975000000 -45.981297 -60.545025 0.0028082067 -11.038147 -0.0081352759 -11.075623 -60.510693 -168.47221
27000000000 -45.531708 51.650059 0.0051454129 -10.99986 -0.0088083372 -11.075167 -68.925568 135.24701
27025000000 -44.40023 172.28691 0.0015215544 -11.012082 -0.012337277 -11.117082 -65.836769 -34.155254
27050000000 -43.113804 -74.579704 0.0019973346 -11.092872 -0.011411635 -11.153522 -60.530354 -163.94872
27075000000 -43.511322 31.533205 0.0052109356 -11.105722 -0.0093749557 -11.146096 -62.955811 130.1234
27100000000 -45.698895 148.95879 0.0055998112 -11.087839 -0.012373785 -11.14537 -65.231201 -32.39838
27125000000 -45.762001 -98.019753 0.0010055118 -11.0956 -0.010975572 -11.136296 -60.441746 -145.69463
27150000000 -45.502594 21.949451 0.0013464728 -11.083872 -0.011413967 -11.121578 -71.581993 84.682373
27175000000 -45.587688 149.06596 0.00055590825 -11.059943 -0.011895615 -11.131987 -74.728439 -43.002609
27200000000 -46.208221 -92.416191 0.002764907 -11.11059 -0.0087161921 -11.154425 -60.242397 -120.37165
27225000000 -46.734962 18.950409 0.0073418068 -11.124054 -0.0078907292 -11.164788 -65.966393 73.631088
27250000000 -46.345432 136.40848 0.0081765167 -11.143798 -0.0053889328 -11.187131 -69.853165 121.96616
27275000000 -46.159798 -115.0185 0.0088859014 -11.155313 -0.00097285403 -11.181421 -53.317936 -101.45255
27300000000 -46.500282 7.934474 0.010461186 -11.151708 -0.003328796 -11.186721 -55.940922 3.9583499
27325000000 -46.642017 138.49402 0.0083367713 -11.16022 -0.0036548541 -11.24126 -51.099731 99.221153
27350000000 -47.327328 -111.06895 0.014052344 -11.226037 0.0026125766 -11.304306 -45.42028 -150.0311
27375000000 -45.934052 -4.7916045 0.013894812 -11.235229 -0.002901996 -11.311331 -44.272411 -73.236534
27400000000 -44.157616 112.00286 -0.0079116728 -11.304364 -0.022705151 -11.379255 -41.635181 16.924456
27425000000 -44.63237 -120.31667 -0.023126246 -11.35717 -0.032994747 -11.415931 -42.407513 96.799278
27450000000 -47.751968 -33.66856 -0.012601851 -11.287426 -0.025831694 -11.324546 -43.158073 178.69757
27475000000 -47.549858 97.231865 -0.0078349235 -11.170695 -0.021923635 -11.248789 -46.120159 -76.594917
27500000000 -44.929165 -143.12697 -0.013502666 -11.16107 -0.022110393 -11.245403 -46.971184 8.5406132
27525000000 -47.484303 -34.099689 -0.00466228 -11.20153 -0.017989475 -11.256065 -49.892315 115.47858
27550000000 -46.238701 95.532715 0.001159812 -11.196383 -0.017644932 -11.279645 -55.519421 -114.32384
27575000000 -45.084965 -158.29227 -0.0043051001 -11.238834 -0.016390346 -11.306393 -51.500145 -28.8013
27600000000 -47.576599 -56.413761 -0.0016852564 -11.281161 -0.01271274 -11.297421 -53.614677 107.4623
27625000000 -48.012844 64.883995 0.0022692711 -11.250525 -0.012451271 -11.301079 -57.936775 -172.38605
27650000000 -46.730865 -169.69588 0.001044767 -11.241908 -0.011247807 -11.316292 -53.010563 -41.577881
27675000000 -48.609226 -51.536564 0.0031193953 -11.260408 -0.0086961426 -11.303467 -56.512432 66.222198
27700000000 -48.305927 72.211098 0.0024250881 -11.245385 -0.012728008 -11.299605 -56.468456 151.53621
27725000000 -47.896088 -170.38475 0.0030810141 -11.291211 -0.012011303 -11.348069 -57.253555 -62.012592
27750000000 -46.461555 -65.467712 0.001318384 -11.354403 -0.010616773 -11.391941 -62.884808 89.623688
27775000000 -46.352558 44.465145 0.0060630403 -11.339972 -0.0090761017 -11.381359 -55.985535 136.29446
27800000000 -47.349796 165.6266 0.00066128041 -11.333873 -0.011465337 -11.411268 -57.333458 -65.550835
27825000000 -48.614853 -80.406654 0.0033176721 -11.327497 -0.0085961642 -11.395813 -61.727055 62.396046
27850000000 -47.380531 34.023186 0.0077173272 -11.323133 -0.0084012058 -11.36624 -53.893009 136.17084
27875000000 -48.698837 151.56299 0.00033018197 -11.320814 -0.013103804 -11.386576 -57.594227 -109.52264
27900000000 -47.171349 -91.132286 0.00020122611 -11.388371 -0.0095526837 -11.444398 -64.284615 -4.1125464
27925000000 -46.739552 21.933081 0.0055937916 -11.384262 -0.0080328789 -11.436716 -53.565727 122.30578
27950000000 -49.162281 143.98878 0.0013291417 -11.382956 -0.010374362 -11.46243 -58.266945 -130.39709
27975000000 -47.883976 -95.676994 0.00057706004 -11.420108 -0.0071573984 -11.484298 -63.350361 -56.326862
28000000000 -46.42152 7.39219 0.0064834156 -11.414577 -0.0052366853 -11.464768 -52.272739 127.71214
28025000000 -47.974018 126.61342 0.0051036156 -11.374475 -0.0097222542 -11.447435 -56.481689 -143.79823
28050000000 -46.362133 -111.06518 0.0022788236 -11.425926 -0.010152542 -11.49702 -56.177368 -40.327652
28075000000 -45.017521 -5.6167088 0.0042240578 -11.471228 -0.0068756202 -11.502805 -50.372047 109.52532
28100000000 -48.18026 97.227783 0.0035308267 -11.420276 -0.011154231 -11.477863 -52.472675 -169.35736
28125000000 -47.360279 -142.90164 -0.0025433318 -11.444078 -0.014994891 -11.525146 -52.189884 -74.829163
28150000000 -46.327301 -26.020563 0.002994539 -11.490893 -0.0081733968 -11.547079 -51.095547 84.750999
28175000000 -50.280979 87.502686 0.01050271 -11.423093 -0.0048730387 -11.48308 -50.200962 173.80667
28200000000 -48.187119 -143.06013 0.0063892095 -11.42937 -0.0097936885 -11.504967 -47.965584 -83.614632
28225000000 -46.743912 -33.358315 0.011030616 -11.502415 -0.0025542178 -11.536723 -47.509109 52.863155
28250000000 -50.327404 75.666718 0.024296425 -11.46528 0.0095785698 -11.49857 -42.699184 147.54662
28275000000 -45.48798 -176.70351 0.026401378 -11.410757 0.010639735 -11.484051 -40.112511 -117.57864
28300000000 -47.080433 -41.220322 0.021663208 -11.544395 0.012483726 -11.588139 -38.938202 -17.49522
28325000000 -50.989326 94.177299 0.044105176 -11.710401 0.030424602 -11.749372 -35.580273 76.506874
28350000000 -47.488567 153.39272 0.047901805 -11.82 0.035974827 -11.875158 -33.768341 157.92451
28375000000 -45.127563 -55.340107 0.011647824 -11.832781 -0.0036264462 -11.888412 -34.04509 -121.0649
28400000000 -44.502899 69.451859 -0.030414315 -11.802127 -0.04789995 -11.850858 -34.612003 -30.120131
28425000000 -51.457241 -158.00328 -0.051533863 -11.73507 -0.056488559 -11.796782 -36.06982 49.822258
28450000000 -46.370525 -77.511215 -0.030953055 -11.645024 -0.041181926 -11.691331 -38.641956 143.19724
28475000000 -46.856808 48.323078 -0.012511638 -11.579766 -0.030378904 -11.652838 -42.255951 -117.2267
28500000000 -48.101048 169.99055 -0.013981246 -11.563316 -0.028231384 -11.639886 -43.109287 -18.228693
28525000000 -46.982548 -91.520676 -0.0099204313 -11.601307 -0.021429863 -11.650766 -46.858559 87.700653
28550000000 -47.672462 44.796665 0.00072954898 -11.61992 -0.017707357 -11.658444 -51.287216 -169.34421
28575000000 -47.515469 163.34264 -0.0012874325 -11.614036 -0.016344236 -11.677149 -50.952469 -42.010235
28600000000 -47.163425 -92.834732 -0.0045200954 -11.634297 -0.015855169 -11.695364 -54.027256 67.999458
28625000000 -46.444454 26.219189 -0.0010242527 -11.647037 -0.015002704 -11.728758 -54.944988 171.65034
28650000000 -45.67548 147.14014 0.004150847 -11.666109 -0.016371708 -11.766579 -53.991932 -53.462414
28675000000 -45.346577 -107.30034 -0.0011979114 -11.726953 -0.013163651 -11.766914 -60.219883 40.28252
28700000000 -46.406334 9.4688053 0.0010619605 -11.714242 -0.012994842 -11.746884 -55.11636 138.70317
28725000000 -46.924725 125.71943 0.0032000043 -11.69795 -0.014103758 -11.75767 -59.488266 -65.281059
28750000000 -46.913803 -124.91321 -0.00085236138 -11.717629 -0.012830969 -11.760911 -62.709122 11.504886
28775000000 -47.512295 1.6228721 0.0010426168 -11.714738 -0.010871626 -11.751128 -59.144489 141.46587
28800000000 -48.26646 131.40926 0.0017502898 -11.711772 -0.013536477 -11.79019 -68.039162 -96.43824
28825000000 -47.416058 -108.18911 0.0033710983 -11.772451 -0.010364509 -11.836875 -68.304276 -63.797501
28850000000 -47.036392 7.7957492 0.0051629306 -11.795597 -0.01016174 -11.824099 -58.903156 133.21054
28875000000 -46.579033 117.52457 0.0017408596 -11.780925 -0.014055879 -11.824851 -65.111031 -73.078552
28900000000 -45.313469 -130.62828 -0.0027530382 -11.797832 -0.01205901 -11.848851 -67.255318 -76.488571
28925000000 -46.042641 -19.163294 0.0033782488 -11.802023 -0.01019298 -11.849168 -59.847267 151.47894
28950000000 -48.216084 94.852058 0.0024316004 -11.780212 -0.011785239 -11.840084 -71.734581 -139.71585
28975000000 -48.640594 -147.37279 -0.00017238017 -11.782363 -0.0093875341 -11.885125 -68.340065 -36.415501
29000000000 -47.857407 -32.261204 0.0041928468 -11.825429 -0.010319654 -11.887005 -62.373234 145.97247
29025000000 -47.844887 92.361389 0.0026557706 -11.831108 -0.010769595 -11.887645 -66.972389 -116.80672
29050000000 -46.165207 -141.325 -0.0023279877 -11.835238 -0.011459982 -11.914454 -65.350716 -102.08848
29075000000 -45.468052 -29.712687 0.0019523801 -11.86229 -0.0082332967 -11.922304 -60.206284 168.05736
29100000000 -46.763714 78.638084 0.0062279706 -11.840055 -0.0091560185 -11.923478 -68.403549 154.97797
29125000000 -45.922596 -165.20946 0.00087540102 -11.861341 -0.011024026 -11.970123 -60.68103 -60.000214
29150000000 -45.732296 -54.85606 0.0027059871 -11.92203 -0.01141021 -11.990325 -65.482338 -177.21155
29175000000 -47.970745 64.610909 0.0057153106 -11.907335 -0.011370919 -11.966057 -70.876793 134.62219
29200000000 -48.522339 -162.60118 0.0014418821 -11.916003 -0.012254301 -11.968466 -61.300632 -89.908127
29225000000 -48.601643 -47.851807 0.0023057738 -11.936457 -0.010959436 -11.969792 -67.984344 168.67793
29250000000 -48.283089 62.212341 0.0039919121 -11.900583 -0.010692089 -11.963188 -74.795082 145.59227
29275000000 -45.572178 -175.82607 0.0030521143 -11.937561 -0.01320791 -11.990312 -60.447395 -65.264008
29300000000 -45.495853 -72.267418 0.00086222199 -11.977621 -0.01196643 -12.025428 -68.102005 -130.5332
29325000000 -47.462753 37.964165 0.0060958853 -11.963898 -0.010799521 -12.01557 -66.732193 174.63719
29350000000 -48.700314 153.47025 0.0044612265 -11.964923 -0.014718142 -12.036547 -64.237434 -77.409325
29375000000 -49.213779 -95.269363 0.0028782918 -11.996429 -0.012030623 -12.032465 -82.702171 -82.22879
29400000000 -49.744522 31.26222 0.0058107777 -11.98648 -0.0086847488 -12.013086 -73.920364 157.36324
29425000000 -48.961689 170.73627 0.0036773244 -11.965172 -0.010071163 -12.026132 -65.509758 -43.420395
29450000000 -48.191551 -80.793159 0.0036075041 -12.029596 -0.010732165 -12.058005 -64.239708 -83.407455
29475000000 -49.221481 31.280331 0.0061957771 -12.022773 -0.0097937025 -12.079158 -66.432793 120.99896
29500000000 -48.372066 152.03871 0.0028448629 -12.043262 -0.012445238 -12.094482 -67.791168 -27.815899
29525000000 -47.238106 -100.48476 -0.00033089603 -12.097013 -0.012476075 -12.130012 -63.784668 -128.09001
29550000000 -49.221481 17.472336 0.0034829578 -12.075301 -0.0103861 -12.107121 -67.80426 118.5544
29575000000 -49.080566 143.5038 -0.00097134081 -12.056372 -0.01087329 -12.093387 -72.683899 -40.075073
29600000000 -49.862206 -115.27766 0.0019824198 -12.063689 -0.0077281641 -12.111252 -65.55204 -44.583843
29625000000 -50.191692 -4.7745905 0.0060031735 -12.084414 -0.008155792 -12.118698 -62.902378 134.29558
29650000000 -50.613998 122.34144 0.0034188754 -12.075611 -0.011629647 -12.136084 -70.916405 159.51094
29675000000 -49.039928 -112.50429 -0.00036934705 -12.111773 -0.013903338 -12.18006 -66.700127 -121.8966
29700000000 -49.222031 -0.080162555 0.0041771387 -12.138964 -0.012481933 -12.183183 -67.883202 106.71733
29725000000 -51.037624 116.77926 0.0035140228 -12.105302 -0.014287095 -12.17819 -76.43692 75.181839
29750000000 -48.883781 -138.13542 -0.00036977866 -12.110361 -0.014793336 -12.199637 -71.84874 -145.49911
29775000000 -47.479691 -25.817801 0.0067293989 -12.159518 -0.009623331 -12.202451 -58.864471 163.6427
29800000000 -49.913033 90.29332 0.0089863585 -12.124913 -0.011758013 -12.1831 -64.516724 140.65562
29825000000 -51.58585 -144.69389 0.0036374058 -12.14061 -0.014217667 -12.217512 -66.235313 -62.066406
29850000000 -52.369808 -34.118324 0.0027279744 -12.184751 -0.012140108 -12.203979 -65.386185 126.87228
29875000000 -54.481178 85.932549 0.0042545889 -12.165125 -0.011682556 -12.203634 -62.779942 144.12007
29900000000 -50.177692 -132.75154 0.00058168464 -12.200805 -0.013450359 -12.24451 -62.334709 -139.80609
29925000000 -47.230152 -31.676252 0.0025988109 -12.2451 -0.01172429 -12.272381 -58.06118 169.35983
29950000000 -49.581566 68.190895 0.0078412015 -12.207035 -0.010600924 -12.245191 -63.472523 119.60278
29975000000 -50.415989 173.41043 0.0027235302 -12.215148 -0.012178167 -12.256226 -63.849392 -67.704338
30000000000 -49.975334 -86.311546 6.1620391e-005 -12.249142 -0.01135006 -12.285926 -60.762302 146.95242
30025000000 -52.264465 12.509726 0.0037039707 -12.223415 -0.01084739 -12.272058 -59.444538 172.88449
30050000000 -57.183926 -167.08437 0.0016250245 -12.226466 -0.013981931 -12.292098 -60.179546 -138.99104
30075000000 -52.67886 -47.094704 0.00056281826 -12.259617 -0.01197573 -12.316195 -72.856522 119.26267
30100000000 -52.734661 56.339046 0.0058184345 -12.252359 -0.0094646122 -12.306091 -69.422699 122.9048
30125000000 -50.584942 178.22583 0.0013775802 -12.253634 -0.012766097 -12.321431 -66.554924 -139.25833
30150000000 -47.048756 -79.996887 0.0024595659 -12.309789 -0.011685424 -12.36915 -61.239086 -155.01379
30175000000 -48.020245 14.108275 0.0052441992 -12.337842 -0.011686886 -12.377628 -57.864601 179.11623
30200000000 -53.983032 128.23024 0.0032528443 -12.299913 -0.012887756 -12.360441 -73.329376 -66.241463
30225000000 -54.017288 -112.48835 0.0027095519 -12.326398 -0.012984983 -12.386407 -75.680382 -32.567333
30250000000 -54.320141 -3.0879259 0.0040012589 -12.33828 -0.013109485 -12.384007 -59.16618 150.21272
30275000000 -54.779274 160.33949 0.0026983628 -12.326013 -0.012012355 -12.373747 -61.266102 -121.97898
30300000000 -49.13232 -90.098808 -0.001496244 -12.34429 -0.014238513 -12.400351 -64.876717 -135.35225
30325000000 -50.434563 5.583941 0.003724775 -12.38613 -0.012031013 -12.412115 -64.333405 117.63197
30350000000 -52.663116 110.66205 0.00094403938 -12.357227 -0.014820432 -12.409173 -72.142921 -79.16111
30375000000 -50.874081 -137.21582 -0.0033005073 -12.36992 -0.016510785 -12.426406 -66.986443 150.98566
30400000000 -50.290485 -26.449121 0.003603793 -12.393746 -0.011790617 -12.456076 -61.771523 165.02415
30425000000 -56.090809 103.65569 0.007617509 -12.382484 -0.0099360133 -12.434462 -61.047462 -118.69571
30450000000 -53.076572 -114.60243 0.0029870961 -12.402812 -0.013885176 -12.442514 -65.403419 -14.554832
30475000000 -52.044319 -11.044739 0.00587541 -12.417048 -0.0097118709 -12.47546 -61.690269 108.77499
30500000000 -52.867409 95.995575 0.0082602538 -12.406578 -0.010709005 -12.46269 -62.797016 155.36183
30525000000 -51.255009 -131.5715 0.00049754436 -12.433993 -0.014872162 -12.483403 -71.453407 -93.541679
30550000000 -49.946545 -20.096685 0.0026361917 -12.476412 -0.011820621 -12.518729 -63.698795 156.50092
30575000000 -54.234257 88.885498 0.0073827892 -12.466393 -0.012406505 -12.519593 -76.27536 126.75946
30600000000 -53.915405 -143.18912 0.0033353709 -12.461757 -0.013902215 -12.520302 -72.272896 19.970556
30625000000 -50.666599 -32.931889 0.0017498018 -12.514411 -0.01257274 -12.533092 -56.033478 125.19893
30650000000 -52.786819 62.675293 0.0046594637 -12.484993 -0.010754552 -12.532234 -60.855598 163.11932
30675000000 -54.152237 -151.84731 0.0026335998 -12.476888 -0.014326321 -12.538035 -67.29953 -88.256706
30700000000 -54.032627 -35.681026 0.00050667539 -12.503225 -0.014168986 -12.558128 -62.214081 82.059975
30725000000 -56.856136 65.374016 0.0023409342 -12.520191 -0.011968471 -12.561124 -63.573292 134.96738
30750000000 -55.771915 -134.32849 -0.00071610656 -12.504097 -0.013475323 -12.563204 -62.2188 164.18132
30775000000 -48.782108 -29.463377 0.0018117807 -12.564388 -0.015253934 -12.600587 -56.47963 136.13432
30800000000 -49.770885 64.044701 0.0055212663 -12.561193 -0.011662607 -12.592516 -63.101685 163.89091
30825000000 -52.680408 -165.9046 0.0029359371 -12.532222 -0.012183255 -12.597658 -74.721817 -56.454483
30850000000 -53.098957 -56.912369 0.0014675455 -12.574193 -0.011682696 -12.607646 -62.659515 96.029388
30875000000 -54.756374 29.644699 0.0044635674 -12.562901 -0.011154263 -12.610415 -54.220284 153.21167
30900000000 -57.749905 -98.126205 0.0004793515 -12.574786 -0.015172666 -12.624056 -56.61013 -176.76935
30925000000 -49.926113 -5.1425266 0.00037153761 -12.606788 -0.017119711 -12.668568 -73.884949 35.879665
30950000000 -50.667324 100.31013 0.0079532955 -12.590384 -0.0099041956 -12.650138 -64.218056 127.55336
30975000000 -49.025013 -132.3692 0.0024279079 -12.59129 -0.013506592 -12.641903 -64.732689 -152.6268
31000000000 -46.890469 -31.000706 -0.00061127194 -12.665263 -0.014572303 -12.679324 -60.172741 146.56427
31025000000 -49.441162 68.564468 0.0094209965 -12.615283 -0.0074075907 -12.673038 -53.943951 152.39091
31050000000 -48.708889 -120.24244 -1.8033517e-005 -12.582193 -0.014966872 -12.63631 -57.337784 -154.94266
31075000000 -43.635242 -7.4884129 -0.0040989514 -12.677538 -0.021280076 -12.709122 -59.322079 -8.151413
31100000000 -42.046932 99.031586 0.010139643 -12.629457 -0.01071988 -12.689681 -61.274792 90.217407
31125000000 -40.11195 -156.00928 0.001448771 -12.51202 -0.014932229 -12.595354 -53.4674 -178.33951
31150000000 -38.904999 -66.278343 -0.011407521 -12.638003 -0.026202099 -12.669359 -59.276783 -86.531807
31175000000 -39.58205 31.254168 0.0050398628 -12.755013 -0.010963189 -12.771426 -62.481113 66.095718
31200000000 -41.887356 142.11656 0.023310218 -12.669118 0.0057867612 -12.727345 -53.059097 170.60362
31225000000 -44.15049 -113.47993 0.010613526 -12.659427 -0.0015385578 -12.703044 -52.445076 -71.818855
31250000000 -46.576645 5.9247608 0.015825251 -12.758083 -0.0020668099 -12.800446 -54.676186 21.422333
31275000000 -50.479309 170.6525 0.024616092 -12.707905 0.0092283143 -12.769423 -45.621365 140.08112
31300000000 -48.331177 -62.826183 0.019327495 -12.675844 -0.00089524186 -12.722103 -45.536686 -141.093
31325000000 -44.616562 70.273216 0.0070849704 -12.789825 -0.0099583315 -12.808548 -45.440392 -42.359989
31350000000 -43.026093 -168.55238 0.010906918 -12.846227 -0.0043570525 -12.914008 -43.985619 59.886852
31375000000 -41.650578 -41.448872 0.0076181241 -12.947033 -0.0075254845 -12.95897 -42.736416 147.34308
31400000000 -39.469101 75.707962 0.0082505979 -12.823128 -0.015772523 -12.914192 -42.749672 -119.85459
31425000000 -36.292233 -163.80371 -0.020863134 -12.756226 -0.036750369 -12.790282 -43.081604 -26.661991
31450000000 -31.30829 -52.168129 -0.061953157 -12.670322 -0.070719346 -12.672107 -43.051834 40.240452
31475000000 -29.206713 47.094452 -0.024787506 -12.674948 -0.061620306 -12.61439 -47.445736 148.1787
31500000000 -26.457533 144.32349 -0.0058762296 -12.138403 -0.029843451 -12.317415 -54.470879 -67.948044
31525000000 -25.321293 -122.39275 -0.0044113067 -12.014818 -0.01415773 -12.104936 -47.116493 -55.968182
31550000000 -25.396666 -28.13364 0.016012996 -12.619162 0.0046867169 -12.442806 -59.613701 111.40728
31575000000 -25.529003 71.371521 0.097571298 -12.886454 0.05563882 -12.930318 -52.262325 -124.41879
31600000000 -25.932295 173.40086 0.089793019 -12.948828 0.081589475 -13.048944 -53.105923 88.080414
31625000000 -27.167368 -84.601776 0.041183449 -13.203997 0.050069831 -13.159815 -58.299671 -3.016166
31650000000 -27.650547 18.694679 0.063664861 -13.50821 0.043660257 -13.383122 -46.960205 -156.26743
31675000000 -29.957861 121.81637 0.055306926 -13.200964 0.037714303 -13.29399 -56.629509 94.420609
31700000000 -32.122108 -126.71166 0.019674623 -13.070089 0.014137179 -13.132001 -58.001736 6.4514437
31725000000 -33.12122 -13.900364 0.010076209 -13.214408 -0.0043110806 -13.15605 -53.808147 167.51534
31750000000 -34.673367 97.064674 0.019414151 -13.107883 -0.0039484124 -13.1631 -57.383541 75.717094
31775000000 -35.892822 -143.0831 -0.0024520571 -13.030152 -0.011363957 -13.108919 -67.423576 -71.616379
31800000000 -36.652611 -27.448357 -0.0086188959 -13.153491 -0.020834679 -13.149453 -57.880928 163.40128
31825000000 -37.440128 85.987122 0.0028441211 -13.123758 -0.013787441 -13.178633 -60.118958 41.094658
31850000000 -38.684307 -154.68102 -0.0025346866 -13.05246 -0.012000008 -13.122589 -76.119537 12.806978
31875000000 -37.938126 -36.493393 -0.0036764489 -13.14297 -0.013593633 -13.146472 -54.594322 162.99615
31900000000 -39.351528 70.483887 0.011152388 -13.095431 -0.0087634725 -13.129394 -62.942596 116.17204
31925000000 -40.610615 -170.71294 0.007233216 -13.038986 -0.0049695494 -13.091762 -63.095905 -10.117444
31950000000 -41.346905 -53.513927 0.0022246505 -13.094952 -0.010902714 -13.104465 -61.708923 -171.67207
31975000000 -42.244137 64.232231 0.0092502022 -13.111234 -0.0082522044 -13.130233 -61.458897 127.64561
32000000000 -42.275654 -167.67441 0.0060171378 -13.081045 -0.0068798354 -13.119957 -78.033524 46.817478
32025000000 -40.410282 -44.241283 6.2699422e-005 -13.154646 -0.012517577 -13.167251 -56.535183 170.11249
32050000000 -40.217041 60.164165 0.0076795667 -13.190501 -0.012753627 -13.218765 -61.927013 89.21405
32075000000 -40.401863 169.21922 0.0028943683 -13.141902 -0.0088516977 -13.200768 -58.375393 -32.326473
32100000000 -40.615639 -78.767685 -0.0033549587 -13.170145 -0.016335804 -13.198797 -56.625065 -171.52226
32125000000 -41.26408 23.40642 -0.00033438671 -13.203735 -0.017568152 -13.21894 -59.38768 126.46693
32150000000 -44.413155 144.54395 0.0063319765 -13.122622 -0.011014813 -13.186429 -80.427902 -39.625427
32175000000 -44.427273 -89.605507 -0.0031983224 -13.107465 -0.01508789 -13.167213 -67.01561 -144.57088
32200000000 -44.592342 32.24688 0.0013822676 -13.162477 -0.017235328 -13.189167 -68.98848 -14.432188
32225000000 -43.944019 152.76801 0.0029097553 -13.145579 -0.015877575 -13.206229 -65.672714 -34.180763
32250000000 -42.178307 -94.10379 -0.0030764625 -13.167634 -0.016362514 -13.197551 -59.946678 -148.52747
32275000000 -42.409401 14.622523 6.0688522e-005 -13.226111 -0.015825795 -13.236015 -62.720413 174.32878
32300000000 -43.306599 130.25963 0.0057031433 -13.221831 -0.0078533478 -13.276423 -60.285221 -1.0394802
32325000000 -43.722683 -121.05558 0.0032455025 -13.235384 -0.0061600977 -13.264611 -60.458298 -65.246674
32350000000 -45.38446 -1.3761828 0.0036381509 -13.227427 -0.010167108 -13.261822 -69.639687 -150.49535
32375000000 -44.887054 130.58916 0.0075330869 -13.22873 -0.010238103 -13.284229 -63.574726 -1.756901
32400000000 -42.832176 -113.68149 0.00039886517 -13.235138 -0.01084651 -13.273551 -62.528214 -124.32091
32425000000 -42.241985 1.1700139 -0.0015437535 -13.287426 -0.020268505 -13.312672 -68.363853 103.92619
32450000000 -41.312244 110.43024 -0.0037750129 -13.300233 -0.024042314 -13.371463 -54.364037 -8.9916029
32475000000 -41.328289 -147.81586 -0.0082120216 -13.301812 -0.02141821 -13.372696 -61.144951 -91.950058
32500000000 -43.701405 -41.587032 -0.0041537201 -13.294075 -0.020184292 -13.338334 -69.888474 -166.57462
32525000000 -45.602036 84.706726 0.0026106562 -13.26541 -0.018099653 -13.329852 -63.755325 -26.737717
32550000000 -45.518944 -145.02286 0.0019302323 -13.267665 -0.015473845 -13.313128 -77.06485 -99.798386
32575000000 -45.117435 -25.659552 0.002334313 -13.297338 -0.01535887 -13.313525 -77.334038 -13.524772
32600000000 -44.316559 95.001228 0.0038050017 -13.27792 -0.01641418 -13.336656 -60.515434 10.406834
32625000000 -42.852505 -156.10475 -0.0026256258 -13.311866 -0.016190406 -13.380442 -67.98645 -43.175537
32650000000 -43.154346 -41.246807 0.0015810777 -13.382634 -0.013061396 -13.400717 -61.388668 -160.10968
32675000000 -43.88007 76.156738 0.0067928177 -13.368725 -0.013135621 -13.415124 -64.322952 32.759483
32700000000 -43.859337 -168.87599 0.0032847729 -13.374834 -0.010722141 -13.408172 -61.07608 -8.8034887
32725000000 -43.993881 -54.493393 0.0030968331 -13.431031 -0.010981944 -13.422606 -62.952076 -163.93567
32750000000 -43.751362 64.334717 0.0054213661 -13.384392 -0.013931277 -13.387487 -61.067417 40.411343
32775000000 -42.580849 -177.12318 -0.0050479816 -13.357347 -0.018758301 -13.411926 -73.585716 -87.709335
32800000000 -42.046005 -70.462898 -0.0085392687 -13.43097 -0.019739373 -13.444467 -57.678577 159.49278
32825000000 -43.396313 39.009148 0.0021883161 -13.425409 -0.016800242 -13.436604 -68.235512 30.149183
32850000000 -44.150181 154.86095 -0.00072946394 -13.383093 -0.017850336 -13.43126 -63.102718 51.480736
32875000000 -44.915363 -79.631836 -0.0001999714 -13.444319 -0.015917255 -13.473185 -59.40699 159.62814
32900000000 -44.745274 39.50666 0.0087161688 -13.456951 -0.010655988 -13.463974 -67.737915 163.18806
32925000000 -44.995205 167.16216 0.0029307236 -13.403235 -0.013018006 -13.444497 -77.898163 75.103004
32950000000 -43.976521 -77.122086 -0.0024674262 -13.46634 -0.017268889 -13.491324 -56.705688 174.67702
32975000000 -42.96825 24.784813 0.0066312053 -13.497538 -0.011504228 -13.522446 -59.848244 136.5601
33000000000 -44.695084 140.1248 0.0057346402 -13.450064 -0.012674902 -13.508448 -65.054726 60.970055
33025000000 -43.879066 -92.476036 -0.0049483762 -13.53336 -0.017736867 -13.554806 -58.213165 177.89771
33050000000 -43.487125 12.748424 0.0056297998 -13.575267 -0.011838407 -13.582224 -57.451046 176.08145
33075000000 -45.842514 132.2538 0.0058872541 -13.495983 -0.011379904 -13.530577 -73.706024 10.410191
33100000000 -43.111542 -99.827782 -0.0080006896 -13.528661 -0.017547628 -13.536581 -57.948696 169.51517
33125000000 -41.699059 2.2936449 -0.00010192891 -13.599278 -0.015764423 -13.596704 -58.082703 137.44789
33150000000 -43.777752 113.48015 0.006101334 -13.526326 -0.012072821 -13.550784 -66.412155 64.188576
33175000000 -43.379639 -114.3755 -0.0068623247 -13.548311 -0.01779151 -13.568154 -58.050072 -170.09579
33200000000 -43.484463 -12.504636 -0.0017750786 -13.621099 -0.01756805 -13.628189 -59.350117 -176.88536
33225000000 -45.187763 98.631737 0.0068995841 -13.586381 -0.010696677 -13.622539 -67.100471 42.751736
33250000000 -45.132813 -121.08972 -0.0016635406 -13.561683 -0.014885945 -13.590888 -59.899033 159.64626
33275000000 -42.984341 -10.909613 -0.0029868118 -13.634118 -0.016796332 -13.626777 -58.744862 153.78467
33300000000 -44.331429 98.848633 0.0091232071 -13.612434 -0.0092107952 -13.630667 -71.847084 17.069107
33325000000 -44.966766 -140.89931 -0.00047497827 -13.554886 -0.012370418 -13.598139 -63.495884 -112.00398
33350000000 -43.556126 -24.867964 -0.0021498159 -13.681376 -0.017573759 -13.675097 -62.551201 -179.25398
33375000000 -44.696083 86.962074 0.0069161388 -13.686153 -0.010475838 -13.712214 -61.231396 72.424957
33400000000 -45.035915 -142.23926 0.0042323037 -13.633047 -0.010291304 -13.654383 -70.404549 133.67839
33425000000 -43.03447 -18.816269 -0.0038276168 -13.716438 -0.016944319 -13.685138 -63.510445 -169.20193
33450000000 -42.851685 82.938301 0.0012419005 -13.723469 -0.013810643 -13.742052 -57.47871 9.3777142
33475000000 -42.767342 -168.39787 0.0021499789 -13.645207 -0.012722237 -13.695746 -65.552544 -53.501682
33500000000 -43.056973 -56.619934 -0.0066148373 -13.687957 -0.020069944 -13.712479 -63.023678 162.95366
33525000000 -43.385429 53.921669 0.0014237894 -13.760386 -0.018425753 -13.766909 -60.973877 52.928696
33550000000 -46.293423 171.37151 0.0042441064 -13.695774 -0.010957875 -13.722821 -67.575172 -1.7033137
33575000000 -47.514431 -62.529003 -0.00016258856 -13.697165 -0.014958114 -13.705636 -67.304993 -81.851173
33600000000 -46.099823 65.473228 0.00097021024 -13.722708 -0.016664237 -13.742834 -59.554489 -6.338275
33625000000 -44.540176 -176.50809 0.0030366769 -13.691696 -0.012224557 -13.736932 -67.3479 -15.425617
33650000000 -44.288101 -64.034332 -0.0023223055 -13.715943 -0.01623206 -13.739325 -63.577789 174.58072
33675000000 -44.351273 44.451679 0.0037683323 -13.782884 -0.016147016 -13.79537 -65.364868 65.590942
33700000000 -45.771206 149.83432 0.0045594228 -13.770827 -0.010074193 -13.804836 -59.006035 8.7311211
33725000000 -47.827209 -95.512482 0.001635543 -13.778725 -0.01180311 -13.7845 -63.819798 -50.144642
33750000000 -48.485401 38.718403 0.004927014 -13.799532 -0.011308331 -13.80783 -69.442604 48.243698
33775000000 -47.051491 161.97308 0.005263702 -13.77249 -0.010517389 -13.818023 -68.721825 53.460011
33800000000 -45.893696 -77.430687 -0.0019218104 -13.77628 -0.013195357 -13.787829 -62.203205 170.38521
33825000000 -44.488873 33.15041 -0.00019969682 -13.825862 -0.016000217 -13.849029 -62.765709 43.133652
33850000000 -43.710938 136.90137 0.0025648673 -13.824732 -0.014490847 -13.875552 -60.231533 16.648834
33875000000 -44.269951 -110.14021 -0.0042099999 -13.852135 -0.01487634 -13.872291 -65.262108 -168.33821
33900000000 -45.024342 5.2502828 0.001193724 -13.903432 -0.013099981 -13.897128 -62.126289 153.60837
33925000000 -47.185722 121.68646 0.0044941865 -13.87195 -0.0081575075 -13.903416 -66.528633 67.088692
33950000000 -47.366096 -106.7871 3.463223e-005 -13.855619 -0.009260864 -13.864853 -72.206184 -149.98148
33975000000 -45.527687 12.332051 0.0032172969 -13.877708 -0.012095526 -13.88728 -69.539749 105.61172
34000000000 -44.756142 128.98592 0.0058822609 -13.862303 -0.010024753 -13.902386 -64.081245 38.44453
34025000000 -43.578762 -111.8643 -0.0006972269 -13.888265 -0.015506514 -13.919718 -62.528259 -168.1734
34050000000 -42.732841 -6.5384021 -0.003210142 -14.007182 -0.019096915 -13.972036 -58.658119 156.51508
34075000000 -44.406422 91.02037 0.0023747426 -13.98231 -0.016115924 -14.017864 -60.225357 45.244652
34100000000 -46.131451 -150.46503 0.0022211014 -13.931334 -0.01452003 -13.969519 -77.892342 -125.82162
34125000000 -45.123695 -31.489454 0.0022727582 -13.960798 -0.014938599 -13.957635 -65.270004 164.19995
34150000000 -46.218021 86.639748 0.010594877 -13.950379 -0.0090882685 -13.957201 -71.614265 103.8701
34175000000 -46.543423 -145.69125 0.0047660498 -13.916143 -0.011088496 -13.921628 -64.473602 -137.46704
34200000000 -45.251087 -31.347721 -0.0026212006 -13.985719 -0.018313797 -13.967355 -63.594406 177.04135
34225000000 -45.183895 77.424194 0.0013372048 -14.031769 -0.016017087 -14.043012 -60.744518 35.839897
34250000000 -45.529816 -161.66948 -9.4688286e-005 -13.98416 -0.01155202 -14.012786 -82.853668 27.238276
34275000000 -43.581196 -40.912159 -0.0047561927 -14.030666 -0.016481845 -14.039145 -59.556244 175.78271
34300000000 -44.45425 59.379375 0.0025825978 -14.06925 -0.014336084 -14.07283 -66.250435 26.636818
34325000000 -44.785645 171.28937 0.0042702155 -14.00295 -0.0068741213 -14.026603 -60.984764 -39.852337
34350000000 -44.921696 -71.515778 -0.0026906098 -13.999098 -0.014889693 -14.012227 -68.687561 -155.04779
34375000000 -45.466431 42.272381 -0.0010596161 -14.063676 -0.018290285 -14.074637 -61.577801 38.903107
34400000000 -46.518265 162.71407 0.0038014548 -14.036064 -0.011436381 -14.067862 -67.581078 4.8711605
34425000000 -47.407219 -65.050194 -0.0025260991 -14.027528 -0.018094262 -14.03942 -65.045525 -88.251518
34450000000 -45.217373 54.679352 0.001048284 -14.11414 -0.019869281 -14.119441 -58.961269 -19.631802
34475000000 -43.508842 159.3055 0.0086027794 -14.121248 -0.0067563029 -14.137315 -58.792641 -8.1774673
34500000000 -43.840401 -90.117668 0.0037871113 -14.072319 -0.010578394 -14.072201 -72.71109 -106.53996
34525000000 -43.493656 29.740679 -0.0015722245 -14.127459 -0.021188864 -14.14384 -61.462402 32.267349
34550000000 -43.810005 133.19765 0.0034670427 -14.141776 -0.013024254 -14.201423 -56.902576 -6.447773
34575000000 -46.520718 -123.47085 0.0040953313 -14.094676 -0.012258914 -14.123203 -59.269867 -53.927078
34600000000 -47.557083 18.565193 -0.0039397669 -14.130631 -0.021162393 -14.139811 -58.667286 -15.695662
34625000000 -44.872387 136.40276 0.0018746826 -14.151284 -0.014332523 -14.203612 -58.584824 0.96217602
34650000000 -45.29031 -106.99 0.0051883217 -14.133246 -0.0082012368 -14.122891 -73.053429 -42.433693
34675000000 -44.570873 18.538361 -0.0029625036 -14.143818 -0.019733895 -14.140278 -59.925743 -11.058844
34700000000 -42.70438 123.57793 -0.0046281461 -14.188866 -0.019786142 -14.233103 -52.968716 -15.602837
34725000000 -43.324829 -142.04544 0.00099176134 -14.185658 -0.011161851 -14.205736 -61.985683 -47.057262
34750000000 -46.925674 -20.347275 -0.00050078606 -14.152967 -0.014975887 -14.171724 -68.687241 -43.640079
34775000000 -45.973366 118.17647 0.0015559625 -14.178477 -0.017007247 -14.263768 -59.439186 14.937482
34800000000 -46.568222 -139.8782 0.0085748993 -14.21198 -0.0079665985 -14.238523 -60.252934 -0.82959592
34825000000 -48.367439 -1.9538941 0.005626108 -14.178844 -0.011743885 -14.199179 -61.454914 -15.322092
34850000000 -43.759403 121.3728 -0.00023941993 -14.216471 -0.018846862 -14.242769 -55.408138 -10.357971
34875000000 -42.401741 -143.19144 -0.001476631 -14.265895 -0.01289294 -14.28241 -66.911926 -72.409477
34900000000 -43.920097 -25.393454 0.001071286 -14.241549 -0.014027259 -14.241936 -69.223015 -164.97169
34925000000 -43.415241 92.213852 -0.0053329589 -14.264146 -0.023503182 -14.313868 -58.023785 -0.81774354
34950000000 -42.535282 -163.10263 -0.00042795515 -14.349834 -0.012837473 -14.406578 -56.207577 -29.266552
34975000000 -45.893463 -57.445232 0.0069268099 -14.307988 -0.0064512691 -14.333335 -63.911591 -69.040253
35000000000 -46.413734 85.353188 0.0046883323 -14.254961 -0.014280859 -14.293278 -63.321964 -31.924244
35025000000 -44.044052 -157.64824 -0.00096459861 -14.303386 -0.012441672 -14.332583 -65.952423 -73.552795
35050000000 -44.998703 -50.34967 0.0030585423 -14.288398 -0.0095648635 -14.312681 -70.105125 -152.27779
35075000000 -45.284153 75.097359 -0.0011180904 -14.278657 -0.018132577 -14.319549 -63.240746 2.4572575
35100000000 -42.261597 -173.26128 -0.010087 -14.372044 -0.021313215 -14.415007 -64.466805 -87.085258
35125000000 -42.422283 -73.487427 0.0010969643 -14.427153 -0.013160383 -14.451844 -59.886654 -145.50797
35150000000 -44.924221 42.271164 0.0047111143 -14.395734 -0.011472676 -14.37351 -79.317062 -94.311974
35175000000 -44.348831 165.53888 -0.00098832254 -14.366519 -0.015772196 -14.409092 -65.995979 -39.114071
35200000000 -44.457115 -82.407234 0.0038957873 -14.411443 -0.0077501065 -14.388312 -67.148941 -154.7764
35225000000 -45.992783 35.207634 0.0054565812 -14.358477 -0.010516679 -14.347198 -72.233971 76.39492
35250000000 -45.423828 165.44885 -0.003961077 -14.364456 -0.019483985 -14.390237 -68.545097 -115.39301
35275000000 -43.816669 -80.797371 -0.0046043894 -14.463902 -0.016010977 -14.464618 -60.120922 -135.89189
35300000000 -45.632942 32.547714 0.0043458901 -14.462545 -0.014098725 -14.457664 -72.625145 159.91579
35325000000 -44.885502 158.01181 0.0014224296 -14.467005 -0.015760234 -14.479719 -67.862 -26.160606
35350000000 -42.948719 -98.178505 -0.0024925545 -14.520638 -0.014474743 -14.521292 -61.805481 -133.51746
35375000000 -43.989693 11.627479 0.0087806741 -14.470968 -0.0071320855 -14.467043 -66.040405 163.70961
35400000000 -45.492313 130.06563 0.0055145384 -14.406917 -0.012920519 -14.450597 -67.200058 -40.51762
35425000000 -46.616741 -114.55579 -0.0037301073 -14.453247 -0.015940059 -14.447052 -68.699852 -123.40129
35450000000 -47.98608 3.8358288 0.0011955001 -14.494392 -0.014240564 -14.486355 -70.450882 66.004684
35475000000 -47.330456 133.11885 0.0018262787 -14.497254 -0.015363163 -14.515378 -80.146164 55.986023
35500000000 -44.576195 -103.6143 -0.0018611876 -14.542042 -0.013829748 -14.534506 -63.780735 -138.60532
35525000000 -43.733608 4.7996259 0.0053010182 -14.559031 -0.0092418501 -14.540998 -80.091583 -52.592506
35550000000 -44.434036 115.88219 0.0056768246 -14.504544 -0.011825655 -14.532825 -62.864529 21.502598
35575000000 -44.742973 -136.78668 -0.00026325701 -14.518045 -0.012522992 -14.527862 -77.969559 -39.593113
35600000000 -45.467907 -24.802074 0.00023666248 -14.559249 -0.015200941 -14.554797 -64.895538 160.38995
35625000000 -46.468636 97.499237 0.0037889073 -14.55942 -0.01449664 -14.556327 -65.274529 57.634235
35650000000 -47.399483 -139.31296 1.2888608e-005 -14.570108 -0.013786661 -14.58017 -64.726341 -24.577955
35675000000 -47.802311 -9.1032963 0.0015967544 -14.598166 -0.01452819 -14.56894 -65.978821 21.86799
35700000000 -46.457432 106.41961 0.0031567558 -14.580855 -0.011550141 -14.586968 -64.810165 11.151502
35725000000 -45.017986 -149.09879 0.0013520141 -14.583291 -0.012328167 -14.608851 -67.669174 -136.36594
35750000000 -45.55183 -40.043839 0.0054429909 -14.615479 -0.013043229 -14.609047 -68.169456 156.87971
35775000000 -46.60891 76.588493 0.0038071147 -14.602823 -0.016597074 -14.61165 -61.369835 48.779236
35800000000 -48.10886 -170.93394 0.0017689125 -14.621758 -0.014840437 -14.632171 -65.003113 21.014254
35825000000 -50.069019 -49.211964 0.0014467514 -14.661876 -0.011691211 -14.642195 -71.797485 173.26555
35850000000 -49.207394 80.079063 0.0039049902 -14.647317 -0.011741493 -14.642399 -80.197639 174.43895
35875000000 -46.488605 -161.84877 0.00081006775 -14.654981 -0.010983208 -14.67259 -75.209892 -70.088737
35900000000 -46.440163 -52.795574 0.0038482135 -14.662358 -0.0066163936 -14.667522 -73.582817 149.02371
35925000000 -46.885433 63.18647 0.0067947856 -14.632082 -0.011310467 -14.663507 -64.36795 70.15213
35950000000 -45.968971 -179.57036 -0.00067607884 -14.695099 -0.016409826 -14.709289 -67.827621 -55.003342
35975000000 -45.258198 -71.631752 -0.00068857626 -14.773397 -0.013883825 -14.750977 -60.280602 -153.74666
36000000000 -47.235004 38.246517 0.0042146319 -14.738413 -0.013337376 -14.733116 -63.601192 164.58702
36025000000 -46.629639 170.46884 -0.0022602577 -14.723494 -0.017285826 -14.742964 -76.004959 -124.23596
36050000000 -46.053383 -78.199745 0.0027832254 -14.767023 -0.0093700374 -14.751233 -69.655846 164.09079
36075000000 -47.583385 29.856947 0.009992498 -14.723158 -0.007155552 -14.722002 -65.23098 141.43765
36100000000 -47.999161 151.56612 0.00091653521 -14.686464 -0.018312637 -14.717147 -63.495281 -151.74608
36125000000 -46.005722 -98.084694 -0.0061888336 -14.784492 -0.017887371 -14.792337 -59.557323 -161.90924
36150000000 -48.405159 7.7884555 0.0026347982 -14.800574 -0.012388681 -14.78265 -61.326557 166.55905
36175000000 -49.566864 153.70068 -0.0032199046 -14.776563 -0.015115716 -14.781163 -67.90419 141.11806
36200000000 -44.659279 -90.676163 -0.0077213929 -14.854801 -0.017124841 -14.860752 -57.114265 178.48065
36225000000 -43.807228 -2.4988148 0.008384672 -14.875828 -0.0049738619 -14.850734 -55.570229 177.00328
36250000000 -47.477028 111.69597 0.0065246704 -14.775882 -0.0086069247 -14.779775 -66.33181 -157.00287
36275000000 -45.957718 -123.46468 -0.0039446382 -14.801792 -0.01668945 -14.822363 -63.301899 -161.27824
36300000000 -46.314507 -26.610611 -0.0011731212 -14.865446 -0.013616082 -14.83292 -59.056179 150.29495
36325000000 -53.30014 100.85577 0.0015980682 -14.810335 -0.01230885 -14.794641 -60.830128 156.87292
36350000000 -47.187248 -102.73672 -0.0077795824 -14.873847 -0.021326568 -14.87224 -58.246567 172.6796
36375000000 -43.812199 -14.049207 0.00068652007 -14.970207 -0.011016156 -14.937369 -55.307972 168.73035
36400000000 -45.879692 88.178276 0.011597889 -14.886775 -0.0063015725 -14.878119 -66.338997 170.64705
36425000000 -45.941669 -140.55495 -0.0012461621 -14.865043 -0.015918382 -14.845765 -66.457832 149.26239
36450000000 -44.304588 -42.801529 -0.0037996136 -14.963558 -0.015493344 -14.921966 -54.412537 148.5071
36475000000 -47.315193 45.484657 0.0072743231 -14.926175 -0.0074886996 -14.887339 -59.618931 152.54242
36500000000 -52.670025 -162.19606 -0.0015776263 -14.871968 -0.015699282 -14.869585 -75.652534 71.91964
36525000000 -46.629486 -32.677574 -0.0046743471 -14.975564 -0.017499452 -14.964033 -61.717281 131.9581
36550000000 -46.778404 69.84877 0.0090893647 -14.97564 -0.0080774194 -14.959677 -59.850571 127.81998
36575000000 -47.193691 -159.11862 0.00012853213 -14.90473 -0.012065749 -14.911048 -61.762417 125.88271
36600000000 -43.214664 -53.545799 -0.0082287015 -14.993474 -0.019213883 -14.980468 -55.782391 145.09874
36625000000 -43.471958 36.8722 0.0054684561 -15.031196 -0.010509841 -15.017529 -59.865337 127.84907
36650000000 -47.726723 149.68658 0.0052726613 -14.911653 -0.0087558404 -14.934751 -62.885853 8.6741295
36675000000 -47.485085 -66.629585 -0.0056642639 -14.969531 -0.018271243 -14.98293 -60.146473 100.14362
36700000000 -46.307377 38.648911 0.0038245716 -15.062487 -0.012595584 -15.030578 -57.018227 124.40243
36725000000 -47.97356 160.83977 0.0058530951 -15.006766 -0.0073360545 -15.010085 -71.288658 102.8409
36750000000 -45.357563 -66.669754 -0.0030121012 -15.014967 -0.015689723 -15.014532 -59.835007 117.85622
36775000000 -43.346569 34.817123 0.0053419583 -15.121732 -0.012648006 -15.082139 -61.086449 102.87764
36800000000 -44.756145 136.53477 0.0094236182 -15.030414 -0.0072822729 -15.027195 -63.955486 36.271984
36825000000 -45.823978 -98.63797 -0.005833541 -15.006259 -0.019854086 -14.993482 -62.227501 134.83176
36850000000 -45.151642 11.714372 -0.0013139484 -15.104952 -0.021440201 -15.08779 -59.080994 131.98174
36875000000 -46.120884 120.02222 0.0054801321 -15.114912 -0.013052937 -15.122727 -63.318958 44.58852
36900000000 -46.656292 -105.10649 -0.0023593043 -15.087756 -0.017415315 -15.084103 -63.900108 49.910088
36925000000 -44.693127 14.976536 0.00098933594 -15.15293 -0.020216292 -15.118585 -59.415657 101.48553
36950000000 -44.001656 113.91636 0.0069679935 -15.136639 -0.01110142 -15.110033 -77.509781 34.136433
36975000000 -44.971771 -130.88327 0.00020403383 -15.072201 -0.012085371 -15.068265 -65.24192 -150.40552
37000000000 -44.850613 -17.168499 -0.0049301209 -15.127411 -0.018585781 -15.101893 -64.652992 135.93178
37025000000 -45.877697 99.542336 0.00095958251 -15.124197 -0.01513754 -15.142938 -65.878197 18.743233
37050000000 -46.525406 -132.11798 -0.003046839 -15.141882 -0.012691862 -15.144097 -70.061104 72.356461
37075000000 -45.582005 -11.028213 -0.0027843947 -15.209041 -0.01631639 -15.183148 -61.022957 150.90814
37100000000 -45.725784 93.221741 0.003223794 -15.17891 -0.012065166 -15.175233 -69.504936 -137.14928
37125000000 -45.145901 -148.69495 0.0020268967 -15.139142 -0.0092741596 -15.145041 -68.191704 -114.15987
37150000000 -45.080753 -43.43874 -0.0003164623 -15.17247 -0.013461113 -15.145536 -64.781807 -178.18111
37175000000 -46.826557 73.594841 0.0035390453 -15.152029 -0.013407232 -15.17187 -70.229919 89.452431
37200000000 -47.174126 -152.40466 -0.0020567018 -15.154674 -0.017197415 -15.186438 -75.846703 -172.36157
37225000000 -45.41853 -37.752754 -0.00099177554 -15.24178 -0.015852174 -15.22945 -58.876011 -172.08276
37250000000 -45.22411 81.850731 0.0042921118 -15.261141 -0.014175692 -15.28938 -68.304985 176.67981
37275000000 -42.521427 -162.68967 0.00026107873 -15.241154 -0.01529448 -15.288175 -67.198761 -74.035095
37300000000 -41.978317 -65.807762 -0.0034236845 -15.301357 -0.015945656 -15.287058 -59.279106 154.31268
37325000000 -44.246361 31.1745 0.0073956293 -15.281275 -0.010482408 -15.263616 -62.213474 163.06607
37350000000 -47.206371 155.82547 0.0041923868 -15.195607 -0.013950128 -15.222103 -65.862282 -57.756626
37375000000 -47.131042 -78.120079 -0.0052253106 -15.237805 -0.019602695 -15.26383 -70.198814 -175.65863
37400000000 -49.054291 48.487019 0.0016623869 -15.308702 -0.015388656 -15.296746 -70.217094 173.82536
37425000000 -46.954441 -169.3746 -0.0021177041 -15.282126 -0.01610451 -15.297677 -74.814041 156.52757
37450000000 -43.409031 -66.801895 -0.01093653 -15.344271 -0.019222198 -15.345825 -57.063015 148.45071
37475000000 -42.43026 23.615751 0.006248517 -15.398715 -0.010359665 -15.368793 -59.537533 155.59778
37500000000 -44.701481 132.7411 0.011660512 -15.289609 -0.0025675909 -15.285873 -65.763054 -24.060843
37525000000 -45.620583 -109.94846 -0.0024018388 -15.290456 -0.013554242 -15.283245 -73.132591 -141.45859
37550000000 -48.14127 -5.844286 0.00083808228 -15.363357 -0.015108177 -15.358372 -60.403812 132.38867
37575000000 -54.202839 140.53992 0.0035667545 -15.347686 -0.013516689 -15.334494 -63.957954 88.404266
37600000000 -46.681896 -72.25325 -0.0093048932 -15.390451 -0.020818504 -15.372816 -61.96846 111.77744
37625000000 -42.766548 22.706741 0.00015402235 -15.48554 -0.016202061 -15.475611 -58.977844 113.44971
37650000000 -43.987263 123.93942 0.012373618 -15.370248 -0.0063042524 -15.400094 -63.033028 7.4832101
37675000000 -44.612324 -123.39901 -0.001840411 -15.329625 -0.016131103 -15.339708 -65.027908 110.58877
37700000000 -44.439465 -20.285599 -0.0068828817 -15.41551 -0.021343973 -15.402319 -58.009953 124.64236
37725000000 -48.347095 83.439728 0.0031801597 -15.425537 -0.012704425 -15.421031 -61.971363 54.151958
37750000000 -51.325218 -111.34953 -0.0041752229 -15.393587 -0.016022468 -15.397815 -59.537899 46.516724
37775000000 -45.430092 9.9862452 -0.0049486146 -15.483356 -0.018097205 -15.485511 -61.366772 93.233063
37800000000 -44.455231 107.44384 0.0063657858 -15.497309 -0.0064013223 -15.498195 -60.275436 51.565845
37825000000 -45.452156 -139.95644 0.0052822293 -15.400301 -0.0088614495 -15.401576 -65.36644 101.01354
37850000000 -43.632809 -35.158699 -0.0079080844 -15.463999 -0.019672262 -15.437703 -59.797726 117.48477
37875000000 -45.005753 62.735088 0.0013432016 -15.51251 -0.015847554 -15.51675 -61.13208 44.818295
37900000000 -49.213291 173.91779 0.0034538731 -15.451604 -0.010511054 -15.474773 -60.433201 31.255428
37925000000 -48.927948 -28.17536 -0.0040440727 -15.500944 -0.019192915 -15.464227 -63.774628 100.89622
37950000000 -47.081379 87.081276 0.0021388824 -15.549288 -0.013806493 -15.550524 -65.787804 75.558945
37975000000 -45.825073 -163.28873 0.0069779134 -15.507002 -0.0056473147 -15.52395 -63.709305 53.292454
38000000000 -44.617111 -50.527885 -0.00075103092 -15.505003 -0.016676418 -15.491858 -63.162498 133.89291
38025000000 -44.584236 54.267204 0.0010942924 -15.557882 -0.01691127 -15.564184 -64.177086 8.6550055
38050000000 -46.695545 156.46712 0.0045884158 -15.515306 -0.010779837 -15.540014 -63.095261 -0.45579618
38075000000 -49.588917 -80.031601 -0.0029892896 -15.501077 -0.015692305 -15.511998 -66.656425 -179.47389
38100000000 -48.536274 57.564823 -0.0037536575 -15.573701 -0.020912359 -15.593915 -71.602417 -99.857201
38125000000 -45.879536 -178.86757 -0.00040250798 -15.58574 -0.011640097 -15.629573 -64.384712 6.3157935
38150000000 -44.566441 -67.250053 -0.0030375945 -15.590271 -0.012141854 -15.590479 -69.310913 153.24045
38175000000 -43.645626 36.471767 -0.00015413752 -15.629558 -0.017468538 -15.621526 -71.466896 -27.491873
38200000000 -43.650753 143.04828 0.0050878534 -15.612493 -0.0075568785 -15.638958 -62.058685 -22.626293
38225000000 -45.060947 -113.61917 0.00016801035 -15.58774 -0.0090591414 -15.577963 -63.695538 -146.02449
38250000000 -48.803577 10.90937 -0.0024493183 -15.617387 -0.017464373 -15.60479 -65.061539 -127.68974
38275000000 -47.068729 157.72714 -0.0018522696 -15.643647 -0.017056052 -15.66785 -61.512722 -19.019194
38300000000 -43.160599 -91.721268 -0.0074607376 -15.702996 -0.014451059 -15.67951 -68.165871 171.50439
38325000000 -42.518726 10.800989 -0.0046517216 -15.743265 -0.019352842 -15.721844 -65.518303 141.97195
38350000000 -42.168713 123.82797 0.001187312 -15.705012 -0.014516007 -15.722444 -60.615517 -38.018703
38375000000 -42.132881 -127.73213 -0.00011371163 -15.675496 -0.011967955 -15.680253 -63.667461 -148.64076
38400000000 -44.495937 -26.300695 -0.00056820328 -15.694242 -0.011839461 -15.675187 -61.925083 -166.72325
38425000000 -48.837894 105.51281 -0.00014438285 -15.659753 -0.017147807 -15.66967 -62.39991 4.7637963
38450000000 -45.974907 -112.26224 -0.0072597614 -15.705262 -0.023235016 -15.70272 -68.477791 126.792
38475000000 -44.868629 -1.6905831 -0.0031541286 -15.76219 -0.019369204 -15.765296 -61.594357 179.71957
38500000000 -42.850346 116.91064 0.0048645041 -15.757897 -0.013719979 -15.773682 -66.413589 -36.948547
38525000000 -41.034534 -137.12895 -0.0049598385 -15.737917 -0.019087622 -15.761771 -68.936302 -169.39029
38550000000 -40.924137 -40.855129 -0.0046445071 -15.828503 -0.01813166 -15.78548 -59.659454 153.86418
38575000000 -44.02145 60.846161 0.0076444945 -15.79055 -0.012122273 -15.781171 -61.778889 59.512463
38600000000 -46.921539 -162.94467 -0.0018215356 -15.714732 -0.015518795 -15.71821 -68.243736 43.292591
38625000000 -44.77425 -30.516294 -0.010697776 -15.808183 -0.023760207 -15.79344 -62.710377 138.14136
38650000000 -45.073261 90.522827 0.0011227457 -15.825813 -0.016692417 -15.817294 -61.320816 0.79492867
38675000000 -42.72102 -144.86119 -0.005827514 -15.801718 -0.016802488 -15.804255 -65.64621 80.49823
38700000000 -40.216404 -45.344261 -0.014423992 -15.896769 -0.027590936 -15.879663 -55.251904 121.94527
38725000000 -40.234058 45.887512 0.003167059 -15.947099 -0.016465681 -15.907308 -59.155121 73.846436
38750000000 -43.814011 157.45598 0.0083436575 -15.787876 -0.0056722714 -15.782661 -68.346603 27.789289
38775000000 -45.314213 -71.221542 -0.0071394937 -15.821217 -0.021192566 -15.778816 -69.243492 164.51237
38800000000 -46.387482 50.133266 -0.00076687924 -15.894691 -0.019298641 -15.876887 -63.596371 76.245857
38825000000 -46.530426 -158.9447 0.00041253903 -15.819614 -0.0158337 -15.835007 -56.012569 73.640503
38850000000 -40.597076 -42.705151 -0.016761322 -15.923852 -0.031303521 -15.915224 -56.859058 117.16891
38875000000 -37.874596 45.827961 -0.0025963618 -16.114504 -0.023588737 -16.097641 -53.662701 74.10675
38900000000 -40.716335 140.73813 0.016038265 -15.933372 -0.0012727915 -15.950981 -62.465416 52.018757
38925000000 -42.835251 -101.97359 -0.0026829115 -15.843485 -0.014525712 -15.829857 -64.113335 -175.25044
38950000000 -43.89106 10.849876 -0.0086193634 -15.955083 -0.027296949 -15.937748 -58.794426 76.001595
38975000000 -48.327656 135.13147 0.0010339801 -15.923783 -0.016200772 -15.943496 -59.155151 73.128059
39000000000 -44.248146 -60.677753 -0.014418447 -15.908882 -0.025542757 -15.897573 -72.808678 150.13263
39025000000 -39.322098 39.734863 -0.017844738 -16.100054 -0.034732495 -16.085749 -54.023579 22.574804
39050000000 -40.67841 136.43137 0.0076024448 -16.037403 -0.0067296489 -16.073956 -58.138401 28.527006
39075000000 -41.389557 -114.86089 0.0051535899 -15.902156 -0.0033495359 -15.883862 -60.466389 -170.78041
39100000000 -41.986217 -3.9329407 -0.0074130041 -15.973591 -0.022879604 -15.953223 -75.980064 -157.40959
39125000000 -44.868591 108.73673 0.0046606669 -16.030706 -0.010864487 -16.043676 -59.153797 42.848946
39150000000 -48.240234 -101.29933 1.2014204e-005 -15.972886 -0.014219075 -15.95154 -63.887974 -57.8274
39175000000 -43.406754 32.74268 -0.0097080162 -16.040585 -0.031640083 -16.049345 -57.886929 -42.332256
39200000000 -39.941208 134.35713 0.0041447436 -16.147726 -0.011453163 -16.182472 -55.670101 8.6697025
39225000000 -40.265511 -123.89335 0.0040415432 -16.031832 -0.003216764 -16.03392 -60.408512 -154.27234
39250000000 -40.678928 -16.484987 -0.00886619 -16.030115 -0.025381735 -16.016233 -67.661369 -70.642685
39275000000 -41.385502 88.53241 -0.0058215666 -16.116671 -0.024478322 -16.142042 -54.437923 -8.132268
39300000000 -43.993572 -161.97334 0.0001573886 -16.047598 -0.011383018 -16.07082 -60.956966 -50.810822
39325000000 -46.448215 -16.349575 -0.0088175088 -16.045773 -0.027645482 -16.040169 -58.598206 -86.34214
39350000000 -43.102535 116.19971 -0.0069992975 -16.135597 -0.024642019 -16.160204 -56.197357 -47.282326
39375000000 -41.266556 -139.34001 0.0002905174 -16.121874 -0.0076334677 -16.127789 -61.240646 -78.549698
39400000000 -41.35239 -31.005518 -0.0060825716 -16.115931 -0.014673535 -16.052679 -63.549019 -112.67763
39425000000 -41.132587 81.300552 -0.0056956611 -16.145666 -0.022818301 -16.153292 -54.7869 -10.756982
39450000000 -41.942516 -174.36224 0.0012439932 -16.123209 -0.0075317984 -16.132507 -61.329006 -46.252628
39475000000 -45.521282 -59.129932 -0.0059818006 -16.10519 -0.014804173 -16.068371 -58.92942 -107.1172
39500000000 -45.817833 86.463135 -0.010503746 -16.139624 -0.024224866 -16.166807 -60.675499 -21.281643
39525000000 -41.979141 -156.66777 -0.0065803803 -16.188059 -0.016949195 -16.212223 -61.825836 -62.165787
39550000000 -42.056793 -50.594578 -0.006398038 -16.19442 -0.018822638 -16.172327 -62.793842 -55.717281
39575000000 -41.592861 59.036831 -0.0040521324 -16.227119 -0.021763198 -16.213881 -55.824898 7.6230683
39600000000 -41.807514 164.1825 0.0031359303 -16.184076 -0.012516486 -16.198763 -65.121101 -58.184074
39625000000 -44.173931 -88.570305 -0.00095202093 -16.165562 -0.012956389 -16.142778 -60.155998 -116.70309
39650000000 -48.53878 41.075089 -0.0058103297 -16.179432 -0.022163333 -16.154865 -58.402546 -13.445568
39675000000 -46.147423 -164.88744 -0.0085628163 -16.188143 -0.020665677 -16.204004 -56.938763 23.639961
39700000000 -41.963184 -49.386421 -0.014522838 -16.284077 -0.026859414 -16.236309 -65.468216 109.33404
39725000000 -39.65654 50.112347 -0.0089352205 -16.366133 -0.025242103 -16.338737 -60.208942 30.953123
39750000000 -40.76305 147.90524 0.00049049832 -16.270445 -0.012769882 -16.319984 -59.227379 -15.614603
39775000000 -42.154499 -105.66129 -0.0035226941 -16.212778 -0.011624572 -16.232098 -74.243004 -91.07605
39800000000 -44.811928 1.0204146 -0.0031794196 -16.260862 -0.018322514 -16.240221 -60.437965 43.448902
39825000000 -50.167294 122.4289 -0.0025013441 -16.25836 -0.015459086 -16.269577 -57.575855 64.787933
39850000000 -48.668858 -55.264221 -0.010364437 -16.252598 -0.022062741 -16.245581 -74.261101 -79.636078
39875000000 -41.737637 49.700363 -0.010794276 -16.366806 -0.027859749 -16.357628 -56.746876 -15.413999
39900000000 -39.909111 141.87227 0.0015071835 -16.382126 -0.011490863 -16.41807 -54.768322 13.092756
39925000000 -40.440659 -115.2479 -0.0035569817 -16.319645 -0.0089318557 -16.320942 -63.764809 118.8448
39950000000 -40.312874 -9.408618 -0.0074229813 -16.383446 -0.026372319 -16.360062 -61.080975 99.94339
39975000000 -42.442562 78.738297 0.0016376475 -16.413364 -0.017255699 -16.42189 -55.925934 45.179642
40000000000 -51.029118 -176.45074 0.0020179867 -16.318922 -0.011619858 -16.325226 -60.300049 -21.801903
40025000000 -49.383358 30.733191 -0.009970068 -16.350912 -0.02568741 -16.329348 -62.124855 -43.306961
40050000000 -44.591648 135.2262 -0.0050394218 -16.394379 -0.020823574 -16.435413 -62.426094 -14.4191
40075000000 -41.77412 -112.93159 -0.0044303453 -16.383516 -0.01445003 -16.366438 -77.686302 167.0296
40100000000 -39.168076 -7.7424269 -0.019146983 -16.418577 -0.033082429 -16.393282 -59.672886 29.070372
40125000000 -38.756611 79.401833 -0.013356073 -16.530733 -0.031267785 -16.567106 -52.838848 -1.4614373
40150000000 -40.845104 167.84743 0.0074528172 -16.478161 -0.0044318652 -16.485834 -58.096619 -36.336231
40175000000 -48.604858 -87.533699 0.0013532965 -16.376663 -0.013419703 -16.346111 -58.723351 -86.537163
40200000000 -52.919678 92.506584 -0.0042700325 -16.400501 -0.019835951 -16.40288 -70.574524 15.377199
40225000000 -47.492771 -132.33609 -0.00052928209 -16.435635 -0.01149822 -16.420494 -63.284058 -79.046989
40250000000 -43.546921 -12.341665 -0.0093917791 -16.397089 -0.02086358 -16.354628 -57.313519 -80.92453
40275000000 -39.171494 89.922981 -0.019236729 -16.555748 -0.033902265 -16.588865 -50.155056 -35.9776
40300000000 -38.596642 172.1181 -0.0022510644 -16.614086 -0.0073111625 -16.655998 -51.993847 -42.644112
40325000000 -42.156155 -96.545799 0.0087561896 -16.478321 -0.0028299564 -16.452066 -55.50536 -125.12299
40350000000 -46.371071 24.345507 -0.0063087638 -16.448072 -0.021217348 -16.434774 -59.973125 -72.850632
40375000000 -46.847305 150.35016 -0.0051599946 -16.497417 -0.018726276 -16.529402 -53.139641 -47.798134
40400000000 -51.004074 -65.699173 -0.0024979832 -16.472691 -0.018645931 -16.449028 -53.199253 -53.888672
40425000000 -43.049221 79.402374 -0.01651207 -16.494474 -0.037060678 -16.505125 -51.498707 -62.923523
40450000000 -39.662262 164.57361 -0.01582031 -16.60137 -0.028672257 -16.651287 -52.821396 -84.733597
40475000000 -41.240623 -110.69783 0.00057527155 -16.543617 -0.0099559221 -16.545216 -53.55323 -80.677109
40500000000 -46.474163 1.7718765 -0.0020725555 -16.452124 -0.022818957 -16.416262 -53.194847 -27.395658
40525000000 -45.385895 132.86858 -0.011608037 -16.511951 -0.027093038 -16.531866 -52.13118 -19.839539
40550000000 -49.204742 -127.70503 -0.0047819042 -16.571182 -0.017538175 -16.570959 -53.497852 -64.991112
40575000000 -48.487709 73.305664 -0.0071278601 -16.513693 -0.025787581 -16.528292 -55.096149 -72.529259
40600000000 -40.905434 159.12923 -0.014189506 -16.594982 -0.027438693 -16.654831 -54.279636 -70.247719
40625000000 -41.317688 -119.25953 -0.0022463892 -16.643232 -0.0079024928 -16.645306 -56.44836 -65.11232
40650000000 -44.820637 -9.9698286 0.0064248475 -16.546604 -0.0094029 -16.529922 -56.708263 -6.992496
40675000000 -44.242085 114.01431 -0.0047381953 -16.544048 -0.020891476 -16.56081 -56.326477 -11.835388
40700000000 -46.871735 -147.56921 -0.0059058159 -16.628096 -0.01770951 -16.629635 -58.708111 -68.279549
40725000000 -53.729019 30.814337 -0.0025004223 -16.606028 -0.019251917 -16.590464 -62.294807 -50.494091
40750000000 -42.416336 152.90976 -0.015024273 -16.63632 -0.029499855 -16.640362 -62.087166 21.766127
40775000000 -40.164993 -117.60641 -0.015955826 -16.766859 -0.020889558 -16.754286 -73.717026 151.50806
40800000000 -40.844273 -17.965055 0.0029487796 -16.743372 -0.011250488 -16.678995 -73.015648 46.789936
40825000000 -41.722919 88.269257 0.00017668345 -16.620378 -0.019110389 -16.641659 -56.053696 27.659981
40850000000 -43.872414 -175.92793 -0.0047631846 -16.644617 -0.018568385 -16.680262 -66.756744 -3.3335936
40875000000 -52.301689 -64.673477 -0.0025821652 -16.682688 -0.016380917 -16.667791 -68.18158 133.42575
40900000000 -48.588558 137.79266 -0.0084120929 -16.645626 -0.023186859 -16.647125 -56.360023 66.328484
40925000000 -42.995499 -104.32272 -0.01444213 -16.722187 -0.025847955 -16.731085 -55.44125 111.02573
40950000000 -39.533329 -9.2131567 -0.0042285058 -16.830271 -0.018494599 -16.758007 -56.393276 111.92723
40975000000 -38.138268 80.709686 0.003419766 -16.815922 -0.016854813 -16.804508 -57.831421 73.499847
41000000000 -39.590214 179.38516 -0.0039940788 -16.785196 -0.013726607 -16.813522 -69.520203 87.955925
41025000000 -41.587086 -75.990608 -0.00097310805 -16.820522 -0.0099867173 -16.765911 -55.171257 150.83504
41050000000 -46.159157 27.054543 4.1686995e-005 -16.769869 -0.01511318 -16.720613 -53.872856 130.24811
41075000000 -52.201458 -123.42388 -0.0073569799 -16.73855 -0.019306565 -16.719509 -58.710213 133.89774
41100000000 -41.530415 -19.64609 -0.014063925 -16.83774 -0.027386082 -16.774864 -59.683403 125.75935
41125000000 -39.193531 71.218895 -0.012756506 -16.861353 -0.034242757 -16.846191 -72.213356 62.892349
41150000000 -39.036919 172.17413 -0.017231675 -16.852289 -0.027035449 -16.863417 -52.182812 -152.589
41175000000 -39.509544 -87.838226 -0.016237866 -16.848873 -0.021308681 -16.826302 -53.113121 -169.52412
41200000000 -42.044491 -1.701129 -0.0024370963 -16.830633 -0.019887043 -16.777233 -57.630863 161.37164
41225000000 -50.284954 108.56034 0.0016795073 -16.802963 -0.0162149 -16.800211 -59.272007 -163.33406
41250000000 -52.427773 -48.409908 -0.0045319553 -16.778152 -0.01821938 -16.770523 -53.292549 -130.45995
41275000000 -44.910538 92.577522 -0.006441032 -16.817766 -0.027531134 -16.839775 -51.446857 -133.98941
41300000000 -39.218494 -171.86195 -0.0086619668 -16.892281 -0.02035059 -16.940033 -49.037533 -125.88636
41325000000 -37.958942 -86.759369 -0.013609645 -16.869576 -0.017382955 -16.841 -48.593143 -107.74842
41350000000 -40.893112 6.8293428 -0.0033320356 -16.877367 -0.027164277 -16.893875 -58.643272 -108.42671
41375000000 -41.115768 121.37845 0.0083004432 -16.838696 -0.012817778 -16.911158 -44.647923 -96.883476
41400000000 -39.887497 -168.47949 0.015961617 -16.495258 0.0074004591 -16.547993 -36.921295 -68.012726
41425000000 -37.956871 175.59741 -0.0026887942 -15.604636 -0.0068121036 -15.901599 -30.179735 -35.29586
41450000000 -30.236887 -124.08439 0.3181453 -15.990209 -0.32203564 -16.926191 -23.705711 -90.355171
41475000000 -32.451229 -106.78718 -0.074530534 -17.424725 -0.28799218 -17.521507 -31.28421 128.16132
41500000000 -42.177479 18.372829 -0.01189767 -17.141901 -0.047408547 -17.079874 -40.92403 141.07278
41525000000 -40.365768 109.75201 -0.0062858779 -16.960817 -0.024446195 -16.991777 -54.901833 109.52146
41550000000 -43.712349 -154.30342 -0.0084654279 -17.036535 -0.021782441 -17.039972 -52.924789 157.00667
41575000000 -48.333519 -30.455223 0.0056479345 -17.033463 -0.013075665 -16.955372 -52.046429 162.70764
41600000000 -54.298538 150.84138 -0.005175313 -17.043503 -0.02011759 -17.032719 -52.750713 -161.35088
41625000000 -43.965328 -92.772568 -0.0036959623 -17.125078 -0.015421024 -17.111254 -53.57592 -120.4776
41650000000 -44.422947 2.8442028 0.0011737454 -17.093065 -0.018315345 -17.066034 -52.913872 -108.16458
41675000000 -42.329727 119.08359 -0.010474228 -17.073507 -0.030106544 -17.086798 -50.741047 -106.70933
41700000000 -40.606689 -152.82263 -0.016003661 -17.156734 -0.025243163 -17.19508 -49.360653 -111.3115
41725000000 -43.588837 -83.616562 -0.0032631778 -17.19232 -0.015745463 -17.190485 -51.983284 -97.266899
41750000000 -72.589798 118.66977 -0.0025168241 -17.099026 -0.016609233 -17.109259 -56.867794 -61.037399
41775000000 -47.441177 -116.93863 -0.0091854688 -17.161398 -0.016931031 -17.169916 -52.557819 -55.804211
41800000000 -47.515842 -6.3227353 9.772418e-005 -17.218155 -0.013337923 -17.185543 -50.945629 -51.597469
41825000000 -42.304955 120.98998 -0.0040095863 -17.146154 -0.023785217 -17.183418 -50.499397 -37.421577
41850000000 -38.609131 -159.92273 -0.023954857 -17.265306 -0.028837552 -17.306026 -51.468014 -33.95615
41875000000 -41.061806 -80.576988 -0.0086105606 -17.416754 -0.015929155 -17.401945 -52.416584 -19.219553
41900000000 -45.624428 35.894012 0.0024995371 -17.358519 -0.014726692 -17.350048 -48.049313 2.1672156
41925000000 -44.861385 138.41762 -0.001862819 -17.379358 -0.018726176 -17.364164 -43.308422 -3.3488824
41950000000 -52.605118 119.43587 -0.0047298986 -17.495472 -0.021957284 -17.491604 -41.439804 4.9916115
41975000000 -39.579014 113.61731 -0.012784465 -17.558104 -0.029794753 -17.570471 -39.964561 14.324224
42000000000 -38.644138 150.68794 -0.058690015 -17.833672 -0.063468583 -17.820726 -36.625031 13.878411
42025000000 -45.194347 42.279957 -0.08998552 -18.365728 -0.08442951 -18.270493 -32.816387 21.327217
42050000000 -28.533882 62.700436 -0.20083554 -19.573956 -0.16585515 -19.38723 -25.438122 8.4190617
42075000000 -20.225327 61.410442 -1.2004886 -20.430933 -0.6448037 -22.806068 -15.618251 -28.032101
42100000000 -14.98474 -40.605362 -0.32717973 -12.205374 -1.6127988 -9.1630478 -22.542139 -58.851391
42125000000 -27.52597 84.597984 0.051396359 -21.840183 -0.17262605 -21.167355 -18.224043 52.926643
42150000000 -34.309322 109.05604 0.013551204 -18.817671 -0.0049381303 -18.79014 -27.468313 62.135098
42175000000 -54.67963 38.132706 -0.0106557 -17.902651 -0.028668907 -17.889952 -34.595211 60.719646
42200000000 -38.813629 40.436222 -0.001329887 -17.697151 -0.02186938 -17.699202 -39.342987 63.284695
42225000000 -37.770615 102.0177 0.018524181 -17.469421 -0.003181828 -17.540106 -45.724804 68.890022
42250000000 -43.629478 174.35927 0.0027008406 -17.285067 -0.014579671 -17.306044 -48.494595 26.572222
42275000000 -54.647327 -81.206825 -0.0077039138 -17.264784 -0.021394186 -17.260263 -47.034672 47.650688
42300000000 -55.513935 53.974701 -0.00023199336 -17.340315 -0.017999195 -17.331942 -48.314671 78.024971
42325000000 -52.969452 -37.139824 -0.005175136 -17.267626 -0.021201618 -17.257278 -51.696915 38.246513
42350000000 -42.042809 36.517498 -0.010984291 -17.314644 -0.029310362 -17.302006 -50.045551 24.245838
42375000000 -39.427315 111.89045 -0.0069434042 -17.36573 -0.027027044 -17.361517 -53.608822 45.013035
42400000000 -41.683041 -164.98007 -0.0045962459 -17.32189 -0.016192967 -17.338657 -58.485886 64.076973
42425000000 -44.60569 -55.419983 -0.0060688779 -17.34481 -0.020041775 -17.293892 -52.170601 93.791985
42450000000 -45.333084 45.547344 -0.0026772192 -17.356174 -0.019160377 -17.327236 -52.549961 75.038834
42475000000 -56.801605 86.472359 0.00043434469 -17.313766 -0.015163683 -17.309364 -55.483326 5.9959102
42500000000 -45.103409 45.146175 -0.0087569514 -17.284946 -0.029888147 -17.26318 -57.906124 47.445274
42525000000 -39.949322 117.99059 -0.017556619 -17.35261 -0.036904424 -17.373701 -62.791035 149.77725
42550000000 -40.406097 -153.75012 -0.011697954 -17.410934 -0.020131398 -17.423687 -59.697754 177.72867
42575000000 -40.035004 -48.438084 -0.0010941636 -17.453083 -0.013063968 -17.386948 -55.988396 121.93946
42600000000 -40.43948 51.834106 -0.00046901073 -17.453173 -0.020857748 -17.395376 -56.480995 93.23822
42625000000 -44.151474 147.50256 -6.3084881e-005 -17.460321 -0.017585674 -17.440575 -60.903324 -13.71524
42650000000 -57.223213 -55.525833 -0.00087488588 -17.379539 -0.020087637 -17.348063 -59.401711 165.09665
42675000000 -43.116993 109.93867 -0.016337652 -17.357965 -0.037146393 -17.319231 -51.249893 170.90744
42700000000 -38.545815 -153.92369 -0.030079236 -17.511971 -0.038948003 -17.524714 -51.561443 -165.8438
42725000000 -37.994427 -63.115593 -0.013094458 -17.569302 -0.018842543 -17.501356 -54.491581 128.16632
42750000000 -38.727718 40.927425 -0.0045259926 -17.467701 -0.023499433 -17.405111 -59.222855 124.05801
42775000000 -39.19965 147.25819 -0.017617218 -17.512634 -0.033109583 -17.549656 -54.094978 -113.75996
42800000000 -41.992893 -126.5931 -0.010913385 -17.569174 -0.018143028 -17.568563 -52.076588 -138.02992
42825000000 -69.319397 -0.5931617 -0.003538508 -17.404667 -0.016792834 -17.38756 -51.177601 170.47545
42850000000 -41.806839 -146.31442 -0.026537867 -17.409531 -0.039141838 -17.455664 -54.404926 164.94261
42875000000 -38.574089 -55.169804 -0.016509777 -17.615789 -0.025771795 -17.555252 -55.490578 128.32272
42900000000 -38.673691 56.750225 0.0002864548 -17.543432 -0.021586055 -17.497904 -67.752411 -149.20634
42925000000 -35.696312 167.67676 -0.035324458 -17.607243 -0.048274055 -17.67828 -49.253147 -115.22869
42950000000 -34.007961 -109.13155 -0.042126291 -17.923309 -0.030543098 -17.934965 -45.471691 -150.85162
42975000000 -40.310783 -36.88448 0.00025524758 -17.739038 -0.0055555976 -17.66172 -48.104137 -168.67505
43000000000 -51.623619 -160.15074 -0.007868954 -17.445082 -0.022471603 -17.461859 -69.562782 156.43376
43025000000 -40.857124 -45.802757 -0.020959601 -17.631546 -0.031561051 -17.561499 -58.322491 73.01226
43050000000 -38.136707 71.782204 -0.0057506543 -17.580614 -0.028326062 -17.523256 -59.569653 -116.54646
43075000000 -34.055225 -172.55753 -0.05427454 -17.571411 -0.063820176 -17.690668 -48.273029 -148.27943
43100000000 -30.824757 -86.384819 -0.078089155 -18.228359 -0.064480305 -18.228306 -42.590599 172.87178
43125000000 -31.55879 -2.62199 0.025014464 -18.420341 0.016191728 -18.297626 -40.936726 165.10516
43150000000 -38.85994 84.233673 0.034573596 -17.774902 0.014739694 -17.759148 -53.553265 143.45268
43175000000 -50.261005 -60.333733 -0.0058298367 -17.586159 -0.019987695 -17.580812 -54.343651 -18.05555
43200000000 -38.977238 116.28217 -0.01012498 -17.601528 -0.033102114 -17.619108 -59.030663 -88.28537
43225000000 -29.193298 -131.95352 -0.13370202 -17.782146 -0.13247783 -17.958555 -43.17572 145.05254
43250000000 -23.337791 -53.063534 -0.25380549 -19.386103 -0.22532634 -19.219782 -32.725349 110.48887
43275000000 -20.401085 29.527639 -0.019709295 -20.772438 -0.047477089 -20.655552 -30.021832 103.28679
43300000000 -21.820332 114.22281 0.16270871 -19.593069 0.13099098 -19.556932 -34.585861 79.171448
43325000000 -27.585852 -143.67493 0.079084247 -18.044756 0.056558762 -18.156591 -45.981754 -3.1568379
43350000000 -30.749481 -149.91872 -0.1111951 -17.655577 -0.12287096 -17.885227 -45.455933 137.05472
43375000000 -15.46433 -142.70078 -0.91350245 -12.282561 -0.51900744 -13.788848 -23.344807 19.644226
43400000000 -22.3276 -141.40372 -0.76065499 -12.545102 0.074361868 -14.464153 -22.701315 -42.478039
43425000000 -17.938318 -19.164431 -1.6514539 -16.262033 -0.51940036 -15.610665 -20.612053 -49.810192
43450000000 -1.6980162 -59.623428 0.89056027 1.5695916 1.8812015 -2.7110674 -15.50001 165.04167
43475000000 -22.69618 -57.757092 0.13509354 -18.438042 0.17107399 -18.16382 -41.725903 -36.875404
43500000000 -54.60825 -11.326035 0.00048122683 -17.777651 -0.009787458 -17.772194 -73.306099 148.57242
