!Keysight Technologies,N5224A,MY55441802,A.10.65.16
!Date: Tuesday, March 03, 2026 17:17:50
!Correction: S11(Full 2 Port(1,2)) 
!S21(Full 2 Port(1,2)) 
!S12(Full 2 Port(1,2)) 
!S22(Full 2 Port(1,2)) 
!S2P File: Measurements: S11, S21, S12, S22:
# Hz S  dB   R 50
25000000000 -20.19179 -85.002663 -0.45785099 -169.87862 -0.47036526 -170.16678 -18.931059 -90.203339
25025000000 -20.30352 -83.723022 -0.46826723 -170.06871 -0.44720733 -170.34735 -19.360821 -94.164398
25050000000 -20.854866 -83.850182 -0.45313209 -170.13083 -0.45500609 -170.55424 -18.769873 -94.999046
25075000000 -20.826271 -91.84243 -0.43623492 -170.47739 -0.44886237 -170.79755 -18.952797 -91.669403
25100000000 -19.621496 -90.061775 -0.45737088 -170.52222 -0.43265191 -170.95053 -19.085737 -95.356979
25125000000 -19.900322 -83.014954 -0.44905499 -170.45563 -0.46397877 -171.03406 -18.459997 -94.658974
25150000000 -20.773912 -87.40918 -0.43024376 -171.0712 -0.47580889 -171.22713 -18.96525 -90.554291
25175000000 -20.470926 -88.851746 -0.47234812 -171.36179 -0.44867814 -171.40819 -19.411119 -93.873604
25200000000 -20.671648 -87.81179 -0.45712331 -171.06805 -0.44533205 -171.48953 -18.622711 -96.423103
25225000000 -20.127533 -94.450584 -0.41654846 -171.2903 -0.44142404 -171.6777 -18.553089 -92.467361
25250000000 -19.415178 -88.701691 -0.44915992 -171.67944 -0.4355098 -171.89743 -19.05912 -93.13118
25275000000 -20.441299 -83.483627 -0.44808757 -171.83755 -0.44006455 -172.08344 -18.765364 -94.55452
25300000000 -21.258999 -92.149078 -0.43718383 -172.14458 -0.450178 -172.3576 -19.019676 -91.672287
25325000000 -20.324945 -95.322784 -0.44048461 -172.40169 -0.44716138 -172.63358 -19.283083 -93.503784
25350000000 -19.879097 -91.554688 -0.43241605 -172.30188 -0.44751784 -172.64676 -18.450577 -95.347
25375000000 -19.953077 -91.251122 -0.44767451 -172.37766 -0.4574635 -172.62988 -18.52837 -90.036926
25400000000 -20.071104 -91.305542 -0.45919815 -172.85094 -0.46124709 -172.97102 -19.303026 -90.54818
25425000000 -20.338884 -87.334587 -0.46690485 -173.08147 -0.45785829 -173.23741 -18.882851 -95.433281
25450000000 -21.067312 -92.026527 -0.44866297 -173.14963 -0.46207941 -173.35825 -18.620632 -91.99707
25475000000 -20.17841 -97.802917 -0.45274714 -173.34319 -0.46118659 -173.6227 -18.994522 -91.388809
25500000000 -19.502447 -90.737144 -0.46637201 -173.49825 -0.45835134 -173.80435 -18.626129 -94.66758
25525000000 -20.389685 -88.303261 -0.45224711 -173.67224 -0.46585122 -173.76103 -18.628548 -91.045929
25550000000 -20.595795 -93.409492 -0.48470157 -173.85585 -0.47457331 -173.93561 -19.224899 -90.343079
25575000000 -20.278879 -91.185165 -0.48386428 -174.00256 -0.47739273 -174.22495 -18.852959 -95.827202
25600000000 -20.353556 -93.415558 -0.44940054 -174.16495 -0.46827716 -174.2966 -18.314962 -93.298737
25625000000 -19.89377 -94.06041 -0.48107237 -174.37466 -0.46074644 -174.45464 -18.753397 -90.499527
25650000000 -19.862579 -89.183815 -0.50826693 -174.53514 -0.46797574 -174.72621 -18.879827 -95.175743
25675000000 -20.465303 -88.989433 -0.48877102 -174.71773 -0.47599164 -174.87769 -18.661469 -94.162476
25700000000 -20.452087 -93.334305 -0.48221675 -174.84212 -0.47015303 -174.95502 -18.778547 -92.228928
25725000000 -19.972652 -93.045967 -0.50059658 -174.93617 -0.47551683 -175.17047 -18.603825 -95.597321
25750000000 -19.817648 -91.494377 -0.49202341 -175.05232 -0.47927162 -175.30984 -18.249771 -94.03933
25775000000 -20.026749 -91.825638 -0.49241415 -175.38797 -0.46734661 -175.44806 -18.693455 -92.014389
25800000000 -19.87145 -90.032814 -0.52721524 -175.45787 -0.47342438 -175.72795 -18.738106 -96.407219
25825000000 -20.314623 -89.502365 -0.49731955 -175.58519 -0.49208042 -175.92604 -18.212311 -95.789032
25850000000 -20.255995 -94.915764 -0.4883903 -175.81461 -0.47957462 -176.00215 -18.315643 -93.224937
25875000000 -19.495659 -93.040062 -0.51722586 -175.89127 -0.47080079 -176.14844 -18.400972 -95.969101
25900000000 -19.83139 -88.268707 -0.52472097 -176.03191 -0.48895919 -176.37038 -18.210773 -96.292175
25925000000 -20.386803 -92.332489 -0.50814682 -176.26985 -0.48529512 -176.54233 -18.426504 -94.273506
25950000000 -19.803667 -93.103668 -0.50790107 -176.33766 -0.48243424 -176.7536 -18.43292 -97.343636
25975000000 -19.858051 -90.526344 -0.52035052 -176.47678 -0.50804251 -176.87302 -17.88216 -97.580765
26000000000 -20.0769 -92.636749 -0.51889902 -176.66724 -0.50845468 -176.98631 -18.029282 -94.010727
26025000000 -19.873037 -92.978065 -0.52295661 -176.94839 -0.49099597 -177.14647 -18.414833 -96.784042
26050000000 -19.853075 -90.392349 -0.52800268 -176.95766 -0.49704021 -177.32387 -18.056067 -99.132629
26075000000 -20.170189 -92.96685 -0.50031257 -177.09021 -0.50887173 -177.47502 -17.934048 -95.510689
26100000000 -19.778194 -95.481514 -0.50461084 -177.3309 -0.49710602 -177.64697 -18.202105 -96.728455
26125000000 -19.37723 -92.230927 -0.50863278 -177.34413 -0.49619347 -177.73381 -17.869614 -98.683334
26150000000 -19.911789 -90.890373 -0.5175761 -177.59805 -0.51436639 -177.86032 -17.939241 -95.879868
26175000000 -19.96254 -93.968689 -0.50906104 -177.91013 -0.50242937 -178.09952 -18.366793 -97.300682
26200000000 -19.788155 -92.471306 -0.49287862 -177.93689 -0.48909727 -178.25127 -17.944155 -100.07728
26225000000 -19.998219 -94.785316 -0.481507 -178.02603 -0.50031954 -178.3463 -17.668068 -96.813477
26250000000 -19.585011 -96.74929 -0.49586141 -178.29099 -0.49799111 -178.56886 -18.141109 -96.181267
26275000000 -19.447512 -92.016159 -0.50539863 -178.48393 -0.4844535 -178.74922 -18.106768 -99.548317
26300000000 -20.258015 -92.872169 -0.48630583 -178.72847 -0.49704033 -178.91628 -17.944273 -97.888069
26325000000 -19.996267 -97.472946 -0.49386939 -178.95398 -0.5028829 -179.19308 -18.210836 -96.802956
26350000000 -19.513384 -95.12336 -0.48985755 -179.08032 -0.49350649 -179.37151 -17.957119 -99.745117
26375000000 -19.826761 -94.209473 -0.47918591 -179.07094 -0.49926171 -179.37462 -17.736431 -97.883865
26400000000 -19.963888 -97.080307 -0.50546741 -179.43575 -0.5044381 -179.55643 -18.203922 -96.308998
26425000000 -19.604132 -94.172607 -0.51067907 -179.71921 -0.49819803 -179.82085 -18.132725 -100.14005
26450000000 -20.234438 -93.332253 -0.48128706 -179.7435 -0.49772987 -179.89748 -17.806358 -98.629333
26475000000 -20.290071 -100.24741 -0.49181515 -179.93152 -0.51101977 179.86116 -18.114519 -96.666183
26500000000 -19.25462 -97.903793 -0.51313233 179.82526 -0.51126176 179.54822 -18.091305 -99.854393
26525000000 -19.609968 -91.767128 -0.5083822 179.79561 -0.5116691 179.52135 -18.004519 -99.106979
26550000000 -20.420362 -95.054794 -0.51643384 179.58212 -0.51968056 179.44461 -18.296425 -97.777489
26575000000 -19.984606 -96.461594 -0.51858914 179.27046 -0.51373792 179.16258 -18.177149 -100.39182
26600000000 -19.952997 -95.398071 -0.49655229 179.18439 -0.50583869 179.02791 -17.840845 -99.489258
26625000000 -19.95706 -98.367531 -0.50404829 179.19955 -0.50621897 178.98161 -18.208084 -97.658447
26650000000 -19.370586 -96.281693 -0.5364958 178.90891 -0.50028121 178.63727 -18.269915 -100.7728
26675000000 -19.615974 -92.184174 -0.53607309 178.64336 -0.50760186 178.41245 -17.947517 -100.64458
26700000000 -20.25367 -95.676514 -0.51857984 178.597 -0.50924611 178.43286 -18.191584 -97.40081
26725000000 -19.802063 -98.08918 -0.52797443 178.40749 -0.50821859 178.18466 -18.290564 -100.56769
26750000000 -19.505621 -95.597054 -0.52113742 178.24553 -0.50869924 177.90144 -17.901152 -101.19051
26775000000 -19.799208 -96.687225 -0.51961941 178.22723 -0.50274891 177.89937 -18.180141 -98.345245
26800000000 -19.384317 -96.408066 -0.55516428 177.98013 -0.50522888 177.68147 -18.360718 -101.04172
26825000000 -19.643631 -92.39917 -0.54552191 177.72614 -0.50734669 177.38908 -17.923777 -101.33205
26850000000 -20.340425 -97.544502 -0.51968729 177.58934 -0.51039267 177.31522 -18.062468 -98.67868
26875000000 -19.3615 -100.8413 -0.54526407 177.50548 -0.51491398 177.0806 -18.213226 -101.42239
26900000000 -19.022692 -93.881912 -0.54172289 177.38004 -0.51406622 176.75867 -17.863119 -102.32863
26925000000 -19.933962 -94.896584 -0.52901065 177.22896 -0.52082634 176.70522 -18.062523 -99.679115
26950000000 -19.585724 -97.749878 -0.54145747 177.04736 -0.52482963 176.66112 -18.195045 -101.28832
26975000000 -19.408491 -94.543266 -0.5469138 176.81532 -0.52989894 176.44563 -17.722998 -102.67285
27000000000 -20.010292 -96.751732 -0.52745938 176.72026 -0.53320074 176.31097 -17.865341 -100.05699
27025000000 -19.407133 -100.43036 -0.53475785 176.60548 -0.52797037 176.16304 -18.156563 -101.89169
27050000000 -18.867062 -95.105682 -0.5553748 176.35385 -0.54006797 175.90756 -17.777842 -103.78474
27075000000 -19.723408 -92.518105 -0.54528856 176.18448 -0.54285413 175.8154 -17.856853 -100.37268
27100000000 -20.01898 -98.418495 -0.53291243 176.01886 -0.53762019 175.74266 -18.119642 -101.82817
27125000000 -19.150229 -97.434494 -0.54704791 175.84258 -0.53850865 175.56589 -17.655382 -104.5438
27150000000 -19.523115 -94.901459 -0.55020273 175.79665 -0.53870016 175.45982 -17.752085 -100.76469
27175000000 -19.670301 -98.385193 -0.54252815 175.6331 -0.53170311 175.29134 -18.280416 -101.82162
27200000000 -19.074888 -95.802284 -0.54838252 175.34993 -0.52827841 175.05867 -17.867714 -105.12976
27225000000 -19.651464 -94.350853 -0.55072618 175.21487 -0.53994906 174.94803 -17.600504 -101.42877
27250000000 -19.760036 -98.96627 -0.54482085 175.062 -0.53708529 174.81027 -18.148731 -100.48052
27275000000 -19.040545 -96.730469 -0.55739117 174.88205 -0.52371085 174.58432 -18.125111 -105.25681
27300000000 -19.513666 -95.354691 -0.55160719 174.7657 -0.53250188 174.46985 -17.590843 -104.08384
27325000000 -19.573523 -97.377113 -0.56998765 174.67293 -0.55038893 174.41272 -17.721886 -98.68663
27350000000 -19.000031 -96.265022 -0.59130651 174.62024 -0.55570269 174.28249 -18.583561 -99.063614
27375000000 -19.682434 -95.726578 -0.55477667 174.5229 -0.5485394 174.15056 -18.609167 -106.90934
27400000000 -19.570677 -99.55262 -0.52528983 174.38211 -0.51193506 174.14616 -17.197498 -107.72466
27425000000 -19.066416 -100.31406 -0.48930705 174.3602 -0.45064121 173.94269 -16.536667 -100.42944
27450000000 -19.351189 -93.311485 -0.48641413 173.98445 -0.4641805 173.5555 -17.856277 -95.912277
27475000000 -19.866772 -97.092987 -0.50834596 173.61954 -0.50553113 173.30016 -18.689585 -104.97916
27500000000 -19.241411 -99.679924 -0.50419283 173.46942 -0.4957864 173.0013 -17.36997 -108.3447
27525000000 -19.194017 -94.226433 -0.50879502 173.37518 -0.49542972 172.86777 -17.34211 -101.49948
27550000000 -19.868439 -97.742035 -0.51912022 173.20172 -0.53306299 172.85144 -18.44211 -101.97008
27575000000 -19.188416 -99.34758 -0.53470302 172.84676 -0.52622563 172.57353 -17.861465 -107.63734
27600000000 -19.06592 -94.149414 -0.51350695 172.6752 -0.5051325 172.33519 -17.469934 -104.41845
27625000000 -19.687941 -96.905693 -0.50076848 172.72861 -0.52290326 172.35333 -18.113056 -102.98402
27650000000 -19.198208 -98.679001 -0.5148688 172.42659 -0.52298737 172.21278 -17.932842 -106.72477
27675000000 -19.072739 -95.825233 -0.52349752 172.22296 -0.50577289 171.97906 -17.655067 -104.80709
27700000000 -19.409986 -96.549759 -0.51160151 172.19318 -0.51041871 171.92168 -18.181065 -103.59657
27725000000 -19.26115 -97.484062 -0.49931246 171.92323 -0.51075006 171.78413 -18.03562 -106.65563
27750000000 -18.983223 -96.989441 -0.51836294 171.66496 -0.50539488 171.39822 -17.636347 -105.73718
27775000000 -19.118509 -96.980995 -0.51631039 171.68184 -0.51539558 171.34116 -18.071659 -103.97149
27800000000 -19.108421 -97.673248 -0.50613981 171.44287 -0.50508094 171.28053 -18.051828 -106.47459
27825000000 -18.834026 -96.325394 -0.53457302 171.0887 -0.49342343 170.91122 -17.753139 -106.11201
27850000000 -19.315985 -96.044296 -0.51054394 171.02118 -0.49847776 170.8192 -18.104225 -104.84238
27875000000 -19.113621 -100.21544 -0.50527269 170.99165 -0.49939302 170.70734 -18.004377 -106.7867
27900000000 -18.61235 -97.566696 -0.52092642 170.74019 -0.49722639 170.34137 -17.754845 -105.83376
27925000000 -19.232691 -97.241234 -0.52263618 170.59125 -0.50182605 170.22672 -18.201702 -104.69324
27950000000 -18.920067 -100.68162 -0.52806878 170.41441 -0.49754763 170.16837 -18.0968 -107.01887
27975000000 -18.473055 -96.519127 -0.52541971 170.10385 -0.48444223 169.80388 -17.692434 -106.39693
28000000000 -19.326841 -96.897064 -0.51482892 169.93953 -0.49510273 169.599 -18.090403 -105.204
28025000000 -18.981461 -101.46369 -0.51803768 170.01619 -0.50490111 169.57507 -18.15391 -107.02519
28050000000 -18.495558 -98.42067 -0.53749293 169.80864 -0.5008781 169.30209 -17.806696 -106.68411
28075000000 -18.992153 -97.142426 -0.53873652 169.3821 -0.5156315 169.0607 -18.180859 -104.93131
28100000000 -19.122105 -99.571564 -0.5358507 169.30585 -0.51834553 169.09657 -18.185778 -106.40131
28125000000 -18.707247 -99.840225 -0.54109645 169.25072 -0.51068866 168.8638 -17.754219 -107.44162
28150000000 -18.760744 -98.425865 -0.53984487 169.04669 -0.52812344 168.55615 -18.010605 -104.72958
28175000000 -19.017017 -99.043587 -0.53479576 168.92256 -0.53239411 168.5533 -18.292957 -105.12905
28200000000 -18.631201 -99.976761 -0.54993039 168.75496 -0.52419358 168.39056 -18.050322 -107.70223
28225000000 -18.676214 -97.33429 -0.56405377 168.49655 -0.54155582 168.17755 -17.787477 -106.23474
28250000000 -19.172667 -99.182709 -0.54969025 168.31583 -0.54678327 168.12363 -17.897285 -102.8444
28275000000 -18.537987 -100.83924 -0.56660324 168.23042 -0.5422737 167.90987 -18.604919 -104.36826
28300000000 -18.658802 -98.485352 -0.57887995 168.17636 -0.54460257 167.71402 -18.459944 -110.82948
28325000000 -19.038656 -99.117996 -0.57061291 168.19673 -0.56166589 167.83066 -17.017487 -107.59875
28350000000 -18.195539 -100.45914 -0.59233874 168.16838 -0.55928028 167.97362 -17.060354 -95.790642
28375000000 -18.840868 -97.918381 -0.55460513 167.94905 -0.5073756 167.60413 -19.467901 -95.595314
28400000000 -18.786125 -100.85392 -0.47523576 167.69292 -0.46226838 167.3176 -19.157434 -115.8027
28425000000 -18.554197 -102.88296 -0.44022468 167.40126 -0.42460904 167.08353 -16.644608 -112.72848
28450000000 -18.600599 -97.453995 -0.4917995 167.06335 -0.4553555 166.60747 -17.035055 -99.894402
28475000000 -18.791275 -99.724709 -0.51917666 166.79114 -0.49886721 166.37003 -19.029842 -101.83452
28500000000 -18.638748 -101.90666 -0.49828109 166.5793 -0.49471632 166.30406 -18.085325 -112.29066
28525000000 -18.466053 -98.479378 -0.50974637 166.39265 -0.4948568 166.0919 -17.251232 -106.3929
28550000000 -18.89394 -99.660637 -0.53825021 166.35835 -0.5178315 165.97722 -18.290392 -101.9584
28575000000 -18.506769 -103.34728 -0.51981652 166.34433 -0.51847595 165.87163 -18.405827 -108.44538
28600000000 -18.076027 -98.122665 -0.51800352 165.84676 -0.51812434 165.59859 -17.588442 -107.28203
28625000000 -18.92852 -98.120476 -0.55492675 165.70665 -0.53008866 165.43193 -17.990192 -103.20052
28650000000 -18.646008 -104.57805 -0.53626168 165.85217 -0.53480709 165.36197 -18.300312 -107.17417
28675000000 -18.044306 -99.826431 -0.51932412 165.35411 -0.52252346 165.12033 -17.720314 -107.97373
28700000000 -18.633493 -98.170212 -0.55775809 165.25562 -0.53197753 164.94844 -17.963741 -104.581
28725000000 -18.490314 -102.46814 -0.54746026 165.35829 -0.54289377 164.99741 -18.194185 -106.46214
28750000000 -18.145952 -99.423065 -0.52949399 164.97581 -0.53522211 164.82764 -17.749332 -108.17345
28775000000 -18.538406 -99.123848 -0.54932714 164.85056 -0.53395969 164.61652 -17.791809 -105.09463
28800000000 -18.440557 -102.63985 -0.54133314 164.77069 -0.53455019 164.61681 -18.154387 -106.41119
28825000000 -18.003199 -101.22259 -0.54322338 164.5533 -0.51733804 164.33566 -17.74152 -108.5783
28850000000 -18.157515 -99.399246 -0.54183549 164.31461 -0.53330916 164.08089 -17.670101 -105.78866
28875000000 -18.338144 -101.77631 -0.5400272 164.24884 -0.52871776 164.15939 -17.959286 -105.7263
28900000000 -18.057285 -102.07736 -0.54817605 164.11406 -0.50696152 163.95341 -17.765261 -108.17258
28925000000 -18.197149 -100.39923 -0.54742193 163.90479 -0.51618153 163.58658 -17.672726 -106.23771
28950000000 -18.313087 -104.3558 -0.53491724 163.82014 -0.5140385 163.59972 -17.963224 -106.05065
28975000000 -17.70965 -103.3054 -0.55040514 163.55003 -0.50226337 163.36746 -17.718628 -108.58923
29000000000 -18.082253 -99.79921 -0.5529964 163.43098 -0.51842624 163.02429 -17.557859 -106.86435
29025000000 -18.383791 -104.54115 -0.53816682 163.40453 -0.51795983 163.07469 -17.848593 -105.7486
29050000000 -17.821091 -104.44875 -0.54035926 163.14818 -0.50455791 162.93015 -17.838257 -108.97322
29075000000 -18.0998 -101.69826 -0.56058884 163.00311 -0.50083405 162.60461 -17.514549 -108.04729
29100000000 -18.211914 -105.83075 -0.53925484 162.92938 -0.51288396 162.5105 -17.766665 -106.14092
29125000000 -17.708111 -104.84067 -0.51970524 162.62582 -0.49249417 162.39389 -17.758396 -108.32272
29150000000 -18.039631 -102.04473 -0.53146189 162.42264 -0.49980977 161.98518 -17.492622 -108.30848
29175000000 -18.416382 -105.58135 -0.55584574 162.38599 -0.52982795 161.98386 -17.752211 -105.71887
29200000000 -17.930674 -107.5238 -0.52829218 162.28368 -0.50682241 161.92508 -17.775021 -108.72976
29225000000 -17.782524 -103.8475 -0.54105204 161.84146 -0.50754523 161.63803 -17.531809 -108.69733
29250000000 -18.226891 -104.13734 -0.55284816 161.8851 -0.51620275 161.57103 -17.686438 -106.51672
29275000000 -18.088186 -107.0994 -0.50982875 161.82707 -0.49771917 161.42229 -17.830238 -108.6745
29300000000 -17.863504 -104.38229 -0.52992922 161.44843 -0.50281733 161.0833 -17.603386 -109.14642
29325000000 -18.310339 -105.16097 -0.54304576 161.40675 -0.51805794 161.00255 -17.684662 -106.99152
29350000000 -18.02212 -108.16418 -0.53335887 161.3269 -0.5053556 160.94911 -17.784248 -108.63251
29375000000 -17.832598 -104.52108 -0.51203549 160.92493 -0.49255893 160.67429 -17.621061 -109.38732
29400000000 -18.242046 -105.34585 -0.52367359 160.89496 -0.49588162 160.50681 -17.745342 -107.58295
29425000000 -18.003706 -107.46801 -0.51114976 160.85426 -0.50516456 160.41951 -17.89719 -109.03718
29450000000 -18.009308 -105.16457 -0.5190177 160.53149 -0.48451942 160.15924 -17.624992 -109.86432
29475000000 -18.22863 -107.04892 -0.52651787 160.46307 -0.50324404 159.98811 -17.721867 -107.34241
29500000000 -17.950941 -108.11713 -0.51053178 160.16507 -0.49064755 159.97247 -18.021179 -108.67459
29525000000 -17.935921 -105.3612 -0.50302625 159.9534 -0.46930918 159.55989 -17.781311 -111.11214
29550000000 -18.189325 -106.08715 -0.51437962 159.83742 -0.49983352 159.38008 -17.710709 -109.02187
29575000000 -18.085396 -108.21913 -0.50381333 159.8356 -0.4971751 159.38431 -17.869116 -109.07065
29600000000 -17.982294 -106.26672 -0.50368506 159.53175 -0.47464424 159.17937 -17.81967 -110.02552
29625000000 -18.258698 -106.0736 -0.49895626 159.22078 -0.4855375 158.87627 -17.867908 -109.28549
29650000000 -18.178663 -109.11788 -0.49521515 159.1851 -0.49368545 158.84001 -18.005505 -109.89668
29675000000 -17.822737 -106.91122 -0.49840435 158.93861 -0.48076326 158.49046 -17.747372 -111.4206
29700000000 -18.205532 -106.06423 -0.51189023 158.72197 -0.5036999 158.24524 -17.682871 -109.32979
29725000000 -18.190397 -109.24901 -0.50062144 158.8716 -0.50486124 158.33768 -17.949406 -108.65849
29750000000 -17.943459 -106.73142 -0.47333676 158.37341 -0.48112616 158.15759 -17.997606 -111.14043
29775000000 -18.159216 -106.55083 -0.50592786 158.04524 -0.48410746 157.75214 -17.678221 -111.98359
29800000000 -18.018057 -109.44129 -0.50551426 158.13953 -0.51639462 157.69667 -17.677166 -110.04468
29825000000 -17.847898 -107.16926 -0.48099723 157.95723 -0.48953921 157.5903 -17.740097 -110.32043
29850000000 -18.131733 -106.93647 -0.50290501 157.62129 -0.4908542 157.32755 -17.806265 -110.64195
29875000000 -18.146381 -108.92225 -0.49534887 157.50285 -0.50904226 157.26361 -17.848446 -110.45901
29900000000 -17.937332 -108.21911 -0.48757365 157.25293 -0.4822185 157.11884 -17.705196 -111.78735
29925000000 -17.989019 -108.28749 -0.52634937 156.99771 -0.49144071 156.73706 -17.598896 -112.0385
29950000000 -18.035528 -109.6869 -0.50743461 157.03642 -0.52236772 156.69341 -17.621416 -109.8912
29975000000 -17.917225 -109.05126 -0.49593055 156.88298 -0.48044857 156.68239 -17.750458 -110.42061
30000000000 -17.991667 -108.08965 -0.50058019 156.41963 -0.48694742 156.30305 -17.812437 -112.39526
30025000000 -18.081093 -110.65578 -0.53644532 156.30801 -0.49802727 156.23918 -17.578083 -111.70458
30050000000 -17.72843 -110.65762 -0.52924001 156.37628 -0.48933208 156.0295 -17.469177 -111.29131
30075000000 -17.924654 -108.7422 -0.5410201 156.07764 -0.49550885 155.78128 -17.582952 -110.77239
30100000000 -18.074497 -111.1588 -0.52404863 156.12099 -0.49293786 155.67664 -17.663088 -110.20781
30125000000 -17.790861 -109.97904 -0.49639687 155.7386 -0.4856981 155.5425 -17.790956 -111.41862
30150000000 -18.099648 -108.46932 -0.53319365 155.52052 -0.47478959 155.25699 -17.604725 -113.56759
30175000000 -18.232464 -112.46428 -0.55758244 155.54498 -0.50428456 155.09193 -17.342058 -111.17908
30200000000 -17.794855 -112.38156 -0.53215694 155.49133 -0.50705731 155.06969 -17.482506 -109.1524
30225000000 -17.947632 -110.32275 -0.52303576 155.20364 -0.47319943 154.8217 -17.845194 -111.13295
30250000000 -18.128578 -111.21194 -0.52107793 154.9353 -0.49956122 154.50652 -17.751352 -112.21338
30275000000 -17.982983 -111.72726 -0.52856058 154.78786 -0.49420947 154.53827 -17.536333 -111.49827
30300000000 -18.035671 -111.04465 -0.54927361 154.80063 -0.48344433 154.20119 -17.60964 -112.0005
30325000000 -18.201921 -112.34181 -0.55184817 154.63649 -0.51720786 154.08315 -17.475973 -110.28516
30350000000 -18.028538 -113.44106 -0.51689708 154.67409 -0.49018213 154.10295 -17.741608 -109.61888
30375000000 -17.910795 -110.62582 -0.48229572 154.09407 -0.47881505 153.71361 -18.078503 -112.73195
30400000000 -18.292233 -111.15018 -0.53991264 153.91634 -0.4955399 153.48509 -17.570257 -113.9202
30425000000 -18.06938 -113.56356 -0.53249341 154.26958 -0.5053075 153.46492 -17.265232 -109.93241
30450000000 -18.082712 -111.75261 -0.49212533 153.90781 -0.50346839 153.34995 -17.815565 -109.63245
30475000000 -18.354988 -113.65407 -0.50741637 153.57909 -0.48961607 153.09505 -17.922485 -112.22561
30500000000 -17.892941 -114.06997 -0.48576775 153.36682 -0.49946699 152.92409 -17.786043 -112.0844
30525000000 -17.891481 -110.406 -0.48733097 152.9814 -0.48725206 152.71309 -17.807865 -113.56126
30550000000 -18.462507 -111.99437 -0.53043896 153.01263 -0.4938525 152.37434 -17.502441 -113.35731
30575000000 -18.223284 -114.69846 -0.49668491 153.11795 -0.51740098 152.45862 -17.496904 -109.85485
30600000000 -18.155176 -112.77271 -0.4563477 152.68872 -0.47954294 152.37567 -18.211039 -111.6072
30625000000 -18.247942 -113.43597 -0.50110263 152.26884 -0.49793559 151.98453 -17.953127 -116.17055
30650000000 -17.971422 -114.35434 -0.5074957 152.06964 -0.51478821 151.85934 -17.431623 -113.51514
30675000000 -17.916826 -111.75997 -0.5152877 152.12503 -0.49810299 151.63933 -17.704908 -112.44582
30700000000 -18.56308 -112.07866 -0.4950332 152.00639 -0.52140886 151.39119 -17.72427 -113.76915
30725000000 -18.447609 -116.67051 -0.48495278 151.69402 -0.50078338 151.45421 -17.676094 -112.24268
30750000000 -17.828377 -114.82769 -0.49608588 151.32014 -0.48618284 151.20331 -18.067329 -114.62846
30775000000 -18.08581 -112.97623 -0.51801687 151.07608 -0.52167249 150.95071 -17.601019 -117.98451
30800000000 -17.965515 -115.82732 -0.56012082 151.10991 -0.52300513 150.86765 -17.115667 -112.96492
30825000000 -17.830734 -111.87383 -0.49699038 151.14146 -0.51863819 150.68573 -17.826429 -111.57937
30850000000 -18.812574 -112.41068 -0.4913114 150.653 -0.49841863 150.53302 -17.929298 -116.58607
30875000000 -18.289618 -120.54459 -0.56076843 150.47481 -0.50627983 150.34381 -17.424538 -115.35055
30900000000 -17.259703 -115.58881 -0.53744066 150.0811 -0.53241235 150.09103 -17.664835 -114.55058
30925000000 -18.195255 -110.48703 -0.59241205 150.11798 -0.53785336 149.92735 -17.432302 -116.33382
30950000000 -18.585569 -118.05508 -0.56789052 150.39063 -0.5267784 149.79213 -17.143997 -112.67937
30975000000 -17.597555 -116.76355 -0.5168367 149.77928 -0.51728135 149.66756 -17.946209 -112.43981
31000000000 -18.366243 -111.51241 -0.5487808 149.60175 -0.50948268 149.48796 -17.798098 -119.2687
31025000000 -18.771215 -123.72184 -0.61981803 149.55396 -0.51871794 149.40979 -16.844477 -115.55092
31050000000 -16.25445 -123.56538 -0.6602093 149.42343 -0.54376048 149.36813 -17.303291 -111.22176
31075000000 -16.300009 -106.46481 -0.52913004 149.3777 -0.56316584 149.25449 -17.778467 -115.66646
31100000000 -20.201588 -104.38481 -0.51850003 149.15845 -0.49429727 148.8781 -17.210377 -115.32359
31125000000 -20.034248 -139.41795 -0.62660575 149.185 -0.45430329 148.50504 -17.757736 -113.03596
31150000000 -16.561314 -133.48865 -0.64187789 148.40511 -0.49777618 148.5714 -17.604734 -117.21008
31175000000 -16.149088 -115.81851 -0.65361154 148.46381 -0.5524559 148.48019 -16.63106 -115.60571
31200000000 -17.868073 -102.26954 -0.63247252 148.98341 -0.64628929 148.0119 -17.425331 -108.3995
31225000000 -20.818371 -111.16513 -0.59505218 148.61473 -0.601376 148.04123 -18.253506 -117.19872
31250000000 -18.453758 -131.98564 -0.65174025 148.29039 -0.54841137 148.05151 -17.092281 -118.94981
31275000000 -15.857943 -117.11501 -0.67474109 147.9389 -0.6661731 148.04633 -17.170839 -108.35095
31300000000 -17.27681 -98.297485 -0.69159955 148.32394 -0.67119002 147.88025 -18.205032 -113.17897
31325000000 -20.913359 -122.51685 -0.62583005 148.63866 -0.56093824 147.59029 -17.382881 -120.21877
31350000000 -16.142603 -128.72253 -0.6257953 147.9369 -0.54854399 147.68585 -16.823353 -111.67616
31375000000 -15.838947 -100.85905 -0.58929139 147.95972 -0.61016607 147.43179 -17.994886 -109.54217
31400000000 -24.159695 -110.49792 -0.56127024 148.07791 -0.53028321 147.07018 -17.954433 -117.54235
31425000000 -14.460904 -150.87007 -0.70190275 148.16843 -0.45515618 147.73883 -17.006041 -115.44734
31450000000 -11.102368 -108.96189 -0.40795663 147.80521 -0.45819917 149.15422 -17.233072 -115.0174
31475000000 -14.851452 -47.983192 -0.22777379 147.84961 -0.38006696 148.55383 -18.023123 -113.7665
31500000000 -16.605991 111.53573 -0.55667651 149.46623 -0.14279571 147.77303 -17.899906 -109.94102
31525000000 -8.9393368 -176.6302 -0.63354999 147.30383 0.095691875 146.87721 -17.733826 -116.1273
31550000000 -9.2827969 -117.4555 -0.52765423 144.29919 -0.21233144 145.65704 -17.193787 -116.72766
31575000000 -14.526946 -56.85173 -0.25023252 146.28532 -0.51186639 144.17152 -17.176071 -112.91348
31600000000 -26.175125 139.03847 -0.44958919 147.17073 -0.61817694 144.20221 -18.482599 -115.17247
31625000000 -13.993454 -147.16054 -0.65455526 145.12259 -0.55953431 144.603 -17.909607 -121.83021
31650000000 -14.104699 -98.5317 -0.48243046 144.2368 -0.66002232 144.01718 -17.326712 -118.83375
31675000000 -22.712065 -85.713898 -0.40278712 145.64003 -0.69605142 144.53818 -17.903805 -114.33565
31700000000 -18.763857 -143.83473 -0.56067449 145.62137 -0.54017687 144.86032 -18.149643 -118.43832
31725000000 -16.026659 -117.60802 -0.50606203 144.53391 -0.54531813 144.35612 -17.73806 -117.52238
31750000000 -19.208715 -106.35815 -0.44825429 144.55524 -0.58289957 144.57298 -18.203753 -116.00719
31775000000 -18.725891 -129.49442 -0.54303539 144.8082 -0.49593243 144.44995 -17.890772 -120.49713
31800000000 -16.790955 -118.27384 -0.56004429 144.11259 -0.54710233 143.95535 -17.357653 -116.88789
31825000000 -19.013208 -109.99744 -0.52767438 144.3564 -0.58198339 144.12677 -17.973959 -113.30116
31850000000 -19.222448 -128.9366 -0.47075519 144.36957 -0.5070709 144.00554 -18.38629 -119.70361
31875000000 -16.830105 -123.13842 -0.58340156 143.19421 -0.53655052 143.46825 -17.544802 -120.7073
31900000000 -17.806292 -111.55631 -0.57580501 143.58578 -0.59259194 143.44859 -17.67244 -115.04719
31925000000 -19.112818 -121.33812 -0.49886438 143.67348 -0.51655501 143.55336 -17.997358 -118.81639
31950000000 -17.795479 -122.54069 -0.57998455 143.33047 -0.49694487 143.05952 -17.535862 -118.91324
31975000000 -18.495457 -116.79554 -0.52170724 143.19987 -0.55345929 142.86334 -17.814972 -115.10475
32000000000 -18.769936 -125.43414 -0.5136857 142.88368 -0.49775672 142.97752 -18.090776 -119.58954
32025000000 -17.33453 -124.13692 -0.63644773 142.74457 -0.50814205 142.48732 -17.430597 -120.88239
32050000000 -17.92029 -116.30922 -0.57858908 142.71443 -0.58822036 142.52318 -17.310286 -114.15563
32075000000 -18.913042 -122.54053 -0.55011261 142.63634 -0.50693864 142.55428 -18.061104 -116.7686
32100000000 -18.072214 -124.12498 -0.58000046 142.40422 -0.48918658 141.88228 -17.802835 -120.14835
32125000000 -18.303659 -120.15312 -0.60701734 141.9041 -0.56617486 141.8221 -17.505445 -115.6081
32150000000 -18.481913 -125.49046 -0.60311759 142.20125 -0.52076447 141.89767 -17.763878 -118.25932
32175000000 -17.486294 -125.16356 -0.60721034 142.01501 -0.5042932 141.56529 -17.415785 -119.72934
32200000000 -17.825573 -117.61269 -0.64274305 142.10403 -0.56722277 141.5296 -17.253757 -114.11122
32225000000 -19.146698 -122.28879 -0.54365849 142.01564 -0.53026766 141.46706 -18.147964 -116.259
32250000000 -18.214876 -128.5463 -0.57828808 141.38492 -0.49376154 141.10864 -17.700903 -120.79317
32275000000 -17.645864 -123.45991 -0.69097924 141.61786 -0.55332226 141.01846 -17.107647 -115.03832
32300000000 -18.279757 -124.44617 -0.55716628 141.65819 -0.52791071 141.12999 -17.696398 -116.11327
32325000000 -17.841383 -125.65397 -0.57594353 141.08325 -0.45563263 140.63983 -17.813868 -119.42654
32350000000 -18.027344 -119.66904 -0.59493184 141.36909 -0.52222538 140.14 -17.520998 -114.6428
32375000000 -19.013916 -123.26367 -0.50571805 140.93968 -0.53682119 140.3837 -18.139671 -115.91422
32400000000 -18.170248 -128.55447 -0.59018141 140.58116 -0.47930622 139.98926 -17.889828 -121.07899
32425000000 -17.721043 -123.70104 -0.59752256 140.84943 -0.54313719 139.88193 -17.126392 -115.95816
32450000000 -18.309685 -124.533 -0.54704762 140.68141 -0.51268071 140.12718 -17.992825 -114.41501
32475000000 -18.063534 -124.17677 -0.52438182 140.29927 -0.46210438 139.37328 -18.435066 -119.38333
32500000000 -18.144653 -119.73477 -0.5293721 140.0302 -0.53785592 139.03456 -17.525101 -117.10535
32525000000 -19.111326 -123.20291 -0.55263537 140.12578 -0.54357827 139.36987 -17.990984 -114.46712
32550000000 -18.451942 -129.37727 -0.50321043 139.82471 -0.5056991 139.06891 -18.411251 -119.66397
32575000000 -17.569269 -124.06252 -0.52786291 139.5401 -0.50788057 138.78812 -17.609531 -118.41128
32600000000 -18.413015 -120.17393 -0.48823792 139.70255 -0.50710475 138.9386 -18.181194 -114.50937
32625000000 -18.724606 -123.56043 -0.43404835 139.14742 -0.46483028 138.57043 -18.662766 -118.90201
32650000000 -18.181505 -122.36349 -0.52916908 138.7251 -0.51145458 137.89766 -17.73554 -119.62334
32675000000 -18.945223 -121.97609 -0.47652295 138.95631 -0.54642957 138.22672 -17.950108 -115.65139
32700000000 -18.633881 -128.03651 -0.46292788 138.51176 -0.48037893 138.13458 -18.683926 -119.29465
32725000000 -17.680473 -122.34422 -0.4786725 138.11343 -0.49201202 137.26616 -17.890574 -120.13653
32750000000 -18.769903 -117.44347 -0.42004582 138.11592 -0.53720897 137.6156 -18.230476 -115.35107
32775000000 -19.209999 -123.94353 -0.4490374 137.59734 -0.46858099 137.51801 -18.802689 -120.08863
32800000000 -18.348522 -124.16481 -0.52363312 137.39667 -0.52792078 136.77049 -17.795553 -122.36565
32825000000 -18.950405 -121.65675 -0.49300519 137.42169 -0.55633283 137.11455 -17.773827 -115.72458
32850000000 -19.057232 -126.16633 -0.47534016 137.1839 -0.48855171 137.03961 -18.890884 -118.5132
32875000000 -18.130873 -124.26748 -0.47544342 136.73193 -0.49238968 136.36311 -18.031483 -123.06485
32900000000 -18.598326 -119.39819 -0.51506573 136.37141 -0.5438782 136.13382 -17.920404 -117.29829
32925000000 -19.381496 -122.63194 -0.48146182 136.52231 -0.50865173 136.34323 -18.678043 -119.16262
32950000000 -18.835791 -125.47254 -0.51333785 136.01765 -0.5005554 135.87537 -17.973906 -123.59326
32975000000 -19.010059 -122.96406 -0.5829367 136.0378 -0.55571109 135.63646 -17.814131 -116.74731
33000000000 -19.263206 -125.97641 -0.47100925 135.96747 -0.51191902 135.85684 -18.782328 -118.57356
33025000000 -18.375278 -125.76546 -0.56652117 135.17218 -0.50380576 135.28499 -18.118727 -125.284
33050000000 -19.079062 -118.54993 -0.64672446 135.45203 -0.58731258 134.80855 -17.598339 -117.51373
33075000000 -20.172606 -126.01733 -0.53447521 135.55402 -0.56741214 135.1893 -18.299833 -116.90891
33100000000 -19.023937 -131.24135 -0.60639113 135.03127 -0.51485115 134.88455 -18.234764 -122.22661
33125000000 -18.786489 -125.26781 -0.61782986 135.04628 -0.57831943 134.56754 -17.802601 -117.16661
33150000000 -19.395622 -126.39967 -0.58279377 134.73549 -0.55085784 134.68846 -18.540857 -117.83057
33175000000 -18.731228 -128.44254 -0.6254701 134.57643 -0.51717061 134.26308 -18.144354 -123.88227
33200000000 -19.057175 -122.08956 -0.67713112 134.77425 -0.61657566 133.96352 -17.277924 -115.73306
33225000000 -20.191561 -125.75551 -0.63247877 134.6391 -0.60462564 134.0416 -18.230606 -113.82201
33250000000 -19.369846 -133.47914 -0.59347981 134.24043 -0.53431338 133.84595 -18.498119 -121.65579
33275000000 -18.541464 -128.31238 -0.70041829 133.99054 -0.59868032 133.61751 -17.579914 -117.54333
33300000000 -19.113604 -124.71088 -0.67746925 134.19334 -0.6046415 133.56233 -17.942755 -114.90199
33325000000 -19.446306 -127.17045 -0.62624192 133.90894 -0.55278248 133.26094 -18.119905 -119.30296
33350000000 -19.514486 -126.13232 -0.70820004 134.03699 -0.61672229 132.89912 -17.364235 -114.42645
33375000000 -19.970379 -129.69861 -0.6280843 133.8414 -0.63919282 132.97807 -18.136423 -112.94216
33400000000 -18.954687 -134.31194 -0.65136433 133.20525 -0.58272815 132.86157 -18.410923 -119.72889
33425000000 -18.140955 -127.20883 -0.73865533 133.30594 -0.6297453 132.61845 -17.335663 -116.60075
33450000000 -18.906008 -123.09897 -0.67145503 133.58116 -0.67025763 132.83276 -17.584358 -111.7943
33475000000 -19.376877 -125.31974 -0.64322311 133.10387 -0.60567737 132.46292 -18.442471 -115.70316
33500000000 -19.121557 -124.31704 -0.68278825 132.91693 -0.6467039 131.94815 -17.598053 -116.05094
33525000000 -19.385426 -125.69406 -0.68159038 132.9346 -0.69538617 132.23497 -17.634602 -113.42973
33550000000 -18.67503 -129.92424 -0.69753486 132.58081 -0.63297719 132.14799 -18.043491 -117.91173
33575000000 -17.853897 -124.66933 -0.68508381 132.73183 -0.64040697 131.94055 -17.188911 -116.51232
33600000000 -18.486601 -119.07603 -0.67427528 132.89482 -0.68603331 131.99326 -17.516529 -111.20472
33625000000 -19.339329 -122.67348 -0.60333496 132.4897 -0.64717603 131.76559 -18.386381 -116.23576
33650000000 -18.709284 -125.67139 -0.6649366 132.00751 -0.65655589 131.46149 -17.42975 -119.19479
33675000000 -18.501955 -124.63917 -0.70910621 132.09331 -0.69094861 131.52576 -17.221516 -114.63119
33700000000 -18.390963 -126.38238 -0.63825798 132.1367 -0.6379599 131.58287 -17.987185 -116.84588
33725000000 -17.842676 -123.06287 -0.61788106 131.72952 -0.61654145 131.06471 -17.481056 -117.58552
33750000000 -18.323063 -118.38885 -0.62224895 131.53145 -0.69484138 130.8631 -17.539892 -114.30676
33775000000 -19.111761 -122.59331 -0.59378171 131.51552 -0.6696552 131.16071 -18.12236 -118.6041
33800000000 -18.365019 -126.58878 -0.68030983 130.90549 -0.64137965 130.73311 -17.251066 -121.34097
33825000000 -18.039042 -124.36029 -0.67550039 131.37505 -0.67179346 130.84448 -17.03738 -116.07059
33850000000 -18.2694 -123.75875 -0.58711094 131.19725 -0.60938287 130.87263 -18.099152 -117.29098
33875000000 -17.972013 -123.32849 -0.60658085 130.41342 -0.5917412 130.15236 -17.545151 -122.8937
33900000000 -18.36614 -122.02563 -0.65693849 130.34686 -0.67689115 129.93874 -17.149618 -119.09147
33925000000 -18.7176 -126.52404 -0.6410917 130.53651 -0.65861559 130.24962 -17.571018 -120.30518
33950000000 -18.064455 -129.23372 -0.64223254 130.18513 -0.58943444 130.07736 -17.245867 -123.63435
33975000000 -17.889927 -126.04182 -0.66044003 130.26151 -0.6194545 129.72382 -17.145817 -119.23654
34000000000 -18.293013 -125.94581 -0.58443511 129.91502 -0.59172064 129.7556 -17.951475 -120.53119
34025000000 -18.104223 -126.20485 -0.60506034 129.58736 -0.5608409 129.29031 -17.470432 -126.19471
34050000000 -18.755829 -123.65637 -0.73754722 129.47913 -0.66636968 128.87091 -16.914858 -120.67652
34075000000 -19.36178 -131.10576 -0.64721286 129.87822 -0.64732981 129.27751 -17.388346 -121.11394
34100000000 -18.257158 -135.7202 -0.60225278 129.28693 -0.55033189 129.02361 -17.645302 -124.80738
34125000000 -17.711521 -129.03192 -0.6861704 128.95639 -0.59217811 128.37877 -17.399521 -121.82526
34150000000 -18.569866 -125.90456 -0.60528314 129.18558 -0.62610734 128.54836 -17.667051 -121.41727
34175000000 -18.922308 -130.35831 -0.61812472 128.80484 -0.57228297 128.40938 -17.555101 -125.89189
34200000000 -18.857691 -131.09885 -0.71151352 128.88591 -0.60570097 128.08424 -16.949141 -121.93736
34225000000 -19.010099 -133.65767 -0.62514758 129.06783 -0.60310125 128.21263 -17.665033 -120.98414
34250000000 -18.473923 -135.86058 -0.58853811 128.11853 -0.52687168 127.81127 -18.158276 -125.51347
34275000000 -18.066633 -130.45889 -0.68131882 128.17378 -0.58620161 127.26726 -17.363228 -123.283
34300000000 -18.882839 -127.72857 -0.6576764 128.39894 -0.65898484 127.48218 -17.268608 -120.17484
34325000000 -19.541733 -134.54811 -0.60458791 127.99865 -0.57541084 127.42038 -17.957878 -123.7952
34350000000 -18.809679 -136.76593 -0.64799297 128.06458 -0.57096785 126.97666 -17.524939 -122.80997
34375000000 -18.632954 -134.92787 -0.62591386 127.77664 -0.58711094 127.00436 -17.825981 -120.96864
34400000000 -18.529308 -135.56662 -0.58679283 127.34322 -0.5484634 126.68942 -18.255871 -124.29658
34425000000 -18.201191 -132.79832 -0.65599883 127.45045 -0.59398729 126.43655 -17.403105 -122.78254
34450000000 -18.803757 -131.89104 -0.63248378 127.49152 -0.6175819 126.56102 -17.554678 -119.27962
34475000000 -19.044668 -136.38628 -0.56504923 127.08035 -0.57605296 126.31802 -18.578861 -122.31085
34500000000 -18.364775 -135.12605 -0.61532897 126.66623 -0.55966872 125.84633 -17.992382 -123.91538
34525000000 -18.580162 -133.31262 -0.60772961 126.73374 -0.6006062 125.885 -17.81246 -119.80991
34550000000 -18.580959 -135.23822 -0.59661216 126.46571 -0.57149708 125.7534 -18.558964 -121.40669
34575000000 -18.059189 -132.35495 -0.59183061 126.17886 -0.57025516 125.25301 -18.054041 -122.47626
34600000000 -18.557318 -129.16112 -0.60371226 126.4241 -0.62628615 125.47271 -17.921396 -118.72209
34625000000 -19.13833 -132.69371 -0.55899173 125.96601 -0.60114205 125.35926 -19.027431 -120.73013
34650000000 -18.108036 -133.76501 -0.57728481 125.3219 -0.57016671 124.77158 -18.247705 -124.57459
34675000000 -17.898922 -129.16179 -0.62707126 125.85132 -0.60461074 125 -17.677731 -119.31222
34700000000 -18.724192 -128.11464 -0.557504 125.64233 -0.57686979 124.97727 -18.845825 -116.96862
34725000000 -18.278389 -129.18802 -0.54174101 124.98602 -0.57220936 124.28123 -18.611788 -121.50762
34750000000 -18.137972 -126.3215 -0.60355961 125.00854 -0.63156497 124.23166 -17.959547 -119.41029
34775000000 -18.775528 -127.16747 -0.55220997 125.02379 -0.62100738 124.50685 -18.808352 -118.14472
34800000000 -18.179453 -128.79533 -0.55174637 124.44143 -0.56897962 124.05002 -18.624146 -121.68491
34825000000 -17.751642 -126.06648 -0.58851969 124.36885 -0.59064156 123.65356 -17.878185 -118.50524
34850000000 -18.080788 -124.59418 -0.53903818 124.57193 -0.58114457 123.97572 -18.635727 -115.48812
34875000000 -17.690437 -123.33505 -0.51629704 123.69873 -0.57530171 123.33632 -18.555681 -121.63974
34900000000 -17.931362 -121.81458 -0.61949307 123.48646 -0.64411068 123.21163 -17.676672 -121.13531
34925000000 -18.556795 -124.08881 -0.58642608 124.21467 -0.61314124 123.71342 -18.341581 -117.06094
34950000000 -17.931395 -125.206 -0.51330143 123.25109 -0.52661812 123.08639 -18.613688 -119.13257
34975000000 -17.418125 -122.93099 -0.58841389 123.04662 -0.57742012 122.2807 -17.877605 -121.04782
35000000000 -17.945772 -120.13586 -0.55184376 123.31262 -0.63927174 122.73864 -18.147827 -117.89482
35025000000 -18.129215 -121.75272 -0.55419767 122.5953 -0.58421725 122.5943 -18.388933 -121.77312
35050000000 -18.05928 -121.75175 -0.61792755 122.77515 -0.61452246 122.27023 -17.74383 -121.85933
35075000000 -18.648046 -122.37013 -0.56138444 122.88548 -0.59453917 122.56898 -18.177698 -117.29769
35100000000 -17.90781 -127.17658 -0.56585497 122.03505 -0.53679389 121.80788 -18.459858 -121.58909
35125000000 -17.174564 -122.43467 -0.63879687 121.93892 -0.63691354 120.9944 -17.761013 -123.7561
35150000000 -18.115 -116.37468 -0.60186565 122.16402 -0.70045185 121.64641 -17.660601 -118.59464
35175000000 -19.129944 -121.98808 -0.59107327 122.08154 -0.62118328 121.93026 -18.379112 -120.16725
35200000000 -18.379805 -125.03691 -0.61392289 121.55646 -0.59038365 121.27856 -17.88896 -123.12032
35225000000 -18.414251 -123.58012 -0.61642206 121.87035 -0.60981524 121.19524 -17.780418 -119.45128
35250000000 -18.243284 -125.2847 -0.59087598 121.514 -0.5920307 120.91092 -18.15703 -121.21805
35275000000 -17.985437 -123.0313 -0.66431278 121.24534 -0.63866878 120.33247 -17.711946 -123.07313
35300000000 -18.626162 -120.30015 -0.61040115 121.79324 -0.70790166 120.7935 -17.603909 -120.02853
35325000000 -19.550226 -124.33794 -0.55201787 121.29122 -0.61875933 121.1135 -18.454477 -121.02252
35350000000 -18.747011 -130.34447 -0.61623073 120.58918 -0.57375139 120.23717 -17.988325 -124.94494
35375000000 -18.098118 -126.41161 -0.62240297 121.05195 -0.66361982 119.98126 -17.695213 -120.85752
35400000000 -18.644928 -123.4762 -0.55489761 120.87278 -0.6308313 120.13754 -18.194016 -121.48259
35425000000 -18.921478 -125.6571 -0.5845226 120.51351 -0.62363261 119.72544 -17.932894 -123.24708
35450000000 -18.970131 -125.82861 -0.57323086 120.48225 -0.66322088 119.84936 -17.973621 -120.59691
35475000000 -19.437071 -127.902 -0.53645843 120.22212 -0.60774881 119.86543 -18.648479 -122.08051
35500000000 -18.689278 -132.26587 -0.60858417 119.62507 -0.59599274 119.21396 -17.995733 -125.4584
35525000000 -18.163567 -128.92496 -0.59733152 119.98743 -0.65553343 119.01232 -17.603596 -119.85795
35550000000 -18.638838 -126.11686 -0.5103116 119.98632 -0.66402692 119.24496 -18.571428 -118.87774
35575000000 -18.903919 -126.28949 -0.53534979 119.19514 -0.61633313 118.99755 -18.566532 -123.70148
35600000000 -18.983725 -128.25902 -0.57612324 118.89304 -0.65310216 118.54932 -18.007359 -122.90402
35625000000 -18.792297 -130.80861 -0.58635217 119.15772 -0.65184891 118.77686 -18.314236 -120.51562
35650000000 -18.377062 -129.31384 -0.54311526 118.81446 -0.60230219 118.2998 -18.215719 -121.51875
35675000000 -18.302181 -128.26363 -0.55427176 118.64323 -0.67856091 118.01047 -18.099016 -119.56309
35700000000 -18.425062 -126.54102 -0.50355119 118.39186 -0.68026656 118.37898 -18.808352 -119.72034
35725000000 -18.516314 -127.1399 -0.56900519 117.87554 -0.63490665 118.07272 -18.330284 -124.89118
35750000000 -18.308735 -130.12631 -0.62220097 117.89491 -0.67388141 117.67073 -17.659855 -121.41579
35775000000 -18.010796 -128.77454 -0.52910584 118.07063 -0.65292281 117.92805 -18.372818 -116.46278
35800000000 -17.806385 -127.6652 -0.53215522 117.48285 -0.62168354 117.58626 -18.657616 -122.11149
35825000000 -17.61347 -126.84515 -0.60740626 117.01485 -0.6698128 117.12762 -17.875164 -124.1527
35850000000 -17.915991 -125.60143 -0.56204343 117.16818 -0.70599711 117.33646 -17.930174 -120.41209
35875000000 -18.120733 -127.25984 -0.59110206 117.02422 -0.63705075 117.50127 -18.1789 -122.4044
35900000000 -17.80007 -128.61038 -0.60106558 116.72828 -0.62482703 116.86491 -17.713135 -123.494
35925000000 -17.756327 -127.61099 -0.56364697 116.76284 -0.64694041 116.96027 -17.941189 -119.82637
35950000000 -17.614662 -126.9332 -0.53623456 116.23777 -0.57141393 116.64722 -18.210485 -123.66245
35975000000 -17.799007 -127.29259 -0.65816879 115.82719 -0.65604293 116.10569 -17.879778 -127.18733
36000000000 -17.861315 -127.24461 -0.65988284 116.36948 -0.70097119 116.43567 -17.512081 -122.30614
36025000000 -17.827513 -124.99654 -0.54437912 115.86381 -0.58235371 116.58536 -17.994326 -121.19859
36050000000 -18.062935 -126.16052 -0.63891858 115.5731 -0.56953162 115.83495 -18.046919 -125.34352
36075000000 -17.994865 -127.11967 -0.6336056 115.50041 -0.63543171 115.54726 -17.831341 -124.24665
36100000000 -17.901318 -125.84366 -0.62404269 115.29069 -0.61871642 115.52766 -17.866449 -124.83099
36125000000 -18.240252 -125.90211 -0.72402191 115.25077 -0.65312791 115.10119 -17.7209 -125.6898
36150000000 -18.289375 -125.32646 -0.67090285 115.46542 -0.67872953 115.35699 -17.506197 -122.5244
36175000000 -18.522823 -124.64448 -0.6019389 115.09281 -0.58524674 115.46824 -18.023653 -122.70174
36200000000 -18.690252 -128.32146 -0.69661748 114.71972 -0.55039608 114.76532 -18.05798 -128.37982
36225000000 -18.689798 -128.32468 -0.7267192 114.8294 -0.66268289 114.22433 -17.535812 -125.47069
36250000000 -18.600565 -127.28787 -0.6910494 115.21129 -0.68529588 114.69006 -17.523323 -123.23208
36275000000 -18.85302 -126.42922 -0.65145612 114.72367 -0.61748159 114.42412 -17.860634 -125.90733
36300000000 -19.377808 -126.9065 -0.69446188 114.66058 -0.64650202 114.27001 -17.667311 -125.2533
36325000000 -19.492393 -130.1368 -0.65475547 114.5209 -0.5913009 114.27145 -17.904776 -125.37501
36350000000 -19.439358 -131.48016 -0.6872226 114.31411 -0.57486147 113.78813 -17.942135 -128.35555
36375000000 -19.658499 -130.64487 -0.73124802 114.59676 -0.66435117 113.20251 -17.28406 -125.11488
36400000000 -19.655806 -132.13223 -0.62666363 114.53876 -0.69888258 113.81429 -17.599823 -123.19024
36425000000 -19.829889 -133.36292 -0.58662271 113.96356 -0.60205001 113.75742 -18.331089 -127.12598
36450000000 -19.926252 -134.5125 -0.68264949 113.72115 -0.61024773 113.18445 -17.809525 -129.25951
36475000000 -20.184519 -135.45721 -0.65523225 113.79544 -0.63028133 113.17647 -17.478987 -125.92361
36500000000 -20.387436 -139.94627 -0.63659072 113.82582 -0.60467851 112.92882 -17.925169 -125.99164
36525000000 -19.7764 -140.94774 -0.63659173 113.55639 -0.6388182 112.6216 -17.753311 -126.93078
36550000000 -19.811438 -137.86667 -0.57244509 113.27258 -0.68719107 112.84201 -17.978931 -125.4212
36575000000 -20.22307 -139.61298 -0.60911566 112.6792 -0.60171384 112.87187 -18.527126 -128.65952
36600000000 -20.130018 -142.43336 -0.67637467 112.75348 -0.59852242 112.28193 -17.837111 -130.75064
36625000000 -20.089952 -143.70816 -0.65252966 113.23936 -0.6557675 112.21567 -17.338472 -125.69932
36650000000 -19.843281 -146.60133 -0.54339331 112.63861 -0.60393232 112.25362 -18.397072 -125.29819
36675000000 -19.37381 -144.91388 -0.59074843 112.0423 -0.63089705 111.89355 -18.406412 -129.75615
36700000000 -19.575686 -141.8839 -0.61578214 112.03391 -0.66369301 112.02042 -17.859638 -128.17914
36725000000 -20.03443 -143.73224 -0.58270794 111.58344 -0.59174496 111.99164 -18.301306 -128.55377
36750000000 -19.853222 -148.76511 -0.65778643 111.68056 -0.58301312 111.37615 -18.071796 -130.66553
36775000000 -19.287359 -148.19597 -0.60930955 111.70502 -0.62570024 111.33669 -17.714735 -126.08656
36800000000 -19.268322 -146.34598 -0.50906068 111.04342 -0.5914793 111.3233 -18.900467 -125.38971
36825000000 -19.083504 -145.4931 -0.64995718 110.51255 -0.60776234 111.04444 -18.743256 -133.2375
36850000000 -19.238472 -142.80013 -0.69373715 110.89108 -0.64356142 111.09853 -17.438478 -130.6711
36875000000 -19.836205 -146.07751 -0.64161474 110.8193 -0.59447199 110.93479 -18.065634 -125.87005
36900000000 -19.227865 -150.46443 -0.60260803 110.41249 -0.56082398 110.3191 -18.827219 -128.7375
36925000000 -18.68475 -145.14912 -0.61244208 109.90551 -0.64282864 110.29038 -18.415913 -128.50275
36950000000 -19.001181 -142.53256 -0.65607697 109.76338 -0.61325729 110.44575 -18.432718 -128.08861
36975000000 -18.950546 -143.54005 -0.68694019 109.51524 -0.5817728 110.05355 -18.33725 -131.44142
37000000000 -18.99535 -140.58653 -0.73734564 109.91023 -0.62861663 109.92121 -17.738173 -127.0407
37025000000 -19.626833 -141.24501 -0.64861786 109.62106 -0.56887311 109.7668 -18.710514 -123.33762
37050000000 -19.168512 -144.84512 -0.64275569 108.92116 -0.56769872 109.14946 -19.198755 -130.12894
37075000000 -18.412708 -140.94443 -0.78432411 108.92999 -0.67841786 109.13427 -17.913193 -128.28857
37100000000 -18.54422 -135.53976 -0.75926858 109.08025 -0.66005278 109.46632 -17.859043 -124.08928
37125000000 -19.282007 -135.12445 -0.7471534 109.03195 -0.60874581 109.12547 -18.51545 -126.7812
37150000000 -19.229319 -136.28804 -0.76409024 109.04409 -0.62074643 108.67661 -17.963715 -126.32289
37175000000 -19.404375 -135.34669 -0.71309143 108.85958 -0.64554411 108.61088 -18.190884 -122.30698
37200000000 -19.244152 -139.49223 -0.77780032 108.63966 -0.63279361 108.35816 -18.625177 -128.25154
37225000000 -18.326159 -137.3295 -0.81558204 108.97549 -0.70588398 108.37709 -17.224669 -128.50357
37250000000 -18.672997 -132.35352 -0.7594955 109.27318 -0.7199899 108.86447 -17.284704 -123.44337
37275000000 -19.704378 -135.41728 -0.69990242 108.79633 -0.58152455 108.49968 -18.67775 -126.28925
37300000000 -19.268051 -138.81183 -0.71754307 108.38561 -0.5999921 107.69714 -17.99799 -130.46921
37325000000 -19.137199 -136.42549 -0.75687718 108.82714 -0.69659972 107.78405 -17.394096 -125.50373
37350000000 -19.502888 -138.23506 -0.67822754 108.65215 -0.63674349 107.76585 -18.210743 -128.198
37375000000 -19.194407 -138.13013 -0.70987087 108.42481 -0.6728217 107.61585 -17.607908 -130.82158
37400000000 -19.527863 -135.26741 -0.68434501 108.76643 -0.65229052 107.84505 -17.675949 -126.93929
37425000000 -20.563101 -138.14079 -0.5594818 107.97984 -0.56074691 107.47364 -18.936769 -128.42305
37450000000 -20.145018 -143.79018 -0.68785942 107.71616 -0.57841569 106.78831 -18.21192 -133.48439
37475000000 -19.608002 -139.83791 -0.66763294 108.25648 -0.68647593 106.90643 -17.278633 -128.53827
37500000000 -20.595613 -140.28894 -0.56479752 107.86643 -0.64467239 107.11755 -18.566088 -128.76724
37525000000 -20.354616 -145.92451 -0.60978526 107.28442 -0.56857157 106.70412 -18.540339 -133.88078
37550000000 -19.996748 -141.3761 -0.57039332 107.38191 -0.61998844 106.57104 -18.009809 -130.68668
37575000000 -21.394779 -141.16736 -0.54508865 106.95132 -0.57466936 106.41892 -18.965107 -130.50757
37600000000 -21.455629 -151.35353 -0.60173368 106.8109 -0.54593295 105.87045 -18.497181 -135.56279
37625000000 -20.527554 -151.73151 -0.55831861 106.90284 -0.62996262 105.95142 -17.750673 -131.45436
37650000000 -20.74626 -151.5674 -0.53451306 106.48692 -0.58793211 106.10654 -19.146301 -129.03525
37675000000 -20.358866 -152.74443 -0.5218575 105.91471 -0.54884487 105.69541 -19.271635 -137.03069
37700000000 -20.202858 -149.13919 -0.60090834 105.89214 -0.59156269 105.58499 -18.120918 -134.29579
37725000000 -21.252132 -150.65556 -0.5510388 105.80857 -0.56506652 105.41571 -18.881062 -130.47466
37750000000 -20.92668 -160.40436 -0.54560626 105.59803 -0.53886312 105.06026 -19.123724 -136.1156
37775000000 -19.513632 -157.85924 -0.56377065 105.32597 -0.57029074 105.07147 -18.287703 -133.8398
37800000000 -19.856768 -150.52354 -0.5273543 105.0171 -0.56930494 105.26731 -19.173248 -130.45221
37825000000 -20.596174 -153.27922 -0.52568066 104.62402 -0.51737434 104.855 -19.516846 -138.60959
37850000000 -20.12641 -156.57213 -0.64313263 104.72506 -0.54771107 104.53595 -18.154736 -136.545
37875000000 -20.398621 -155.87926 -0.53599787 104.83465 -0.54937065 104.51068 -18.792307 -130.5901
37900000000 -20.275501 -162.27049 -0.53090042 104.14766 -0.51242292 104.18575 -19.758057 -135.40372
37925000000 -18.767927 -160.36626 -0.5797143 103.98208 -0.51956564 104.2094 -18.688774 -137.20137
37950000000 -18.846815 -151.44461 -0.58448493 103.85253 -0.51439548 104.40537 -18.860846 -132.57262
37975000000 -19.945982 -150.78812 -0.56607133 103.52399 -0.45325235 103.95894 -19.623989 -137.89572
38000000000 -20.042479 -155.34822 -0.6121763 103.60336 -0.50281888 103.44115 -18.652042 -137.24176
38025000000 -19.751682 -156.74013 -0.59951699 103.58012 -0.52009952 103.40965 -18.872955 -129.91086
38050000000 -19.424469 -156.72682 -0.5317266 103.03944 -0.4757317 103.22089 -20.160709 -135.41293
38075000000 -18.821733 -153.84805 -0.61174822 102.77631 -0.4964464 103.17973 -18.848265 -139.46887
38100000000 -19.132669 -149.09402 -0.69088143 103.15211 -0.4816542 103.28091 -18.591299 -132.64162
38125000000 -20.293756 -148.68512 -0.54723322 103.02949 -0.41718712 102.7066 -20.310575 -133.01997
38150000000 -20.143061 -153.31871 -0.61400735 102.35286 -0.46858072 102.0271 -19.427027 -137.31718
38175000000 -19.53932 -152.61925 -0.6385296 102.91232 -0.53590083 102.2822 -18.805204 -130.15356
38200000000 -19.529276 -150.92307 -0.53078914 102.31062 -0.46346563 102.26703 -20.424641 -132.31868
38225000000 -19.201912 -147.80153 -0.62713367 101.86669 -0.4351894 101.90985 -19.459074 -139.69804
38250000000 -20.005306 -142.36942 -0.64479077 102.66551 -0.47715473 101.89706 -18.873585 -130.90779
38275000000 -21.166119 -146.62001 -0.52158517 102.18102 -0.41419131 101.44823 -20.807997 -127.48228
38300000000 -20.110128 -150.23299 -0.56338251 101.40311 -0.4640989 100.60159 -20.299503 -138.1136
38325000000 -19.741924 -143.64041 -0.62831873 101.9612 -0.58551276 101.16399 -18.718618 -131.55194
38350000000 -20.928753 -141.9003 -0.55107087 101.66415 -0.4772988 101.31961 -20.536257 -129.31235
38375000000 -20.796 -143.64645 -0.56408888 101.2145 -0.42319041 100.5335 -20.460066 -137.75812
38400000000 -21.186453 -138.14165 -0.54544419 101.91164 -0.47672457 100.33939 -19.090124 -130.04646
38425000000 -22.831791 -140.97913 -0.44758734 101.2313 -0.46306175 100.21142 -20.738176 -123.06392
38450000000 -21.720152 -150.95427 -0.49890703 100.53744 -0.48650742 99.594231 -21.118361 -137.31091
38475000000 -20.583679 -143.06239 -0.55882382 100.81625 -0.58400923 99.932007 -18.963434 -134.65799
38500000000 -22.235371 -137.29848 -0.50232416 100.83228 -0.51139015 100.28102 -20.438347 -126.12617
38525000000 -22.936821 -143.90152 -0.45535341 100.16388 -0.4205772 99.359283 -21.454693 -133.4463
38550000000 -22.394062 -140.3829 -0.49774244 100.00611 -0.5152415 98.714684 -19.629871 -132.64026
38575000000 -24.266243 -140.33284 -0.43863928 100.15711 -0.55122668 98.949112 -20.648273 -125.56627
38600000000 -23.647682 -157.21088 -0.44768208 99.099869 -0.49295717 98.75769 -21.742945 -137.19826
38625000000 -21.644852 -147.77818 -0.57038575 99.507378 -0.56983924 98.831741 -19.387297 -136.48004
38650000000 -23.882853 -137.09773 -0.43308204 99.65876 -0.53198498 99.12484 -20.496435 -124.782
38675000000 -25.595186 -152.64452 -0.41925505 98.418816 -0.44261304 98.327637 -22.341333 -130.78647
38700000000 -23.759836 -155.75754 -0.51896411 98.605164 -0.53038013 97.720322 -20.431763 -137.43448
38725000000 -24.428061 -154.36227 -0.48628214 98.358376 -0.5732857 97.945686 -20.353891 -128.8033
38750000000 -23.805235 -165.25119 -0.50937515 98.046646 -0.51119292 97.907921 -21.684202 -134.02956
38775000000 -22.24799 -158.94676 -0.51690251 98.001587 -0.51606524 97.829102 -20.332981 -136.20808
38800000000 -23.520227 -147.97983 -0.51842308 97.690186 -0.52583861 97.732376 -20.815491 -125.53918
38825000000 -25.360203 -161.02737 -0.46858403 97.500786 -0.48677725 97.315536 -22.559761 -134.45071
38850000000 -23.668932 -168.42577 -0.5733757 96.925301 -0.51102513 96.98584 -20.352945 -138.65691
38875000000 -23.573353 -164.52483 -0.66100323 97.480194 -0.57202262 97.064758 -19.705618 -127.90673
38900000000 -23.27936 -173.39804 -0.50377959 97.1306 -0.49643379 96.922722 -22.29665 -130.91739
38925000000 -21.636841 -165.22423 -0.5771693 96.295265 -0.48373821 96.743118 -20.8321 -137.50574
38950000000 -23.266403 -154.65916 -0.64556831 96.865242 -0.54529232 96.723938 -20.335276 -128.21381
38975000000 -24.653326 -176.14345 -0.5558731 96.265381 -0.48961204 96.315254 -22.29261 -132.8024
39000000000 -21.307528 -177.63728 -0.67591667 96.446449 -0.48798108 96.313377 -20.008509 -138.80499
39025000000 -21.434216 -165.73711 -0.67187357 97.060394 -0.50830698 96.594803 -19.555189 -128.37666
39050000000 -22.241314 -168.63567 -0.5651893 95.89341 -0.44473556 96.045647 -22.509106 -126.12861
39075000000 -20.899685 -167.71811 -0.66449809 95.68853 -0.42544299 95.711746 -21.213326 -141.06322
39100000000 -21.610651 -156.91891 -0.71611387 96.432877 -0.4915269 95.780739 -19.777067 -129.38608
39125000000 -23.985056 -167.30592 -0.60905844 95.960304 -0.49309355 95.451088 -21.79579 -125.92255
39150000000 -21.610497 179.91768 -0.66794848 95.760963 -0.44744724 95.053093 -20.999094 -136.2925
39175000000 -20.210567 -169.25702 -0.66268939 96.199051 -0.45385054 95.375877 -19.938917 -126.21534
39200000000 -21.477642 -161.28406 -0.61391288 95.418877 -0.3993853 95.024948 -22.775875 -122.17295
39225000000 -21.652887 -161.21239 -0.6442194 95.03373 -0.39083514 94.338554 -21.830688 -138.52002
39250000000 -21.8309 -157.70706 -0.7415933 96.264267 -0.51244867 94.745018 -19.134865 -125.81181
39275000000 -23.8524 -163.65361 -0.61211389 96.071991 -0.4936429 94.52964 -22.05088 -114.46185
39300000000 -21.536173 -173.4194 -0.56484848 94.54953 -0.44827375 93.776024 -22.687841 -128.66121
39325000000 -19.940424 -160.6805 -0.69847131 95.446587 -0.44168276 94.32991 -20.323715 -127.34496
39350000000 -21.846384 -145.61574 -0.5917576 95.573021 -0.39462283 94.223862 -22.36204 -114.74632
39375000000 -23.18615 -147.75827 -0.56365156 94.620445 -0.38734278 93.234795 -22.605619 -124.16541
39400000000 -23.683933 -153.53345 -0.59540743 95.663757 -0.48091233 93.309364 -20.115599 -120.59192
39425000000 -23.932383 -161.10104 -0.45222905 95.139244 -0.47440687 93.369881 -22.022753 -107.6361
39450000000 -21.68025 -162.14857 -0.51894939 93.603394 -0.44429681 92.647156 -23.159336 -121.78625
39475000000 -21.038067 -147.4364 -0.56232268 94.777794 -0.45139343 92.896317 -20.760912 -123.17805
39500000000 -23.456219 -133.4382 -0.45939946 94.545906 -0.43771654 93.072739 -21.711807 -105.89153
39525000000 -25.68438 -143.21391 -0.48050895 94.018021 -0.43693832 92.028488 -22.964354 -112.58498
39550000000 -24.268015 -155.17439 -0.40015876 93.646606 -0.52507669 91.833755 -20.822893 -119.21931
39575000000 -23.802326 -152.52583 -0.43334547 93.29435 -0.53902 92.253838 -22.094755 -108.37534
39600000000 -22.908428 -151.54021 -0.456815 92.79348 -0.47069141 91.799408 -23.722607 -119.83462
39625000000 -22.196058 -138.13492 -0.44212881 92.901939 -0.4725827 91.654213 -20.709309 -121.22433
39650000000 -25.269148 -119.44146 -0.38010907 93.478783 -0.50416517 91.855278 -21.047707 -102.10452
39675000000 -29.222364 -150.00761 -0.3186399 92.066788 -0.49754745 91.190193 -23.677301 -108.73666
39700000000 -24.349403 -161.18945 -0.4667705 91.175537 -0.56243807 90.827164 -21.865053 -125.72215
39725000000 -24.025726 -146.7627 -0.49472016 92.033653 -0.55653071 91.381538 -21.456457 -114.56087
39750000000 -24.877811 -143.04491 -0.37270781 91.205719 -0.48850745 90.9823 -23.087694 -110.03947
39775000000 -24.671911 -139.55322 -0.50359219 91.041618 -0.50770545 90.40155 -21.774866 -120.93366
39800000000 -27.241518 -132.87331 -0.38267404 91.172867 -0.53898925 90.293381 -21.446781 -110.15332
39825000000 -28.657833 -165.3098 -0.43587586 89.915787 -0.56603688 90.085815 -23.740543 -114.6565
39850000000 -24.074701 -169.83313 -0.59890014 90.409401 -0.54880589 90.094124 -21.485849 -129.37349
39875000000 -23.555834 -152.52216 -0.52852482 90.598244 -0.53952646 90.379868 -20.726137 -115.08178
39900000000 -25.514297 -143.64815 -0.4805617 90.043953 -0.50924337 90.151031 -22.836651 -107.42186
39925000000 -26.078251 -154.26932 -0.54412729 89.337891 -0.52081466 89.346687 -22.362642 -125.12912
39950000000 -25.866358 -156.43933 -0.64307171 89.382446 -0.6128248 89.266052 -20.733894 -118.26048
39975000000 -25.831503 -172.02399 -0.61844504 89.853889 -0.57869059 89.349358 -22.164734 -117.65949
40000000000 -22.909056 -171.85924 -0.58799297 89.232109 -0.52031964 89.17659 -21.453938 -125.10233
40025000000 -22.482466 -157.09064 -0.7157433 89.7005 -0.52297825 89.392899 -20.560392 -118.00397
40050000000 -24.60968 -153.05893 -0.58535242 89.553932 -0.50339657 88.987335 -22.256205 -110.67988
40075000000 -24.081245 -166.1013 -0.67997926 88.485573 -0.56238174 88.507126 -21.600229 -126.10025
40100000000 -23.278633 -166.70334 -0.80789083 90.089653 -0.59965658 88.899727 -19.559488 -123.4204
40125000000 -23.121971 -171.29247 -0.64107323 89.767647 -0.53931242 88.73233 -21.22698 -114.0413
40150000000 -21.045235 -169.96101 -0.6943996 88.963112 -0.46977401 88.194427 -21.679979 -121.0193
40175000000 -20.730448 -154.86418 -0.70188874 89.913101 -0.48365927 88.273399 -20.72221 -116.69379
40200000000 -22.993118 -149.35161 -0.60665005 89.331467 -0.50978583 88.433365 -21.283844 -112.57788
40225000000 -23.478773 -169.4151 -0.7023226 89.26368 -0.51276022 87.972198 -21.224585 -123.01825
40250000000 -21.309816 -172.70084 -0.63692719 90.209702 -0.49552745 88.301193 -19.733418 -118.93105
40275000000 -21.061232 -162.45148 -0.5800299 89.870659 -0.404158 88.199242 -21.477633 -105.19949
40300000000 -20.821201 -160.342 -0.57019156 89.002541 -0.35568264 87.044029 -22.720728 -113.2702
40325000000 -20.357603 -154.61497 -0.57502544 89.463043 -0.44500452 86.986275 -20.406607 -117.6306
40350000000 -22.184496 -146.88037 -0.52761513 90.04557 -0.43339697 87.676628 -20.683805 -107.38961
40375000000 -23.408377 -158.93007 -0.45883372 89.521873 -0.41790831 86.91497 -21.770552 -105.65308
40400000000 -20.977959 -165.6615 -0.40867445 89.298737 -0.44360128 86.781151 -20.960526 -110.39975
40425000000 -19.985466 -151.42017 -0.36244485 89.68927 -0.32702237 86.689369 -21.508183 -96.594391
40450000000 -19.707537 -142.39735 -0.3063893 88.310768 -0.29381606 85.788803 -22.04937 -102.98656
40475000000 -20.760178 -134.37959 -0.3294096 89.022339 -0.37343159 85.648193 -20.448833 -109.5406
40500000000 -23.320206 -129.6653 -0.14361556 89.57766 -0.40866581 86.462662 -20.208603 -95.811905
40525000000 -23.555353 -147.88271 -0.12346389 87.752533 -0.42840537 85.880409 -22.185396 -95.397781
40550000000 -20.812094 -152.71613 -0.22150214 87.129478 -0.43877006 85.016014 -22.008644 -111.06834
40575000000 -19.735077 -137.3082 -0.074607171 87.523872 -0.37327141 85.51239 -21.095974 -100.83041
40600000000 -20.023331 -125.23811 -0.067636587 86.907211 -0.27655521 85.026566 -21.753132 -96.690308
40625000000 -21.256796 -123.92036 -0.018617999 86.267487 -0.35353774 84.111427 -21.342144 -110.95705
40650000000 -22.999357 -123.59634 0.027227839 85.425827 -0.45066732 84.664284 -21.769827 -103.91858
40675000000 -24.053118 -132.93489 -0.093121387 85.268272 -0.45382378 84.676468 -23.872105 -101.15407
40700000000 -21.581083 -142.60828 -0.097669169 83.846519 -0.48725396 84.065666 -23.406473 -119.799
40725000000 -19.988384 -124.66259 -0.10234909 84.283119 -0.42909727 84.228081 -21.967236 -105.06972
40750000000 -21.069006 -105.0062 0.030130839 84.151268 -0.32699314 84.409119 -23.428656 -98.147316
40775000000 -25.115585 -114.74097 -0.20753823 82.105736 -0.44462919 83.420822 -25.495031 -130.7061
40800000000 -25.604561 -130.07404 -0.30202883 82.720741 -0.55337429 83.361519 -23.950026 -114.82085
40825000000 -24.31686 -129.5092 -0.1530925 82.588974 -0.50329638 84.26133 -24.915792 -102.38477
40850000000 -22.708563 -133.59532 -0.3432425 81.406158 -0.45607644 83.567757 -24.973925 -126.53825
40875000000 -21.789415 -121.62681 -0.30880654 81.861603 -0.44182733 83.047203 -23.141096 -116.74419
40900000000 -23.101318 -105.8952 -0.29372758 80.875114 -0.38163584 83.196251 -25.789429 -112.55611
40925000000 -29.00223 -108.02425 -0.56533045 81.332024 -0.45841196 82.738327 -27.201971 -137.12436
40950000000 -28.866596 -147.85231 -0.57913202 81.133316 -0.58442628 82.741394 -22.914011 -124.26205
40975000000 -24.193417 -148.6248 -0.52505964 80.774055 -0.48483056 83.367332 -22.934385 -114.41404
41000000000 -23.400431 -139.95615 -0.67003483 80.742226 -0.37506706 82.742607 -24.197605 -137.15411
41025000000 -24.989977 -124.53697 -0.76265538 80.807785 -0.48476788 81.934708 -22.756489 -127.89811
41050000000 -28.538063 -116.18321 -0.74005544 81.297745 -0.52273482 82.219955 -22.564886 -120.12296
41075000000 -31.80658 -163.97345 -0.84842569 81.650169 -0.51776975 82.360909 -22.102587 -129.84328
41100000000 -25.89814 -172.38493 -0.9600423 82.329185 -0.58265263 82.541946 -19.723 -123.22955
41125000000 -25.235004 -163.09521 -0.82951289 82.194656 -0.42077398 82.578827 -21.436018 -119.25274
41150000000 -26.886011 -155.19879 -0.90069705 82.451904 -0.36570603 82.086563 -21.910402 -128.08731
41175000000 -28.865427 -140.99493 -1.0204556 84.819733 -0.53947896 81.973763 -18.114521 -115.44508
41200000000 -34.85437 -176.61583 -0.82641166 84.75087 -0.577914 82.442719 -18.349676 -107.7499
41225000000 -28.093861 142.91432 -0.79523683 85.014099 -0.47667408 82.83181 -18.848818 -111.37533
41250000000 -26.121738 166.73283 -0.76688725 86.712555 -0.42891058 83.340141 -16.818481 -102.3261
41275000000 -30.617298 -155.81245 -0.70726776 87.50605 -0.38272709 83.735207 -16.348839 -84.924515
41300000000 -33.322105 -38.985054 -0.53486878 89.475319 -0.26455483 83.89016 -14.751324 -80.727112
41325000000 -28.911539 19.535185 -0.14613146 92.823906 -0.4937982 86.194847 -11.540322 -78.202713
41350000000 -22.198162 33.865398 -0.26345289 94.110085 -0.52998549 89.367432 -10.547647 -54.761177
41375000000 -17.572241 19.845026 0.032459334 99.383217 -0.1449427 94.008553 -7.4020419 -42.549942
41400000000 -10.574674 24.761324 0.31601295 120.11229 -0.35861215 111.63367 -0.59900695 -17.707663
41425000000 -5.1357455 47.774403 -2.7417417 -176.96234 -3.6640887 144.54228 5.1148882 35.064381
41450000000 -5.4795175 106.39377 11.234962 71.875458 -14.702985 36.403828 6.2537856 -98.466797
41475000000 -4.4864492 76.075615 -8.0047941 39.478905 -19.398014 45.777924 -4.2004499 102.89561
41500000000 -7.3118505 45.494537 -9.0384598 88.179962 -8.6141024 108.34119 -1.7358845 94.643433
41525000000 -12.124966 -1.6223259 -2.8610003 98.656487 -2.9957705 103.08287 -5.3685222 64.917717
41550000000 -14.660666 -48.381432 -1.2645566 90.77787 -1.3878679 94.226166 -9.0717087 55.724777
41575000000 -16.382011 -68.573753 -0.88182038 83.064651 -0.94035888 86.63665 -15.134123 59.505497
41600000000 -19.067358 -74.450317 -0.64536357 79.23407 -0.64973986 82.712631 -24.584063 34.84869
41625000000 -22.707886 -89.819931 -0.56878978 77.683151 -0.57821834 80.657738 -27.543682 16.609285
41650000000 -22.218271 -112.79418 -0.63772482 76.384033 -0.61871314 79.70224 -33.714012 -55.361679
41675000000 -20.59704 -117.82452 -0.652758 75.679077 -0.49036509 78.167137 -27.998125 -90.84742
41700000000 -20.017223 -106.54766 -0.70948797 75.509972 -0.4746733 76.848633 -27.447527 -85.834671
41725000000 -20.570004 -87.956551 -0.67491686 75.411087 -0.53337151 76.078033 -24.197689 -94.283318
41750000000 -23.578447 -72.211456 -0.61910415 74.942322 -0.55763417 76.14016 -22.122005 -87.031693
41775000000 -28.486177 -95.076065 -0.62951148 74.111511 -0.57704633 75.871468 -22.733166 -84.320053
41800000000 -23.293493 -112.86448 -0.76148564 73.352989 -0.66931283 75.451897 -21.07033 -86.666344
41825000000 -20.381498 -94.365608 -0.67588896 73.353554 -0.51425838 74.902351 -20.151064 -80.264931
41850000000 -20.708429 -71.000999 -0.72050184 72.220161 -0.45671153 73.568336 -21.12351 -66.032486
41875000000 -21.270439 -55.347851 -0.87206268 71.939415 -0.58786124 72.638458 -19.995882 -62.118324
41900000000 -21.721952 -54.092495 -0.93327594 70.887604 -0.70128804 72.609444 -18.742739 -59.5457
41925000000 -22.446169 -60.955463 -1.0796841 69.843552 -0.66221017 71.893456 -18.509615 -47.448017
41950000000 -20.005642 -74.211189 -1.2503941 68.88903 -0.72962338 70.162819 -16.830507 -38.23233
41975000000 -16.361021 -73.840797 -1.3714713 67.341324 -0.72380233 68.07415 -14.55367 -20.481449
42000000000 -14.072869 -66.235085 -1.6463685 65.502831 -0.78008348 64.600311 -12.002243 -7.9815764
42025000000 -12.329905 -76.056076 -2.4759722 60.479374 -1.4161483 57.933159 -8.7199326 -13.160801
42050000000 -8.8666811 -111.24452 -5.708096 46.447304 -3.8672893 45.875217 -2.7871189 -29.830427
42075000000 -5.476181 -148.4543 -14.706271 130.07179 -11.133856 44.255497 0.82171434 -72.469086
42100000000 -3.4987566 167.67529 0.64274985 110.07299 -10.448971 123.18084 -10.533143 -34.245953
42125000000 -6.7973709 -131.04407 -1.6572442 15.625783 -5.4044113 26.958836 2.2085066 16.703693
42150000000 -9.0165653 -78.18396 0.67133307 55.559769 0.17720146 52.734463 -6.3854318 65.96756
42175000000 -15.576422 -68.967453 0.093765773 67.880486 -0.16355126 63.415901 -15.691422 69.018074
42200000000 -20.58107 -94.651291 -0.12390453 70.169472 -0.33896354 66.149872 -19.868124 81.535995
42225000000 -20.860912 -102.51379 0.070341803 73.714104 -0.32090524 69.606148 -31.079258 -161.42819
42250000000 -21.219955 -92.933792 0.19814844 75.186394 -0.48843101 71.952133 -22.576584 -92.602776
42275000000 -22.129086 -83.697365 -0.047617469 73.373886 -0.66548401 71.801186 -29.290785 -85.330681
42300000000 -25.103764 -61.185661 -0.072544031 72.359573 -0.6275484 71.471764 -26.418867 -120.04553
42325000000 -42.52309 -7.4130964 -0.096456282 72.901199 -0.55674881 72.038506 -22.86788 -98.391464
42350000000 -25.560394 -172.13483 -0.098086581 73.117218 -0.50724965 72.540771 -22.855816 -83.138367
42375000000 -20.367939 -137.59206 0.026745332 71.952713 -0.44438645 72.353271 -21.318333 -96.347046
42400000000 -21.322886 -110.29065 -0.08193852 70.932869 -0.53421664 72.135262 -22.200521 -99.406311
42425000000 -25.281431 -84.884712 -0.24506252 70.887268 -0.68098933 72.35791 -25.000715 -94.607109
42450000000 -37.04998 -82.582581 -0.32386953 70.511078 -0.63813305 72.277031 -22.287155 -102.10934
42475000000 -25.930092 165.08653 -0.22140677 70.355812 -0.52819324 71.918503 -21.126568 -92.137108
42500000000 -19.06839 -166.76671 -0.25802675 69.455956 -0.43987051 71.749489 -23.126114 -93.467262
42525000000 -18.051245 -134.24467 -0.46758464 68.816185 -0.39684826 70.977623 -23.17588 -114.00265
42550000000 -20.92277 -99.354134 -0.51661259 69.058601 -0.49000365 70.83947 -23.227961 -99.427048
42575000000 -28.019297 -81.697647 -0.58950949 69.217934 -0.6366598 71.526871 -23.9956 -91.559387
42600000000 -28.114651 -172.85133 -0.69121236 69.122124 -0.58629841 71.603752 -21.813841 -106.06584
42625000000 -20.262972 -173.05623 -0.60916024 68.571335 -0.48266509 70.097191 -21.74131 -98.965599
42650000000 -16.746517 -147.74307 -0.71854758 68.233109 -0.50942004 69.753532 -25.740822 -96.863869
42675000000 -16.069986 -113.70596 -0.94338906 69.408302 -0.4249326 69.761559 -23.762197 -111.33651
42700000000 -19.110809 -77.304245 -0.84112692 69.810081 -0.45905182 69.361641 -21.11997 -95.69249
42725000000 -31.297934 -81.546478 -0.90150505 69.242188 -0.65775442 70.569984 -22.042765 -88.627213
42750000000 -21.56744 -163.33032 -0.95678633 69.894691 -0.54360509 71.006279 -22.405554 -112.16726
42775000000 -17.033648 -140.33524 -0.93564123 69.591034 -0.45003137 68.747047 -21.853662 -99.41674
42800000000 -14.853754 -112.52966 -0.98980713 70.474098 -0.44064048 67.187271 -22.543274 -87.330307
42825000000 -14.477954 -83.269707 -0.93438029 71.825432 -0.50105041 67.246758 -20.800623 -104.75677
42850000000 -18.087994 -47.931808 -0.88012874 72.539169 -0.52315319 68.482742 -19.461452 -102.40255
42875000000 -59.467808 98.767937 -0.80674505 70.782814 -0.61466038 70.150032 -21.832462 -99.450905
42900000000 -19.054392 -152.62329 -0.88929629 71.050362 -0.46928009 70.290329 -22.313715 -112.27306
42925000000 -14.048184 -114.81308 -0.69824463 72.37175 -0.32394055 66.742317 -19.624826 -95.865585
42950000000 -12.463862 -88.297928 -0.60063732 72.088974 -0.50415349 63.881222 -20.551382 -98.10804
42975000000 -12.683106 -58.246086 -0.45184082 73.273964 -0.66845888 64.420135 -20.493299 -121.4597
43000000000 -17.056347 -8.5226355 -0.43891859 72.145912 -0.5191406 67.57531 -20.665377 -105.96179
43025000000 -23.806261 122.82455 -0.59084582 70.099388 -0.43855706 69.508537 -22.793266 -90.537605
43050000000 -14.313474 -138.67604 -0.49781701 71.117455 -0.28275302 68.134201 -22.37167 -103.03952
43075000000 -9.6411839 -97.540825 0.02170625 71.231934 -0.36875305 62.493725 -18.989403 -108.13198
43100000000 -8.9304628 -61.879444 -0.029086746 70.583344 -0.60638207 59.437057 -23.346977 -100.30095
43125000000 -9.9734249 -18.868279 -0.19219948 69.316238 -0.52052808 59.923817 -25.626989 -104.46094
43150000000 -12.437291 45.160088 -0.43921813 69.182007 -0.26205072 63.715714 -21.368208 -96.589783
43175000000 -12.729434 151.37639 -0.32149306 68.599716 -0.1246058 66.85302 -21.443367 -78.078369
43200000000 -7.3399024 -129.43269 -0.13113351 67.530228 -0.286744 62.877651 -22.298172 -101.16069
43225000000 -4.143867 -85.066154 0.15008561 66.449944 -1.2020758 53.10017 -22.869614 -95.584908
43250000000 -2.2818108 -39.966969 -0.81208301 67.548096 -1.7605729 44.747669 -20.228594 -84.738609
43275000000 0.2115486 4.4821811 -0.99375844 70.801888 -1.7265213 34.508327 -25.383774 -130.20543
43300000000 2.6727545 61.576588 -1.1620671 69.279457 -1.0043219 29.294098 -24.549391 -107.23695
43325000000 5.3884597 138.13403 0.21841902 60.938889 -1.4088663 30.657028 -20.804003 -99.791069
43350000000 4.4300756 -138.97348 -0.18000326 63.503193 -5.3963213 38.612419 -24.838795 -79.618195
43375000000 2.7976031 -96.644066 -0.60121375 71.161263 -10.217328 77.286484 -21.50931 -118.90491
43400000000 -0.57984531 -76.870956 0.79614991 86.547462 -3.7947927 97.536247 -15.746594 52.694843
43425000000 0.99481434 -6.7995911 1.5276968 71.712212 -7.4635234 87.143082 -14.161089 -44.942329
43450000000 8.1789904 65.11261 -0.34292501 66.584747 -15.217243 -96.603127 -19.74906 -87.09536
43475000000 5.7000194 -160.28056 0.76785976 59.980209 -2.1481309 30.741524 -25.469925 -95.443787
43500000000 0.63656431 -54.915913 -0.70440763 65.859184 -2.6025636 51.421471 -23.694878 -84.160545
