!Keysight Technologies,N5247B,MY61255062,A.19.80.06
!Date: Thursday, May 21, 2026 11:36:22
!Correction: S11(Cdelta 2-Port  ) 
!S21(Cdelta 2-Port  ) 
!S12(Cdelta 2-Port  ) 
!S22(Cdelta 2-Port  ) 
!S2P File: Measurements: S11, S21, S12, S22:
# Hz S  dB   R 50
1000000000 -23.414753 19.696768 -0.48112944 -18.866619 -0.48066619 -18.876007 -23.488405 19.660686
1027500000 -23.333403 19.684994 -0.48429137 -19.379248 -0.48323667 -19.377903 -23.407196 19.682007
1055000000 -23.26371 19.764477 -0.48831558 -19.889236 -0.48852211 -19.89963 -23.380436 19.404715
1082500000 -23.151457 19.831444 -0.49221072 -20.383673 -0.49249861 -20.387024 -23.327536 19.650944
1110000000 -23.078455 19.824614 -0.49370292 -20.88843 -0.49470943 -20.897945 -23.264307 19.834764
1137500000 -23.025492 19.921808 -0.4986164 -21.390842 -0.50104266 -21.401678 -23.201431 20.189543
1165000000 -22.896751 20.10457 -0.50269401 -21.880831 -0.50396448 -21.881647 -23.114143 20.373047
1192500000 -22.782381 19.782703 -0.50314766 -22.367458 -0.50544274 -22.375469 -22.997038 20.555307
1220000000 -22.686913 19.631449 -0.50198114 -22.866505 -0.50474632 -22.873636 -22.914949 20.421757
1247500000 -22.639725 19.466904 -0.50524789 -23.379232 -0.50703549 -23.389263 -22.84457 20.23411
1275000000 -22.589098 19.506706 -0.50779074 -23.879004 -0.50960851 -23.894686 -22.74581 20.149727
1302500000 -22.540037 19.582811 -0.51484227 -24.405882 -0.51597059 -24.417456 -22.780577 19.904346
1330000000 -22.435877 19.762983 -0.51910955 -24.869711 -0.51996207 -24.87546 -22.66987 20.197287
1357500000 -22.336151 19.686554 -0.5197987 -25.369339 -0.52116555 -25.369131 -22.548943 20.149384
1385000000 -22.261871 19.462326 -0.51960993 -25.86323 -0.52112061 -25.868208 -22.447897 20.187904
1412500000 -22.209318 19.175079 -0.52388251 -26.371952 -0.52472365 -26.383139 -22.388807 20.233177
1440000000 -22.130486 19.305954 -0.52711493 -26.852213 -0.52697402 -26.863659 -22.274742 20.122978
1467500000 -22.051121 19.174698 -0.52865982 -27.350079 -0.52835077 -27.35247 -22.164612 20.061104
1495000000 -21.985991 19.049326 -0.52983791 -27.85323 -0.5310061 -27.858414 -22.088308 19.88891
1522500000 -21.893978 19.14558 -0.53298986 -28.327917 -0.53391713 -28.341383 -22.003117 19.727177
1550000000 -21.78957 18.964102 -0.53171027 -28.824919 -0.53245348 -28.843086 -21.890381 19.510155
1577500000 -21.728319 18.86717 -0.53461593 -29.348957 -0.53551513 -29.358349 -21.877949 19.122606
1605000000 -21.641609 18.695869 -0.53567791 -29.826616 -0.53800046 -29.8351 -21.797855 19.157097
1632500000 -21.568544 18.716471 -0.53973448 -30.322338 -0.54076111 -30.335161 -21.738894 19.044203
1660000000 -21.461142 18.519302 -0.54089713 -30.806688 -0.54174161 -30.817118 -21.613239 19.055267
1687500000 -21.387484 18.237228 -0.53942877 -31.299786 -0.54042101 -31.314171 -21.523804 18.762043
1715000000 -21.310539 18.003557 -0.54069984 -31.801081 -0.54132789 -31.81786 -21.464954 18.422682
1742500000 -21.249659 17.747032 -0.54207712 -32.298607 -0.54313773 -32.311481 -21.376341 18.284956
1770000000 -21.179203 17.48428 -0.5418821 -32.798607 -0.54365081 -32.809998 -21.31588 18.017813
1797500000 -21.104111 17.299255 -0.54243112 -33.294971 -0.5450989 -33.310333 -21.242815 17.720589
1825000000 -21.034492 17.0098 -0.54427487 -33.791698 -0.54660529 -33.810162 -21.177677 17.576698
1852500000 -20.986017 16.716991 -0.54519397 -34.295471 -0.54616553 -34.305183 -21.104944 17.35498
1880000000 -20.926718 16.496632 -0.5460211 -34.801277 -0.54807752 -34.810665 -21.052011 17.030968
1907500000 -20.844681 16.29011 -0.54659939 -35.294926 -0.54884171 -35.309177 -20.98567 16.716646
1935000000 -20.770954 15.985071 -0.54800117 -35.801712 -0.55060357 -35.807957 -20.917461 16.460152
1962500000 -20.729753 15.641839 -0.54941458 -36.30582 -0.55207014 -36.313171 -20.865948 16.097511
1990000000 -20.699556 15.586886 -0.55283535 -36.813583 -0.55513358 -36.81662 -20.84547 15.906066
2017500000 -20.633854 15.263456 -0.55479974 -37.302395 -0.5582245 -37.312656 -20.779449 15.813454
2045000000 -20.585827 14.992728 -0.55660141 -37.795731 -0.55822891 -37.808731 -20.704697 15.501388
2072500000 -20.514593 14.829565 -0.55841732 -38.295654 -0.55930495 -38.300087 -20.63323 15.214616
2100000000 -20.465204 14.539383 -0.55875736 -38.785114 -0.56167966 -38.796783 -20.57336 14.966131
2127500000 -20.41223 14.266073 -0.56029528 -39.287251 -0.56306833 -39.300907 -20.513067 14.680431
2155000000 -20.363472 13.95281 -0.56106752 -39.782196 -0.56434339 -39.797432 -20.467396 14.356938
2182500000 -20.299871 13.674848 -0.56147462 -40.2845 -0.56478113 -40.291695 -20.397816 14.122589
2210000000 -20.260162 13.404495 -0.56479383 -40.78159 -0.56590039 -40.797245 -20.341246 13.811661
2237500000 -20.203857 13.117891 -0.56546456 -41.282902 -0.56842357 -41.293133 -20.304398 13.479746
2265000000 -20.14661 12.919543 -0.56672025 -41.787727 -0.57153636 -41.794579 -20.253481 13.256676
2292500000 -20.102331 12.438294 -0.56775445 -42.281219 -0.57096654 -42.291195 -20.177166 12.921957
2320000000 -20.070091 12.26574 -0.569511 -42.785088 -0.57148677 -42.80172 -20.136465 12.545901
2347500000 -20.004757 11.973722 -0.57236379 -43.26825 -0.57418281 -43.281105 -20.095572 12.425883
2375000000 -19.960932 11.613768 -0.57275248 -43.767017 -0.57560235 -43.777554 -20.045286 12.099279
2402500000 -19.907276 11.407374 -0.57301295 -44.269543 -0.5771566 -44.279037 -19.984306 11.64594
2430000000 -19.882076 11.075194 -0.57559228 -44.772327 -0.57891196 -44.77948 -19.925873 11.433305
2457500000 -19.833443 10.871589 -0.57724059 -45.271713 -0.58057982 -45.276192 -19.888147 10.963118
2485000000 -19.80015 10.425306 -0.57924676 -45.764923 -0.58179104 -45.775585 -19.8447 10.594487
2512500000 -19.762606 10.248415 -0.58197367 -46.267342 -0.58455837 -46.27874 -19.816681 10.179884
2540000000 -19.717318 10.015556 -0.58174491 -46.761837 -0.58588266 -46.76704 -19.787359 9.98207
2567500000 -19.697435 9.610033 -0.58517915 -47.262688 -0.58753723 -47.268002 -19.730658 9.6576519
2595000000 -19.643993 9.3978634 -0.58689564 -47.751583 -0.58924723 -47.766842 -19.679564 9.4597902
2622500000 -19.598475 9.0928802 -0.58631843 -48.230259 -0.58926356 -48.249886 -19.636154 9.0243244
2650000000 -19.58099 8.7313251 -0.58849543 -48.728149 -0.59061599 -48.741245 -19.598478 8.6326408
2677500000 -19.53101 8.3750277 -0.58990723 -49.234741 -0.59481448 -49.247398 -19.548422 8.2954788
2705000000 -19.470642 8.2452011 -0.59216613 -49.729305 -0.59592962 -49.737686 -19.531487 7.931108
2732500000 -19.457264 7.8435326 -0.59347939 -50.223351 -0.59601629 -50.235592 -19.491535 7.6681852
2760000000 -19.418055 7.4631085 -0.59302068 -50.720715 -0.59664941 -50.728432 -19.440224 7.3478065
2787500000 -19.379932 7.2932496 -0.59535033 -51.209003 -0.59856302 -51.233528 -19.426834 6.9411864
2815000000 -19.34309 6.9941759 -0.59681517 -51.703274 -0.59931594 -51.727024 -19.392408 6.5554595
2842500000 -19.309067 6.5284266 -0.59739375 -52.202148 -0.60239834 -52.220169 -19.334026 6.2297955
2870000000 -19.272005 6.3253684 -0.59950048 -52.705788 -0.60314333 -52.706154 -19.318058 5.9231186
2897500000 -19.231022 6.1383209 -0.60303032 -53.195446 -0.6051544 -53.212646 -19.280998 5.4830317
2925000000 -19.212986 5.6804199 -0.60445338 -53.683559 -0.60857773 -53.693806 -19.251757 5.2555676
2952500000 -19.16559 5.2637358 -0.60502791 -54.173866 -0.60778266 -54.18644 -19.230328 4.9953814
2980000000 -19.133358 5.0343304 -0.60584301 -54.676476 -0.60995167 -54.678253 -19.200474 4.5257711
3007500000 -19.104837 4.7392154 -0.6073209 -55.161087 -0.61012298 -55.175144 -19.155613 4.2293634
3035000000 -19.073286 4.4236422 -0.60860455 -55.645733 -0.61292714 -55.667336 -19.11536 3.9780991
3062500000 -19.042587 4.1470423 -0.60925794 -56.149487 -0.61338776 -56.150688 -19.102335 3.5622935
3090000000 -19.016212 3.7892597 -0.61081117 -56.643791 -0.61407322 -56.652958 -19.056339 3.1900294
3117500000 -18.988678 3.3899934 -0.61232924 -57.138847 -0.61562729 -57.146198 -19.021507 3.0559068
3145000000 -18.947769 3.0757241 -0.61328787 -57.632084 -0.61525983 -57.641239 -19.011248 2.6134195
3172500000 -18.922813 2.6779478 -0.61534035 -58.120716 -0.61668271 -58.124104 -18.992004 2.202692
3200000000 -18.901657 2.3483076 -0.61418176 -58.622894 -0.61883467 -58.621635 -18.944326 2.0041566
3227500000 -18.857555 2.1066599 -0.61690289 -59.103745 -0.61948848 -59.121441 -18.922396 1.6526713
3255000000 -18.840418 1.5945243 -0.61838514 -59.600803 -0.62021041 -59.607582 -18.901936 1.1559603
3282500000 -18.797251 1.2744186 -0.61797059 -60.087189 -0.61990225 -60.090858 -18.86875 0.95941633
3310000000 -18.766653 0.93425173 -0.61847413 -60.590076 -0.62161285 -60.584106 -18.855927 0.61200643
3337500000 -18.754297 0.52951127 -0.61993301 -61.0825 -0.6223163 -61.081528 -18.839163 0.071602792
3365000000 -18.746597 0.20943004 -0.62077838 -61.573936 -0.62418503 -61.587009 -18.788286 -0.19487442
3392500000 -18.693319 -0.14208184 -0.62134641 -62.061394 -0.62586951 -62.062378 -18.75729 -0.23119505
3420000000 -18.666782 -0.55987865 -0.62175828 -62.543667 -0.62520254 -62.552326 -18.769661 -0.86927074
3447500000 -18.683268 -0.75134552 -0.62253588 -63.039619 -0.62483692 -63.047142 -18.717289 -1.2824774
3475000000 -18.64636 -1.2146626 -0.62334293 -63.532681 -0.62756509 -63.540874 -18.671328 -1.3542123
3502500000 -18.620956 -1.5825726 -0.6235497 -64.027016 -0.62552333 -64.0354 -18.660751 -1.6960474
3530000000 -18.593586 -1.7655201 -0.62455386 -64.522751 -0.6261757 -64.532494 -18.6404 -2.405129
3557500000 -18.567278 -2.3058064 -0.62402844 -65.014618 -0.62727618 -65.018227 -18.589376 -2.6433065
3585000000 -18.548576 -2.699549 -0.62484562 -65.510605 -0.62654829 -65.519318 -18.569067 -2.8743656
3612500000 -18.529692 -2.9348369 -0.62504947 -66.008362 -0.62796652 -66.012703 -18.575253 -3.3744676
3640000000 -18.495041 -3.306215 -0.62503964 -66.505074 -0.62859112 -66.513474 -18.527113 -3.765882
3667500000 -18.493343 -3.8553145 -0.62682641 -66.998909 -0.6289804 -67.003822 -18.484264 -4.0739975
3695000000 -18.482365 -3.9790771 -0.62652975 -67.494041 -0.62833863 -67.499481 -18.507578 -4.5124378
3722500000 -18.442842 -4.3549585 -0.62741226 -67.988594 -0.63076371 -67.9916 -18.469761 -5.0055232
3750000000 -18.419901 -4.797761 -0.62855911 -68.491379 -0.63032013 -68.494644 -18.437271 -5.2019939
3777500000 -18.402916 -5.1648502 -0.62935382 -68.986221 -0.63177013 -68.981842 -18.449205 -5.604744
3805000000 -18.37064 -5.470212 -0.62762642 -69.474487 -0.63258487 -69.483246 -18.428307 -6.0291066
3832500000 -18.362097 -5.9716907 -0.63003039 -69.965965 -0.6327756 -69.98053 -18.379534 -6.3301773
3860000000 -18.346712 -6.3817286 -0.63168001 -70.462318 -0.63322872 -70.465912 -18.387814 -6.7355947
3887500000 -18.303877 -6.5590563 -0.63263816 -70.964409 -0.63512284 -70.973183 -18.381233 -7.1281772
3915000000 -18.30472 -6.9994411 -0.63351113 -71.457184 -0.63388377 -71.461502 -18.340397 -7.4809098
3942500000 -18.286079 -7.5481644 -0.63348508 -71.953659 -0.63604844 -71.953239 -18.337114 -7.8919191
3970000000 -18.25021 -7.84514 -0.63385439 -72.443878 -0.63720185 -72.452629 -18.323521 -8.1779966
3997500000 -18.24852 -8.1038923 -0.63542694 -72.932297 -0.63695604 -72.937996 -18.301813 -8.6572084
4025000000 -18.248199 -8.6883936 -0.63439268 -73.428024 -0.63861483 -73.436127 -18.285746 -9.1915178
4052500000 -18.208677 -9.0721035 -0.63458741 -73.92942 -0.63888776 -73.930672 -18.288733 -9.4709625
4080000000 -18.19305 -9.2659616 -0.63579345 -74.418877 -0.6385048 -74.423836 -18.279825 -9.8346128
4107500000 -18.206194 -9.7571611 -0.63571465 -74.920616 -0.63849789 -74.916092 -18.276604 -10.226304
4135000000 -18.180359 -10.3856 -0.63608325 -75.404251 -0.64044142 -75.429955 -18.237522 -10.541309
4162500000 -18.150774 -10.604646 -0.63689369 -75.901863 -0.64051789 -75.910728 -18.229683 -11.000799
4190000000 -18.153986 -10.923127 -0.63783646 -76.410362 -0.63991374 -76.413094 -18.219631 -11.400528
4217500000 -18.149759 -11.407994 -0.63911653 -76.889984 -0.64149213 -76.906578 -18.18749 -11.68061
4245000000 -18.114912 -11.82473 -0.63871109 -77.376877 -0.64136159 -77.395576 -18.177101 -12.097601
4272500000 -18.119925 -12.1032 -0.63941824 -77.886375 -0.64101803 -77.901321 -18.193335 -12.587302
4300000000 -18.100962 -12.589556 -0.63936758 -78.380676 -0.64419895 -78.378952 -18.155525 -12.925713
4327500000 -18.088888 -13.006581 -0.64063883 -78.870377 -0.64367414 -78.888725 -18.142937 -13.295821
4355000000 -18.076143 -13.357354 -0.64038593 -79.367813 -0.64382994 -79.385033 -18.162016 -13.763245
4382500000 -18.077559 -13.594614 -0.64178556 -79.866867 -0.64491057 -79.88047 -18.139614 -14.107601
4410000000 -18.067326 -14.123103 -0.64329135 -80.356018 -0.64551902 -80.375389 -18.116793 -14.533359
4437500000 -18.05563 -14.526554 -0.64238548 -80.856628 -0.64642704 -80.863861 -18.120892 -14.868006
4465000000 -18.043219 -14.883194 -0.6430347 -81.355293 -0.64625585 -81.364281 -18.117119 -15.250945
4492500000 -18.052626 -15.330293 -0.64363301 -81.848465 -0.64786744 -81.85849 -18.097912 -15.611856
4520000000 -18.040236 -15.629326 -0.64510638 -82.337334 -0.64605248 -82.345039 -18.104692 -16.057013
4547500000 -18.027151 -15.993731 -0.64564818 -82.840149 -0.64737016 -82.84024 -18.087599 -16.533337
4575000000 -18.032951 -16.483423 -0.64695042 -83.324982 -0.64885831 -83.335518 -18.079914 -16.88048
4602500000 -18.031124 -16.885019 -0.64793354 -83.823517 -0.65048802 -83.837234 -18.077595 -17.231363
4630000000 -18.014067 -17.215235 -0.6471529 -84.31691 -0.65033561 -84.332199 -18.09078 -17.700377
4657500000 -18.014143 -17.645378 -0.64830351 -84.824539 -0.65043962 -84.825958 -18.054178 -18.153479
4685000000 -18.021116 -18.056858 -0.64711893 -85.309334 -0.65126145 -85.32193 -18.051989 -18.488981
4712500000 -18.010212 -18.353552 -0.64782417 -85.802292 -0.65049857 -85.804298 -18.060253 -19.045153
4740000000 -18.002399 -18.774042 -0.64783621 -86.293648 -0.6525858 -86.305847 -18.059063 -19.411879
4767500000 -18.01227 -19.220928 -0.64831102 -86.795509 -0.65089816 -86.791718 -18.044945 -19.737988
4795000000 -18.005953 -19.607178 -0.64891845 -87.2855 -0.65188313 -87.293015 -18.044691 -20.249681
4822500000 -17.999392 -19.92362 -0.65021986 -87.776703 -0.6538859 -87.78936 -18.047562 -20.685295
4850000000 -18.019075 -20.382465 -0.65044475 -88.265503 -0.65417147 -88.286133 -18.043409 -21.010021
4877500000 -18.002178 -20.747095 -0.64985842 -88.759499 -0.6542654 -88.778076 -18.045708 -21.450602
4905000000 -18.001427 -21.112581 -0.65196407 -89.265778 -0.65400267 -89.265953 -18.036718 -21.963396
4932500000 -18.003212 -21.526075 -0.65238881 -89.749649 -0.6551072 -89.768913 -18.024946 -22.305033
4960000000 -18.015291 -21.860809 -0.65222788 -90.259666 -0.65573007 -90.268219 -18.039186 -22.667545
4987500000 -18.00458 -22.246881 -0.6503374 -90.740768 -0.65625358 -90.751846 -18.033678 -23.171522
5015000000 -18.00383 -22.747663 -0.65432227 -91.238014 -0.65700668 -91.238968 -18.023935 -23.593843
5042500000 -18.021454 -23.047514 -0.65457207 -91.735481 -0.65693742 -91.748322 -18.044382 -23.902899
5070000000 -18.015984 -23.446022 -0.65475386 -92.227173 -0.65724486 -92.242027 -18.02924 -24.488659
5097500000 -18.012691 -23.849592 -0.65521318 -92.732521 -0.65849036 -92.734184 -18.038097 -24.885592
5125000000 -18.042351 -24.269707 -0.65511835 -93.221848 -0.65845567 -93.230309 -18.053061 -25.226906
5152500000 -18.036716 -24.584435 -0.65435296 -93.707596 -0.65934956 -93.708252 -18.046032 -25.723822
5180000000 -18.036964 -25.073709 -0.65502387 -94.219574 -0.6581111 -94.21122 -18.045111 -26.22554
5207500000 -18.056694 -25.522234 -0.65671581 -94.70443 -0.65992236 -94.717583 -18.06319 -26.54331
5235000000 -18.053041 -25.860586 -0.65694195 -95.197678 -0.66154361 -95.209442 -18.06772 -27.028093
5262500000 -18.057674 -26.290977 -0.65670192 -95.691093 -0.66175401 -95.697952 -18.056599 -27.620615
5290000000 -18.082609 -26.724245 -0.65938723 -96.177582 -0.66329807 -96.18943 -18.065128 -27.924093
5317500000 -18.078453 -27.097933 -0.65921307 -96.679657 -0.66166538 -96.673721 -18.086306 -28.23616
5345000000 -18.090561 -27.397943 -0.65869278 -97.172569 -0.66170001 -97.170158 -18.086147 -28.830341
5372500000 -18.110916 -27.892725 -0.65950984 -97.663368 -0.66290337 -97.670731 -18.087803 -29.247929
5400000000 -18.119604 -28.316479 -0.66102993 -98.15966 -0.66404426 -98.161896 -18.115915 -29.630611
5427500000 -18.124439 -28.590225 -0.66107488 -98.652229 -0.66406536 -98.642273 -18.11335 -30.181089
5455000000 -18.145826 -29.071239 -0.66049975 -99.141014 -0.66393024 -99.15374 -18.11466 -30.666733
5482500000 -18.15917 -29.454628 -0.66202742 -99.632637 -0.66504186 -99.65004 -18.142269 -30.901375
5510000000 -18.17465 -29.782337 -0.66001034 -100.12418 -0.66370314 -100.14143 -18.162319 -31.39879
5537500000 -18.180403 -30.124563 -0.66149563 -100.62758 -0.6641441 -100.63634 -18.145437 -31.966413
5565000000 -18.194777 -30.680128 -0.66269016 -101.11523 -0.66539878 -101.12431 -18.168697 -32.268688
5592500000 -18.207232 -31.066231 -0.66220534 -101.604 -0.6656661 -101.61539 -18.190975 -32.744762
5620000000 -18.236441 -31.413321 -0.66231716 -102.10424 -0.66592437 -102.11124 -18.204271 -33.339722
5647500000 -18.237383 -31.890923 -0.66396642 -102.59872 -0.66645825 -102.60104 -18.221857 -33.714108
5675000000 -18.249771 -32.263157 -0.66273451 -103.09253 -0.66712224 -103.09641 -18.236723 -34.051899
5702500000 -18.285601 -32.567894 -0.66293353 -103.58381 -0.66730273 -103.58738 -18.249313 -34.632904
5730000000 -18.292772 -33.122211 -0.66421229 -104.07116 -0.66869813 -104.08691 -18.24424 -35.060692
5757500000 -18.306599 -33.550098 -0.66549683 -104.56709 -0.6670863 -104.57703 -18.295818 -35.362652
5785000000 -18.343618 -33.806862 -0.66513175 -105.05669 -0.66782194 -105.06754 -18.318674 -35.907555
5812500000 -18.340284 -34.245914 -0.66484183 -105.55392 -0.66875035 -105.55313 -18.313097 -36.347874
5840000000 -18.364973 -34.702702 -0.6654045 -106.04008 -0.66831523 -106.03855 -18.350811 -36.789989
5867500000 -18.395937 -34.984413 -0.66507113 -106.52154 -0.66928333 -106.54443 -18.379042 -37.182503
5895000000 -18.433254 -35.446102 -0.66592139 -107.0296 -0.66742408 -107.0258 -18.390547 -37.685928
5922500000 -18.435488 -35.882175 -0.66588938 -107.51662 -0.66927397 -107.53394 -18.422249 -38.038017
5950000000 -18.47423 -36.2253 -0.66546273 -108.01244 -0.66679716 -108.02212 -18.465546 -38.477154
5977500000 -18.495451 -36.482212 -0.66550016 -108.50542 -0.66917944 -108.51727 -18.452545 -38.938759
6005000000 -18.523468 -37.078396 -0.66653365 -109.00185 -0.66841221 -109.00267 -18.489937 -39.388645
6032500000 -18.527592 -37.361217 -0.66733712 -109.47801 -0.6678322 -109.49964 -18.520138 -39.837612
6060000000 -18.568972 -37.68343 -0.66564047 -109.98257 -0.6683678 -109.98467 -18.536896 -40.145412
6087500000 -18.597019 -38.172462 -0.66567212 -110.48022 -0.66831827 -110.47987 -18.558779 -40.635643
6115000000 -18.617607 -38.541248 -0.66577744 -110.95781 -0.66696799 -110.97302 -18.620972 -41.092148
6142500000 -18.656395 -38.897572 -0.66391784 -111.45507 -0.6665349 -111.46049 -18.630136 -41.488552
6170000000 -18.680691 -39.23188 -0.66274261 -111.94592 -0.66922051 -111.95963 -18.648252 -41.91774
6197500000 -18.68751 -39.741135 -0.66387504 -112.4336 -0.66708148 -112.44942 -18.698948 -42.299564
6225000000 -18.723314 -39.971973 -0.66508919 -112.92954 -0.66649806 -112.94057 -18.709915 -42.559769
6252500000 -18.761656 -40.236221 -0.66386539 -113.4133 -0.6655795 -113.43477 -18.739218 -43.126194
6280000000 -18.795153 -40.806736 -0.66144353 -113.91275 -0.66493112 -113.92976 -18.799492 -43.681137
6307500000 -18.817102 -41.13171 -0.66113693 -114.4025 -0.66302395 -114.41602 -18.813761 -43.889259
6335000000 -18.867323 -41.240849 -0.66104501 -114.91045 -0.66434288 -114.90788 -18.819485 -44.313965
6362500000 -18.881933 -41.757553 -0.66026378 -115.38841 -0.66400474 -115.40829 -18.904062 -44.850929
6390000000 -18.890038 -42.227032 -0.65893137 -115.89253 -0.66402221 -115.89931 -18.896122 -45.111504
6417500000 -18.918797 -42.296215 -0.66052359 -116.37769 -0.66311777 -116.3819 -18.887711 -45.293365
6445000000 -18.96306 -42.751598 -0.65627468 -116.87502 -0.66158998 -116.88229 -18.983934 -45.849907
6472500000 -18.995373 -43.279064 -0.65626717 -117.36895 -0.66086054 -117.38015 -19.020542 -46.399391
6500000000 -19.021982 -43.482197 -0.65612203 -117.87128 -0.65956742 -117.87998 -18.990385 -46.525558
6527500000 -19.050756 -43.647217 -0.65393829 -118.37402 -0.65901995 -118.37901 -19.08053 -46.956543
6555000000 -19.106659 -44.247078 -0.65447605 -118.86771 -0.65856385 -118.86572 -19.149399 -47.399837
6582500000 -19.111874 -44.670273 -0.65300548 -119.35728 -0.65646917 -119.37814 -19.106556 -47.876183
6610000000 -19.138746 -44.871517 -0.65283102 -119.86635 -0.65589172 -119.87415 -19.155657 -48.102772
6637500000 -19.18458 -45.325577 -0.65201491 -120.35899 -0.6561774 -120.36765 -19.22632 -48.642113
6665000000 -19.223873 -45.674049 -0.65213698 -120.85752 -0.6555416 -120.8744 -19.197216 -49.130211
6692500000 -19.226578 -45.924564 -0.65275127 -121.36066 -0.65445197 -121.36653 -19.210869 -49.192715
6720000000 -19.274975 -46.30389 -0.65076464 -121.85877 -0.65286618 -121.87228 -19.327669 -49.44083
6747500000 -19.319321 -46.589386 -0.64775598 -122.35549 -0.65341377 -122.36116 -19.343077 -50.392082
6775000000 -19.339188 -46.968723 -0.64927405 -122.864 -0.65137273 -122.88271 -19.309198 -50.683548
6802500000 -19.376034 -47.281395 -0.64830291 -123.37972 -0.65176702 -123.37603 -19.384123 -50.560513
6830000000 -19.400923 -47.664371 -0.64858782 -123.86932 -0.65121126 -123.87368 -19.468792 -51.254772
6857500000 -19.430016 -48.214546 -0.64699757 -124.37661 -0.65181214 -124.38236 -19.447508 -51.83989
6885000000 -19.473265 -48.337166 -0.64899236 -124.86745 -0.64974809 -124.89584 -19.480745 -52.090878
6912500000 -19.488663 -48.689045 -0.64856499 -125.37725 -0.65203446 -125.38651 -19.533445 -52.475407
6940000000 -19.541313 -49.203079 -0.64847422 -125.87984 -0.65212196 -125.89267 -19.563354 -53.048141
6967500000 -19.583862 -49.396107 -0.64807749 -126.37984 -0.65347761 -126.39402 -19.558435 -53.37072
6995000000 -19.610312 -49.804176 -0.64973426 -126.89935 -0.65221161 -126.87649 -19.641024 -53.61179
7022500000 -19.663734 -50.395988 -0.64821756 -127.37291 -0.65374058 -127.38774 -19.677542 -54.279285
7050000000 -19.705786 -50.603275 -0.65018618 -127.88071 -0.65324259 -127.88136 -19.703781 -54.803703
7077500000 -19.734221 -50.897118 -0.64942104 -128.37198 -0.65448117 -128.38033 -19.742857 -54.969959
7105000000 -19.781116 -51.357677 -0.64862084 -128.86484 -0.6532194 -128.8735 -19.810703 -55.373165
7132500000 -19.837875 -51.529999 -0.64773494 -129.36429 -0.6528933 -129.36418 -19.838072 -55.972301
7160000000 -19.865467 -51.910801 -0.64657575 -129.87175 -0.65311533 -129.87813 -19.871447 -56.241035
7187500000 -19.909798 -52.407997 -0.64910001 -130.36617 -0.65158206 -130.36903 -19.92412 -56.416122
7215000000 -19.953609 -52.662422 -0.64892083 -130.86119 -0.65187049 -130.88011 -19.984579 -57.113018
7242500000 -20.004498 -52.775768 -0.64788818 -131.36174 -0.65149605 -131.37866 -19.996433 -57.489662
7270000000 -20.05093 -53.325104 -0.64816016 -131.86684 -0.65158176 -131.87068 -20.073732 -57.919033
7297500000 -20.109789 -53.853764 -0.64766133 -132.37192 -0.6534881 -132.37645 -20.131115 -58.362743
7325000000 -20.133427 -53.936275 -0.64863801 -132.86952 -0.65288639 -132.87538 -20.145311 -58.858604
7352500000 -20.170368 -54.172474 -0.64939004 -133.37141 -0.65262735 -133.3688 -20.216997 -59.0298
7380000000 -20.250328 -54.662846 -0.64883459 -133.87511 -0.651977 -133.88103 -20.27248 -59.536732
7407500000 -20.301111 -54.889526 -0.64896774 -134.36499 -0.65309185 -134.37428 -20.294983 -60.193119
7435000000 -20.326464 -55.303493 -0.64895993 -134.86209 -0.65284216 -134.86923 -20.331074 -60.33667
7462500000 -20.382629 -55.830719 -0.64833474 -135.3662 -0.65089339 -135.38116 -20.393465 -60.671074
7490000000 -20.457251 -55.981979 -0.64897436 -135.87032 -0.65179348 -135.87782 -20.419718 -61.26403
7517500000 -20.475969 -56.21542 -0.64806789 -136.38559 -0.65218902 -136.38632 -20.480795 -61.481991
7545000000 -20.539165 -56.666702 -0.64749032 -136.87955 -0.65046668 -136.88539 -20.558805 -61.922333
7572500000 -20.582729 -56.969948 -0.64877564 -137.3895 -0.65196854 -137.38857 -20.613327 -62.593815
7600000000 -20.622156 -57.115391 -0.65015697 -137.88795 -0.65345109 -137.8954 -20.630598 -62.890205
7627500000 -20.706636 -57.713181 -0.65145904 -138.3895 -0.65394789 -138.39102 -20.691696 -63.209732
7655000000 -20.733068 -58.161499 -0.64982897 -138.89224 -0.65279943 -138.894 -20.770781 -63.747421
7682500000 -20.779634 -58.226147 -0.65162659 -139.39336 -0.65446705 -139.39079 -20.81217 -64.365143
7710000000 -20.848854 -58.448204 -0.65060741 -139.88387 -0.65609282 -139.90027 -20.858803 -64.621468
7737500000 -20.914001 -59.183044 -0.65368342 -140.39645 -0.65684736 -140.3922 -20.934467 -65.269333
7765000000 -20.941576 -59.400593 -0.65306294 -140.89221 -0.65753853 -140.89905 -20.961708 -65.739136
7792500000 -21.014589 -59.611031 -0.65379536 -141.39125 -0.65570956 -141.39514 -21.037907 -65.821281
7820000000 -21.096277 -60.186623 -0.65365058 -141.89355 -0.65730363 -141.89876 -21.135763 -66.51889
7847500000 -21.153851 -60.455788 -0.6559661 -142.39827 -0.65850598 -142.40594 -21.163725 -67.25605
7875000000 -21.209379 -60.744637 -0.65546936 -142.88698 -0.66060257 -142.89896 -21.220566 -67.409012
7902500000 -21.287586 -61.22842 -0.65591848 -143.38857 -0.66070682 -143.39714 -21.324057 -67.839661
7930000000 -21.32666 -61.496422 -0.65736443 -143.89302 -0.66144049 -143.90213 -21.343262 -68.452232
7957500000 -21.392778 -61.658108 -0.6585235 -144.39777 -0.66299409 -144.39861 -21.422947 -68.795685
7985000000 -21.485947 -62.197643 -0.65847468 -144.88826 -0.66334903 -144.8914 -21.537001 -69.146629
8012500000 -21.563753 -62.526783 -0.65874338 -145.37653 -0.664316 -145.38657 -21.558243 -69.911674
8040000000 -21.625284 -62.672512 -0.66109836 -145.89456 -0.66746062 -145.89142 -21.638678 -70.250061
8067500000 -21.722727 -63.155159 -0.66049224 -146.37022 -0.66593313 -146.3848 -21.750231 -70.425606
8095000000 -21.777092 -63.716801 -0.66428161 -146.87334 -0.66722423 -146.87141 -21.806236 -71.083504
8122500000 -21.882158 -63.863136 -0.66381019 -147.36992 -0.66734588 -147.37418 -21.861946 -71.644432
8150000000 -21.950108 -64.272362 -0.66477031 -147.86049 -0.66928452 -147.87172 -22.009542 -71.986755
8177500000 -22.018675 -64.743156 -0.66677421 -148.3598 -0.66872168 -148.37006 -22.071636 -72.85601
8205000000 -22.123705 -64.860901 -0.66877872 -148.86067 -0.67066246 -148.87822 -22.080656 -73.059769
8232500000 -22.24876 -65.222893 -0.66878057 -149.35352 -0.66998523 -149.35889 -22.28702 -73.252594
8260000000 -22.31032 -65.641098 -0.66886693 -149.84914 -0.67192507 -149.85832 -22.374285 -74.323029
8287500000 -22.386559 -65.847343 -0.67169327 -150.34708 -0.67284405 -150.34859 -22.296377 -74.55143
8315000000 -22.554939 -65.954964 -0.6712476 -150.83563 -0.67549819 -150.83655 -22.54283 -74.199493
8342500000 -22.573366 -66.516983 -0.67312819 -151.31367 -0.67553389 -151.34004 -22.755327 -75.911453
8370000000 -22.670462 -66.780739 -0.67349088 -151.82271 -0.67813945 -151.82942 -22.585001 -76.276726
8397500000 -22.902905 -66.630028 -0.67383307 -152.31271 -0.67819273 -152.33301 -22.817743 -74.879059
8425000000 -22.892282 -66.855637 -0.67824388 -152.79398 -0.68219477 -152.79932 -23.28319 -76.574677
8452500000 -22.95611 -67.390846 -0.67904192 -153.28453 -0.68291903 -153.29955 -22.920475 -79.345062
8480000000 -23.221476 -66.752235 -0.68458128 -153.76683 -0.68556207 -153.76991 -22.764343 -75.547394
8507500000 -23.186869 -66.97216 -0.68848944 -154.2355 -0.6900658 -154.22804 -23.911566 -74.307686
8535000000 -23.280312 -68.323898 -0.68406975 -154.68651 -0.68995357 -154.70096 -23.904829 -82.891571
8562500000 -23.368673 -66.626785 -0.67680484 -155.10889 -0.68116659 -155.10063 -22.603853 -81.071678
8590000000 -23.468565 -68.090141 -0.66863739 -155.52284 -0.67595339 -155.53789 -23.025028 -71.567902
8617500000 -23.780746 -69.09613 -0.65955055 -156.03838 -0.66146642 -156.04811 -24.782969 -73.363579
8645000000 -23.619484 -68.041245 -0.64467698 -156.62239 -0.64806426 -156.62971 -24.22456 -86.60495
8672500000 -23.820122 -68.653412 -0.63983607 -157.18657 -0.64243621 -157.19026 -23.01235 -81.909653
8700000000 -24.120037 -67.809967 -0.64060611 -157.69656 -0.64379358 -157.70291 -23.726633 -73.63839
8727500000 -24.036396 -68.76577 -0.64875281 -158.24297 -0.65259665 -158.25771 -24.855042 -80.323753
8755000000 -24.183584 -68.870857 -0.6479609 -158.78261 -0.64950699 -158.79225 -24.188812 -84.165634
8782500000 -24.290768 -67.960915 -0.65223324 -159.26547 -0.65195715 -159.27368 -23.891933 -78.683418
8810000000 -24.338232 -68.66687 -0.65490556 -159.76556 -0.65459913 -159.78137 -24.742636 -78.870056
8837500000 -24.510983 -68.64959 -0.65192437 -160.30945 -0.65464252 -160.30557 -24.820896 -83.568642
8865000000 -24.544121 -68.261673 -0.65122175 -160.77959 -0.65493864 -160.7972 -24.367413 -81.684883
8892500000 -24.633862 -68.494812 -0.65558827 -161.272 -0.65830749 -161.2959 -24.794981 -79.699585
8920000000 -24.774673 -68.818726 -0.65612864 -161.79665 -0.66090482 -161.80237 -25.206108 -82.845619
8947500000 -24.867281 -68.252548 -0.65409505 -162.29643 -0.65919352 -162.29747 -24.911751 -83.40242
8975000000 -24.924314 -68.372452 -0.65421546 -162.79018 -0.65834516 -162.80762 -25.071022 -81.52726
9002500000 -25.096111 -68.831627 -0.65772468 -163.29639 -0.65943724 -163.29967 -25.544809 -83.036018
9030000000 -25.202396 -68.604622 -0.65561086 -163.8037 -0.66051096 -163.82443 -25.320885 -84.321518
9057500000 -25.299961 -68.457611 -0.65731806 -164.29623 -0.66130483 -164.31424 -25.328867 -82.83284
9085000000 -25.444195 -68.697762 -0.65856653 -164.79488 -0.66251314 -164.80557 -25.817698 -83.253616
9112500000 -25.559059 -68.744873 -0.66087258 -165.31871 -0.6632278 -165.32237 -25.864517 -85.469566
9140000000 -25.633339 -68.506218 -0.66147035 -165.80479 -0.6628536 -165.82721 -25.777868 -84.674072
9167500000 -25.793812 -68.610077 -0.66210765 -166.30684 -0.66567242 -166.32217 -26.142458 -84.041557
9195000000 -25.896488 -68.805161 -0.66260421 -166.81824 -0.66539395 -166.83495 -26.367393 -86.019173
9222500000 -26.032965 -68.512512 -0.66068661 -167.30969 -0.66668063 -167.33469 -26.293549 -85.9916
9250000000 -26.160917 -68.575096 -0.66359061 -167.80103 -0.66640091 -167.83426 -26.455498 -84.984055
9277500000 -26.340902 -68.550865 -0.66315216 -168.31685 -0.66774768 -168.33275 -26.810204 -86.456009
9305000000 -26.428707 -68.09024 -0.66381198 -168.81358 -0.67023742 -168.82164 -26.79215 -87.542648
9332500000 -26.561352 -67.859848 -0.66632003 -169.31415 -0.67073494 -169.32669 -26.94388 -86.651924
9360000000 -26.769381 -68.183105 -0.66632783 -169.8203 -0.67047483 -169.83694 -27.245695 -86.862862
9387500000 -26.869097 -68.032372 -0.66535622 -170.32057 -0.67064852 -170.33034 -27.417578 -88.145729
9415000000 -26.995554 -67.496727 -0.66800642 -170.81322 -0.67035973 -170.83736 -27.40807 -87.473206
9442500000 -27.132008 -67.353447 -0.6674087 -171.32024 -0.67091107 -171.32619 -27.737144 -88.001816
9470000000 -27.311354 -67.548409 -0.66779447 -171.81247 -0.67251402 -171.83311 -27.971777 -88.864784
9497500000 -27.44961 -66.509872 -0.66939384 -172.31567 -0.67154402 -172.3363 -28.069895 -88.944214
9525000000 -27.601427 -66.315628 -0.66979915 -172.81865 -0.6735701 -172.83685 -28.262205 -88.636826
9552500000 -27.78134 -66.289421 -0.67152047 -173.31818 -0.67386997 -173.33008 -28.596596 -89.141487
9580000000 -27.879168 -65.637192 -0.67193139 -173.82225 -0.67663938 -173.82671 -28.680685 -89.749603
9607500000 -28.018154 -65.287994 -0.67013443 -174.31557 -0.67458677 -174.345 -28.835938 -89.006187
9635000000 -28.212271 -65.367332 -0.67263943 -174.80794 -0.67583543 -174.82727 -29.238506 -89.554695
9662500000 -28.42535 -64.543625 -0.6747694 -175.31401 -0.67718422 -175.32188 -29.327993 -90.78804
9690000000 -28.521498 -63.36517 -0.6755324 -175.82051 -0.67822963 -175.82887 -29.439678 -90.37249
9717500000 -28.650274 -63.444672 -0.67527777 -176.31378 -0.67922443 -176.34044 -29.768606 -89.903976
9745000000 -28.868708 -63.285686 -0.67786956 -176.81487 -0.67914939 -176.83858 -30.226515 -90.801086
9772500000 -29.009073 -61.7113 -0.6760444 -177.31995 -0.67997307 -177.32083 -30.190529 -90.959991
9800000000 -29.116533 -61.1563 -0.67684269 -177.8222 -0.68168139 -177.81842 -30.494738 -90.132332
9827500000 -29.293781 -61.031273 -0.67633265 -178.32463 -0.68266821 -178.33234 -30.987179 -90.879387
9855000000 -29.452862 -59.276466 -0.67842364 -178.81358 -0.68181133 -178.82899 -31.030453 -92.045967
9882500000 -29.564423 -58.786846 -0.67993128 -179.325 -0.6838401 -179.33118 -31.200104 -90.720215
9910000000 -29.776869 -58.704754 -0.67983925 -179.80557 -0.68150485 -179.82051 -31.793304 -90.941711
9937500000 -29.971741 -57.093964 -0.6799894 179.69795 -0.68541116 179.67628 -32.036915 -91.910332
9965000000 -30.06134 -55.744225 -0.68271518 179.17311 -0.6855036 179.17453 -32.070518 -90.60611
9992500000 -30.280949 -55.192497 -0.68289053 178.69354 -0.68457586 178.68539 -32.747627 -89.647438
10020000000 -30.47913 -54.249592 -0.68254429 178.1964 -0.68452853 178.17648 -33.207336 -92.013145
10047500000 -30.466333 -52.193699 -0.68412429 177.68922 -0.68710554 177.67725 -33.037228 -90.875168
10075000000 -30.650333 -52.489784 -0.68402398 177.18156 -0.68797773 177.18166 -33.567932 -88.085754
10102500000 -30.809 -50.238125 -0.68539959 176.68962 -0.68991834 176.67165 -34.465511 -89.857277
10130000000 -30.866417 -48.097809 -0.68386191 176.19055 -0.6887576 176.17404 -34.373245 -90.392715
10157500000 -31.034531 -48.258228 -0.68698794 175.69855 -0.69024301 175.68529 -34.708118 -87.503487
10185000000 -31.124207 -46.784019 -0.68706888 175.21002 -0.69391119 175.18732 -35.900585 -88.072159
10212500000 -31.248634 -43.665546 -0.69002545 174.70757 -0.69140142 174.6844 -35.775978 -89.504723
10240000000 -31.321022 -43.265587 -0.68742913 174.19193 -0.69210023 174.17992 -35.813152 -85.594063
10267500000 -31.443966 -42.212757 -0.69009918 173.71088 -0.69262576 173.67784 -37.361763 -83.969376
10295000000 -31.414387 -38.820152 -0.68939161 173.19255 -0.69351637 173.18504 -37.763779 -87.405067
10322500000 -31.510021 -38.523354 -0.68981338 172.69189 -0.69462037 172.68028 -37.319016 -82.900673
10350000000 -31.652018 -36.992229 -0.69367611 172.21069 -0.69753957 172.1705 -38.682915 -77.919464
10377500000 -31.588387 -34.520058 -0.69519514 171.69849 -0.6964491 171.6915 -39.974979 -82.8088
10405000000 -31.529371 -33.131062 -0.69444847 171.19276 -0.6989243 171.17273 -38.943363 -79.690063
10432500000 -31.721127 -32.279091 -0.69586229 170.69032 -0.69955713 170.68698 -40.147675 -68.130249
10460000000 -31.60046 -29.251038 -0.69779855 170.19261 -0.69875467 170.20442 -42.322075 -68.860443
10487500000 -31.580933 -27.713291 -0.69699979 169.68425 -0.70049661 169.68523 -41.463161 -69.467033
10515000000 -31.714464 -26.826481 -0.69693655 169.20364 -0.69983298 169.19615 -41.297775 -59.279984
10542500000 -31.641981 -24.283964 -0.69833726 168.71385 -0.70313239 168.69537 -43.586319 -46.757751
10570000000 -31.418491 -22.465252 -0.70046526 168.19948 -0.70299363 168.20212 -43.853359 -48.491962
10597500000 -31.52953 -21.82538 -0.70021981 167.70392 -0.70560628 167.68365 -42.747314 -42.877552
10625000000 -31.407896 -20.209183 -0.70329249 167.21335 -0.70505667 167.20122 -43.508587 -23.683022
10652500000 -31.279282 -17.513527 -0.70432043 166.70779 -0.70522988 166.70305 -45.136768 -18.206284
10680000000 -31.339603 -16.451708 -0.70395422 166.20215 -0.70835 166.17468 -43.253773 -22.158039
10707500000 -31.224535 -15.034329 -0.70689064 165.70035 -0.70967913 165.69365 -42.205585 -4.8973408
10735000000 -30.932049 -13.135811 -0.70578808 165.22284 -0.70900887 165.20531 -42.788868 7.6421065
10762500000 -30.923937 -11.63551 -0.70527071 164.72084 -0.71106195 164.70216 -42.561966 -1.8390048
10790000000 -30.742357 -10.833873 -0.70892322 164.21773 -0.71085036 164.20195 -40.983521 6.8433261
10817500000 -30.570944 -9.5980158 -0.7110976 163.73067 -0.71387321 163.71165 -40.469116 19.82102
10845000000 -30.443859 -8.2564678 -0.70998728 163.23363 -0.71654707 163.19914 -40.781368 17.428074
10872500000 -30.436399 -7.0519996 -0.71106988 162.73061 -0.71254832 162.70343 -39.369339 16.516119
10900000000 -30.100117 -6.7464795 -0.71101284 162.23817 -0.7156328 162.23079 -38.290314 27.390499
10927500000 -30.007456 -4.9789181 -0.7118569 161.74097 -0.71801668 161.72708 -38.561913 27.800079
10955000000 -29.942707 -3.8287313 -0.71317607 161.25003 -0.71894431 161.22501 -37.744427 23.333776
10982500000 -29.709846 -3.0317593 -0.71417588 160.74141 -0.71957022 160.72482 -36.756344 29.17832
11010000000 -29.518995 -2.100682 -0.72021919 160.25201 -0.71945965 160.23503 -36.648903 33.202515
11037500000 -29.385012 -0.88799715 -0.71825337 159.73384 -0.72291374 159.72993 -36.561153 28.687099
11065000000 -29.193626 -0.78570122 -0.72093147 159.23653 -0.72226989 159.23347 -35.385063 29.984514
11092500000 -29.08959 0.17874427 -0.7190637 158.75179 -0.7248624 158.74608 -35.065765 34.41148
11120000000 -28.919643 1.575065 -0.7221452 158.25006 -0.7253353 158.24504 -35.274406 33.142982
11147500000 -28.752468 1.6428566 -0.72093087 157.76749 -0.72660196 157.74203 -34.548717 30.905746
11175000000 -28.558361 1.9980321 -0.72184259 157.26407 -0.72531509 157.25179 -33.804577 34.901512
11202500000 -28.485641 3.4018459 -0.72417301 156.77486 -0.72849041 156.75317 -33.866249 34.079002
11230000000 -28.241514 3.4464893 -0.72562683 156.28658 -0.72863525 156.26807 -33.376877 31.752642
11257500000 -28.110443 3.71908 -0.72489601 155.77126 -0.72957611 155.75992 -32.594223 33.739857
11285000000 -28.024857 4.8348989 -0.72700346 155.27814 -0.73189718 155.27271 -32.536201 35.131676
11312500000 -27.816277 4.8925676 -0.72826755 154.78709 -0.73251462 154.76949 -32.504852 33.006977
11340000000 -27.621983 4.7659626 -0.7310195 154.29121 -0.73186016 154.27664 -31.641096 33.170296
11367500000 -27.540592 5.8307824 -0.73045379 153.79594 -0.73445648 153.77481 -31.430708 35.300049
11395000000 -27.265215 6.1772828 -0.73215824 153.30318 -0.73535049 153.28223 -31.425348 34.567787
11422500000 -27.11117 5.7201796 -0.73208225 152.80035 -0.73633426 152.78993 -30.843882 34.110359
11450000000 -27.017181 6.5807114 -0.73487252 152.29666 -0.73673791 152.30069 -30.49482 35.803116
11477500000 -26.842234 6.9169192 -0.73503226 151.81754 -0.73798269 151.79877 -30.691565 35.175102
11505000000 -26.651226 6.2191458 -0.73572308 151.31516 -0.73897475 151.30719 -30.371712 33.545143
11532500000 -26.577492 6.8559341 -0.73629928 150.81807 -0.74124742 150.81929 -29.897631 34.453064
11560000000 -26.483244 7.4493537 -0.74000227 150.32957 -0.7401616 150.31554 -29.924101 34.527847
11587500000 -26.209026 6.9198122 -0.74008268 149.83809 -0.74256945 149.81606 -29.679977 33.370125
11615000000 -26.136713 7.1157188 -0.74041665 149.34096 -0.74398643 149.32294 -29.229742 33.59798
11642500000 -26.054655 7.7247076 -0.74195641 148.83656 -0.74500161 148.83141 -29.142578 34.122948
11670000000 -25.839159 7.4564853 -0.74351978 148.33795 -0.74626666 148.33076 -29.02076 32.912369
11697500000 -25.713076 7.3854904 -0.74355698 147.84521 -0.74873328 147.83429 -28.619068 32.671097
11725000000 -25.631662 7.9607625 -0.74441415 147.34782 -0.74889874 147.34082 -28.458542 33.371616
11752500000 -25.459431 7.8649664 -0.74679142 146.85402 -0.74996185 146.84885 -28.432501 32.556
11780000000 -25.289679 7.2587366 -0.74644005 146.37036 -0.75032365 146.35684 -28.072691 32.342068
11807500000 -25.264097 7.9359498 -0.7484411 145.86414 -0.75211596 145.85201 -27.895937 32.220726
11835000000 -25.076466 7.7840023 -0.75023627 145.38252 -0.75513536 145.35472 -27.853098 31.840822
11862500000 -24.928095 7.3100777 -0.74955887 144.86957 -0.75339049 144.8696 -27.583799 31.293093
11890000000 -24.846178 7.414937 -0.75078708 144.39069 -0.75517291 144.36888 -27.273682 31.200878
11917500000 -24.719757 7.5743051 -0.75130957 143.89606 -0.75533247 143.88741 -27.347271 31.386892
11945000000 -24.529015 7.5038166 -0.75321776 143.40047 -0.75628626 143.39297 -27.083164 30.323574
11972500000 -24.491629 7.3700113 -0.75317371 142.91928 -0.75957555 142.90152 -26.816944 30.357548
12000000000 -24.393774 7.4557295 -0.75672191 142.40765 -0.75891608 142.40681 -26.79241 30.192482
12027500000 -24.214203 7.1165032 -0.75383508 141.92976 -0.76084054 141.90575 -26.666489 29.492863
12055000000 -24.105976 6.9350061 -0.7602089 141.44139 -0.76013863 141.41055 -26.312138 29.861523
12082500000 -24.066179 6.9077926 -0.75855571 140.94043 -0.76260448 140.92804 -26.283087 29.826904
12110000000 -23.913372 6.5367689 -0.75952131 140.44821 -0.76406229 140.43864 -26.230494 29.10531
12137500000 -23.799665 6.2952666 -0.75992399 139.96159 -0.76378018 139.9568 -26.026896 28.951061
12165000000 -23.693995 5.9817271 -0.76191092 139.46196 -0.76479262 139.44244 -25.893499 28.831188
12192500000 -23.583124 5.7399526 -0.76167369 138.96645 -0.76363206 138.97375 -25.883244 27.887707
12220000000 -23.475965 5.7584281 -0.76206267 138.47971 -0.76504391 138.4529 -25.67395 27.807871
12247500000 -23.412981 5.3885956 -0.7645154 137.98259 -0.76722282 137.9604 -25.507553 27.753807
12275000000 -23.316746 5.229063 -0.76435214 137.48949 -0.76827592 137.4747 -25.557535 26.913691
12302500000 -23.183172 5.1197333 -0.76680893 136.9984 -0.7682991 136.98672 -25.302971 26.65115
12330000000 -23.139492 4.9203534 -0.76607609 136.51689 -0.76922697 136.49335 -25.083906 26.595894
12357500000 -23.045809 4.7317934 -0.76683921 136.02025 -0.77233529 136.00067 -25.163376 25.433458
12385000000 -22.911066 4.6797724 -0.76539898 135.50775 -0.7696352 135.50594 -24.93494 25.148968
12412500000 -22.803982 4.3250074 -0.7688843 135.03891 -0.7712611 135.01889 -24.700041 25.559513
12440000000 -22.75988 4.0291581 -0.76902115 134.53754 -0.77232569 134.51683 -24.755066 25.077568
12467500000 -22.647364 3.9435825 -0.76870877 134.06096 -0.77394795 134.02216 -24.669579 24.08069
12495000000 -22.531912 3.7873015 -0.77019089 133.55873 -0.77471215 133.55533 -24.383865 24.493721
12522500000 -22.504648 3.1021252 -0.77157956 133.05382 -0.77493864 133.04683 -24.332628 24.40946
12550000000 -22.384659 2.9609632 -0.77198154 132.57237 -0.77559096 132.55072 -24.345612 23.288673
12577500000 -22.272972 2.766516 -0.77469361 132.06779 -0.77748847 132.06607 -24.130348 23.512159
12605000000 -22.223038 2.1712656 -0.77276266 131.59686 -0.77982104 131.588 -24.061499 23.506598
12632500000 -22.147751 2.0913105 -0.77315426 131.10547 -0.77745563 131.08081 -24.096308 22.372215
12660000000 -22.054592 1.9599559 -0.77214015 130.61702 -0.77739555 130.59737 -23.891647 22.040859
12687500000 -21.991188 1.4787914 -0.7729699 130.1189 -0.77816409 130.10728 -23.792509 22.401873
12715000000 -21.913343 1.1310546 -0.7740587 129.62331 -0.77951843 129.61147 -23.795961 21.62405
12742500000 -21.834234 1.0038323 -0.77431488 129.12442 -0.77779436 129.11856 -23.668024 21.1245
12770000000 -21.767586 0.70426542 -0.77496403 128.65358 -0.78242952 128.63898 -23.497362 21.517805
12797500000 -21.700293 0.072930813 -0.77721816 128.16916 -0.77991587 128.14737 -23.495022 20.918774
12825000000 -21.619249 0.28475103 -0.77521896 127.66812 -0.78112417 127.66045 -23.412367 19.915537
12852500000 -21.561769 -0.25918111 -0.77845669 127.16281 -0.78213567 127.16679 -23.261438 20.362106
12880000000 -21.510181 -0.66876191 -0.77943414 126.69058 -0.7809689 126.66975 -23.208525 19.890501
12907500000 -21.446804 -0.60782152 -0.77577108 126.20265 -0.78029132 126.17409 -23.190918 19.083708
12935000000 -21.387358 -0.74221236 -0.77848238 125.69988 -0.78113687 125.69154 -23.043333 19.193708
12962500000 -21.291176 -1.3377398 -0.77817768 125.21967 -0.7808134 125.19263 -22.953707 19.199905
12990000000 -21.23365 -1.5787218 -0.77777857 124.73365 -0.78023154 124.70657 -22.901728 18.221146
13017500000 -21.182829 -1.43186 -0.77713054 124.2297 -0.7789253 124.19852 -22.788843 18.280142
13045000000 -21.126085 -2.1470113 -0.77742159 123.73611 -0.78034645 123.71608 -22.695234 18.286015
13072500000 -21.042961 -2.432163 -0.77718258 123.24126 -0.77988613 123.22918 -22.67972 17.283798
13100000000 -21.004107 -2.2757711 -0.77647954 122.75117 -0.77910614 122.72081 -22.580896 16.924877
13127500000 -20.911648 -2.6985185 -0.77633935 122.24496 -0.78108013 122.23814 -22.474672 17.274588
13155000000 -20.863972 -3.3889396 -0.77678907 121.76087 -0.78162432 121.75279 -22.406246 16.738678
13182500000 -20.795174 -3.0543201 -0.77709651 121.27501 -0.78111643 121.26322 -22.358116 16.08337
13210000000 -20.73044 -3.5489607 -0.7768566 120.76804 -0.78205544 120.76144 -22.245638 16.274792
13237500000 -20.635948 -4.126976 -0.77791852 120.27853 -0.77975291 120.27096 -22.150171 15.980799
13265000000 -20.607397 -4.1092172 -0.77600938 119.79041 -0.77846879 119.7881 -22.118666 14.978699
13292500000 -20.557133 -4.1973615 -0.77686805 119.3066 -0.77983683 119.2794 -22.018799 15.298964
13320000000 -20.495255 -5.0115399 -0.77675289 118.79089 -0.7799437 118.78636 -21.924459 15.027497
13347500000 -20.428377 -5.0681319 -0.77598 118.3025 -0.77839571 118.29419 -21.89422 14.30056
13375000000 -20.349426 -4.9262838 -0.77655292 117.81402 -0.7796011 117.79842 -21.795675 13.988263
13402500000 -20.314116 -5.5877042 -0.77571321 117.30325 -0.77931184 117.30032 -21.698132 13.792215
13430000000 -20.258078 -6.0146785 -0.77533472 116.812 -0.77870011 116.79597 -21.664074 13.14303
13457500000 -20.180525 -5.8521852 -0.77517503 116.3312 -0.77839077 116.31538 -21.589947 12.642823
13485000000 -20.134638 -6.5315528 -0.77538329 115.8184 -0.77814054 115.80416 -21.472404 12.813386
13512500000 -20.052139 -6.772963 -0.77576244 115.33125 -0.77844429 115.32658 -21.429224 12.104312
13540000000 -20.04837 -6.661201 -0.77656192 114.83817 -0.77777886 114.8073 -21.361492 11.475234
13567500000 -19.962637 -7.0491576 -0.77546221 114.32984 -0.7807548 114.30405 -21.300669 11.338484
13595000000 -19.869347 -7.8073812 -0.77654272 113.827 -0.78072876 113.82316 -21.177681 10.974308
13622500000 -19.847645 -7.6733351 -0.77757078 113.34745 -0.78135628 113.32363 -21.134888 10.34328
13650000000 -19.803305 -8.0539646 -0.7769869 112.85641 -0.78055465 112.83872 -21.075191 10.206334
13677500000 -19.723627 -8.6514196 -0.77749926 112.35917 -0.7790913 112.32548 -20.982836 9.7465687
13705000000 -19.67968 -8.8187122 -0.77669191 111.86547 -0.78269452 111.83715 -20.914549 9.236392
13732500000 -19.627954 -8.9698591 -0.77740514 111.3809 -0.78039354 111.35781 -20.855742 8.7908764
13760000000 -19.570269 -9.4605722 -0.77749896 110.87711 -0.78040409 110.8621 -20.774498 8.6989183
13787500000 -19.525154 -9.861331 -0.77680826 110.38206 -0.78029346 110.35824 -20.745602 8.1912842
13815000000 -19.504358 -9.7485971 -0.77807736 109.88295 -0.78129739 109.86259 -20.686901 7.7913866
13842500000 -19.432476 -10.360694 -0.77684361 109.3782 -0.78078145 109.36499 -20.650349 7.6824374
13870000000 -19.380966 -10.924656 -0.77421433 108.88872 -0.77983963 108.87202 -20.575232 6.9311953
13897500000 -19.370403 -10.661693 -0.77644336 108.40593 -0.78019649 108.36906 -20.489874 6.6725521
13925000000 -19.303761 -11.168704 -0.77543223 107.8965 -0.7801677 107.87392 -20.475945 6.33534
13952500000 -19.201071 -11.601135 -0.7761004 107.39149 -0.77788603 107.36751 -20.366282 5.7257257
13980000000 -19.186111 -11.748059 -0.77730364 106.90331 -0.77875495 106.88091 -20.319351 5.2792754
14007500000 -19.169371 -11.873492 -0.77879304 106.40656 -0.77878189 106.37745 -20.25507 4.9296131
14035000000 -19.056627 -12.559872 -0.77600259 105.88919 -0.77870661 105.87772 -20.171799 4.6229191
14062500000 -19.025253 -12.732329 -0.77782065 105.39771 -0.77990282 105.38204 -20.118853 4.1069489
14090000000 -19.004431 -12.914207 -0.77761072 104.90925 -0.78107023 104.89663 -20.051643 3.7490478
14117500000 -18.916494 -13.508432 -0.77819532 104.39502 -0.78180748 104.37307 -20.015045 3.4584792
14145000000 -18.865303 -13.799672 -0.77943599 103.88836 -0.7825712 103.86906 -19.940619 2.7554703
14172500000 -18.861633 -13.947849 -0.7776857 103.40473 -0.78369033 103.38835 -19.89439 2.463145
14200000000 -18.781523 -14.48597 -0.78054225 102.90172 -0.78329623 102.87787 -19.831308 1.9947982
14227500000 -18.707663 -14.859588 -0.78168786 102.40021 -0.78469747 102.37398 -19.785927 1.4079102
14255000000 -18.714075 -15.143387 -0.78221071 101.90593 -0.78725582 101.88255 -19.714251 1.1646672
14282500000 -18.656298 -15.744761 -0.78336072 101.40187 -0.78671438 101.39066 -19.680454 0.61828512
14310000000 -18.576263 -16.01268 -0.78484231 100.89835 -0.78986752 100.88107 -19.654106 0.095491834
14337500000 -18.59148 -16.480497 -0.78693557 100.40996 -0.79170972 100.40374 -19.571995 -0.48951095
14365000000 -18.559992 -16.779602 -0.78681582 99.915024 -0.79527408 99.903481 -19.547081 -0.85395294
14392500000 -18.458588 -17.218561 -0.79089254 99.423698 -0.79445374 99.398293 -19.507097 -1.4227983
14420000000 -18.453966 -17.66004 -0.79274923 98.928131 -0.79454851 98.909195 -19.444628 -1.884992
14447500000 -18.436295 -18.098515 -0.7935366 98.442886 -0.7959885 98.427101 -19.401472 -2.237005
14475000000 -18.360401 -18.585794 -0.79409975 97.955505 -0.7956655 97.93148 -19.387613 -2.6871932
14502500000 -18.36939 -18.849369 -0.79400837 97.476418 -0.79828942 97.440468 -19.354347 -3.316803
14530000000 -18.373405 -19.427038 -0.79648358 97.005684 -0.79846299 96.966408 -19.323051 -3.669889
14557500000 -18.306141 -19.699623 -0.79578578 96.492836 -0.79780442 96.476563 -19.296799 -4.050416
14585000000 -18.287663 -20.138462 -0.7935136 96.011902 -0.79904044 95.987289 -19.27775 -4.6722703
14612500000 -18.303816 -20.52659 -0.79701537 95.517448 -0.79807442 95.506821 -19.208977 -4.7478294
14640000000 -18.228832 -20.894241 -0.79546404 95.030602 -0.7983712 95.01281 -19.186188 -5.0656929
14667500000 -18.197231 -21.12384 -0.79501325 94.522888 -0.79569656 94.500061 -19.192522 -5.7930489
14695000000 -18.208344 -21.696825 -0.79523581 94.027626 -0.80114806 94.009499 -19.115881 -6.1624684
14722500000 -18.156553 -22.047083 -0.79748249 93.535927 -0.80143416 93.523949 -19.090967 -6.3339267
14750000000 -18.105162 -22.360487 -0.79660857 93.046036 -0.80072689 93.023445 -19.099049 -7.1814179
14777500000 -18.113806 -22.917131 -0.79658371 92.56147 -0.80105376 92.549591 -19.050081 -7.6290722
14805000000 -18.113976 -23.201761 -0.79779446 92.075188 -0.80220598 92.061783 -19.01449 -7.577558
14832500000 -18.054869 -23.627081 -0.79708654 91.595284 -0.80055755 91.567009 -19.026226 -8.2322264
14860000000 -18.054071 -23.981337 -0.79578298 91.098335 -0.80006361 91.073364 -18.985744 -8.7887173
14887500000 -18.041727 -24.353373 -0.79600161 90.609406 -0.79971665 90.594917 -18.931959 -8.7048655
14915000000 -18.001431 -24.51288 -0.79382128 90.09536 -0.79963446 90.073051 -18.929344 -9.2204523
14942500000 -17.964207 -25.161655 -0.79344618 89.590591 -0.79792577 89.590126 -18.924032 -10.023385
14970000000 -17.961502 -25.564631 -0.79404533 89.097992 -0.79799199 89.092461 -18.865723 -9.8882561
14997500000 -17.959362 -25.721375 -0.79461908 88.611359 -0.79744923 88.598167 -18.821274 -10.203242
15025000000 -17.882418 -26.110889 -0.7939142 88.107552 -0.79913908 88.090843 -18.821119 -10.927175
15052500000 -17.89999 -26.674143 -0.79342258 87.61969 -0.79833293 87.591385 -18.771906 -11.237319
15080000000 -17.868847 -26.902031 -0.7959587 87.116646 -0.79627925 87.094131 -18.727415 -11.287677
15107500000 -17.820774 -27.335011 -0.79468995 86.592064 -0.80065066 86.598076 -18.74822 -12.26993
15135000000 -17.801052 -27.847206 -0.79480094 86.118629 -0.79933852 86.099205 -18.687216 -12.587809
15162500000 -17.820995 -28.183809 -0.79592228 85.627602 -0.80211413 85.603851 -18.651438 -12.526219
15190000000 -17.750917 -28.61058 -0.79881424 85.125916 -0.80106682 85.099464 -18.651192 -13.380672
15217500000 -17.71962 -29.100868 -0.7994898 84.625885 -0.79916245 84.602242 -18.624264 -14.026286
15245000000 -17.731121 -29.427269 -0.80058837 84.120766 -0.80289608 84.103989 -18.574902 -13.88213
15272500000 -17.702984 -29.666029 -0.79923552 83.636726 -0.80277085 83.595772 -18.567516 -14.505913
15300000000 -17.663408 -30.21537 -0.80048007 83.136963 -0.80620682 83.099594 -18.539713 -15.324018
15327500000 -17.671795 -30.795769 -0.80002999 82.631821 -0.80460548 82.603752 -18.515713 -15.265774
15355000000 -17.66024 -31.17738 -0.80291319 82.144539 -0.80593413 82.119835 -18.507311 -15.642327
15382500000 -17.616224 -31.454859 -0.80093235 81.635033 -0.80782437 81.62532 -18.488474 -16.59067
15410000000 -17.607452 -32.146198 -0.80412108 81.146194 -0.80742282 81.109772 -18.445242 -16.844051
15437500000 -17.637068 -32.422359 -0.80438459 80.656509 -0.8078022 80.632286 -18.454578 -16.923859
15465000000 -17.57987 -32.829922 -0.80682552 80.151962 -0.80908412 80.12162 -18.438688 -17.830688
15492500000 -17.559431 -33.317348 -0.80835879 79.665131 -0.80793816 79.644669 -18.418005 -18.315163
15520000000 -17.580666 -33.89959 -0.80692869 79.147171 -0.81218243 79.13916 -18.406713 -18.377502
15547500000 -17.536098 -34.039555 -0.81015301 78.661812 -0.810202 78.642082 -18.378775 -19.26951
15575000000 -17.513493 -34.68195 -0.81069022 78.183144 -0.81267178 78.146851 -18.379066 -19.822775
15602500000 -17.531591 -35.310917 -0.81076014 77.678429 -0.8157289 77.650665 -18.33987 -19.721622
15630000000 -17.522018 -35.597195 -0.81101567 77.189949 -0.81680006 77.158112 -18.365011 -20.472038
15657500000 -17.473879 -36.039314 -0.81162006 76.702072 -0.8166526 76.668129 -18.3487 -21.307055
15685000000 -17.499937 -36.578758 -0.81153297 76.21225 -0.81806403 76.179817 -18.323679 -21.398933
15712500000 -17.503809 -36.90691 -0.8134737 75.71254 -0.81851655 75.682014 -18.328993 -21.732901
15740000000 -17.456543 -37.258991 -0.8169663 75.206673 -0.82176298 75.192505 -18.298189 -22.476707
15767500000 -17.446856 -37.934753 -0.81782997 74.725273 -0.82075965 74.695045 -18.277105 -22.794544
15795000000 -17.471281 -38.497581 -0.81964654 74.235069 -0.82346702 74.217079 -18.279308 -22.983715
15822500000 -17.444311 -38.573196 -0.82054263 73.755409 -0.82423961 73.71257 -18.276442 -23.827009
15850000000 -17.430576 -39.07777 -0.82181078 73.253838 -0.82310873 73.24015 -18.273384 -24.312405
15877500000 -17.459219 -39.749348 -0.82092166 72.764038 -0.82457542 72.746552 -18.247534 -24.476925
15905000000 -17.44869 -39.995739 -0.82120532 72.260994 -0.82311845 72.247169 -18.272266 -25.003511
15932500000 -17.428263 -40.471935 -0.82341629 71.790688 -0.8268339 71.777206 -18.254398 -25.58535
15960000000 -17.459726 -41.129177 -0.82350677 71.296852 -0.82762092 71.261688 -18.249126 -25.917999
15987500000 -17.446344 -41.425762 -0.82694411 70.809532 -0.82665664 70.778526 -18.255835 -26.23539
16015000000 -17.411177 -41.769459 -0.82401961 70.299545 -0.82793003 70.287285 -18.261248 -26.875248
16042500000 -17.441275 -42.44165 -0.82709605 69.824921 -0.82866931 69.797859 -18.248562 -27.318907
16070000000 -17.479504 -42.748932 -0.82644218 69.341469 -0.83175468 69.299934 -18.236355 -27.660536
16097500000 -17.431545 -42.998653 -0.82549888 68.835724 -0.82953942 68.816956 -18.241592 -28.179195
16125000000 -17.432207 -43.629696 -0.82798582 68.353195 -0.83062714 68.332153 -18.265331 -28.6961
16152500000 -17.488848 -44.165089 -0.82891089 67.862434 -0.83048141 67.837585 -18.245014 -29.117636
16180000000 -17.453302 -44.326736 -0.83087504 67.372299 -0.83341968 67.353493 -18.255905 -29.420988
16207500000 -17.434847 -44.988953 -0.83012539 66.888206 -0.83284891 66.860321 -18.279148 -29.961069
16235000000 -17.475058 -45.351212 -0.83051211 66.404503 -0.83286834 66.371933 -18.250828 -30.34173
16262500000 -17.476938 -45.78651 -0.83100355 65.907715 -0.83509725 65.895164 -18.262226 -30.809183
16290000000 -17.449581 -46.068775 -0.83059675 65.428505 -0.83154839 65.391472 -18.290155 -31.281385
16317500000 -17.48995 -46.832001 -0.82914525 64.933907 -0.83508122 64.911301 -18.285711 -31.686239
16345000000 -17.532667 -47.126347 -0.83150887 64.44487 -0.83482558 64.429985 -18.272224 -32.092346
16372500000 -17.473936 -47.433197 -0.83223182 63.980186 -0.83312768 63.95742 -18.309151 -32.440796
16400000000 -17.525391 -47.898502 -0.832488 63.4799 -0.83664709 63.462402 -18.314501 -32.968353
16427500000 -17.570379 -48.45652 -0.83084375 62.993748 -0.83549857 62.972248 -18.293306 -33.439014
16455000000 -17.534597 -48.834538 -0.83106405 62.502106 -0.83430105 62.486191 -18.335443 -33.648533
16482500000 -17.555592 -49.161804 -0.83047986 62.026581 -0.83548599 61.990635 -18.342831 -34.073074
16510000000 -17.61504 -49.697865 -0.83076692 61.544273 -0.83405417 61.515156 -18.315722 -34.546352
16537500000 -17.61235 -50.166195 -0.83130008 61.059418 -0.83431077 61.021744 -18.366692 -34.817299
16565000000 -17.589996 -50.155308 -0.82988596 60.57679 -0.83329958 60.539333 -18.399849 -35.219601
16592500000 -17.65399 -51.007557 -0.83007807 60.0742 -0.83191425 60.07159 -18.359667 -35.823185
16620000000 -17.651051 -51.332138 -0.83023131 59.600609 -0.83396292 59.5742 -18.371115 -36.144161
16647500000 -17.641476 -51.487728 -0.82840306 59.099625 -0.83262223 59.076733 -18.462093 -36.251541
16675000000 -17.712742 -52.004467 -0.82760429 58.645351 -0.83324498 58.597656 -18.394178 -36.788872
16702500000 -17.723717 -52.701885 -0.82718432 58.154984 -0.83096784 58.121864 -18.411364 -37.124546
16730000000 -17.706699 -52.488995 -0.82269418 57.652206 -0.82819474 57.62846 -18.476301 -37.406322
16757500000 -17.760986 -53.029102 -0.82310903 57.166306 -0.83164591 57.1385 -18.459047 -37.961178
16785000000 -17.781792 -53.687855 -0.82276708 56.698349 -0.82867998 56.667969 -18.401218 -38.293598
16812500000 -17.784252 -53.665127 -0.82077372 56.22081 -0.82451284 56.155544 -18.535765 -38.385479
16840000000 -17.82476 -53.841602 -0.81845188 55.695873 -0.82412291 55.682175 -18.513178 -38.958088
16867500000 -17.836014 -54.611279 -0.82105517 55.227283 -0.8199808 55.204685 -18.444683 -39.268024
16895000000 -17.831215 -54.635258 -0.81749058 54.732918 -0.82080877 54.705688 -18.526564 -39.385578
16922500000 -17.877945 -54.806828 -0.81319028 54.221718 -0.81514764 54.191792 -18.58968 -39.836803
16950000000 -17.907476 -55.550125 -0.8148694 53.746414 -0.8182959 53.706467 -18.471289 -40.40295
16977500000 -17.878078 -55.84959 -0.81097043 53.235489 -0.81432605 53.207027 -18.551851 -40.458523
17005000000 -17.915455 -55.708054 -0.80800986 52.723892 -0.81359577 52.717453 -18.637089 -40.765617
17032500000 -17.948103 -56.500389 -0.80975342 52.251915 -0.8152476 52.215523 -18.517883 -41.291737
17060000000 -17.925098 -56.961056 -0.8081221 51.739491 -0.81193179 51.710567 -18.542007 -41.424747
17087500000 -17.959826 -56.653717 -0.80370212 51.255005 -0.81158012 51.219517 -18.66923 -41.979225
17115000000 -17.992435 -57.500496 -0.80619156 50.739815 -0.80853027 50.710842 -18.591373 -42.294647
17142500000 -17.965723 -58.162846 -0.80160195 50.233677 -0.81130147 50.204342 -18.536919 -42.539028
17170000000 -18.004036 -58.103798 -0.80519313 49.741463 -0.80925566 49.730099 -18.674267 -43.160236
17197500000 -18.04398 -58.68235 -0.80568355 49.227093 -0.81208909 49.203987 -18.632435 -43.570667
17225000000 -18.017681 -59.455486 -0.80714595 48.737049 -0.81293494 48.723293 -18.594948 -43.749496
17252500000 -18.052237 -59.282635 -0.80597591 48.263451 -0.81105685 48.212391 -18.710228 -44.431995
17280000000 -18.105188 -59.646984 -0.80643529 47.77261 -0.81052643 47.73526 -18.763239 -44.845097
17307500000 -18.107616 -60.49157 -0.80607498 47.273018 -0.81012464 47.226406 -18.676369 -45.091782
17335000000 -18.114388 -60.485115 -0.80723822 46.776749 -0.80816704 46.741642 -18.769094 -45.228485
17362500000 -18.198181 -60.587917 -0.79925233 46.30341 -0.80678904 46.257118 -18.899284 -45.835629
17390000000 -18.197008 -61.428207 -0.8041622 45.808277 -0.80865967 45.767372 -18.766092 -46.088387
17417500000 -18.182196 -61.622219 -0.80434471 45.314064 -0.80407965 45.274143 -18.806808 -46.314259
17445000000 -18.294783 -61.762398 -0.79914564 44.8078 -0.79971629 44.795349 -18.951546 -46.628712
17472500000 -18.279852 -62.475811 -0.80070603 44.306187 -0.80104595 44.271015 -18.885153 -47.023193
17500000000 -18.281876 -62.854263 -0.79802376 43.819595 -0.80550754 43.758892 -18.841824 -47.105286
17527500000 -18.348293 -62.942829 -0.79522401 43.31678 -0.80313212 43.281246 -19.000889 -47.513786
17555000000 -18.319527 -63.624695 -0.79869759 42.807716 -0.80105221 42.788593 -18.977051 -48.037731
17582500000 -18.329191 -63.80151 -0.79480964 42.320107 -0.79943937 42.259579 -18.892754 -48.279404
17610000000 -18.436234 -63.922718 -0.79658121 41.805363 -0.79903793 41.787865 -19.004955 -48.745266
17637500000 -18.414923 -64.409348 -0.79146624 41.322723 -0.79646987 41.264904 -19.065884 -49.062679
17665000000 -18.38693 -64.849403 -0.79224372 40.82156 -0.79926759 40.790161 -18.970831 -49.277576
17692500000 -18.494165 -65.048698 -0.7928499 40.329659 -0.79469585 40.295349 -19.059706 -49.736279
17720000000 -18.543032 -65.677063 -0.79067236 39.836609 -0.79857749 39.787457 -19.179564 -50.543564
17747500000 -18.479113 -66.161301 -0.7926001 39.320648 -0.79685861 39.279949 -19.083748 -50.269554
17775000000 -18.576534 -66.095032 -0.79381502 38.813461 -0.7977705 38.797028 -19.116161 -50.741009
17802500000 -18.634512 -66.707932 -0.79362237 38.302299 -0.79795188 38.277122 -19.248308 -51.301891
17830000000 -18.557755 -67.205238 -0.78940117 37.800762 -0.79423833 37.792549 -19.200474 -51.496326
17857500000 -18.665039 -67.477478 -0.79273212 37.304031 -0.79517645 37.285545 -19.187889 -51.992516
17885000000 -18.713282 -68.044121 -0.79239506 36.822754 -0.79315066 36.804066 -19.296862 -52.313717
17912500000 -18.671047 -68.161911 -0.79307359 36.336498 -0.79670125 36.270523 -19.313898 -52.542213
17940000000 -18.677597 -68.256615 -0.78945118 35.825829 -0.79451901 35.780907 -19.303194 -52.791512
17967500000 -18.838219 -69.050461 -0.79077673 35.328918 -0.7956835 35.295773 -19.403473 -53.363689
17995000000 -18.778198 -69.326538 -0.79385698 34.82156 -0.79335326 34.792713 -19.442074 -53.916344
18022500000 -18.798237 -69.555161 -0.78751522 34.327782 -0.79591298 34.289078 -19.392075 -54.228806
18050000000 -18.933586 -70.224182 -0.78872508 33.836246 -0.7958107 33.80146 -19.451254 -54.57946
18077500000 -18.952877 -70.45694 -0.79266596 33.329197 -0.79447764 33.296268 -19.574118 -55.129414
18105000000 -18.885159 -70.678764 -0.78661847 32.80872 -0.79600406 32.799095 -19.48517 -55.422253
18132500000 -19.032827 -71.46257 -0.79008049 32.334961 -0.7955147 32.311237 -19.550497 -55.566204
18160000000 -19.070068 -71.707657 -0.79143703 31.834648 -0.79196882 31.81106 -19.681313 -56.255428
18187500000 -18.993532 -71.719704 -0.78858942 31.321369 -0.7943095 31.288612 -19.596411 -56.554413
18215000000 -19.114952 -72.465492 -0.78862756 30.813162 -0.79672271 30.805483 -19.61525 -56.559761
18242500000 -19.235806 -72.951332 -0.79285455 30.326036 -0.79544663 30.292538 -19.75222 -57.369423
18270000000 -19.160192 -72.943382 -0.79277939 29.841011 -0.79570842 29.789251 -19.753311 -57.815037
18297500000 -19.245214 -73.406822 -0.7905165 29.336487 -0.79790646 29.322992 -19.75045 -58.11375
18325000000 -19.317101 -74.167992 -0.79222417 28.856297 -0.79693109 28.791477 -19.907787 -58.443321
18352500000 -19.331593 -73.971977 -0.79283589 28.361176 -0.79522061 28.304647 -19.911402 -58.974476
18380000000 -19.335194 -74.352081 -0.79157305 27.863859 -0.79381442 27.813921 -19.894266 -59.020485
18407500000 -19.478003 -75.332352 -0.7928524 27.351858 -0.79403883 27.307858 -19.947382 -59.484009
18435000000 -19.488741 -75.205811 -0.79403633 26.854162 -0.7982356 26.806118 -20.069826 -60.149796
18462500000 -19.481718 -75.293152 -0.78891504 26.345047 -0.7948457 26.321299 -20.022215 -60.396317
18490000000 -19.645969 -76.326546 -0.79192346 25.882578 -0.79430234 25.823597 -20.070263 -60.316944
18517500000 -19.667835 -76.565712 -0.79347199 25.355343 -0.80066186 25.331738 -20.195507 -61.084137
18545000000 -19.660896 -76.245575 -0.79189271 24.862686 -0.79667389 24.822309 -20.159998 -61.420231
18572500000 -19.695454 -77.267494 -0.79319352 24.36804 -0.79551685 24.324907 -20.192848 -61.603245
18600000000 -19.824896 -77.792015 -0.79624259 23.86277 -0.79839826 23.819813 -20.336414 -61.909435
18627500000 -19.849585 -77.186127 -0.79259634 23.396217 -0.79697555 23.318108 -20.328211 -62.469395
18655000000 -19.878115 -78.079605 -0.79126495 22.871208 -0.79755497 22.840284 -20.370392 -62.822613
18682500000 -19.976961 -78.795334 -0.79630506 22.383284 -0.79924148 22.354691 -20.473896 -62.93367
18710000000 -20.063932 -78.461914 -0.79199457 21.876957 -0.80143636 21.853903 -20.552961 -63.490803
18737500000 -20.034151 -78.940346 -0.79248667 21.406458 -0.79715967 21.360826 -20.497362 -63.913361
18765000000 -20.200832 -79.951881 -0.79524606 20.92078 -0.79620028 20.871286 -20.634659 -63.96093
18792500000 -20.275389 -79.582779 -0.79413515 20.391184 -0.8000319 20.373842 -20.687881 -64.364754
18820000000 -20.258068 -79.826981 -0.79109198 19.890608 -0.79664588 19.872911 -20.640062 -64.594635
18847500000 -20.328564 -80.696266 -0.78966695 19.408873 -0.79621208 19.399794 -20.794159 -64.700546
18875000000 -20.426403 -80.806618 -0.78943253 18.913649 -0.79648232 18.873043 -20.922836 -65.182251
18902500000 -20.533823 -80.696655 -0.79035842 18.417305 -0.79565614 18.388437 -20.852901 -65.562416
18930000000 -20.523514 -81.464767 -0.79156065 17.951855 -0.79451716 17.893175 -20.945187 -65.639091
18957500000 -20.64176 -82.174782 -0.78994048 17.430912 -0.79623884 17.404964 -21.082964 -66.063362
18985000000 -20.689726 -81.558456 -0.79172313 16.921785 -0.79590052 16.888847 -21.005451 -66.446419
19012500000 -20.76889 -82.13472 -0.78910905 16.447861 -0.79604542 16.406498 -21.064274 -66.329422
19040000000 -20.864061 -83.32383 -0.79188401 15.956668 -0.79735434 15.928064 -21.256966 -66.9879
19067500000 -20.946829 -82.718834 -0.79116279 15.429193 -0.7905966 15.412214 -21.245569 -66.776802
19095000000 -20.986595 -83.024757 -0.79338652 14.928685 -0.79502165 14.901916 -21.223396 -67.575264
19122500000 -21.09437 -84.019241 -0.78978556 14.453514 -0.7972371 14.421757 -21.419453 -67.7118
19150000000 -21.182726 -84.134445 -0.78878742 13.940454 -0.79665273 13.896875 -21.499321 -68.0037
19177500000 -21.208458 -83.539574 -0.79110342 13.448717 -0.79322863 13.42954 -21.426497 -68.288795
19205000000 -21.295992 -84.90139 -0.79248542 12.954317 -0.79325819 12.934343 -21.64467 -68.593712
19232500000 -21.426535 -84.872459 -0.78954059 12.461097 -0.79692578 12.430407 -21.73378 -68.732666
19260000000 -21.492897 -84.54615 -0.78880668 11.954288 -0.78962129 11.916124 -21.629219 -68.772141
19287500000 -21.552048 -85.281441 -0.79579204 11.479485 -0.79286975 11.437016 -21.77059 -69.701706
19315000000 -21.657234 -86.069649 -0.79026681 10.976041 -0.7951892 10.943072 -21.969362 -69.448639
19342500000 -21.76144 -85.535316 -0.78906685 10.476888 -0.79131156 10.420946 -21.882456 -69.703636
19370000000 -21.811359 -85.864441 -0.78758818 9.9766455 -0.79411 9.9410114 -21.989569 -70.322083
19397500000 -21.895885 -87.006752 -0.7883088 9.492384 -0.79378462 9.4482927 -22.185122 -70.462257
19425000000 -22.069279 -86.631325 -0.78624684 8.9863329 -0.79712141 8.949666 -22.172735 -70.304886
19452500000 -22.163097 -86.484749 -0.78898519 8.4830599 -0.79337126 8.4598532 -22.179295 -70.694557
19480000000 -22.181953 -87.902245 -0.78962284 7.9926038 -0.79408604 7.9580927 -22.437864 -71.464058
19507500000 -22.300158 -87.680397 -0.78832495 7.4940181 -0.79369044 7.4536958 -22.454836 -71.126999
19535000000 -22.512774 -87.531067 -0.78502995 6.9798069 -0.79048014 6.9526448 -22.424828 -71.059662
19562500000 -22.506607 -88.578018 -0.78679317 6.5208626 -0.79028606 6.4825387 -22.599874 -71.868065
19590000000 -22.600275 -88.947235 -0.78565991 6.0233116 -0.79093546 5.9575114 -22.775658 -71.585342
19617500000 -22.847242 -88.091621 -0.78711373 5.521492 -0.79111463 5.4633632 -22.752415 -71.807999
19645000000 -22.835352 -89.149445 -0.78605539 5.025878 -0.79510498 4.9791403 -22.855679 -72.62088
19672500000 -22.903328 -89.903572 -0.78737622 4.5251117 -0.79094255 4.4912343 -23.078123 -72.410133
19700000000 -23.134426 -88.781616 -0.78363854 4.0215006 -0.78717917 3.9773233 -23.060066 -72.14254
19727500000 -23.235447 -89.786934 -0.78610784 3.5103159 -0.78705567 3.4728467 -23.053541 -72.849953
19755000000 -23.214375 -90.185646 -0.78347951 3.0404818 -0.78869247 2.9849701 -23.266823 -72.819054
19782500000 -23.495415 -89.763718 -0.78277296 2.5231762 -0.78796399 2.5072582 -23.435286 -72.19648
19810000000 -23.623373 -90.282951 -0.78415477 2.0163279 -0.78636563 1.9893104 -23.375118 -72.920059
19837500000 -23.523022 -91.136749 -0.78590989 1.5227321 -0.78897744 1.4977707 -23.601341 -73.705475
19865000000 -23.822962 -90.296989 -0.78191376 1.040947 -0.78802794 0.99778914 -23.820705 -72.736534
19892500000 -24.094946 -90.588844 -0.78082854 0.52188718 -0.78491735 0.49890172 -23.724968 -73.100639
19920000000 -23.928013 -91.599007 -0.78330463 0.044530958 -0.78983086 0.0020215756 -23.963058 -74.128181
19947500000 -24.142279 -90.836891 -0.77851027 -0.44474146 -0.78598654 -0.48924255 -24.157434 -73.566826
19975000000 -24.479376 -91.371216 -0.7797786 -0.97029275 -0.78277451 -0.98626417 -24.201735 -72.988884
20002500000 -24.378942 -92.12252 -0.78198659 -1.4531555 -0.78806084 -1.5094688 -24.157921 -74.690247
20030000000 -24.546494 -91.828461 -0.78046823 -1.96505 -0.78630638 -2.0086722 -24.481491 -73.492065
20057500000 -24.97995 -91.819939 -0.77771229 -2.4538107 -0.78569245 -2.489069 -24.647102 -73.164833
20085000000 -24.886459 -92.311615 -0.77927434 -2.9503903 -0.7849983 -3.0003848 -24.562624 -74.037582
20112500000 -24.839951 -91.897987 -0.78067303 -3.4447846 -0.78488511 -3.5205669 -24.884342 -74.218575
20140000000 -25.443737 -92.092567 -0.77739805 -3.9386218 -0.78069347 -3.9845202 -25.065395 -73.174278
20167500000 -25.368774 -92.876335 -0.77668262 -4.4648719 -0.78189981 -4.4978418 -24.948698 -74.107277
20195000000 -25.303059 -92.16217 -0.7773813 -4.9520712 -0.78149104 -4.9988728 -25.219017 -74.114281
20222500000 -25.813808 -91.869698 -0.7776773 -5.4467864 -0.78210157 -5.4944563 -25.472532 -73.581902
20250000000 -26.047333 -92.915298 -0.77658451 -5.9556885 -0.77903897 -6.0138888 -25.413795 -74.156303
20277500000 -25.7624 -92.356812 -0.77946329 -6.4656963 -0.78005338 -6.4995565 -25.56097 -74.616425
20305000000 -26.224607 -91.409836 -0.77638423 -6.964745 -0.780994 -6.990098 -25.959602 -73.238319
20332500000 -26.552361 -93.35038 -0.77416825 -7.4495831 -0.77860069 -7.5027647 -26.079275 -72.962868
20360000000 -26.421753 -92.013557 -0.77636409 -7.9604449 -0.78130448 -8.004797 -25.935143 -73.791183
20387500000 -26.638842 -91.17292 -0.77676558 -8.4599943 -0.78116661 -8.5174675 -26.394257 -72.88221
20415000000 -27.164316 -92.610527 -0.77565473 -8.9626446 -0.77729464 -9.0099258 -26.551359 -72.214668
20442500000 -26.997904 -92.32061 -0.77935177 -9.5008278 -0.78076315 -9.5380316 -26.450823 -73.120102
20470000000 -27.1639 -90.728447 -0.77632415 -10.012364 -0.78218681 -10.033892 -26.828495 -72.202911
20497500000 -27.774687 -91.529602 -0.77516729 -10.485204 -0.77669251 -10.51609 -27.082489 -71.432739
20525000000 -27.712149 -91.879433 -0.77831024 -10.985445 -0.77743459 -11.039305 -26.904861 -71.600891
20552500000 -27.753551 -89.835686 -0.77648419 -11.502378 -0.77858675 -11.534545 -27.218054 -71.570824
20580000000 -28.349895 -90.56842 -0.7772482 -12.013448 -0.77844584 -12.036278 -27.5854 -69.050873
20607500000 -28.397457 -90.575348 -0.77521187 -12.506495 -0.77812195 -12.538301 -27.576487 -70.112137
20635000000 -28.380255 -88.288353 -0.78285295 -13.022835 -0.78436595 -13.074998 -27.680384 -69.924011
20662500000 -28.966501 -87.695297 -0.77601463 -13.546866 -0.78192306 -13.560674 -28.120255 -68.331207
20690000000 -29.121824 -89.011032 -0.7767058 -14.033938 -0.78270942 -14.074006 -28.134226 -67.611816
20717500000 -29.081406 -87.00663 -0.78010762 -14.532271 -0.78422952 -14.553195 -28.115973 -67.194115
20745000000 -29.46701 -85.268517 -0.77949923 -15.022609 -0.7849192 -15.084265 -28.541048 -65.499451
20772500000 -29.884382 -86.714539 -0.78326833 -15.542103 -0.78646368 -15.569162 -28.617769 -65.226242
20800000000 -29.641468 -83.566368 -0.78363448 -16.043297 -0.78529918 -16.080719 -28.559765 -65.927803
20827500000 -30.002287 -81.702103 -0.78321505 -16.555738 -0.78711647 -16.572367 -28.894531 -63.485741
20855000000 -30.423708 -83.53302 -0.78900069 -17.025446 -0.79016811 -17.088369 -29.091223 -62.106789
20882500000 -30.37772 -81.412605 -0.78843606 -17.547876 -0.79083079 -17.596037 -28.979719 -62.334751
20910000000 -30.321795 -78.054962 -0.78267747 -18.019825 -0.79162931 -18.067057 -29.303713 -60.221218
20937500000 -30.999514 -78.453232 -0.7909435 -18.525955 -0.7908572 -18.539774 -29.409672 -59.101128
20965000000 -30.876009 -77.477394 -0.79088914 -19.039593 -0.7946859 -19.055021 -29.34551 -59.141026
20992500000 -30.844671 -73.473244 -0.78864247 -19.506519 -0.79332185 -19.550219 -29.486225 -58.814186
21020000000 -31.243507 -74.788933 -0.791866 -19.9876 -0.79747504 -20.043892 -29.601751 -55.53207
21047500000 -31.485636 -73.62458 -0.78673393 -20.50631 -0.79314226 -20.542578 -29.754494 -57.320053
21075000000 -31.37141 -69.958176 -0.79045218 -20.97892 -0.79281789 -21.039339 -29.809458 -55.983433
21102500000 -31.704536 -69.448837 -0.79097301 -21.49505 -0.79220927 -21.532068 -30.011641 -52.655857
21130000000 -31.998245 -69.033745 -0.78814679 -21.970396 -0.79032212 -22.017801 -30.174271 -53.105988
21157500000 -31.915937 -65.333 -0.78667033 -22.479185 -0.79224527 -22.535282 -30.429352 -52.775547
21185000000 -32.058594 -62.922558 -0.78158373 -22.97163 -0.7909314 -23.04213 -30.37195 -48.529572
21212500000 -32.59029 -64.181091 -0.7857182 -23.464373 -0.79138422 -23.522152 -30.547081 -48.46637
21240000000 -32.457653 -60.088371 -0.78287494 -24.011852 -0.78617048 -24.040604 -30.836109 -49.267555
21267500000 -32.414738 -56.720695 -0.7835936 -24.480299 -0.79247022 -24.531128 -30.705648 -44.853588
21295000000 -32.864552 -56.443989 -0.7850526 -25.009007 -0.78796494 -25.035191 -30.63979 -42.705109
21322500000 -32.965603 -52.278088 -0.78753543 -25.510759 -0.78762293 -25.556112 -31.055582 -43.290104
21350000000 -32.493889 -48.707397 -0.78267068 -26.002947 -0.78881788 -26.047344 -31.057823 -40.824463
21377500000 -32.901096 -48.600731 -0.7839613 -26.537521 -0.79137087 -26.556507 -30.743734 -37.270096
21405000000 -32.946327 -44.364269 -0.78610039 -27.041992 -0.79203004 -27.09387 -30.832466 -39.508751
21432500000 -32.581264 -41.026886 -0.78651732 -27.508713 -0.78591734 -27.577391 -31.046473 -34.475227
21460000000 -32.56321 -41.230335 -0.7857945 -28.032211 -0.79162091 -28.103041 -30.718752 -31.101017
21487500000 -32.73632 -37.423775 -0.78490525 -28.554459 -0.79237145 -28.585249 -30.668106 -31.560669
21515000000 -32.423992 -32.655972 -0.7890448 -29.06632 -0.79250222 -29.111963 -31.175611 -29.431049
21542500000 -31.975904 -32.812187 -0.78885233 -29.544874 -0.79355681 -29.585665 -30.618614 -26.011198
21570000000 -32.450352 -30.4541 -0.79239196 -30.049707 -0.7969799 -30.097103 -30.462717 -25.70731
21597500000 -31.858721 -26.371979 -0.79298317 -30.575605 -0.79962546 -30.60981 -30.785719 -26.22644
21625000000 -31.400145 -25.414099 -0.79241741 -31.060432 -0.79827696 -31.087866 -30.448917 -21.598774
21652500000 -31.715099 -25.247795 -0.7939316 -31.564228 -0.8023352 -31.59622 -29.910404 -20.973356
21680000000 -31.444771 -20.687315 -0.79568291 -32.07188 -0.80382729 -32.123585 -30.127254 -20.299515
21707500000 -30.818304 -19.408079 -0.79480839 -32.54269 -0.79990864 -32.590813 -30.072365 -17.548992
21735000000 -30.936172 -19.808962 -0.79834324 -33.023468 -0.80239284 -33.082897 -29.428766 -16.38542
21762500000 -30.993517 -16.213003 -0.80023944 -33.578522 -0.80541933 -33.617393 -29.632854 -17.056957
21790000000 -30.188225 -14.034245 -0.80245322 -34.054714 -0.80658114 -34.084354 -29.824135 -14.074188
21817500000 -30.073685 -15.99455 -0.80242395 -34.532482 -0.80883622 -34.56004 -29.030579 -12.960018
21845000000 -30.162918 -13.421844 -0.80439985 -35.061745 -0.80508405 -35.103138 -29.028023 -13.532897
21872500000 -29.650373 -11.123419 -0.80567986 -35.560108 -0.80916643 -35.590405 -29.312782 -11.594123
21900000000 -29.413548 -11.606628 -0.80435252 -36.037643 -0.80741531 -36.076069 -28.561024 -9.5995626
21927500000 -29.478542 -11.003331 -0.80291939 -36.53611 -0.80928528 -36.580639 -28.349361 -10.129282
21955000000 -29.09693 -8.238368 -0.80831265 -37.07235 -0.8115595 -37.098701 -28.834682 -10.022537
21982500000 -28.660561 -8.79179 -0.80729002 -37.519444 -0.81616682 -37.562481 -28.336239 -6.6889815
22010000000 -28.748848 -9.8891287 -0.80695707 -38.033157 -0.81375813 -38.066006 -27.869133 -7.7616138
22037500000 -28.535713 -6.266839 -0.81221145 -38.550568 -0.81351179 -38.580589 -28.139299 -8.1856441
22065000000 -27.996529 -5.7946 -0.81622368 -39.000568 -0.81760591 -39.046875 -28.003937 -5.0247202
22092500000 -27.967384 -7.2436838 -0.80985796 -39.520615 -0.81785899 -39.545044 -27.255169 -5.7622409
22120000000 -27.870081 -5.5695839 -0.81211907 -40.037277 -0.81649607 -40.060421 -27.454676 -7.0954618
22147500000 -27.384771 -3.2872095 -0.81436479 -40.527527 -0.81882411 -40.54739 -27.681429 -4.5661287
22175000000 -27.368301 -5.6890574 -0.81808525 -40.9921 -0.82152271 -41.028023 -26.874231 -2.7540092
22202500000 -27.292795 -4.6732845 -0.81655484 -41.505665 -0.8210389 -41.548317 -26.961351 -5.4209962
22230000000 -26.952429 -2.4616728 -0.82026845 -42.029312 -0.8224408 -42.036407 -27.16473 -4.476728
22257500000 -26.749624 -4.3264098 -0.81979817 -42.463879 -0.82365102 -42.519341 -26.534641 -1.6787993
22285000000 -26.699303 -4.6999807 -0.81951743 -42.977016 -0.82211047 -43.022755 -26.351366 -3.2793131
22312500000 -26.389408 -1.7646439 -0.81621867 -43.495918 -0.82164502 -43.507973 -26.608759 -3.925168
22340000000 -26.227085 -2.5161529 -0.8213554 -43.945396 -0.82284999 -43.986084 -26.258827 -0.86286366
22367500000 -26.133698 -3.9720705 -0.82120156 -44.448502 -0.82397395 -44.486748 -25.93663 -1.9103529
22395000000 -26.039047 -0.98776746 -0.81904477 -44.958694 -0.82267916 -45.00782 -26.090075 -3.8507135
22422500000 -25.676628 -1.1651015 -0.82072306 -45.416573 -0.82104766 -45.466694 -26.002871 0.45352468
22450000000 -25.599205 -3.1152847 -0.82087255 -45.930866 -0.82289571 -45.968796 -25.571793 -0.26896366
22477500000 -25.566118 -1.7175443 -0.8174209 -46.461006 -0.82121247 -46.49147 -25.642492 -2.7517979
22505000000 -25.321619 0.44126004 -0.81962967 -46.934528 -0.82010019 -46.978569 -25.637123 -7.3521005e-05
22532500000 -25.101608 -2.055706 -0.82250148 -47.427197 -0.82635671 -47.459774 -25.204788 1.5165327
22560000000 -24.960672 -1.2184039 -0.81844717 -47.929932 -0.8235665 -47.998455 -25.080017 -1.56102
22587500000 -24.858635 0.98928303 -0.81982917 -48.450634 -0.82665789 -48.489399 -25.258373 -0.11378558
22615000000 -24.544737 -0.85381132 -0.8259415 -48.925117 -0.82520586 -48.96843 -24.819025 1.7027993
22642500000 -24.391649 -1.8717058 -0.82110149 -49.431076 -0.82516515 -49.523018 -24.548519 -0.26916635
22670000000 -24.370438 0.95233405 -0.8193652 -49.946999 -0.82660437 -49.973164 -24.791147 -0.32256976
22697500000 -24.180573 -0.73231691 -0.82631725 -50.44075 -0.82834792 -50.470337 -24.559887 2.137059
22725000000 -23.962961 -1.8563573 -0.82639426 -50.961967 -0.83347392 -50.991352 -24.239563 1.0016514
22752500000 -23.913887 -0.6374138 -0.82358843 -51.45504 -0.8268593 -51.473774 -24.287807 -0.69144279
22780000000 -23.718746 -0.27874362 -0.82504809 -51.955116 -0.83371544 -51.961575 -24.216549 2.0416574
22807500000 -23.467896 -2.0943089 -0.82675064 -52.449768 -0.83228606 -52.455555 -23.834768 1.7003299
22835000000 -23.44598 -0.76275724 -0.8312133 -52.945328 -0.83226442 -52.979424 -23.706812 -0.29549396
22862500000 -23.374182 -0.45935041 -0.83111799 -53.43364 -0.83469349 -53.497208 -23.897268 1.423026
22890000000 -23.08441 -2.5426981 -0.83316845 -53.922466 -0.83715999 -54.000465 -23.576202 1.7509915
22917500000 -22.965479 -1.8327671 -0.834472 -54.426373 -0.83885938 -54.482441 -23.330509 -0.34014225
22945000000 -23.001232 -1.2159187 -0.83145529 -54.919987 -0.83498335 -54.979034 -23.481855 0.16655356
22972500000 -22.652254 -2.6956317 -0.83666468 -55.419537 -0.84375292 -55.481773 -23.242088 1.78048
23000000000 -22.529455 -2.4601021 -0.83656925 -55.94278 -0.84096789 -55.985252 -23.024574 0.2274714
23027500000 -22.654041 -1.9500711 -0.83610106 -56.405731 -0.84475589 -56.467171 -23.012203 -0.44482574
23055000000 -22.244156 -2.8950553 -0.84386015 -56.908886 -0.84564555 -56.972816 -22.939987 1.6481569
23082500000 -22.118273 -3.4532354 -0.84386486 -57.42226 -0.84444147 -57.460701 -22.692924 0.26598245
23110000000 -22.280716 -3.1204612 -0.84204376 -57.888435 -0.84251952 -57.932339 -22.616959 -1.0969678
23137500000 -22.020185 -3.6886296 -0.84409213 -58.436157 -0.84697169 -58.435944 -22.716393 0.80634481
23165000000 -21.782755 -3.867511 -0.84668887 -58.915035 -0.8495717 -58.98288 -22.393982 0.16745883
23192500000 -21.910837 -4.1620212 -0.84837663 -59.370861 -0.84973729 -59.402199 -22.268456 -1.3590504
23220000000 -21.756826 -4.4588022 -0.84713119 -59.900082 -0.85273969 -59.923832 -22.430374 -0.33197737
23247500000 -21.443941 -5.2989135 -0.84849024 -60.424614 -0.8541925 -60.441826 -22.142544 -0.26655427
23275000000 -21.546438 -5.183979 -0.85090256 -60.878193 -0.85245961 -60.875954 -21.974689 -1.5118756
23302500000 -21.530207 -5.6983604 -0.84496844 -61.348816 -0.85471559 -61.389366 -22.052671 -1.3040636
23330000000 -21.204409 -6.0451488 -0.85042363 -61.872192 -0.85716069 -61.903568 -21.916374 -0.56137353
23357500000 -21.203648 -6.2156854 -0.85530376 -62.35141 -0.86061507 -62.38876 -21.705849 -2.310097
23385000000 -21.219286 -6.7230964 -0.8568154 -62.811718 -0.85396844 -62.861538 -21.670839 -2.4800909
23412500000 -20.934364 -7.3333154 -0.85522652 -63.335377 -0.86033291 -63.393574 -21.666231 -1.3406446
23440000000 -20.825558 -7.4112768 -0.85818315 -63.853432 -0.8629154 -63.884323 -21.51985 -2.7057528
23467500000 -21.011738 -8.1818819 -0.85659534 -64.300156 -0.86209989 -64.332542 -21.350304 -2.8596303
23495000000 -20.701242 -8.587347 -0.85598904 -64.797325 -0.86229908 -64.857407 -21.467508 -1.8612889
23522500000 -20.573984 -8.1690912 -0.86030108 -65.335098 -0.86420608 -65.363922 -21.31226 -2.8618298
23550000000 -20.731285 -9.175827 -0.86345381 -65.775673 -0.86232084 -65.839127 -21.16037 -2.9923275
23577500000 -20.575127 -9.3797159 -0.86601061 -66.290382 -0.86484855 -66.325516 -21.272602 -3.2634037
23605000000 -20.33848 -9.2665577 -0.86399698 -66.799263 -0.86878234 -66.852844 -21.094612 -3.9558043
23632500000 -20.439075 -10.173167 -0.86909479 -67.24511 -0.86736768 -67.306114 -20.93195 -3.8189073
23660000000 -20.386976 -11.108302 -0.86853319 -67.757233 -0.86880922 -67.829544 -21.010963 -3.9594889
23687500000 -20.140202 -10.442906 -0.86878711 -68.256912 -0.87308747 -68.333389 -20.881607 -4.4664774
23715000000 -20.241749 -11.133006 -0.8685149 -68.751999 -0.87167835 -68.790558 -20.785767 -4.6350231
23742500000 -20.174648 -11.688607 -0.87039936 -69.213692 -0.87362176 -69.252792 -20.762674 -4.339736
23770000000 -19.986048 -11.667192 -0.8714363 -69.742882 -0.8719058 -69.782997 -20.725435 -4.9393058
23797500000 -19.942196 -11.996267 -0.86777735 -70.239212 -0.86906981 -70.259727 -20.571642 -5.7872334
23825000000 -20.057507 -13.082722 -0.87370783 -70.667633 -0.87285393 -70.719025 -20.536253 -5.5913472
23852500000 -19.805735 -12.726124 -0.87151569 -71.203995 -0.87497199 -71.237923 -20.519516 -5.7353759
23880000000 -19.795238 -12.893002 -0.87166506 -71.71917 -0.87457877 -71.719437 -20.374828 -6.6227307
23907500000 -19.788998 -14.175282 -0.87383097 -72.167526 -0.87807584 -72.237213 -20.347418 -6.2354856
23935000000 -19.697388 -13.626003 -0.87350368 -72.683144 -0.87938213 -72.709641 -20.32464 -6.3071752
23962500000 -19.568073 -13.722934 -0.86977786 -73.203224 -0.87509739 -73.234375 -20.183771 -7.4431305
23990000000 -19.582947 -15.164057 -0.87316471 -73.646027 -0.87639296 -73.709373 -20.192444 -6.8238955
24017500000 -19.522892 -14.944089 -0.8763417 -74.163879 -0.87759453 -74.196701 -20.147005 -6.7525644
24045000000 -19.388599 -14.834527 -0.87348121 -74.663284 -0.87590492 -74.698219 -19.987913 -8.0159998
24072500000 -19.416895 -16.1555 -0.87290329 -75.128479 -0.87905699 -75.164436 -20.00527 -8.2549038
24100000000 -19.351965 -16.196945 -0.87348914 -75.586037 -0.88233912 -75.671486 -19.946814 -7.5959501
24127500000 -19.193575 -15.539719 -0.87604141 -76.127258 -0.87811005 -76.168716 -19.826717 -8.4289103
24155000000 -19.173317 -16.742134 -0.8714717 -76.619286 -0.8750692 -76.647865 -19.784451 -9.1501875
24182500000 -19.201582 -17.236725 -0.87627012 -77.107155 -0.88191825 -77.138687 -19.811562 -8.5378075
24210000000 -19.068771 -16.64193 -0.87752962 -77.586723 -0.88145554 -77.636536 -19.680012 -9.2583628
24237500000 -19.006369 -17.058117 -0.8748495 -78.091202 -0.87724608 -78.121986 -19.562466 -9.7107334
24265000000 -19.005314 -18.518278 -0.87781441 -78.557243 -0.88159698 -78.611382 -19.59831 -9.065443
24292500000 -18.944056 -17.710989 -0.88019747 -79.061905 -0.88048053 -79.130608 -19.50728 -9.5104942
24320000000 -18.822916 -17.952549 -0.87587959 -79.575699 -0.87446761 -79.617546 -19.395325 -10.767084
24347500000 -18.808786 -19.278734 -0.87967628 -80.053261 -0.88125515 -80.076263 -19.437008 -10.406627
24375000000 -18.778528 -18.917368 -0.88204163 -80.5355 -0.88447392 -80.596581 -19.399359 -10.142224
24402500000 -18.710415 -18.805386 -0.87354422 -81.043648 -0.87818009 -81.076515 -19.191473 -11.660922
24430000000 -18.581612 -20.098576 -0.87664098 -81.51123 -0.88254434 -81.566193 -19.189621 -11.627827
24457500000 -18.598591 -20.320984 -0.87937295 -82.023544 -0.88453293 -82.080696 -19.232492 -11.008167
24485000000 -18.514111 -19.758074 -0.87629259 -82.528877 -0.88003862 -82.573486 -19.028362 -12.003837
24512500000 -18.466719 -20.761774 -0.8733176 -82.975494 -0.88091302 -83.061417 -19.004566 -12.306106
24540000000 -18.429722 -21.40638 -0.8761301 -83.492813 -0.88169909 -83.536674 -19.099476 -11.845105
24567500000 -18.423143 -20.675667 -0.87934124 -84.003113 -0.88129127 -84.05072 -18.898933 -12.492228
24595000000 -18.281624 -21.603186 -0.87487668 -84.472565 -0.87829542 -84.506882 -18.782681 -13.486341
24622500000 -18.258175 -22.367884 -0.87645537 -84.965614 -0.88196135 -85.012276 -18.917257 -12.872519
24650000000 -18.260948 -21.968464 -0.8779909 -85.491493 -0.88102144 -85.533867 -18.84844 -13.402469
24677500000 -18.160736 -22.307064 -0.87531877 -85.950562 -0.87700117 -86.015091 -18.620781 -14.318193
24705000000 -18.057863 -23.490095 -0.87622482 -86.444679 -0.87814081 -86.484924 -18.740509 -13.920835
24732500000 -18.110561 -23.174124 -0.87741619 -86.988792 -0.88263506 -87.017624 -18.75308 -14.087391
24760000000 -18.035486 -23.059748 -0.87698913 -87.453308 -0.88291514 -87.526207 -18.442682 -15.001252
24787500000 -17.907822 -24.299923 -0.87562811 -87.93544 -0.88208127 -87.977715 -18.53784 -14.87961
24815000000 -17.952623 -24.465624 -0.87823969 -88.45771 -0.88505024 -88.517082 -18.607761 -14.972682
24842500000 -17.91399 -24.20676 -0.88016444 -88.954041 -0.8792671 -89.004562 -18.326797 -15.9041
24870000000 -17.774851 -25.115 -0.87802452 -89.441681 -0.88194644 -89.471336 -18.312841 -16.30612
24897500000 -17.753107 -25.756134 -0.87571394 -89.943535 -0.88294178 -89.96656 -18.457756 -16.251623
24925000000 -17.769579 -25.270807 -0.87434983 -90.46067 -0.87947911 -90.510811 -18.220926 -16.559784
24952500000 -17.640215 -25.623951 -0.87336284 -90.890366 -0.87871629 -90.971489 -18.168386 -17.170345
24980000000 -17.575848 -26.612047 -0.87640911 -91.398949 -0.88672274 -91.454315 -18.283266 -17.279949
25007500000 -17.675329 -26.513739 -0.88028747 -91.946678 -0.88018066 -91.991852 -18.161116 -17.375906
25035000000 -17.537045 -26.496035 -0.87536466 -92.384262 -0.87893909 -92.423645 -17.966433 -18.059151
25062500000 -17.411455 -27.678488 -0.88079983 -92.901978 -0.87920147 -92.929665 -18.125324 -18.437052
25090000000 -17.466448 -27.5077 -0.87996382 -93.41761 -0.88209301 -93.469009 -18.067596 -18.695744
25117500000 -17.497492 -27.447063 -0.88030171 -93.899445 -0.88038671 -93.944199 -17.82686 -18.813234
25145000000 -17.249388 -28.403694 -0.87396777 -94.350449 -0.88470781 -94.399658 -17.928408 -19.589182
25172500000 -17.335588 -28.887152 -0.8795796 -94.885902 -0.88100147 -94.92881 -17.967974 -19.848557
25200000000 -17.359507 -28.529118 -0.88148761 -95.389343 -0.88193125 -95.433525 -17.762449 -19.647552
25227500000 -17.197256 -29.374842 -0.87808186 -95.894775 -0.88254082 -95.911568 -17.786604 -20.573935
25255000000 -17.135847 -30.053745 -0.87994164 -96.365982 -0.88015085 -96.411987 -17.807219 -21.061735
25282500000 -17.282698 -29.800785 -0.87437332 -96.877892 -0.8780359 -96.923653 -17.683065 -20.742859
25310000000 -17.161236 -30.215511 -0.87916189 -97.345337 -0.88170642 -97.400818 -17.615278 -21.702923
25337500000 -17.003056 -31.106031 -0.88570625 -97.855347 -0.88267881 -97.902748 -17.705696 -21.995806
25365000000 -17.143707 -31.242044 -0.87555498 -98.316261 -0.88144982 -98.4123 -17.599165 -21.735537
25392500000 -17.093266 -31.367586 -0.88584751 -98.832825 -0.88557804 -98.885208 -17.4568 -22.495373
25420000000 -16.884285 -31.817463 -0.88257319 -99.337128 -0.88436919 -99.380379 -17.591599 -22.846258
25447500000 -16.959185 -32.526871 -0.8780036 -99.808968 -0.88634211 -99.908966 -17.500011 -23.580256
25475000000 -16.982124 -32.548668 -0.87991941 -100.34607 -0.88330376 -100.39465 -17.375174 -23.529272
25502500000 -16.790117 -33.103409 -0.88498926 -100.79316 -0.88924474 -100.85531 -17.445114 -23.968607
25530000000 -16.827324 -33.581146 -0.87609714 -101.31447 -0.88330185 -101.38602 -17.412109 -24.673323
25557500000 -16.911758 -33.854988 -0.87607878 -101.82262 -0.8773132 -101.85518 -17.29567 -24.442024
25585000000 -16.730446 -33.737228 -0.88387322 -102.31918 -0.88556629 -102.34651 -17.293985 -25.130613
25612500000 -16.730312 -34.530361 -0.87531239 -102.79598 -0.88119996 -102.82957 -17.345423 -26.022228
25640000000 -16.792297 -35.181606 -0.87451637 -103.23892 -0.87930703 -103.35651 -17.230976 -25.685926
25667500000 -16.669947 -34.932953 -0.8831172 -103.78819 -0.88405693 -103.85906 -17.207085 -26.161339
25695000000 -16.589058 -35.542015 -0.87655771 -104.27711 -0.88812381 -104.30358 -17.249563 -26.906902
25722500000 -16.677784 -36.525993 -0.87984556 -104.76691 -0.87688589 -104.81787 -17.132822 -26.936335
25750000000 -16.621414 -36.298168 -0.87952131 -105.2858 -0.88443077 -105.28522 -17.108896 -27.280678
25777500000 -16.52257 -36.511795 -0.88349253 -105.7554 -0.8870244 -105.8064 -17.128109 -28.023857
25805000000 -16.623457 -37.697964 -0.87813067 -106.28119 -0.88419944 -106.30708 -17.053883 -28.295309
25832500000 -16.589426 -37.539753 -0.87605029 -106.77174 -0.88769186 -106.82025 -17.009995 -28.101511
25860000000 -16.493177 -37.525261 -0.88421971 -107.20963 -0.88626844 -107.27336 -17.058342 -29.02853
25887500000 -16.463627 -38.639946 -0.88397729 -107.73209 -0.88517779 -107.75356 -16.957743 -29.530746
25915000000 -16.516129 -39.188442 -0.88445866 -108.23632 -0.87863356 -108.29637 -16.988155 -29.257751
25942500000 -16.456635 -38.50948 -0.88365179 -108.73763 -0.89078069 -108.80592 -16.966688 -29.911144
25970000000 -16.395042 -39.781952 -0.88081723 -109.21239 -0.89045209 -109.2879 -16.903324 -30.346354
25997500000 -16.43261 -40.390282 -0.87438977 -109.72387 -0.88157636 -109.76069 -16.867897 -30.871424
26025000000 -16.397139 -39.838223 -0.88391608 -110.1974 -0.88576752 -110.259 -16.856598 -31.221184
26052500000 -16.298424 -40.567749 -0.88112229 -110.71181 -0.89397979 -110.74249 -16.858027 -31.824841
26080000000 -16.359388 -41.561859 -0.87958562 -111.20315 -0.88551933 -111.23497 -16.766451 -31.646128
26107500000 -16.332104 -40.98172 -0.87723082 -111.67515 -0.88818729 -111.75294 -16.841349 -32.038807
26135000000 -16.306448 -41.853031 -0.88431907 -112.21265 -0.88431048 -112.23975 -16.846781 -33.032833
26162500000 -16.240356 -42.450871 -0.8839094 -112.65562 -0.88505876 -112.69681 -16.732044 -32.98513
26190000000 -16.31175 -42.839417 -0.87849665 -113.1338 -0.88212597 -113.21599 -16.746265 -33.559689
26217500000 -16.22673 -42.754833 -0.88055825 -113.67067 -0.88844138 -113.72213 -16.760559 -34.121567
26245000000 -16.212446 -43.856831 -0.88319939 -114.17725 -0.89038789 -114.22173 -16.659117 -34.011452
26272500000 -16.211889 -44.381016 -0.87900627 -114.67297 -0.8796097 -114.69265 -16.64654 -34.219933
26300000000 -16.225681 -43.993134 -0.87769878 -115.18089 -0.88556027 -115.22237 -16.734169 -34.959599
26327500000 -16.146921 -45.022331 -0.88178349 -115.68922 -0.88888103 -115.73016 -16.668558 -35.261833
26355000000 -16.150072 -45.566944 -0.87342489 -116.15211 -0.8816604 -116.17023 -16.555372 -35.640778
26382500000 -16.212631 -45.251358 -0.87736517 -116.62009 -0.88477218 -116.68567 -16.712265 -36.118538
26410000000 -16.112408 -45.763889 -0.88230294 -117.15842 -0.88422352 -117.18633 -16.629341 -36.71431
26437500000 -16.128469 -46.607521 -0.88162047 -117.62948 -0.88136643 -117.67823 -16.552029 -36.699173
26465000000 -16.172054 -46.595188 -0.87853593 -118.13319 -0.88147455 -118.19182 -16.583593 -37.602978
26492500000 -16.134712 -47.034233 -0.8798849 -118.6623 -0.88841152 -118.6693 -16.610104 -37.481251
26520000000 -16.102079 -48.392208 -0.89001071 -119.1298 -0.88249201 -119.1063 -16.51766 -37.876297
26547500000 -16.110607 -48.179207 -0.87118131 -119.63922 -0.88484299 -119.67159 -16.578215 -38.178509
26575000000 -16.184666 -48.064014 -0.88299161 -120.07649 -0.8824333 -120.1375 -16.655104 -39.163486
26602500000 -16.028845 -49.123611 -0.88478267 -120.56008 -0.88803834 -120.6927 -16.49828 -38.893246
26630000000 -16.148491 -49.285973 -0.886338 -121.06593 -0.88135535 -121.1449 -16.503664 -40.217991
26657500000 -16.01029 -49.794483 -0.88023233 -121.56652 -0.88368952 -121.67833 -16.580688 -40.991245
26685000000 -16.044224 -50.298733 -0.88681424 -122.13281 -0.89540666 -122.16537 -16.434967 -39.67836
26712500000 -16.069288 -51.04039 -0.87972987 -122.5963 -0.88846964 -122.61224 -16.471468 -40.798149
26740000000 -16.072119 -50.537102 -0.88145745 -123.06081 -0.88587135 -123.15282 -16.543493 -41.485264
26767500000 -15.988064 -51.484528 -0.88740224 -123.67417 -0.88753879 -123.6434 -16.483057 -41.499886
26795000000 -16.110678 -52.092976 -0.8734774 -124.13103 -0.88265949 -124.11734 -16.486744 -41.777527
26822500000 -16.125755 -52.734196 -0.88939309 -124.51456 -0.88420832 -124.68934 -16.549202 -42.321224
26850000000 -16.028893 -52.650307 -0.88542062 -125.05122 -0.87264216 -125.12565 -16.580252 -42.455757
26877500000 -16.130766 -53.163956 -0.88919169 -125.59261 -0.88793766 -125.52841 -16.340681 -42.987907
26905000000 -16.159891 -53.821445 -0.87782806 -126.04248 -0.88457322 -126.08464 -16.382599 -43.836983
26932500000 -16.178814 -53.871391 -0.88467765 -126.48789 -0.88553202 -126.64083 -16.596094 -43.710556
26960000000 -16.069744 -54.537144 -0.88441771 -126.99566 -0.88942868 -127.10776 -16.469797 -44.100452
26987500000 -16.066591 -54.397541 -0.88652086 -127.51541 -0.88326854 -127.55135 -16.416977 -44.75391
27015000000 -16.147564 -55.31456 -0.87918371 -128.04213 -0.88887626 -128.08582 -16.529606 -45.005852
27042500000 -16.068624 -55.69157 -0.86652601 -128.54047 -0.88949287 -128.57085 -16.505548 -45.396461
27070000000 -16.085241 -55.627037 -0.8922202 -129.01906 -0.88557929 -129.02585 -16.435093 -45.690201
27097500000 -16.184042 -56.711487 -0.88629925 -129.56976 -0.89694703 -129.50526 -16.526812 -46.452179
27125000000 -16.163954 -57.129627 -0.8793866 -130.10989 -0.88570946 -130.11581 -16.593388 -46.297924
27152500000 -16.121622 -57.116207 -0.88734514 -130.50717 -0.89270276 -130.55736 -16.431044 -46.475952
27180000000 -16.166578 -57.86882 -0.8996768 -130.99968 -0.88499719 -130.96835 -16.544754 -47.368649
27207500000 -16.080276 -57.739639 -0.88318384 -131.58789 -0.88674182 -131.51929 -16.645826 -47.574596
27235000000 -16.146605 -58.995316 -0.89767301 -132.04411 -0.88653797 -132.00197 -16.521755 -47.444962
27262500000 -16.15976 -59.042206 -0.88000441 -132.47029 -0.89121127 -132.56485 -16.529608 -48.893311
27290000000 -16.170286 -59.177444 -0.88759661 -133.00706 -0.89341754 -133.06641 -16.686548 -49.107708
27317500000 -16.245888 -59.837143 -0.88468111 -133.48936 -0.89644897 -133.53435 -16.575562 -49.047981
27345000000 -16.198101 -60.37429 -0.8888756 -133.91774 -0.89866906 -134.05766 -16.493309 -49.541489
27372500000 -16.212784 -60.380295 -0.8826769 -134.43817 -0.88544726 -134.52936 -16.739449 -49.902622
27400000000 -16.225533 -60.805553 -0.88393193 -134.98618 -0.89535517 -134.96855 -16.623201 -49.783836
27427500000 -16.226435 -61.745369 -0.89337367 -135.48624 -0.88263726 -135.48651 -16.554497 -50.665188
27455000000 -16.293642 -61.253746 -0.89731842 -135.91882 -0.89596313 -135.96199 -16.681837 -52.002216
27482500000 -16.30998 -61.998497 -0.89996916 -136.47392 -0.88214439 -136.56403 -16.761833 -51.473804
27510000000 -16.290342 -62.764263 -0.88240951 -136.97153 -0.89263475 -137.07591 -16.603565 -51.212784
27537500000 -16.308376 -63.155899 -0.89405483 -137.39966 -0.89695305 -137.51941 -16.587452 -52.287167
27565000000 -16.2875 -63.338409 -0.87774122 -137.85027 -0.88537681 -137.9445 -16.770494 -53.008743
27592500000 -16.313221 -63.597908 -0.87383449 -138.38928 -0.89079338 -138.49127 -16.714441 -52.570564
27620000000 -16.33799 -64.352165 -0.89525968 -138.92584 -0.89871842 -138.9883 -16.674259 -53.773884
27647500000 -16.428646 -64.119705 -0.89521772 -139.53825 -0.88889116 -139.47377 -16.724468 -53.500099
27675000000 -16.336479 -64.679306 -0.89373934 -139.8718 -0.90852326 -139.84875 -16.645388 -53.435665
27702500000 -16.322248 -65.432152 -0.88647133 -140.37779 -0.8856777 -140.42712 -16.828503 -54.540329
27730000000 -16.389507 -65.047005 -0.89485574 -140.96573 -0.89526546 -140.9653 -16.922613 -54.485714
27757500000 -16.435686 -66.039345 -0.88706696 -141.39857 -0.89726371 -141.38698 -16.817026 -54.552147
27785000000 -16.403805 -66.142334 -0.88104647 -141.92769 -0.88904935 -141.92336 -16.814947 -55.494274
27812500000 -16.520807 -66.666557 -0.88100213 -142.44368 -0.88700724 -142.42441 -16.82369 -56.416119
27840000000 -16.381519 -66.67366 -0.8822633 -142.85249 -0.88618177 -142.95279 -16.874594 -56.919754
27867500000 -16.524361 -67.589775 -0.88894582 -143.38008 -0.88563234 -143.49524 -16.786507 -56.806805
27895000000 -16.509518 -68.39534 -0.89192611 -143.81691 -0.89392442 -143.98994 -16.919012 -57.352341
27922500000 -16.553938 -68.326302 -0.88728666 -144.2827 -0.89383733 -144.39497 -16.951033 -57.505024
27950000000 -16.559729 -68.625351 -0.87855941 -144.99954 -0.88798404 -144.93834 -16.944231 -57.448906
27977500000 -16.634367 -69.201385 -0.88542825 -145.39 -0.89440662 -145.4705 -16.954844 -58.798641
28005000000 -16.691402 -69.224899 -0.89096278 -145.82562 -0.8819747 -145.92607 -16.986576 -58.514046
28032500000 -16.584181 -69.402992 -0.87232381 -146.35655 -0.89631057 -146.44281 -17.032915 -58.696411
28060000000 -16.674856 -69.705475 -0.89296573 -146.95999 -0.89418554 -147.07997 -17.109863 -59.832798
28087500000 -16.857796 -70.948631 -0.89682674 -147.32701 -0.87744087 -147.47084 -17.195793 -59.300217
28115000000 -16.700159 -69.982109 -0.88560373 -147.797 -0.88825589 -147.90309 -17.169987 -59.539047
28142500000 -16.781361 -71.393753 -0.88492042 -148.36243 -0.87841618 -148.52434 -17.128456 -61.14727
28170000000 -16.863693 -72.146492 -0.89139116 -148.87294 -0.8939327 -149.05812 -17.162985 -59.577526
28197500000 -16.828768 -71.726952 -0.88601989 -149.3848 -0.88874602 -149.39302 -17.257284 -60.590397
28225000000 -16.875731 -71.108124 -0.88606054 -149.92427 -0.90010995 -150.00893 -17.21706 -61.15918
28252500000 -16.875481 -72.5737 -0.88135946 -150.43454 -0.90246665 -150.31267 -17.229883 -61.477726
28280000000 -17.002935 -72.776184 -0.9034093 -150.84373 -0.89633924 -150.89189 -17.255833 -61.036865
28307500000 -16.988115 -72.034248 -0.91473979 -151.41664 -0.8884328 -151.40604 -17.332344 -62.193012
28335000000 -16.991232 -72.450256 -0.88361722 -151.93718 -0.90377265 -151.97337 -17.234873 -62.808926
28362500000 -17.088303 -73.342819 -0.89960295 -152.32671 -0.87814301 -152.36563 -17.362766 -63.204018
28390000000 -17.09642 -72.18573 -0.8979671 -152.821 -0.89936727 -152.78951 -17.349236 -63.172413
28417500000 -17.047518 -73.637619 -0.8890354 -153.42293 -0.908723 -153.36229 -17.401621 -63.588024
28445000000 -17.111685 -74.945633 -0.91005582 -153.85052 -0.90065265 -153.83409 -17.394016 -62.923172
28472500000 -17.134584 -73.677864 -0.89456594 -154.41588 -0.89540225 -154.31206 -17.350145 -63.509872
28500000000 -17.016315 -75.169563 -0.89499915 -154.815 -0.90661329 -154.79385 -17.369091 -64.350677
28527500000 -17.206594 -75.496918 -0.89443201 -155.38367 -0.88987476 -155.37781 -17.496687 -63.938297
28555000000 -17.209332 -75.696815 -0.89155614 -155.7796 -0.89717233 -155.8239 -17.477905 -63.657589
28582500000 -17.188334 -75.37426 -0.90221459 -156.31769 -0.903736 -156.3905 -17.516676 -65.170036
28610000000 -17.277981 -75.533806 -0.89963734 -156.86223 -0.91287118 -156.89015 -17.574284 -65.278549
28637500000 -17.355366 -75.951553 -0.89044446 -157.29776 -0.89907533 -157.29179 -17.609674 -65.078224
28665000000 -17.313967 -76.121185 -0.89595103 -157.77873 -0.91319698 -157.81689 -17.620457 -65.561699
28692500000 -17.333916 -76.839302 -0.89796454 -158.31331 -0.9162643 -158.28735 -17.507063 -66.629066
28720000000 -17.439503 -77.277946 -0.89369899 -158.71927 -0.90811038 -158.8131 -17.660997 -65.57959
28747500000 -17.372301 -77.313339 -0.90410286 -159.25511 -0.89846402 -159.31511 -17.659502 -66.838982
28775000000 -17.566797 -78.619087 -0.8819024 -159.65628 -0.90320021 -159.70584 -17.556362 -66.883842
28802500000 -17.42276 -79.651527 -0.90719223 -160.26097 -0.90538514 -160.29161 -17.69858 -67.386635
28830000000 -17.559559 -78.302917 -0.90435761 -160.66862 -0.89139563 -160.79982 -17.659792 -66.829948
28857500000 -17.407553 -78.972816 -0.90310687 -161.12234 -0.90449786 -161.28279 -17.627184 -68.649559
28885000000 -17.600132 -79.965332 -0.89461714 -161.70757 -0.89543879 -161.8501 -17.808723 -68.054504
28912500000 -17.584129 -79.453316 -0.89956027 -162.11636 -0.89678663 -162.21799 -17.814043 -67.902588
28940000000 -17.630344 -79.491203 -0.89829183 -162.69086 -0.90582043 -162.72281 -17.735823 -68.611954
28967500000 -17.654907 -81.048798 -0.89682007 -163.23845 -0.90731919 -163.17101 -17.701984 -69.819855
28995000000 -17.7498 -80.558022 -0.89322674 -163.55847 -0.89272124 -163.66695 -17.902025 -68.756371
29022500000 -17.765873 -80.308815 -0.89295429 -164.22104 -0.88202256 -164.20723 -17.814081 -70.201973
29050000000 -17.638086 -81.592369 -0.88844711 -164.77405 -0.88025546 -164.57986 -17.774742 -70.828453
29077500000 -17.935299 -82.484314 -0.87767315 -165.07788 -0.88202608 -165.22833 -18.057405 -70.351303
29105000000 -17.876163 -81.895851 -0.90136296 -165.67459 -0.87674809 -165.85899 -18.052835 -71.045975
29132500000 -17.898872 -83.348969 -0.878869 -166.11128 -0.89086455 -166.32109 -17.969585 -71.9533
29160000000 -18.063593 -82.827209 -0.87853944 -166.66765 -0.89078355 -166.75902 -18.236786 -70.385933
29187500000 -18.283148 -83.562088 -0.87531811 -167.13747 -0.88692659 -167.27951 -18.204227 -70.638733
29215000000 -18.188396 -82.933754 -0.88992751 -167.74205 -0.87935585 -167.81596 -18.194578 -71.394707
29242500000 -18.244747 -84.226723 -0.88039559 -168.28421 -0.90646625 -168.26228 -18.453196 -71.617805
29270000000 -18.497713 -84.046555 -0.89025474 -168.75446 -0.89782929 -168.82193 -18.500336 -71.244492
29297500000 -18.399908 -84.197617 -0.88625705 -169.30901 -0.87809771 -169.308 -18.362711 -71.211899
29325000000 -18.408772 -84.483658 -0.90891415 -169.63998 -0.89835322 -169.74525 -18.420115 -71.991081
29352500000 -18.514034 -83.626419 -0.88943058 -170.10112 -0.90446758 -170.26024 -18.671009 -72.437698
29380000000 -18.523075 -84.253815 -0.88663357 -170.7397 -0.8976956 -170.82108 -18.413616 -71.665894
29407500000 -18.498631 -84.923889 -0.89684266 -171.1982 -0.89401668 -171.25369 -18.533386 -72.586044
29435000000 -18.662115 -85.416046 -0.88931113 -171.70979 -0.9008323 -171.68065 -18.658764 -72.025414
29462500000 -18.760246 -86.19278 -0.90256512 -172.22841 -0.90128368 -172.22481 -18.609205 -72.128761
29490000000 -18.663307 -84.765923 -0.88917357 -172.70877 -0.90850121 -172.65526 -18.670298 -72.889946
29517500000 -18.751524 -86.098366 -0.89597964 -173.08879 -0.90191507 -173.17337 -18.823599 -73.516235
29545000000 -18.679035 -85.716133 -0.88664591 -173.6078 -0.90983844 -173.70076 -18.870466 -73.092216
29572500000 -18.942495 -87.053596 -0.90494454 -174.15251 -0.9131695 -174.22282 -18.677532 -72.746788
29600000000 -18.750446 -86.923279 -0.90662891 -174.63759 -0.90251189 -174.70233 -18.949818 -73.682343
29627500000 -19.136084 -86.623589 -0.89012003 -175.20383 -0.90672493 -175.22153 -18.983145 -73.130936
29655000000 -19.125042 -86.478027 -0.90699506 -175.64227 -0.90487981 -175.61948 -18.84799 -74.089661
29682500000 -19.087435 -87.458435 -0.90794957 -176.03635 -0.91553652 -176.10374 -19.034748 -75.49205
29710000000 -19.075035 -88.070847 -0.91850924 -176.58516 -0.90926778 -176.60529 -19.128382 -74.79969
29737500000 -19.323563 -89.462112 -0.89632392 -177.10078 -0.89938545 -177.11769 -18.992777 -73.139595
29765000000 -19.243324 -87.448059 -0.90260845 -177.50737 -0.88085592 -177.64529 -19.054218 -75.597809
29792500000 -19.306658 -89.0215 -0.88606972 -177.98187 -0.89464229 -178.01955 -19.307894 -74.584747
29820000000 -19.367989 -88.614685 -0.88549393 -178.51329 -0.90898949 -178.7794 -19.292168 -74.541138
29847500000 -19.334883 -89.560081 -0.89364934 -179.01346 -0.90570241 -179.10829 -19.415398 -75.263092
29875000000 -19.614111 -89.103111 -0.91802251 -179.56451 -0.89158189 -179.53882 -19.507504 -77.078598
29902500000 -19.735504 -90.038132 -0.8816452 179.93974 -0.89091539 -179.99666 -19.477402 -75.539497
29930000000 -19.675014 -90.987038 -0.88807297 179.46138 -0.8907845 179.39679 -19.395782 -74.893105
29957500000 -19.837708 -89.143631 -0.88732159 179.03596 -0.90158218 178.94803 -19.782976 -77.471466
29985000000 -20.155622 -89.674377 -0.8851546 178.49918 -0.89017153 178.58347 -19.845722 -76.341423
30012500000 -19.816689 -90.739334 -0.8959316 177.86974 -0.88851732 177.92044 -19.638426 -75.592438
30040000000 -20.102657 -90.847755 -0.88884544 177.3876 -0.89114743 177.48958 -19.8183 -76.746445
30067500000 -20.137802 -90.820152 -0.87820923 177.00883 -0.89309067 176.88028 -19.961018 -77.436058
30095000000 -20.28458 -92.610497 -0.89220494 176.42021 -0.87578201 176.44171 -19.716791 -76.062157
30122500000 -20.134638 -90.928421 -0.88690186 175.98074 -0.90253896 175.98801 -20.024055 -76.707024
30150000000 -20.487934 -90.984856 -0.87621528 175.40594 -0.89730793 175.41347 -20.204088 -78.291145
30177500000 -20.344223 -92.694725 -0.88059181 174.89429 -0.89771819 174.86961 -20.147343 -77.743187
30205000000 -20.470268 -92.509651 -0.89991468 174.42644 -0.90052015 174.46252 -20.005793 -76.246841
30232500000 -20.53825 -90.401047 -0.89309955 174.00043 -0.88722825 173.91356 -20.450224 -79.326324
30260000000 -20.961199 -93.134224 -0.88136297 173.43701 -0.89613461 173.37869 -20.220345 -77.199524
30287500000 -20.615826 -91.588661 -0.89151925 173.03464 -0.89022487 172.88904 -20.580112 -76.656578
30315000000 -20.808432 -91.600906 -0.8910327 172.39165 -0.89550626 172.4545 -20.507183 -80.045021
30342500000 -21.049999 -91.857666 -0.88501406 171.875 -0.90483356 171.93179 -20.423841 -79.281906
30370000000 -20.798277 -92.012245 -0.89775956 171.5316 -0.89316922 171.49994 -20.681911 -76.128815
30397500000 -21.095545 -91.992096 -0.88576847 170.88194 -0.89576936 170.94356 -20.845774 -78.530617
30425000000 -21.163584 -93.356445 -0.88416231 170.45168 -0.89011019 170.4039 -20.767488 -78.668083
30452500000 -21.313217 -92.447945 -0.88982928 169.94933 -0.89274031 169.98816 -20.802727 -76.273499
30480000000 -21.343721 -90.812065 -0.89829308 169.48157 -0.89047623 169.44321 -21.132877 -79.396439
30507500000 -21.880596 -92.887627 -0.89393878 168.96664 -0.90435439 168.99101 -21.0917 -80.136894
30535000000 -21.585169 -92.947174 -0.85871214 168.49463 -0.88650912 168.36276 -21.093153 -77.93766
30562500000 -21.652092 -90.894547 -0.86574012 168.03687 -0.88475758 167.90582 -21.320307 -79.059952
30590000000 -21.919651 -91.800468 -0.90176123 167.51598 -0.89886296 167.51474 -21.241766 -80.653137
30617500000 -21.953474 -91.877213 -0.88418037 166.97606 -0.89014542 166.9492 -21.406561 -78.98645
30645000000 -21.62842 -90.932205 -0.89988989 166.47667 -0.91258335 166.44395 -21.279329 -78.486755
30672500000 -22.156546 -92.488106 -0.88564819 165.98535 -0.90076923 165.9565 -21.654116 -80.380806
30700000000 -22.320261 -93.756264 -0.87718934 165.54163 -0.88584977 165.45506 -21.554226 -79.863152
30727500000 -22.405853 -92.891792 -0.87302732 165.01114 -0.88247013 165.03079 -21.550982 -78.891342
30755000000 -22.425756 -89.762489 -0.90444428 164.55978 -0.88192999 164.66179 -21.750807 -79.416252
30782500000 -22.808661 -92.264206 -0.88464367 164.06438 -0.90399736 164.05446 -21.863039 -79.423592
30810000000 -22.387487 -91.174934 -0.8982017 163.57042 -0.89048672 163.49516 -22.044973 -79.402397
30837500000 -22.574692 -90.177109 -0.8787356 162.9848 -0.87609303 162.98055 -22.036041 -77.105522
30865000000 -23.074934 -93.069466 -0.87975901 162.65288 -0.8838504 162.55623 -21.932575 -78.380653
30892500000 -22.743738 -92.745522 -0.87234437 162.06982 -0.88554597 161.97678 -22.140711 -79.404396
30920000000 -22.727722 -91.000244 -0.87951213 161.51877 -0.88109976 161.55603 -22.326704 -77.73436
30947500000 -22.972336 -92.492828 -0.90703875 161.0188 -0.88679928 161.00864 -22.376566 -78.96315
30975000000 -23.273689 -91.034554 -0.88660878 160.71751 -0.8997348 160.67615 -22.361376 -78.670097
31002500000 -23.389343 -89.051704 -0.89765996 160.12332 -0.88821083 160.02019 -22.62952 -78.088921
31030000000 -23.478058 -90.460457 -0.90605992 159.64665 -0.90048033 159.57446 -22.477594 -78.463127
31057500000 -23.460262 -90.987358 -0.88006556 159.16519 -0.87429225 159.03442 -22.536966 -79.323372
31085000000 -23.537262 -89.097603 -0.89301848 158.72061 -0.90542597 158.57285 -23.046953 -78.192863
31112500000 -23.824062 -88.728828 -0.86567283 158.19336 -0.88834453 157.98529 -22.986225 -78.03952
31140000000 -23.926527 -90.527283 -0.90170228 157.49638 -0.88277841 157.49991 -22.948366 -76.961983
31167500000 -23.979815 -88.185921 -0.88552314 157.03296 -0.87582862 157.01643 -23.025049 -78.01741
31195000000 -23.783331 -87.074463 -0.89728343 156.43755 -0.87219632 156.59152 -23.050646 -77.723999
31222500000 -24.327829 -88.702744 -0.8759746 156.05368 -0.87372589 156.01849 -22.777351 -77.490807
31250000000 -24.14415 -87.807762 -0.87949437 155.53201 -0.8793143 155.54861 -23.286684 -78.470642
31277500000 -24.193964 -86.58889 -0.87273556 155.12929 -0.8967672 154.98599 -23.469503 -74.935333
31305000000 -24.431133 -88.265656 -0.85960686 154.50179 -0.88022345 154.55244 -23.14348 -75.544647
31332500000 -24.635958 -90.463715 -0.88520348 154.03282 -0.89792126 153.97627 -23.281733 -75.892609
31360000000 -24.590921 -84.828331 -0.86723018 153.59854 -0.88502449 153.41368 -23.728216 -75.637802
31387500000 -25.132458 -86.833519 -0.88934767 153.13176 -0.89291036 152.85799 -23.493912 -74.346657
31415000000 -25.142361 -86.388382 -0.86408162 152.41344 -0.89352661 152.52821 -23.618803 -73.127235
31442500000 -24.688852 -81.747749 -0.86248094 152.13451 -0.88375521 152.01248 -23.645233 -74.825043
31470000000 -25.352221 -82.24205 -0.86408734 151.60466 -0.8847338 151.60893 -23.991205 -73.235603
31497500000 -25.230312 -86.279167 -0.88504416 151.05592 -0.87337077 151.04878 -23.864746 -73.652374
31525000000 -25.702276 -84.834396 -0.90090525 150.59508 -0.90575153 150.56966 -24.309645 -71.965698
31552500000 -25.597456 -77.405319 -0.86863661 150.15831 -0.86785096 150.03456 -24.537142 -72.988609
31580000000 -25.732119 -81.246689 -0.89482325 149.5759 -0.88205492 149.62473 -23.951832 -69.763664
31607500000 -25.503925 -80.970711 -0.87236148 148.98906 -0.87862027 149.14828 -24.498409 -71.036308
31635000000 -26.340471 -74.874329 -0.86726207 148.69748 -0.87327707 148.54462 -24.522188 -70.366821
31662500000 -26.29966 -78.779686 -0.87047875 147.96964 -0.88319242 148.04916 -23.722919 -68.586632
31690000000 -26.099928 -80.998924 -0.86026633 147.49715 -0.87448633 147.58574 -24.305639 -69.31813
31717500000 -26.602886 -73.969093 -0.88303506 147.132 -0.88983756 147.06186 -24.634987 -71.602379
31745000000 -26.693254 -77.894241 -0.88013214 146.44243 -0.88352489 146.59209 -24.776905 -66.369629
31772500000 -26.211792 -80.227646 -0.8826896 146.02675 -0.88151646 146.00929 -24.491983 -66.95755
31800000000 -26.996649 -71.972534 -0.89502496 145.53345 -0.90071601 145.4839 -24.894386 -69.479462
31827500000 -26.844765 -72.914398 -0.88784051 144.99161 -0.88606215 144.99318 -25.125551 -66.582092
31855000000 -26.370279 -76.145683 -0.87516451 144.54724 -0.87172896 144.47701 -24.593397 -64.654404
31882500000 -26.520935 -72.140083 -0.87539285 144.01576 -0.88723779 143.96902 -25.217379 -67.107071
31910000000 -27.236008 -65.997169 -0.87417763 143.48711 -0.87781918 143.58189 -25.18557 -63.510113
31937500000 -27.020157 -72.468185 -0.8830052 143.13734 -0.88979721 143.09389 -25.171692 -63.977562
31965000000 -27.285952 -68.697762 -0.87495905 142.55139 -0.89629942 142.57059 -25.533915 -63.959202
31992500000 -27.730499 -61.887192 -0.87949628 142.10091 -0.8838523 142.01955 -25.456558 -65.038033
32020000000 -26.622478 -69.500908 -0.86756176 141.50938 -0.89392573 141.55106 -25.437006 -59.45356
32047500000 -27.005157 -64.845428 -0.8928535 141.12294 -0.89557147 141.02713 -24.727598 -59.607033
32075000000 -28.138716 -62.031521 -0.87206501 140.54193 -0.89664567 140.62912 -25.891602 -59.413574
32102500000 -26.502333 -62.130173 -0.87502998 140.03697 -0.88479155 139.94325 -25.586161 -55.467567
32130000000 -26.857773 -61.033798 -0.87215203 139.54027 -0.88422227 139.49022 -25.561325 -54.881645
32157500000 -28.192104 -58.16581 -0.87717921 139.07205 -0.86784941 139.01871 -25.852194 -60.383106
32185000000 -27.616436 -59.210789 -0.88912976 138.75008 -0.89227676 138.54271 -25.232628 -52.892307
32212500000 -26.920591 -61.436672 -0.87839305 138.18323 -0.87732428 137.95775 -25.682709 -55.219097
32240000000 -27.453381 -54.290455 -0.87743455 137.68059 -0.88041812 137.55807 -25.547493 -56.922127
32267500000 -27.633816 -50.72398 -0.88300616 137.18443 -0.87288398 136.96973 -25.096006 -55.061226
32295000000 -26.760569 -54.991329 -0.88406807 136.51501 -0.88966316 136.56749 -25.430462 -51.652397
32322500000 -27.368547 -51.401447 -0.88313246 136.10689 -0.90310973 135.99129 -25.915823 -50.571449
32350000000 -28.372274 -49.592407 -0.87752008 135.54639 -0.89632934 135.50479 -25.557518 -50.831215
32377500000 -27.286213 -50.479034 -0.88639134 135.11038 -0.88011694 135.03821 -25.609743 -48.386784
32405000000 -26.900785 -47.619389 -0.8800478 134.53737 -0.86887628 134.51704 -25.256699 -49.22633
32432500000 -27.600605 -47.774837 -0.89037234 134.04353 -0.88060576 134.01344 -25.682665 -49.216957
32460000000 -26.854366 -46.03997 -0.85966587 133.52289 -0.88576055 133.40236 -25.208611 -49.366081
32487500000 -26.636646 -45.949192 -0.88360548 133.1387 -0.8801055 132.90021 -24.935312 -45.641567
32515000000 -27.2693 -45.589828 -0.86989421 132.53294 -0.87641549 132.48894 -25.650917 -46.818863
32542500000 -26.598375 -44.256527 -0.88021517 132.09427 -0.88054806 131.91847 -25.393522 -46.858658
32570000000 -26.118925 -41.326687 -0.877496 131.56155 -0.91974491 131.6102 -25.107735 -41.967831
32597500000 -26.694073 -41.430782 -0.88961577 130.96042 -0.88799292 131.03479 -25.39064 -42.552452
32625000000 -26.751604 -40.118931 -0.87369299 130.43228 -0.89800215 130.55745 -25.180994 -42.373779
32652500000 -25.70863 -41.414646 -0.87710696 130.12659 -0.89279944 129.94386 -24.797161 -41.522415
32680000000 -26.512442 -35.891697 -0.87404972 129.57904 -0.87819374 129.49721 -25.096008 -42.41436
32707500000 -26.725563 -39.17445 -0.87207037 128.98901 -0.90378922 128.94382 -25.407818 -42.171547
32735000000 -26.027721 -33.546597 -0.87192482 128.61128 -0.91283697 128.63428 -25.126366 -38.962708
32762500000 -25.836479 -36.618484 -0.88916248 128.06059 -0.89334756 128.11755 -24.722305 -39.516163
32790000000 -26.137081 -35.686485 -0.88686246 127.47855 -0.90441686 127.48304 -24.699463 -40.460567
32817500000 -26.048458 -35.711311 -0.89454973 127.03081 -0.90049118 126.94621 -24.642731 -37.954124
32845000000 -25.908195 -35.427402 -0.89135593 126.59331 -0.90210372 126.57774 -24.656229 -36.218784
32872500000 -25.657274 -33.673969 -0.86615694 125.9818 -0.88651228 125.98478 -24.794691 -37.806446
32900000000 -25.743641 -34.588997 -0.88777 125.4887 -0.91061127 125.52535 -25.106422 -36.564133
32927500000 -25.143415 -28.652094 -0.88591194 124.98491 -0.90342844 124.94266 -24.852171 -31.476597
32955000000 -25.360434 -30.376625 -0.89611232 124.6603 -0.8779301 124.60419 -24.512535 -32.81649
32982500000 -25.325361 -31.853243 -0.88498294 124.00523 -0.8981753 123.9372 -24.248283 -32.903542
33010000000 -24.636518 -30.162573 -0.87330079 123.52219 -0.89374572 123.55546 -24.291029 -33.44088
33037500000 -24.79315 -29.738937 -0.88691044 123.0714 -0.88288307 123.09651 -24.215626 -31.439569
33065000000 -24.509804 -32.322437 -0.88758832 122.52042 -0.89034629 122.56734 -24.151674 -33.818119
33092500000 -24.063871 -30.724691 -0.87561923 122.00961 -0.91270983 121.94214 -24.004055 -34.298878
33120000000 -24.421688 -31.424013 -0.9006542 121.4677 -0.89538187 121.38571 -23.992739 -31.259607
33147500000 -24.721352 -28.888763 -0.90551907 121.12756 -0.8919242 121.05405 -23.861814 -31.685442
33175000000 -23.543365 -28.823391 -0.88021171 120.46913 -0.89307415 120.58215 -23.545305 -30.967169
33202500000 -24.153294 -27.056055 -0.91119742 120.08127 -0.91688323 120.02495 -23.740456 -29.284389
33230000000 -24.087732 -31.532259 -0.89503193 119.56094 -0.89228696 119.43774 -23.383917 -30.428951
33257500000 -23.714041 -29.226423 -0.87334889 118.94191 -0.8864364 118.841 -23.436525 -29.881128
33285000000 -24.035206 -27.287613 -0.89483565 118.49007 -0.88673961 118.50273 -23.554857 -30.093147
33312500000 -23.683102 -26.878954 -0.89330053 118.03542 -0.90214866 118.00178 -23.540611 -30.733078
33340000000 -23.461163 -27.250261 -0.90946436 117.58562 -0.89703196 117.44456 -23.106401 -30.536379
33367500000 -23.246384 -27.531471 -0.88781637 117.02605 -0.90150124 116.95869 -23.261036 -29.72509
33395000000 -23.199516 -27.904175 -0.90548241 116.42188 -0.91092736 116.54446 -23.155415 -26.50543
33422500000 -22.998024 -28.338459 -0.88869202 116.0006 -0.87178749 116.03005 -22.932373 -28.806005
33450000000 -22.8445 -25.739454 -0.91308004 115.74801 -0.8800925 115.56542 -23.207764 -27.926214
33477500000 -22.96747 -26.877178 -0.87973589 114.92088 -0.92506456 114.89156 -23.309139 -28.456509
33505000000 -23.046429 -27.460606 -0.87995839 114.56261 -0.90127057 114.53251 -22.951269 -25.935202
33532500000 -22.558651 -26.798836 -0.89685059 113.84341 -0.9017902 114.01839 -22.848656 -29.876104
33560000000 -22.424038 -26.141251 -0.90321428 113.51324 -0.89094085 113.58439 -22.710888 -27.755157
33587500000 -22.469595 -25.648846 -0.89078796 113.15556 -0.89984399 112.88863 -22.54184 -27.991276
33615000000 -22.302761 -25.90168 -0.89219886 112.53217 -0.89361119 112.40878 -22.502642 -26.705847
33642500000 -21.944386 -26.22538 -0.8841899 111.99164 -0.91389757 111.99466 -22.284899 -29.586222
33670000000 -22.023935 -25.264788 -0.91037601 111.5446 -0.91052186 111.41984 -22.219326 -27.5214
33697500000 -21.893927 -24.902372 -0.89389902 111.17784 -0.91696346 111.00243 -22.027925 -26.409985
33725000000 -21.751032 -28.640833 -0.89209461 110.52753 -0.89236259 110.61922 -21.899591 -25.759947
33752500000 -21.801952 -26.422087 -0.89605349 110.03133 -0.89635801 109.85884 -22.333017 -24.960445
33780000000 -21.517193 -25.097164 -0.88851351 109.572 -0.93356109 109.64462 -21.685032 -23.83149
33807500000 -21.612715 -27.539871 -0.91273665 109.03796 -0.89167309 108.9596 -21.440195 -26.92474
33835000000 -21.403622 -25.76318 -0.92015857 108.47712 -0.89789391 108.32921 -21.767807 -27.093151
33862500000 -21.555523 -26.88245 -0.89690405 108.11942 -0.90627867 107.85024 -21.639698 -26.775631
33890000000 -21.457266 -24.364777 -0.93177611 107.65121 -0.91745716 107.32281 -21.532061 -25.5753
33917500000 -21.171337 -24.707359 -0.90015322 106.9558 -0.92701215 106.96288 -21.225761 -24.839121
33945000000 -21.063837 -27.611326 -0.92357409 106.43199 -0.91249108 106.40457 -21.262356 -23.900131
33972500000 -20.841457 -25.461924 -0.8914274 105.96481 -0.92109323 106.11652 -21.311356 -25.623449
34000000000 -20.719643 -25.831278 -0.91433752 105.45896 -0.90639859 105.59393 -21.19446 -27.734341
34027500000 -20.709063 -25.97788 -0.92043406 104.86996 -0.90513742 104.8188 -20.953354 -24.154081
34055000000 -20.774204 -26.057419 -0.92342043 104.50857 -0.90458709 104.39909 -21.063049 -25.775841
34082500000 -20.288906 -24.570026 -0.92688429 104.09207 -0.92511678 104.00758 -20.632996 -27.071156
34110000000 -20.597218 -25.87673 -0.88171369 103.48779 -0.92948836 103.43357 -21.098888 -26.743086
34137500000 -20.365553 -25.675598 -0.91857481 102.93431 -0.91368735 103.22601 -20.617811 -25.038984
34165000000 -20.193834 -24.417204 -0.93102866 102.51928 -0.9196592 102.46301 -20.581974 -26.341665
34192500000 -20.378185 -26.185753 -0.91235405 102.12368 -0.90962267 101.81364 -20.834253 -27.13496
34220000000 -20.046946 -27.573837 -0.91438991 101.69399 -0.90838635 101.59787 -20.608738 -25.056402
34247500000 -20.095325 -26.254679 -0.91729665 101.03008 -0.93856871 100.88406 -20.312721 -25.63814
34275000000 -19.503862 -24.004482 -0.9357084 100.62046 -0.9205246 100.49308 -20.257938 -25.936249
34302500000 -19.947136 -27.47316 -0.89693016 100.05857 -0.92569757 99.804718 -20.434879 -25.399401
34330000000 -19.674341 -26.060844 -0.93723577 99.462593 -0.90780282 99.518532 -20.032188 -25.512375
34357500000 -19.758575 -25.652113 -0.89856875 98.923958 -0.91017711 99.018356 -20.033003 -25.688812
34385000000 -19.584398 -27.095539 -0.95666027 98.493019 -0.93733281 98.633041 -20.226444 -24.618681
34412500000 -19.512934 -27.024868 -0.91725343 98.082436 -0.93263882 97.860542 -19.847591 -26.781233
34440000000 -19.300373 -25.957882 -0.92990041 97.506508 -0.92426801 97.504822 -19.876614 -27.144669
34467500000 -19.374109 -27.351295 -0.91579539 96.892776 -0.91276604 97.016396 -19.88368 -27.384132
34495000000 -19.332342 -28.525312 -0.93402201 96.676262 -0.93531442 96.537743 -19.604029 -25.599928
34522500000 -19.125599 -25.655998 -0.92575651 95.897614 -0.95331502 96.065948 -19.553387 -26.509571
34550000000 -19.061266 -27.671457 -0.92874777 95.529274 -0.92051852 95.51796 -19.661417 -27.279753
34577500000 -19.173332 -28.663958 -0.92842913 94.965302 -0.92963654 94.936684 -19.487768 -25.420839
34605000000 -19.192186 -26.427166 -0.94822377 94.545837 -0.93322057 94.641289 -19.448284 -26.322622
34632500000 -18.836288 -28.594995 -0.93360698 93.979568 -0.92717016 93.997292 -19.411806 -27.012728
34660000000 -19.057579 -29.302433 -0.92657828 93.443008 -0.92712659 93.579483 -19.529427 -25.445883
34687500000 -18.904755 -28.327892 -0.95589149 93.001434 -0.8994571 92.899406 -19.286312 -27.941002
34715000000 -18.505251 -27.731085 -0.94437766 92.525429 -0.94341415 92.410088 -19.108036 -26.228296
34742500000 -18.544886 -29.206009 -0.92373198 91.993774 -0.94076312 92.085907 -19.350191 -26.188965
34770000000 -18.725075 -28.755848 -0.93499881 91.320107 -0.93141294 91.454269 -19.351959 -23.715269
34797500000 -18.495359 -28.27009 -0.95459837 91.186523 -0.93972939 91.022552 -18.845215 -26.916271
34825000000 -18.316948 -28.978127 -0.90643275 90.470337 -0.94333792 90.580292 -18.855402 -26.445379
34852500000 -18.448828 -30.24822 -0.95206982 89.938065 -0.97092056 90.209869 -18.902107 -28.710035
34880000000 -18.525101 -27.775581 -0.93229872 89.458015 -0.95800591 89.491722 -19.058241 -27.500628
34907500000 -18.077465 -28.732433 -0.95413661 89.116859 -0.97060108 88.944901 -18.630648 -26.47559
34935000000 -18.225771 -29.820429 -0.92964131 88.655968 -0.95981663 88.676414 -19.040695 -28.482653
34962500000 -18.06156 -28.289389 -0.95748472 88.048752 -0.9483062 87.918541 -18.320862 -28.846472
34990000000 -18.097933 -30.191423 -0.95204949 87.733315 -0.94754052 87.653893 -18.612682 -28.816668
35017500000 -17.912287 -31.172279 -0.96537244 87.110794 -0.9608506 87.038483 -18.814552 -28.713539
35045000000 -18.122068 -30.534494 -0.94527054 86.60804 -0.96174335 86.498672 -18.482632 -29.501343
35072500000 -17.760384 -29.777252 -0.95706618 85.914604 -0.95432043 86.045288 -18.262995 -28.194654
35100000000 -17.938063 -32.561954 -0.97350162 85.631783 -0.95699775 85.558266 -18.40992 -28.112186
35127500000 -17.972309 -31.326353 -0.97016543 85.360909 -0.97228974 85.117851 -18.665354 -29.930115
35155000000 -17.794764 -31.047449 -0.95107782 84.666946 -0.96246731 84.659729 -18.181204 -29.848064
35182500000 -17.563086 -32.304703 -0.96197724 84.01149 -0.95697618 84.175194 -18.276136 -28.790972
35210000000 -17.698984 -34.061886 -0.93427169 83.739517 -0.96984822 83.707375 -18.363359 -30.744253
35237500000 -17.595057 -31.762815 -0.95280051 83.320885 -0.9534263 83.091888 -17.966448 -29.525488
35265000000 -17.357309 -33.807934 -0.99131125 82.652946 -0.97053242 82.574608 -17.896381 -29.928543
35292500000 -17.391951 -34.293926 -0.97204882 82.063972 -0.96296358 82.035965 -18.145098 -31.165979
35320000000 -17.662523 -34.210598 -0.94987833 81.726952 -0.95796621 81.687828 -18.152416 -30.811968
35347500000 -17.300314 -34.446079 -0.96673185 81.180183 -0.98086172 81.130692 -17.997013 -30.50984
35375000000 -17.31801 -36.342274 -0.99221355 80.818375 -0.98474878 80.594856 -17.940378 -31.359068
35402500000 -17.424412 -35.488903 -0.96458983 80.151619 -0.97421229 79.984016 -17.978073 -32.335144
35430000000 -17.161985 -34.136814 -0.96598774 79.780014 -0.96608865 79.695168 -17.845011 -31.154531
35457500000 -17.154455 -36.004498 -0.94786763 79.303368 -0.95799983 79.130013 -17.865835 -32.133877
35485000000 -17.181898 -35.606026 -0.95562375 78.603645 -0.98281151 78.526527 -17.645203 -32.477703
35512500000 -17.216745 -36.059666 -0.95508862 78.169014 -0.97456253 78.133789 -17.582733 -33.693085
35540000000 -16.934372 -35.52354 -0.97961146 77.771553 -0.98102754 77.778175 -17.528082 -32.321232
35567500000 -17.099241 -38.969257 -0.99220967 77.335976 -0.97607219 77.14666 -17.311914 -34.584145
35595000000 -16.930929 -37.662083 -0.95733207 76.809227 -0.94440079 76.739136 -17.252993 -34.25787
35622500000 -16.812759 -37.301041 -0.98742092 76.074059 -0.98924232 76.18071 -17.41872 -32.846622
35650000000 -16.985685 -38.676601 -0.96541899 75.678429 -0.97801721 75.71817 -17.310209 -35.771954
35677500000 -17.107515 -38.608192 -0.96243632 75.295662 -0.96833456 75.138451 -17.23875 -34.851273
35705000000 -17.029432 -39.191452 -0.99605936 74.74839 -0.95656222 74.648849 -17.436232 -34.845352
35732500000 -16.924639 -37.460052 -0.99488413 74.21917 -0.99042284 74.140778 -17.32168 -35.394127
35760000000 -16.813311 -40.303566 -0.96258783 73.708496 -0.98337305 73.743317 -17.099842 -36.465141
35787500000 -16.898945 -39.815777 -0.96245664 73.160828 -0.99135 73.228317 -17.223707 -35.936829
35815000000 -16.87224 -40.092213 -0.96711248 72.707878 -1.0191214 72.732162 -17.33005 -35.577999
35842500000 -16.75971 -42.647091 -0.96344024 72.25518 -0.99389958 72.291695 -17.028034 -36.999466
35870000000 -16.704056 -40.740967 -0.98416299 71.906868 -0.97661513 71.608452 -17.243587 -37.288658
35897500000 -16.726898 -38.875973 -0.98187155 71.379791 -0.99409616 71.183739 -17.093533 -36.363338
35925000000 -16.630589 -41.646988 -0.96947962 70.843132 -0.98953682 70.723068 -16.935575 -38.274319
35952500000 -16.497038 -41.727219 -0.96708304 70.172935 -1.0101402 70.226326 -16.827713 -38.043201
35980000000 -16.575132 -41.156681 -0.98704469 69.80146 -0.96240658 69.750237 -16.92688 -36.82336
36007500000 -16.557526 -43.106293 -0.97293383 69.444824 -0.99566704 69.391701 -16.626389 -38.035549
36035000000 -16.539957 -43.853477 -0.95984662 68.990379 -0.97133428 68.810806 -16.907404 -41.121941
36062500000 -16.684086 -42.385326 -0.9770031 68.284317 -1.0123521 68.403633 -16.884995 -38.777985
36090000000 -16.389208 -43.62804 -1.0000327 67.957443 -0.98906189 68.029282 -16.668726 -38.804951
36117500000 -16.410763 -44.177105 -0.9437561 67.373367 -0.99119192 67.339394 -16.918413 -40.748466
36145000000 -16.506571 -44.115288 -0.99852151 67.041573 -1.0014124 66.793953 -16.81893 -40.351704
36172500000 -16.444141 -43.671078 -0.97934812 66.366203 -1.0055169 66.28186 -16.842628 -39.335915
36200000000 -16.302872 -44.556114 -0.9952777 65.911446 -1.0195836 65.906624 -16.677191 -40.375393
36227500000 -16.360407 -45.402969 -0.94980198 65.36087 -1.0150305 65.341354 -16.899641 -42.294033
36255000000 -16.451202 -44.191147 -0.98896694 65.146294 -1.0194625 64.853554 -16.644932 -39.834629
36282500000 -16.214182 -45.184582 -0.9788143 64.529236 -0.99419183 64.492477 -16.386892 -40.488136
36310000000 -16.147781 -45.786915 -0.9842484 64.170494 -0.99687046 64.064987 -16.419312 -42.788948
36337500000 -16.285391 -45.573765 -0.99114347 63.261917 -1.0028473 63.605125 -16.772076 -42.010624
36365000000 -16.145264 -47.225773 -0.99244356 62.964344 -1.0261521 62.965424 -16.461731 -42.61293
36392500000 -15.95057 -48.651299 -0.98099864 62.457848 -1.0182508 62.654556 -16.500217 -43.868999
36420000000 -16.107796 -46.54641 -1.0048383 61.848648 -0.97660667 61.931992 -16.488739 -45.754105
36447500000 -16.162697 -48.256607 -1.0149798 61.613182 -1.0207531 61.380165 -16.3458 -42.59964
36475000000 -15.847527 -47.388355 -1.0151802 61.205921 -0.99400502 60.993671 -16.556538 -44.672665
36502500000 -16.018858 -46.550774 -0.98245054 60.56852 -0.96479511 60.464161 -16.651302 -45.566265
36530000000 -16.425217 -49.014481 -0.98990291 59.776894 -0.97305369 59.977879 -16.26033 -43.860847
36557500000 -15.747124 -50.511829 -0.96557099 59.681347 -1.0030476 59.637756 -16.1672 -46.536469
36585000000 -15.851155 -48.887287 -0.98032057 58.965668 -1.0185398 58.96788 -16.186878 -47.856457
36612500000 -16.068613 -50.46973 -0.95850366 58.31197 -0.98196888 58.512627 -16.355392 -46.202248
36640000000 -15.919907 -50.581844 -1.0013874 57.997433 -1.0133703 58.137218 -16.078194 -45.248882
36667500000 -15.780596 -49.43861 -1.0131804 57.594997 -0.9964273 57.549652 -16.057825 -48.344746
36695000000 -16.07769 -50.974236 -0.96700996 57.179409 -0.98609829 57.078365 -16.222664 -47.043411
36722500000 -15.918943 -53.008533 -0.97951674 56.396946 -0.98915648 56.42001 -16.21471 -45.739143
36750000000 -15.74304 -50.657104 -0.98737252 56.049091 -0.98216718 56.051502 -16.250282 -48.272884
36777500000 -16.088869 -51.407089 -0.9887144 55.621929 -0.99677181 55.560825 -16.163292 -49.134743
36805000000 -15.770328 -54.09996 -0.97864562 55.13472 -0.96797967 55.131966 -15.874449 -46.921597
36832500000 -15.72502 -52.090675 -1.0164906 54.620342 -1.0014362 54.373207 -16.09725 -50.102669
36860000000 -15.967896 -51.805927 -0.98363245 54.186363 -0.95273829 54.048573 -15.867237 -49.764324
36887500000 -15.872251 -53.269814 -0.97369951 53.552887 -0.99000889 53.622917 -16.046528 -48.780102
36915000000 -15.493887 -52.777271 -1.001534 53.027462 -1.0115645 53.099472 -16.109896 -48.827583
36942500000 -15.876986 -51.640568 -0.99646604 52.628883 -0.95277441 52.644279 -15.981111 -50.859394
36970000000 -15.897055 -54.787868 -0.9662351 52.060898 -0.97752279 52.10701 -16.401577 -50.619934
36997500000 -15.630672 -53.878174 -1.0112107 51.843136 -1.0051939 51.571316 -15.74977 -50.156956
37025000000 -15.654572 -52.982399 -1.0013971 51.089985 -0.97786772 51.053631 -15.94136 -52.04155
37052500000 -15.955196 -54.525505 -0.97706342 50.693771 -1.0232981 50.586967 -15.827219 -51.554867
37080000000 -15.614252 -56.75782 -0.9992767 50.236702 -0.97592932 50.252739 -15.745944 -50.578808
37107500000 -15.575961 -54.074505 -0.97856617 49.668728 -1.0064809 49.653019 -15.919797 -51.854614
37135000000 -15.726475 -56.444942 -0.98458153 49.016766 -0.97801882 49.291485 -15.960586 -51.584263
37162500000 -15.367193 -57.021111 -0.99295044 48.746857 -0.99315864 48.727253 -15.960589 -50.849869
37190000000 -15.278659 -55.724079 -0.98825419 48.11776 -1.0014062 48.126156 -16.026138 -51.75351
37217500000 -15.611047 -57.153358 -0.99817753 47.806339 -0.99985087 47.637238 -15.628163 -53.658863
37245000000 -15.736159 -57.937695 -1.0135549 47.295536 -0.97597724 47.185463 -15.914622 -52.098484
37272500000 -15.337698 -56.43499 -0.99229002 46.909718 -0.97489882 46.553555 -15.883661 -53.338818
37300000000 -15.712196 -57.870445 -0.9829644 46.352299 -1.0166063 46.269745 -16.049992 -55.858711
37327500000 -15.576359 -58.072823 -0.97652304 45.779934 -1.0049652 45.782913 -15.880771 -54.719093
37355000000 -15.22587 -58.724506 -1.0175859 45.220703 -0.98639166 45.233013 -15.957097 -55.543087
37382500000 -15.692253 -57.483986 -0.98459679 44.874092 -1.0052406 44.875153 -15.700372 -55.561695
37410000000 -15.695354 -59.687222 -0.97040135 44.353951 -0.97779834 44.10825 -15.893324 -55.635986
37437500000 -15.346425 -58.743938 -1.0005138 43.740093 -0.97868747 43.714733 -15.787588 -55.236187
37465000000 -15.65533 -60.143005 -1.0176605 43.544125 -0.99867725 43.256355 -15.723744 -56.801918
37492500000 -15.853909 -60.708736 -0.95173913 42.790447 -0.98531097 42.772129 -15.688302 -55.557388
37520000000 -15.382803 -60.044807 -0.98318058 42.278839 -1.0254821 42.345455 -15.889184 -56.418953
37547500000 -15.453717 -60.330139 -0.96164966 41.805107 -0.99876648 41.648586 -15.893579 -58.52219
37575000000 -15.953343 -61.812126 -0.99027812 41.377537 -1.0032612 41.371544 -15.939703 -58.3578
37602500000 -15.315729 -62.111221 -0.99097955 40.819939 -0.98955536 40.790901 -15.829605 -56.925117
37630000000 -15.495023 -60.961449 -0.95610565 40.403702 -0.9759115 40.158241 -15.928191 -58.244301
37657500000 -15.574882 -62.30463 -0.99125046 39.729156 -1.0441966 39.608082 -15.853337 -59.102783
37685000000 -15.527035 -62.394741 -1.0000591 39.328148 -1.0107931 39.191967 -15.691431 -57.291843
37712500000 -15.489482 -61.717564 -1.0086731 38.858086 -0.98109889 38.744324 -15.779169 -59.025101
37740000000 -15.567524 -63.211113 -0.96622086 38.321342 -0.96872115 38.501225 -15.863506 -59.411587
37767500000 -15.722442 -62.627296 -0.99320424 37.609295 -0.96687055 37.74464 -15.75883 -59.737526
37795000000 -15.546269 -62.518559 -0.97429818 37.352722 -0.98754573 37.390934 -15.805579 -60.102905
37822500000 -15.595858 -65.502495 -0.97026509 36.733448 -0.97620183 36.775982 -16.028635 -62.504543
37850000000 -15.688204 -64.334877 -0.96794862 36.383438 -0.9918294 36.226379 -15.898933 -60.287746
37877500000 -15.282503 -63.756668 -0.95346689 35.779503 -0.99376261 35.89743 -15.723222 -59.217045
37905000000 -15.67555 -65.424118 -0.980573 35.422462 -0.98200166 35.255989 -15.908238 -61.602585
37932500000 -15.542013 -66.755653 -0.98389673 34.723267 -0.98423505 34.740807 -16.009897 -61.271374
37960000000 -15.670707 -64.547485 -0.96718943 34.503868 -0.98203284 34.347294 -15.788623 -60.645454
37987500000 -15.637455 -65.247513 -0.96180993 33.830254 -0.99282581 33.928432 -16.192118 -61.475018
38015000000 -15.884822 -69.150414 -0.96048409 33.441452 -0.99983883 33.311123 -15.938168 -62.526508
38042500000 -15.546597 -66.270485 -0.94585437 32.948906 -0.98635268 32.696686 -16.096388 -62.734463
38070000000 -15.484286 -66.415596 -1.0008485 32.676025 -0.98352629 32.545933 -15.810203 -62.897873
38097500000 -15.561713 -68.837868 -0.99048883 32.041016 -1.0006337 32.018082 -15.968352 -63.776947
38125000000 -15.755547 -67.222046 -0.96895671 31.306108 -0.98001724 31.352936 -16.134897 -63.855816
38152500000 -15.727573 -67.429977 -1.012387 30.895885 -0.97090048 30.978477 -15.678819 -63.538738
38180000000 -15.671372 -68.108841 -0.96912014 30.385828 -1.0034037 30.507536 -16.317152 -65.496796
38207500000 -15.825237 -70.89444 -0.9756496 29.874134 -0.98013502 29.872509 -16.048895 -63.515781
38235000000 -15.909811 -68.881599 -0.97387767 29.472549 -0.97799158 29.266262 -16.091618 -61.65403
38262500000 -15.781382 -69.228432 -0.97064215 29.050167 -0.99559575 28.867334 -16.009951 -66.366974
38290000000 -15.803102 -69.754814 -0.95186031 28.392111 -0.93548781 28.387648 -16.047668 -65.512077
38317500000 -16.0599 -69.889778 -0.99151814 28.061441 -0.96826339 27.69842 -15.993308 -64.330826
38345000000 -15.980547 -69.902664 -0.99544859 27.369341 -0.9711352 27.524944 -15.787942 -66.985748
38372500000 -15.691054 -71.587585 -1.006197 26.973454 -0.96946865 27.20418 -16.285385 -68.444962
38400000000 -15.990153 -71.667198 -0.96098757 26.246592 -0.94513088 26.391958 -16.039181 -63.535957
38427500000 -15.949588 -72.824928 -1.0062283 25.992218 -1.012073 25.715235 -15.884271 -68.12162
38455000000 -15.781627 -72.179932 -0.96427923 25.658337 -0.96359468 25.593224 -16.290098 -68.506012
38482500000 -16.073875 -72.363243 -0.98683089 24.724316 -0.95463967 25.056767 -16.203072 -67.457115
38510000000 -16.225052 -71.49408 -0.97523808 24.533127 -0.97990113 24.299906 -15.959846 -67.202202
38537500000 -15.782825 -72.178497 -0.98885483 23.979498 -0.9805454 24.052965 -16.174269 -68.306679
38565000000 -15.872615 -74.36274 -0.97086102 23.485008 -0.95679319 23.360697 -16.326637 -66.808044
38592500000 -16.118187 -73.717056 -0.98366755 23.011139 -0.99130249 22.934481 -16.301502 -65.77446
38620000000 -16.096928 -73.672913 -0.97541922 22.707439 -1.0335892 22.599878 -16.069962 -69.338791
38647500000 -16.058926 -75.210655 -0.96823782 22.17765 -0.97676164 22.109278 -16.765282 -70.797211
38675000000 -16.22333 -73.977013 -1.010849 21.358431 -0.98159212 21.335108 -16.235889 -69.079742
38702500000 -16.303593 -72.815437 -1.0134817 20.763153 -1.0063491 20.780695 -16.009859 -71.513855
38730000000 -15.996676 -73.95623 -0.9841935 20.687532 -0.95071501 20.580555 -16.388651 -71.537827
38757500000 -16.338057 -77.984222 -0.96069753 19.842794 -0.9958145 19.942513 -16.420956 -68.451515
38785000000 -16.447126 -74.206131 -0.9752546 19.543869 -0.98679775 19.629637 -15.941249 -71.080139
38812500000 -16.073759 -75.457458 -0.96685016 19.231287 -0.96436489 19.04421 -16.307215 -73.273949
38840000000 -16.225374 -77.765709 -0.95758057 18.415289 -0.96392953 18.634766 -16.777794 -71.137344
38867500000 -16.574306 -75.807983 -0.98098278 17.898972 -1.0248209 17.854584 -16.324162 -71.617378
38895000000 -16.263088 -73.611717 -0.97056025 17.789682 -1.0003948 17.384987 -16.351759 -75.15992
38922500000 -16.513285 -78.618179 -0.93101555 16.940952 -0.99374437 17.020388 -16.753113 -74.675804
38950000000 -16.644636 -78.709694 -0.97279233 16.317703 -1.0018036 16.107317 -16.197922 -70.727631
38977500000 -16.419851 -78.646263 -1.0161023 16.180727 -0.98245084 15.8923 -16.096603 -73.279732
39005000000 -16.244381 -77.243988 -0.95884615 15.98245 -1.0030332 15.686532 -16.623198 -76.011726
39032500000 -16.533781 -77.412132 -0.98675388 14.990604 -0.93767554 15.011638 -16.44828 -71.501198
39060000000 -16.558599 -78.405869 -0.99735117 14.562943 -1.0252752 14.586274 -16.464247 -73.632851
39087500000 -16.175116 -77.748787 -0.97766024 14.260754 -0.98162425 13.991659 -17.165777 -78.107979
39115000000 -16.622559 -78.912018 -0.94689918 13.364154 -0.97860837 13.145698 -16.72237 -75.237106
39142500000 -17.108076 -77.700974 -0.96188194 12.916883 -1.0090551 13.029908 -16.322781 -74.421898
39170000000 -16.499403 -78.646324 -0.9440636 12.442317 -0.96121621 12.533437 -16.723713 -77.686523
39197500000 -16.437576 -78.215607 -0.93826604 12.023137 -0.95033419 12.024435 -17.221294 -75.925865
39225000000 -17.067724 -79.228096 -0.93675977 11.126105 -0.96342409 11.556603 -16.786003 -75.387711
39252500000 -16.747614 -78.580688 -1.0175718 10.958912 -0.98740405 11.088742 -16.636343 -79.092682
39280000000 -16.545603 -78.175087 -0.95196503 10.609744 -0.9613018 10.559837 -17.363754 -80.548737
39307500000 -17.136724 -79.711021 -0.93947166 10.031173 -0.99170059 9.9522305 -16.814337 -74.357666
39335000000 -17.196543 -81.2089 -0.99448931 9.9074306 -1.018855 9.6459179 -16.738258 -78.718117
39362500000 -16.829382 -78.682381 -0.96328932 9.3933325 -0.99963385 9.0821381 -16.976976 -78.215416
39390000000 -17.226799 -83.446732 -0.96477181 8.4901781 -0.96730781 8.5114574 -17.008865 -74.272934
39417500000 -17.236567 -79.520325 -0.98502159 7.6363888 -0.98615581 7.9962449 -16.791384 -79.186676
39445000000 -17.244261 -80.958832 -0.95102304 7.4971027 -0.98324323 7.5196695 -17.138399 -82.240738
39472500000 -17.374155 -80.914368 -0.94062263 7.0481544 -0.97696584 6.6963062 -17.398403 -79.236237
39500000000 -17.23596 -84.918167 -0.97186559 6.5731726 -0.96556938 6.267313 -16.825766 -76.299423
39527500000 -16.972969 -80.346184 -0.96532202 6.1528106 -0.98351687 6.036478 -16.988173 -82.496422
39555000000 -17.16312 -81.876305 -1.0131058 5.5277777 -0.91383427 5.3136091 -17.248365 -81.949623
39582500000 -17.474392 -84.036118 -0.97871441 4.8931723 -0.96952462 4.8364162 -17.227747 -78.682281
39610000000 -17.510931 -83.211502 -0.94843245 4.5000887 -0.96790332 4.5611467 -17.308306 -81.764397
39637500000 -17.055925 -82.053017 -0.98219639 4.0752301 -0.97149193 4.3296509 -17.615923 -82.611763
39665000000 -17.558855 -86.157166 -0.94495261 3.2997656 -0.96178472 3.3082387 -17.561012 -77.784103
39692500000 -17.478081 -84.003716 -0.96285343 3.1276402 -0.98918283 3.1688156 -17.060539 -82.281342
39720000000 -17.583097 -81.87558 -0.9980638 2.6348231 -0.99431586 2.5817966 -18.033115 -83.812225
39747500000 -17.351715 -84.790039 -0.92792559 1.9457979 -0.94937354 2.057802 -17.891542 -81.88871
39775000000 -17.439257 -85.97419 -1.009415 1.6716855 -0.97767842 1.5163561 -17.310783 -80.773224
39802500000 -17.565914 -81.594322 -0.98149675 0.92562097 -0.99252486 0.95061517 -17.483232 -85.372833
39830000000 -17.652498 -86.246376 -0.92832911 0.76415509 -0.96946347 0.61938494 -18.031689 -82.851791
39857500000 -17.350683 -85.060913 -0.97505856 -0.078120343 -0.94279498 -0.13363242 -17.49325 -80.975121
39885000000 -18.216429 -81.225227 -0.97218162 -0.49666762 -0.96585649 -0.53324139 -17.554731 -86.136108
39912500000 -17.954651 -87.003998 -0.99122185 -0.96496308 -0.95859337 -0.94235617 -17.979918 -84.695206
39940000000 -17.624443 -85.91523 -0.94825631 -1.2625381 -0.95463967 -1.4296954 -17.36187 -83.121338
39967500000 -18.03846 -84.416656 -0.99019784 -1.9164661 -0.96183932 -1.8143945 -17.914848 -83.08149
39995000000 -18.169521 -84.777008 -0.91703284 -2.5600295 -0.9980967 -2.5730333 -18.288017 -85.684181
40022500000 -18.056717 -88.456657 -0.9550941 -2.6782129 -0.95124155 -2.8412673 -17.929989 -82.307404
40050000000 -17.980549 -86.38887 -0.95592242 -3.4998515 -0.99400276 -3.5449538 -17.888872 -84.837631
40077500000 -18.561459 -84.417229 -0.96150142 -3.9140031 -0.97273403 -3.9605496 -17.7736 -86.459953
40105000000 -18.185635 -87.78019 -0.94678777 -4.6198459 -0.98765916 -4.2512155 -18.258415 -83.17952
40132500000 -18.229847 -87.081947 -0.96225893 -5.1459508 -0.98244208 -5.0662484 -18.04711 -85.087349
40160000000 -18.470909 -85.857147 -0.9729355 -5.3356771 -0.99925947 -5.5422783 -18.14492 -85.580528
40187500000 -18.646185 -89.426247 -0.96308088 -5.7006607 -0.96952689 -5.7580171 -18.304296 -86.99633
40215000000 -18.447584 -85.983086 -0.90729332 -6.2197928 -0.96644467 -6.4980011 -18.48457 -85.233116
40242500000 -18.753401 -86.551117 -1.0047424 -6.9184666 -1.0012859 -6.816637 -18.62183 -87.091492
40270000000 -18.723217 -89.211525 -1.0048194 -7.2534595 -1.0028304 -7.6985641 -18.459108 -88.748138
40297500000 -18.560801 -87.244919 -0.98621881 -7.7863007 -0.97301352 -8.0276852 -18.465452 -84.531662
40325000000 -19.124563 -85.399658 -0.95393509 -8.3819771 -0.97246039 -8.5465622 -18.664906 -85.706429
40352500000 -19.028503 -91.053192 -0.98890585 -8.939106 -0.98475236 -8.9391327 -18.597357 -89.11158
40380000000 -18.636559 -89.926605 -0.96751809 -9.5384398 -0.95127732 -9.4456835 -18.428818 -88.22541
40407500000 -18.777603 -85.943947 -0.97190958 -10.070968 -0.97786093 -9.96385 -19.123304 -90.29641
40435000000 -19.498108 -91.005539 -0.99976909 -10.411798 -0.98716003 -10.633438 -18.860914 -88.850456
40462500000 -19.008268 -88.197319 -0.97911167 -10.876306 -0.93327099 -11.116712 -19.321508 -88.993011
40490000000 -19.404043 -87.009346 -0.95605761 -11.522139 -0.96948969 -11.505132 -19.052019 -85.927963
40517500000 -19.143032 -89.849945 -0.95000911 -11.885969 -0.98466337 -12.098452 -19.106657 -87.256691
40545000000 -19.24538 -91.486237 -0.96635991 -12.522936 -0.9754442 -12.324828 -18.957373 -88.843811
40572500000 -19.763924 -86.797493 -0.97223824 -12.628443 -0.96535534 -12.980907 -19.001762 -89.58342
40600000000 -19.903421 -87.676231 -0.95566952 -13.661714 -0.99095094 -13.667074 -19.372396 -88.698997
40627500000 -18.987896 -91.163673 -0.95051396 -13.807099 -0.96580505 -13.827189 -19.702246 -88.982101
40655000000 -20.018074 -86.248886 -0.92785633 -14.256438 -0.95876962 -14.458617 -19.582323 -88.711662
40682500000 -20.133488 -87.551949 -0.94341511 -14.929206 -0.99919623 -14.833643 -19.998278 -90.813942
40710000000 -19.627161 -87.149887 -0.96384776 -15.523926 -0.95922256 -15.574306 -19.994495 -90.256279
40737500000 -19.779474 -87.931602 -0.98358732 -15.938996 -0.9985466 -16.033813 -19.562695 -88.920036
40765000000 -20.380623 -88.143456 -0.96443307 -16.361382 -0.93882543 -16.509701 -19.826235 -88.000023
40792500000 -19.590731 -92.20652 -0.96132153 -16.662695 -0.97350711 -17.151711 -20.052469 -87.013145
40820000000 -20.113239 -88.973701 -0.9264732 -17.580238 -0.93780273 -17.362852 -19.587746 -86.725822
40847500000 -20.906488 -86.732414 -0.96213782 -17.937296 -0.97088557 -17.898369 -20.268131 -89.370087
40875000000 -20.047691 -88.931534 -0.93042314 -18.293133 -0.96835881 -18.47249 -20.687771 -88.7995
40902500000 -20.392904 -89.533485 -0.94283193 -19.180365 -0.97819328 -18.987579 -20.162384 -90.588455
40930000000 -20.749758 -85.348824 -0.92962563 -19.201809 -0.98368639 -19.201944 -20.504082 -93.371765
40957500000 -20.503057 -89.276871 -0.93523383 -19.710722 -0.96943045 -19.844391 -20.816511 -90.361374
40985000000 -20.361061 -87.458405 -0.93393594 -20.517496 -0.96762872 -20.475809 -20.176535 -87.733162
41012500000 -21.034554 -87.735222 -0.99201256 -21.029549 -0.99964201 -21.090313 -20.136858 -93.217484
41040000000 -20.723085 -86.971558 -0.95630503 -21.202112 -1.0367566 -21.215462 -21.619535 -90.369919
41067500000 -20.278063 -88.493774 -0.95351785 -21.987272 -0.98234504 -22.001442 -20.898499 -86.171677
41095000000 -21.165154 -86.636833 -0.9288792 -22.576284 -0.96213102 -22.512522 -20.487984 -89.686455
41122500000 -21.430025 -86.321365 -0.94612437 -23.026175 -1.018768 -22.708815 -21.592348 -92.593002
41150000000 -20.430363 -83.859642 -0.92545247 -23.368677 -0.92418379 -23.481216 -21.68597 -84.75708
41177500000 -21.532131 -88.043098 -0.99981177 -23.687233 -0.94295865 -23.880211 -20.956263 -91.038925
41205000000 -21.734833 -85.978989 -0.96516168 -24.54299 -0.99628401 -24.464554 -21.639669 -94.221931
41232500000 -20.740644 -83.918419 -0.94984031 -24.978004 -0.93973261 -25.03027 -22.405636 -85.466316
41260000000 -21.491739 -88.046303 -0.99284339 -25.668287 -0.96281463 -25.506441 -20.846144 -89.142357
41287500000 -21.610031 -86.896996 -0.96941233 -25.7241 -0.95402795 -25.921036 -21.240147 -91.148659
41315000000 -21.651539 -85.116364 -0.99966347 -26.419285 -0.93978596 -26.260931 -22.915066 -89.605019
41342500000 -21.77824 -81.055298 -0.94878089 -27.268307 -0.9461627 -26.934237 -21.449621 -85.704926
41370000000 -22.310085 -86.207581 -0.94858158 -27.455191 -0.95141006 -27.463282 -21.546989 -88.613472
41397500000 -22.090977 -81.255707 -0.99325174 -27.866373 -0.96464056 -27.721077 -22.325272 -91.163231
41425000000 -21.584036 -82.642311 -0.93319172 -28.620148 -0.93415004 -28.290207 -22.216167 -83.19355
41452500000 -22.588297 -89.165367 -0.93924189 -28.710667 -0.98039323 -29.067926 -21.825829 -88.789314
41480000000 -22.572786 -78.889587 -0.98064792 -29.341621 -0.95731789 -29.393108 -22.646427 -94.406944
41507500000 -21.680334 -82.06218 -0.95415694 -30.044233 -0.95170176 -30.037373 -23.70409 -84.036255
41535000000 -22.185434 -83.94043 -0.96636027 -30.467333 -0.95919156 -30.326065 -21.610559 -84.545097
41562500000 -22.885513 -82.477859 -1.007787 -30.839834 -1.0041193 -30.816206 -22.617517 -91.869217
41590000000 -22.203718 -75.541328 -0.93286598 -31.497513 -0.95843422 -31.311026 -23.647501 -86.99099
41617500000 -21.774828 -81.531189 -0.93090934 -31.934475 -0.94215405 -32.035 -22.342079 -83.931755
41645000000 -23.081417 -81.374512 -0.98576146 -32.509762 -0.96844906 -32.389526 -22.754034 -85.703262
41672500000 -23.083021 -72.207916 -0.9735136 -32.724758 -0.9692874 -32.886864 -24.110794 -88.230186
41700000000 -22.58284 -78.624153 -0.91626781 -33.448833 -0.94662428 -33.215439 -23.09656 -80.411423
41727500000 -22.714333 -77.069321 -0.95183003 -34.206833 -0.92843044 -34.012104 -22.678465 -83.766541
41755000000 -23.958412 -76.896866 -0.99262637 -34.381081 -0.94849139 -34.523457 -24.121185 -86.548843
41782500000 -22.862038 -74.023109 -0.91943395 -34.760139 -0.96834588 -34.728363 -23.541578 -78.500671
41810000000 -22.847809 -74.988953 -0.93651855 -35.688644 -0.95701456 -35.66156 -23.032457 -83.743294
41837500000 -23.563408 -71.147789 -0.9675113 -35.760605 -0.9952969 -35.934586 -24.593243 -86.08744
41865000000 -23.405195 -72.778404 -0.98149997 -35.94421 -0.99163556 -36.132862 -24.886133 -72.616982
41892500000 -22.811413 -73.92617 -0.95885968 -36.810951 -0.96702546 -36.800365 -23.30578 -80.506042
41920000000 -24.062828 -71.250458 -0.94275254 -37.589298 -0.93193811 -37.254242 -23.761259 -83.591568
41947500000 -23.269905 -74.576553 -0.96918386 -37.563519 -0.98602653 -38.064434 -25.918818 -76.872467
41975000000 -22.609777 -72.285194 -0.94716704 -38.23278 -0.956388 -38.18169 -24.675825 -71.428802
42002500000 -24.711887 -75.729607 -0.95710522 -38.59576 -0.94947791 -39.314793 -24.398102 -82.523087
42030000000 -23.367386 -66.938858 -1.0106066 -39.644165 -0.96387845 -39.931416 -25.689268 -80.767281
42057500000 -23.266045 -70.312134 -0.87991786 -39.638878 -0.96241724 -40.131588 -24.54137 -66.950195
42085000000 -23.15991 -69.116531 -0.95675355 -40.585564 -0.9268375 -40.787361 -24.3263 -77.887878
42112500000 -24.323093 -69.422356 -0.97939384 -40.900654 -0.9765746 -40.932243 -24.600088 -77.21447
42140000000 -23.21092 -62.228092 -0.98825091 -41.406265 -0.99846125 -41.412216 -25.33316 -63.822838
42167500000 -23.734169 -65.10833 -0.97664785 -41.982918 -0.97931147 -42.032955 -24.948374 -75.783287
42195000000 -24.588371 -63.048389 -0.96728325 -42.543575 -1.0099294 -43.055683 -26.185551 -81.76207
42222500000 -22.996948 -61.665058 -0.98731309 -42.953484 -0.9990167 -42.966503 -25.291103 -69.988075
42250000000 -23.172634 -60.214382 -0.94959259 -43.604473 -0.96224862 -43.291466 -24.815306 -67.067322
42277500000 -24.751503 -56.465015 -0.98214579 -44.241856 -0.96495998 -44.025387 -25.615625 -77.669678
42305000000 -23.922428 -62.224274 -0.93408167 -44.321003 -0.98300236 -44.716751 -25.984196 -69.003639
42332500000 -23.084356 -57.75972 -0.96496576 -45.041794 -1.0069741 -44.763958 -25.460886 -61.712318
42360000000 -24.196146 -59.541405 -0.93521488 -45.396919 -0.9809711 -45.525063 -25.881584 -72.633316
42387500000 -23.859358 -66.042168 -0.95507735 -46.151295 -0.92492813 -46.042004 -25.114857 -68.501183
42415000000 -23.071165 -55.496166 -0.89853758 -46.277725 -0.96582091 -46.531502 -25.694302 -55.450073
42442500000 -25.322111 -54.91494 -0.9332732 -46.766193 -0.99311054 -47.09502 -25.808294 -65.966751
42470000000 -23.552162 -56.931389 -0.96531749 -47.300705 -0.95102113 -47.579041 -25.428089 -65.07476
42497500000 -22.570957 -47.517166 -0.94296223 -47.661842 -0.96313196 -48.19706 -26.386766 -56.489323
42525000000 -23.813541 -58.262169 -0.92150384 -48.285446 -0.98001564 -48.575722 -25.412397 -57.27422
42552500000 -23.578482 -58.219166 -0.93891668 -48.793289 -1.0224764 -49.07774 -25.298714 -60.956234
42580000000 -23.703356 -54.482407 -0.95098215 -49.478821 -0.94131064 -49.397667 -26.687775 -51.315849
42607500000 -24.013515 -46.701218 -0.97664881 -49.965672 -0.98146689 -49.560978 -25.806446 -60.077667
42635000000 -23.648497 -53.41082 -0.94597793 -50.430935 -0.96220016 -50.649342 -25.324247 -59.977421
42662500000 -22.805582 -45.429653 -0.97978634 -51.13715 -0.98483777 -50.951569 -26.184763 -48.127144
42690000000 -23.746347 -43.916824 -0.95860791 -51.640617 -1.0054474 -51.551777 -26.562576 -47.537102
42717500000 -24.228445 -48.049679 -0.9176442 -51.702011 -1.0069333 -52.359379 -25.096292 -47.447151
42745000000 -22.187466 -39.868496 -0.99580997 -52.356812 -0.93563324 -52.411854 -25.783993 -47.240124
42772500000 -21.904591 -46.208954 -0.97531295 -52.838814 -0.95249009 -52.837364 -25.54318 -50.711094
42800000000 -23.276558 -51.486996 -0.95605695 -53.186157 -0.99339032 -53.61586 -25.845308 -53.361176
42827500000 -22.308102 -45.302475 -0.99175847 -54.214413 -1.0009173 -54.143154 -24.880562 -47.288822
42855000000 -21.909105 -42.851055 -1.0128042 -54.574539 -0.97955924 -54.98988 -26.566462 -40.095207
42882500000 -23.563185 -49.072021 -0.96465093 -55.171459 -0.99776512 -54.946747 -25.795874 -48.38958
42910000000 -22.595224 -48.269653 -0.99548441 -55.806438 -0.91964287 -55.294262 -24.116976 -46.696003
42937500000 -22.733923 -36.042297 -0.92773199 -55.829006 -1.0018382 -55.867577 -25.61528 -35.790787
42965000000 -22.776833 -41.732487 -0.96578437 -56.4058 -0.91908592 -56.514149 -25.270391 -40.937675
42992500000 -22.58103 -40.930656 -0.99932426 -57.105412 -1.0222881 -56.987476 -25.543051 -34.883232
43020000000 -22.319994 -37.319782 -0.93201798 -57.486507 -1.0114822 -57.543533 -25.000692 -40.995525
43047500000 -22.212156 -42.673717 -1.0101686 -58.009693 -1.0205226 -57.894432 -25.018843 -35.387058
43075000000 -22.263018 -47.126713 -0.9526071 -58.248241 -0.95198441 -58.478905 -25.262854 -37.154655
43102500000 -21.604599 -43.359051 -0.96961719 -58.909725 -0.97820336 -59.169983 -24.938883 -33.880352
43130000000 -21.549921 -38.864899 -0.98616719 -59.651363 -0.9430545 -59.556793 -25.978285 -35.320496
43157500000 -22.608606 -46.320313 -1.0141257 -59.635586 -1.0182371 -59.808723 -24.437313 -35.506554
43185000000 -21.768869 -39.242836 -0.95941204 -60.617546 -0.98770785 -60.584263 -23.84618 -33.122349
43212500000 -21.404236 -37.055424 -0.94564128 -61.040562 -0.94460768 -60.774223 -23.089375 -36.289967
43240000000 -21.649343 -39.93314 -0.95969975 -61.360336 -0.9979853 -61.380596 -25.027189 -33.527702
43267500000 -21.142464 -38.797588 -1.0118642 -62.116508 -0.99514908 -62.085033 -24.711029 -36.927437
43295000000 -21.426031 -33.535755 -0.99533141 -62.622337 -0.98093182 -62.60305 -23.083572 -28.428442
43322500000 -21.528229 -36.52224 -1.0064604 -62.942181 -0.99077404 -62.846512 -23.652658 -28.568668
43350000000 -20.929079 -38.550266 -0.98084229 -63.300144 -1.018821 -63.128986 -24.055069 -30.40847
43377500000 -21.391027 -32.316185 -0.99145728 -64.365784 -0.99706423 -64.20797 -22.800833 -30.969076
43405000000 -20.992365 -36.064507 -0.94953269 -64.601715 -1.0148519 -64.459541 -24.145504 -32.512802
43432500000 -20.4347 -33.545937 -0.99976712 -64.928337 -0.9990232 -64.375793 -23.614906 -26.815939
43460000000 -20.486246 -32.126514 -0.94731027 -65.399757 -1.0402912 -65.565376 -22.146393 -23.29521
43487500000 -20.881552 -32.782707 -0.97864825 -66.403008 -0.96066266 -65.901703 -22.988066 -31.174183
43515000000 -20.433966 -39.825428 -0.97081047 -66.17115 -1.0714172 -66.284164 -22.980589 -27.740982
43542500000 -19.960218 -34.267265 -0.99058837 -66.540886 -0.96170652 -67.144135 -22.235395 -25.281019
43570000000 -20.264662 -34.514061 -0.9879269 -67.581154 -1.0151839 -67.805634 -22.71213 -31.506731
43597500000 -19.997774 -38.521816 -0.94897801 -68.155548 -0.9463613 -67.9981 -22.774147 -25.952141
43625000000 -20.096916 -30.193182 -1.0421473 -68.358475 -0.94905531 -68.503281 -21.863155 -25.502567
43652500000 -20.364893 -36.176521 -0.96234423 -68.599457 -0.95047146 -68.897972 -21.968622 -27.608892
43680000000 -19.97613 -36.45723 -0.9841302 -69.220886 -0.98235869 -69.412575 -22.769711 -29.164755
43707500000 -19.848816 -34.105492 -0.9937489 -69.83017 -1.0423553 -69.75985 -21.726324 -25.980612
43735000000 -20.058308 -32.466152 -1.0168788 -69.774384 -0.99776185 -70.556152 -20.744057 -26.219797
43762500000 -19.332418 -35.687851 -0.91711086 -70.700439 -0.96196884 -71.256424 -21.779993 -31.398083
43790000000 -19.301046 -33.633804 -1.0067104 -71.243225 -1.00651 -71.638138 -21.793842 -24.106853
43817500000 -19.338692 -29.461674 -0.99829674 -71.868752 -0.9949401 -71.906868 -21.140184 -19.624777
43845000000 -19.70553 -41.666103 -0.98265243 -72.277809 -0.98418766 -72.514519 -22.218756 -30.798218
43872500000 -19.053495 -38.308716 -0.96770406 -72.925476 -1.0239508 -73.028885 -21.699577 -24.445385
43900000000 -19.412092 -31.352942 -1.0370922 -73.450104 -1.0449749 -73.268784 -20.919529 -21.093311
43927500000 -19.357069 -34.227863 -0.94024074 -74.067513 -0.9870255 -73.769173 -20.802752 -28.330606
43955000000 -19.156054 -38.963154 -0.93869269 -74.413261 -1.0122119 -74.267395 -21.190109 -26.898882
43982500000 -19.362701 -32.854725 -1.0025682 -74.939522 -0.98928326 -75.095932 -21.517225 -20.185335
44010000000 -18.90295 -34.872631 -1.0392003 -75.378548 -0.95390409 -75.469666 -20.63707 -28.688324
44037500000 -18.596081 -34.464043 -0.96884799 -75.736229 -0.99678648 -76.392303 -21.104017 -25.308968
44065000000 -19.514301 -32.944347 -1.0214342 -76.749397 -1.0165583 -76.383904 -21.40646 -22.067905
44092500000 -19.101503 -29.459713 -0.9786067 -76.901634 -1.0462309 -76.925171 -20.626623 -23.855568
44120000000 -18.484745 -36.132477 -0.99421495 -77.354721 -1.0119822 -77.640045 -19.737926 -27.399986
44147500000 -18.197548 -36.273125 -0.99071354 -78.171082 -1.0391358 -78.138985 -20.657932 -21.812435
44175000000 -18.666882 -32.32214 -1.0248009 -78.408722 -1.0459174 -78.353821 -19.99563 -22.53322
44202500000 -18.727001 -32.58255 -1.0188392 -78.929733 -1.017121 -78.805305 -20.225281 -24.473289
44230000000 -17.612947 -37.221046 -1.0002759 -79.513634 -0.98128128 -79.579597 -20.239752 -25.544596
44257500000 -19.085245 -34.186073 -1.0325371 -80.020714 -1.1067113 -79.822403 -19.568768 -23.120874
44285000000 -17.916477 -33.382229 -0.95415533 -80.325516 -1.0463917 -80.32 -19.6985 -23.756937
44312500000 -18.038204 -36.602642 -1.0115534 -80.871231 -1.0059532 -81.277077 -19.918226 -21.045933
44340000000 -18.146879 -36.256111 -1.0124416 -81.162064 -1.0455508 -81.717957 -19.448195 -22.734041
44367500000 -17.971342 -31.759493 -1.0316987 -81.515068 -1.0166881 -81.92067 -19.129314 -26.302841
44395000000 -17.363571 -35.917484 -0.99890238 -82.23671 -1.0007448 -82.644157 -19.486992 -26.54929
44422500000 -17.752449 -36.095257 -1.0498892 -83.139679 -1.0326561 -83.092354 -19.582764 -20.861696
44450000000 -17.726469 -31.798449 -1.0525839 -83.255318 -1.0889964 -83.494446 -18.863449 -25.101288
44477500000 -17.185085 -36.620213 -1.0128678 -84.023216 -0.98949361 -83.818039 -19.008577 -28.363916
44505000000 -17.705542 -35.966393 -1.069832 -84.568558 -0.98179561 -84.362671 -19.449915 -24.385685
44532500000 -17.897573 -36.698914 -1.060848 -85.140793 -1.0528729 -84.842728 -19.161871 -23.483273
44560000000 -17.265833 -33.686405 -1.0449615 -85.164055 -1.0266871 -85.29174 -18.756227 -24.235262
44587500000 -16.75576 -36.968464 -1.0259787 -86.117928 -0.98550129 -86.089073 -18.704718 -26.076611
44615000000 -17.974709 -33.103374 -1.0175598 -86.318794 -1.0481025 -86.549194 -18.78166 -23.590237
44642500000 -17.150839 -36.094223 -0.96364123 -86.762024 -1.0797166 -87.03257 -18.040382 -30.284595
44670000000 -16.464876 -37.420731 -0.98155773 -87.195763 -1.0000595 -87.308899 -18.878605 -26.640997
44697500000 -17.36628 -37.194572 -0.9599393 -88.208031 -1.0688694 -87.803329 -18.799206 -26.383347
44725000000 -17.007061 -35.709587 -1.0570729 -88.646484 -1.0820357 -88.423256 -18.070862 -24.682362
44752500000 -16.331642 -36.464012 -1.0572331 -88.831543 -1.005548 -88.924812 -18.250483 -27.734694
44780000000 -17.292568 -39.172718 -1.0099216 -89.162872 -1.012527 -89.768486 -18.719557 -24.020721
44807500000 -17.114067 -35.809151 -1.0464118 -89.818077 -1.0531173 -89.707634 -18.242718 -26.408716
44835000000 -16.214401 -37.640499 -1.0106752 -90.271057 -1.0302929 -90.353172 -17.523609 -29.356331
44862500000 -16.682714 -36.777061 -1.1269189 -91.079636 -0.98665577 -90.909622 -17.963478 -25.4725
44890000000 -17.13772 -39.441883 -1.0579058 -91.588203 -1.037138 -91.776375 -18.008442 -28.628607
44917500000 -16.290556 -35.258041 -1.0742556 -91.855339 -1.0572298 -91.75219 -17.762146 -28.182705
44945000000 -16.53405 -39.777809 -1.0627226 -92.239334 -1.0436738 -92.679977 -17.845819 -28.973827
44972500000 -17.121885 -39.524708 -1.0115061 -93.158279 -1.0171851 -93.037262 -17.923 -31.611013
45000000000 -16.437279 -37.991421 -1.0113698 -93.505295 -1.0878793 -93.19101 -17.59531 -28.664047
