!Keysight Technologies,N5247B,MY61255062,A.19.80.06
!Date: Friday, March 13, 2026 17:59:54
!Correction: S11(C  2-Port  ) 
!S21(C  2-Port  ) 
!S12(C  2-Port  ) 
!S22(C  2-Port  ) 
!S2P File: Measurements: S11, S21, S12, S22:
# Hz S  dB   R 50
1000000000 -32.207214 -28.719341 -0.12767087 -14.287864 -0.1269301 -14.286068 -38.427551 -22.763628
1030000000 -32.201569 -30.817217 -0.13139395 -14.711611 -0.13078754 -14.714682 -38.590576 -25.283728
1060000000 -32.165291 -31.484219 -0.13438648 -15.124985 -0.1337695 -15.127707 -38.755211 -28.096073
1090000000 -32.201996 -31.248569 -0.13707167 -15.539954 -0.13705297 -15.538219 -38.616829 -28.396893
1120000000 -32.141819 -31.95196 -0.13955402 -15.953348 -0.13902585 -15.954709 -38.458881 -29.538256
1150000000 -32.066895 -32.43771 -0.14151387 -16.368433 -0.14161523 -16.364048 -38.289467 -31.233585
1180000000 -32.159908 -33.040695 -0.14655258 -16.787926 -0.14600399 -16.779747 -38.371807 -34.129921
1210000000 -32.090275 -32.545254 -0.15009627 -17.179852 -0.14987145 -17.175444 -38.515316 -33.289673
1240000000 -32.055199 -32.447838 -0.14987682 -17.585615 -0.14949554 -17.582151 -38.086426 -33.472805
1270000000 -32.266026 -32.966732 -0.15342698 -17.996279 -0.15335135 -17.995348 -38.155502 -36.549644
1300000000 -32.276253 -32.736382 -0.15593883 -18.396158 -0.15518303 -18.392597 -38.225052 -37.786465
1330000000 -32.163342 -32.532787 -0.15725838 -18.798273 -0.15702032 -18.790482 -38.360268 -37.900272
1360000000 -32.122082 -32.220417 -0.15835227 -19.193195 -0.15872653 -19.186649 -38.431885 -38.489384
1390000000 -32.000446 -32.210331 -0.15868707 -19.588264 -0.15799119 -19.585476 -38.384689 -38.496624
1420000000 -31.852863 -31.742706 -0.15710887 -19.988176 -0.1561017 -19.98704 -38.25576 -37.932758
1450000000 -31.781986 -32.085026 -0.15557715 -20.405279 -0.15504487 -20.40205 -38.080799 -39.057594
1480000000 -31.671398 -32.984722 -0.15560773 -20.814167 -0.15469936 -20.812395 -37.887024 -40.135086
1510000000 -31.490467 -32.723572 -0.15502261 -21.225285 -0.15404783 -21.221912 -37.703079 -39.917225
1540000000 -31.507681 -32.771854 -0.15506579 -21.639652 -0.15350769 -21.637674 -37.452553 -40.672428
1570000000 -31.425402 -33.25985 -0.15325268 -22.055315 -0.15300624 -22.050367 -37.34338 -41.84481
1600000000 -31.300203 -33.631805 -0.15398587 -22.4704 -0.15221235 -22.46418 -37.115856 -42.451374
1630000000 -31.296375 -34.453175 -0.15219975 -22.892811 -0.1513489 -22.889071 -36.877766 -43.585178
1660000000 -31.249046 -35.352901 -0.15193756 -23.314463 -0.151458 -23.308136 -36.794632 -45.528595
1690000000 -31.135828 -35.584591 -0.1527483 -23.730333 -0.15128377 -23.731945 -36.737534 -46.510803
1720000000 -31.0861 -35.924492 -0.15272228 -24.153244 -0.1513288 -24.15176 -36.653111 -47.057793
1750000000 -31.018593 -37.143753 -0.15272899 -24.576937 -0.15188099 -24.57239 -36.568577 -49.053326
1780000000 -30.923517 -37.401333 -0.15292795 -24.997814 -0.15197858 -24.992418 -36.411457 -50.008884
1810000000 -30.904102 -37.220398 -0.15407465 -25.4125 -0.1524177 -25.411301 -36.366806 -49.916412
1840000000 -30.890297 -38.171677 -0.154422 -25.831263 -0.15330175 -25.827654 -36.301823 -52.044182
1870000000 -30.887661 -39.046753 -0.1560773 -26.250435 -0.1538035 -26.249144 -36.219032 -52.911167
1900000000 -30.784534 -39.331276 -0.15552457 -26.667698 -0.15414868 -26.662724 -36.116192 -53.045147
1930000000 -30.759699 -39.518627 -0.15533085 -27.08736 -0.15463552 -27.087391 -36.11039 -53.888424
1960000000 -30.743893 -40.054405 -0.15663277 -27.51009 -0.1556689 -27.50775 -36.014824 -54.881054
1990000000 -30.771688 -40.816319 -0.15777777 -27.926073 -0.15654716 -27.923023 -35.906391 -54.956455
2020000000 -30.755276 -41.301708 -0.15833266 -28.352135 -0.15763308 -28.345928 -35.881779 -56.403942
2050000000 -30.780394 -41.607643 -0.15940507 -28.765663 -0.15815602 -28.768255 -35.925999 -57.458523
2080000000 -30.734991 -42.66457 -0.15987074 -29.181431 -0.15911855 -29.181583 -35.904198 -56.953285
2110000000 -30.688002 -42.902649 -0.16092069 -29.603201 -0.15951222 -29.593212 -35.882126 -57.16317
2140000000 -30.814363 -43.400494 -0.16103137 -30.014952 -0.16135751 -30.016418 -35.750008 -58.538696
2170000000 -30.826214 -44.109985 -0.16212675 -30.435921 -0.16083904 -30.429863 -35.691902 -58.740421
2200000000 -30.726192 -44.7313 -0.16131291 -30.852419 -0.16249193 -30.852169 -35.716152 -58.666912
2230000000 -30.864391 -45.268063 -0.16309044 -31.278858 -0.1620018 -31.271389 -35.536652 -59.392742
2260000000 -30.853401 -46.494564 -0.16396643 -31.693998 -0.1625817 -31.688616 -35.371861 -59.895317
2290000000 -30.703596 -47.134495 -0.16515048 -32.114098 -0.16425192 -32.112728 -35.445908 -59.495018
2320000000 -30.851173 -47.562538 -0.16635394 -32.531967 -0.16448528 -32.529804 -35.310978 -60.869247
2350000000 -30.854246 -48.888882 -0.16707106 -32.951447 -0.16600455 -32.951809 -35.244995 -61.138088
2380000000 -30.72942 -49.012318 -0.16758221 -33.373722 -0.16673292 -33.364452 -35.158272 -61.27916
2410000000 -30.798334 -49.657982 -0.16830358 -33.790833 -0.16743989 -33.789925 -35.121368 -62.384689
2440000000 -30.888927 -50.834305 -0.17009716 -34.207603 -0.16961531 -34.208523 -35.112949 -62.040699
2470000000 -30.736719 -51.289223 -0.17071043 -34.631058 -0.17079389 -34.624657 -35.033539 -62.132477
2500000000 -30.810354 -51.48093 -0.17217533 -35.046032 -0.17191005 -35.047836 -34.779465 -62.854961
2530000000 -30.882168 -53.119965 -0.17286001 -35.462578 -0.17392255 -35.465557 -34.767681 -64.024406
2560000000 -30.784172 -53.988823 -0.17508075 -35.884655 -0.17525162 -35.877979 -34.823673 -63.494232
2590000000 -30.885927 -53.706398 -0.17678733 -36.30014 -0.17610958 -36.29327 -34.533325 -63.658436
2620000000 -31.017822 -54.80386 -0.17765477 -36.715736 -0.17830122 -36.716694 -34.428066 -64.712585
2650000000 -30.905106 -56.708897 -0.17967452 -37.132324 -0.17938693 -37.117485 -34.527576 -65.42926
2680000000 -30.874395 -56.883064 -0.1805061 -37.548592 -0.18056169 -37.540703 -34.38805 -65.481155
2710000000 -30.951502 -57.773102 -0.18226045 -37.959274 -0.1812952 -37.950348 -34.229237 -65.286972
2740000000 -30.914894 -58.592697 -0.18381107 -38.373497 -0.18282361 -38.367886 -34.080158 -65.67691
2770000000 -31.000303 -59.488987 -0.18448815 -38.79166 -0.18433042 -38.790283 -33.958538 -66.430214
2800000000 -31.076365 -60.899456 -0.1860193 -39.205261 -0.18588474 -39.197769 -33.915176 -66.461411
2830000000 -30.981037 -61.596355 -0.18671158 -39.620384 -0.18727532 -39.611629 -33.971603 -66.724945
2860000000 -30.976168 -62.003544 -0.1889421 -40.03619 -0.18879232 -40.027687 -33.650383 -67.965752
2890000000 -31.038658 -63.33271 -0.19014108 -40.443188 -0.18983117 -40.440289 -33.582096 -68.620651
2920000000 -31.025448 -64.666389 -0.19166043 -40.857525 -0.19116782 -40.84782 -33.747009 -69.159058
2950000000 -31.051081 -65.00573 -0.19237337 -41.261715 -0.19270755 -41.260799 -33.460262 -68.726303
2980000000 -31.066061 -66.201538 -0.19418016 -41.671837 -0.1937062 -41.670166 -33.293453 -69.260307
3010000000 -31.049942 -67.316475 -0.19475381 -42.083981 -0.19411737 -42.074184 -33.385277 -69.531487
3040000000 -31.110729 -67.880035 -0.19500613 -42.497494 -0.19381906 -42.491692 -33.15126 -69.982536
3070000000 -31.102486 -68.708046 -0.19563784 -42.911644 -0.19498664 -42.901066 -33.032707 -70.132523
3100000000 -31.051397 -69.765419 -0.19596983 -43.319641 -0.19555065 -43.315609 -33.009033 -71.524002
3130000000 -31.032949 -71.459663 -0.19691262 -43.732304 -0.19617674 -43.728531 -32.827812 -72.263344
3160000000 -30.995195 -71.584984 -0.19838285 -44.155075 -0.19755191 -44.143406 -32.736031 -71.962463
3190000000 -30.98867 -71.975349 -0.19946006 -44.562378 -0.19792713 -44.557312 -32.717892 -72.162193
3220000000 -30.966427 -73.773697 -0.20082027 -44.970528 -0.19892102 -44.964382 -32.580845 -73.481949
3250000000 -30.902685 -74.485291 -0.20125327 -45.381634 -0.20017156 -45.376106 -32.417114 -74.326088
3280000000 -30.930079 -74.535851 -0.20150949 -45.797684 -0.20006639 -45.792156 -32.448078 -74.191971
3310000000 -30.933464 -75.621658 -0.20246162 -46.20723 -0.20130587 -46.200226 -32.31897 -75.003853
3340000000 -30.883339 -76.726074 -0.20304531 -46.617077 -0.20234554 -46.612713 -32.172398 -76.109764
3370000000 -30.863462 -77.790634 -0.20310281 -47.032841 -0.2024212 -47.022381 -32.193787 -76.582298
3400000000 -30.8717 -78.618431 -0.20376337 -47.439522 -0.20260157 -47.443222 -32.065845 -76.565674
3430000000 -30.895834 -79.000214 -0.20447096 -47.851006 -0.20393184 -47.848499 -31.952562 -76.908386
3460000000 -30.816847 -79.893028 -0.20611748 -48.267723 -0.20484161 -48.257927 -31.949484 -77.798096
3490000000 -30.752409 -81.34864 -0.20633899 -48.677574 -0.20410439 -48.67104 -31.910803 -78.443489
3520000000 -30.696264 -81.57254 -0.20678474 -49.087715 -0.20527717 -49.084339 -31.771364 -78.608299
3550000000 -30.737862 -81.156723 -0.20672311 -49.501827 -0.20560394 -49.48962 -31.691706 -78.65564
3580000000 -30.691727 -83.208961 -0.20752867 -49.911064 -0.2056984 -49.904446 -31.527781 -79.513504
3610000000 -30.571392 -83.744759 -0.20703505 -50.329605 -0.20566365 -50.31815 -31.509203 -80.508759
3640000000 -30.603352 -83.53701 -0.20784147 -50.741982 -0.20636667 -50.732811 -31.493406 -80.645676
3670000000 -30.590405 -84.402657 -0.20760687 -51.160324 -0.20660393 -51.15213 -31.335377 -81.196358
3700000000 -30.4452 -85.19622 -0.20798376 -51.561787 -0.20705025 -51.560062 -31.246895 -82.379509
3730000000 -30.416187 -85.888733 -0.20821242 -51.984489 -0.2083455 -51.976242 -31.223753 -83.07341
3760000000 -30.435293 -86.38472 -0.20882839 -52.395206 -0.20753789 -52.392097 -31.16646 -83.356483
3790000000 -30.374632 -86.315445 -0.21000545 -52.804352 -0.20838569 -52.808277 -31.069683 -83.819664
3820000000 -30.380276 -87.330818 -0.21030866 -53.221325 -0.20906742 -53.218903 -31.049223 -84.64325
3850000000 -30.254728 -88.843216 -0.21058662 -53.633179 -0.20897779 -53.633308 -30.993177 -85.559105
3880000000 -30.188841 -88.375443 -0.21104042 -54.048244 -0.20967753 -54.047966 -30.906824 -85.856888
3910000000 -30.262981 -88.597527 -0.21263099 -54.465652 -0.21025839 -54.464569 -30.891533 -86.231781
3940000000 -30.112165 -90.197304 -0.21211994 -54.879833 -0.21105862 -54.876968 -30.806206 -87.128418
3970000000 -29.993532 -90.448967 -0.2127699 -55.293755 -0.21102113 -55.286877 -30.719345 -87.380592
4000000000 -30.108706 -89.988541 -0.21362552 -55.708923 -0.21257226 -55.708134 -30.769499 -87.490952
4030000000 -30.083151 -90.927574 -0.21420391 -56.123734 -0.21375686 -56.117992 -30.683443 -88.206902
4060000000 -29.958288 -91.807167 -0.21478184 -56.535732 -0.21395727 -56.530533 -30.564686 -89.225235
4090000000 -30.017174 -91.92244 -0.21529157 -56.943604 -0.21469808 -56.946342 -30.644415 -89.546875
4120000000 -29.963593 -93.083374 -0.21669485 -57.363701 -0.21463388 -57.354076 -30.620749 -90.189377
4150000000 -29.874998 -92.623222 -0.21638466 -57.770336 -0.21522574 -57.765007 -30.522259 -90.427536
4180000000 -29.923647 -92.958824 -0.217456 -58.183903 -0.21528123 -58.182865 -30.568647 -90.988319
4210000000 -29.782953 -94.485085 -0.21764188 -58.596336 -0.21648261 -58.592648 -30.508936 -92.093781
4240000000 -29.800268 -93.717468 -0.21870126 -59.011414 -0.21623503 -59.004284 -30.444921 -91.802185
4270000000 -29.82654 -94.04808 -0.21853602 -59.417686 -0.21812199 -59.418316 -30.494852 -91.659439
4300000000 -29.732956 -95.62661 -0.21917006 -59.836315 -0.21724617 -59.827839 -30.487562 -93.075706
4330000000 -29.676491 -95.554802 -0.21954526 -60.248936 -0.21855861 -60.239975 -30.382095 -93.134422
4360000000 -29.809437 -94.988571 -0.21984395 -60.656334 -0.21887386 -60.656849 -30.407627 -92.678368
4390000000 -29.749762 -96.262695 -0.22064377 -61.076153 -0.21954036 -61.072357 -30.405794 -93.812744
4420000000 -29.679504 -96.420105 -0.22047901 -61.477406 -0.22041146 -61.485699 -30.320074 -93.935402
4450000000 -29.73625 -96.463074 -0.22183411 -61.894791 -0.22012579 -61.898739 -30.366402 -94.039009
4480000000 -29.714878 -97.612106 -0.22244629 -62.31258 -0.2208987 -62.310375 -30.271421 -95.519356
4510000000 -29.743368 -97.353897 -0.22253975 -62.722954 -0.22125307 -62.721977 -30.17654 -94.695625
4540000000 -29.74437 -97.461845 -0.22311579 -63.136772 -0.22127077 -63.138309 -30.250687 -94.49791
4570000000 -29.710453 -98.572556 -0.22233731 -63.55521 -0.22217983 -63.549789 -30.235689 -96.181656
4600000000 -29.750334 -98.251282 -0.22370063 -63.966934 -0.22184828 -63.954395 -30.127682 -95.658318
4630000000 -29.791933 -98.085007 -0.2233417 -64.374626 -0.22286291 -64.372841 -30.163372 -95.575729
4660000000 -29.742966 -99.364159 -0.22403942 -64.7854 -0.2235442 -64.789314 -30.137604 -96.866928
4690000000 -29.752226 -99.3228 -0.22376768 -65.199844 -0.22378512 -65.20253 -29.979834 -96.445076
4720000000 -29.77565 -98.764313 -0.22416098 -65.617302 -0.22374968 -65.613579 -30.094995 -95.817398
4750000000 -29.753897 -100.13617 -0.22428337 -66.026596 -0.2238936 -66.029388 -30.012699 -97.613113
4780000000 -29.825863 -100.15658 -0.22492942 -66.446831 -0.22387233 -66.436554 -29.906469 -97.254463
4810000000 -29.832651 -100.17127 -0.22547415 -66.859138 -0.22414245 -66.857513 -29.991163 -97.075249
4840000000 -29.778643 -101.14638 -0.22596714 -67.271179 -0.22531329 -67.268723 -29.915543 -99.008141
4870000000 -29.86194 -100.79622 -0.225779 -67.689415 -0.22544362 -67.683327 -29.856354 -98.175583
4900000000 -29.917009 -101.08407 -0.22563584 -68.10215 -0.22511536 -68.10199 -29.861372 -98.148849
4930000000 -29.80637 -102.09714 -0.22650245 -68.520821 -0.22582152 -68.517632 -29.788092 -99.350136
4960000000 -29.907379 -102.19183 -0.22653601 -68.932526 -0.22570319 -68.928734 -29.703751 -98.962769
4990000000 -29.907227 -102.26618 -0.22649728 -69.348679 -0.22559631 -69.344727 -29.867867 -99.082016
5020000000 -29.865278 -103.26556 -0.22812216 -69.760231 -0.2261343 -69.759293 -29.750019 -100.69226
5050000000 -29.948498 -102.76574 -0.22798602 -70.177299 -0.22734088 -70.177673 -29.622177 -99.680481
5080000000 -29.943878 -103.31261 -0.22779642 -70.59166 -0.2277045 -70.589821 -29.728872 -100.12131
5110000000 -29.924582 -104.22462 -0.22907686 -71.008751 -0.22764666 -70.997406 -29.644629 -101.50805
5140000000 -30.018354 -103.98305 -0.22955689 -71.417915 -0.22846156 -71.419456 -29.597216 -100.84148
5170000000 -30.034105 -104.29945 -0.22999357 -71.839661 -0.22790691 -71.834808 -29.70945 -100.54411
5200000000 -30.008379 -105.23994 -0.23054029 -72.258179 -0.22849403 -72.253448 -29.578648 -102.37212
5230000000 -30.164835 -104.93092 -0.23061481 -72.667412 -0.22931264 -72.664413 -29.472847 -101.74424
5260000000 -30.148977 -105.1308 -0.22983991 -73.082886 -0.23005579 -73.077431 -29.608616 -101.16759
5290000000 -30.094265 -106.4361 -0.23139232 -73.495598 -0.23114087 -73.495522 -29.442833 -103.27094
5320000000 -30.240477 -105.74099 -0.23133853 -73.918167 -0.2305897 -73.902542 -29.340914 -102.14175
5350000000 -30.235182 -106.47842 -0.23291142 -74.329742 -0.23175956 -74.3246 -29.511036 -102.35133
5380000000 -30.194712 -107.48071 -0.2333509 -74.747673 -0.23335227 -74.742966 -29.368279 -103.76333
5410000000 -30.361628 -107.29182 -0.23349458 -75.158897 -0.23261319 -75.157166 -29.246407 -102.53018
5440000000 -30.350002 -107.58042 -0.23412699 -75.57016 -0.23365057 -75.572853 -29.416286 -102.99144
5470000000 -30.38946 -108.18364 -0.23495349 -75.98864 -0.23464692 -75.983841 -29.294933 -104.19403
5500000000 -30.443628 -108.24303 -0.23564705 -76.412964 -0.23516417 -76.39315 -29.206306 -103.45292
5530000000 -30.408506 -108.9148 -0.2362795 -76.828285 -0.23603569 -76.816925 -29.285141 -103.52917
5560000000 -30.43256 -110.44608 -0.23848367 -77.239471 -0.23731802 -77.23275 -29.146502 -105.4515
5590000000 -30.553862 -109.6912 -0.23825452 -77.650108 -0.23774837 -77.64473 -29.086872 -104.20255
5620000000 -30.500557 -110.76791 -0.23938486 -78.064095 -0.23932332 -78.053009 -29.284273 -104.71095
5650000000 -30.420969 -111.69985 -0.24084684 -78.474983 -0.24017707 -78.474022 -29.075924 -105.83683
5680000000 -30.598133 -111.45567 -0.24165465 -78.889862 -0.23997025 -78.883003 -28.962259 -105.21583
5710000000 -30.621029 -111.91615 -0.24172306 -79.306305 -0.24104111 -79.296921 -29.082405 -105.51656
5740000000 -30.572918 -113.03526 -0.24245521 -79.71846 -0.24079677 -79.711464 -28.972837 -106.81328
5770000000 -30.670475 -112.66283 -0.24300598 -80.131737 -0.24182953 -80.121841 -28.814293 -105.5938
5800000000 -30.713274 -113.6715 -0.24310918 -80.547798 -0.24278972 -80.536446 -28.991096 -106.76363
5830000000 -30.732635 -114.5929 -0.24399626 -80.962585 -0.24309002 -80.954712 -28.846195 -108.0988
5860000000 -30.824839 -113.83827 -0.24532723 -81.371635 -0.2445108 -81.363411 -28.7637 -106.21063
5890000000 -30.802837 -114.84716 -0.24554224 -81.785797 -0.24461186 -81.783424 -28.880369 -107.34568
5920000000 -30.838234 -115.90404 -0.24692574 -82.197411 -0.24475262 -82.191872 -28.67734 -108.6525
5950000000 -30.986851 -115.31338 -0.24710166 -82.612915 -0.24610737 -82.604538 -28.65099 -107.74696
5980000000 -30.919312 -116.38332 -0.24759766 -83.029037 -0.24573591 -83.022865 -28.762632 -108.23575
6010000000 -30.86084 -117.51304 -0.24859065 -83.434982 -0.24753682 -83.434128 -28.561131 -109.52039
6040000000 -31.03034 -116.97378 -0.24951668 -83.85479 -0.24817292 -83.842934 -28.513975 -108.6633
6070000000 -31.042635 -117.727 -0.24939139 -84.269722 -0.24882638 -84.261765 -28.67774 -109.82271
6100000000 -30.952408 -118.33013 -0.25088829 -84.683571 -0.25003269 -84.674713 -28.478607 -110.63367
6130000000 -31.141857 -118.15765 -0.25213823 -85.094917 -0.24976261 -85.088219 -28.421556 -109.61998
6160000000 -31.162848 -119.42026 -0.25233576 -85.504204 -0.25099194 -85.507324 -28.563257 -110.91194
6190000000 -31.089361 -120.16654 -0.25295693 -85.925102 -0.25203866 -85.922943 -28.387949 -112.17701
6220000000 -31.194233 -119.41758 -0.25426704 -86.34211 -0.25343412 -86.334709 -28.403515 -110.59489
6250000000 -31.067009 -120.6898 -0.25545648 -86.750031 -0.25464004 -86.747726 -28.482319 -111.60532
6280000000 -31.073465 -121.32635 -0.25679561 -87.162582 -0.25532496 -87.158195 -28.322704 -112.70985
6310000000 -31.209988 -120.81506 -0.25730729 -87.577545 -0.25750175 -87.567772 -28.2822 -112.01995
6340000000 -31.109842 -121.58594 -0.2585808 -87.987785 -0.25755063 -87.980972 -28.418425 -112.71774
6370000000 -31.092712 -122.49815 -0.25993711 -88.393097 -0.25939217 -88.385399 -28.178711 -113.65893
6400000000 -31.329788 -122.61046 -0.26097581 -88.805099 -0.2591784 -88.796265 -28.140285 -113.45619
6430000000 -31.243027 -123.62366 -0.26143464 -89.216942 -0.26071221 -89.210838 -28.368031 -114.5501
6460000000 -31.164921 -123.68772 -0.26131725 -89.628456 -0.26144838 -89.617661 -28.17816 -114.66684
6490000000 -31.29431 -123.52322 -0.26246214 -90.039169 -0.26206726 -90.032539 -28.112753 -114.0244
6520000000 -31.268713 -124.89985 -0.26347944 -90.45005 -0.26213244 -90.446907 -28.206907 -115.521
6550000000 -31.208076 -125.16022 -0.26504776 -90.859161 -0.26357487 -90.854507 -28.116714 -116.39017
6580000000 -31.279346 -124.80895 -0.2659809 -91.270454 -0.26431099 -91.265549 -28.125837 -115.50829
6610000000 -31.226727 -126.01683 -0.26694095 -91.681152 -0.26536915 -91.675362 -28.210003 -116.14162
6640000000 -31.207268 -126.62241 -0.26785907 -92.086876 -0.26643914 -92.081917 -27.998365 -117.46961
6670000000 -31.35807 -126.34795 -0.26866969 -92.499016 -0.26766139 -92.495399 -28.106813 -117.13097
6700000000 -31.181782 -127.41357 -0.26950115 -92.901482 -0.26893353 -92.899986 -28.150007 -117.64538
6730000000 -31.126619 -127.30347 -0.2700617 -93.313667 -0.26997381 -93.305206 -28.054022 -118.11377
6760000000 -31.329975 -127.65427 -0.27099866 -93.711594 -0.27018869 -93.705658 -27.966158 -118.32169
6790000000 -31.272739 -128.72169 -0.27231479 -94.120331 -0.27068293 -94.121666 -28.112955 -119.29003
6820000000 -31.119467 -128.72122 -0.2713519 -94.523041 -0.271175 -94.522919 -28.071384 -119.60532
6850000000 -31.219183 -128.9632 -0.27201739 -94.931366 -0.2711896 -94.932236 -28.010204 -119.51502
6880000000 -31.228621 -130.29736 -0.27134639 -95.339577 -0.27114385 -95.331161 -28.055294 -120.70458
6910000000 -31.205362 -130.39894 -0.27201879 -95.745995 -0.27034351 -95.741203 -28.084141 -121.61067
6940000000 -31.389418 -130.07214 -0.27118188 -96.158638 -0.27113643 -96.147652 -28.154039 -120.61519
6970000000 -31.275839 -131.63759 -0.27111796 -96.567589 -0.26988459 -96.558205 -28.184387 -121.6241
7000000000 -31.300545 -131.68567 -0.27041212 -96.981331 -0.26909986 -96.972107 -28.142473 -122.62507
7030000000 -31.594589 -131.07629 -0.27016693 -97.39904 -0.27001348 -97.38472 -28.189489 -121.42378
7060000000 -31.507011 -132.114 -0.2706686 -97.813156 -0.26991817 -97.798492 -28.33358 -121.8634
7090000000 -31.410276 -132.09633 -0.272387 -98.223801 -0.27124169 -98.216629 -28.167858 -122.48686
7120000000 -31.635696 -132.0219 -0.27300331 -98.637817 -0.27211773 -98.624275 -28.090788 -122.31789
7150000000 -31.541576 -133.04723 -0.27388054 -99.044655 -0.27333853 -99.033302 -28.22743 -123.35486
7180000000 -31.448036 -132.61066 -0.27432418 -99.445374 -0.27335644 -99.436028 -28.191488 -123.40719
7210000000 -31.601612 -132.44545 -0.2747331 -99.850731 -0.27358884 -99.845901 -28.065516 -123.0418
7240000000 -31.64567 -133.80714 -0.27372393 -100.26151 -0.27386317 -100.25706 -28.134735 -124.31697
7270000000 -31.62925 -134.06116 -0.27439144 -100.66729 -0.27417472 -100.66338 -28.194571 -125.14182
7300000000 -31.791422 -134.16168 -0.27536273 -101.07778 -0.27399963 -101.06993 -28.211164 -124.20155
7330000000 -31.65217 -134.3022 -0.27531555 -101.47573 -0.27426156 -101.47861 -28.222017 -124.62833
7360000000 -31.636494 -134.44795 -0.27586195 -101.88902 -0.27529818 -101.88291 -28.202972 -125.99948
7390000000 -31.883707 -134.72417 -0.2761949 -102.29954 -0.27466553 -102.28526 -28.157852 -125.4943
7420000000 -31.719786 -135.51915 -0.27607572 -102.69495 -0.27452794 -102.68618 -28.310205 -125.69287
7450000000 -31.701553 -135.39815 -0.2753903 -103.10487 -0.27426654 -103.09456 -28.227102 -126.65934
7480000000 -32.022423 -135.81848 -0.27471629 -103.50835 -0.2728368 -103.4997 -28.158562 -126.55005
7510000000 -31.986237 -136.80647 -0.27309316 -103.91857 -0.27278996 -103.90797 -28.391068 -127.29743
7540000000 -32.031528 -136.17781 -0.27272519 -104.32368 -0.27263036 -104.31779 -28.442812 -127.61771
7570000000 -32.275597 -137.0233 -0.27226573 -104.73161 -0.2714861 -104.72963 -28.227646 -127.5269
7600000000 -32.183903 -138.03644 -0.27197552 -105.14278 -0.27025259 -105.13759 -28.467966 -128.26875
7630000000 -32.294422 -136.90048 -0.26985234 -105.55766 -0.26986089 -105.54256 -28.564617 -128.66454
7660000000 -32.587929 -137.28755 -0.27035892 -105.96859 -0.26991597 -105.96122 -28.435404 -128.17445
7690000000 -32.52866 -137.43277 -0.26876968 -106.38607 -0.26728642 -106.37928 -28.529827 -128.30443
7720000000 -32.59486 -137.58411 -0.26889414 -106.79826 -0.26826876 -106.78958 -28.564219 -129.8119
7750000000 -33.025627 -138.01492 -0.2699303 -107.20866 -0.26881126 -107.20272 -28.509211 -129.15263
7780000000 -32.849747 -137.82957 -0.26872864 -107.61494 -0.26894563 -107.60622 -28.633545 -128.75047
7810000000 -32.874607 -138.00145 -0.26871789 -108.02303 -0.26854882 -108.01471 -28.611578 -130.34103
7840000000 -33.253853 -139.10693 -0.26870111 -108.43361 -0.2672911 -108.42578 -28.442215 -130.04201
7870000000 -33.132271 -139.16418 -0.26769936 -108.8504 -0.26663816 -108.83311 -28.749912 -130.08134
7900000000 -33.238037 -138.25813 -0.26603043 -109.25321 -0.26509455 -109.24876 -28.737864 -130.6857
7930000000 -33.592815 -139.31177 -0.2656025 -109.66261 -0.26480702 -109.65812 -28.566782 -130.70299
7960000000 -33.546276 -140.0146 -0.26477757 -110.07681 -0.2638095 -110.07359 -28.789078 -131.0361
7990000000 -33.755692 -139.44029 -0.2640059 -110.49374 -0.26210603 -110.48341 -28.896824 -132.30858
8020000000 -34.106434 -139.37076 -0.26236451 -110.90079 -0.26160124 -110.89395 -28.729946 -131.20064
8050000000 -33.948784 -139.19287 -0.26151985 -111.31788 -0.26158336 -111.31262 -28.983232 -131.25523
8080000000 -34.16465 -139.19147 -0.26120591 -111.73988 -0.25910833 -111.72289 -29.004257 -133.2661
8110000000 -34.719471 -139.77779 -0.25939491 -112.14729 -0.25865856 -112.14363 -28.902742 -132.29135
8140000000 -34.504559 -138.54915 -0.25911739 -112.56817 -0.25896159 -112.56026 -29.115797 -131.43103
8170000000 -34.67207 -138.8752 -0.25882092 -112.98708 -0.2583786 -112.97522 -29.072887 -133.15912
8200000000 -35.071209 -140.19373 -0.25836813 -113.40118 -0.25686291 -113.39435 -28.919462 -132.90668
8230000000 -35.006882 -138.45273 -0.25729054 -113.81834 -0.2563307 -113.79987 -29.351768 -132.03278
8260000000 -35.288857 -137.48195 -0.25617144 -114.2346 -0.25604403 -114.22269 -29.218161 -133.20486
8290000000 -35.659725 -138.95157 -0.25615826 -114.65182 -0.25629473 -114.6397 -28.98642 -132.74757
8320000000 -35.540462 -138.46581 -0.25583482 -115.06917 -0.25499415 -115.06059 -29.381351 -132.57715
8350000000 -36.005146 -137.57834 -0.25519675 -115.48412 -0.25453219 -115.47572 -29.39118 -134.22493
8380000000 -36.341717 -138.46722 -0.25516298 -115.90293 -0.25462332 -115.89628 -29.133207 -132.636
8410000000 -35.945389 -137.31313 -0.25407162 -116.31935 -0.25435075 -116.31776 -29.41996 -132.32175
8440000000 -36.513966 -137.88007 -0.25407904 -116.74204 -0.25288889 -116.72806 -29.484447 -135.13976
8470000000 -37.074619 -137.09047 -0.25442594 -117.15645 -0.2538839 -117.15016 -29.210072 -132.99831
8500000000 -36.577858 -134.37871 -0.25368878 -117.57477 -0.25317398 -117.56803 -29.612803 -131.96907
8530000000 -37.129269 -134.81522 -0.2539396 -117.99725 -0.25277117 -117.98512 -29.453114 -134.93932
8560000000 -37.729008 -135.9613 -0.25422451 -118.41054 -0.25289106 -118.4076 -29.398714 -133.66376
8590000000 -37.344643 -134.24504 -0.25240353 -118.83632 -0.2524392 -118.82397 -29.727531 -132.34708
8620000000 -37.590584 -132.45961 -0.25266746 -119.25054 -0.2527923 -119.24693 -29.622282 -134.34477
8650000000 -37.972427 -134.25462 -0.25334218 -119.67157 -0.25261202 -119.66364 -29.387518 -133.77092
8680000000 -37.831436 -131.76344 -0.25303787 -120.08921 -0.25292537 -120.08215 -29.853407 -132.64728
8710000000 -38.382671 -130.18292 -0.2534802 -120.50802 -0.25287351 -120.5034 -29.701344 -134.84868
8740000000 -38.7019 -130.38882 -0.25470895 -120.92963 -0.25325903 -120.91865 -29.481663 -133.31786
8770000000 -38.320435 -129.2274 -0.25465873 -121.34863 -0.25350106 -121.34367 -29.884247 -132.87738
8800000000 -38.970909 -127.87302 -0.25440949 -121.76668 -0.2536048 -121.75696 -29.826378 -134.79108
8830000000 -39.290142 -126.77487 -0.25511605 -122.18851 -0.25348625 -122.17881 -29.573895 -133.32411
8860000000 -38.663628 -125.85208 -0.25484729 -122.60776 -0.25495738 -122.59901 -30.004768 -132.41325
8890000000 -39.217712 -125.10997 -0.25598088 -123.01903 -0.25449896 -123.02037 -29.857748 -135.20547
8920000000 -39.775242 -123.24407 -0.25632218 -123.44949 -0.25438699 -123.43019 -29.69845 -133.35857
8950000000 -39.237709 -120.41785 -0.25653008 -123.86649 -0.2560918 -123.85944 -30.104002 -131.90335
8980000000 -39.731335 -120.98131 -0.25773165 -124.27013 -0.25623295 -124.28431 -29.900433 -135.3821
9010000000 -40.077522 -121.32578 -0.25878274 -124.6974 -0.25574476 -124.68801 -29.644171 -133.1769
9040000000 -39.48484 -119.16365 -0.2589322 -125.11448 -0.25706998 -125.10987 -30.173134 -132.17381
9070000000 -39.948116 -117.47617 -0.25916272 -125.53187 -0.25851238 -125.52747 -29.949991 -134.62471
9100000000 -40.100956 -115.04195 -0.25971121 -125.95283 -0.25756356 -125.94747 -29.702473 -132.84569
9130000000 -39.802872 -113.65722 -0.26128837 -126.3685 -0.25962549 -126.36446 -30.206095 -133.27951
9160000000 -40.294655 -112.24728 -0.26065996 -126.79347 -0.25977167 -126.78386 -30.072638 -134.54236
9190000000 -40.346855 -111.54706 -0.26231447 -127.20893 -0.26138845 -127.19595 -29.696585 -132.28362
9220000000 -39.426567 -110.6175 -0.26410219 -127.6261 -0.26281604 -127.61657 -30.240505 -132.08707
9250000000 -40.087887 -109.16829 -0.264889 -128.03685 -0.263255 -128.03375 -30.089016 -135.54559
9280000000 -40.069206 -107.97148 -0.26543602 -128.46056 -0.26475969 -128.44925 -29.854849 -131.84521
9310000000 -39.34602 -106.01563 -0.26671934 -128.87654 -0.26577669 -128.86922 -30.200352 -131.37465
9340000000 -40.156609 -103.85753 -0.267562 -129.29234 -0.26666734 -129.27872 -29.981369 -135.26984
9370000000 -40.059525 -104.72687 -0.26876387 -129.705 -0.2679089 -129.69478 -29.859983 -132.50484
9400000000 -39.283531 -103.79887 -0.2697584 -130.11943 -0.26963392 -130.1087 -30.365719 -131.82042
9430000000 -39.761402 -102.16348 -0.27088818 -130.5359 -0.27071267 -130.52858 -30.035429 -134.19705
9460000000 -39.756485 -101.32669 -0.27308103 -130.94679 -0.27166852 -130.94089 -29.736067 -133.03349
9490000000 -39.04636 -100.47158 -0.2743305 -131.3611 -0.27467629 -131.35692 -30.370333 -132.57376
9520000000 -39.644505 -99.430122 -0.27584043 -131.77524 -0.27564102 -131.77295 -30.096029 -134.54662
9550000000 -39.292023 -99.065193 -0.27685702 -132.18941 -0.27696848 -132.17326 -29.729681 -132.28381
9580000000 -38.768005 -101.13342 -0.27852872 -132.59773 -0.27885994 -132.58545 -30.258127 -132.93828
9610000000 -39.324505 -100.98523 -0.28043994 -133.00803 -0.27952605 -132.99861 -30.232496 -135.36264
9640000000 -38.863136 -100.49545 -0.28292936 -133.40921 -0.28092179 -133.40402 -29.812757 -132.05759
9670000000 -38.129601 -99.329506 -0.28369391 -133.81569 -0.28260669 -133.80762 -30.104822 -132.5833
9700000000 -38.841209 -99.151817 -0.28515568 -134.21402 -0.28310925 -134.20543 -29.990616 -136.3829
9730000000 -38.774971 -98.72612 -0.28677198 -134.61365 -0.28552446 -134.60037 -29.848307 -133.61876
9760000000 -38.401535 -101.86182 -0.28737485 -135.01062 -0.28534645 -134.99812 -30.333952 -134.01996
9790000000 -38.972836 -101.53526 -0.28696197 -135.40689 -0.28551948 -135.39151 -29.920704 -137.22017
9820000000 -39.094006 -100.6722 -0.28494838 -135.7962 -0.28532901 -135.78688 -29.947256 -135.74979
9850000000 -38.903297 -100.03152 -0.2830548 -136.19316 -0.28281748 -136.18925 -30.655214 -135.91095
9880000000 -39.60498 -99.553658 -0.28039825 -136.59892 -0.27900624 -136.58632 -30.464243 -138.18016
9910000000 -39.58329 -96.359451 -0.27689067 -137.00356 -0.27481419 -136.99677 -30.241245 -135.6916
9940000000 -39.400574 -94.237717 -0.27421278 -137.42815 -0.27342233 -137.41743 -31.048752 -136.77385
9970000000 -39.920769 -89.174889 -0.27067274 -137.8649 -0.2699281 -137.8539 -30.888599 -137.39682
10000000000 -39.198513 -88.494148 -0.27055949 -138.27969 -0.26917285 -138.27249 -30.742126 -133.22534
10030000000 -38.799946 -86.2603 -0.27022284 -138.72179 -0.26859233 -138.70937 -31.114183 -133.87808
10060000000 -39.105873 -82.972908 -0.26927006 -139.15068 -0.26813826 -139.14342 -31.002022 -136.34261
10090000000 -38.284504 -81.899803 -0.27058291 -139.57817 -0.26960114 -139.56317 -30.907646 -132.00233
10120000000 -37.769459 -82.190338 -0.2717928 -139.99631 -0.270897 -139.97833 -31.232237 -131.02579
10150000000 -38.236889 -81.110954 -0.27272767 -140.42337 -0.27207667 -140.40782 -30.903463 -134.67284
10180000000 -37.721046 -79.375 -0.27485472 -140.8335 -0.27239472 -140.83401 -30.788168 -131.46046
10210000000 -36.981167 -80.821007 -0.27525765 -141.26773 -0.27483016 -141.25395 -31.415319 -130.53516
10240000000 -37.132286 -81.402214 -0.27734593 -141.69022 -0.27679354 -141.6788 -30.872282 -131.64433
10270000000 -36.682312 -80.799171 -0.28010529 -142.11037 -0.27987888 -142.09291 -30.511612 -130.5135
10300000000 -36.334991 -81.750298 -0.28549957 -142.50804 -0.28302386 -142.51219 -31.168144 -131.24254
10330000000 -36.488094 -83.041039 -0.28768241 -142.9082 -0.28681901 -142.90753 -30.860165 -133.36911
10360000000 -36.142883 -85.118454 -0.28906393 -143.28928 -0.2883186 -143.2886 -30.507484 -130.18907
10390000000 -36.332508 -84.966278 -0.28960347 -143.692 -0.28917515 -143.67819 -30.939537 -133.13029
10420000000 -36.701916 -82.9925 -0.28819525 -144.08206 -0.28699157 -144.0737 -31.015682 -135.95341
10450000000 -36.359241 -83.100632 -0.28546476 -144.47617 -0.28527015 -144.4635 -31.020298 -132.38187
10480000000 -36.538929 -84.230461 -0.28286693 -144.88466 -0.2820763 -144.86658 -31.390341 -132.127
10510000000 -36.87167 -80.373581 -0.27966684 -145.29359 -0.27962902 -145.28354 -31.291563 -135.1454
10540000000 -36.458881 -77.760818 -0.27692986 -145.70917 -0.27710587 -145.70047 -31.360249 -132.82787
10570000000 -35.977413 -77.181549 -0.27564928 -146.12613 -0.27417555 -146.11668 -31.963478 -130.09433
10600000000 -36.334435 -75.706085 -0.27294984 -146.55101 -0.27276817 -146.55492 -31.52248 -132.21953
10630000000 -35.954395 -74.997414 -0.27361447 -146.97775 -0.27221444 -146.97469 -31.447412 -130.60538
10660000000 -35.501484 -72.65554 -0.27328008 -147.40492 -0.27243301 -147.40187 -32.031616 -129.75682
10690000000 -35.384117 -72.423569 -0.27375728 -147.83615 -0.27192095 -147.82045 -31.821402 -130.10298
10720000000 -35.233597 -72.896286 -0.27278003 -148.25035 -0.27170131 -148.24442 -31.470039 -127.57691
10750000000 -34.999199 -71.621719 -0.27335009 -148.67879 -0.27295753 -148.67484 -31.941051 -128.6328
10780000000 -34.75898 -70.091866 -0.27432886 -149.10507 -0.27300799 -149.08461 -31.899208 -130.5294
10810000000 -34.289043 -71.603325 -0.27401233 -149.51619 -0.27395332 -149.51349 -31.745148 -125.99584
10840000000 -34.339855 -71.823082 -0.27644318 -149.94067 -0.27341405 -149.92905 -31.730522 -125.98109
10870000000 -34.443264 -69.673828 -0.27687907 -150.36198 -0.2757839 -150.35306 -31.690287 -129.29947
10900000000 -33.880421 -70.791801 -0.27660981 -150.78047 -0.27599105 -150.76906 -31.913286 -126.6753
10930000000 -33.672947 -71.56266 -0.27825052 -151.20279 -0.27679935 -151.18687 -32.044418 -125.08694
10960000000 -33.82975 -70.926193 -0.27908766 -151.62164 -0.2790598 -151.61435 -31.594025 -127.60088
10990000000 -33.422424 -70.263489 -0.28048882 -152.04755 -0.2797088 -152.02599 -31.526905 -126.8028
11020000000 -33.224194 -71.00161 -0.28423142 -152.45737 -0.28297028 -152.43912 -32.140602 -125.48994
11050000000 -33.20689 -71.94725 -0.28670064 -152.86658 -0.28554881 -152.85851 -31.723869 -126.98338
11080000000 -33.13842 -73.891426 -0.28896764 -153.27225 -0.2874642 -153.25414 -31.402788 -125.14573
11110000000 -33.265087 -72.482033 -0.29072207 -153.65027 -0.289583 -153.63989 -31.801767 -127.51466
11140000000 -33.259705 -70.815384 -0.28778255 -154.0426 -0.28617859 -154.02635 -32.12233 -128.99673
11170000000 -33.091568 -70.971191 -0.28482622 -154.45091 -0.28254038 -154.44414 -31.986183 -124.22773
11200000000 -33.028801 -69.744118 -0.28328139 -154.88133 -0.28176886 -154.85947 -31.949329 -125.99832
11230000000 -32.873817 -66.411613 -0.28170562 -155.29955 -0.28189233 -155.28966 -32.191658 -128.34129
11260000000 -32.53651 -67.526505 -0.28130651 -155.71915 -0.28090248 -155.71333 -32.146622 -123.99463
11290000000 -32.419064 -68.180534 -0.28124851 -156.14529 -0.28009176 -156.13832 -32.248631 -122.42503
11320000000 -32.604683 -67.168671 -0.28304127 -156.55948 -0.28132999 -156.55481 -32.069767 -125.81655
11350000000 -32.281288 -67.051018 -0.28303713 -156.97974 -0.28220695 -156.97366 -32.112026 -123.92806
11380000000 -32.047512 -67.708496 -0.28420129 -157.40167 -0.28355879 -157.38374 -32.462517 -122.24631
11410000000 -31.996346 -68.423172 -0.2856909 -157.82254 -0.28230059 -157.80716 -32.203308 -122.38788
11440000000 -31.868078 -68.592354 -0.28577328 -158.2317 -0.28394622 -158.23109 -32.023247 -121.75308
11470000000 -31.733828 -67.595337 -0.28763264 -158.65001 -0.28413194 -158.63924 -32.448338 -122.73123
11500000000 -31.620035 -66.823174 -0.28673273 -159.06715 -0.28607824 -159.05637 -32.44305 -122.6587
11530000000 -31.487299 -68.525047 -0.28791696 -159.48439 -0.28734556 -159.47182 -32.060345 -119.54425
11560000000 -31.418318 -68.201309 -0.28804809 -159.89874 -0.28793827 -159.8878 -32.081493 -121.15741
11590000000 -31.334034 -66.875473 -0.28915742 -160.31068 -0.28806412 -160.30281 -32.372337 -121.50529
11620000000 -31.133307 -68.341156 -0.29045111 -160.72263 -0.289635 -160.71445 -32.284298 -119.9269
11650000000 -31.081085 -68.816383 -0.29144675 -161.13341 -0.2903285 -161.13174 -32.097832 -118.78327
11680000000 -31.079779 -67.960548 -0.29211673 -161.5518 -0.29076636 -161.54704 -32.040497 -121.10014
11710000000 -31.034103 -68.666275 -0.29248443 -161.96692 -0.2917352 -161.95767 -32.325813 -119.60641
11740000000 -30.890099 -69.712799 -0.29301664 -162.37363 -0.29149991 -162.36481 -32.426643 -117.99103
11770000000 -31.000391 -69.026672 -0.29370347 -162.77582 -0.29313767 -162.776 -32.267368 -119.55434
11800000000 -30.872961 -68.739868 -0.29413861 -163.19377 -0.2915597 -163.18159 -31.944984 -119.46752
11830000000 -30.661608 -68.424316 -0.29350156 -163.61066 -0.29169202 -163.60736 -32.200928 -118.74273
11860000000 -30.584717 -68.268631 -0.29254422 -164.03201 -0.29311302 -164.02629 -32.232933 -117.01772
11890000000 -30.59803 -69.881355 -0.29433861 -164.44159 -0.2938619 -164.43431 -32.008675 -116.81435
11920000000 -30.567184 -68.80735 -0.29585415 -164.86325 -0.29450732 -164.8486 -32.094967 -117.64796
11950000000 -30.596613 -68.489021 -0.29611933 -165.26091 -0.29499713 -165.2605 -32.2761 -118.03879
11980000000 -30.344843 -69.766602 -0.29608414 -165.66823 -0.29491234 -165.66905 -32.07951 -115.87099
12010000000 -30.303759 -69.735893 -0.29591843 -166.09178 -0.29384059 -166.08568 -32.028942 -115.54298
12040000000 -30.36138 -68.967621 -0.29533294 -166.50894 -0.2950229 -166.49715 -32.183258 -116.85417
12070000000 -30.225164 -69.633873 -0.29528472 -166.92906 -0.29572418 -166.92023 -32.223339 -116.33909
12100000000 -29.931801 -70.450966 -0.29709908 -167.33728 -0.29523012 -167.33777 -32.008881 -114.46549
12130000000 -29.975246 -70.138405 -0.29717031 -167.75891 -0.29636738 -167.74834 -32.065182 -114.22707
12160000000 -29.940002 -70.339638 -0.2985726 -168.16846 -0.29622936 -168.16765 -31.94768 -115.20564
12190000000 -29.740582 -70.354088 -0.29817334 -168.58759 -0.29730144 -168.57939 -32.183235 -115.33016
12220000000 -29.778759 -70.725731 -0.29841927 -169.01106 -0.29859033 -168.9942 -32.019463 -112.99294
12250000000 -29.659842 -72.510109 -0.29943281 -169.42157 -0.29773998 -169.41277 -31.743565 -113.27084
12280000000 -29.475355 -71.300903 -0.30045909 -169.83781 -0.29877639 -169.82489 -32.012848 -113.23232
12310000000 -29.505535 -71.193283 -0.30176613 -170.24675 -0.29981193 -170.23759 -32.356426 -112.32987
12340000000 -29.455105 -72.736526 -0.30235636 -170.65881 -0.30010816 -170.65479 -32.019047 -111.34396
12370000000 -29.287369 -72.323395 -0.30239245 -171.0742 -0.30140677 -171.07219 -31.665058 -112.30312
12400000000 -29.264772 -72.104218 -0.30230337 -171.48865 -0.30217209 -171.48558 -31.948486 -110.91936
12430000000 -29.201765 -73.667809 -0.30386746 -171.90633 -0.30273464 -171.89122 -32.10421 -110.44977
12460000000 -29.051302 -73.800369 -0.30443996 -172.32053 -0.3035138 -172.31033 -31.717646 -109.45405
12490000000 -29.124912 -73.981789 -0.30580986 -172.73207 -0.30380666 -172.72734 -31.76849 -109.2398
12520000000 -28.989758 -75.41375 -0.30413955 -173.14987 -0.30415899 -173.13208 -31.722845 -109.91933
12550000000 -28.816654 -75.44445 -0.30683818 -173.55983 -0.30531523 -173.55371 -31.695038 -108.64942
12580000000 -28.978409 -75.551384 -0.30766001 -173.97705 -0.30558237 -173.96732 -31.634226 -106.61786
12610000000 -28.987495 -76.874702 -0.30802432 -174.39069 -0.30559379 -174.38229 -31.482988 -108.22743
12640000000 -28.716082 -76.301598 -0.30893338 -174.79787 -0.3071174 -174.7964 -31.458277 -108.63541
12670000000 -28.810759 -76.513153 -0.30903649 -175.20078 -0.30858457 -175.20526 -31.515783 -105.43269
12700000000 -28.753553 -77.355766 -0.30895728 -175.62415 -0.30778146 -175.616 -31.341677 -106.2992
12730000000 -28.599892 -77.067581 -0.30930835 -176.03467 -0.30766836 -176.02917 -31.181559 -107.85087
12760000000 -28.551889 -77.437012 -0.30850759 -176.45314 -0.30811852 -176.4398 -31.18878 -105.34255
12790000000 -28.55468 -78.482887 -0.31007782 -176.86467 -0.30733994 -176.85789 -31.382874 -106.96766
12820000000 -28.369638 -78.20594 -0.31013039 -177.28401 -0.30773005 -177.27675 -30.990107 -104.88614
12850000000 -28.455185 -78.453079 -0.30968946 -177.70178 -0.30872244 -177.69659 -31.108778 -104.90947
12880000000 -28.347538 -79.328545 -0.31080768 -178.12154 -0.31045121 -178.11343 -31.328054 -107.52345
12910000000 -28.124725 -78.992165 -0.31246248 -178.53473 -0.31195512 -178.52502 -31.036873 -103.48056
12940000000 -28.293413 -79.283348 -0.31401578 -178.95169 -0.31292957 -178.94472 -31.043655 -103.28951
12970000000 -28.143074 -80.146378 -0.31449834 -179.35814 -0.31473935 -179.35312 -31.109779 -104.73573
13000000000 -28.025574 -80.012573 -0.31542489 -179.7755 -0.31482619 -179.77327 -30.835188 -104.04995
13030000000 -28.084763 -80.962013 -0.31694669 179.81653 -0.31600949 179.81271 -31.035841 -100.91109
13060000000 -27.984316 -81.124741 -0.31707531 179.39302 -0.31612197 179.40956 -30.837292 -102.63918
13090000000 -27.815678 -80.790474 -0.31874004 178.98497 -0.31744152 178.99031 -30.439054 -103.37793
13120000000 -27.938646 -81.614372 -0.31945214 178.5668 -0.31958753 178.57777 -30.953409 -101.26546
13150000000 -27.779087 -82.605515 -0.3206498 178.15353 -0.32015067 178.16225 -30.875782 -100.64991
13180000000 -27.629065 -82.169655 -0.32092682 177.74828 -0.32023567 177.75523 -30.13714 -102.33891
13210000000 -27.744753 -83.034935 -0.32306591 177.32887 -0.32239562 177.33865 -30.578192 -99.644485
13240000000 -27.552286 -83.603477 -0.32317188 176.92633 -0.32339135 176.92526 -30.809681 -101.5041
13270000000 -27.529209 -83.031548 -0.32681471 176.51285 -0.32528892 176.51572 -30.221222 -99.247925
13300000000 -27.653965 -84.044983 -0.32662439 176.10178 -0.32627389 176.11302 -30.192842 -97.662056
13330000000 -27.431566 -84.207329 -0.32872188 175.69499 -0.3273266 175.69878 -30.419128 -102.70593
13360000000 -27.33362 -83.849358 -0.32967803 175.28996 -0.32912958 175.29529 -30.068703 -98.247917
13390000000 -27.517044 -84.94149 -0.3306098 174.8844 -0.33004054 174.88695 -30.138655 -96.854691
13420000000 -27.337633 -85.033638 -0.33241075 174.47148 -0.32977605 174.47993 -29.956678 -99.770973
13450000000 -27.143747 -84.67334 -0.33295125 174.06944 -0.33024946 174.07661 -29.681568 -101.23058
13480000000 -27.266373 -86.077469 -0.33316982 173.66452 -0.33279753 173.67191 -30.048279 -95.714935
13510000000 -27.112852 -85.722504 -0.33379844 173.26501 -0.33212599 173.26614 -29.772875 -100.04211
13540000000 -27.088295 -85.347282 -0.33354491 172.85512 -0.33148867 172.87288 -29.267458 -98.570969
13570000000 -27.191151 -86.292419 -0.33435112 172.45459 -0.3332324 172.46533 -29.8505 -97.956825
13600000000 -26.974131 -86.532143 -0.33334979 172.04402 -0.33208576 172.05634 -29.866877 -100.34415
13630000000 -26.939911 -86.762489 -0.33260441 171.64198 -0.33117658 171.64328 -29.178764 -98.919975
13660000000 -27.007753 -87.626068 -0.33150738 171.22136 -0.33021009 171.23653 -29.471083 -97.944084
13690000000 -26.751141 -87.208763 -0.33062041 170.80611 -0.33087683 170.81194 -29.762888 -103.08875
13720000000 -26.736536 -87.583336 -0.33107322 170.38943 -0.33111456 170.39613 -29.314728 -99.180984
13750000000 -26.88409 -88.442101 -0.33248761 169.97482 -0.33186278 169.98718 -29.34787 -97.677063
13780000000 -26.68425 -88.515343 -0.33231097 169.5508 -0.33284 169.57074 -29.519258 -101.14098
13810000000 -26.594934 -88.389168 -0.33384597 169.14766 -0.33333248 169.1503 -29.080744 -100.13108
13840000000 -26.726009 -89.542381 -0.33536807 168.74709 -0.33421052 168.76082 -29.527805 -96.070091
13870000000 -26.49029 -89.043045 -0.33629489 168.32399 -0.33486697 168.3416 -29.387651 -100.45536
13900000000 -26.526445 -88.693695 -0.33657068 167.92654 -0.33530459 167.94104 -28.787216 -99.836006
13930000000 -26.611118 -90.289894 -0.33674273 167.52414 -0.33618861 167.53819 -29.333164 -97.972359
13960000000 -26.359785 -89.867638 -0.33543715 167.11142 -0.33440676 167.11676 -29.41276 -100.5201
13990000000 -26.476088 -90.245506 -0.335273 166.69794 -0.33475739 166.71115 -28.632717 -99.154526
14020000000 -26.461246 -91.518616 -0.33522964 166.28429 -0.33506522 166.29497 -29.113131 -99.26059
14050000000 -26.253565 -90.794609 -0.33542147 165.86368 -0.33581272 165.87427 -29.396841 -102.10855
14080000000 -26.334303 -91.275169 -0.33767349 165.45047 -0.33596346 165.46458 -28.774143 -99.53257
14110000000 -26.444618 -92.291832 -0.33793789 165.03831 -0.33761612 165.05605 -29.058558 -97.053291
14140000000 -26.263033 -91.589554 -0.33941916 164.61833 -0.33950958 164.63954 -29.036276 -101.88174
14170000000 -26.305174 -91.694618 -0.34136128 164.21544 -0.3408623 164.22856 -28.808237 -99.645035
14200000000 -26.35187 -92.995903 -0.34218717 163.81921 -0.3426919 163.82446 -29.049227 -96.114899
14230000000 -26.112101 -92.206909 -0.34426698 163.41026 -0.34267482 163.4229 -28.824921 -100.97612
14260000000 -26.167761 -92.088921 -0.34287229 163.00682 -0.34358525 163.0296 -28.331097 -100.00979
14290000000 -26.157442 -92.883499 -0.34365699 162.6118 -0.34397584 162.62727 -29.037178 -97.938164
14320000000 -25.923359 -92.384468 -0.34236696 162.20377 -0.34270954 162.22156 -28.689943 -101.04128
14350000000 -26.068832 -93.068184 -0.34176707 161.80679 -0.34218577 161.8121 -28.164265 -98.726158
14380000000 -26.046467 -94.034462 -0.34271261 161.38606 -0.34210426 161.40216 -28.658062 -99.378731
14410000000 -25.794947 -93.052513 -0.3413865 160.98859 -0.34027016 161.00146 -28.886942 -102.2168
14440000000 -25.863323 -93.729919 -0.34067079 160.57504 -0.3400515 160.59418 -28.212378 -99.764267
14470000000 -25.940094 -95.083984 -0.33994317 160.16727 -0.33845502 160.17625 -28.528883 -98.680222
14500000000 -25.70682 -94.658745 -0.34003416 159.75188 -0.33896434 159.75339 -28.514418 -103.21684
14530000000 -25.823191 -94.72052 -0.34120727 159.33067 -0.33947429 159.34561 -28.298275 -100.32265
14560000000 -25.830294 -95.974312 -0.34161192 158.92094 -0.34002325 158.93489 -28.672312 -97.462349
14590000000 -25.627279 -95.152016 -0.34288827 158.50681 -0.34296501 158.52789 -28.221766 -102.01539
14620000000 -25.767084 -95.722023 -0.34368697 158.11658 -0.34260899 158.13101 -27.910927 -101.09131
14650000000 -25.704248 -96.50843 -0.3437587 157.70598 -0.34267619 157.73042 -28.537874 -98.311874
14680000000 -25.49452 -95.946953 -0.34405011 157.29918 -0.34219611 157.31554 -28.225624 -101.0987
14710000000 -25.610064 -96.852669 -0.34201688 156.907 -0.3409197 156.91821 -27.563427 -100.7747
14740000000 -25.613546 -97.608421 -0.34215468 156.49417 -0.3414523 156.50578 -28.266617 -99.397484
14770000000 -25.417248 -97.129959 -0.34095833 156.08983 -0.33940825 156.09895 -28.194605 -103.0164
14800000000 -25.472931 -98.455399 -0.34093985 155.68758 -0.34051681 155.70256 -27.458208 -99.234978
14830000000 -25.498638 -99.134384 -0.33918881 155.26793 -0.34011254 155.28555 -28.006151 -100.73003
14860000000 -25.354744 -98.498207 -0.33955687 154.862 -0.33729887 154.87579 -27.920227 -104.79979
14890000000 -25.463554 -99.576248 -0.33751288 154.44746 -0.33750141 154.47423 -27.560671 -101.7462
14920000000 -25.395376 -100.86431 -0.33778316 154.05083 -0.33605269 154.0531 -27.874819 -100.21644
14950000000 -25.303473 -100.19691 -0.33625406 153.63248 -0.33483651 153.64745 -27.613207 -105.31494
14980000000 -25.44388 -100.89503 -0.33581525 153.22176 -0.33371514 153.23816 -27.57859 -103.8504
15010000000 -25.388105 -101.60365 -0.33371347 152.81198 -0.3338359 152.82225 -28.013447 -102.00992
15040000000 -25.306467 -101.47051 -0.33353707 152.38728 -0.33281988 152.40434 -27.651976 -104.80354
15070000000 -25.439333 -102.39981 -0.33201087 151.97765 -0.33089387 151.99644 -27.377546 -104.78584
15100000000 -25.415806 -102.74689 -0.33130845 151.55774 -0.33119392 151.57051 -27.98912 -103.18583
15130000000 -25.282124 -102.22085 -0.33177561 151.1338 -0.32991487 151.15131 -27.923212 -106.45718
15160000000 -25.385479 -103.34641 -0.3315275 150.72684 -0.33127382 150.74983 -27.364845 -102.38654
15190000000 -25.413986 -104.10629 -0.33117968 150.30377 -0.33047318 150.3228 -27.901693 -104.31832
15220000000 -25.322792 -103.19264 -0.33041257 149.89014 -0.32893661 149.90953 -27.904961 -106.65277
15250000000 -25.419188 -104.41251 -0.33215562 149.48477 -0.32965374 149.50357 -27.636574 -102.80282
15280000000 -25.362347 -105.28413 -0.33111569 149.06519 -0.32886344 149.08705 -27.923271 -102.0743
15310000000 -25.334759 -104.81415 -0.33015171 148.662 -0.33036676 148.66469 -27.575747 -106.87666
15340000000 -25.44735 -105.71913 -0.32995981 148.2484 -0.32978275 148.25723 -27.79867 -103.54573
15370000000 -25.36187 -106.19553 -0.32971656 147.82414 -0.32899916 147.83839 -28.03146 -101.37363
15400000000 -25.301296 -106.05575 -0.33061174 147.41042 -0.32910416 147.41699 -27.583134 -104.71316
15430000000 -25.498899 -107.03527 -0.32907373 146.99249 -0.32924768 147.00896 -27.497711 -103.54022
15460000000 -25.497808 -107.14234 -0.3305676 146.58206 -0.32785305 146.5914 -27.926765 -101.76004
15490000000 -25.393036 -107.2146 -0.33081734 146.16028 -0.32848176 146.17149 -27.66995 -103.57869
15520000000 -25.562197 -108.24231 -0.33038437 145.7505 -0.32920134 145.7666 -27.165764 -101.15646
15550000000 -25.578545 -108.87167 -0.3312836 145.33546 -0.33128163 145.34961 -27.707182 -102.86919
15580000000 -25.401278 -107.80897 -0.33174655 144.92467 -0.33038437 144.92674 -27.478661 -104.99615
15610000000 -25.547947 -108.81285 -0.33153364 144.51237 -0.33123469 144.528 -27.156193 -100.81095
15640000000 -25.548754 -109.58379 -0.3308827 144.09523 -0.33077264 144.11116 -27.505056 -102.28031
15670000000 -25.551434 -109.50778 -0.33125651 143.68747 -0.32950461 143.68689 -27.270065 -105.21233
15700000000 -25.632866 -109.6898 -0.33263516 143.26509 -0.33126208 143.26857 -27.372419 -102.27161
15730000000 -25.588039 -110.2743 -0.33275142 142.84695 -0.33162695 142.85861 -27.436102 -100.73644
15760000000 -25.539642 -110.67571 -0.33478057 142.43642 -0.33255804 142.44026 -27.104214 -103.81368
15790000000 -25.711662 -111.13888 -0.3345952 142.01607 -0.33318713 142.04237 -27.022652 -102.18647
15820000000 -25.625746 -110.98238 -0.33695534 141.61632 -0.33427566 141.62646 -27.469894 -101.51971
15850000000 -25.506285 -111.43772 -0.33591592 141.20395 -0.33598837 141.21347 -26.946184 -102.35383
15880000000 -25.642033 -112.43594 -0.33580545 140.80887 -0.33520028 140.8092 -26.728067 -102.3079
15910000000 -25.604773 -112.90001 -0.33645013 140.41164 -0.33676231 140.41754 -27.039671 -102.69751
15940000000 -25.505754 -112.46344 -0.33672342 139.99681 -0.33647615 140.00813 -27.023235 -103.81093
15970000000 -25.615128 -113.51861 -0.33600065 139.58267 -0.33433938 139.60628 -26.648325 -101.87059
16000000000 -25.584032 -114.73122 -0.33461562 139.1814 -0.33407715 139.19934 -26.635715 -103.0115
16030000000 -25.649828 -114.23801 -0.33376378 138.7798 -0.33241132 138.78709 -26.905941 -105.34379
16060000000 -25.66412 -115.16055 -0.33180466 138.36588 -0.33174598 138.38231 -26.558126 -103.98363
16090000000 -25.627914 -116.08237 -0.33157694 137.95531 -0.3301475 137.97009 -26.818266 -102.64679
16120000000 -25.612116 -116.2356 -0.33011064 137.53448 -0.32895002 137.54472 -26.573582 -106.38944
16150000000 -25.741245 -116.61962 -0.32889333 137.12085 -0.32813084 137.14328 -26.64757 -105.67885
16180000000 -25.680685 -116.91153 -0.32723644 136.71045 -0.3266989 136.72325 -26.961222 -103.92355
16210000000 -25.665983 -117.60753 -0.32739723 136.29649 -0.32644886 136.29852 -26.499088 -105.17013
16240000000 -25.829496 -118.1998 -0.32606375 135.87706 -0.32652336 135.89119 -26.552921 -105.83494
16270000000 -25.806431 -118.85571 -0.32687724 135.46355 -0.32702488 135.47366 -26.717649 -105.53649
16300000000 -25.767286 -118.6641 -0.3262521 135.04303 -0.32656634 135.06064 -26.770157 -106.14153
16330000000 -25.851563 -120.17941 -0.32555091 134.62181 -0.32495609 134.6356 -26.404915 -104.95945
16360000000 -25.857582 -120.91095 -0.32696906 134.20825 -0.3250345 134.22086 -26.474361 -105.9478
16390000000 -25.79781 -120.22561 -0.32775229 133.80032 -0.32606375 133.80101 -26.758268 -108.28753
16420000000 -25.818975 -120.42379 -0.32639414 133.38013 -0.32538962 133.39311 -26.546791 -105.77087
16450000000 -25.829346 -121.86658 -0.32507381 132.96329 -0.32528138 132.98006 -26.454899 -105.32054
16480000000 -25.871321 -121.63217 -0.32629201 132.55467 -0.32627723 132.57866 -26.425903 -108.56629
16510000000 -25.976097 -122.13651 -0.32746923 132.14082 -0.32467377 132.15434 -26.496914 -108.3252
16540000000 -25.87826 -123.10766 -0.32405901 131.73894 -0.32468829 131.75459 -26.548439 -106.12843
16570000000 -25.874624 -123.43133 -0.32413208 131.32166 -0.3230305 131.33517 -26.362759 -108.50105
16600000000 -26.014555 -124.01215 -0.32411313 130.90131 -0.32288775 130.91736 -26.294636 -109.64699
16630000000 -25.937565 -124.66112 -0.32291394 130.49194 -0.32174408 130.50069 -26.55678 -108.80772
16660000000 -25.892344 -124.28889 -0.32257098 130.0731 -0.32054165 130.09111 -26.686441 -108.24382
16690000000 -26.053858 -125.36714 -0.32206216 129.64911 -0.32165462 129.66132 -26.189581 -109.4607
16720000000 -26.033167 -126.39432 -0.32134798 129.23462 -0.32075542 129.24554 -26.453142 -110.08862
16750000000 -25.946136 -125.67641 -0.31996703 128.82538 -0.31924513 128.8414 -26.833818 -111.08706
16780000000 -26.014683 -126.27463 -0.3214525 128.39621 -0.31913033 128.40738 -26.444653 -109.21275
16810000000 -26.044624 -127.67867 -0.32036415 127.98224 -0.31964967 127.98367 -26.416737 -109.09708
16840000000 -26.038572 -126.42186 -0.32042852 127.56895 -0.32047534 127.57919 -26.677845 -112.43048
16870000000 -26.157923 -126.96964 -0.31878516 127.14256 -0.31951037 127.16158 -26.582582 -110.57949
16900000000 -26.064869 -128.93967 -0.31860799 126.72194 -0.31932703 126.74188 -26.66279 -107.99377
16930000000 -26.083427 -128.27731 -0.32136247 126.3121 -0.31879881 126.31144 -26.583103 -111.72704
16960000000 -26.210144 -128.62439 -0.32060465 125.89095 -0.31960371 125.90306 -26.559156 -112.3867
16990000000 -26.087093 -129.666 -0.32137001 125.47784 -0.31719813 125.47873 -26.800777 -110.01142
17020000000 -26.016909 -129.23404 -0.31897682 125.06067 -0.31848153 125.05073 -26.841394 -110.24634
17050000000 -26.246655 -130.2222 -0.32005844 124.63858 -0.31984276 124.65109 -26.222784 -111.78339
17080000000 -26.255054 -130.21951 -0.32068685 124.23107 -0.31893003 124.23347 -26.701233 -110.6713
17110000000 -26.070566 -129.34152 -0.31898046 123.81779 -0.31808573 123.82662 -27.038591 -112.38108
17140000000 -26.287857 -131.48549 -0.31975025 123.38754 -0.31920472 123.38969 -26.362717 -110.92431
17170000000 -26.232168 -132.01656 -0.31869546 122.96357 -0.31993082 122.97162 -26.39727 -109.93534
17200000000 -26.232792 -129.93156 -0.3175 122.56039 -0.31814644 122.56183 -27.079538 -114.58429
17230000000 -26.346439 -131.31914 -0.32048202 122.12837 -0.31996313 122.13509 -26.621662 -111.37173
17260000000 -26.235708 -132.84123 -0.32201394 121.70563 -0.31886205 121.71836 -26.61323 -109.10957
17290000000 -26.359369 -130.9442 -0.32006904 121.29185 -0.3206732 121.30991 -26.86454 -113.32524
17320000000 -26.47105 -132.12991 -0.32159829 120.88078 -0.3191568 120.88923 -26.523575 -112.90265
17350000000 -26.26222 -132.90727 -0.32184389 120.45536 -0.32243603 120.46581 -26.990074 -109.42232
17380000000 -26.320433 -132.03467 -0.32129586 120.0405 -0.32084432 120.04898 -26.943834 -111.38285
17410000000 -26.514118 -133.29846 -0.32259077 119.6287 -0.32283837 119.63387 -26.348522 -112.59164
17440000000 -26.368135 -132.84944 -0.32295439 119.2056 -0.31968117 119.22455 -26.859499 -110.83118
17470000000 -26.414793 -131.50485 -0.32110187 118.79761 -0.32203791 118.79453 -27.314264 -110.99409
17500000000 -26.650902 -134.36882 -0.32187316 118.36681 -0.32410559 118.39319 -26.337927 -110.90293
17530000000 -26.507351 -134.25598 -0.32436612 117.95361 -0.32072839 117.95341 -26.622894 -110.71191
17560000000 -26.503967 -131.52924 -0.32389501 117.52897 -0.32159299 117.54648 -27.286011 -112.75473
17590000000 -26.651613 -133.86909 -0.32358181 117.11631 -0.32285231 117.12823 -26.613344 -110.0257
17620000000 -26.572906 -134.47142 -0.32458982 116.69828 -0.32373521 116.70235 -26.671862 -107.98249
17650000000 -26.772852 -131.68089 -0.3262789 116.27392 -0.32353997 116.29095 -27.042896 -111.88044
17680000000 -26.851131 -133.92685 -0.32489306 115.87203 -0.32430503 115.86751 -26.482052 -111.57447
17710000000 -26.628817 -134.11235 -0.3283391 115.44764 -0.32491341 115.4552 -26.920708 -106.45046
17740000000 -26.825567 -133.04454 -0.3267056 115.03092 -0.3258394 115.03887 -26.782162 -109.71252
17770000000 -27.063185 -134.59366 -0.32725543 114.61903 -0.32693139 114.61829 -26.206562 -111.49802
17800000000 -26.818264 -133.38594 -0.3285971 114.19983 -0.32730985 114.19164 -26.869349 -107.15827
17830000000 -26.931316 -132.10403 -0.32933146 113.77684 -0.32728779 113.78583 -27.088335 -108.92574
17860000000 -27.179314 -135.15547 -0.33254042 113.37518 -0.32952583 113.37948 -26.004238 -108.97717
17890000000 -27.131977 -133.77795 -0.33033717 112.93786 -0.32926333 112.95502 -26.612024 -107.27449
17920000000 -27.155052 -131.4803 -0.33042011 112.52337 -0.32848597 112.52955 -27.033609 -110.01072
17950000000 -27.252211 -134.84819 -0.33426055 112.11371 -0.33162948 112.1124 -26.142389 -107.68183
17980000000 -27.316141 -134.08594 -0.33306387 111.69845 -0.33190358 111.69461 -26.296629 -105.17606
18010000000 -27.437452 -131.6651 -0.33290458 111.26268 -0.33199188 111.28613 -26.656984 -110.04982
18040000000 -27.469173 -133.77762 -0.3350901 110.85573 -0.33460695 110.86131 -26.128588 -108.47947
18070000000 -27.393999 -133.93858 -0.33752799 110.44044 -0.33690777 110.44861 -26.338112 -103.55756
18100000000 -27.643534 -131.97783 -0.33784527 110.02042 -0.33679 110.03104 -26.456465 -108.82606
18130000000 -27.769329 -133.99393 -0.33854008 109.61745 -0.33667418 109.62003 -25.799351 -109.10749
18160000000 -27.491692 -132.0672 -0.34084746 109.18015 -0.33880678 109.19969 -26.345524 -104.04111
18190000000 -27.720573 -131.34824 -0.34129798 108.76986 -0.34075394 108.76829 -26.399494 -107.96211
18220000000 -28.01704 -133.91333 -0.34343874 108.38113 -0.34164608 108.37844 -25.499519 -107.19646
18250000000 -27.836397 -130.68944 -0.34210539 107.93711 -0.34385005 107.95702 -25.925714 -105.4567
18280000000 -27.986004 -129.68483 -0.34562624 107.5276 -0.34490311 107.538 -26.48155 -108.87384
18310000000 -28.253834 -133.6767 -0.3492355 107.1348 -0.3479225 107.13265 -25.325596 -105.79173
18340000000 -28.14736 -131.05484 -0.34887785 106.71357 -0.34785241 106.72823 -25.721367 -104.12352
18370000000 -28.240503 -128.97433 -0.35127744 106.29611 -0.35029465 106.2968 -26.022537 -111.09519
18400000000 -28.307749 -132.2597 -0.35331923 105.8896 -0.35455996 105.8956 -25.403265 -106.758
18430000000 -28.268848 -130.64897 -0.3568905 105.48939 -0.35501474 105.50184 -25.660906 -103.11403
18460000000 -28.590067 -128.37285 -0.35603735 105.06747 -0.35811484 105.08358 -25.719172 -110.10754
18490000000 -28.598682 -131.48726 -0.35848674 104.66413 -0.35668787 104.67784 -24.999289 -108.56811
18520000000 -28.230206 -129.36018 -0.3626681 104.27403 -0.36277559 104.28017 -25.752954 -104.61854
18550000000 -28.656075 -129.36223 -0.36178684 103.8666 -0.3623715 103.87292 -25.542183 -109.21493
18580000000 -28.730482 -132.53638 -0.36378402 103.47155 -0.36359206 103.48722 -24.662966 -109.48283
18610000000 -28.298197 -129.37701 -0.36472341 103.07433 -0.36538225 103.08505 -25.55957 -108.71033
18640000000 -28.667597 -129.98299 -0.36369142 102.65665 -0.3634305 102.6832 -25.577217 -110.99091
18670000000 -28.794954 -133.71921 -0.36527693 102.26228 -0.36521584 102.27522 -24.804888 -109.6492
18700000000 -28.736111 -129.71286 -0.3626377 101.85302 -0.36317354 101.86378 -25.184788 -108.73124
18730000000 -28.938744 -128.96796 -0.36415669 101.44827 -0.36391631 101.45465 -25.590591 -114.82912
18760000000 -28.931562 -134.26123 -0.36634848 101.03622 -0.36489514 101.04873 -24.726566 -110.19875
18790000000 -28.8335 -130.24986 -0.36608541 100.64018 -0.36576098 100.64651 -25.303646 -108.24461
18820000000 -29.329891 -129.41548 -0.37000433 100.227 -0.3693397 100.23566 -25.126488 -115.34798
18850000000 -29.02046 -133.62871 -0.37221116 99.826111 -0.37009311 99.835785 -24.718731 -112.7386
18880000000 -28.737398 -131.18977 -0.37336197 99.438911 -0.37175798 99.459648 -25.369162 -110.23242
18910000000 -29.313902 -131.82458 -0.37429214 99.029961 -0.37259361 99.05748 -25.066092 -115.48158
18940000000 -29.188526 -134.82439 -0.37339863 98.65834 -0.37115481 98.675957 -24.468687 -115.10416
18970000000 -28.882612 -131.32869 -0.37291065 98.284462 -0.37113228 98.280121 -25.55081 -113.36406
19000000000 -29.368338 -134.82025 -0.37006718 97.880249 -0.36822376 97.883347 -25.108658 -118.31766
19030000000 -29.449244 -137.97112 -0.36511871 97.489372 -0.36637241 97.494011 -24.600264 -115.7844
19060000000 -29.411579 -134.61285 -0.36431605 97.080284 -0.36224967 97.09462 -25.178749 -116.89677
19090000000 -29.736786 -137.35019 -0.35917756 96.693054 -0.35815307 96.699623 -25.522854 -121.59376
19120000000 -29.704935 -142.78561 -0.35538667 96.287354 -0.35421589 96.288788 -24.816614 -117.69599
19150000000 -29.902063 -138.36838 -0.35272676 95.860039 -0.34910703 95.876968 -25.603279 -116.72851
19180000000 -30.327429 -138.78287 -0.34931126 95.445396 -0.34753606 95.452858 -25.44385 -123.64438
19210000000 -30.146868 -143.54112 -0.34550318 95.022202 -0.34366482 95.035721 -25.300072 -119.57169
19240000000 -30.528723 -140.68144 -0.34107903 94.604446 -0.34205469 94.617592 -26.177658 -117.55303
19270000000 -31.243595 -143.91774 -0.34124172 94.160332 -0.33947656 94.173508 -25.532518 -123.28226
19300000000 -30.769808 -144.56763 -0.33851099 93.733444 -0.33860248 93.739944 -25.554848 -121.48148
19330000000 -30.959614 -141.43636 -0.33996835 93.30233 -0.33671644 93.322388 -26.413038 -119.87134
19360000000 -31.663342 -146.10583 -0.33671921 92.86335 -0.33571288 92.871841 -26.098509 -122.27431
19390000000 -31.593849 -146.98198 -0.33735147 92.441132 -0.33547768 92.447433 -25.587376 -120.43298
19420000000 -31.592192 -141.02945 -0.34018531 92.005981 -0.33831677 92.006554 -26.523348 -121.17181
19450000000 -31.978445 -145.58174 -0.33884653 91.571724 -0.3355121 91.588257 -26.409843 -122.85536
19480000000 -31.899218 -148.46179 -0.34088162 91.152107 -0.33771518 91.158913 -25.910088 -119.0543
19510000000 -32.303997 -140.44733 -0.34071475 90.722122 -0.34121904 90.716652 -26.57699 -118.01123
19540000000 -32.601471 -143.80733 -0.34267566 90.302216 -0.3428199 90.319298 -26.507288 -124.78293
19570000000 -32.074482 -146.6004 -0.34515703 89.858971 -0.34463072 89.881294 -26.117521 -117.86887
19600000000 -32.6665 -140.95152 -0.34814325 89.432556 -0.3466472 89.441856 -26.896233 -116.68003
19630000000 -33.048977 -143.07359 -0.35176414 89.024376 -0.351477 89.034676 -26.155342 -122.01309
19660000000 -32.371685 -142.83051 -0.35480967 88.600426 -0.35261109 88.615234 -26.220154 -118.69279
19690000000 -32.711658 -139.44507 -0.35894305 88.198738 -0.35701695 88.195816 -26.93165 -116.54233
19720000000 -33.147942 -143.69025 -0.36114597 87.783485 -0.36039045 87.772667 -26.36404 -119.63822
19750000000 -32.667267 -143.01147 -0.36575311 87.391663 -0.36500072 87.380035 -26.008978 -118.64426
19780000000 -32.622242 -137.10594 -0.37059546 86.982864 -0.36687657 86.978432 -26.786852 -116.91479
19810000000 -32.943092 -144.84898 -0.36971173 86.581871 -0.36939916 86.592972 -26.481888 -120.5091
19840000000 -32.541611 -145.96538 -0.37331486 86.200386 -0.37236515 86.207947 -25.969561 -117.43343
19870000000 -32.777195 -138.59604 -0.37334165 85.794113 -0.37373409 85.807365 -26.603325 -117.18475
19900000000 -32.773571 -144.36664 -0.37126622 85.421173 -0.37162289 85.422264 -26.308693 -122.74986
19930000000 -32.384262 -146.55594 -0.37188122 84.995811 -0.37121966 85.014473 -26.237186 -117.17358
19960000000 -33.017593 -141.09657 -0.37393185 84.605209 -0.37400237 84.596954 -26.574038 -116.42918
19990000000 -33.139732 -144.70117 -0.37602833 84.180908 -0.37375045 84.203484 -26.133352 -122.4508
20020000000 -32.336643 -144.56143 -0.37381729 83.816063 -0.37290555 83.818413 -26.188213 -119.68654
20050000000 -33.057762 -142.68092 -0.37685293 83.3993 -0.37538451 83.413239 -26.766827 -116.08916
20080000000 -33.345196 -148.28928 -0.37435251 83.008614 -0.37480006 83.003838 -26.266386 -121.25628
20110000000 -32.715546 -145.85233 -0.37267596 82.639244 -0.37288553 82.648384 -25.822025 -118.97617
20140000000 -32.866875 -142.19936 -0.37265143 82.218636 -0.37074658 82.231522 -27.010324 -119.36817
20170000000 -33.141315 -150.41498 -0.36990312 81.801994 -0.36919034 81.802567 -26.567106 -120.36222
20200000000 -32.958893 -147.64389 -0.37040997 81.438911 -0.36839113 81.436653 -25.837982 -117.49793
20230000000 -33.408833 -140.27901 -0.36630735 81.045158 -0.36795497 81.037987 -26.713631 -120.54379
20260000000 -33.266308 -149.3174 -0.36385298 80.61245 -0.36204681 80.608284 -26.735929 -120.99974
20290000000 -33.131474 -149.58876 -0.36236081 80.207657 -0.36269033 80.213364 -26.305176 -117.90487
20320000000 -34.06424 -143.07849 -0.36209267 79.811295 -0.35810387 79.809547 -26.578894 -117.72697
20350000000 -33.873798 -147.72269 -0.35676205 79.387611 -0.35540158 79.393539 -26.695765 -122.12063
20380000000 -33.1721 -146.78645 -0.35326895 78.972031 -0.35131365 78.99173 -26.472387 -118.33958
20410000000 -34.473869 -145.35799 -0.35543668 78.550446 -0.3557592 78.568405 -26.965427 -116.83902
20440000000 -34.795128 -149.18642 -0.3530547 78.140892 -0.35031459 78.142273 -26.494904 -118.8056
20470000000 -34.021004 -145.1044 -0.34537619 77.736977 -0.3454603 77.743057 -26.293116 -119.65153
20500000000 -34.654964 -142.66164 -0.34684572 77.308601 -0.34635732 77.312111 -27.212149 -117.70726
20530000000 -35.13562 -151.59479 -0.34787315 76.884377 -0.34679469 76.884605 -26.578053 -116.08602
20560000000 -34.889038 -144.59082 -0.34215522 76.465652 -0.34244794 76.48597 -26.134007 -117.7737
20590000000 -35.311108 -137.87451 -0.34269133 76.061798 -0.34275576 76.057892 -26.884584 -118.06117
20620000000 -35.387291 -147.77197 -0.34250927 75.611954 -0.33941972 75.607452 -26.867882 -117.00557
20650000000 -35.34272 -143.1823 -0.3372997 75.198128 -0.33791524 75.209473 -26.234608 -116.14462
20680000000 -36.661224 -133.08562 -0.3382012 74.80127 -0.33945191 74.810158 -26.380388 -114.91539
20710000000 -36.208481 -141.33418 -0.34145004 74.332764 -0.33937886 74.34597 -26.807329 -120.57574
20740000000 -35.573654 -137.67516 -0.33841416 73.930763 -0.33629742 73.940536 -26.409611 -114.22643
20770000000 -37.089993 -129.44843 -0.33882105 73.527206 -0.33919832 73.532959 -26.546297 -112.93325
20800000000 -36.877609 -131.91882 -0.33724236 73.079178 -0.33671224 73.092575 -26.313002 -118.52796
20830000000 -35.953938 -125.64203 -0.33720627 72.668816 -0.3344079 72.665558 -26.309244 -116.80782
20860000000 -37.224907 -122.8421 -0.34025726 72.265396 -0.33889607 72.261169 -26.769136 -114.05913
20890000000 -37.653385 -129.01518 -0.34208775 71.829514 -0.33990231 71.825943 -26.339357 -115.14452
20920000000 -36.371994 -118.00731 -0.33632371 71.400169 -0.33460107 71.409515 -25.987183 -117.74139
20950000000 -36.984386 -115.69622 -0.33988997 70.996689 -0.33972257 70.995575 -26.515266 -115.72546
20980000000 -37.184933 -123.05264 -0.34315073 70.554131 -0.34214458 70.560661 -26.607738 -116.38766
21010000000 -36.955837 -113.52838 -0.34176454 70.138489 -0.33963665 70.164772 -25.949984 -115.35146
21040000000 -37.164017 -102.64523 -0.34051988 69.741302 -0.33784667 69.768181 -26.036081 -115.84602
21070000000 -36.945091 -111.41267 -0.34390214 69.300827 -0.34236446 69.320755 -26.656773 -118.91668
21100000000 -36.9062 -106.67822 -0.34333032 68.902191 -0.34247145 68.913971 -26.102497 -116.15394
21130000000 -37.235737 -96.943039 -0.34563297 68.506882 -0.34290197 68.519028 -26.069754 -114.44302
21160000000 -36.866581 -100.78446 -0.34743065 68.058823 -0.34645432 68.075043 -26.240433 -120.48771
21190000000 -35.784851 -99.648659 -0.34644368 67.643372 -0.34508249 67.668968 -26.196676 -118.08685
21220000000 -36.682098 -94.613785 -0.34973237 67.254669 -0.34747046 67.26622 -26.38032 -114.97752
21250000000 -36.672348 -96.078415 -0.35030699 66.838081 -0.3476502 66.847427 -26.264542 -118.11697
21280000000 -35.442024 -92.427711 -0.34639263 66.399757 -0.34676075 66.418518 -25.835707 -120.08339
21310000000 -35.838451 -90.698753 -0.35173693 66.013306 -0.35178715 66.025314 -26.442543 -118.12229
21340000000 -36.236446 -95.613289 -0.35498384 65.609917 -0.3542631 65.612984 -26.561159 -117.06652
21370000000 -35.077347 -88.670647 -0.35255805 65.183044 -0.35269168 65.196747 -25.92198 -119.56215
21400000000 -34.93568 -85.337822 -0.35198197 64.810776 -0.35188541 64.806618 -25.883429 -118.63557
21430000000 -35.002018 -91.58754 -0.35788825 64.397507 -0.35779861 64.410622 -27.056976 -121.11808
21460000000 -34.8937 -85.862534 -0.35559568 63.995712 -0.35328496 63.998852 -25.840412 -119.6797
21490000000 -34.71949 -81.037514 -0.35606095 63.621288 -0.35234186 63.62973 -26.049421 -117.66643
21520000000 -34.809998 -86.810432 -0.35687137 63.198109 -0.35640574 63.211266 -26.379412 -124.73352
21550000000 -34.604179 -85.866119 -0.35489675 62.782833 -0.3539314 62.805214 -26.172293 -122.16016
21580000000 -34.951519 -79.809242 -0.35294998 62.424461 -0.35053962 62.434078 -26.55722 -118.78258
21610000000 -34.764183 -83.402634 -0.35146716 61.991421 -0.34973517 61.994976 -26.344957 -123.75978
21640000000 -34.023315 -81.279457 -0.34971973 61.567543 -0.34750748 61.578152 -26.037733 -126.12904
21670000000 -34.55706 -79.446388 -0.34904221 61.194187 -0.34817606 61.207424 -26.951839 -122.67964
21700000000 -34.729355 -80.798264 -0.34667975 60.800365 -0.34616753 60.795727 -26.754747 -123.10755
21730000000 -33.948288 -77.181099 -0.34383938 60.365108 -0.34210145 60.378239 -26.253662 -126.21838
21760000000 -34.068752 -76.158585 -0.33970943 59.984322 -0.33782178 59.983944 -26.809437 -124.64452
21790000000 -34.422516 -81.877853 -0.3399342 59.564323 -0.33963302 59.59063 -27.782084 -128.53575
21820000000 -34.219318 -73.029778 -0.33406347 59.128475 -0.33264214 59.133831 -26.639656 -124.19265
21850000000 -33.896145 -71.739075 -0.33074218 58.715584 -0.32818806 58.732197 -27.253782 -122.88731
21880000000 -34.216362 -76.51281 -0.33247781 58.284435 -0.33044526 58.299217 -27.784616 -129.69356
21910000000 -34.005074 -72.147804 -0.32969561 57.832333 -0.32798177 57.864162 -27.416838 -125.53622
21940000000 -33.934334 -66.988655 -0.32507104 57.443386 -0.32434183 57.463398 -27.678877 -119.25014
21970000000 -33.579067 -71.906227 -0.32971209 57.003422 -0.32815987 57.007942 -27.643648 -127.03965
22000000000 -33.263069 -70.416489 -0.32730985 56.568661 -0.32798538 56.563354 -27.598705 -127.01548
22030000000 -33.508198 -66.044106 -0.32695958 56.164581 -0.32537317 56.172546 -28.058971 -119.1847
22060000000 -33.403786 -67.677979 -0.32919043 55.740631 -0.32755074 55.750465 -28.404373 -124.26181
22090000000 -32.611389 -65.678864 -0.32857588 55.292255 -0.32757476 55.299725 -27.238161 -124.27731
22120000000 -32.923145 -65.21656 -0.32976517 54.885761 -0.32618207 54.900703 -28.23785 -122.96849
22150000000 -33.105572 -68.132721 -0.33047292 54.477459 -0.32816237 54.486805 -28.997679 -123.09038
22180000000 -32.31179 -63.371696 -0.33056957 54.032566 -0.33028969 54.038303 -27.540722 -122.11589
22210000000 -32.108665 -63.707169 -0.33077738 53.625755 -0.32921612 53.625393 -28.006346 -119.44766
22240000000 -32.33942 -68.146957 -0.33416912 53.236877 -0.33293977 53.240612 -29.250031 -125.8363
22270000000 -32.03149 -64.037361 -0.3340081 52.780975 -0.33231097 52.789234 -28.022985 -119.72991
22300000000 -31.777 -61.223392 -0.33341298 52.372822 -0.3311249 52.393673 -28.416241 -114.49081
22330000000 -31.686598 -66.069496 -0.33431759 51.976124 -0.33493242 51.983021 -28.728737 -123.42849
22360000000 -31.601303 -64.465767 -0.33693799 51.542137 -0.33352813 51.538933 -28.399067 -120.43993
22390000000 -31.728354 -62.634018 -0.33656454 51.13625 -0.33423343 51.146568 -28.771379 -111.1627
22420000000 -31.411242 -63.359745 -0.33952552 50.730007 -0.33874074 50.742802 -28.826925 -118.40729
22450000000 -31.098301 -63.343914 -0.34213087 50.307358 -0.3394953 50.313816 -28.057333 -117.57092
22480000000 -31.280729 -62.63084 -0.33871555 49.894794 -0.33786291 49.908077 -28.838943 -112.4871
22510000000 -31.246603 -62.485222 -0.34152621 49.520298 -0.33880174 49.514751 -29.117231 -114.4144
22540000000 -30.470726 -59.475895 -0.34239498 49.092243 -0.34229526 49.088394 -27.611897 -114.77503
22570000000 -30.539124 -60.759991 -0.33845639 48.686325 -0.33761948 48.697998 -27.974703 -110.73281
22600000000 -30.952837 -64.088966 -0.33838868 48.300804 -0.33630553 48.306637 -29.48407 -114.74702
22630000000 -30.383127 -61.018131 -0.34014922 47.856949 -0.33833832 47.878399 -27.754738 -112.35991
22660000000 -30.023771 -61.051456 -0.33792138 47.465385 -0.33820289 47.462048 -27.570103 -106.82459
22690000000 -30.114014 -64.8974 -0.33769026 47.068356 -0.3375473 47.079258 -28.661232 -115.79869
22720000000 -29.942165 -62.493275 -0.33770818 46.636379 -0.33620793 46.650917 -27.762627 -112.22415
22750000000 -29.964533 -61.40448 -0.33649236 46.21048 -0.3340987 46.22908 -27.572065 -104.18158
22780000000 -29.758787 -64.543365 -0.33790153 45.828999 -0.33491871 45.834381 -28.119839 -113.49522
22810000000 -29.394684 -64.391342 -0.3369405 45.406475 -0.33401874 45.411213 -27.317848 -113.73014
22840000000 -29.641842 -63.940331 -0.3344982 44.970695 -0.33286655 44.979362 -27.721212 -105.74516
22870000000 -29.571648 -64.635307 -0.33285064 44.576126 -0.33405313 44.575378 -28.066629 -109.99722
22900000000 -28.906303 -63.641975 -0.3372969 44.157032 -0.3337087 44.162304 -26.827316 -111.70281
22930000000 -29.055611 -64.697266 -0.33436146 43.741539 -0.33307505 43.734779 -27.515612 -108.57069
22960000000 -29.306841 -65.663246 -0.33135679 43.328369 -0.33240321 43.320797 -28.133747 -109.93411
22990000000 -28.889431 -63.094856 -0.33532053 42.913094 -0.3354598 42.914494 -26.769375 -110.41073
23020000000 -28.687117 -64.848778 -0.3351905 42.489384 -0.33373806 42.505871 -27.005251 -105.89822
23050000000 -28.82571 -67.584869 -0.33567065 42.084599 -0.33247894 42.097214 -27.643774 -114.32853
23080000000 -28.902079 -64.272041 -0.33462456 41.661789 -0.3342765 41.656464 -26.894537 -111.25613
23110000000 -28.75215 -64.084045 -0.33596236 41.252644 -0.33615926 41.248039 -26.765503 -104.22672
23140000000 -28.65127 -66.693565 -0.33548105 40.865471 -0.33317736 40.869045 -27.176239 -114.37448
23170000000 -28.585114 -65.810478 -0.33338585 40.46825 -0.33133388 40.452496 -26.581396 -113.05894
23200000000 -28.725475 -64.373367 -0.33046594 40.028076 -0.33136994 40.032116 -26.982347 -105.88538
23230000000 -28.461254 -64.651878 -0.33134535 39.619907 -0.33078828 39.637249 -27.210426 -112.0908
23260000000 -27.896557 -64.30925 -0.32914883 39.229279 -0.328816 39.230686 -25.859762 -113.64577
23290000000 -27.956867 -65.76712 -0.32825005 38.766911 -0.32788014 38.78228 -27.086365 -109.98264
23320000000 -28.091654 -65.221596 -0.32680747 38.326843 -0.32788795 38.351883 -27.260496 -110.40813
23350000000 -27.640373 -63.220001 -0.33052403 37.950924 -0.32883692 37.961964 -26.041655 -113.43414
23380000000 -27.612877 -65.80867 -0.33134982 37.529377 -0.32764846 37.531826 -26.502678 -109.72224
23410000000 -27.869696 -68.002815 -0.32669276 37.089523 -0.32486293 37.093948 -27.377966 -114.41376
23440000000 -27.693548 -65.785004 -0.32920802 36.69463 -0.33093297 36.692593 -26.066587 -112.92456
23470000000 -27.345934 -65.891853 -0.33178678 36.27739 -0.33062541 36.292942 -26.48353 -107.47748
23500000000 -27.392769 -68.081535 -0.32784107 35.876431 -0.32859123 35.872585 -26.843269 -117.72573
23530000000 -27.468416 -66.8563 -0.32758033 35.463703 -0.32920942 35.459976 -26.155844 -115.30146
23560000000 -27.545425 -66.310471 -0.33258095 35.041393 -0.3294549 35.049191 -26.643503 -108.19852
23590000000 -27.250767 -66.840958 -0.32878417 34.633255 -0.32682672 34.647747 -26.628139 -115.99097
23620000000 -27.027416 -66.723701 -0.32481605 34.228909 -0.32513016 34.245213 -26.108398 -117.14216
23650000000 -27.319883 -67.942055 -0.32678011 33.800304 -0.32494244 33.795769 -26.8563 -110.2704
23680000000 -27.297087 -67.249756 -0.32462972 33.36071 -0.32363397 33.37225 -26.959017 -115.52641
23710000000 -26.691828 -64.87838 -0.32596806 32.978104 -0.32295576 32.979477 -26.054195 -114.10303
23740000000 -26.920942 -67.052681 -0.32467991 32.527184 -0.32346943 32.536766 -26.632935 -114.2009
23770000000 -27.085657 -68.020607 -0.32333726 32.08934 -0.32159522 32.099815 -27.424559 -116.92466
23800000000 -26.839407 -64.875763 -0.32724372 31.69047 -0.32592925 31.697046 -26.255136 -114.85912
23830000000 -26.605902 -66.725563 -0.32635564 31.287485 -0.32699308 31.289633 -26.404022 -109.84263
23860000000 -26.609407 -68.158546 -0.32549623 30.851467 -0.3241466 30.857336 -27.243055 -121.86902
23890000000 -26.609449 -66.637978 -0.32724732 30.432978 -0.32700256 30.460732 -26.575815 -113.64966
23920000000 -26.588572 -66.334915 -0.32986906 30.023453 -0.32947108 30.050589 -27.18762 -110.60987
23950000000 -26.285364 -66.633278 -0.32661098 29.614481 -0.32824475 29.629795 -26.498579 -118.91374
23980000000 -26.258522 -67.703484 -0.32794854 29.203478 -0.32792452 29.214758 -26.992123 -117.3942
24010000000 -26.401396 -68.239799 -0.32980651 28.794138 -0.32858369 28.789398 -27.026209 -112.39237
24040000000 -26.209202 -67.872437 -0.32713988 28.373575 -0.32700759 28.38195 -27.184427 -116.70725
24070000000 -25.78364 -67.366684 -0.3260816 27.9932 -0.32573393 28.001745 -26.498257 -117.58182
24100000000 -25.938478 -69.732346 -0.32642514 27.549812 -0.32519853 27.580553 -27.290318 -115.64039
24130000000 -25.994831 -69.94252 -0.32637212 27.151279 -0.32514665 27.149143 -27.491898 -115.97558
24160000000 -25.816311 -67.708824 -0.32523116 26.743801 -0.32607046 26.756645 -26.756186 -117.65561
24190000000 -25.662594 -70.094772 -0.32302269 26.329372 -0.32330182 26.3552 -27.244204 -112.19015
24220000000 -25.743961 -71.153122 -0.32207611 25.88953 -0.32110938 25.899548 -27.906969 -120.17697
24250000000 -25.798441 -69.332741 -0.32255733 25.493029 -0.32179177 25.512335 -27.148479 -116.97415
24280000000 -25.775314 -69.714172 -0.32453626 25.082178 -0.32249737 25.102491 -27.726751 -108.30417
24310000000 -25.481886 -70.756462 -0.31777322 24.639965 -0.318003 24.652819 -27.546663 -120.21217
24340000000 -25.501303 -70.679077 -0.32034156 24.239254 -0.31932953 24.241568 -27.515915 -117.14366
24370000000 -25.701777 -71.881996 -0.3237974 23.812712 -0.3199414 23.83139 -28.31793 -110.67637
24400000000 -25.439899 -71.391556 -0.3191008 23.389706 -0.31846118 23.398424 -27.904455 -114.54483
24430000000 -25.264549 -70.988152 -0.3163071 22.966328 -0.31878406 22.980825 -27.403313 -118.80025
24460000000 -25.485109 -73.150757 -0.32201114 22.552637 -0.32390088 22.564909 -28.312548 -110.50902
24490000000 -25.550234 -72.724258 -0.32020447 22.120392 -0.32148764 22.153517 -28.683838 -111.85935
24520000000 -25.380163 -71.589401 -0.32022592 21.739532 -0.32016796 21.732166 -27.472561 -115.59277
24550000000 -25.230833 -73.889359 -0.32222664 21.307278 -0.3199676 21.31358 -28.340454 -108.20768
24580000000 -25.372419 -74.615685 -0.32252887 20.881723 -0.32239032 20.883661 -28.707478 -116.18641
24610000000 -25.354023 -72.717369 -0.32432315 20.496153 -0.32345632 20.508318 -28.10741 -109.67741
24640000000 -25.227581 -73.858719 -0.3217296 20.085072 -0.31956944 20.093424 -27.908869 -106.78683
24670000000 -25.153612 -74.7892 -0.31985056 19.650272 -0.3192156 19.66062 -28.849443 -113.67589
24700000000 -25.194092 -74.590805 -0.32078189 19.245081 -0.32037389 19.243176 -28.314762 -111.51588
24730000000 -25.270617 -75.025696 -0.321879 18.850723 -0.31858292 18.857903 -28.4412 -104.38972
24760000000 -24.984453 -75.02446 -0.31734517 18.405884 -0.31572554 18.406616 -28.378061 -108.47947
24790000000 -25.001091 -75.159386 -0.31583717 17.97941 -0.31593657 17.994406 -28.198605 -113.43359
24820000000 -25.121592 -77.429489 -0.32018661 17.585432 -0.31993473 17.578197 -28.526554 -101.481
24850000000 -25.017014 -76.423462 -0.31678239 17.156008 -0.31710568 17.175058 -28.660032 -105.51469
24880000000 -24.813807 -75.810524 -0.31342256 16.724108 -0.3139607 16.744068 -27.842049 -109.85535
24910000000 -24.91231 -77.87101 -0.31742093 16.321341 -0.31833363 16.323788 -28.567154 -103.06641
24940000000 -24.989462 -77.666016 -0.31797487 15.893352 -0.31821996 15.895164 -29.211401 -104.97279
24970000000 -24.83605 -76.808212 -0.31677264 15.48844 -0.31573722 15.494544 -27.620571 -106.02063
25000000000 -24.81205 -78.251846 -0.32040566 15.058925 -0.31749249 15.069827 -28.521013 -101.62405
25030000000 -24.775454 -79.036079 -0.31817067 14.626163 -0.31796345 14.642962 -28.763649 -105.37716
25060000000 -24.83116 -78.544945 -0.31858069 14.224929 -0.31833389 14.240334 -28.228834 -102.65581
25090000000 -24.730038 -79.799362 -0.31968674 13.837667 -0.31860855 13.833308 -28.277954 -100.1314
25120000000 -24.580465 -79.909515 -0.31824699 13.405272 -0.31795314 13.412848 -28.43889 -101.72076
25150000000 -24.619396 -80.571724 -0.31881136 12.995522 -0.32005677 12.987454 -28.211056 -105.07814
25180000000 -24.609718 -81.607719 -0.32056341 12.590894 -0.31846341 12.603355 -28.152407 -96.982231
25210000000 -24.500072 -80.818893 -0.31555015 12.177934 -0.31750029 12.169096 -28.57453 -101.88517
25240000000 -24.433271 -82.109184 -0.31374589 11.762386 -0.31368828 11.761572 -27.328409 -102.00349
25270000000 -24.499109 -83.43306 -0.31534082 11.324763 -0.3144449 11.329428 -28.71977 -100.90835
25300000000 -24.569494 -82.932823 -0.31392035 10.925095 -0.31324756 10.929362 -28.072147 -97.490791
25330000000 -24.430006 -83.019646 -0.31140807 10.492551 -0.31316632 10.51934 -27.55924 -103.05768
25360000000 -24.394236 -85.268845 -0.31257346 10.088843 -0.31283051 10.085298 -27.736652 -99.943794
25390000000 -24.38727 -85.359146 -0.31297714 9.6654577 -0.31048599 9.6667528 -28.326162 -99.622078
25420000000 -24.411514 -84.719376 -0.31102931 9.2399349 -0.3102338 9.2530193 -27.713915 -101.31211
25450000000 -24.307014 -85.373421 -0.30967805 8.8256302 -0.30941647 8.830513 -27.207268 -97.097549
25480000000 -24.318609 -85.633728 -0.31087276 8.4000463 -0.31141141 8.3939934 -28.589672 -103.24445
25510000000 -24.386084 -86.14695 -0.31016067 7.9772649 -0.30809492 7.9630656 -27.290522 -102.04082
25540000000 -24.34547 -86.581482 -0.3090657 7.568141 -0.3117671 7.5776501 -27.719294 -95.022827
25570000000 -24.224669 -85.82988 -0.3116923 7.1271043 -0.3092486 7.1302204 -28.124628 -103.68534
25600000000 -24.221825 -87.653625 -0.30919465 6.7045355 -0.31043592 6.7129178 -27.264256 -102.27992
25630000000 -24.31464 -88.547066 -0.31226778 6.2923317 -0.30970141 6.3057156 -28.009056 -98.041946
25660000000 -24.182442 -87.567932 -0.3132036 5.8641739 -0.31044343 5.8664012 -27.696886 -99.867386
25690000000 -24.115639 -87.652908 -0.31114471 5.4529276 -0.31154072 5.4500031 -27.780352 -102.16312
25720000000 -24.044479 -89.313377 -0.31333047 5.033658 -0.31148064 5.0218554 -27.501978 -100.39183
25750000000 -24.203856 -88.660995 -0.31201911 4.6110301 -0.30958521 4.6077151 -28.009699 -98.878479
25780000000 -24.096748 -87.987404 -0.31318301 4.1884842 -0.31182608 4.1861305 -28.10759 -104.55866
25810000000 -23.879124 -89.261314 -0.3125284 3.7857971 -0.31038281 3.7953744 -26.822159 -97.207703
25840000000 -23.975405 -89.989395 -0.31346011 3.3599713 -0.31415132 3.3609078 -28.581993 -102.98181
25870000000 -24.055521 -89.729294 -0.31488353 2.9189174 -0.31356001 2.9330964 -27.447355 -103.95583
25900000000 -23.866898 -89.910988 -0.3155123 2.5213451 -0.31521362 2.5185089 -27.592978 -95.058655
25930000000 -23.777573 -90.317764 -0.31779355 2.0928333 -0.31661698 2.0973349 -27.822475 -102.38258
25960000000 -23.726643 -91.710007 -0.31809768 1.6876684 -0.31711736 1.6893752 -27.33802 -103.66649
25990000000 -23.842152 -91.396378 -0.3194432 1.2389021 -0.31608188 1.26388 -28.159918 -98.778137
26020000000 -23.683184 -90.020859 -0.31551898 0.8545168 -0.31672588 0.8444249 -27.617722 -96.803352
26050000000 -23.554321 -90.642105 -0.32068768 0.41516986 -0.32003561 0.42425582 -27.659763 -106.74041
26080000000 -23.684582 -92.702904 -0.3187924 0.0013533363 -0.31644604 0.014951743 -27.362253 -98.771927
26110000000 -23.782001 -91.870926 -0.32107538 -0.41070732 -0.31849685 -0.39554471 -28.807552 -98.033905
26140000000 -23.450788 -90.655365 -0.32186034 -0.84508193 -0.32046056 -0.8329215 -27.297817 -102.35111
26170000000 -23.429922 -92.660583 -0.31958753 -1.2328883 -0.31752369 -1.2486987 -27.000864 -99.760544
26200000000 -23.477295 -92.956085 -0.32143161 -1.6480198 -0.31818405 -1.6550657 -29.107607 -102.30936
26230000000 -23.557608 -91.934319 -0.32096139 -2.0803049 -0.3224048 -2.0822592 -27.408363 -101.28754
26260000000 -23.258217 -92.597565 -0.32319307 -2.5001285 -0.32324523 -2.4744787 -27.237835 -96.920189
26290000000 -23.257324 -93.283775 -0.32497004 -2.9066525 -0.3223775 -2.8902884 -28.328024 -102.67049
26320000000 -23.339512 -93.840172 -0.32185057 -3.3358786 -0.31846341 -3.3187821 -27.645491 -101.9118
26350000000 -23.327631 -93.056404 -0.32287043 -3.7695062 -0.32282582 -3.7418666 -27.805056 -96.027489
26380000000 -23.149912 -92.772224 -0.32398483 -4.1639638 -0.32542089 -4.1651344 -27.81753 -99.335564
26410000000 -23.103346 -94.180458 -0.32536146 -4.5758286 -0.32417727 -4.5620537 -27.678726 -103.28478
26440000000 -23.187757 -94.665421 -0.32331941 -4.9973764 -0.32356927 -4.9953017 -27.808683 -97.631279
26470000000 -23.272911 -93.501785 -0.32655016 -5.4350595 -0.32493824 -5.4221516 -28.371756 -94.955246
26500000000 -22.905127 -93.104683 -0.32825062 -5.8452582 -0.32937139 -5.8211651 -27.589169 -102.84158
26530000000 -22.905504 -95.62088 -0.32601491 -6.2536893 -0.32518959 -6.230021 -26.89753 -100.10551
26560000000 -23.277573 -95.650291 -0.32482973 -6.6449938 -0.32492456 -6.6671538 -29.251194 -94.56707
26590000000 -23.009367 -93.971977 -0.33059332 -7.0578575 -0.32803592 -7.0688148 -26.640778 -100.76984
26620000000 -22.849495 -94.680084 -0.33412385 -7.4867959 -0.32902429 -7.504405 -27.433908 -94.853386
26650000000 -22.796444 -95.33831 -0.33092964 -7.8730779 -0.32921669 -7.9061027 -28.47616 -98.160927
26680000000 -22.867359 -94.774132 -0.33150625 -8.3359823 -0.32631406 -8.3244896 -27.573643 -100.27222
26710000000 -22.790327 -94.77211 -0.32934374 -8.7433453 -0.32831901 -8.7471962 -27.475859 -91.20121
26740000000 -22.500696 -95.086418 -0.33439782 -9.1536779 -0.33554676 -9.1047573 -27.730589 -97.811317
26770000000 -22.674454 -96.304344 -0.332598 -9.5673246 -0.3354665 -9.5271702 -27.789026 -99.229477
26800000000 -22.81189 -95.480026 -0.34060836 -9.9620981 -0.3326374 -9.980732 -27.465416 -92.977333
26830000000 -22.648649 -95.051407 -0.33722752 -10.401409 -0.33649993 -10.393093 -27.714109 -91.113251
26860000000 -22.333063 -95.618698 -0.33792362 -10.80649 -0.3409701 -10.80705 -26.977871 -100.79135
26890000000 -22.60619 -96.38092 -0.33723593 -11.234202 -0.33546537 -11.221089 -27.460814 -91.630859
26920000000 -22.639582 -96.375786 -0.34041798 -11.641935 -0.33561724 -11.631818 -28.14332 -91.319748
26950000000 -22.419514 -94.559631 -0.34406045 -12.006096 -0.34021753 -12.014345 -26.671486 -96.653046
26980000000 -22.335962 -96.180908 -0.34280786 -12.447888 -0.340278 -12.423664 -26.922361 -92.777847
27010000000 -22.403534 -97.082359 -0.33518463 -12.862484 -0.33845639 -12.851643 -28.199118 -91.810684
27040000000 -22.411581 -95.961273 -0.34426838 -13.236295 -0.33642805 -13.268433 -26.503942 -94.659698
27070000000 -22.610085 -96.112167 -0.34820381 -13.664141 -0.34497204 -13.662341 -26.59454 -88.068573
27100000000 -22.237389 -96.389305 -0.34519067 -14.049251 -0.34107903 -14.060628 -27.032927 -92.999298
27130000000 -22.367207 -97.295601 -0.34225857 -14.475338 -0.33732235 -14.494099 -26.759596 -95.30526
27160000000 -22.530031 -98.161949 -0.34802291 -14.939128 -0.33834362 -14.901779 -26.403868 -84.59536
27190000000 -22.21048 -96.567268 -0.34658918 -15.311456 -0.34409857 -15.289107 -26.788153 -92.117325
27220000000 -22.100471 -97.435532 -0.34008959 -15.694221 -0.34093425 -15.739234 -26.559191 -95.071968
27250000000 -22.330505 -98.73497 -0.34588748 -16.138206 -0.3476617 -16.124159 -26.586113 -85.359573
27280000000 -22.274071 -97.901878 -0.34755263 -16.557764 -0.34297985 -16.511034 -26.514902 -90.683823
27310000000 -22.142859 -96.902275 -0.34498635 -16.958618 -0.34167969 -16.912458 -26.15793 -89.349739
27340000000 -22.239584 -98.558304 -0.34042162 -17.367821 -0.34387863 -17.368881 -25.830881 -90.501434
27370000000 -22.23834 -99.998848 -0.34429193 -17.74823 -0.33837497 -17.773108 -26.581812 -87.586983
27400000000 -22.298458 -98.241776 -0.34408513 -18.195307 -0.34273475 -18.163481 -25.723745 -90.968742
27430000000 -22.212984 -99.375259 -0.3436867 -18.606503 -0.34719115 -18.557243 -25.758446 -86.381653
27460000000 -22.032797 -99.449753 -0.33984268 -19.021847 -0.33918825 -18.98406 -26.520796 -91.409668
27490000000 -22.152617 -99.339653 -0.34408149 -19.422691 -0.33979872 -19.413742 -25.70364 -90.864319
27520000000 -22.34503 -99.560097 -0.34329277 -19.813036 -0.33703813 -19.768456 -25.608932 -85.698311
27550000000 -22.106503 -100.15184 -0.34676301 -20.207775 -0.34118599 -20.212545 -25.810661 -91.400124
27580000000 -22.134253 -101.14314 -0.34411427 -20.616379 -0.33869568 -20.644207 -25.227783 -89.331993
27610000000 -22.282202 -102.43584 -0.33741161 -21.047554 -0.33566141 -21.042706 -25.553503 -88.861687
27640000000 -22.249786 -101.09441 -0.33437321 -21.448057 -0.33133611 -21.430431 -25.612547 -88.510643
27670000000 -22.155687 -100.88313 -0.33596376 -21.864561 -0.3280158 -21.817183 -24.947945 -90.296234
27700000000 -22.247847 -104.3152 -0.33348033 -22.280504 -0.33123136 -22.29604 -25.098331 -88.316902
27730000000 -22.401625 -104.04138 -0.32855156 -22.714411 -0.3262507 -22.697763 -26.209316 -88.120918
27760000000 -22.593239 -102.03793 -0.32910192 -23.132866 -0.3304922 -23.091497 -24.603312 -86.990524
27790000000 -22.379942 -105.16492 -0.33350688 -23.569708 -0.32894331 -23.542685 -25.204947 -89.355408
27820000000 -22.514875 -104.32861 -0.3348133 -23.996338 -0.32529172 -23.986414 -25.451414 -89.600792
27850000000 -22.646196 -104.9882 -0.33214334 -24.447182 -0.32937336 -24.359625 -25.038145 -89.919289
27880000000 -22.635677 -105.10225 -0.32329458 -24.826605 -0.32992408 -24.828718 -25.122252 -83.71386
27910000000 -22.508795 -105.60388 -0.32933062 -25.238905 -0.32150909 -25.255503 -24.944134 -92.026535
27940000000 -22.936161 -105.67046 -0.32526243 -25.651939 -0.33179405 -25.6206 -24.876938 -89.106445
27970000000 -23.044458 -107.14665 -0.33489439 -26.079777 -0.33325282 -26.043938 -25.002165 -88.463318
28000000000 -22.735388 -106.05309 -0.32874814 -26.482891 -0.32214609 -26.529562 -24.842503 -88.268471
28030000000 -22.833967 -105.81512 -0.31908911 -26.917189 -0.3232519 -26.939787 -24.393267 -92.324699
28060000000 -22.943243 -109.00901 -0.32718566 -27.365101 -0.33478197 -27.348221 -25.269495 -88.466194
28090000000 -22.992216 -108.80315 -0.32611787 -27.73947 -0.32611427 -27.744274 -25.098801 -88.944878
28120000000 -23.146345 -106.92487 -0.32131758 -28.218262 -0.32614273 -28.141388 -24.395424 -89.695534
28150000000 -23.173883 -109.45137 -0.32693139 -28.677202 -0.32720855 -28.593866 -24.993916 -88.172508
28180000000 -23.095318 -109.26363 -0.33138195 -29.025061 -0.32507047 -29.122524 -25.177568 -90.557938
28210000000 -23.279537 -109.01947 -0.32997629 -29.464972 -0.32827714 -29.436527 -24.596972 -87.328697
28240000000 -23.174953 -109.43584 -0.33063912 -29.867485 -0.33188933 -29.929636 -24.584539 -86.808495
28270000000 -23.225351 -108.28015 -0.33466315 -30.296335 -0.33671951 -30.299311 -25.006695 -92.358009
28300000000 -23.615379 -109.08643 -0.33311588 -30.680759 -0.33008859 -30.713675 -24.804115 -88.683022
28330000000 -23.508516 -110.75854 -0.33637404 -31.120647 -0.33788222 -31.140718 -24.785896 -85.988243
28360000000 -23.251194 -108.55833 -0.33889297 -31.603508 -0.33147049 -31.559486 -24.511942 -91.863083
28390000000 -23.509331 -111.74039 -0.33793312 -31.953947 -0.34375477 -31.963757 -24.568821 -87.508873
28420000000 -23.640734 -112.81627 -0.34772116 -32.392109 -0.34469405 -32.368523 -25.007145 -88.134163
28450000000 -23.412331 -111.85322 -0.34751812 -32.747711 -0.34144333 -32.79174 -24.313156 -89.330177
28480000000 -23.595612 -111.16866 -0.34349421 -33.210476 -0.34345835 -33.141991 -24.684141 -88.134926
28510000000 -23.556715 -113.64024 -0.35335431 -33.615406 -0.3428919 -33.612942 -24.597582 -91.024734
28540000000 -23.627781 -111.88647 -0.34541151 -34.03154 -0.33450183 -34.029865 -24.934837 -86.867043
28570000000 -23.699636 -113.26629 -0.34917912 -34.416454 -0.34253222 -34.444107 -24.075665 -89.08136
28600000000 -23.513575 -115.07024 -0.34978005 -34.881351 -0.3434085 -34.857613 -24.421148 -87.177223
28630000000 -23.388199 -113.93467 -0.35204092 -35.323849 -0.34276417 -35.242912 -24.833984 -93.179985
28660000000 -23.966496 -115.24118 -0.34367296 -35.591366 -0.34874487 -35.644524 -23.8081 -84.093765
28690000000 -23.64492 -115.88026 -0.35166422 -36.079632 -0.34130332 -36.079304 -24.795897 -91.723259
28720000000 -23.355295 -115.03704 -0.34910226 -36.544563 -0.34730837 -36.476044 -24.228075 -90.908607
28750000000 -23.578447 -117.44915 -0.35837263 -36.87653 -0.35012686 -36.880653 -24.418318 -88.628334
28780000000 -23.427204 -116.48559 -0.35181805 -37.308628 -0.34784257 -37.306198 -24.345661 -91.382835
28810000000 -23.419661 -115.16594 -0.34867615 -37.696732 -0.34770629 -37.731728 -23.843077 -91.042435
28840000000 -23.50593 -117.46989 -0.35038838 -38.08997 -0.35730869 -38.140427 -24.571159 -89.8769
28870000000 -23.333439 -120.06535 -0.3551181 -38.544144 -0.35317686 -38.486652 -24.591293 -92.838524
28900000000 -23.591 -116.70068 -0.34928402 -38.989014 -0.34254009 -38.902725 -23.962719 -90.121994
28930000000 -23.513025 -119.73573 -0.34811154 -39.38649 -0.34558165 -39.343582 -24.136152 -91.682602
28960000000 -23.03653 -120.9986 -0.34735942 -39.797726 -0.35022956 -39.786137 -24.482174 -92.471649
28990000000 -23.413067 -119.94452 -0.34164551 -40.164783 -0.35118735 -40.142941 -24.070206 -91.229332
29020000000 -23.670145 -121.38201 -0.35312042 -40.631351 -0.34923241 -40.517483 -24.278965 -91.999023
29050000000 -23.111967 -120.90926 -0.35154605 -40.97049 -0.34103954 -40.987381 -24.337959 -94.688385
29080000000 -23.358297 -120.64166 -0.34490845 -41.369339 -0.34406465 -41.440704 -23.643265 -93.726471
29110000000 -23.65708 -125.65532 -0.33623785 -41.765694 -0.33924228 -41.722713 -24.467127 -87.751488
29140000000 -23.231804 -123.16592 -0.34324038 -42.215557 -0.3413313 -42.223251 -24.014681 -97.336586
29170000000 -23.110725 -121.90811 -0.34415796 -42.659309 -0.34793991 -42.652355 -23.892563 -93.463333
29200000000 -23.293951 -124.69457 -0.34142262 -43.036224 -0.34169957 -43.040394 -24.280811 -94.246269
29230000000 -22.979317 -126.37047 -0.34058931 -43.438885 -0.34228072 -43.397564 -24.615641 -96.869728
29260000000 -23.194431 -122.02 -0.33917174 -43.901108 -0.33783102 -43.900166 -23.651098 -93.790207
29290000000 -23.11347 -126.02739 -0.34448949 -44.277672 -0.34021193 -44.290188 -24.695305 -95.328369
29320000000 -22.823166 -126.00147 -0.33682525 -44.675987 -0.33484629 -44.716244 -24.236032 -96.82196
29350000000 -23.174683 -125.40092 -0.33511081 -45.154694 -0.33267987 -45.154366 -23.573399 -94.731522
29380000000 -23.442453 -125.51104 -0.3271594 -45.518333 -0.32921976 -45.558537 -24.785921 -93.314682
29410000000 -22.751877 -125.91801 -0.33707029 -46.01305 -0.33696848 -45.912815 -23.751444 -99.222618
29440000000 -23.210709 -125.74533 -0.33700708 -46.370358 -0.33160907 -46.397976 -24.283258 -94.790039
29470000000 -23.336508 -129.59962 -0.32874003 -46.83506 -0.32830393 -46.826653 -24.126959 -95.48465
29500000000 -23.037764 -126.34982 -0.34035078 -47.249542 -0.33683085 -47.211834 -24.36692 -98.947495
29530000000 -23.086115 -125.98489 -0.33426586 -47.669735 -0.33613268 -47.694721 -23.758554 -95.375893
29560000000 -23.113359 -130.32048 -0.32730594 -48.110649 -0.32803425 -48.075817 -24.740597 -97.331116
29590000000 -22.885351 -128.10167 -0.33593073 -48.458641 -0.3351877 -48.522839 -23.976686 -99.107529
29620000000 -23.278517 -127.51154 -0.33399022 -48.93388 -0.33351949 -48.908405 -24.0224 -92.522903
29650000000 -23.029005 -129.61057 -0.32273996 -49.359177 -0.33612987 -49.333858 -24.45182 -98.737656
29680000000 -22.590162 -128.53671 -0.32998553 -49.743729 -0.33097601 -49.738514 -23.879751 -98.594498
29710000000 -23.254128 -127.52918 -0.33538821 -50.186047 -0.33328608 -50.218575 -24.045065 -94.953293
29740000000 -23.097763 -131.10693 -0.33487061 -50.630989 -0.33641517 -50.620388 -24.118174 -96.705231
29770000000 -22.660263 -127.91424 -0.33821967 -50.996849 -0.32817411 -50.94025 -23.845819 -99.632835
29800000000 -23.07737 -128.95789 -0.33143473 -51.435276 -0.33688596 -51.373039 -24.068979 -97.94709
29830000000 -23.034645 -131.7234 -0.32686079 -51.825378 -0.32233986 -51.85107 -24.062237 -96.257126
29860000000 -22.853315 -128.57912 -0.33386022 -52.235123 -0.32914492 -52.282917 -23.529804 -100.34108
29890000000 -23.18465 -129.84589 -0.32867137 -52.694397 -0.32729787 -52.659237 -23.898649 -95.510475
29920000000 -23.041697 -132.50296 -0.3253662 -53.084469 -0.32636067 -53.111767 -24.256273 -98.378654
29950000000 -23.005489 -129.01385 -0.33355191 -53.555439 -0.33113077 -53.484512 -23.449171 -98.951645
29980000000 -23.528887 -128.74449 -0.33528531 -53.946659 -0.32820064 -53.944725 -23.626518 -93.154945
30010000000 -22.946033 -131.00514 -0.32400155 -54.367767 -0.32174855 -54.37751 -24.006994 -101.63109
30040000000 -23.043919 -130.25108 -0.33561191 -54.736427 -0.33143726 -54.77898 -23.754623 -100.13516
30070000000 -23.604889 -128.75893 -0.3293415 -55.214424 -0.32845077 -55.190891 -23.715185 -93.865128
30100000000 -23.425774 -130.68692 -0.32315403 -55.712902 -0.32835975 -55.613461 -24.051451 -98.858116
30130000000 -23.197792 -129.01003 -0.32777184 -56.087292 -0.32632941 -56.02623 -23.373556 -100.96424
30160000000 -23.980101 -129.96768 -0.33621156 -56.514908 -0.3318477 -56.51738 -24.060488 -97.323662
30190000000 -23.698122 -130.69656 -0.33007154 -56.96489 -0.33249626 -56.948997 -23.990501 -94.869392
30220000000 -23.495991 -127.35664 -0.32707959 -57.327629 -0.32647452 -57.341991 -23.428085 -100.5724
30250000000 -24.114859 -128.57202 -0.33090448 -57.748856 -0.34041768 -57.755096 -23.513361 -94.893021
30280000000 -23.853973 -132.79308 -0.33101708 -58.206383 -0.32792145 -58.241146 -24.342104 -99.400841
30310000000 -23.88644 -126.21017 -0.33408192 -58.59948 -0.32701176 -58.588688 -23.339867 -95.175011
30340000000 -24.289425 -126.90076 -0.33953002 -59.03862 -0.32963836 -59.024166 -23.060307 -97.269875
30370000000 -23.972506 -130.37254 -0.340395 -59.540516 -0.33679447 -59.463879 -24.10614 -97.627975
30400000000 -23.958824 -126.34536 -0.33614385 -59.935478 -0.33860642 -59.866997 -23.509068 -98.828384
30430000000 -24.880548 -126.79159 -0.34199727 -60.284908 -0.34441522 -60.278816 -23.000477 -93.119278
30460000000 -24.161943 -129.3847 -0.34614259 -60.759689 -0.34204376 -60.695801 -23.962177 -100.13684
30490000000 -24.191753 -126.4234 -0.3472966 -61.180824 -0.33755431 -61.101963 -22.688295 -99.187424
30520000000 -25.260965 -127.87711 -0.3505663 -61.491428 -0.35018635 -61.478451 -23.79711 -93.928383
30550000000 -24.617247 -127.79638 -0.35015491 -61.971508 -0.35209203 -61.946526 -23.364578 -96.656204
30580000000 -24.554489 -124.58765 -0.35122523 -62.375824 -0.34227568 -62.299374 -22.568165 -98.910683
30610000000 -24.966246 -127.44618 -0.35545045 -62.828125 -0.35028455 -62.769413 -23.261717 -98.431152
30640000000 -24.731028 -128.38945 -0.35244629 -63.136406 -0.35586345 -63.192562 -23.817211 -95.335312
30670000000 -24.792908 -124.08556 -0.34847337 -63.576092 -0.34868541 -63.57542 -22.38891 -98.109093
30700000000 -25.415298 -124.95149 -0.35503328 -63.958385 -0.35604185 -63.964256 -22.95948 -97.355232
30730000000 -24.927132 -127.5982 -0.36080363 -64.449883 -0.36000824 -64.425278 -23.403664 -100.61269
30760000000 -25.04846 -123.09962 -0.35368288 -64.874908 -0.34284988 -64.804794 -23.110312 -96.914337
30790000000 -25.690781 -124.39581 -0.35013753 -65.248665 -0.3456223 -65.149475 -21.998898 -95.855019
30820000000 -25.23074 -128.02444 -0.35686126 -65.704475 -0.36391631 -65.655434 -24.153748 -103.48167
30850000000 -25.362303 -124.13007 -0.35204148 -66.046272 -0.35010019 -66.014603 -22.085161 -97.094345
30880000000 -26.308125 -126.46933 -0.35842603 -66.381027 -0.36163715 -66.415726 -23.477865 -95.14975
30910000000 -25.686842 -128.73062 -0.36979434 -66.85955 -0.36099464 -66.884666 -22.68145 -102.90095
30940000000 -25.789221 -123.47137 -0.35431504 -67.29142 -0.3510372 -67.292084 -23.098562 -100.60834
30970000000 -26.251917 -127.23351 -0.35833663 -67.670425 -0.36649042 -67.584427 -22.687286 -96.860703
31000000000 -25.920555 -126.16671 -0.36247337 -68.107468 -0.35426813 -67.982811 -22.889269 -101.11766
31030000000 -26.483295 -122.69143 -0.35298452 -68.42057 -0.34953457 -68.498665 -22.773426 -99.080246
31060000000 -26.698448 -128.80885 -0.36059859 -68.888382 -0.35787675 -68.840233 -22.504694 -98.093437
31090000000 -26.250662 -129.44449 -0.36958379 -69.335625 -0.35598624 -69.329018 -23.070585 -103.58044
31120000000 -26.545313 -125.3481 -0.35574684 -69.710571 -0.35065386 -69.74073 -22.979486 -100.8546
31150000000 -27.565727 -129.40273 -0.35404289 -70.086578 -0.35438666 -70.061531 -22.10317 -97.481766
31180000000 -26.45965 -130.2753 -0.36047006 -70.563042 -0.36163321 -70.589821 -23.493876 -106.06049
31210000000 -27.249758 -128.3311 -0.3521198 -70.958794 -0.35643721 -70.961082 -22.250347 -101.75522
31240000000 -27.88451 -128.38747 -0.34777528 -71.307655 -0.35488299 -71.314842 -22.933165 -96.562538
31270000000 -26.959124 -131.70793 -0.36359346 -71.748802 -0.36313778 -71.791588 -22.740376 -107.25264
31300000000 -27.833466 -126.19787 -0.36027655 -72.131966 -0.34715357 -72.195229 -22.66571 -99.264244
31330000000 -28.366419 -132.68764 -0.36677939 -72.527496 -0.3598232 -72.564972 -23.182983 -104.38416
31360000000 -27.709862 -132.50737 -0.36480448 -73.007309 -0.35956362 -72.981178 -23.036968 -101.05144
31390000000 -28.092545 -129.90987 -0.35897481 -73.444839 -0.35163811 -73.450989 -22.469728 -106.91906
31420000000 -28.389137 -135.87163 -0.36493683 -73.798103 -0.35711026 -73.753159 -23.138626 -101.68253
31450000000 -27.871367 -132.28917 -0.3553701 -74.288239 -0.358358 -74.258232 -22.622732 -105.38831
31480000000 -28.503614 -132.39706 -0.3501204 -74.64238 -0.35595194 -74.597534 -23.245922 -106.18969
31510000000 -28.764048 -136.93443 -0.35316533 -75.034157 -0.34454972 -75.060371 -22.410486 -101.81499
31540000000 -28.066235 -135.33418 -0.3607921 -75.464943 -0.35869816 -75.525513 -23.149237 -109.11964
31570000000 -29.012959 -135.89276 -0.34754393 -75.805069 -0.35823599 -75.899887 -23.133469 -106.12269
31600000000 -29.113836 -140.57903 -0.35326755 -76.284363 -0.36210337 -76.292427 -22.870604 -104.41963
31630000000 -28.333271 -136.4258 -0.35372779 -76.738327 -0.35702905 -76.744415 -23.380873 -107.69942
31660000000 -29.02622 -137.82176 -0.35129651 -77.147675 -0.35752285 -77.20256 -22.691814 -108.94833
31690000000 -29.257631 -144.94302 -0.35272986 -77.525475 -0.35070828 -77.444366 -23.809849 -106.53055
31720000000 -28.451618 -138.78368 -0.3472209 -78.051193 -0.34647506 -77.921761 -22.985765 -105.73946
31750000000 -29.226902 -139.73531 -0.34545946 -78.469368 -0.35660189 -78.328209 -23.069313 -110.33212
31780000000 -29.269201 -143.53171 -0.34323984 -78.848503 -0.34989902 -78.799393 -23.258848 -107.40424
31810000000 -28.809736 -144.10756 -0.35317349 -79.231766 -0.36019892 -79.218941 -23.558651 -107.18273
31840000000 -29.672001 -143.19969 -0.35531783 -79.682938 -0.35521895 -79.645164 -23.168663 -112.84294
31870000000 -29.60358 -146.93492 -0.35128978 -80.025108 -0.34840238 -80.057617 -23.296879 -103.18842
31900000000 -29.538351 -141.9604 -0.35280004 -80.468483 -0.35277423 -80.433365 -23.663647 -109.58998
31930000000 -30.121592 -146.05658 -0.34626818 -80.946236 -0.34826466 -80.922668 -23.299902 -109.5964
31960000000 -29.858826 -147.24892 -0.35046807 -81.280891 -0.34046948 -81.379395 -23.874355 -104.68886
31990000000 -29.081646 -144.96149 -0.36153054 -81.771965 -0.35700065 -81.727692 -23.221851 -108.23499
32020000000 -30.323349 -143.28398 -0.35414007 -82.14753 -0.35374379 -82.172256 -23.807388 -107.88364
32050000000 -29.947481 -149.85811 -0.34952223 -82.546745 -0.35507289 -82.551605 -23.885881 -107.52644
32080000000 -29.492058 -143.48776 -0.35656479 -83.001053 -0.35889301 -83.001816 -23.466267 -105.71979
32110000000 -29.899841 -143.95596 -0.3649112 -83.381836 -0.35169312 -83.485176 -23.408701 -111.61678
32140000000 -30.088924 -149.98415 -0.35855845 -83.872894 -0.34287229 -83.808205 -23.549011 -104.62734
32170000000 -29.613071 -144.80682 -0.35996464 -84.260612 -0.35523918 -84.225792 -24.002701 -109.54027
32200000000 -30.109833 -144.1237 -0.35585275 -84.72094 -0.35517907 -84.656952 -23.470459 -106.39341
32230000000 -29.50387 -147.13075 -0.35220599 -85.11422 -0.35298592 -85.105293 -23.30752 -104.59126
32260000000 -29.577272 -145.18591 -0.35864812 -85.501526 -0.35286379 -85.52346 -24.022959 -112.1198
32290000000 -30.344135 -141.26758 -0.35543892 -85.984444 -0.3634347 -85.94091 -23.337353 -103.22887
32320000000 -29.570246 -147.27283 -0.35119772 -86.295853 -0.35847691 -86.321762 -23.55854 -109.27662
32350000000 -29.402918 -141.67616 -0.35342479 -86.700188 -0.35661903 -86.745216 -23.313814 -106.83408
32380000000 -29.884674 -140.81772 -0.35457233 -87.214813 -0.35184219 -87.213806 -23.82526 -106.04778
32410000000 -29.967134 -143.72568 -0.36249954 -87.593567 -0.35591599 -87.531891 -23.388542 -105.9715
32440000000 -29.492252 -140.56793 -0.3608506 -87.991142 -0.36385551 -88.001152 -23.712397 -101.23339
32470000000 -30.035797 -141.82326 -0.3537851 -88.405296 -0.34401619 -88.417442 -23.359669 -111.48759
32500000000 -29.968565 -147.53093 -0.36198208 -88.858154 -0.35609666 -88.811874 -23.281153 -103.91886
32530000000 -29.431252 -137.19543 -0.36147174 -89.291161 -0.35994047 -89.274872 -23.770384 -105.1948
32560000000 -29.989857 -138.35278 -0.35407156 -89.678375 -0.3598125 -89.652519 -23.012207 -107.24907
32590000000 -30.147196 -140.45378 -0.35749307 -90.12101 -0.35388225 -90.077736 -23.394476 -105.81709
32620000000 -29.424854 -139.55121 -0.35819241 -90.602913 -0.36217454 -90.492424 -23.683947 -106.41042
32650000000 -30.617029 -134.02856 -0.3671822 -90.887512 -0.37128565 -90.95034 -23.166523 -104.37148
32680000000 -29.749821 -141.0858 -0.36803639 -91.315918 -0.35562968 -91.270683 -23.193346 -106.64684
32710000000 -29.653059 -134.86694 -0.36522627 -91.730377 -0.36201248 -91.802422 -23.381109 -106.13182
32740000000 -29.868141 -134.51434 -0.36197141 -92.185944 -0.36223027 -92.160484 -24.091858 -105.96903
32770000000 -29.909344 -133.34286 -0.35499001 -92.593109 -0.36545125 -92.548096 -22.414162 -105.79736
32800000000 -29.821857 -131.35292 -0.35837626 -92.985992 -0.37686056 -93.024689 -23.61972 -104.76133
32830000000 -29.999256 -130.60719 -0.36124498 -93.425636 -0.37072739 -93.41642 -23.528566 -110.11066
32860000000 -30.390818 -133.81081 -0.3653141 -93.728889 -0.3673611 -93.759148 -22.913437 -101.9786
32890000000 -29.776073 -124.07565 -0.36327597 -94.235283 -0.35443583 -94.177551 -23.199135 -104.97291
32920000000 -29.923159 -124.339 -0.37151462 -94.655136 -0.36376402 -94.62532 -23.503803 -107.6127
32950000000 -30.218794 -127.57877 -0.35366207 -95.062607 -0.35999304 -95.105423 -22.322245 -105.63644
32980000000 -30.411333 -123.54638 -0.37407321 -95.423523 -0.37183806 -95.494606 -23.459785 -102.11882
33010000000 -31.17314 -118.29134 -0.36657745 -95.892853 -0.37907568 -95.838112 -23.213364 -108.96828
33040000000 -30.055935 -124.83391 -0.35942161 -96.275017 -0.35725191 -96.329201 -22.252314 -105.17844
33070000000 -29.98765 -114.61499 -0.36441794 -96.732964 -0.3640002 -96.746529 -23.322348 -102.12601
33100000000 -31.326311 -118.10809 -0.36725461 -97.156815 -0.37434068 -97.048744 -23.004137 -109.59756
33130000000 -30.990812 -115.99696 -0.37112749 -97.487709 -0.37772033 -97.485703 -22.408457 -106.78814
33160000000 -30.17947 -115.62514 -0.36138088 -97.911804 -0.36680502 -97.900215 -23.2225 -99.20961
33190000000 -31.238644 -113.16995 -0.37300795 -98.430649 -0.37720302 -98.436043 -22.653648 -116.97726
33220000000 -30.775967 -108.75272 -0.37286523 -98.642006 -0.36666644 -98.671745 -22.669205 -97.459694
33250000000 -29.809134 -109.66215 -0.35873106 -99.145767 -0.37383536 -99.10907 -22.949703 -110.06895
33280000000 -30.117563 -105.03367 -0.37248275 -99.591255 -0.36582971 -99.548424 -23.085073 -110.03115
33310000000 -31.128197 -109.95101 -0.3624247 -99.98101 -0.35793182 -100.05576 -22.501371 -107.66066
33340000000 -30.002628 -105.76656 -0.36318535 -100.42516 -0.36581507 -100.36395 -23.194681 -105.1437
33370000000 -30.799631 -99.056046 -0.36155444 -100.8132 -0.36132544 -100.83275 -22.845747 -113.84309
33400000000 -30.634428 -104.15876 -0.35115534 -101.25078 -0.36412969 -101.20894 -22.110432 -107.8052
33430000000 -30.666952 -97.476883 -0.36699545 -101.63943 -0.36205301 -101.61623 -23.471024 -106.65085
33460000000 -31.530579 -97.368851 -0.3661423 -102.08829 -0.36015815 -102.07485 -22.873528 -116.96173
33490000000 -30.711214 -90.347572 -0.36078253 -102.37312 -0.36860672 -102.40414 -22.137444 -104.2495
33520000000 -30.067867 -96.013451 -0.35867342 -102.89047 -0.36372602 -102.91347 -23.278111 -108.17319
33550000000 -30.458239 -91.121407 -0.35777611 -103.39568 -0.35673141 -103.30923 -22.774933 -118.96381
33580000000 -30.820656 -84.503494 -0.34676385 -103.61443 -0.35839793 -103.60746 -22.364613 -104.2206
33610000000 -29.943752 -85.69175 -0.34655863 -104.10487 -0.3634519 -104.05099 -23.853235 -111.07582
33640000000 -30.440636 -85.652084 -0.35036817 -104.53697 -0.35879657 -104.51821 -22.448065 -115.15002
33670000000 -31.244076 -87.744431 -0.3564226 -105.00862 -0.35736293 -104.97356 -22.98188 -112.74441
33700000000 -30.204823 -79.774071 -0.35825399 -105.25834 -0.35138214 -105.30367 -23.973829 -107.26177
33730000000 -31.016691 -78.88533 -0.36426085 -105.77059 -0.35674295 -105.84077 -22.646297 -115.75057
33760000000 -30.83695 -78.695984 -0.36028412 -106.22626 -0.35718304 -106.25566 -22.879633 -113.94535
33790000000 -30.372311 -82.093933 -0.37085709 -106.53825 -0.34877908 -106.53569 -24.631136 -106.5303
33820000000 -31.205021 -75.637115 -0.35702762 -107.04848 -0.35536897 -107.06403 -22.620056 -120.06947
33850000000 -30.040449 -79.150681 -0.3430824 -107.45208 -0.33974525 -107.45776 -22.615709 -109.01019
33880000000 -29.842432 -77.147957 -0.35788882 -107.83703 -0.35567015 -107.8279 -24.570776 -116.01317
33910000000 -31.014725 -77.489899 -0.35968709 -108.34737 -0.36412913 -108.31396 -23.180565 -121.70554
33940000000 -31.16795 -65.258705 -0.35049528 -108.70541 -0.35729855 -108.61565 -22.931471 -109.5474
33970000000 -30.407362 -67.46138 -0.36605811 -109.06433 -0.35883313 -109.11041 -25.1075 -115.7197
34000000000 -30.912312 -70.17244 -0.35107145 -109.57545 -0.35201904 -109.59064 -22.617821 -121.05815
34030000000 -31.520744 -66.55188 -0.36976868 -109.92573 -0.35745737 -109.92326 -24.399145 -116.78957
34060000000 -30.672487 -63.964134 -0.35695007 -110.31496 -0.34876508 -110.27421 -24.764498 -110.7233
34090000000 -30.350155 -63.82143 -0.35569739 -110.84899 -0.36044192 -110.82992 -23.064386 -120.58818
34120000000 -30.923414 -65.844986 -0.36138958 -111.29544 -0.35866135 -111.19535 -23.426924 -117.77794
34150000000 -29.982025 -63.996906 -0.35288736 -111.53555 -0.35444397 -111.45577 -25.964558 -111.58272
34180000000 -30.459038 -61.464935 -0.34920856 -112.04596 -0.34912497 -112.00097 -23.320196 -124.29928
34210000000 -30.553272 -58.294128 -0.35040745 -112.53241 -0.34525427 -112.49183 -22.937603 -111.39008
34240000000 -30.474531 -67.068008 -0.35871196 -112.74894 -0.37386358 -112.73547 -27.402815 -126.16562
34270000000 -30.820713 -56.874512 -0.35896134 -113.35045 -0.36473241 -113.3137 -23.373062 -120.06496
34300000000 -30.565832 -58.737812 -0.35395557 -113.67542 -0.35246876 -113.70707 -24.405262 -110.5427
34330000000 -30.205647 -62.13245 -0.36390758 -114.00088 -0.36783919 -114.07558 -25.654703 -123.2608
34360000000 -31.320921 -55.530117 -0.37077618 -114.56198 -0.36782736 -114.54903 -24.174768 -126.84842
34390000000 -31.141785 -53.580544 -0.35778031 -114.87312 -0.36842299 -114.89233 -24.803337 -111.55966
34420000000 -30.526152 -60.993153 -0.35137457 -115.33257 -0.35452121 -115.29579 -25.739704 -117.67799
34450000000 -31.566528 -57.269779 -0.3687073 -115.80019 -0.37129638 -115.75399 -23.426842 -129.4575
34480000000 -31.50234 -56.664925 -0.36489657 -116.11951 -0.37198159 -116.11345 -25.607338 -113.78275
34510000000 -31.49358 -54.829994 -0.37343615 -116.6186 -0.36702532 -116.50576 -26.406631 -119.39771
34540000000 -30.933887 -51.206116 -0.35864729 -117.02465 -0.36606008 -116.99363 -24.335302 -124.00664
34570000000 -32.004242 -55.868652 -0.3689054 -117.47309 -0.36758053 -117.37357 -25.146959 -115.37518
34600000000 -31.281925 -56.83968 -0.35996914 -117.73757 -0.36881664 -117.68584 -27.926003 -123.43397
34630000000 -32.022038 -49.969234 -0.36384651 -118.21944 -0.36999643 -118.22115 -24.135134 -121.98441
34660000000 -31.168211 -55.720757 -0.36043066 -118.57591 -0.3671298 -118.5971 -25.236155 -106.75874
34690000000 -31.156755 -58.875793 -0.37682047 -118.99184 -0.36576551 -118.99945 -27.622562 -131.42412
34720000000 -32.436859 -49.367626 -0.36897698 -119.43568 -0.35138804 -119.4205 -25.659399 -120.56328
34750000000 -31.854494 -53.184715 -0.35595027 -119.93032 -0.36818573 -119.91862 -24.378569 -109.27705
34780000000 -30.887779 -55.62719 -0.36213937 -120.1749 -0.36481827 -120.2329 -28.362438 -129.15759
34810000000 -32.221104 -48.591599 -0.37845457 -120.69971 -0.37085935 -120.74032 -24.445726 -118.7048
34840000000 -31.96212 -52.772205 -0.36602515 -121.13924 -0.36247367 -121.09158 -26.023504 -109.80839
34870000000 -31.55802 -53.845585 -0.3633545 -121.52983 -0.36455673 -121.43427 -28.811497 -115.96445
34900000000 -32.081257 -50.491035 -0.37251011 -122.04089 -0.37635973 -121.92608 -24.274157 -118.11385
34930000000 -31.702753 -53.514854 -0.35988057 -122.37933 -0.37019855 -122.38071 -26.564121 -107.16501
34960000000 -31.344234 -54.185432 -0.35070828 -122.7589 -0.36398667 -122.68454 -28.162201 -116.98819
34990000000 -32.003876 -47.00325 -0.37582114 -123.21841 -0.36551771 -123.18105 -25.023382 -122.78843
35020000000 -31.276213 -56.32732 -0.36858642 -123.6364 -0.36675519 -123.65313 -25.261877 -96.040527
35050000000 -31.252878 -60.961254 -0.36922443 -123.90524 -0.38205138 -123.95898 -28.327227 -128.07387
35080000000 -31.644796 -52.270779 -0.36232904 -124.46387 -0.36395544 -124.44846 -25.5187 -114.05289
35110000000 -30.625277 -54.905746 -0.37688652 -124.86548 -0.3747789 -124.83331 -25.555349 -99.386772
35140000000 -30.630867 -59.927563 -0.3685312 -125.26585 -0.37641421 -125.3015 -27.139252 -116.17551
35170000000 -30.900343 -57.638683 -0.37525779 -125.62278 -0.38216501 -125.73808 -25.169893 -114.45641
35200000000 -30.713514 -62.570175 -0.3608419 -126.07687 -0.37449729 -126.06786 -25.75024 -100.18572
35230000000 -29.527952 -60.017967 -0.37762094 -126.55577 -0.37708727 -126.52757 -27.056479 -104.88123
35260000000 -30.546865 -59.379406 -0.37995002 -126.85754 -0.38148525 -126.86714 -24.336086 -118.34489
35290000000 -29.496668 -66.976212 -0.3749674 -127.35153 -0.37125295 -127.41605 -25.474228 -91.308357
35320000000 -29.527493 -61.034271 -0.38988823 -127.72589 -0.36844298 -127.66249 -26.977844 -123.09807
35350000000 -29.007254 -56.853127 -0.38891479 -128.06943 -0.39707065 -128.16946 -24.439955 -103.37513
35380000000 -29.091787 -64.542496 -0.38359725 -128.46648 -0.38839504 -128.58122 -25.197359 -102.50101
35410000000 -28.852289 -64.872711 -0.38080785 -128.88351 -0.37453538 -129.00195 -27.922071 -118.30188
35440000000 -29.171083 -65.890663 -0.38629624 -129.34285 -0.37798634 -129.39542 -24.550482 -105.83708
35470000000 -28.208982 -70.179016 -0.3797771 -129.68512 -0.38794523 -129.80292 -24.415113 -97.116753
35500000000 -27.69738 -64.841026 -0.37988165 -130.22911 -0.37577203 -130.18199 -27.538761 -111.25735
35530000000 -28.822586 -67.603065 -0.37176135 -130.55652 -0.38162684 -130.54271 -24.059977 -108.06853
35560000000 -27.861969 -68.390533 -0.38314655 -131.05663 -0.37357974 -131.11505 -25.269503 -92.906784
35590000000 -27.303495 -68.375351 -0.37576836 -131.29045 -0.38030091 -131.36711 -26.156235 -109.23253
35620000000 -27.824854 -65.671013 -0.37037331 -131.80814 -0.36001977 -131.82039 -23.396379 -109.99662
35650000000 -26.853855 -71.653946 -0.37563261 -132.24095 -0.37778527 -132.23174 -25.444448 -91.427345
35680000000 -27.199896 -66.010277 -0.36327401 -132.59225 -0.38577282 -132.6555 -25.86105 -105.97847
35710000000 -26.625389 -66.630692 -0.37200415 -132.97014 -0.37841052 -133.02802 -23.673546 -105.257
35740000000 -26.023466 -70.797661 -0.37023407 -133.436 -0.36000431 -133.40166 -25.056379 -96.761688
35770000000 -26.150387 -68.927986 -0.36538365 -133.90601 -0.35166591 -133.86412 -25.074949 -108.64124
35800000000 -26.389019 -66.887108 -0.3561711 -134.22282 -0.36185688 -134.283 -23.780729 -103.81697
35830000000 -25.376221 -69.878242 -0.37706354 -134.6176 -0.35248336 -134.71748 -24.080271 -96.5914
35860000000 -25.22526 -68.790482 -0.36169791 -134.95728 -0.34270227 -135.07266 -25.178036 -107.91074
35890000000 -25.732801 -67.129005 -0.34420589 -135.55962 -0.34992597 -135.55254 -23.396957 -112.03477
35920000000 -24.669783 -72.059341 -0.35454422 -135.82605 -0.34859622 -135.75194 -23.188492 -88.89254
35950000000 -24.734482 -69.467789 -0.34436756 -136.33382 -0.3447924 -136.33368 -25.319736 -118.12843
35980000000 -24.959675 -73.181496 -0.34656113 -136.75101 -0.35632116 -136.78629 -22.858358 -104.43956
36010000000 -24.302629 -72.731384 -0.34378558 -137.1575 -0.35401595 -137.26057 -24.407326 -100.53033
36040000000 -24.143257 -70.129158 -0.35266361 -137.65364 -0.3383747 -137.62671 -25.620155 -112.38474
36070000000 -24.198444 -72.038902 -0.34766197 -137.9416 -0.35751218 -138.02219 -22.681618 -103.38258
36100000000 -23.761536 -72.601456 -0.35112056 -138.45207 -0.34192389 -138.39009 -23.587641 -103.55952
36130000000 -23.385498 -70.667839 -0.34443846 -138.9993 -0.33467516 -138.97664 -26.471117 -118.48782
36160000000 -23.609116 -71.903893 -0.33787829 -139.31181 -0.36277699 -139.28329 -22.768097 -101.884
36190000000 -23.174637 -74.128532 -0.32865182 -139.76392 -0.33923948 -139.8239 -24.191204 -103.50348
36220000000 -23.043304 -72.07193 -0.33878887 -140.16449 -0.33784249 -140.17773 -24.295383 -120.92362
36250000000 -23.790405 -70.317352 -0.34984487 -140.70207 -0.34572545 -140.66347 -24.320253 -108.78898
36280000000 -22.55901 -74.400085 -0.33882609 -140.88145 -0.3404457 -140.90842 -23.698891 -97.761421
36310000000 -22.416822 -71.674492 -0.32805714 -141.34285 -0.34995094 -141.38361 -24.817591 -114.49418
36340000000 -23.279139 -70.458389 -0.34440035 -141.83452 -0.33522153 -141.92523 -23.694286 -117.00565
36370000000 -22.555702 -72.560524 -0.34266725 -142.12227 -0.33973041 -142.16634 -24.887833 -93.302681
36400000000 -22.138998 -69.691978 -0.32980034 -142.66605 -0.33734 -142.59946 -24.631775 -117.15788
36430000000 -22.432318 -70.975983 -0.3327637 -143.08142 -0.34148422 -143.11784 -23.92355 -109.98074
36460000000 -22.068724 -73.522842 -0.32822239 -143.53001 -0.31581739 -143.49324 -25.131851 -110.5913
36490000000 -22.082541 -68.439957 -0.33758593 -144.01715 -0.34018505 -143.85797 -25.995096 -110.84098
36520000000 -22.169767 -68.48175 -0.34323367 -144.31319 -0.31987119 -144.30315 -23.733789 -109.94273
36550000000 -21.545435 -73.757751 -0.31481728 -144.67937 -0.3201454 -144.72517 -25.247019 -104.17661
36580000000 -21.815004 -68.253281 -0.32901227 -145.14186 -0.31895843 -145.20905 -25.805819 -121.49475
36610000000 -22.641237 -68.024338 -0.33640623 -145.64732 -0.32422441 -145.58687 -24.536964 -103.90589
36640000000 -21.41707 -71.588005 -0.31450057 -146.06757 -0.30694571 -146.06129 -25.552404 -107.00468
36670000000 -21.61355 -68.201706 -0.31328344 -146.35327 -0.32633665 -146.4455 -25.657045 -114.72547
36700000000 -21.656448 -69.991646 -0.31948361 -146.89021 -0.33598137 -146.95895 -25.853437 -117.62063
36730000000 -21.391603 -69.124306 -0.30511415 -147.13976 -0.31656021 -147.25716 -26.46063 -94.299187
36760000000 -21.082664 -65.678352 -0.31620353 -147.6414 -0.320472 -147.64224 -26.16836 -120.02185
36790000000 -21.492029 -67.707626 -0.31975055 -148.21005 -0.32238001 -148.15092 -25.031681 -112.42532
36820000000 -21.407848 -68.509834 -0.34319445 -148.40611 -0.31429714 -148.49966 -28.355021 -92.388306
36850000000 -21.137079 -63.815544 -0.32213828 -148.88986 -0.31327036 -148.92252 -26.320196 -111.09607
36880000000 -21.105906 -66.72052 -0.31476274 -149.36345 -0.3098799 -149.49335 -26.309584 -108.2882
36910000000 -21.01189 -68.173523 -0.32096502 -149.80257 -0.31288448 -149.90561 -28.097086 -101.00956
36940000000 -21.115183 -63.795738 -0.32522726 -150.25839 -0.32760769 -150.08855 -28.03006 -104.81174
36970000000 -21.087536 -64.108963 -0.31316993 -150.59801 -0.30651012 -150.6395 -26.042 -110.13327
37000000000 -20.730818 -66.383743 -0.29906091 -150.99582 -0.30453408 -150.97458 -29.206194 -82.686058
37030000000 -20.967836 -64.735909 -0.30215627 -151.54518 -0.30392078 -151.48639 -26.813112 -114.49224
37060000000 -21.329685 -62.969421 -0.31940114 -151.87256 -0.31599751 -151.88228 -29.811613 -100.05093
37090000000 -20.702368 -64.484695 -0.28160229 -152.17654 -0.28894743 -152.30006 -27.512257 -86.832619
37120000000 -21.219824 -61.463398 -0.30483037 -152.79201 -0.29949105 -152.58101 -27.5229 -96.026474
37150000000 -20.994019 -65.679588 -0.31518829 -153.20512 -0.32041654 -153.3226 -27.121269 -106.77946
37180000000 -20.736267 -64.160645 -0.30589902 -153.51114 -0.28520823 -153.46483 -29.501211 -71.685577
37210000000 -20.740076 -61.367073 -0.29305929 -153.85228 -0.28008401 -153.96104 -28.023033 -91.015404
37240000000 -20.832088 -64.602394 -0.29222497 -154.38942 -0.2959359 -154.43169 -26.932739 -95.211197
37270000000 -20.629181 -64.126076 -0.29235706 -154.76106 -0.29405746 -154.83952 -29.002052 -80.769943
37300000000 -21.06535 -59.332516 -0.30786592 -155.18744 -0.29315761 -155.11591 -29.019089 -88.214035
37330000000 -20.724018 -63.945038 -0.27919063 -155.72508 -0.27026388 -155.7253 -26.914812 -85.190819
37360000000 -20.953087 -64.732391 -0.28633732 -156.04749 -0.28927806 -156.13846 -27.57065 -78.599571
37390000000 -21.28734 -62.652042 -0.29012537 -156.40976 -0.29604867 -156.38799 -28.759508 -85.836754
37420000000 -21.224779 -62.158798 -0.30735356 -156.89143 -0.28601602 -156.99733 -27.280382 -80.018982
37450000000 -20.590452 -60.807407 -0.2745842 -157.28964 -0.25875032 -157.39645 -26.509935 -76.646606
37480000000 -20.940096 -64.303635 -0.28148797 -157.82559 -0.26977769 -157.83481 -27.484415 -83.971466
37510000000 -21.437254 -63.122314 -0.28628007 -158.25803 -0.28608018 -158.07375 -27.496288 -82.504303
37540000000 -21.518686 -61.24707 -0.25439659 -158.68732 -0.27231038 -158.63701 -25.220085 -71.926521
37570000000 -21.007774 -60.980995 -0.270457 -159.05452 -0.2672523 -159.03802 -27.578295 -82.492188
37600000000 -21.542175 -64.788109 -0.27670279 -159.50233 -0.28209037 -159.41345 -26.389702 -75.434723
37630000000 -21.303858 -61.350971 -0.27515423 -159.95001 -0.26281992 -160.02393 -25.086071 -80.804077
37660000000 -21.862131 -60.188808 -0.24920496 -160.31139 -0.25879455 -160.15987 -27.885941 -72.664246
37690000000 -21.248602 -62.813038 -0.27091104 -160.80707 -0.27067244 -160.92719 -25.751593 -79.553741
37720000000 -21.439848 -63.150665 -0.27895516 -161.26764 -0.26681048 -161.2382 -25.167263 -81.535385
37750000000 -21.828144 -60.801182 -0.27296886 -161.54091 -0.2744306 -161.60289 -27.536604 -80.699722
37780000000 -21.89752 -63.617672 -0.26003578 -162.05392 -0.2568945 -161.96724 -25.238995 -74.864792
37810000000 -21.461214 -64.113182 -0.26074353 -162.47638 -0.27128741 -162.48018 -25.164034 -80.813728
37840000000 -21.958853 -62.403667 -0.25906765 -162.95795 -0.2541759 -162.86555 -25.536356 -74.509903
37870000000 -22.426512 -63.527275 -0.27498901 -163.22153 -0.27318993 -163.21318 -25.251629 -86.967865
37900000000 -21.970726 -64.440086 -0.27249005 -163.69629 -0.26746455 -163.71944 -24.904882 -82.829323
37930000000 -22.110334 -65.435585 -0.26314828 -164.07703 -0.25242519 -164.14006 -25.857553 -66.769356
37960000000 -22.520517 -67.269814 -0.28775766 -164.64069 -0.28959185 -164.57988 -23.543682 -97.351486
37990000000 -22.52305 -67.465126 -0.25378099 -165.05386 -0.26149759 -165.02252 -25.007813 -68.597504
38020000000 -22.812454 -64.529663 -0.23947321 -165.59258 -0.27301544 -165.49727 -24.770521 -84.437843
38050000000 -22.449812 -70.245399 -0.2837083 -165.96362 -0.26588815 -165.91939 -24.7033 -85.36821
38080000000 -22.560345 -69.602974 -0.28104028 -166.55826 -0.25694886 -166.30362 -24.275244 -82.711693
38110000000 -23.056768 -69.765007 -0.25724328 -166.81253 -0.28270808 -166.81331 -24.326242 -84.850433
38140000000 -22.974943 -66.401657 -0.26720053 -167.20081 -0.25243372 -167.20099 -24.922121 -89.987083
38170000000 -22.612041 -71.998764 -0.27612016 -167.77563 -0.26729661 -167.71806 -23.235821 -81.55526
38200000000 -23.296961 -70.136673 -0.28032589 -168.04117 -0.26551637 -168.0202 -25.016718 -91.848656
38230000000 -23.806992 -72.262123 -0.27253363 -168.4984 -0.26593825 -168.41714 -25.251686 -89.387321
38260000000 -23.088816 -72.480255 -0.25914872 -169.04033 -0.27501714 -169.03145 -22.551464 -81.24617
38290000000 -23.521494 -72.926003 -0.25253934 -169.34016 -0.25669208 -169.43297 -25.69311 -94.087616
38320000000 -23.420288 -76.138855 -0.28665999 -169.90286 -0.26173842 -169.92949 -23.302826 -95.959747
38350000000 -23.329178 -79.46344 -0.29327336 -170.27512 -0.28719068 -170.19643 -24.044853 -87.456062
38380000000 -23.133974 -76.557274 -0.26239091 -170.8101 -0.26988485 -170.72043 -25.898518 -89.126366
38410000000 -23.439295 -83.311455 -0.26853698 -171.07785 -0.27693921 -171.00301 -22.701183 -96.322578
38440000000 -23.673164 -83.460251 -0.2745271 -171.451 -0.26924831 -171.53972 -24.524302 -95.312141
38470000000 -24.067863 -82.742485 -0.27486134 -171.93582 -0.26935655 -171.90283 -24.522039 -92.982948
38500000000 -23.456139 -86.966988 -0.25908056 -172.35931 -0.26681075 -172.40826 -24.667685 -96.580551
38530000000 -23.652897 -88.290573 -0.26206231 -172.87895 -0.24857557 -172.84587 -22.742453 -94.461891
38560000000 -24.203165 -89.844185 -0.28525189 -173.24837 -0.27218029 -173.27734 -25.397667 -102.15429
38590000000 -23.54488 -92.97184 -0.27522233 -173.70757 -0.27761939 -173.63571 -24.132938 -96.642944
38620000000 -22.897243 -94.466438 -0.27913874 -174.18491 -0.26436684 -174.14709 -23.519917 -93.214088
38650000000 -23.321274 -91.628815 -0.25111207 -174.68213 -0.2548517 -174.70216 -25.519268 -101.45889
38680000000 -23.155998 -98.052574 -0.27332419 -175.06723 -0.26833844 -174.89505 -24.169861 -109.34849
38710000000 -22.998962 -95.007919 -0.27268714 -175.60896 -0.26313618 -175.42735 -25.211731 -88.270767
38740000000 -23.390461 -97.857071 -0.28049985 -176.02577 -0.25659266 -175.92915 -24.233982 -103.0052
38770000000 -22.30694 -105.28844 -0.26367253 -176.33432 -0.2543008 -176.40843 -25.164228 -106.5046
38800000000 -22.872881 -101.07349 -0.28998259 -176.8441 -0.28394899 -176.90787 -25.688534 -93.694054
38830000000 -23.03038 -100.88158 -0.28327751 -177.23846 -0.28617004 -177.22331 -24.949039 -102.72125
38860000000 -22.37207 -105.46453 -0.28017265 -177.82941 -0.25714085 -177.68007 -26.311356 -105.2555
38890000000 -21.538862 -103.90748 -0.26219404 -178.22255 -0.27403796 -178.25356 -24.953035 -96.906487
38920000000 -22.308456 -107.51126 -0.28017542 -178.69164 -0.24412304 -178.61055 -27.482822 -99.676201
38950000000 -21.873001 -108.93957 -0.26211786 -179.04614 -0.26388046 -179.06242 -26.301449 -102.32488
38980000000 -21.335485 -107.51295 -0.2803328 -179.47342 -0.29256415 -179.43407 -24.782854 -86.857506
39010000000 -21.762968 -115.32176 -0.28680599 179.84978 -0.26334217 179.83876 -27.484982 -99.418442
39040000000 -21.39555 -112.33175 -0.27013442 179.60747 -0.28988516 179.56805 -26.52042 -94.549713
39070000000 -21.068626 -110.50427 -0.28825831 179.20227 -0.28938487 179.2337 -24.889364 -91.791161
39100000000 -20.637932 -111.43054 -0.28621703 178.68192 -0.27322659 178.74921 -27.389999 -97.255753
39130000000 -20.325739 -117.19298 -0.27599049 178.01328 -0.27160239 178.133 -26.379593 -88.659805
39160000000 -20.51845 -112.54947 -0.28730822 177.56841 -0.30953377 177.68108 -26.374456 -82.907204
39190000000 -20.441231 -112.80187 -0.29963416 177.29216 -0.27765471 177.34758 -27.449469 -82.060997
39220000000 -19.49754 -114.25439 -0.27590856 176.80183 -0.26030156 176.91971 -26.636696 -97.407349
39250000000 -19.921408 -113.17879 -0.29419678 176.48373 -0.30556157 176.517 -25.805611 -79.390762
39280000000 -20.109867 -115.16228 -0.30802655 175.94302 -0.27996197 175.86705 -27.157084 -83.367165
39310000000 -19.420303 -115.57821 -0.28957939 175.71056 -0.29533127 175.60292 -25.527199 -81.530548
39340000000 -19.150219 -115.11423 -0.30838281 175.1244 -0.29735634 175.12535 -25.796896 -73.793518
39370000000 -19.307148 -116.10312 -0.30329534 174.59871 -0.31699374 174.53731 -26.32163 -76.290878
39400000000 -18.965742 -117.55344 -0.30187628 174.10701 -0.29533181 174.03917 -25.550711 -83.732475
39430000000 -18.476854 -113.87791 -0.31812361 173.82504 -0.32249543 173.74359 -24.447783 -68.934715
39460000000 -18.280556 -119.24809 -0.29227537 173.08218 -0.27862588 173.18369 -25.540695 -70.730736
39490000000 -18.367733 -116.72072 -0.30135655 172.68132 -0.28869954 172.93782 -24.888151 -82.550934
39520000000 -18.201517 -117.04517 -0.31323892 172.39998 -0.32146198 172.2662 -23.919024 -68.028244
39550000000 -18.167587 -115.04379 -0.30482396 171.91432 -0.32784384 171.83978 -25.274317 -64.515984
39580000000 -17.587776 -118.32512 -0.29991317 171.43312 -0.30832085 171.3795 -23.480694 -77.126785
39610000000 -17.769869 -116.24921 -0.34773713 171.12109 -0.32544738 170.91425 -23.015045 -69.222893
39640000000 -18.007322 -117.01902 -0.34795111 170.51213 -0.34686226 170.5369 -25.028885 -70.233795
39670000000 -17.171968 -115.61858 -0.3140606 170.12335 -0.32788935 170.21449 -22.646065 -73.688393
39700000000 -17.334312 -117.57306 -0.36209381 169.74237 -0.33057711 169.61559 -21.849174 -66.979462
39730000000 -17.56023 -117.11407 -0.34669879 169.0757 -0.33202791 169.03494 -23.603516 -76.512962
39760000000 -17.017277 -115.56511 -0.35275316 168.68404 -0.35197496 168.78134 -22.624968 -67.232437
39790000000 -16.718889 -114.0589 -0.32685798 168.37502 -0.34947929 168.43597 -21.328758 -72.939217
39820000000 -16.769739 -118.73437 -0.36497256 167.78345 -0.36459249 167.60971 -22.071762 -70.180595
39850000000 -16.914303 -117.1526 -0.38465664 167.25444 -0.35682809 167.34389 -21.810778 -79.185814
39880000000 -16.510439 -113.66638 -0.36887327 167.1209 -0.35753858 167.10463 -20.793131 -70.456001
39910000000 -16.274904 -114.50581 -0.36615977 166.41653 -0.36115217 166.39934 -22.590946 -70.427246
39940000000 -15.995925 -117.69936 -0.34374049 165.86916 -0.36485827 165.97208 -19.84094 -81.232124
39970000000 -16.500319 -113.88381 -0.40582585 165.68481 -0.38035235 165.79646 -21.854948 -72.22094
40000000000 -16.228075 -113.66402 -0.37990114 165.15015 -0.37149402 165.10233 -20.740114 -79.101807
40030000000 -15.751184 -113.14272 -0.36565822 164.71689 -0.37485707 164.71603 -20.430767 -77.955734
40060000000 -16.227091 -114.91388 -0.39096612 164.22574 -0.4014554 164.29466 -19.933947 -83.311218
40090000000 -16.218426 -112.94923 -0.39751342 164.02356 -0.41418499 163.81451 -21.051075 -83.654335
40120000000 -16.125847 -112.82784 -0.39070669 163.56117 -0.40555331 163.47754 -20.440126 -81.441795
40150000000 -15.620984 -110.99672 -0.36277756 162.98553 -0.38801005 163.11363 -19.645267 -81.786278
40180000000 -16.124733 -114.49435 -0.44069514 162.6102 -0.42363599 162.6037 -20.221937 -84.216843
40210000000 -16.069122 -110.04589 -0.43671623 162.10693 -0.4128733 162.15985 -20.547003 -95.131836
40240000000 -15.790548 -109.46333 -0.4231483 161.83725 -0.4149169 161.8643 -19.877981 -80.403374
40270000000 -15.769954 -110.52721 -0.40952963 161.24014 -0.43229201 161.233 -20.228863 -88.158928
40300000000 -15.917087 -111.14542 -0.4514145 160.8542 -0.42946228 160.80861 -19.658123 -97.739273
40330000000 -16.333464 -109.14508 -0.47705787 160.63882 -0.44318929 160.82797 -20.916754 -87.574715
40360000000 -15.657557 -107.29224 -0.43043458 159.90138 -0.41592553 160.04085 -20.719133 -90.912315
40390000000 -15.540104 -110.01633 -0.449664 159.5405 -0.46136034 159.5968 -19.965012 -90.815224
40420000000 -15.964926 -110.17287 -0.49162045 159.05312 -0.45639908 159.2213 -20.233686 -97.521187
40450000000 -16.194395 -108.13953 -0.4828105 158.86353 -0.48467052 158.8387 -21.55838 -93.226265
40480000000 -15.670206 -106.05681 -0.48032528 158.17319 -0.47548473 158.33525 -20.711802 -93.320107
40510000000 -15.46476 -106.44116 -0.48459005 157.74712 -0.47374469 157.71117 -20.073948 -97.863441
40540000000 -16.029745 -105.86216 -0.52515543 157.47285 -0.51292795 157.49821 -22.010466 -102.42439
40570000000 -15.957124 -105.30337 -0.48813194 157.05911 -0.50119901 156.97427 -21.080118 -99.693161
40600000000 -15.861507 -103.7618 -0.48406306 156.55884 -0.49397323 156.65901 -21.025328 -94.406456
40630000000 -15.931717 -103.8784 -0.51925689 155.99812 -0.51229787 156.12274 -21.44232 -101.37756
40660000000 -16.105722 -103.60383 -0.53180742 155.73497 -0.51095998 155.67955 -21.813942 -106.40932
40690000000 -16.050962 -102.37362 -0.51190293 155.38892 -0.48939124 155.51367 -22.158676 -89.333321
40720000000 -15.79212 -99.737457 -0.50994593 154.98682 -0.52509469 154.87592 -22.587849 -95.443657
40750000000 -16.030764 -101.48183 -0.53761113 154.62088 -0.53523988 154.66634 -21.172777 -106.18751
40780000000 -16.360544 -101.33364 -0.55028975 154.2021 -0.53544807 154.28534 -23.936501 -94.986916
40810000000 -16.553602 -97.745743 -0.55520505 153.97391 -0.54187477 153.85017 -22.505596 -96.318741
40840000000 -16.126011 -99.005707 -0.57527965 153.2662 -0.57152778 153.30527 -23.173311 -103.54153
40870000000 -16.504684 -99.857643 -0.57869279 153.18541 -0.5806334 153.10081 -23.385754 -88.868927
40900000000 -16.782469 -96.250229 -0.57015061 152.5573 -0.56877971 152.73772 -23.783064 -104.51772
40930000000 -16.117651 -96.688278 -0.56528765 152.38522 -0.57424277 152.29965 -25.830223 -87.223282
40960000000 -16.565754 -94.761642 -0.57767671 151.84894 -0.58419496 151.63562 -22.559195 -90.525627
40990000000 -17.022785 -96.453285 -0.62932092 151.7296 -0.59298921 151.60544 -25.266451 -88.424812
41020000000 -16.986639 -93.24472 -0.60814446 150.97087 -0.58620113 151.12082 -24.583826 -97.993568
41050000000 -16.792921 -92.842934 -0.5846715 150.7733 -0.62063354 150.62485 -25.011509 -78.526497
41080000000 -16.91724 -94.154503 -0.6492725 150.25937 -0.60542965 150.08131 -24.619884 -84.069572
41110000000 -17.090265 -96.180916 -0.63671261 149.79898 -0.64040303 149.8403 -22.893795 -86.328041
41140000000 -17.621885 -91.277824 -0.629013 149.60754 -0.65016359 149.6313 -25.776812 -91.3797
41170000000 -17.176676 -91.224464 -0.62301695 149.20244 -0.63038385 149.42216 -23.867245 -60.922153
41200000000 -17.469814 -93.91584 -0.64162832 148.6624 -0.6697641 148.56499 -23.309624 -89.149117
41230000000 -18.083296 -92.250473 -0.6591754 148.59959 -0.63488311 148.7263 -23.723995 -68.096809
41260000000 -17.772705 -87.971497 -0.64186329 148.11623 -0.65536821 148.19089 -24.291203 -73.714149
41290000000 -17.725397 -89.143951 -0.68243802 147.59572 -0.66696888 147.53006 -24.596233 -74.075943
41320000000 -18.425732 -90.129295 -0.6528632 147.35597 -0.67563069 147.14456 -21.858984 -72.885086
41350000000 -18.541103 -88.755211 -0.6660291 147 -0.65527546 147.21547 -23.94619 -67.153702
41380000000 -18.617716 -84.069092 -0.67196101 146.41148 -0.6755451 146.55298 -22.71019 -75.128761
41410000000 -18.271826 -85.624649 -0.68066877 146.01851 -0.70686811 146.17099 -22.51169 -63.620434
41440000000 -18.460018 -84.695473 -0.70497686 145.90263 -0.70103925 145.91707 -22.181265 -60.475723
41470000000 -19.427097 -86.903259 -0.73443872 145.32661 -0.72129303 145.38278 -21.126114 -77.54361
41500000000 -18.948273 -83.652657 -0.70837653 145.12874 -0.70444345 145.05431 -22.80846 -64.216927
41530000000 -19.296442 -85.713135 -0.70481217 144.74944 -0.67443353 144.73569 -20.835037 -65.80294
41560000000 -19.728725 -84.555077 -0.72821856 144.31288 -0.7186752 144.32994 -21.247261 -68.494843
41590000000 -20.306665 -84.567307 -0.73077112 143.93358 -0.72838998 144.09021 -20.244411 -76.858948
41620000000 -19.830202 -79.088135 -0.74952191 143.66318 -0.71644908 143.8002 -22.483892 -70.592148
41650000000 -20.279087 -82.482559 -0.70506942 143.35062 -0.74254638 143.21979 -20.575161 -64.108925
41680000000 -20.700706 -82.763496 -0.74599493 142.73364 -0.72512758 142.84389 -18.543884 -79.530045
41710000000 -21.467861 -80.02269 -0.77529204 142.91743 -0.74266064 142.79854 -23.013367 -73.300705
41740000000 -20.715208 -74.989357 -0.77291268 142.12442 -0.73718905 142.24809 -19.455088 -77.609695
41770000000 -20.483181 -82.742538 -0.77367449 141.80154 -0.72699428 141.89833 -20.199274 -74.338593
41800000000 -22.023941 -82.051163 -0.76240575 141.53787 -0.74489534 141.57535 -19.298031 -78.619041
41830000000 -21.863565 -78.056068 -0.79078293 141.12437 -0.77575868 141.31511 -20.198168 -89.737823
41860000000 -21.778214 -77.846573 -0.78726047 140.82668 -0.75196701 140.82388 -19.934132 -81.67157
41890000000 -22.299076 -85.50383 -0.76757926 140.81198 -0.75122559 140.37712 -19.474133 -78.687462
41920000000 -22.863556 -83.319382 -0.80929494 140.08804 -0.80433261 140.28079 -18.358999 -91.560829
41950000000 -23.217747 -79.375641 -0.78051627 139.76094 -0.76282293 139.64549 -19.741245 -86.147621
41980000000 -23.39057 -79.73587 -0.79064566 139.38855 -0.82325143 139.57494 -19.806616 -89.787071
42010000000 -23.233355 -84.922943 -0.79592073 139.12869 -0.78292704 139.25819 -19.399969 -86.260574
42040000000 -24.894043 -80.631027 -0.83319169 138.84265 -0.80185539 138.58705 -18.389872 -93.123627
42070000000 -24.689743 -77.225563 -0.81404257 138.49887 -0.78845316 138.34895 -20.542231 -93.399681
42100000000 -24.581093 -83.183327 -0.80986011 138.17342 -0.80298513 137.90921 -19.535273 -95.499947
42130000000 -24.505497 -90.963051 -0.78976256 137.50829 -0.77244508 137.66405 -18.944824 -89.72142
42160000000 -26.536116 -85.195877 -0.80249405 137.26039 -0.7720378 137.3862 -19.625641 -96.25132
42190000000 -26.133863 -86.273155 -0.80794501 136.89983 -0.833574 137.14613 -19.416035 -106.10575
42220000000 -26.085581 -88.610825 -0.80449146 136.83408 -0.7948634 136.69228 -20.570608 -99.45488
42250000000 -26.823736 -101.61236 -0.77935767 136.42393 -0.79513669 136.07681 -19.522163 -96.437035
42280000000 -27.240856 -95.014427 -0.80112875 135.89795 -0.78101569 136.1067 -19.360857 -112.7067
42310000000 -28.093374 -88.101669 -0.80765349 135.27103 -0.8076722 135.70535 -20.175938 -102.12811
42340000000 -28.038233 -101.76424 -0.80034685 135.55626 -0.78772873 135.33412 -21.263327 -102.12318
42370000000 -28.389431 -119.30672 -0.78605419 134.88498 -0.77447265 134.92273 -19.000561 -106.48967
42400000000 -29.87928 -112.47389 -0.81213093 134.44221 -0.76616937 134.54385 -20.129368 -115.22552
42430000000 -30.234426 -94.142776 -0.79327029 134.28638 -0.79217446 134.30383 -22.208233 -105.54073
42460000000 -29.119711 -113.98499 -0.81359297 133.73073 -0.78408873 133.90857 -19.918823 -109.74137
42490000000 -31.1084 -126.74561 -0.77565134 133.39023 -0.80849224 133.65804 -21.262589 -110.47035
42520000000 -33.738453 -129.75148 -0.79448885 132.90919 -0.82459891 133.15544 -21.228378 -109.28812
42550000000 -29.225098 -106.92952 -0.75296253 132.81818 -0.75744057 132.83728 -21.806894 -118.67818
42580000000 -29.11174 -130.76505 -0.75766337 132.57544 -0.80006051 132.5585 -21.51421 -110.00348
42610000000 -31.272486 -147.83557 -0.76897144 132.01108 -0.8185178 132.23271 -21.758041 -107.85515
42640000000 -31.25836 -158.17722 -0.81078446 131.53699 -0.77310318 131.65714 -21.826756 -126.13251
42670000000 -30.258875 -154.31009 -0.81833339 131.32188 -0.80339158 131.4962 -23.297581 -110.89158
42700000000 -28.270187 -153.69907 -0.77307999 130.77444 -0.766653 130.78961 -22.359089 -115.27104
42730000000 -29.39889 -156.11958 -0.77362937 130.25986 -0.77927864 130.56241 -24.027878 -109.82154
42760000000 -29.755421 -158.47055 -0.78773618 130.12453 -0.77917582 130.43729 -22.198385 -115.85854
42790000000 -29.269066 -163.42104 -0.79257929 129.86127 -0.75649023 129.74515 -25.062765 -112.05417
42820000000 -27.985678 -161.36592 -0.76332712 129.30759 -0.77281648 129.50311 -23.404676 -107.9857
42850000000 -26.716402 -178.98676 -0.80010843 128.94069 -0.7759636 129.18806 -24.170193 -115.75658
42880000000 -27.765146 -169.79221 -0.78443819 128.75801 -0.76038659 128.70776 -25.766281 -105.27875
42910000000 -27.992447 -175.1806 -0.74554837 128.48413 -0.7170316 128.55362 -25.671976 -105.94353
42940000000 -26.358301 -173.88116 -0.74208754 128.17165 -0.76736611 127.99167 -25.283157 -106.08875
42970000000 -25.429453 -179.62152 -0.70991749 127.51186 -0.76911324 127.50349 -24.187511 -74.774834
43000000000 -26.649868 -177.65598 -0.74630666 127.01434 -0.72798043 127.41994 -23.024546 -120.70101
43030000000 -27.549702 -177.67213 -0.74365711 127.24315 -0.74058491 126.91556 -25.441916 -69.958916
43060000000 -24.012003 -169.41742 -0.68690878 126.42534 -0.73302484 126.35793 -25.524015 -97.856171
43090000000 -25.399923 178.37476 -0.72606069 126.15469 -0.72127038 126.24892 -22.408848 -86.705704
43120000000 -24.965288 176.66104 -0.69937193 125.74284 -0.75316262 125.71473 -26.239738 -99.29715
43150000000 -24.528341 -173.36261 -0.71028543 125.40323 -0.68159056 125.21946 -23.839968 -72.279541
43180000000 -23.812119 -170.47701 -0.68336678 124.65538 -0.68600649 124.50999 -23.783085 -79.343224
43210000000 -23.900217 -178.43805 -0.68323988 124.66583 -0.68608654 124.49223 -21.347078 -86.980362
43240000000 -24.494286 173.19356 -0.75509995 124.36111 -0.7346254 124.54485 -26.753628 -74.757385
43270000000 -23.65802 -172.84654 -0.67829865 123.64827 -0.70296198 123.89905 -22.622412 -77.876534
43300000000 -23.778576 176.54555 -0.69083083 123.32565 -0.6695044 123.56588 -22.519344 -71.021751
43330000000 -23.045786 -179.50371 -0.68170106 123.01466 -0.69265431 123.01023 -22.073763 -82.768158
43360000000 -23.655907 178.64839 -0.6479525 122.46587 -0.65052921 122.89889 -22.736391 -76.95504
43390000000 -23.102825 -173.83641 -0.63330269 122.05973 -0.67457682 122.13903 -22.306448 -74.507828
43420000000 -22.125593 176.95714 -0.68812335 121.73591 -0.63757503 122.0004 -21.032787 -70.940109
43450000000 -22.212534 -173.07527 -0.67562944 120.98048 -0.64415872 121.49427 -21.584465 -89.93647
43480000000 -22.227448 176.40279 -0.63665026 121.08904 -0.66763902 121.19817 -20.798994 -78.092209
43510000000 -22.805866 -170.69528 -0.6119346 120.47884 -0.62373948 120.74784 -21.229431 -69.20295
43540000000 -21.718065 -173.91295 -0.63560164 120.06359 -0.61833262 120.30078 -18.670822 -75.305367
43570000000 -22.16732 179.46863 -0.64128566 119.85874 -0.62225598 119.59843 -20.331274 -91.863052
43600000000 -22.362909 -174.65033 -0.57991058 119.27229 -0.6225428 119.65514 -20.988562 -69.73629
43630000000 -21.740152 -165.07803 -0.54398912 118.8549 -0.60320193 118.93877 -18.800104 -76.892311
43660000000 -21.724821 -176.15857 -0.62311912 118.64739 -0.57299227 118.59288 -18.701614 -85.571266
43690000000 -21.933937 -178.21353 -0.59201694 118.22722 -0.60230732 118.25463 -20.500559 -80.942902
43720000000 -21.85536 -173.70671 -0.58744359 117.62514 -0.57667828 117.72725 -19.473724 -83.92704
43750000000 -21.414301 -173.84406 -0.57032651 117.24689 -0.57528996 117.21016 -18.668079 -84.944588
43780000000 -21.458088 -174.21501 -0.58703405 116.89471 -0.58317256 117.06631 -18.421921 -88.828796
43810000000 -21.627644 -167.65134 -0.55016285 116.47921 -0.53053164 116.65411 -19.49464 -88.647522
43840000000 -21.23562 -164.70993 -0.51390421 115.89654 -0.5218004 116.06857 -18.00412 -90.088943
43870000000 -20.881399 -168.04984 -0.54078281 115.477 -0.51676852 115.55161 -18.741592 -89.385132
43900000000 -20.403429 -166.25777 -0.55702955 114.93362 -0.51869857 115.25671 -17.66334 -92.119484
43930000000 -22.145824 -171.93329 -0.50888145 114.70644 -0.50786644 115.00471 -18.832636 -96.908813
43960000000 -20.410664 -162.97002 -0.52590686 114.28975 -0.5084976 113.96857 -18.397984 -93.228249
43990000000 -20.96007 -169.20622 -0.49403879 113.9529 -0.51710325 113.79225 -17.989874 -95.35173
44020000000 -21.515745 -169.80292 -0.51995218 113.42937 -0.47951087 113.49205 -18.486385 -100.26292
44050000000 -21.260641 -167.62616 -0.46297532 113.09695 -0.47756755 113.10967 -17.751886 -100.15637
44080000000 -21.150368 -160.87949 -0.49600139 112.60803 -0.47245327 112.55909 -19.209713 -94.723518
44110000000 -20.679104 -165.39844 -0.48928955 112.10002 -0.47809952 112.0466 -17.402386 -105.91622
44140000000 -21.421236 -163.1601 -0.47859085 111.74715 -0.44613728 111.87854 -18.144451 -95.906288
44170000000 -21.201187 -159.50998 -0.46026021 111.27834 -0.48584226 111.21687 -18.373653 -111.56105
44200000000 -20.686937 -160.64641 -0.46561229 110.8547 -0.46698439 110.85458 -18.133646 -101.69204
44230000000 -20.495745 -162.92361 -0.4582645 110.51943 -0.46278265 110.59082 -18.810034 -103.81929
44260000000 -21.465738 -163.56049 -0.43087134 109.86259 -0.43752754 110.05167 -17.900038 -109.85
44290000000 -21.403341 -162.32736 -0.42753264 109.51834 -0.43638363 109.49155 -19.537027 -114.85212
44320000000 -20.241486 -161.86685 -0.41388857 109.00334 -0.41199914 108.8075 -18.355032 -106.68044
44350000000 -20.914585 -154.2238 -0.41667625 108.8425 -0.41480526 108.8772 -20.043346 -110.62109
44380000000 -21.51079 -161.77652 -0.42161909 108.19106 -0.41876754 107.9748 -17.922569 -112.89542
44410000000 -21.610216 -153.97481 -0.40965649 107.58532 -0.41164395 107.84115 -20.670719 -114.72383
44440000000 -20.787508 -154.37596 -0.43080875 107.16964 -0.42100385 107.3825 -20.536949 -113.3248
44470000000 -20.631479 -159.38422 -0.43247673 106.48183 -0.39716369 106.9162 -18.032587 -112.88907
44500000000 -21.353251 -154.27684 -0.37542319 106.71935 -0.41130871 106.5799 -20.105209 -116.9529
44530000000 -21.851887 -150.6286 -0.37991583 106.0325 -0.3962042 106.27174 -22.174231 -120.10587
44560000000 -21.333292 -155.30206 -0.42723361 105.74242 -0.40523899 105.56792 -19.310411 -109.21185
44590000000 -21.74851 -153.44989 -0.3745966 105.17841 -0.38463485 105.21857 -20.512146 -120.34205
44620000000 -22.117102 -147.23386 -0.39893401 104.59193 -0.36472791 104.59242 -21.360651 -118.41745
44650000000 -21.95052 -155.82343 -0.3539595 104.16977 -0.39150545 104.20599 -20.775957 -121.41602
44680000000 -21.367758 -152.17474 -0.36822265 103.77162 -0.35446024 103.69089 -21.510427 -107.61123
44710000000 -22.592793 -150.19922 -0.36293826 103.35263 -0.36895359 103.5041 -21.355804 -128.80118
44740000000 -22.474726 -152.12869 -0.35867876 102.94436 -0.35203055 103.03844 -21.982676 -115.44431
44770000000 -22.164162 -143.93936 -0.33359438 102.44384 -0.3947553 102.55762 -21.655432 -115.51434
44800000000 -22.472773 -150.96971 -0.32228604 101.9667 -0.34774864 101.97353 -24.020147 -117.78414
44830000000 -22.812815 -149.45793 -0.33133501 101.58793 -0.36976162 101.68786 -20.712378 -117.20722
44860000000 -22.847466 -146.36963 -0.36863488 101.2298 -0.32195345 101.13773 -24.010265 -109.69175
44890000000 -22.541252 -139.28767 -0.35949698 100.59565 -0.34095666 100.53267 -22.905945 -119.60986
44920000000 -22.806482 -145.96208 -0.33156607 100.15443 -0.32383281 100.2748 -22.516201 -110.72538
44950000000 -23.556522 -141.31671 -0.35704646 99.648804 -0.3293055 99.934128 -22.553883 -109.4727
44980000000 -23.260853 -135.04607 -0.37537634 99.502678 -0.31942147 99.39399 -23.963419 -114.39269
