!Keysight Technologies,N5247B,MY61255062,A.19.80.06
!Date: Friday, March 13, 2026 17:34:01
!Correction: S11(C  2-Port  ) 
!S21(C  2-Port  ) 
!S12(C  2-Port  ) 
!S22(C  2-Port  ) 
!S2P File: Measurements: S11, S21, S12, S22:
# Hz S  dB   R 50
1000000000 -29.611826 -18.277458 -0.20853832 -14.028786 -0.20724356 -14.021801 -33.702709 -10.187961
1030000000 -29.638868 -19.338747 -0.2126231 -14.442509 -0.21077602 -14.436039 -33.759422 -11.669326
1060000000 -29.573465 -19.810349 -0.21615693 -14.85689 -0.21491811 -14.851131 -33.810307 -13.482956
1090000000 -29.611919 -19.925806 -0.21873964 -15.263011 -0.21728916 -15.253734 -33.802544 -14.176121
1120000000 -29.601116 -20.41107 -0.22021267 -15.664143 -0.21953328 -15.663359 -33.757942 -14.692873
1150000000 -29.551479 -21.023064 -0.22214632 -16.076477 -0.22224087 -16.06315 -33.683929 -16.245804
1180000000 -29.625174 -21.587475 -0.22581798 -16.48526 -0.22690146 -16.475697 -33.778389 -17.918659
1210000000 -29.581718 -21.226021 -0.22981507 -16.875559 -0.23081164 -16.862677 -33.825081 -17.313347
1240000000 -29.543701 -21.297916 -0.22977604 -17.283211 -0.23109201 -17.269409 -33.577873 -18.598541
1270000000 -29.711586 -21.863047 -0.23391172 -17.689054 -0.23478517 -17.679916 -33.795135 -20.463032
1300000000 -29.742666 -21.718143 -0.23818724 -18.07864 -0.23896666 -18.063297 -33.975624 -20.735947
1330000000 -29.630754 -21.654024 -0.24009281 -18.463427 -0.24094507 -18.446964 -34.04554 -20.510908
1360000000 -29.602255 -21.429802 -0.24179778 -18.845907 -0.24313053 -18.83276 -34.165833 -20.433699
1390000000 -29.515543 -21.168964 -0.24229865 -19.235325 -0.24258824 -19.221115 -34.09914 -20.038769
1420000000 -29.396423 -20.93144 -0.24146089 -19.621887 -0.24129888 -19.612301 -33.965332 -20.093962
1450000000 -29.339085 -21.375248 -0.23955171 -20.026424 -0.2403259 -20.014252 -33.937183 -21.007076
1480000000 -29.255297 -21.905125 -0.23943026 -20.424124 -0.23996696 -20.413071 -33.872147 -21.396326
1510000000 -29.079992 -21.914963 -0.23914334 -20.827204 -0.23988189 -20.810432 -33.735504 -21.726938
1540000000 -29.068481 -21.981911 -0.23899208 -21.222982 -0.23874676 -21.215412 -33.60894 -22.145258
1570000000 -29.020334 -22.317123 -0.2381424 -21.63442 -0.23853481 -21.620169 -33.580009 -22.845304
1600000000 -28.917624 -22.74601 -0.23832424 -22.035645 -0.23802017 -22.024027 -33.471336 -23.548727
1630000000 -28.910917 -23.285992 -0.23603241 -22.44396 -0.23712172 -22.43614 -33.371597 -24.303051
1660000000 -28.865404 -23.737082 -0.23629919 -22.859066 -0.23761083 -22.843792 -33.344894 -25.311602
1690000000 -28.736656 -24.142633 -0.23702385 -23.261053 -0.23710395 -23.257212 -33.341747 -25.855501
1720000000 -28.708155 -24.464211 -0.23643941 -23.675837 -0.23587827 -23.663879 -33.295105 -26.287182
1750000000 -28.657721 -25.289459 -0.23661134 -24.092951 -0.23710668 -24.076162 -33.280388 -27.370371
1780000000 -28.557734 -25.574915 -0.23778063 -24.499384 -0.23782274 -24.482849 -33.203041 -28.45405
1810000000 -28.547871 -25.538675 -0.23828295 -24.905855 -0.23807375 -24.89822 -33.186466 -28.496899
1840000000 -28.554176 -26.042179 -0.23797013 -25.32069 -0.23897842 -25.309774 -33.175228 -29.665009
1870000000 -28.53643 -26.737501 -0.23974538 -25.726614 -0.23961955 -25.717306 -33.169193 -30.255314
1900000000 -28.487837 -27.214079 -0.23934548 -26.130926 -0.23947348 -26.118616 -33.133087 -30.564066
1930000000 -28.442253 -27.390507 -0.23954679 -26.546062 -0.24070592 -26.535774 -33.113316 -31.153248
1960000000 -28.420231 -27.856565 -0.24030182 -26.957748 -0.24160209 -26.944351 -33.083038 -31.961109
1990000000 -28.43981 -28.364271 -0.24187742 -27.368351 -0.24240129 -27.351515 -33.015583 -32.157188
2020000000 -28.417028 -28.701767 -0.24164288 -27.782917 -0.24305333 -27.768198 -33.055698 -32.699802
2050000000 -28.402975 -29.043711 -0.24285896 -28.184422 -0.24341361 -28.173306 -33.101093 -33.358513
2080000000 -28.376656 -29.788115 -0.24318694 -28.591131 -0.24374217 -28.582333 -33.094406 -33.141701
2110000000 -28.35148 -29.910891 -0.24469456 -29.005655 -0.2451303 -28.984875 -33.069244 -33.15136
2140000000 -28.388481 -30.222013 -0.24529272 -29.404795 -0.24717154 -29.392115 -33.013802 -34.419144
2170000000 -28.415316 -30.448298 -0.24520425 -29.820826 -0.24706192 -29.802195 -32.967621 -34.553974
2200000000 -28.382326 -30.801756 -0.24552143 -30.230688 -0.24808303 -30.219322 -32.962502 -34.170708
2230000000 -28.454584 -31.17309 -0.24752448 -30.641584 -0.24788377 -30.625595 -32.888279 -35.285244
2260000000 -28.464485 -32.13353 -0.24719401 -31.050255 -0.24738747 -31.034731 -32.84285 -35.809128
2290000000 -28.375212 -32.788441 -0.24839275 -31.456743 -0.24843167 -31.448063 -32.884705 -35.329899
2320000000 -28.429831 -32.911041 -0.25009027 -31.867126 -0.25062829 -31.857864 -32.815891 -36.44371
2350000000 -28.449453 -33.656605 -0.25124153 -32.2794 -0.25145054 -32.263626 -32.773075 -36.717987
2380000000 -28.381838 -33.787846 -0.25193167 -32.693489 -0.25243646 -32.673195 -32.750702 -36.865391
2410000000 -28.412544 -34.242462 -0.25317782 -33.090336 -0.25337869 -33.075531 -32.769688 -37.918884
2440000000 -28.475935 -34.770153 -0.25406367 -33.502373 -0.25373927 -33.488155 -32.710159 -37.341789
2470000000 -28.417437 -35.162613 -0.25514376 -33.921177 -0.2556116 -33.902195 -32.656761 -37.753311
2500000000 -28.428753 -35.421253 -0.25681293 -34.318951 -0.25671789 -34.304432 -32.549644 -38.875885
2530000000 -28.517811 -36.367817 -0.25715595 -34.725002 -0.25775996 -34.71701 -32.573917 -39.462959
2560000000 -28.46269 -36.855274 -0.25967056 -35.139584 -0.2600759 -35.115242 -32.601269 -39.111225
2590000000 -28.500076 -36.716476 -0.26175794 -35.542816 -0.26104015 -35.523449 -32.37994 -40.217594
2620000000 -28.615927 -37.168915 -0.26211429 -35.958614 -0.26256168 -35.937523 -32.398552 -40.382061
2650000000 -28.610298 -38.572575 -0.26337767 -36.36153 -0.26347557 -36.338726 -32.469349 -40.579002
2680000000 -28.557846 -38.933819 -0.26363289 -36.762611 -0.26437151 -36.744675 -32.404263 -41.338894
2710000000 -28.581671 -39.432011 -0.26504639 -37.170071 -0.26552132 -37.144737 -32.307255 -41.380558
2740000000 -28.592955 -39.648006 -0.26713529 -37.576466 -0.26694533 -37.555592 -32.192478 -41.906025
2770000000 -28.665886 -40.140995 -0.26783952 -37.976486 -0.26805812 -37.967636 -32.17178 -42.610882
2800000000 -28.747063 -41.059464 -0.26848659 -38.384895 -0.26818699 -38.364166 -32.175682 -42.573803
2830000000 -28.68029 -41.544136 -0.26935461 -38.78928 -0.27045479 -38.765923 -32.235512 -42.828957
2860000000 -28.661983 -41.928978 -0.27167815 -39.186142 -0.2732445 -39.171734 -32.098774 -44.425793
2890000000 -28.73555 -42.507439 -0.27294266 -39.58894 -0.27352598 -39.575409 -32.030598 -44.684525
2920000000 -28.755896 -43.147194 -0.27468732 -39.998165 -0.27479598 -39.979813 -32.131962 -44.91679
2950000000 -28.78019 -43.439796 -0.27558365 -40.396709 -0.27672458 -40.384678 -31.938662 -45.094673
2980000000 -28.819242 -44.267742 -0.27762243 -40.798855 -0.27725983 -40.780304 -31.871943 -45.559666
3010000000 -28.842833 -44.829678 -0.2777212 -41.197998 -0.27812135 -41.183365 -31.953749 -45.486401
3040000000 -28.87899 -45.06358 -0.27850443 -41.604073 -0.2786971 -41.584381 -31.838123 -45.981316
3070000000 -28.889862 -45.650852 -0.2785486 -42.00491 -0.2789422 -41.980507 -31.778873 -46.034313
3100000000 -28.882061 -46.172474 -0.27884337 -42.403648 -0.27865708 -42.386173 -31.797495 -46.830452
3130000000 -28.95281 -47.148762 -0.27882406 -42.807011 -0.27934799 -42.78756 -31.671928 -47.779366
3160000000 -28.8859 -47.381241 -0.28005752 -43.217289 -0.27974001 -43.195065 -31.614056 -47.688236
3190000000 -28.863535 -47.479458 -0.28150067 -43.61536 -0.28088093 -43.600056 -31.592688 -47.852947
3220000000 -28.911898 -48.686893 -0.28263265 -44.014587 -0.28094169 -43.996418 -31.570414 -49.017941
3250000000 -28.866119 -49.270699 -0.28189012 -44.415318 -0.28240225 -44.398438 -31.515146 -49.853928
3280000000 -28.843689 -49.225819 -0.28289402 -44.823902 -0.28302857 -44.807404 -31.47764 -49.704372
3310000000 -28.893667 -49.952656 -0.28350049 -45.225685 -0.28396749 -45.209415 -31.427574 -50.631607
3340000000 -28.897661 -50.588238 -0.28395009 -45.625881 -0.28413111 -45.614765 -31.420513 -51.488815
3370000000 -28.923784 -51.102592 -0.28424305 -46.03442 -0.2835671 -46.016422 -31.438881 -51.419144
3400000000 -28.921267 -51.686405 -0.28438011 -46.427429 -0.28502992 -46.420769 -31.373371 -51.896671
3430000000 -28.900717 -52.099766 -0.28476954 -46.831745 -0.28501639 -46.81599 -31.341885 -52.103287
3460000000 -28.881077 -52.584953 -0.28662488 -47.236462 -0.28721723 -47.219372 -31.353773 -52.666061
3490000000 -28.890848 -53.426308 -0.28748354 -47.644386 -0.28643492 -47.622711 -31.352528 -52.886959
3520000000 -28.821825 -53.614998 -0.28732619 -48.049248 -0.28736877 -48.031273 -31.255932 -52.918629
3550000000 -28.830524 -53.094425 -0.28742021 -48.453556 -0.28756624 -48.429924 -31.200954 -52.908321
3580000000 -28.879725 -54.419231 -0.28870812 -48.85458 -0.28678083 -48.830658 -31.133957 -53.918198
3610000000 -28.806129 -54.936893 -0.28806883 -49.255131 -0.28632402 -49.237015 -31.197113 -54.492332
3640000000 -28.783661 -54.733196 -0.28795847 -49.659966 -0.28763318 -49.642422 -31.145344 -54.38623
3670000000 -28.783731 -55.071514 -0.28874382 -50.067589 -0.28805748 -50.049023 -31.043335 -55.224567
3700000000 -28.765079 -55.910149 -0.2870889 -50.466568 -0.28738952 -50.447693 -31.080812 -56.142403
3730000000 -28.771252 -56.421383 -0.28788903 -50.879475 -0.28854132 -50.854111 -31.104776 -56.43528
3760000000 -28.748793 -56.403576 -0.29022446 -51.278053 -0.28912479 -51.259769 -31.043627 -56.857841
3790000000 -28.699646 -56.634815 -0.29021007 -51.682777 -0.28818887 -51.666691 -30.993092 -57.082886
3820000000 -28.764093 -57.164089 -0.29015222 -52.090981 -0.28912699 -52.079308 -31.017969 -57.607422
3850000000 -28.715137 -58.340088 -0.29028034 -52.487099 -0.28932843 -52.479763 -31.072855 -58.489773
3880000000 -28.609144 -58.248577 -0.29018515 -52.892315 -0.28993416 -52.877686 -31.035639 -58.605453
3910000000 -28.634813 -58.220512 -0.29132605 -53.301952 -0.29048571 -53.29126 -31.037313 -58.933079
3940000000 -28.611864 -59.290413 -0.29146501 -53.707211 -0.29168704 -53.68943 -31.032393 -59.54895
3970000000 -28.533554 -59.602909 -0.29148883 -54.111446 -0.29108745 -54.089806 -30.991081 -59.702671
4000000000 -28.551933 -59.032539 -0.29261208 -54.516529 -0.29200098 -54.503128 -31.023184 -59.387039
4030000000 -28.533886 -59.705265 -0.29365364 -54.919697 -0.29316562 -54.90377 -31.00342 -60.068733
4060000000 -28.503847 -60.36964 -0.29303658 -55.323624 -0.2923061 -55.312889 -30.946312 -60.730629
4090000000 -28.546431 -60.239365 -0.29266828 -55.727474 -0.29294521 -55.720566 -30.984509 -60.379551
4120000000 -28.543303 -61.01997 -0.29353288 -56.132641 -0.29362372 -56.116985 -31.02022 -60.996822
4150000000 -28.44515 -61.094143 -0.29276687 -56.532223 -0.29371372 -56.517864 -30.965776 -61.275009
4180000000 -28.481407 -60.847122 -0.2955097 -56.939232 -0.29392394 -56.926945 -31.017788 -61.525452
4210000000 -28.41103 -61.83569 -0.29591289 -57.341583 -0.2954576 -57.325108 -31.04212 -62.29229
4240000000 -28.383751 -61.412781 -0.29625568 -57.747017 -0.29430565 -57.73513 -30.949818 -61.924667
4270000000 -28.395819 -61.457325 -0.29653171 -58.154247 -0.29602262 -58.144424 -30.946182 -61.457809
4300000000 -28.390219 -62.544849 -0.29618973 -58.556065 -0.29554436 -58.539318 -31.058882 -62.380035
4330000000 -28.352243 -62.640709 -0.29609939 -58.960907 -0.29489267 -58.945011 -30.977768 -62.174797
4360000000 -28.367144 -61.850117 -0.29681164 -59.367779 -0.29572916 -59.349487 -30.921644 -61.731327
4390000000 -28.368631 -62.525108 -0.29758614 -59.771473 -0.29691726 -59.757389 -30.992668 -62.587067
4420000000 -28.344023 -62.823917 -0.29692861 -60.164768 -0.29674402 -60.159817 -30.936306 -62.506901
4450000000 -28.337852 -62.457661 -0.29764852 -60.573315 -0.29746306 -60.562447 -30.927546 -62.154293
4480000000 -28.337347 -63.122185 -0.29835576 -60.977531 -0.29761359 -60.964863 -30.960175 -63.594753
4510000000 -28.331873 -62.960697 -0.29766598 -61.381435 -0.29767707 -61.36824 -30.783321 -62.879097
4540000000 -28.317696 -62.78336 -0.29904732 -61.795898 -0.29791105 -61.783939 -30.83873 -62.245312
4570000000 -28.312166 -63.454151 -0.29825705 -62.195328 -0.29871455 -62.181591 -30.937551 -63.422588
4600000000 -28.304544 -63.236412 -0.29877251 -62.600571 -0.29833469 -62.577553 -30.823383 -63.079987
4630000000 -28.2735 -62.8815 -0.29962417 -63.003422 -0.29925671 -62.987869 -30.794544 -62.694267
4660000000 -28.280396 -63.671215 -0.29917434 -63.405884 -0.29959533 -63.389984 -30.875906 -63.615097
4690000000 -28.280355 -63.630943 -0.29836574 -63.806522 -0.2987628 -63.796741 -30.700533 -63.159813
4720000000 -28.210794 -63.108929 -0.2989558 -64.219284 -0.29940701 -64.203171 -30.710651 -62.167507
4750000000 -28.23016 -63.746265 -0.29964471 -64.622398 -0.29948938 -64.606384 -30.753 -63.811909
4780000000 -28.285961 -63.500809 -0.29976702 -65.03231 -0.29874617 -65.010902 -30.642799 -63.449848
4810000000 -28.245886 -63.323578 -0.30011731 -65.436295 -0.2998333 -65.424179 -30.667337 -62.729584
4840000000 -28.212992 -63.852196 -0.30049431 -65.831627 -0.30109215 -65.819084 -30.745792 -64.224274
4870000000 -28.240868 -63.544617 -0.29954708 -66.24498 -0.2996203 -66.230728 -30.621328 -63.405964
4900000000 -28.239094 -63.516731 -0.29998639 -66.654228 -0.29957119 -66.641357 -30.606041 -63.146034
4930000000 -28.205732 -64.156517 -0.30034757 -67.054726 -0.30034727 -67.042274 -30.636276 -64.130028
4960000000 -28.259859 -63.943897 -0.29939011 -67.463287 -0.29977921 -67.444397 -30.481821 -63.776993
4990000000 -28.217871 -63.765213 -0.30067351 -67.882614 -0.30136406 -67.863174 -30.623093 -63.380421
5020000000 -28.206028 -64.371712 -0.30210772 -68.277527 -0.30034339 -68.264328 -30.624033 -64.537224
5050000000 -28.224829 -64.040314 -0.30120564 -68.682404 -0.30151582 -68.666306 -30.445587 -63.615837
5080000000 -28.182114 -63.932121 -0.30116954 -69.089912 -0.30199698 -69.072792 -30.528931 -63.603836
5110000000 -28.193935 -64.512535 -0.30165622 -69.494987 -0.30169758 -69.466835 -30.612629 -64.600876
5140000000 -28.206553 -64.13768 -0.30220678 -69.901482 -0.30223316 -69.883598 -30.452108 -63.815891
5170000000 -28.192112 -63.872692 -0.30289119 -70.31189 -0.30235636 -70.295815 -30.481434 -63.215847
5200000000 -28.189095 -64.364891 -0.30304578 -70.714577 -0.30210882 -70.692467 -30.514669 -64.891167
5230000000 -28.221367 -63.828568 -0.30281985 -71.12352 -0.30239105 -71.103203 -30.355967 -64.359047
5260000000 -28.199369 -63.63229 -0.30376309 -71.529259 -0.30414677 -71.513435 -30.388596 -63.200104
5290000000 -28.197605 -64.626129 -0.30331865 -71.926704 -0.30428031 -71.919556 -30.430943 -65.098534
5320000000 -28.234755 -63.93924 -0.30280402 -72.343918 -0.30282319 -72.325783 -30.239746 -64.280853
5350000000 -28.212837 -63.841682 -0.30462739 -72.754822 -0.30501029 -72.735542 -30.345322 -63.803345
5380000000 -28.200424 -64.516258 -0.30472234 -73.156418 -0.30558878 -73.137161 -30.348215 -65.093697
5410000000 -28.267996 -63.897678 -0.30462739 -73.562119 -0.30398434 -73.543068 -30.106607 -64.050659
5440000000 -28.227234 -63.722168 -0.306364 -73.968559 -0.30594206 -73.954094 -30.234001 -63.657051
5470000000 -28.225979 -63.848984 -0.30590597 -74.370544 -0.30640954 -74.354187 -30.242554 -64.549675
5500000000 -28.273211 -63.836166 -0.30610678 -74.786865 -0.30688986 -74.759758 -30.059246 -64.161171
5530000000 -28.251024 -63.955276 -0.30734938 -75.194031 -0.30751917 -75.173531 -30.069654 -63.917156
5560000000 -28.327625 -64.502739 -0.30788288 -75.597466 -0.30737829 -75.575066 -30.137157 -65.487434
5590000000 -28.312109 -63.84111 -0.30789733 -76.000618 -0.30813271 -75.988327 -29.937296 -64.382492
5620000000 -28.280827 -64.168755 -0.30991465 -76.412003 -0.31008896 -76.386703 -30.12746 -63.716846
5650000000 -28.267065 -64.850403 -0.3095274 -76.806923 -0.31016901 -76.79274 -30.035309 -65.184631
5680000000 -28.318672 -64.13929 -0.30976591 -77.223366 -0.30952406 -77.207008 -29.858383 -64.877197
5710000000 -28.274349 -63.922115 -0.31119004 -77.624367 -0.31105378 -77.608727 -29.943277 -64.236603
5740000000 -28.273544 -64.734879 -0.31124648 -78.025719 -0.3110916 -78.008018 -29.946192 -65.337845
5770000000 -28.262491 -64.203903 -0.31157884 -78.437157 -0.31223023 -78.415436 -29.696604 -64.813957
5800000000 -28.297277 -63.94471 -0.31308702 -78.843277 -0.31361258 -78.821678 -29.895826 -64.831009
5830000000 -28.310156 -64.274803 -0.31306365 -79.2556 -0.31233871 -79.227776 -29.90386 -65.904106
5860000000 -28.279488 -63.852932 -0.3133285 -79.654419 -0.31275764 -79.63633 -29.604158 -64.430214
5890000000 -28.254267 -64.09819 -0.31425846 -80.062935 -0.31420723 -80.040268 -29.760929 -64.445313
5920000000 -28.296532 -64.334068 -0.31468898 -80.460152 -0.31395039 -80.448402 -29.736704 -65.840012
5950000000 -28.269897 -63.536884 -0.31516743 -80.878723 -0.31524229 -80.860779 -29.539093 -65.073631
5980000000 -28.251125 -63.987263 -0.31694835 -81.283943 -0.31561002 -81.266113 -29.627485 -64.768211
6010000000 -28.257875 -64.827545 -0.31642237 -81.680786 -0.31574947 -81.659668 -29.583349 -66.067108
6040000000 -28.253748 -63.921719 -0.31677598 -82.09494 -0.31729728 -82.06897 -29.417034 -65.168106
6070000000 -28.201344 -63.885548 -0.31883308 -82.498528 -0.31913897 -82.476524 -29.601954 -65.151207
6100000000 -28.190573 -64.546028 -0.31876844 -82.899269 -0.31982884 -82.880692 -29.488621 -66.14257
6130000000 -28.224173 -64.003746 -0.32001719 -83.306297 -0.3198801 -83.288773 -29.292046 -65.453705
6160000000 -28.249168 -64.018524 -0.32095554 -83.705017 -0.32126576 -83.693092 -29.465836 -65.560547
6190000000 -28.228191 -64.683655 -0.32114032 -84.111465 -0.32151133 -84.09063 -29.429993 -66.882782
6220000000 -28.175489 -64.083687 -0.32165989 -84.515556 -0.3225958 -84.500641 -29.219143 -65.525124
6250000000 -28.194113 -64.632095 -0.32323965 -84.92215 -0.32446095 -84.901466 -29.349731 -65.807045
6280000000 -28.195663 -64.806877 -0.32312837 -85.323776 -0.32281914 -85.302635 -29.301979 -66.664948
6310000000 -28.118153 -64.175446 -0.3229042 -85.733345 -0.32460934 -85.713013 -29.161228 -65.940674
6340000000 -28.066027 -64.605202 -0.32593316 -86.131538 -0.32596499 -86.109222 -29.268789 -66.021629
6370000000 -28.11622 -64.964661 -0.32557544 -86.527039 -0.32665786 -86.508629 -29.165123 -67.367157
6400000000 -28.166431 -64.056709 -0.32641593 -86.939331 -0.32626912 -86.916054 -29.057257 -66.962029
6430000000 -28.135633 -64.490883 -0.32706648 -87.347435 -0.32769394 -87.323029 -29.265305 -66.556038
6460000000 -28.067436 -65.263092 -0.32662159 -87.745949 -0.32746896 -87.72097 -29.115759 -67.011307
6490000000 -28.031567 -64.67897 -0.3275421 -88.146286 -0.32788461 -88.12394 -28.97253 -66.768494
6520000000 -28.07239 -64.645569 -0.32867891 -88.549881 -0.32909355 -88.529327 -29.154945 -67.111122
6550000000 -28.047571 -65.034889 -0.32886791 -88.949936 -0.32958755 -88.928467 -29.144554 -67.751442
6580000000 -27.996634 -64.801048 -0.32948756 -89.363457 -0.32929599 -89.335258 -28.998045 -66.993675
6610000000 -28.0135 -65.052643 -0.33043882 -89.762383 -0.33042571 -89.735649 -29.095695 -66.645058
6640000000 -28.002092 -65.155563 -0.33034387 -90.155388 -0.33013132 -90.134705 -29.047155 -67.789345
6670000000 -27.925451 -64.320732 -0.33196253 -90.571304 -0.33180466 -90.549484 -28.995365 -66.754326
6700000000 -27.901163 -65.086853 -0.33286515 -90.965958 -0.33307758 -90.947029 -29.017807 -66.755424
6730000000 -27.833387 -65.429405 -0.33273521 -91.365395 -0.33267623 -91.342392 -28.969666 -67.064667
6760000000 -27.851952 -64.812347 -0.33314157 -91.767021 -0.33378306 -91.74736 -28.845497 -67.063004
6790000000 -27.837128 -65.001892 -0.33428487 -92.172485 -0.33445737 -92.151207 -28.975714 -66.736977
6820000000 -27.73443 -65.658722 -0.33509961 -92.567268 -0.33507726 -92.548279 -28.89123 -66.956367
6850000000 -27.754131 -65.38398 -0.33546764 -92.972282 -0.33559877 -92.955742 -28.738085 -67.048576
6880000000 -27.80895 -65.537315 -0.33585775 -93.375076 -0.33527467 -93.351944 -28.828749 -67.463135
6910000000 -27.73348 -65.689034 -0.33554536 -93.774361 -0.33546817 -93.74707 -28.864096 -67.496124
6940000000 -27.687918 -65.188843 -0.3353622 -94.175407 -0.33561054 -94.149544 -28.699562 -66.535271
6970000000 -27.730591 -65.769562 -0.3354114 -94.577042 -0.33561528 -94.553192 -28.777544 -66.818748
7000000000 -27.702604 -65.546188 -0.33533144 -94.984879 -0.33569723 -94.958885 -28.809565 -67.14888
7030000000 -27.619768 -64.565979 -0.33467099 -95.396805 -0.33580405 -95.364014 -28.589432 -66.32608
7060000000 -27.599794 -65.128754 -0.33633322 -95.792046 -0.33681741 -95.764687 -28.687199 -65.942169
7090000000 -27.539345 -65.551254 -0.33737022 -96.186646 -0.33772972 -96.161781 -28.623535 -66.892807
7120000000 -27.546028 -64.707924 -0.33840659 -96.593292 -0.33807471 -96.561447 -28.515965 -66.973618
7150000000 -27.526953 -64.99752 -0.33908162 -96.995377 -0.33922324 -96.96537 -28.647295 -66.763763
7180000000 -27.420988 -65.329239 -0.33827534 -97.392975 -0.33830249 -97.368492 -28.550663 -66.679405
7210000000 -27.397367 -64.74308 -0.33884624 -97.792717 -0.33845109 -97.769745 -28.364 -66.976425
7240000000 -27.447338 -64.692436 -0.33871555 -98.199463 -0.33963105 -98.173004 -28.477428 -67.199829
7270000000 -27.372828 -65.12262 -0.33992806 -98.59507 -0.3402164 -98.571358 -28.519194 -67.138359
7300000000 -27.34692 -64.756607 -0.340675 -98.994377 -0.34022003 -98.971008 -28.370729 -66.759567
7330000000 -27.313492 -65.201332 -0.34099895 -99.384094 -0.34018421 -99.362434 -28.370474 -66.88726
7360000000 -27.277281 -65.386086 -0.34099895 -99.782158 -0.34105101 -99.755539 -28.45949 -67.220123
7390000000 -27.263025 -64.540321 -0.34042162 -100.1835 -0.33992079 -100.15304 -28.334942 -67.117477
7420000000 -27.229832 -65.144211 -0.3406159 -100.57501 -0.34003526 -100.55092 -28.357681 -66.495827
7450000000 -27.175352 -65.425377 -0.33947515 -100.97401 -0.33943903 -100.95072 -28.370108 -67.039429
7480000000 -27.20508 -64.333336 -0.33849502 -101.37694 -0.33822638 -101.34806 -28.24296 -67.194656
7510000000 -27.200745 -64.616768 -0.33755597 -101.77495 -0.33757836 -101.74816 -28.355452 -66.208572
7540000000 -27.114733 -64.581802 -0.33664089 -102.17079 -0.33645713 -102.14319 -28.353714 -65.923164
7570000000 -27.17728 -63.971729 -0.33622524 -102.57511 -0.33578783 -102.55436 -28.194902 -66.760704
7600000000 -27.173462 -64.072884 -0.33508509 -102.98222 -0.33505601 -102.95987 -28.304947 -65.955154
7630000000 -27.028116 -63.573414 -0.33367434 -103.3937 -0.33385211 -103.35898 -28.322096 -65.167366
7660000000 -27.016478 -62.955513 -0.33294424 -103.79901 -0.33346608 -103.7685 -28.115265 -65.860123
7690000000 -26.943642 -62.950596 -0.33428013 -104.20615 -0.33356532 -104.17817 -28.101973 -65.353203
7720000000 -26.884998 -63.000854 -0.33420658 -104.6106 -0.33472186 -104.58297 -28.220926 -65.469612
7750000000 -26.89716 -62.060848 -0.33519778 -105.01383 -0.33473837 -104.98837 -28.023615 -65.603249
7780000000 -26.833338 -62.711876 -0.33531913 -105.41148 -0.33587676 -105.38204 -27.987749 -64.886925
7810000000 -26.786541 -63.105507 -0.33423567 -105.80766 -0.33430696 -105.77672 -28.102406 -65.222099
7840000000 -26.835806 -62.088669 -0.33331683 -106.21268 -0.33316758 -106.18398 -27.914862 -65.875397
7870000000 -26.761837 -62.244663 -0.33346552 -106.61943 -0.33274192 -106.58643 -27.962999 -64.495789
7900000000 -26.650219 -62.369053 -0.33255494 -107.01317 -0.33173761 -106.98603 -27.94936 -64.611633
7930000000 -26.700937 -61.697201 -0.33076707 -107.42091 -0.33070728 -107.39512 -27.812969 -65.390221
7960000000 -26.701206 -61.833729 -0.33097237 -107.82384 -0.33079472 -107.79903 -27.835846 -64.513687
7990000000 -26.610554 -61.671986 -0.33058268 -108.22571 -0.32866716 -108.19904 -27.927521 -64.341309
8020000000 -26.579046 -61.05093 -0.32893187 -108.62925 -0.32846698 -108.60276 -27.669716 -64.68718
8050000000 -26.540823 -61.373814 -0.32895756 -109.03076 -0.32973555 -109.01089 -27.714531 -63.735863
8080000000 -26.49601 -61.220734 -0.32828635 -109.43884 -0.32799682 -109.40545 -27.830328 -64.208725
8110000000 -26.538361 -60.18541 -0.32727805 -109.84241 -0.3260071 -109.81668 -27.637102 -64.447952
8140000000 -26.409922 -60.695618 -0.32631239 -110.25016 -0.32682896 -110.22202 -27.565773 -63.259716
8170000000 -26.364347 -60.625019 -0.32581988 -110.65208 -0.32555592 -110.62363 -27.636499 -63.68219
8200000000 -26.425505 -59.814186 -0.32505262 -111.06458 -0.3241837 -111.03493 -27.491377 -64.444275
8230000000 -26.300966 -59.806427 -0.32450837 -111.47427 -0.32476223 -111.43893 -27.477732 -62.49078
8260000000 -26.201626 -59.588947 -0.32330823 -111.8688 -0.32284898 -111.8406 -27.49836 -63.221134
8290000000 -26.27648 -59.062668 -0.32200754 -112.28465 -0.32195345 -112.24869 -27.307945 -64.147217
8320000000 -26.217505 -59.273598 -0.32260722 -112.68874 -0.3219398 -112.65727 -27.347977 -62.360741
8350000000 -26.144913 -58.611404 -0.32080141 -113.09609 -0.32011139 -113.06631 -27.418976 -62.577122
8380000000 -26.144766 -58.171589 -0.32031035 -113.50748 -0.32038727 -113.48357 -27.127121 -63.429558
8410000000 -26.047848 -58.98288 -0.32028806 -113.9167 -0.32078052 -113.89327 -27.097067 -62.224129
8440000000 -26.033928 -58.34713 -0.31907767 -114.32825 -0.31873977 -114.29356 -27.285458 -62.505123
8470000000 -26.009203 -57.634373 -0.31939641 -114.74132 -0.31908938 -114.71005 -26.960443 -63.364651
8500000000 -25.817938 -58.218948 -0.31967613 -115.14639 -0.31904313 -115.11871 -26.908716 -61.655197
8530000000 -25.809879 -57.742714 -0.31898353 -115.55222 -0.31797263 -115.52386 -27.053801 -62.804417
8560000000 -25.877735 -57.019779 -0.31810492 -115.96806 -0.31837177 -115.94226 -26.835835 -62.883331
8590000000 -25.750061 -57.483433 -0.31827319 -116.37928 -0.31813139 -116.3452 -26.75004 -61.559547
8620000000 -25.623663 -57.490017 -0.31719285 -116.77595 -0.31763229 -116.75255 -26.830614 -62.321701
8650000000 -25.666485 -57.310398 -0.31753734 -117.1935 -0.3172839 -117.16853 -26.646841 -63.132294
8680000000 -25.569876 -57.333229 -0.31792027 -117.59758 -0.31868961 -117.56571 -26.600111 -61.387959
8710000000 -25.505547 -56.933254 -0.31628343 -118.00615 -0.31630626 -117.97724 -26.676653 -62.447903
8740000000 -25.493397 -56.547508 -0.31733263 -118.42033 -0.31661645 -118.38946 -26.450956 -62.953682
8770000000 -25.382063 -57.293835 -0.31796122 -118.82868 -0.31755683 -118.79625 -26.4447 -61.423714
8800000000 -25.352463 -56.652912 -0.31613865 -119.23222 -0.31618935 -119.20276 -26.511677 -61.878632
8830000000 -25.332121 -56.178696 -0.31560862 -119.65591 -0.31517634 -119.62258 -26.275978 -62.890499
8860000000 -25.188358 -56.887039 -0.31661838 -120.06252 -0.31623694 -120.03525 -26.229412 -61.190212
8890000000 -25.175467 -56.699356 -0.3158561 -120.47309 -0.31437868 -120.44572 -26.342583 -62.17944
8920000000 -25.169973 -56.180984 -0.31590062 -120.89293 -0.31472349 -120.85899 -26.074726 -62.659187
8950000000 -24.998245 -56.432381 -0.3169865 -121.29785 -0.31685367 -121.26704 -26.005014 -60.86573
8980000000 -24.976345 -56.372986 -0.31677097 -121.69393 -0.31573418 -121.67847 -26.154394 -62.333317
9010000000 -24.991926 -56.431828 -0.31694251 -122.11992 -0.31568182 -122.08734 -25.857967 -62.990677
9040000000 -24.870985 -56.832077 -0.31754121 -122.52974 -0.31705889 -122.49797 -25.840593 -61.189201
9070000000 -24.828423 -56.51041 -0.31643853 -122.93535 -0.31600755 -122.90369 -25.904493 -62.458858
9100000000 -24.753111 -56.394352 -0.31633496 -123.35378 -0.31588671 -123.32045 -25.66865 -62.931343
9130000000 -24.658558 -56.713963 -0.31886595 -123.7598 -0.31691745 -123.72783 -25.725 -61.495136
9160000000 -24.645473 -56.48291 -0.31713602 -124.16885 -0.31674257 -124.13537 -25.71307 -62.341167
9190000000 -24.620861 -56.241959 -0.3167927 -124.59123 -0.31773004 -124.55622 -25.435781 -63.297543
9220000000 -24.44515 -57.067463 -0.31922421 -124.99664 -0.31873947 -124.962 -25.444036 -61.528305
9250000000 -24.444828 -57.059685 -0.31850383 -125.3951 -0.31745601 -125.37034 -25.576649 -62.763226
9280000000 -24.415958 -56.930367 -0.31947163 -125.81911 -0.31900468 -125.78826 -25.232214 -62.998837
9310000000 -24.263918 -57.07069 -0.3207401 -126.22916 -0.32061914 -126.19657 -25.215902 -62.082733
9340000000 -24.242943 -56.819 -0.31961679 -126.63647 -0.32025462 -126.60046 -25.348829 -63.487968
9370000000 -24.218811 -57.307201 -0.32082593 -127.05249 -0.32055059 -127.0166 -25.061186 -63.468311
9400000000 -24.078045 -57.776707 -0.32205352 -127.45337 -0.32186592 -127.41979 -25.053959 -62.08551
9430000000 -24.078257 -57.343407 -0.32251021 -127.86557 -0.32260555 -127.83546 -25.090286 -63.456802
9460000000 -24.019514 -57.515392 -0.3234711 -128.28134 -0.32278401 -128.25023 -24.912205 -64.352333
9490000000 -23.87838 -58.123154 -0.32369477 -128.68288 -0.32497618 -128.65514 -24.897472 -62.505753
9520000000 -23.909847 -57.806274 -0.32407379 -129.09201 -0.32468104 -129.06375 -24.91415 -63.835968
9550000000 -23.815889 -57.907047 -0.32531124 -129.5136 -0.32564437 -129.47137 -24.648611 -64.656281
9580000000 -23.702866 -58.589622 -0.32787594 -129.91814 -0.32859039 -129.87863 -24.722879 -63.310986
9610000000 -23.724216 -58.757904 -0.32759932 -130.32791 -0.32776764 -130.29346 -24.765181 -63.924767
9640000000 -23.64609 -58.910915 -0.32973695 -130.73605 -0.32849544 -130.70546 -24.420916 -64.844963
9670000000 -23.459328 -59.275593 -0.33101064 -131.14403 -0.33048826 -131.1114 -24.432373 -64.165451
9700000000 -23.44869 -59.208992 -0.33239901 -131.55125 -0.3308897 -131.51247 -24.536631 -65.076393
9730000000 -23.385059 -59.423092 -0.33454573 -131.97006 -0.33438218 -131.93037 -24.258829 -65.500107
9760000000 -23.332981 -60.033203 -0.33707589 -132.36951 -0.33517456 -132.33942 -24.290815 -64.697182
9790000000 -23.306612 -60.039261 -0.33732823 -132.78026 -0.33652818 -132.74773 -24.284315 -66.591537
9820000000 -23.208633 -60.377956 -0.3391667 -133.18488 -0.33960557 -133.1492 -24.119911 -66.596962
9850000000 -23.097546 -61.025986 -0.34204629 -133.57684 -0.34169927 -133.54037 -24.129421 -65.401733
9880000000 -23.151859 -61.323528 -0.34461418 -133.97928 -0.34225494 -133.94533 -24.154219 -66.866821
9910000000 -23.060396 -61.307156 -0.34669852 -134.38393 -0.34521869 -134.34985 -23.931973 -67.889297
9940000000 -22.974731 -61.971939 -0.34877011 -134.77698 -0.34877965 -134.73615 -24.070356 -66.861107
9970000000 -23.007261 -62.453114 -0.34948882 -135.16777 -0.34875664 -135.13194 -24.056372 -68.13723
10000000000 -22.956799 -62.911118 -0.35273322 -135.54648 -0.35090587 -135.51443 -23.83946 -68.499695
10030000000 -22.92065 -63.047947 -0.35326278 -135.93558 -0.35261953 -135.89386 -24.003479 -68.221283
10060000000 -22.966833 -63.211494 -0.35113373 -136.30954 -0.34988388 -136.27667 -24.130817 -69.190086
10090000000 -22.922894 -63.517681 -0.34869438 -136.69261 -0.34887785 -136.66658 -23.929079 -68.849953
10120000000 -22.912012 -63.516586 -0.34622052 -137.0779 -0.34550515 -137.0417 -23.962448 -67.878807
10150000000 -22.962187 -63.077953 -0.34202752 -137.47816 -0.34106839 -137.44206 -24.108479 -69.030746
10180000000 -22.865753 -62.798714 -0.34036759 -137.8887 -0.33871275 -137.85855 -23.916945 -68.547356
10210000000 -22.745819 -63.318272 -0.3361752 -138.29858 -0.33656594 -138.26328 -23.943512 -66.931145
10240000000 -22.792208 -63.087685 -0.3328537 -138.72217 -0.33252448 -138.69328 -23.841652 -68.156448
10270000000 -22.66667 -62.778488 -0.33154872 -139.14694 -0.33132747 -139.10703 -23.677732 -68.56778
10300000000 -22.547045 -62.945747 -0.3321327 -139.56207 -0.33111289 -139.53734 -23.727709 -66.927269
10330000000 -22.517847 -63.125099 -0.3312861 -139.98921 -0.33002964 -139.95996 -23.670847 -67.95562
10360000000 -22.4168 -63.366554 -0.33153978 -140.4122 -0.33042681 -140.38052 -23.368408 -68.314713
10390000000 -22.33069 -63.375645 -0.3331033 -140.83427 -0.33195555 -140.79604 -23.445951 -68.143692
10420000000 -22.253511 -63.456657 -0.33334619 -141.24646 -0.33223638 -141.22064 -23.470984 -68.851151
10450000000 -22.13512 -64.038895 -0.3360801 -141.66582 -0.33540022 -141.63048 -23.205936 -68.844803
10480000000 -22.119734 -64.462662 -0.33985415 -142.08563 -0.33908021 -142.04152 -23.17771 -68.652168
10510000000 -22.080746 -64.553505 -0.34232384 -142.50093 -0.34079343 -142.46416 -23.217443 -70.086487
10540000000 -21.944376 -64.926201 -0.34560072 -142.90211 -0.34517834 -142.86617 -23.088816 -70.382683
10570000000 -21.856474 -65.759888 -0.34925234 -143.29211 -0.34828487 -143.25172 -23.030706 -69.786545
10600000000 -21.921541 -66.218445 -0.35231379 -143.6825 -0.35189664 -143.64864 -23.079781 -71.638809
10630000000 -21.885216 -66.552177 -0.35510069 -144.05667 -0.35499957 -144.02663 -23.039286 -72.017273
10660000000 -21.857912 -66.703621 -0.35465631 -144.41815 -0.35434398 -144.39029 -23.160828 -71.187462
10690000000 -21.89842 -67.082558 -0.35081351 -144.80396 -0.34977108 -144.76778 -23.17498 -71.689163
10720000000 -21.919394 -66.839012 -0.34698284 -145.20042 -0.34563717 -145.16864 -23.046776 -71.757965
10750000000 -21.871979 -66.65699 -0.34285772 -145.60277 -0.34191802 -145.56761 -23.123201 -70.933807
10780000000 -21.813875 -66.422112 -0.33991575 -146.0204 -0.33804563 -145.9888 -23.151779 -71.333633
10810000000 -21.722395 -66.685799 -0.3385261 -146.43663 -0.33858737 -146.40375 -22.922382 -71.061867
10840000000 -21.72097 -66.773666 -0.33791888 -146.85703 -0.33647054 -146.81819 -22.876675 -71.078377
10870000000 -21.680243 -66.558731 -0.33600906 -147.2767 -0.3355532 -147.23729 -22.901915 -71.840706
10900000000 -21.544273 -66.779892 -0.33644426 -147.68578 -0.33624455 -147.64998 -22.809038 -71.227791
10930000000 -21.492176 -67.187721 -0.33781254 -148.09685 -0.33686385 -148.06258 -22.74213 -71.013611
10960000000 -21.487053 -67.062431 -0.33668369 -148.51839 -0.33658412 -148.48712 -22.703089 -72.398842
10990000000 -21.400076 -66.951576 -0.33646441 -148.93997 -0.33713967 -148.90126 -22.618824 -72.607117
11020000000 -21.330763 -67.347321 -0.33892965 -149.34406 -0.33769783 -149.30553 -22.630068 -71.569153
11050000000 -21.304054 -67.749489 -0.33822078 -149.76312 -0.33655867 -149.71944 -22.566338 -72.736374
11080000000 -21.239351 -67.972176 -0.33996248 -150.17554 -0.33824205 -150.13152 -22.408836 -73.009819
11110000000 -21.203602 -67.975342 -0.34164608 -150.5865 -0.34017217 -150.54207 -22.456734 -73.117935
11140000000 -21.139799 -68.171722 -0.341515 -150.99823 -0.34001485 -150.95726 -22.462065 -73.553101
11170000000 -21.068617 -68.622131 -0.34322134 -151.40685 -0.34179589 -151.36874 -22.253635 -73.488258
11200000000 -21.045641 -68.93824 -0.34481287 -151.81061 -0.3429541 -151.77019 -22.282455 -74.484665
11230000000 -20.997066 -68.743469 -0.34640273 -152.22014 -0.34672853 -152.17894 -22.361717 -75.093117
11260000000 -20.956839 -69.310974 -0.35078126 -152.61128 -0.35020599 -152.58078 -22.226109 -74.997978
11290000000 -20.978436 -69.944962 -0.35168302 -152.99176 -0.35046077 -152.96249 -22.240377 -74.90361
11320000000 -21.050026 -69.809479 -0.34859508 -153.37415 -0.34710985 -153.34433 -22.346622 -75.818451
11350000000 -20.981142 -69.614807 -0.34617454 -153.7892 -0.34462705 -153.75586 -22.283834 -75.316353
11380000000 -20.91341 -69.862778 -0.34494796 -154.20068 -0.34351355 -154.16214 -22.223154 -74.877167
11410000000 -20.859739 -70.172119 -0.34390748 -154.63118 -0.34229836 -154.58849 -22.147839 -75.531105
11440000000 -20.816246 -70.223831 -0.34498662 -155.03439 -0.34372956 -155.00592 -22.086151 -75.786827
11470000000 -20.779749 -70.33326 -0.34557128 -155.44073 -0.34308743 -155.41382 -22.122849 -75.768616
11500000000 -20.741831 -70.308372 -0.34457129 -155.85796 -0.34375197 -155.82065 -22.101072 -76.148636
11530000000 -20.703133 -70.66967 -0.3460882 -156.27411 -0.34521562 -156.23712 -21.947351 -76.426247
11560000000 -20.692131 -71.042038 -0.34658891 -156.67662 -0.34691021 -156.64249 -21.966631 -76.813156
11590000000 -20.651926 -70.972939 -0.3470616 -157.09109 -0.34666321 -157.05411 -21.976175 -76.855499
11620000000 -20.611006 -71.384422 -0.34840715 -157.49799 -0.34743455 -157.45981 -21.910812 -77.140419
11650000000 -20.570017 -71.675781 -0.34912217 -157.89999 -0.34890646 -157.86789 -21.820692 -77.356979
11680000000 -20.5341 -71.70372 -0.34999639 -158.31195 -0.348263 -158.27362 -21.840904 -78.151833
11710000000 -20.528355 -71.909592 -0.35084692 -158.71854 -0.35053992 -158.6842 -21.826475 -77.777023
11740000000 -20.470049 -72.374741 -0.3520982 -159.12589 -0.35074309 -159.08844 -21.778753 -77.768547
11770000000 -20.461433 -72.414345 -0.35317993 -159.52731 -0.35200837 -159.49664 -21.765226 -78.566055
11800000000 -20.427113 -72.751587 -0.35470995 -159.93379 -0.353176 -159.90282 -21.686094 -79.238518
11830000000 -20.400414 -73.092461 -0.35470912 -160.3331 -0.35396707 -160.29776 -21.705389 -79.187248
11860000000 -20.379213 -72.995628 -0.35432908 -160.73596 -0.35382074 -160.7041 -21.656578 -79.134895
11890000000 -20.374617 -73.470703 -0.35476333 -161.14021 -0.35432011 -161.10809 -21.610146 -79.584068
11920000000 -20.349707 -73.785431 -0.35545325 -161.55914 -0.35373989 -161.51917 -21.619446 -79.860352
11950000000 -20.346882 -73.98069 -0.35536477 -161.96637 -0.35449395 -161.92807 -21.639641 -80.158447
11980000000 -20.301292 -74.329056 -0.35687333 -162.36475 -0.35542798 -162.33391 -21.530636 -80.330101
12010000000 -20.246494 -74.558449 -0.3571215 -162.76746 -0.35559514 -162.73004 -21.498314 -80.405975
12040000000 -20.24835 -74.714165 -0.35741127 -163.18054 -0.35674575 -163.14397 -21.538582 -80.724976
12070000000 -20.251226 -74.99939 -0.35862255 -163.59097 -0.35779691 -163.55046 -21.522009 -80.939095
12100000000 -20.162582 -75.338486 -0.35906985 -163.99323 -0.35793886 -163.95773 -21.415024 -81.145065
12130000000 -20.129707 -75.368584 -0.35838977 -164.40428 -0.35833439 -164.35936 -21.400663 -81.330299
12160000000 -20.124422 -75.728706 -0.35987577 -164.7988 -0.35900912 -164.76711 -21.381933 -81.831627
12190000000 -20.09099 -76.022537 -0.36010581 -165.20604 -0.35946381 -165.17053 -21.396088 -82.065247
12220000000 -20.089754 -76.020134 -0.36055049 -165.62492 -0.36051899 -165.58162 -21.317347 -82.064545
12250000000 -20.034969 -76.696442 -0.3626878 -166.02696 -0.36066523 -165.98622 -21.25956 -82.668213
12280000000 -19.962084 -76.838554 -0.36214361 -166.42807 -0.36112404 -166.3848 -21.274195 -82.811111
12310000000 -20.005795 -76.973717 -0.36296219 -166.83334 -0.36150211 -166.79739 -21.308828 -82.684837
12340000000 -20.013861 -77.399048 -0.36377388 -167.24745 -0.36198491 -167.20834 -21.231686 -83.16497
12370000000 -19.921457 -77.534592 -0.36475465 -167.65144 -0.36258453 -167.61055 -21.168581 -83.970406
12400000000 -19.913363 -77.874725 -0.36392981 -168.05731 -0.36324444 -168.01506 -21.196949 -83.720711
12430000000 -19.92244 -78.448738 -0.36559513 -168.46614 -0.36393827 -168.42262 -21.203394 -83.87323
12460000000 -19.876854 -78.539627 -0.36686361 -168.86867 -0.36521414 -168.83093 -21.108168 -84.200462
12490000000 -19.837267 -78.562714 -0.36868024 -169.27486 -0.3669349 -169.23566 -21.124081 -84.317398
12520000000 -19.806486 -79.393639 -0.36753547 -169.67831 -0.36802879 -169.63757 -21.102007 -84.765503
12550000000 -19.771669 -79.65905 -0.36914438 -170.08224 -0.36891106 -170.05176 -21.048748 -84.922829
12580000000 -19.802515 -79.600914 -0.3698118 -170.49174 -0.36803922 -170.45061 -21.015429 -84.795082
12610000000 -19.763309 -80.253365 -0.37128115 -170.89146 -0.36946484 -170.85095 -21.002462 -85.581123
12640000000 -19.675045 -80.457214 -0.37262687 -171.29446 -0.37165561 -171.25465 -20.960983 -85.875153
12670000000 -19.731617 -80.58316 -0.37287483 -171.7001 -0.37253889 -171.66618 -20.94519 -85.497261
12700000000 -19.720219 -80.999969 -0.37364915 -172.11238 -0.37247092 -172.0676 -20.922995 -86.253731
12730000000 -19.61998 -81.211281 -0.37442985 -172.50687 -0.37186202 -172.46738 -20.881653 -86.851837
12760000000 -19.595093 -81.70665 -0.37530041 -172.9061 -0.37426251 -172.86263 -20.81226 -86.428444
12790000000 -19.645233 -82.111679 -0.37606108 -173.31435 -0.37469792 -173.27399 -20.879904 -87.097527
12820000000 -19.577124 -82.147087 -0.3767561 -173.71722 -0.37562302 -173.6759 -20.757648 -87.153145
12850000000 -19.554434 -82.367233 -0.37686563 -174.11899 -0.37545395 -174.08141 -20.783939 -87.379105
12880000000 -19.550983 -83.188843 -0.37727842 -174.5239 -0.37549883 -174.4828 -20.834799 -88.310165
12910000000 -19.499199 -83.186829 -0.37801993 -174.91656 -0.37746987 -174.87987 -20.682907 -87.899048
12940000000 -19.546858 -83.107635 -0.37864211 -175.32051 -0.37722278 -175.2856 -20.71069 -88.212334
12970000000 -19.487766 -83.649185 -0.37978783 -175.72516 -0.37846756 -175.6931 -20.74902 -88.864799
13000000000 -19.435377 -84.038422 -0.37933215 -176.12361 -0.37834471 -176.09203 -20.649853 -89.282272
13030000000 -19.493475 -84.426613 -0.37980622 -176.52846 -0.3795706 -176.49663 -20.677141 -88.888969
13060000000 -19.46236 -84.440117 -0.38078976 -176.93546 -0.38010257 -176.88857 -20.65802 -89.690338
13090000000 -19.352991 -84.612122 -0.38101724 -177.33771 -0.37997007 -177.29611 -20.560625 -90.266754
13120000000 -19.423738 -85.226395 -0.38106444 -177.74924 -0.38101187 -177.70708 -20.699764 -89.906105
13150000000 -19.402176 -85.763725 -0.38193351 -178.15517 -0.38059393 -178.11305 -20.671631 -90.190231
13180000000 -19.327545 -85.418747 -0.38161838 -178.53772 -0.38128996 -178.50487 -20.486988 -91.142708
13210000000 -19.314243 -85.915123 -0.38446206 -178.93936 -0.38280758 -178.90381 -20.595375 -90.567024
13240000000 -19.289782 -86.594467 -0.38336059 -179.34489 -0.38309342 -179.31322 -20.661438 -91.367607
13270000000 -19.279493 -86.488144 -0.38514766 -179.7545 -0.38383904 -179.71028 -20.495667 -91.438591
13300000000 -19.314716 -86.7752 -0.38424596 179.8439 -0.38248247 179.89149 -20.51898 -91.418266
13330000000 -19.219389 -87.203239 -0.38365579 179.44688 -0.38205987 179.48413 -20.613504 -93.064384
13360000000 -19.170845 -87.538734 -0.38332751 179.04895 -0.38389617 179.09497 -20.492773 -92.201241
13390000000 -19.288977 -88.010086 -0.38398835 178.64366 -0.38281861 178.67769 -20.551191 -92.058098
13420000000 -19.244051 -88.108147 -0.38522628 178.22401 -0.38419732 178.27072 -20.556797 -93.191811
13450000000 -19.14863 -88.283531 -0.38661569 177.8213 -0.38487414 177.86998 -20.482862 -93.784546
13480000000 -19.206152 -88.97052 -0.38586506 177.43207 -0.3857635 177.4772 -20.571144 -92.358376
13510000000 -19.200386 -88.95343 -0.387189 177.02405 -0.38587722 177.06418 -20.513914 -93.924538
13540000000 -19.164061 -88.773224 -0.38782212 176.63858 -0.38659078 176.68336 -20.362806 -93.75573
13570000000 -19.171711 -89.354431 -0.38821131 176.23788 -0.38761637 176.28065 -20.542162 -93.738052
13600000000 -19.131224 -90.069649 -0.38707608 175.82306 -0.38608998 175.86955 -20.543449 -94.798508
13630000000 -19.131819 -90.078468 -0.38703817 175.42705 -0.38585573 175.47719 -20.337185 -94.808586
13660000000 -19.147598 -90.453781 -0.38559884 175.02946 -0.38510126 175.07524 -20.452204 -94.692329
13690000000 -19.061932 -90.546074 -0.38579094 174.62279 -0.38513634 174.6573 -20.551582 -96.448082
13720000000 -19.069502 -90.912537 -0.386659 174.20973 -0.38569814 174.25458 -20.398573 -95.59549
13750000000 -19.167477 -91.351028 -0.38662615 173.80658 -0.38568938 173.8486 -20.423496 -95.550903
13780000000 -19.102707 -91.472527 -0.38681886 173.39073 -0.38705856 173.44408 -20.497326 -96.855438
13810000000 -19.039761 -91.58712 -0.38777655 173.00537 -0.38721901 173.04384 -20.354683 -96.848549
13840000000 -19.133209 -92.227608 -0.38893715 172.60417 -0.3883149 172.65758 -20.5217 -96.077507
13870000000 -19.093233 -92.203384 -0.39012977 172.18742 -0.38875115 172.23999 -20.496628 -97.765755
13900000000 -19.088696 -91.963844 -0.38893375 171.79922 -0.38768512 171.85329 -20.340906 -97.786942
13930000000 -19.129444 -92.884361 -0.38830248 171.4007 -0.38733137 171.45709 -20.535404 -97.38224
13960000000 -19.041431 -93.029121 -0.38793391 170.99278 -0.38637263 171.03833 -20.572836 -98.463562
13990000000 -19.094759 -93.115715 -0.38760078 170.59515 -0.38731012 170.64783 -20.341394 -98.191628
14020000000 -19.102627 -93.685867 -0.38797015 170.18793 -0.38711572 170.23305 -20.50491 -98.365196
14050000000 -18.986969 -93.846107 -0.3863667 169.77859 -0.38572022 169.83031 -20.586571 -99.582527
14080000000 -19.035646 -94.184776 -0.38684461 169.37646 -0.38539007 169.42722 -20.369379 -99.084595
14110000000 -19.106419 -94.726761 -0.38578698 168.96657 -0.38464448 169.02707 -20.495487 -98.721352
14140000000 -19.0541 -94.647911 -0.38595814 168.55327 -0.38609734 168.60518 -20.499958 -100.51379
14170000000 -19.072741 -94.969025 -0.38692442 168.14717 -0.38615024 168.19435 -20.429508 -100.04675
14200000000 -19.135427 -95.844719 -0.38613665 167.74388 -0.38622776 167.78679 -20.548048 -99.452843
14230000000 -19.079493 -95.760666 -0.3872408 167.32442 -0.38559347 167.37369 -20.507099 -101.31081
14260000000 -19.126745 -95.746689 -0.38668501 166.9192 -0.38625747 166.97865 -20.3519 -101.1461
14290000000 -19.182722 -96.249611 -0.38915658 166.50748 -0.38746917 166.55994 -20.624815 -100.74712
14320000000 -19.127563 -96.126625 -0.38997659 166.08965 -0.38973758 166.14326 -20.531763 -102.06017
14350000000 -19.222616 -96.423584 -0.39236841 165.69473 -0.39226982 165.73993 -20.385216 -101.2657
14380000000 -19.245966 -96.651192 -0.39538187 165.29138 -0.3938539 165.3419 -20.566757 -101.64967
14410000000 -19.157583 -96.301262 -0.39635846 164.89374 -0.39533368 164.94151 -20.617134 -102.88461
14440000000 -19.192362 -96.449295 -0.39873198 164.50348 -0.39737245 164.55522 -20.397671 -102.29464
14470000000 -19.244892 -97.013901 -0.39981347 164.10808 -0.39805272 164.15935 -20.540173 -102.21199
14500000000 -19.161373 -97.005913 -0.40031758 163.71957 -0.39679211 163.75966 -20.529852 -104.15825
14530000000 -19.172304 -97.095352 -0.40073118 163.32857 -0.39927199 163.37685 -20.443638 -103.51366
14560000000 -19.208319 -97.747917 -0.40042204 162.93439 -0.39819288 162.98216 -20.616713 -103.03285
14590000000 -19.143381 -97.613518 -0.40042886 162.5336 -0.39932135 162.59341 -20.471886 -104.76886
14620000000 -19.208298 -97.928696 -0.40028408 162.1492 -0.39601222 162.19148 -20.393875 -104.71104
14650000000 -19.210365 -98.512466 -0.39869025 161.74252 -0.39360166 161.80458 -20.664322 -104.46767
14680000000 -19.140284 -98.445686 -0.39802235 161.35013 -0.39199668 161.39938 -20.5791 -105.85588
14710000000 -19.207506 -98.972717 -0.39551628 160.96829 -0.38992307 161.01282 -20.376955 -105.87926
14740000000 -19.256235 -99.518913 -0.39439982 160.55991 -0.38935673 160.60526 -20.693853 -105.85712
14770000000 -19.209978 -99.279984 -0.3920168 160.14687 -0.38692102 160.19063 -20.682859 -107.62888
14800000000 -19.250395 -99.945442 -0.3919304 159.74294 -0.38637149 159.78839 -20.510098 -106.20968
14830000000 -19.318144 -100.48695 -0.38958696 159.31837 -0.38517904 159.36563 -20.79306 -107.02439
14860000000 -19.311769 -100.2039 -0.38877296 158.90062 -0.38501301 158.94756 -20.759674 -108.44672
14890000000 -19.369577 -100.46947 -0.39062878 158.48695 -0.38652515 158.53519 -20.671093 -107.40282
14920000000 -19.378378 -101.08563 -0.39177683 158.08345 -0.38784194 158.11882 -20.840429 -107.04221
14950000000 -19.351515 -100.88358 -0.39359373 157.67215 -0.38826084 157.71692 -20.720428 -108.92776
14980000000 -19.451992 -101.02433 -0.39458153 157.28036 -0.38994259 157.32178 -20.709845 -108.30805
15010000000 -19.450972 -101.25501 -0.39576808 156.87605 -0.39122021 156.91631 -20.910885 -108.01614
15040000000 -19.388311 -101.12251 -0.39715064 156.47021 -0.39266139 156.51828 -20.775621 -109.29604
15070000000 -19.46163 -101.66509 -0.39849618 156.08125 -0.39323324 156.13089 -20.697201 -109.30708
15100000000 -19.472498 -101.99555 -0.39813274 155.6839 -0.39387828 155.72565 -20.936192 -109.01977
15130000000 -19.422848 -101.59515 -0.39881369 155.27676 -0.39369631 155.3231 -20.901056 -110.67609
15160000000 -19.453966 -102.10271 -0.39902368 154.89128 -0.39435136 154.94302 -20.747604 -109.13027
15190000000 -19.488832 -102.8547 -0.3982414 154.48434 -0.39336133 154.53722 -20.99469 -110.26109
15220000000 -19.480148 -102.47991 -0.39768931 154.08949 -0.39203495 154.13821 -20.960247 -111.36995
15250000000 -19.529806 -102.83846 -0.39758804 153.69957 -0.3921763 153.75078 -20.884422 -110.19289
15280000000 -19.491356 -103.45658 -0.39641804 153.29462 -0.39147457 153.35052 -21.047159 -110.29983
15310000000 -19.490517 -103.53091 -0.39527583 152.90523 -0.39091513 152.94751 -20.882746 -112.27866
15340000000 -19.583817 -103.99582 -0.3944619 152.50963 -0.38942811 152.54922 -20.999756 -111.41768
15370000000 -19.572309 -104.25539 -0.39204201 152.09656 -0.38811055 152.14174 -21.147627 -111.42986
15400000000 -19.529306 -104.31498 -0.39137742 151.68311 -0.38591826 151.72855 -21.009197 -112.95422
15430000000 -19.631651 -105.12815 -0.38962999 151.28098 -0.3852444 151.32277 -21.050406 -112.62423
15460000000 -19.690619 -105.36618 -0.39018416 150.8741 -0.38301057 150.91547 -21.302254 -112.3407
15490000000 -19.676105 -105.25922 -0.38958186 150.46326 -0.38369623 150.49977 -21.240276 -113.3075
15520000000 -19.742765 -105.79597 -0.38966 150.05411 -0.38520592 150.09265 -21.130322 -112.05422
15550000000 -19.801762 -106.37377 -0.3910664 149.64171 -0.38693601 149.68362 -21.375938 -112.94484
15580000000 -19.783466 -106.00414 -0.39245284 149.23695 -0.38783938 149.27747 -21.254343 -113.86246
15610000000 -19.86418 -106.14552 -0.39355037 148.84343 -0.38879928 148.8856 -21.198189 -112.18049
15640000000 -19.842443 -106.64407 -0.39308247 148.44333 -0.39019492 148.49323 -21.380896 -113.04214
15670000000 -19.860832 -106.91385 -0.39398572 148.04764 -0.38931683 148.08516 -21.223757 -114.31224
15700000000 -19.943134 -107.12231 -0.39472753 147.65118 -0.3900032 147.69235 -21.293209 -113.48616
15730000000 -19.950531 -107.20084 -0.39371419 147.25348 -0.38864696 147.28471 -21.386482 -113.46335
15760000000 -19.908768 -107.52364 -0.39390296 146.85001 -0.38881004 146.88618 -21.25259 -114.88831
15790000000 -20.003674 -108.14952 -0.39291528 146.45494 -0.38748986 146.50449 -21.277819 -114.4747
15820000000 -20.036444 -108.31535 -0.39186892 146.0602 -0.3861061 146.10225 -21.501816 -114.97696
15850000000 -20.011358 -108.2343 -0.38989162 145.66162 -0.38663605 145.69708 -21.327557 -115.53067
15880000000 -20.072886 -108.83279 -0.38851279 145.25919 -0.3838461 145.29759 -21.332565 -115.63333
15910000000 -20.094604 -109.54427 -0.38669407 144.85806 -0.38294357 144.89668 -21.541023 -116.20763
15940000000 -20.131285 -109.27361 -0.38526222 144.44514 -0.3818818 144.48726 -21.552422 -117.05412
15970000000 -20.221085 -109.51527 -0.3839626 144.03484 -0.37957257 144.07982 -21.514198 -116.20537
16000000000 -20.18819 -110.16004 -0.38347569 143.62834 -0.3791624 143.67424 -21.59267 -116.72231
16030000000 -20.251162 -110.16449 -0.38337418 143.22121 -0.37931156 143.25888 -21.715532 -117.84537
16060000000 -20.340244 -110.67791 -0.38246521 142.81421 -0.37815917 142.8499 -21.625031 -117.19296
16090000000 -20.343357 -110.87244 -0.38220599 142.40813 -0.37733883 142.4543 -21.839739 -117.04128
16120000000 -20.317802 -110.87955 -0.3816455 141.99699 -0.37740546 142.04132 -21.693626 -118.60664
16150000000 -20.407351 -111.3721 -0.3806352 141.59138 -0.3761023 141.63805 -21.769482 -118.37295
16180000000 -20.472597 -111.60867 -0.37997347 141.17299 -0.37611443 141.21594 -22.026052 -118.01237
16210000000 -20.513988 -111.5682 -0.38058856 140.75987 -0.37671629 140.80208 -21.827843 -118.51009
16240000000 -20.552069 -111.66155 -0.38049984 140.35417 -0.37763616 140.39882 -21.909451 -118.91638
16270000000 -20.571512 -112.29441 -0.38192418 139.9556 -0.37861952 139.99643 -22.032234 -119.01454
16300000000 -20.610359 -112.10191 -0.38302159 139.54428 -0.37992683 139.59322 -22.065281 -119.45228
16330000000 -20.702204 -112.33903 -0.38336146 139.14545 -0.37958613 139.19467 -21.977499 -118.7718
16360000000 -20.64554 -112.87547 -0.38373074 138.74675 -0.37943584 138.7937 -22.065334 -119.50414
16390000000 -20.621479 -112.9537 -0.38365948 138.35522 -0.37996358 138.39673 -22.182497 -121.06719
16420000000 -20.712593 -113.04501 -0.38249972 137.95099 -0.37906355 137.99471 -22.151428 -119.94713
16450000000 -20.747362 -113.39904 -0.38241208 137.55132 -0.37718976 137.60457 -22.214382 -120.05178
16480000000 -20.711473 -113.36533 -0.38203272 137.15837 -0.37739643 137.20941 -22.199827 -121.76689
16510000000 -20.803257 -113.87952 -0.38084346 136.74608 -0.37436974 136.80695 -22.292614 -121.78493
16540000000 -20.846592 -114.53008 -0.37752718 136.35518 -0.37306803 136.40776 -22.432175 -120.8617
16570000000 -20.867294 -114.30778 -0.37516832 135.95804 -0.3722969 136.00407 -22.366917 -122.24899
16600000000 -20.912123 -114.61503 -0.3766872 135.54158 -0.37057123 135.59534 -22.362431 -122.84966
16630000000 -20.901419 -115.54862 -0.3739801 135.14352 -0.36874902 135.18675 -22.581623 -122.73396
16660000000 -20.963421 -115.37084 -0.373292 134.73067 -0.36785495 134.78474 -22.717098 -122.80405
16690000000 -21.103201 -115.53507 -0.37251547 134.31487 -0.36760929 134.36841 -22.474749 -123.10204
16720000000 -21.049032 -116.04639 -0.37151688 133.91521 -0.36530706 133.96579 -22.665524 -123.83038
16750000000 -21.069065 -116.20559 -0.36961225 133.51042 -0.36331961 133.56424 -22.880281 -124.76684
16780000000 -21.195091 -116.51523 -0.36991355 133.09488 -0.36222884 133.14301 -22.778973 -123.70554
16810000000 -21.274372 -116.79633 -0.36829448 132.68967 -0.36236897 132.73071 -22.853998 -123.79338
16840000000 -21.222631 -116.22627 -0.36630452 132.28363 -0.36182201 132.32988 -22.985426 -126.23796
16870000000 -21.320042 -116.73509 -0.36570862 131.87544 -0.36026698 131.92654 -23.028036 -125.31278
16900000000 -21.409624 -117.83382 -0.36540139 131.45055 -0.35995537 131.50957 -23.224306 -124.05081
16930000000 -21.438049 -116.99889 -0.36528343 131.0441 -0.35906929 131.08519 -23.161686 -126.26704
16960000000 -21.488892 -117.0722 -0.36506492 130.63271 -0.35846707 130.67502 -23.227051 -126.92833
16990000000 -21.478682 -118.18542 -0.36391941 130.22681 -0.35683653 130.26163 -23.477358 -126.0524
17020000000 -21.534451 -117.79967 -0.3626819 129.81145 -0.35751694 129.84375 -23.590956 -126.33618
17050000000 -21.709362 -117.56796 -0.36331567 129.39815 -0.35842407 129.44681 -23.283621 -126.60374
17080000000 -21.708914 -117.60565 -0.36375332 128.97844 -0.35769573 129.02496 -23.699465 -126.48326
17110000000 -21.637335 -117.5143 -0.36334661 128.57823 -0.35622787 128.62057 -23.940266 -127.95674
17140000000 -21.867073 -118.46664 -0.36383581 128.15498 -0.35823795 128.20006 -23.677584 -126.3466
17170000000 -21.870655 -118.37148 -0.36134654 127.75169 -0.35914662 127.79922 -23.790146 -125.81359
17200000000 -21.834919 -116.99123 -0.36289126 127.35452 -0.35957122 127.40369 -24.117588 -129.38614
17230000000 -21.942074 -118.02862 -0.36383551 126.94532 -0.36000597 126.99215 -24.015284 -127.05608
17260000000 -21.99247 -119.14295 -0.36438021 126.53484 -0.36013648 126.57614 -24.150373 -125.83349
17290000000 -22.090347 -117.35675 -0.36254007 126.14079 -0.35920089 126.18572 -24.232983 -128.65112
17320000000 -22.126934 -117.82896 -0.36596882 125.73712 -0.35897511 125.77966 -24.07547 -128.09068
17350000000 -22.062222 -118.71474 -0.36484757 125.32119 -0.36020792 125.36977 -24.559361 -126.74214
17380000000 -22.190222 -118.11069 -0.36471355 124.91744 -0.35850671 124.96991 -24.572803 -128.13672
17410000000 -22.329737 -118.33481 -0.36255187 124.53371 -0.35726541 124.5657 -24.23312 -128.39838
17440000000 -22.225151 -118.1721 -0.36026305 124.11321 -0.35414934 124.17036 -24.701353 -128.43987
17470000000 -22.273153 -117.61517 -0.3577185 123.71388 -0.35443527 123.75374 -25.096205 -129.29135
17500000000 -22.572498 -118.89587 -0.35827732 123.29785 -0.35420749 123.35206 -24.591661 -127.85539
17530000000 -22.563471 -118.80914 -0.35829026 122.88531 -0.35067686 122.9395 -24.913965 -128.17017
17560000000 -22.503607 -117.20211 -0.35578504 122.4763 -0.35021722 122.52939 -25.355776 -130.87917
17590000000 -22.684242 -118.48466 -0.35288709 122.06993 -0.34861332 122.12083 -25.130688 -128.37413
17620000000 -22.743666 -119.07991 -0.35347337 121.65067 -0.3468833 121.6946 -25.425713 -127.05947
17650000000 -22.917927 -116.65617 -0.35431784 121.2401 -0.34623566 121.28725 -25.629553 -130.10364
17680000000 -22.987421 -117.72449 -0.35167265 120.83073 -0.34538096 120.87869 -25.389921 -129.16347
17710000000 -22.929054 -118.16916 -0.35216445 120.40495 -0.34489918 120.45062 -26.061083 -126.39286
17740000000 -23.112709 -117.28203 -0.34999526 119.98904 -0.34610501 120.03705 -25.978718 -128.55066
17770000000 -23.361818 -117.45406 -0.35295054 119.58976 -0.34582776 119.63691 -25.615158 -128.5867
17800000000 -23.192286 -116.71538 -0.35256955 119.17433 -0.34539133 119.21016 -26.398527 -126.495
17830000000 -23.268066 -115.9874 -0.35141891 118.7514 -0.3445102 118.79849 -26.60961 -128.32713
17860000000 -23.598625 -117.18523 -0.35298255 118.34666 -0.344098 118.39466 -25.987873 -126.20592
17890000000 -23.621284 -116.14476 -0.35086292 117.92632 -0.34447041 117.98083 -26.65242 -125.36564
17920000000 -23.597763 -114.32383 -0.34964481 117.52818 -0.34301153 117.55766 -26.937138 -128.75998
17950000000 -23.741072 -116.29918 -0.3521114 117.10921 -0.3444564 117.14779 -26.497906 -124.9865
17980000000 -23.867107 -115.67558 -0.34986788 116.69481 -0.34484705 116.72825 -26.981752 -122.78881
18010000000 -24.024595 -113.7688 -0.35073718 116.27547 -0.34433872 116.32878 -27.168112 -127.10473
18040000000 -24.087442 -114.28218 -0.34933594 115.86915 -0.34468201 115.91454 -26.85972 -124.68833
18070000000 -24.092052 -114.70354 -0.35195249 115.45026 -0.3457706 115.50362 -27.495947 -120.40266
18100000000 -24.305111 -113.17091 -0.35107312 115.02798 -0.34625611 115.08047 -27.576185 -124.90421
18130000000 -24.52964 -113.61478 -0.34971523 114.63 -0.34426248 114.67871 -27.078403 -123.31049
18160000000 -24.371624 -112.21751 -0.35076919 114.20705 -0.34498411 114.25383 -27.967455 -119.76547
18190000000 -24.462959 -111.58634 -0.35105881 113.792 -0.34634948 113.83016 -28.090771 -123.49549
18220000000 -24.814707 -112.56046 -0.35179278 113.40019 -0.34584039 113.44344 -27.433176 -119.62788
18250000000 -24.784363 -110.57019 -0.35056543 112.97411 -0.34587991 113.02604 -27.970306 -117.88065
18280000000 -24.87941 -108.68879 -0.35230902 112.55049 -0.34648377 112.59886 -28.623295 -122.14192
18310000000 -25.100847 -110.71478 -0.35158253 112.15674 -0.34625444 112.19547 -27.714586 -116.34911
18340000000 -25.137438 -109.49518 -0.35333326 111.73072 -0.34662983 111.78622 -28.447153 -113.6779
18370000000 -25.241077 -107.14181 -0.35277927 111.31183 -0.34762385 111.35873 -28.56867 -121.09152
18400000000 -25.410143 -107.98648 -0.35221723 110.90766 -0.34865457 110.94861 -28.212254 -115.06279
18430000000 -25.368158 -107.13718 -0.35613739 110.4974 -0.35005391 110.53976 -28.866158 -110.12003
18460000000 -25.582376 -105.08116 -0.35473889 110.06156 -0.3514975 110.12103 -28.935471 -117.18111
18490000000 -25.853374 -106.04018 -0.35527962 109.64946 -0.34872299 109.70831 -28.115263 -113.36422
18520000000 -25.583361 -104.17377 -0.35820365 109.24166 -0.35228655 109.29733 -29.29826 -108.4727
18550000000 -25.800989 -103.07314 -0.35937804 108.82586 -0.35531393 108.87653 -29.273161 -112.65336
18580000000 -26.118605 -104.63016 -0.36078113 108.41611 -0.35497317 108.47828 -28.216097 -110.3036
18610000000 -25.863661 -102.10722 -0.36197281 107.99965 -0.35727215 108.06135 -29.43047 -108.16638
18640000000 -26.088518 -99.982231 -0.36351916 107.58704 -0.35736039 107.64072 -29.512276 -110.27787
18670000000 -26.216702 -101.81802 -0.36517221 107.17683 -0.36055216 107.2274 -28.681309 -106.85315
18700000000 -26.172127 -99.481209 -0.36725572 106.77455 -0.36002287 106.82217 -29.177502 -103.29368
18730000000 -26.318184 -97.434906 -0.36827984 106.37103 -0.36317298 106.41512 -29.843866 -110.2955
18760000000 -26.487307 -99.007736 -0.37006435 105.9507 -0.36319858 106.00356 -28.624924 -103.99017
18790000000 -26.201046 -97.148369 -0.37111676 105.54611 -0.3652302 105.59489 -29.538361 -99.36779
18820000000 -26.507318 -95.251747 -0.37345505 105.14096 -0.3683469 105.18939 -29.525646 -107.38071
18850000000 -26.705872 -96.407761 -0.37518921 104.72742 -0.36856949 104.77149 -28.888882 -102.62514
18880000000 -26.342184 -94.13736 -0.37773755 104.31264 -0.37011144 104.36967 -29.803171 -97.550064
18910000000 -26.511078 -93.03624 -0.38018933 103.90011 -0.37319326 103.96037 -29.682388 -103.21523
18940000000 -26.723242 -94.639633 -0.38160565 103.51646 -0.37506419 103.55879 -28.808159 -101.4365
18970000000 -26.457607 -91.552086 -0.3861658 103.10551 -0.37825236 103.15615 -30.130854 -94.922615
19000000000 -26.68961 -89.929726 -0.38573605 102.69585 -0.38011274 102.73809 -29.734787 -101.70894
19030000000 -26.746643 -91.519089 -0.38912287 102.30059 -0.38098192 102.34434 -28.921444 -97.322968
19060000000 -26.573679 -89.912056 -0.39127117 101.8981 -0.38432318 101.95358 -29.583584 -95.563835
19090000000 -26.900568 -88.089828 -0.39157316 101.51933 -0.38655061 101.56708 -30.166533 -99.625641
19120000000 -26.917599 -89.341187 -0.3938148 101.10617 -0.38866395 101.16203 -28.851274 -95.83387
19150000000 -26.512154 -87.960854 -0.39717078 100.7114 -0.39035776 100.76416 -29.729645 -91.07972
19180000000 -26.675154 -87.115746 -0.39848852 100.33099 -0.3933908 100.37604 -29.916435 -99.08094
19210000000 -26.945372 -88.014061 -0.39993951 99.930565 -0.39466801 99.995003 -29.145987 -94.322182
19240000000 -26.564472 -85.373428 -0.40045723 99.55204 -0.3964583 99.603996 -30.035711 -89.32428
19270000000 -26.807993 -85.847191 -0.40307865 99.15815 -0.39695549 99.216316 -29.75049 -98.295273
19300000000 -26.800913 -88.241066 -0.40194777 98.779831 -0.3964152 98.835388 -29.488569 -94.610649
19330000000 -26.685581 -85.063919 -0.40271398 98.393677 -0.39646453 98.453522 -30.272669 -89.848419
19360000000 -26.93767 -84.435425 -0.40035078 98.008499 -0.39357445 98.068893 -30.258171 -95.445839
19390000000 -26.85314 -86.460411 -0.39858982 97.636345 -0.39328709 97.684433 -29.534157 -94.232819
19420000000 -26.798094 -85.376282 -0.39859009 97.243011 -0.39032945 97.294891 -30.746069 -91.180733
19450000000 -27.196398 -84.716263 -0.39280251 96.850098 -0.38560167 96.912064 -30.760324 -94.111977
19480000000 -27.209919 -84.953102 -0.39119413 96.462837 -0.3839626 96.507126 -30.043528 -91.738319
19510000000 -26.885427 -83.596329 -0.38826114 96.064217 -0.38268206 96.113358 -31.105619 -86.524574
19540000000 -27.403217 -84.055107 -0.38437608 95.67569 -0.37870622 95.728851 -31.810621 -94.528275
19570000000 -27.609352 -84.114487 -0.38024667 95.245689 -0.37397444 95.30574 -30.626215 -87.035919
19600000000 -27.236712 -80.148193 -0.37654352 94.835999 -0.37033555 94.87722 -31.79253 -80.406754
19630000000 -27.453974 -80.669685 -0.37353912 94.431313 -0.36785242 94.482468 -31.874146 -88.780411
19660000000 -27.615053 -81.576714 -0.37006691 94.005981 -0.36212108 94.055649 -31.463076 -80.803703
19690000000 -27.590538 -76.9729 -0.36894515 93.579758 -0.36184198 93.614265 -32.120823 -72.535309
19720000000 -27.64529 -75.890686 -0.36699912 93.161438 -0.36067423 93.188026 -32.162937 -77.612091
19750000000 -27.535875 -77.025772 -0.36557344 92.741768 -0.36031649 92.779915 -31.645803 -74.900124
19780000000 -27.418463 -74.479843 -0.36582324 92.301895 -0.35821405 92.345886 -32.026512 -64.104721
19810000000 -27.802668 -72.172585 -0.36473072 91.88295 -0.35760128 91.914803 -32.284016 -68.0802
19840000000 -27.550657 -72.248093 -0.36600205 91.455116 -0.35968369 91.497864 -31.197683 -65.95359
19870000000 -27.070894 -70.540741 -0.36589533 91.022682 -0.36072233 91.068169 -31.525723 -57.267998
19900000000 -27.459417 -70.220825 -0.3641232 90.612343 -0.35894024 90.649811 -31.958124 -61.998474
19930000000 -27.353914 -69.067772 -0.3664245 90.171867 -0.36049199 90.220314 -30.551285 -56.721756
19960000000 -26.78776 -66.072716 -0.3715902 89.759979 -0.36538872 89.787506 -30.47267 -51.729881
19990000000 -26.867418 -67.042252 -0.37249967 89.327095 -0.36681828 89.382164 -30.969831 -56.841488
20020000000 -26.831137 -67.861366 -0.37161332 88.917702 -0.36629298 88.961067 -30.012085 -53.318619
20050000000 -26.569145 -63.527332 -0.37839639 88.484962 -0.3713226 88.533966 -29.45929 -46.678085
20080000000 -26.504192 -63.696098 -0.37912032 88.080917 -0.37349457 88.12571 -29.859722 -51.82597
20110000000 -26.226109 -65.205139 -0.38202906 87.694557 -0.37610143 87.739464 -28.903988 -52.897423
20140000000 -26.078321 -63.88604 -0.38628805 87.252998 -0.37885028 87.31546 -29.128471 -44.570789
20170000000 -26.207487 -62.63134 -0.38842729 86.845375 -0.38186964 86.895599 -28.88991 -47.760895
20200000000 -25.796045 -63.038441 -0.39239731 86.469284 -0.38473666 86.513618 -27.906544 -51.027512
20230000000 -25.371378 -62.07233 -0.39552477 86.073471 -0.38985708 86.113495 -28.453239 -46.025288
20260000000 -25.750689 -62.941616 -0.39759344 85.654556 -0.39166975 85.709114 -28.264397 -46.653679
20290000000 -25.506035 -62.044941 -0.40157554 85.278297 -0.39529711 85.317871 -27.465584 -48.892113
20320000000 -25.081955 -60.747894 -0.40469426 84.901871 -0.39705676 84.943893 -27.421089 -47.141777
20350000000 -25.167931 -62.182228 -0.40202275 84.512367 -0.39606327 84.564255 -27.89854 -47.494793
20380000000 -25.101954 -63.038616 -0.40131685 84.123894 -0.39581853 84.170387 -27.191128 -47.661591
20410000000 -24.95903 -59.97023 -0.40609333 83.730247 -0.39913237 83.785606 -27.111118 -44.66597
20440000000 -24.887867 -60.197994 -0.40236437 83.344299 -0.39567137 83.392639 -27.074898 -47.452118
20470000000 -24.724701 -61.866776 -0.39789215 82.959831 -0.39162102 82.998535 -26.986986 -48.321217
20500000000 -24.650402 -60.751011 -0.40011376 82.562805 -0.39247862 82.595871 -26.855064 -42.922058
20530000000 -24.867743 -59.469398 -0.40010241 82.160042 -0.39378759 82.209091 -26.409416 -45.398914
20560000000 -24.491907 -59.771404 -0.394649 81.782074 -0.3891812 81.82737 -26.399683 -47.659454
20590000000 -24.282867 -59.236713 -0.39449677 81.38382 -0.38874152 81.414886 -26.476522 -43.354889
20620000000 -24.636303 -59.229523 -0.39213493 80.966988 -0.38537988 80.992271 -26.214481 -43.339184
20650000000 -24.340336 -58.633492 -0.38638905 80.56987 -0.38166219 80.606239 -25.867697 -45.692863
20680000000 -24.063078 -56.23904 -0.38621646 80.177612 -0.38156664 80.224297 -25.611765 -44.134045
20710000000 -24.196161 -57.373611 -0.38563222 79.725449 -0.37972879 79.785851 -26.180788 -43.285275
20740000000 -24.045004 -57.494484 -0.38243923 79.327118 -0.37670386 79.387314 -25.28212 -43.63744
20770000000 -23.794561 -54.97237 -0.38260517 78.940697 -0.37713555 78.988205 -25.097383 -42.170517
20800000000 -23.74408 -55.142494 -0.37963077 78.503136 -0.37365112 78.568001 -25.413811 -44.413307
20830000000 -23.427786 -55.128139 -0.37687299 78.105736 -0.37080267 78.149193 -25.035906 -44.02002
20860000000 -23.411037 -53.855644 -0.37813967 77.688034 -0.37250561 77.744553 -24.799534 -41.174984
20890000000 -23.460241 -52.87339 -0.38176703 77.270248 -0.37102851 77.323021 -24.662922 -42.942898
20920000000 -23.019758 -52.960556 -0.37843198 76.850555 -0.36579818 76.905327 -24.675594 -44.772266
20950000000 -22.899988 -52.068539 -0.37877035 76.461288 -0.36776 76.501999 -24.400196 -42.23904
20980000000 -22.933157 -52.790684 -0.38018537 76.023552 -0.36946794 76.06485 -24.394945 -41.927616
21010000000 -22.707191 -51.846306 -0.37885988 75.615143 -0.36759013 75.667351 -24.043983 -43.995213
21040000000 -22.425875 -50.343948 -0.37668467 75.211151 -0.36693543 75.275963 -23.928892 -43.575455
21070000000 -22.413713 -51.510708 -0.37992826 74.777924 -0.36742222 74.823418 -24.184669 -42.257744
21100000000 -22.277122 -51.151192 -0.37839779 74.359795 -0.36652055 74.415741 -23.75878 -43.763359
21130000000 -22.17728 -50.194401 -0.37997234 73.972633 -0.36770901 74.021072 -23.469055 -43.202614
21160000000 -22.069313 -49.790981 -0.38121563 73.535301 -0.36956179 73.595963 -23.857317 -43.937744
21190000000 -21.802078 -50.523045 -0.37832749 73.11644 -0.36752927 73.177864 -23.480949 -44.284107
21220000000 -21.763962 -49.932278 -0.38134563 72.725471 -0.36993018 72.772903 -23.211798 -42.682755
21250000000 -21.789204 -49.686195 -0.38215712 72.31147 -0.37146443 72.368767 -23.312328 -43.460888
21280000000 -21.533716 -49.368954 -0.37950194 71.892311 -0.3693848 71.941704 -23.238871 -45.589348
21310000000 -21.329172 -49.119465 -0.37939686 71.497841 -0.36907026 71.551773 -23.106972 -43.353176
21340000000 -21.393324 -49.926353 -0.38236827 71.067467 -0.37136883 71.127625 -22.963081 -42.648628
21370000000 -21.19689 -49.461117 -0.38023904 70.653259 -0.37078211 70.70153 -22.915394 -45.120022
21400000000 -21.012857 -48.355984 -0.37933528 70.278809 -0.36848977 70.319534 -22.655348 -45.374645
21430000000 -20.877207 -49.38678 -0.38006386 69.847397 -0.37117457 69.910271 -22.929823 -42.005081
21460000000 -20.732721 -49.332359 -0.37910306 69.420883 -0.36832014 69.478371 -22.591608 -45.935467
21490000000 -20.711594 -48.526676 -0.38094631 69.034172 -0.3699719 69.092285 -22.282505 -44.39996
21520000000 -20.614542 -48.303387 -0.38136965 68.616783 -0.37113172 68.670174 -22.703014 -44.789993
21550000000 -20.398788 -48.752144 -0.37963501 68.175316 -0.36885977 68.23896 -22.389668 -45.940571
21580000000 -20.314093 -49.144596 -0.38289663 67.782333 -0.37228787 67.837807 -22.121246 -43.841187
21610000000 -20.378983 -49.097836 -0.3836261 67.363335 -0.37377837 67.417252 -22.306778 -45.099358
21640000000 -20.14394 -48.372612 -0.38205901 66.941132 -0.37198836 66.995262 -22.273201 -47.010395
21670000000 -19.976183 -48.640484 -0.38309962 66.538452 -0.37422585 66.592041 -22.047493 -44.187904
21700000000 -19.998041 -49.816795 -0.38826227 66.125542 -0.377929 66.166275 -21.974583 -44.766876
21730000000 -19.956919 -49.163265 -0.39049116 65.711884 -0.37944543 65.763588 -21.981134 -46.806583
21760000000 -19.742851 -48.328262 -0.38842306 65.317291 -0.37844384 65.372284 -21.759182 -45.815163
21790000000 -19.645157 -49.610973 -0.39204994 64.900154 -0.38454491 64.960426 -22.078432 -44.123222
21820000000 -19.595816 -49.819084 -0.39593822 64.47213 -0.38507468 64.528641 -21.636644 -47.226845
21850000000 -19.599564 -49.498844 -0.39882758 64.112923 -0.38623682 64.167587 -21.502213 -45.220295
21880000000 -19.515993 -49.352703 -0.39934805 63.707615 -0.38840747 63.761837 -21.873163 -45.422329
21910000000 -19.319887 -50.082199 -0.40126434 63.278896 -0.39150828 63.341755 -21.63563 -46.758747
21940000000 -19.336798 -50.559399 -0.40303349 62.912571 -0.39329162 62.976959 -21.28002 -45.188782
21970000000 -19.437538 -50.777512 -0.40446895 62.548382 -0.39347243 62.602272 -21.66604 -46.123669
22000000000 -19.260111 -49.956245 -0.40000051 62.13464 -0.39020085 62.184517 -21.568502 -46.827454
22030000000 -19.098425 -50.140343 -0.3969833 61.74284 -0.38620824 61.793335 -21.177437 -45.023491
22060000000 -19.194607 -51.401196 -0.39888152 61.357906 -0.38855779 61.403229 -21.485025 -44.075081
22090000000 -19.187328 -50.193062 -0.39536488 60.932884 -0.38392019 60.986076 -21.20821 -46.766983
22120000000 -19.026352 -49.406715 -0.39083299 60.525204 -0.3793816 60.571674 -21.075054 -44.558399
22150000000 -18.900942 -50.490021 -0.39178365 60.100254 -0.38047469 60.14629 -21.120796 -43.278461
22180000000 -18.868433 -50.971794 -0.39398032 59.680283 -0.38215315 59.72937 -20.897947 -46.173515
22210000000 -18.907032 -50.061214 -0.39125392 59.286827 -0.37914911 59.334839 -20.640276 -44.638866
22240000000 -18.735659 -49.799797 -0.39066362 58.866859 -0.38006699 58.910675 -20.948261 -43.340488
22270000000 -18.522291 -50.402161 -0.39281723 58.407776 -0.3817597 58.459324 -20.567301 -46.044273
22300000000 -18.520647 -50.981426 -0.39472443 58.024792 -0.38457742 58.094162 -20.289917 -43.953415
22330000000 -18.613096 -50.489204 -0.39191791 57.650253 -0.38253307 57.689358 -20.578327 -44.504917
22360000000 -18.349131 -50.002968 -0.39184397 57.185863 -0.38147563 57.228931 -20.319962 -45.645252
22390000000 -18.197201 -50.884949 -0.39396927 56.77351 -0.3829464 56.833473 -19.942533 -44.308449
22420000000 -18.241261 -51.921665 -0.39802805 56.402206 -0.38607979 56.44751 -20.206797 -44.526051
22450000000 -18.285851 -51.234146 -0.39572269 55.969608 -0.38378927 56.021042 -19.932438 -46.178329
22480000000 -18.016075 -50.865719 -0.39468473 55.535229 -0.38386562 55.597515 -19.729513 -44.853878
22510000000 -17.936121 -51.943718 -0.3990986 55.14127 -0.38879728 55.186184 -19.844643 -44.841454
22540000000 -17.957563 -52.584045 -0.39994177 54.733971 -0.38942045 54.774113 -19.622139 -47.246994
22570000000 -17.961491 -51.720852 -0.39553639 54.327198 -0.3861576 54.378819 -19.34403 -46.181126
22600000000 -17.867191 -51.913128 -0.39971527 53.913326 -0.38753739 53.964546 -19.606232 -44.597343
22630000000 -17.682997 -52.914829 -0.40392402 53.486977 -0.39409965 53.542809 -19.316832 -47.724419
22660000000 -17.718369 -53.435307 -0.40548056 53.102806 -0.39478254 53.146389 -18.988792 -46.910351
22690000000 -17.783012 -53.06493 -0.4023408 52.696102 -0.39368045 52.749813 -19.333807 -46.417229
22720000000 -17.535013 -52.662098 -0.40677384 52.263596 -0.39576524 52.304234 -18.994822 -48.285954
22750000000 -17.411116 -53.592167 -0.41070575 51.860073 -0.39900693 51.916595 -18.650963 -47.594635
22780000000 -17.527243 -54.53194 -0.40941045 51.484604 -0.39889228 51.53236 -19.025526 -47.727913
22810000000 -17.456572 -54.04768 -0.40956292 51.064228 -0.39651048 51.104523 -18.745331 -49.495083
22840000000 -17.268333 -53.778206 -0.41310588 50.621441 -0.39920899 50.675323 -18.460381 -48.381039
22870000000 -17.225107 -54.865234 -0.41319185 50.249367 -0.40339848 50.284443 -18.65431 -48.699821
22900000000 -17.196871 -55.528122 -0.4153538 49.837353 -0.40395188 49.893761 -18.431662 -51.002678
22930000000 -17.214535 -54.913845 -0.41541448 49.414036 -0.40458062 49.464806 -18.299906 -49.77467
22960000000 -17.111088 -54.709614 -0.4176659 49.007191 -0.40631816 49.041203 -18.397125 -49.640823
22990000000 -16.964052 -55.800476 -0.42151099 48.632122 -0.41168037 48.667839 -18.200321 -52.138569
23020000000 -17.004429 -56.290329 -0.4224076 48.217747 -0.41216621 48.269661 -18.004169 -50.88493
23050000000 -17.038994 -56.015614 -0.42329669 47.808834 -0.41202846 47.861092 -18.309137 -51.726593
23080000000 -16.861721 -55.545696 -0.42681548 47.392994 -0.41659987 47.434643 -18.015636 -53.046547
23110000000 -16.722589 -56.490158 -0.4303394 47.007343 -0.41959116 47.047348 -17.712612 -52.269794
23140000000 -16.813936 -57.328758 -0.42724103 46.629097 -0.41621923 46.675678 -18.089167 -53.248302
23170000000 -16.767891 -56.843113 -0.43074986 46.211166 -0.41863555 46.259495 -17.842667 -54.419418
23200000000 -16.585777 -56.581486 -0.43528584 45.818249 -0.42377013 45.865452 -17.621508 -53.142727
23230000000 -16.555902 -57.932743 -0.43306416 45.437733 -0.42247152 45.498749 -17.86072 -54.015999
23260000000 -16.515263 -58.298042 -0.43180078 45.059238 -0.42166761 45.106903 -17.597038 -56.685696
23290000000 -16.498507 -57.884495 -0.43383414 44.626831 -0.42280534 44.696693 -17.597183 -54.483368
23320000000 -16.444193 -57.91069 -0.43242469 44.249165 -0.42380238 44.306442 -17.617401 -54.903652
23350000000 -16.285667 -58.500912 -0.43226027 43.885136 -0.42119011 43.930843 -17.52062 -57.260906
23380000000 -16.34379 -58.988785 -0.42897338 43.46011 -0.41667569 43.50584 -17.353785 -55.871838
23410000000 -16.3862 -59.044643 -0.42509198 43.027538 -0.41410497 43.070332 -17.557159 -55.859558
23440000000 -16.189251 -58.868629 -0.42700282 42.633789 -0.41900671 42.687553 -17.23472 -58.18581
23470000000 -16.04493 -59.538902 -0.42975521 42.241516 -0.41884878 42.286728 -17.095774 -56.702141
23500000000 -16.132954 -60.257034 -0.42671439 41.813648 -0.41726381 41.860569 -17.433208 -58.248905
23530000000 -16.079954 -59.976337 -0.42989439 41.407974 -0.41955265 41.449863 -17.164202 -59.500797
23560000000 -15.995281 -59.820648 -0.43648037 41.003574 -0.42380068 41.049385 -16.987938 -58.042019
23590000000 -15.923803 -60.882557 -0.4302465 40.612904 -0.41894627 40.66251 -17.217394 -59.531677
23620000000 -15.890973 -61.140766 -0.43059835 40.221333 -0.42048651 40.257172 -17.103479 -60.961502
23650000000 -15.902576 -61.150105 -0.43338278 39.812698 -0.42265356 39.853817 -16.952084 -59.153088
23680000000 -15.865909 -61.239239 -0.43120554 39.401821 -0.42118555 39.446552 -17.121485 -60.344769
23710000000 -15.67445 -61.589115 -0.43046629 39.024708 -0.41822994 39.068459 -16.866386 -61.554077
23740000000 -15.755014 -61.988625 -0.43001756 38.592339 -0.42014346 38.646465 -16.927294 -61.008274
23770000000 -15.775295 -62.325783 -0.42804426 38.169975 -0.4184534 38.218349 -17.08605 -60.774902
23800000000 -15.643457 -61.906075 -0.42962205 37.779457 -0.41932201 37.825283 -16.822451 -62.661652
23830000000 -15.541021 -62.549515 -0.42921913 37.389019 -0.41962737 37.445934 -16.639521 -61.584225
23860000000 -15.583907 -63.252033 -0.42751867 36.954475 -0.41560447 36.994053 -17.106564 -62.986366
23890000000 -15.48642 -63.152054 -0.42883766 36.544758 -0.41823164 36.612247 -16.686071 -63.116951
23920000000 -15.477963 -63.054161 -0.43305099 36.148949 -0.42287323 36.213806 -16.720972 -62.077835
23950000000 -15.374529 -63.641811 -0.42802826 35.729774 -0.41732252 35.798714 -16.804035 -64.596184
23980000000 -15.340508 -64.085915 -0.42946085 35.316639 -0.4185127 35.388027 -16.794886 -64.079865
24010000000 -15.376569 -64.266495 -0.43333644 34.929558 -0.42177314 34.978218 -16.617504 -63.769024
24040000000 -15.331439 -64.535675 -0.43045259 34.519566 -0.42243728 34.577866 -16.749968 -64.358353
24070000000 -15.155556 -64.482002 -0.43099341 34.148193 -0.42095852 34.199818 -16.608744 -65.596329
24100000000 -15.16379 -65.233635 -0.4349888 33.730564 -0.42157516 33.797859 -16.641588 -64.791817
24130000000 -15.186782 -65.802612 -0.43297493 33.326767 -0.42172235 33.364906 -16.665323 -64.947784
24160000000 -15.121638 -65.218979 -0.43349776 32.933899 -0.42197567 32.99398 -16.565926 -66.461906
24190000000 -15.041627 -65.844086 -0.4318634 32.545864 -0.42158458 32.6124 -16.424246 -65.251404
24220000000 -15.02462 -66.676651 -0.42886481 32.118763 -0.4174704 32.173985 -16.706139 -66.324226
24250000000 -15.031942 -66.637924 -0.42908597 31.709894 -0.4185127 31.774006 -16.509193 -67.102356
24280000000 -15.037591 -66.533905 -0.43027765 31.325123 -0.42110881 31.39801 -16.358152 -65.320839
24310000000 -14.923172 -67.118217 -0.42533466 30.877449 -0.41517949 30.957762 -16.592308 -67.802582
24340000000 -14.851408 -67.534195 -0.42463723 30.493456 -0.41504818 30.528309 -16.476803 -67.760239
24370000000 -14.925587 -68.167946 -0.4297049 30.073641 -0.41730824 30.137619 -16.458353 -66.29528
24400000000 -14.888899 -67.955444 -0.42896566 29.666258 -0.41685006 29.71887 -16.448849 -67.433113
24430000000 -14.755257 -68.002281 -0.42321423 29.251087 -0.41378406 29.31394 -16.438608 -69.033966
24460000000 -14.777604 -68.710594 -0.42781687 28.8463 -0.42002141 28.902304 -16.347563 -67.281898
24490000000 -14.812773 -69.418053 -0.42966548 28.423628 -0.41881257 28.496925 -16.440542 -67.42926
24520000000 -14.77344 -68.857445 -0.42889452 28.043894 -0.41800535 28.099653 -16.31852 -69.385612
24550000000 -14.682858 -69.286919 -0.43048516 27.629286 -0.416866 27.687477 -16.236382 -67.753159
24580000000 -14.659068 -70.401276 -0.42821568 27.20525 -0.41843289 27.247299 -16.443794 -69.154228
24610000000 -14.655359 -70.275452 -0.43055663 26.805222 -0.41999206 26.87034 -16.222198 -68.922699
24640000000 -14.687383 -70.274208 -0.432266 26.432695 -0.42028832 26.484055 -16.10063 -68.762016
24670000000 -14.579662 -70.66745 -0.42666867 25.998793 -0.41699138 26.057076 -16.331718 -69.352097
24700000000 -14.520532 -71.231758 -0.42800027 25.589783 -0.41751686 25.635483 -16.186787 -70.130165
24730000000 -14.603536 -71.770462 -0.4323532 25.198803 -0.41940242 25.26384 -16.095716 -69.087212
24760000000 -14.578886 -71.714668 -0.42747468 24.784689 -0.41791356 24.837391 -16.120846 -70.002281
24790000000 -14.480865 -71.519325 -0.42491212 24.366198 -0.41604519 24.427315 -16.13599 -71.299751
24820000000 -14.465601 -72.807655 -0.43209758 23.976229 -0.42038557 24.010078 -15.967987 -69.751709
24850000000 -14.510616 -73.228264 -0.43219823 23.552004 -0.42012435 23.606886 -16.061676 -70.472298
24880000000 -14.469553 -72.710243 -0.42891651 23.143785 -0.41887328 23.211813 -15.959934 -71.83712
24910000000 -14.431578 -73.0812 -0.43013448 22.758801 -0.42044005 22.801332 -15.902775 -70.692894
24940000000 -14.365265 -73.910431 -0.43251449 22.309864 -0.42109996 22.371197 -16.040533 -71.197701
24970000000 -14.42071 -74.181236 -0.43317255 21.930782 -0.42242673 21.992184 -15.813336 -72.846558
25000000000 -14.433743 -74.16066 -0.43357584 21.536724 -0.42122006 21.593269 -15.849669 -71.338081
25030000000 -14.340455 -74.402962 -0.43143368 21.105257 -0.42162681 21.159605 -15.907637 -72.446503
25060000000 -14.273278 -75.013458 -0.43285394 20.678848 -0.42357922 20.753315 -15.790862 -72.853111
25090000000 -14.364865 -75.824623 -0.43543863 20.322187 -0.42572409 20.369471 -15.788871 -72.600578
25120000000 -14.353487 -75.511086 -0.43421146 19.899542 -0.42302391 19.941694 -15.79317 -72.868317
25150000000 -14.245836 -75.420128 -0.43397716 19.468624 -0.42494553 19.506702 -15.765355 -74.12236
25180000000 -14.218874 -76.547897 -0.4387098 19.070341 -0.42822796 19.140245 -15.637526 -73.217201
25210000000 -14.248557 -76.934151 -0.4388487 18.673052 -0.43126729 18.72835 -15.827258 -73.900162
25240000000 -14.264597 -76.634285 -0.43527436 18.287352 -0.42722932 18.336737 -15.522512 -74.595795
25270000000 -14.189239 -76.890091 -0.44030204 17.865747 -0.42726445 17.916407 -15.720199 -74.241035
25300000000 -14.146056 -77.708412 -0.44019893 17.46137 -0.43093568 17.515591 -15.565546 -74.497604
25330000000 -14.187469 -78.137909 -0.44182125 17.078552 -0.43111405 17.135178 -15.582405 -75.842484
25360000000 -14.229364 -78.286964 -0.44005111 16.684719 -0.42931113 16.748196 -15.476797 -75.192093
25390000000 -14.081816 -78.383591 -0.4402903 16.281059 -0.42829853 16.324337 -15.536664 -75.467659
25420000000 -14.057017 -78.937134 -0.44190836 15.866685 -0.43233576 15.913769 -15.484841 -76.672867
25450000000 -14.121202 -79.640976 -0.43844318 15.499974 -0.42940399 15.542876 -15.324824 -76.302711
25480000000 -14.148355 -79.386787 -0.43967301 15.101706 -0.42870736 15.12487 -15.589616 -76.773254
25510000000 -14.050433 -79.313324 -0.4375132 14.660646 -0.42509028 14.70453 -15.294298 -77.961182
25540000000 -14.010591 -80.463112 -0.44023389 14.28606 -0.42853481 14.333605 -15.318784 -76.91066
25570000000 -14.03501 -80.664101 -0.44018719 13.870768 -0.42700025 13.908604 -15.507911 -78.373886
25600000000 -14.106941 -80.738251 -0.43426609 13.461437 -0.42368168 13.512936 -15.254321 -78.790215
25630000000 -13.995955 -80.945648 -0.43605191 13.040718 -0.42590854 13.111337 -15.323601 -78.391747
25660000000 -13.932609 -81.666519 -0.43932384 12.632498 -0.42697826 12.698385 -15.302629 -79.298996
25690000000 -13.98308 -82.074104 -0.43652904 12.240685 -0.42667982 12.288911 -15.336017 -79.805061
25720000000 -14.027891 -82.182243 -0.4339188 11.830722 -0.42369336 11.872069 -15.217445 -79.939018
25750000000 -13.935425 -82.021614 -0.43592855 11.402589 -0.42751867 11.448229 -15.306127 -80.049118
25780000000 -13.89616 -82.664154 -0.44120228 11.018372 -0.42811996 11.058591 -15.388303 -81.535286
25810000000 -13.919509 -83.353142 -0.44025564 10.633828 -0.4270294 10.689857 -15.061068 -80.786446
25840000000 -13.979544 -83.328621 -0.43815628 10.203732 -0.42718762 10.257577 -15.438029 -81.360474
25870000000 -13.90867 -83.105377 -0.44025594 9.7731895 -0.4289088 9.8265533 -15.210461 -82.76445
25900000000 -13.824334 -84.159302 -0.44276762 9.3969421 -0.43305844 9.4548607 -15.169035 -81.337814
25930000000 -13.878822 -84.600136 -0.44136676 9.0079889 -0.43146768 9.0534077 -15.302052 -82.812622
25960000000 -13.90437 -84.594276 -0.44029862 8.5953569 -0.43023708 8.6571894 -15.150189 -83.537407
25990000000 -13.841986 -84.538918 -0.4447872 8.169488 -0.43221965 8.2365837 -15.2557 -82.905411
26020000000 -13.752951 -85.096733 -0.44189173 7.7974386 -0.433047 7.85534 -15.144593 -83.084526
26050000000 -13.804712 -85.547058 -0.44356802 7.3834114 -0.43236378 7.4348845 -15.259203 -85.248169
26080000000 -13.887423 -85.877563 -0.44112003 6.9664392 -0.42786428 7.0264301 -15.063046 -84.195801
26110000000 -13.824038 -85.491005 -0.44325638 6.5598893 -0.43290341 6.631166 -15.332829 -84.210396
26140000000 -13.702706 -86.071144 -0.44391149 6.1573195 -0.43413165 6.2227402 -15.091797 -85.866554
26170000000 -13.774988 -86.961235 -0.44038171 5.7861123 -0.42747524 5.832458 -15.005402 -85.816986
26200000000 -13.830749 -86.914993 -0.44033414 5.3762484 -0.42822424 5.4299769 -15.391904 -85.976532
26230000000 -13.761376 -86.43084 -0.44016227 4.9626231 -0.432107 5.011734 -15.053399 -86.796028
26260000000 -13.642462 -87.475838 -0.44083923 4.5720472 -0.43285307 4.638669 -15.01567 -86.536156
26290000000 -13.727542 -88.105606 -0.43779263 4.1603141 -0.4282814 4.2318993 -15.278258 -87.585762
26320000000 -13.818316 -88.062515 -0.43660259 3.7329144 -0.42514479 3.7972927 -15.130324 -88.138992
26350000000 -13.709174 -87.763474 -0.44097477 3.3148816 -0.43007359 3.4031291 -15.145193 -87.33139
26380000000 -13.648464 -88.335709 -0.43840197 2.9374146 -0.42986697 3.0115223 -15.155767 -88.426277
26410000000 -13.692889 -89.289032 -0.43783158 2.5185254 -0.42559931 2.5966227 -15.190231 -89.776039
26440000000 -13.77451 -89.124298 -0.43637332 2.104861 -0.42760149 2.1709707 -15.180055 -88.766548
26470000000 -13.722282 -88.830643 -0.43919066 1.6760252 -0.42657158 1.7570765 -15.257358 -88.587273
26500000000 -13.582444 -89.342819 -0.4400706 1.3078014 -0.42880395 1.3880246 -15.178329 -90.88858
26530000000 -13.656564 -90.380852 -0.43989757 0.93826109 -0.42783517 0.96434623 -15.039866 -90.80558
26560000000 -13.816135 -90.465874 -0.43683645 0.52982515 -0.42529154 0.58151501 -15.493052 -89.332619
26590000000 -13.672045 -89.695145 -0.44057965 0.10730051 -0.43111062 0.14978902 -14.979844 -91.840935
26620000000 -13.551594 -90.687889 -0.44046649 -0.28223798 -0.42814854 -0.22207972 -15.1724 -90.762337
26650000000 -13.615495 -91.404877 -0.4327693 -0.70352834 -0.4231523 -0.65524459 -15.397437 -91.840309
26680000000 -13.690274 -90.969406 -0.43623307 -1.1272688 -0.42247236 -1.073848 -15.22553 -92.704445
26710000000 -13.652668 -90.835899 -0.43613806 -1.5267408 -0.42628375 -1.4812853 -15.202964 -91.044388
26740000000 -13.498013 -91.597603 -0.43873644 -1.9352658 -0.42949486 -1.8435658 -15.274614 -93.062035
26770000000 -13.60727 -92.359138 -0.43290055 -2.3635428 -0.42439118 -2.2726841 -15.312443 -93.725975
26800000000 -13.742057 -92.102371 -0.43922848 -2.7723806 -0.42592937 -2.7449977 -15.276952 -92.587952
26830000000 -13.614663 -91.735077 -0.4440431 -3.1516695 -0.42776603 -3.1303279 -15.310411 -92.54982
26860000000 -13.471807 -92.480621 -0.44115472 -3.5357862 -0.42508569 -3.4806139 -15.233054 -95.136497
26890000000 -13.618471 -93.335983 -0.43749058 -3.9513123 -0.42389372 -3.8982072 -15.343054 -93.528175
26920000000 -13.721223 -93.270119 -0.43963632 -4.4002566 -0.4290311 -4.3396187 -15.492608 -93.571526
26950000000 -13.578812 -92.624634 -0.44196397 -4.7727098 -0.42557275 -4.6914034 -15.221564 -95.091911
26980000000 -13.530279 -93.554352 -0.44184044 -5.1949716 -0.42870623 -5.1057005 -15.281022 -94.655708
27010000000 -13.582784 -94.406418 -0.43320057 -5.6033678 -0.42261046 -5.52525 -15.557001 -94.833664
27040000000 -13.679731 -94.056389 -0.44123179 -5.9996839 -0.4265793 -5.9704986 -15.258935 -95.851875
27070000000 -13.707078 -93.709923 -0.44318846 -6.3981504 -0.43222168 -6.3426986 -15.308366 -94.552429
27100000000 -13.543593 -94.812782 -0.43443862 -6.791604 -0.42047113 -6.75001 -15.37935 -96.010544
27130000000 -13.614015 -95.150337 -0.43661234 -7.1953688 -0.42046797 -7.1765714 -15.369589 -97.234299
27160000000 -13.771514 -95.526573 -0.4491438 -7.6277494 -0.42751724 -7.5869408 -15.371431 -94.707787
27190000000 -13.643175 -94.625534 -0.44420567 -8.0317335 -0.42549253 -7.9780436 -15.424016 -96.58564
27220000000 -13.541788 -95.342155 -0.43389449 -8.4286556 -0.42143083 -8.4027281 -15.399869 -97.907021
27250000000 -13.668797 -96.591858 -0.43181965 -8.8725967 -0.42794085 -8.8149309 -15.460324 -95.761322
27280000000 -13.749375 -96.206551 -0.43776572 -9.2506113 -0.42827594 -9.1934252 -15.450798 -97.47332
27310000000 -13.691922 -95.472229 -0.43986893 -9.6471329 -0.42943972 -9.5864725 -15.420678 -97.103233
27340000000 -13.63046 -96.4431 -0.4416106 -10.050531 -0.42904538 -10.013985 -15.330858 -97.603485
27370000000 -13.730849 -97.677124 -0.43978441 -10.515557 -0.42788488 -10.405214 -15.591737 -97.490669
27400000000 -13.811333 -96.837227 -0.44102806 -10.914068 -0.43185967 -10.859412 -15.423487 -98.257904
27430000000 -13.734179 -96.70549 -0.4473334 -11.247109 -0.4337855 -11.216413 -15.447558 -97.232079
27460000000 -13.627545 -97.499184 -0.4392952 -11.680089 -0.42660242 -11.649986 -15.568494 -99.069061
27490000000 -13.769029 -97.865616 -0.44763669 -12.134748 -0.43103516 -12.064738 -15.441244 -99.37529
27520000000 -13.917014 -97.986893 -0.44493806 -12.536447 -0.43645203 -12.454327 -15.513305 -97.75116
27550000000 -13.791021 -97.695572 -0.44725418 -12.844687 -0.43479025 -12.865421 -15.548153 -99.365555
27580000000 -13.728138 -98.634331 -0.44564819 -13.303961 -0.4332 -13.283333 -15.383906 -99.17144
27610000000 -13.882626 -99.576599 -0.44759852 -13.740766 -0.43248075 -13.707262 -15.550367 -99.580894
27640000000 -13.9712 -98.991165 -0.44467136 -14.138421 -0.43166897 -14.055005 -15.61594 -99.383301
27670000000 -13.865049 -98.110222 -0.44211185 -14.53775 -0.42503375 -14.437627 -15.38729 -99.930771
27700000000 -13.836103 -100.05251 -0.44527534 -14.956471 -0.42947343 -14.894553 -15.463449 -99.731438
27730000000 -13.911076 -100.60909 -0.44108737 -15.341831 -0.42963547 -15.294153 -15.802436 -100.63988
27760000000 -14.064564 -99.586067 -0.44376239 -15.766698 -0.43449327 -15.668418 -15.41608 -99.803185
27790000000 -13.994732 -100.16753 -0.44605723 -16.140163 -0.43391681 -16.051094 -15.54985 -100.8997
27820000000 -13.904427 -100.64619 -0.44326153 -16.590452 -0.43168527 -16.511843 -15.591816 -101.1055
27850000000 -13.989792 -101.08528 -0.44516176 -16.982033 -0.43349633 -16.877975 -15.617578 -101.82596
27880000000 -14.141318 -101.25954 -0.44766769 -17.380039 -0.43507063 -17.28063 -15.669044 -100.04088
27910000000 -14.029874 -100.99632 -0.43778405 -17.785894 -0.42868251 -17.712503 -15.544776 -102.69128
27940000000 -14.085026 -101.72092 -0.44282898 -18.180861 -0.43389365 -18.081469 -15.567607 -101.83391
27970000000 -14.234325 -102.49959 -0.44874913 -18.571585 -0.43933931 -18.479523 -15.651983 -102.12592
28000000000 -14.20993 -102.19564 -0.44611233 -18.945707 -0.43581894 -18.942957 -15.673734 -102.05029
28030000000 -14.213177 -101.63284 -0.43649355 -19.379906 -0.43394399 -19.349693 -15.465602 -103.23263
28060000000 -14.15589 -103.23611 -0.44816905 -19.787184 -0.44661579 -19.784973 -15.716383 -102.77531
28090000000 -14.174911 -103.9034 -0.44516951 -20.209757 -0.43784216 -20.127134 -15.744799 -103.13849
28120000000 -14.37284 -102.89195 -0.4465217 -20.593935 -0.43799022 -20.478256 -15.582206 -102.69989
28150000000 -14.316253 -103.5923 -0.447072 -21.014481 -0.43538484 -20.926069 -15.72435 -102.96445
28180000000 -14.217554 -104.0786 -0.44478491 -21.383768 -0.43430358 -21.338253 -15.751608 -104.60167
28210000000 -14.357893 -104.44953 -0.44946218 -21.765104 -0.43750432 -21.688892 -15.742728 -103.68973
28240000000 -14.424462 -104.47384 -0.44301099 -22.162218 -0.43198204 -22.13645 -15.745965 -103.74291
28270000000 -14.365688 -104.39661 -0.44726193 -22.545618 -0.4337 -22.512871 -15.761071 -105.87914
28300000000 -14.483161 -104.87305 -0.44810793 -22.929365 -0.43446037 -22.894999 -15.786656 -105.11412
28330000000 -14.532705 -106.22646 -0.43667874 -23.350407 -0.43231374 -23.275757 -15.869536 -104.69454
28360000000 -14.48577 -105.37458 -0.4411656 -23.803587 -0.42458102 -23.698801 -15.750401 -106.65376
28390000000 -14.574779 -106.37033 -0.44164816 -24.120956 -0.4309448 -24.08901 -15.853539 -105.59637
28420000000 -14.593138 -107.28206 -0.44600275 -24.613001 -0.4304643 -24.509613 -15.979632 -106.58184
28450000000 -14.485128 -107.4257 -0.43993023 -24.950171 -0.42799628 -24.899294 -15.821667 -106.78314
28480000000 -14.679811 -106.91602 -0.43452016 -25.397444 -0.42180166 -25.265205 -15.992097 -106.89481
28510000000 -14.698096 -107.94749 -0.44171235 -25.79899 -0.42032939 -25.711485 -15.910241 -107.87691
28540000000 -14.639606 -107.67896 -0.4326486 -26.179199 -0.42020649 -26.116098 -16.114912 -107.15237
28570000000 -14.720428 -108.19427 -0.43185797 -26.59407 -0.42318454 -26.521791 -15.900046 -108.15958
28600000000 -14.787307 -109.63059 -0.43387762 -26.963215 -0.41876212 -26.914392 -16.063328 -107.64197
28630000000 -14.743526 -108.67922 -0.43334845 -27.448633 -0.41212037 -27.332586 -16.140383 -110.67196
28660000000 -14.884076 -109.2505 -0.42492071 -27.763426 -0.4157452 -27.749548 -15.993955 -107.24001
28690000000 -14.87286 -110.06252 -0.42795455 -28.208792 -0.41257298 -28.149 -16.19598 -110.74367
28720000000 -14.811934 -110.26057 -0.4286128 -28.673521 -0.41611183 -28.533825 -16.067682 -110.41464
28750000000 -15.003551 -110.57908 -0.42928913 -29.019079 -0.41449568 -28.940481 -16.243143 -110.22903
28780000000 -14.858102 -110.83365 -0.4262706 -29.409153 -0.41187048 -29.34878 -16.216974 -111.23379
28810000000 -14.930497 -110.48109 -0.41609332 -29.838034 -0.41072509 -29.863684 -16.07699 -111.49088
28840000000 -15.012174 -111.63924 -0.41980129 -30.2215 -0.4080652 -30.192657 -16.45223 -111.6925
28870000000 -15.06614 -112.661 -0.42237365 -30.685413 -0.41211867 -30.605709 -16.442417 -113.09687
28900000000 -15.071641 -110.88 -0.41542503 -31.130926 -0.40117803 -30.990744 -16.281601 -111.72913
28930000000 -15.120084 -112.82301 -0.41388002 -31.519476 -0.39892861 -31.437443 -16.413778 -113.15831
28960000000 -14.995994 -113.68024 -0.41978076 -31.929775 -0.40064573 -31.866133 -16.599031 -113.90403
28990000000 -15.215544 -112.51874 -0.40924007 -32.318565 -0.40270177 -32.264381 -16.493464 -113.05611
29020000000 -15.307864 -112.74837 -0.41165191 -32.771969 -0.40540665 -32.652103 -16.645304 -114.00494
29050000000 -15.135918 -113.51552 -0.42358264 -33.107018 -0.40173849 -33.118362 -16.647884 -115.45913
29080000000 -15.208525 -113.54072 -0.41440484 -33.512051 -0.40320903 -33.48687 -16.553389 -114.5173
29110000000 -15.525233 -115.051 -0.40444764 -33.929256 -0.38736051 -33.849182 -17.088243 -113.39536
29140000000 -15.318602 -113.91479 -0.40953988 -34.407173 -0.40068603 -34.292107 -16.69174 -116.56527
29170000000 -15.234748 -114.02991 -0.4134444 -34.844463 -0.40743795 -34.753704 -16.792822 -115.37905
29200000000 -15.408497 -115.28265 -0.40612346 -35.265076 -0.39560133 -35.164368 -17.022781 -116.47329
29230000000 -15.43688 -116.03243 -0.40837231 -35.637428 -0.39852569 -35.538227 -17.152908 -117.49629
29260000000 -15.454579 -113.66346 -0.4048821 -36.079903 -0.39928988 -36.014881 -16.904652 -115.94836
29290000000 -15.46174 -115.81837 -0.41461074 -36.418068 -0.39817613 -36.39431 -17.303123 -117.80889
29320000000 -15.400181 -116.4174 -0.41075951 -36.854351 -0.39766717 -36.796036 -17.1418 -117.9267
29350000000 -15.657122 -116.01286 -0.40573236 -37.326912 -0.39215818 -37.23563 -17.099636 -116.16196
29380000000 -15.800704 -114.87044 -0.40746582 -37.728821 -0.39562091 -37.671268 -17.584799 -117.54179
29410000000 -15.438388 -116.22918 -0.41315883 -38.143959 -0.39520893 -38.034927 -17.091721 -118.84886
29440000000 -15.666012 -116.07123 -0.40828702 -38.545425 -0.39632615 -38.472889 -17.490984 -117.72921
29470000000 -15.909031 -117.70242 -0.40728784 -38.977718 -0.3966279 -38.917442 -17.496023 -117.85126
29500000000 -15.732942 -115.73235 -0.41681927 -39.360123 -0.40503326 -39.327095 -17.536108 -119.76522
29530000000 -15.651242 -116.27923 -0.41418016 -39.785545 -0.40566471 -39.702457 -17.445225 -117.62288
29560000000 -15.888848 -118.26759 -0.4149414 -40.222786 -0.39636528 -40.139549 -17.839336 -120.03409
29590000000 -15.849127 -117.47893 -0.42203957 -40.573204 -0.40657085 -40.558273 -17.612986 -119.83173
29620000000 -15.987618 -115.59924 -0.4207024 -40.99585 -0.41067815 -40.938019 -17.82737 -117.32755
29650000000 -15.809248 -117.17774 -0.41078314 -41.408535 -0.41052049 -41.333305 -17.866243 -120.94742
29680000000 -15.812498 -118.0061 -0.41472039 -41.821014 -0.40358597 -41.763977 -17.747375 -120.27899
29710000000 -16.129457 -116.3269 -0.42242929 -42.290966 -0.40711781 -42.186386 -18.020401 -119.08598
29740000000 -16.101105 -117.1729 -0.42550138 -42.69323 -0.41768613 -42.597946 -18.001059 -119.766
29770000000 -15.795319 -116.71847 -0.42420909 -43.028416 -0.40755451 -42.917332 -17.887518 -120.90316
29800000000 -16.073248 -117.57485 -0.42151698 -43.430336 -0.41844144 -43.361156 -18.092335 -120.23994
29830000000 -16.304861 -117.87061 -0.42791858 -43.882439 -0.41456032 -43.81691 -18.213427 -119.72279
29860000000 -16.063564 -115.70476 -0.43498939 -44.224026 -0.4146207 -44.185326 -17.905993 -121.44572
29890000000 -16.060406 -116.98164 -0.42803997 -44.662598 -0.41035777 -44.538803 -18.206177 -119.45582
29920000000 -16.225746 -118.88702 -0.41959146 -45.054939 -0.41374761 -45.029564 -18.407009 -121.33404
29950000000 -16.256302 -117.38696 -0.42622435 -45.452377 -0.41581699 -45.346779 -18.129047 -121.21515
29980000000 -16.430937 -115.28027 -0.4369607 -45.835068 -0.41827726 -45.749573 -18.391182 -118.96632
30010000000 -16.102745 -118.02989 -0.41870481 -46.271263 -0.39993495 -46.18338 -18.304388 -122.70107
30040000000 -16.27935 -118.61215 -0.42616838 -46.602402 -0.41385326 -46.54694 -18.321121 -122.48593
30070000000 -16.543276 -116.97464 -0.42399102 -47.024799 -0.40948725 -46.987617 -18.601217 -120.14751
30100000000 -16.539667 -116.7218 -0.42607328 -47.492779 -0.41945544 -47.32391 -18.616711 -122.05157
30130000000 -16.201229 -117.43539 -0.41298231 -47.843426 -0.40460646 -47.761562 -18.274252 -122.75478
30160000000 -16.782358 -118.59911 -0.42138094 -48.28064 -0.41455692 -48.2131 -18.816513 -122.78713
30190000000 -16.810188 -117.71992 -0.4222872 -48.629147 -0.41458768 -48.635841 -19.017429 -121.67563
30220000000 -16.614975 -116.35398 -0.41472694 -48.999256 -0.40909186 -48.979347 -18.494987 -122.97971
30250000000 -16.624392 -116.6898 -0.41365537 -49.392574 -0.41005364 -49.360043 -18.799877 -121.41529
30280000000 -16.911747 -120.12714 -0.41355544 -49.911652 -0.40438202 -49.86644 -19.174147 -125.03275
30310000000 -16.913435 -116.26885 -0.41305947 -50.231094 -0.39872885 -50.175697 -19.004843 -121.48891
30340000000 -16.973618 -115.42481 -0.41357166 -50.627251 -0.39874473 -50.542202 -18.796703 -121.62776
30370000000 -16.871775 -118.17547 -0.41250664 -51.090347 -0.39811996 -51.042446 -19.259449 -124.32666
30400000000 -17.01133 -118.00019 -0.40973529 -51.48048 -0.40383086 -51.386009 -19.136995 -124.2018
30430000000 -17.474108 -116.68076 -0.41365764 -51.802429 -0.40115729 -51.739204 -19.204037 -120.30317
30460000000 -17.150166 -116.99792 -0.4104397 -52.280891 -0.40181234 -52.20665 -19.421167 -125.14792
30490000000 -17.006781 -116.95493 -0.39585596 -52.692692 -0.38893461 -52.584915 -18.930965 -123.68608
30520000000 -17.695112 -117.83635 -0.41181698 -53.064175 -0.40641451 -52.946232 -19.882465 -123.55513
30550000000 -17.644402 -117.63871 -0.40632468 -53.497128 -0.40353599 -53.395725 -19.601849 -123.78339
30580000000 -17.420639 -115.39971 -0.40017593 -53.847836 -0.37771297 -53.731995 -19.233276 -123.7386
30610000000 -17.575611 -117.14363 -0.39694273 -54.242817 -0.38507864 -54.247276 -19.673069 -125.35826
30640000000 -17.819502 -119.72701 -0.40444481 -54.705956 -0.39298075 -54.650387 -20.114481 -124.92106
30670000000 -17.803091 -116.38811 -0.38639867 -55.069164 -0.37787959 -54.986286 -19.514069 -123.41142
30700000000 -18.088861 -115.25753 -0.38361874 -55.42741 -0.37422782 -55.403473 -19.909756 -123.5929
30730000000 -17.805695 -118.77695 -0.39131084 -55.942062 -0.36996627 -55.862305 -20.097143 -127.13739
30760000000 -18.102041 -117.00027 -0.38387465 -56.361568 -0.37017485 -56.284058 -20.203007 -125.00842
30790000000 -18.491564 -116.24522 -0.37918839 -56.740902 -0.36332017 -56.590187 -19.80558 -121.98689
30820000000 -18.442757 -118.31161 -0.38096637 -57.188416 -0.3769235 -57.106434 -20.783112 -130.28734
30850000000 -18.160948 -116.86969 -0.37160993 -57.626804 -0.35830373 -57.519505 -20.058741 -123.30769
30880000000 -18.903393 -117.90405 -0.38436249 -57.936287 -0.36718503 -57.838139 -21.056196 -124.97091
30910000000 -18.812332 -118.12817 -0.38871747 -58.399567 -0.3683672 -58.341011 -20.428392 -127.30208
30940000000 -18.674156 -114.85026 -0.36365989 -58.83353 -0.35658699 -58.802063 -20.951464 -126.40062
30970000000 -18.995045 -116.55453 -0.37049341 -59.248585 -0.36062109 -59.125252 -20.916082 -123.47337
31000000000 -19.046822 -118.28897 -0.37440586 -59.740749 -0.35697424 -59.558384 -21.036152 -127.21531
31030000000 -19.439274 -113.49357 -0.35863099 -60.051613 -0.35002416 -60.038818 -21.265402 -124.52422
31060000000 -19.490847 -116.00593 -0.36210281 -60.511597 -0.35497007 -60.446213 -21.25145 -122.88098
31090000000 -19.30011 -116.79573 -0.37747183 -60.999001 -0.35369128 -60.917332 -21.404327 -127.43291
31120000000 -19.483522 -116.29229 -0.37378964 -61.402351 -0.35193369 -61.341698 -21.622131 -126.01762
31150000000 -20.233351 -115.50241 -0.35979423 -61.71302 -0.34968579 -61.625908 -21.374611 -120.72589
31180000000 -19.606491 -115.42841 -0.36741433 -62.250591 -0.35997364 -62.171619 -22.085266 -129.09662
31210000000 -19.845207 -115.78745 -0.36471102 -62.65955 -0.35928103 -62.606068 -21.469055 -124.48936
31240000000 -20.377275 -115.05268 -0.3661668 -62.979931 -0.3495138 -62.979332 -22.423988 -121.90524
31270000000 -20.207684 -116.50165 -0.36605021 -63.468616 -0.36658195 -63.423649 -21.890541 -128.6324
31300000000 -20.44223 -112.22732 -0.36215711 -63.88047 -0.3435452 -63.885971 -22.342491 -121.3302
31330000000 -20.672401 -114.93073 -0.37057769 -64.293175 -0.36316931 -64.211456 -22.463095 -126.59811
31360000000 -20.561878 -115.90286 -0.37134853 -64.708122 -0.35776204 -64.671516 -22.882624 -122.87583
31390000000 -20.933384 -113.27288 -0.3756693 -65.200455 -0.3499181 -65.105827 -22.273273 -125.94907
31420000000 -21.1506 -113.8449 -0.37046692 -65.558823 -0.35673171 -65.463173 -23.174866 -121.88241
31450000000 -20.798079 -113.51831 -0.37651923 -66.029549 -0.36380821 -65.966309 -22.605936 -123.78458
31480000000 -20.995949 -113.26559 -0.37291262 -66.433327 -0.36396024 -66.331596 -23.329271 -125.76027
31510000000 -21.591961 -113.14387 -0.36530396 -66.834229 -0.35500067 -66.704475 -23.027102 -118.82188
31540000000 -21.138403 -112.98906 -0.38881823 -67.255196 -0.36791751 -67.201668 -23.37064 -125.79572
31570000000 -21.390026 -110.94548 -0.37145767 -67.6129 -0.37279132 -67.600853 -23.36364 -122.89042
31600000000 -21.640757 -113.79918 -0.38318726 -68.06015 -0.37410733 -67.979202 -23.51519 -121.37916
31630000000 -21.486969 -112.05489 -0.37882656 -68.482445 -0.378162 -68.405586 -23.835819 -124.98793
31660000000 -21.679108 -110.35364 -0.37835458 -68.895042 -0.37796345 -68.864601 -23.296808 -123.96838
31690000000 -22.050179 -112.16346 -0.38800696 -69.26757 -0.36963704 -69.115417 -24.464417 -122.04385
31720000000 -21.475672 -111.87415 -0.38472706 -69.730545 -0.37356508 -69.568153 -23.687 -120.66033
31750000000 -22.085419 -111.70982 -0.38368747 -70.091026 -0.3706868 -69.947487 -23.963516 -125.08218
31780000000 -22.04792 -110.56905 -0.37536138 -70.518326 -0.37048101 -70.39286 -24.294739 -121.69815
31810000000 -21.93041 -111.57063 -0.38380283 -70.921997 -0.38867357 -70.797806 -24.498957 -121.44244
31840000000 -22.108435 -110.92965 -0.39127091 -71.251244 -0.37754157 -71.24263 -24.220917 -127.15472
31870000000 -22.628954 -110.73621 -0.37355661 -71.633484 -0.36840662 -71.592621 -25.073957 -117.06023
31900000000 -22.330149 -107.61731 -0.38541046 -72.077225 -0.3720617 -72.04483 -25.373457 -124.30216
31930000000 -22.552366 -108.22323 -0.38007855 -72.565933 -0.36748222 -72.478165 -24.813425 -121.99229
31960000000 -22.545523 -109.894 -0.38269535 -72.876335 -0.36191458 -72.854118 -25.895248 -118.44466
31990000000 -22.690413 -110.1195 -0.38253364 -73.321846 -0.37244073 -73.245979 -25.500797 -119.96471
32020000000 -22.964981 -104.16859 -0.38156438 -73.797661 -0.36688107 -73.729881 -25.932194 -119.97121
32050000000 -22.814415 -108.87856 -0.38004437 -74.127129 -0.36927122 -74.040039 -26.344095 -119.62077
32080000000 -22.621214 -106.91693 -0.38207203 -74.56971 -0.3806431 -74.485428 -26.156496 -117.01965
32110000000 -23.093658 -106.91096 -0.38435316 -74.95089 -0.37153295 -74.913551 -26.105349 -123.68481
32140000000 -23.330755 -105.30466 -0.37905309 -75.397171 -0.36000064 -75.229889 -26.810986 -114.29326
32170000000 -22.691488 -104.28719 -0.38359529 -75.788849 -0.36950034 -75.718796 -27.332514 -120.41613
32200000000 -23.283291 -105.43795 -0.37414572 -76.213692 -0.36117747 -76.060677 -27.077841 -114.81054
32230000000 -23.283485 -105.43937 -0.36619723 -76.610291 -0.35688937 -76.528595 -27.245457 -110.6104
32260000000 -23.365093 -101.88238 -0.36977318 -77.016533 -0.36218354 -76.944244 -28.196795 -121.23366
32290000000 -23.051332 -98.664047 -0.37646589 -77.5131 -0.35577944 -77.378929 -27.61669 -106.38354
32320000000 -23.165861 -104.0471 -0.35993257 -77.856812 -0.35486811 -77.755409 -28.003036 -113.06443
32350000000 -23.371773 -100.21297 -0.36392897 -78.282722 -0.35225987 -78.247818 -28.378767 -108.62258
32380000000 -23.409328 -96.889038 -0.36365256 -78.739326 -0.35023433 -78.675385 -29.106047 -103.9483
32410000000 -23.246241 -96.317871 -0.3687259 -79.092522 -0.35204795 -79.054047 -28.599737 -102.70128
32440000000 -23.085863 -97.917953 -0.36540338 -79.53418 -0.35977483 -79.464767 -29.524523 -93.901154
32470000000 -23.723974 -96.323433 -0.35626748 -79.980148 -0.33649042 -79.928116 -29.475105 -109.18041
32500000000 -23.930653 -93.956581 -0.37366158 -80.412766 -0.35644957 -80.344032 -28.924187 -91.582512
32530000000 -22.99419 -92.478188 -0.36689687 -80.820854 -0.3553406 -80.748482 -30.087299 -91.048782
32560000000 -23.445345 -93.665421 -0.35280511 -81.240433 -0.35356885 -81.136002 -28.967707 -93.474586
32590000000 -23.669481 -91.006592 -0.36219621 -81.700111 -0.35450491 -81.57048 -29.807411 -84.573738
32620000000 -23.544239 -89.781441 -0.36736166 -82.142471 -0.35690567 -82.06749 -29.847183 -80.36026
32650000000 -22.989861 -85.620369 -0.36931348 -82.472496 -0.3661513 -82.366867 -29.066265 -79.819672
32680000000 -23.474243 -91.702934 -0.36538872 -82.904427 -0.34053695 -82.803047 -29.652987 -79.814148
32710000000 -23.384594 -86.257317 -0.37162459 -83.33297 -0.36184368 -83.342484 -29.602396 -75.272888
32740000000 -23.27096 -83.517815 -0.37051964 -83.758621 -0.36277953 -83.732216 -30.126331 -66.14978
32770000000 -22.786388 -81.97805 -0.36776564 -84.158951 -0.36491317 -84.021935 -27.618118 -75.045425
32800000000 -22.938873 -84.492393 -0.35923743 -84.59597 -0.35905412 -84.505478 -29.300755 -62.305573
32830000000 -23.100885 -80.994698 -0.37527728 -85.051529 -0.36127651 -84.955811 -29.536449 -67.059799
32860000000 -23.181864 -78.702927 -0.37626544 -85.367226 -0.3685075 -85.311935 -27.589008 -60.632458
32890000000 -22.202023 -77.084366 -0.37102485 -85.82238 -0.35686293 -85.644913 -27.897976 -59.985817
32920000000 -22.479101 -79.694611 -0.37350133 -86.276535 -0.36204484 -86.160118 -28.639921 -57.533203
32950000000 -22.814293 -75.881073 -0.36192048 -86.639191 -0.35656703 -86.594994 -26.698507 -60.499653
32980000000 -22.43627 -72.989685 -0.37876835 -87.064438 -0.37029099 -86.942032 -27.113754 -51.179134
33010000000 -22.008234 -71.509689 -0.37288046 -87.489311 -0.3683424 -87.345299 -27.670721 -56.618217
33040000000 -22.332325 -74.881531 -0.36395317 -87.86795 -0.35421196 -87.795746 -25.994513 -59.244938
33070000000 -22.053263 -71.480362 -0.37377328 -88.319725 -0.36306885 -88.273636 -26.186476 -48.331654
33100000000 -22.161531 -67.999756 -0.37098002 -88.721954 -0.36526597 -88.599091 -26.99383 -54.84338
33130000000 -21.872791 -67.374313 -0.36993018 -89.07634 -0.36810908 -89.048943 -25.680227 -55.17741
33160000000 -21.694269 -70.14492 -0.37790218 -89.558449 -0.36508828 -89.45443 -25.183361 -44.820465
33190000000 -21.908361 -66.348106 -0.36952683 -89.998871 -0.36773324 -89.945641 -27.143785 -60.383034
33220000000 -21.58881 -64.722603 -0.38097826 -90.333527 -0.37435421 -90.253067 -24.10446 -44.996513
33250000000 -21.101517 -66.184486 -0.37508509 -90.759941 -0.36897755 -90.72422 -25.75647 -52.759407
33280000000 -21.088099 -66.287247 -0.38181084 -91.22921 -0.3580943 -91.168236 -25.549858 -49.729809
33310000000 -21.525297 -63.507019 -0.37857348 -91.644386 -0.36518741 -91.589294 -24.690355 -52.049114
33340000000 -20.888819 -62.328423 -0.37638852 -92.006866 -0.36647099 -91.898262 -24.559242 -45.032394
33370000000 -20.599422 -60.655754 -0.37935138 -92.340416 -0.35602388 -92.362617 -25.484785 -50.493172
33400000000 -20.913826 -62.818802 -0.37095296 -92.878975 -0.36147568 -92.783958 -23.83531 -52.034088
33430000000 -20.642893 -60.03056 -0.37259331 -93.244896 -0.36839706 -93.141037 -24.204027 -43.996906
33460000000 -20.808386 -58.33194 -0.37873164 -93.683426 -0.3655926 -93.611534 -25.255058 -50.985245
33490000000 -20.152637 -58.125565 -0.36629608 -93.951279 -0.36311302 -93.921097 -22.826746 -47.619038
33520000000 -20.225079 -60.732498 -0.37455851 -94.513687 -0.36114427 -94.420761 -23.683477 -43.459557
33550000000 -20.352842 -57.718891 -0.37809223 -94.952087 -0.36022168 -94.879066 -24.571838 -50.586674
33580000000 -20.163097 -55.526531 -0.37051964 -95.281189 -0.35696581 -95.175926 -22.542555 -45.820675
33610000000 -19.804018 -55.212185 -0.36813277 -95.668785 -0.3644447 -95.568718 -23.783836 -40.227837
33640000000 -19.770903 -57.218861 -0.36048242 -96.166794 -0.35247239 -96.068535 -23.388611 -50.351685
33670000000 -20.193483 -55.880558 -0.38379067 -96.631424 -0.36433631 -96.5383 -23.31576 -46.041508
33700000000 -19.546835 -52.872875 -0.38342479 -96.879257 -0.36906266 -96.856392 -23.003649 -39.052284
33730000000 -19.599016 -53.034889 -0.3724176 -97.329185 -0.35886797 -97.367111 -23.087748 -48.99247
33760000000 -19.389545 -53.056293 -0.37054133 -97.772079 -0.35870379 -97.738037 -22.549311 -46.174934
33790000000 -19.706167 -54.579514 -0.38686696 -98.140739 -0.37127495 -98.074913 -22.511478 -36.556232
33820000000 -19.444561 -49.996769 -0.37285253 -98.628288 -0.36652055 -98.549225 -23.375731 -49.542698
33850000000 -19.055119 -52.589493 -0.35847101 -99.017029 -0.34386545 -98.912842 -21.551638 -44.932167
33880000000 -18.827581 -52.816898 -0.37110406 -99.414894 -0.36289155 -99.300423 -22.787022 -39.084797
33910000000 -19.302645 -52.355778 -0.38003591 -99.937416 -0.36775804 -99.802681 -23.086887 -47.901871
33940000000 -19.052937 -47.527782 -0.37644866 -100.29206 -0.36107254 -100.10311 -21.652454 -43.874737
33970000000 -18.788351 -50.041561 -0.38600624 -100.65031 -0.3644841 -100.59385 -22.599262 -35.756435
34000000000 -18.86478 -50.69104 -0.36552784 -101.08625 -0.35495433 -101.07058 -22.34763 -50.337448
34030000000 -19.005808 -49.718185 -0.38327718 -101.49284 -0.37605655 -101.39169 -22.319304 -40.235508
34060000000 -18.73933 -48.35276 -0.37935334 -101.91695 -0.35857671 -101.79449 -21.722712 -37.152264
34090000000 -18.354797 -49.240311 -0.37709743 -102.36404 -0.35933417 -102.34785 -22.119902 -45.627151
34120000000 -18.425018 -50.072498 -0.37396485 -102.8349 -0.36541295 -102.72723 -21.61747 -44.144421
34150000000 -18.361322 -49.792679 -0.37247965 -103.08509 -0.36471748 -102.95816 -21.444832 -34.435802
34180000000 -18.453894 -48.146488 -0.37119177 -103.50946 -0.35296431 -103.53262 -22.125443 -45.95792
34210000000 -18.0331 -46.447376 -0.36108831 -104.06655 -0.34650171 -103.99779 -20.697481 -44.068314
34240000000 -18.121925 -49.971096 -0.37289286 -104.32883 -0.37263787 -104.26997 -22.256805 -29.531416
34270000000 -18.250402 -47.86623 -0.37459013 -104.92921 -0.35981083 -104.82442 -21.408184 -45.564999
34300000000 -18.133945 -46.578068 -0.36745235 -105.29121 -0.35946941 -105.18579 -20.646708 -38.336758
34330000000 -17.76049 -47.831924 -0.37504897 -105.64317 -0.36424088 -105.53545 -21.663385 -35.26659
34360000000 -17.843336 -48.27187 -0.37375325 -106.22034 -0.36499736 -106.05204 -21.525497 -41.951145
34390000000 -18.014088 -46.580528 -0.37705508 -106.4612 -0.36372462 -106.4436 -20.350119 -38.768307
34420000000 -17.794428 -47.531639 -0.36413643 -106.88654 -0.34924281 -106.82823 -20.868145 -34.618275
34450000000 -17.68874 -46.914192 -0.37420043 -107.42403 -0.36793751 -107.30785 -21.428217 -45.525726
34480000000 -17.597784 -48.450409 -0.38034555 -107.78558 -0.36803019 -107.74549 -20.025944 -35.59071
34510000000 -17.870483 -48.344559 -0.39159694 -108.1533 -0.37848225 -108.10512 -20.632805 -34.742599
34540000000 -17.533146 -46.11998 -0.3768422 -108.62542 -0.36544111 -108.50201 -20.764729 -41.325077
34570000000 -17.50128 -47.297775 -0.38243809 -109.11491 -0.37287059 -109.03658 -19.900114 -37.932941
34600000000 -17.286188 -49.084858 -0.37397727 -109.44325 -0.37786829 -109.32906 -20.464468 -30.923695
34630000000 -17.587925 -48.370319 -0.3896614 -109.91864 -0.37865764 -109.80199 -20.337534 -43.587528
34660000000 -17.376211 -46.495872 -0.37798887 -110.24305 -0.36747152 -110.20021 -19.259853 -37.051552
34690000000 -17.123373 -48.859032 -0.396213 -110.64352 -0.3709445 -110.62164 -20.616455 -31.732246
34720000000 -17.163754 -48.656246 -0.39194512 -111.14021 -0.38374713 -111.15206 -19.916649 -38.951454
34750000000 -17.331696 -49.310127 -0.39376038 -111.58116 -0.38326645 -111.49242 -18.951317 -41.272625
34780000000 -17.192211 -48.458 -0.38327634 -111.81915 -0.37606108 -111.77889 -20.312754 -30.525215
34810000000 -16.83852 -47.285992 -0.39733246 -112.48227 -0.38667595 -112.36767 -19.43705 -41.034931
34840000000 -16.974245 -50.08876 -0.40657142 -112.85297 -0.38521668 -112.75614 -18.871891 -36.533562
34870000000 -17.007793 -49.591858 -0.3996622 -113.18198 -0.38178936 -113.06339 -19.424084 -30.894451
34900000000 -16.889147 -48.064999 -0.40105736 -113.77409 -0.39411324 -113.53594 -19.147146 -41.23344
34930000000 -16.645014 -47.89249 -0.40273556 -114.03937 -0.39379182 -114.0817 -18.43611 -35.088764
34960000000 -16.485825 -50.353859 -0.40036413 -114.56523 -0.38779354 -114.39053 -18.9751 -33.073772
34990000000 -16.828533 -49.850449 -0.41072848 -114.8548 -0.40013081 -114.76933 -19.271587 -40.968002
35020000000 -16.647905 -48.941624 -0.40301448 -115.31138 -0.389963 -115.25488 -17.633919 -35.579227
35050000000 -16.422998 -50.119404 -0.39657798 -115.66054 -0.39878672 -115.68269 -19.156622 -32.212704
35080000000 -16.202675 -50.573997 -0.41324425 -116.27153 -0.40544704 -116.12594 -18.304029 -39.401199
35110000000 -16.464989 -51.053944 -0.42173889 -116.44541 -0.40692165 -116.39887 -17.530533 -35.976109
35140000000 -16.323238 -50.292137 -0.41569278 -116.91563 -0.40395045 -116.88692 -18.387472 -34.838829
35170000000 -15.965688 -50.322598 -0.43301353 -117.43692 -0.41952729 -117.41232 -17.939987 -39.399658
35200000000 -15.940008 -51.855228 -0.42997298 -117.81998 -0.4113366 -117.73779 -17.224413 -36.815079
35230000000 -15.883048 -53.421257 -0.42777517 -118.26189 -0.42577803 -118.08488 -17.616524 -35.306019
35260000000 -16.002235 -50.308002 -0.42108884 -118.61575 -0.411414 -118.58722 -17.881838 -42.421188
35290000000 -15.525577 -52.003681 -0.43679696 -119.12704 -0.42219535 -119.05524 -16.471355 -36.185345
35320000000 -15.470771 -52.957504 -0.43436909 -119.51498 -0.42313346 -119.31252 -17.974314 -37.479149
35350000000 -15.534093 -52.697094 -0.44534963 -119.82439 -0.43639049 -119.75663 -16.80061 -42.040848
35380000000 -15.656337 -51.772438 -0.4362182 -120.33412 -0.42566469 -120.28053 -16.699253 -39.824829
35410000000 -15.173131 -52.778957 -0.44592243 -120.66513 -0.42857936 -120.7207 -17.386917 -36.35355
35440000000 -15.144919 -54.330009 -0.45557854 -121.13569 -0.4373357 -121.07318 -16.593653 -42.396416
35470000000 -15.331108 -55.381374 -0.44663474 -121.43771 -0.44033012 -121.46942 -16.229691 -41.048676
35500000000 -15.018505 -53.382896 -0.4501251 -121.98446 -0.43458995 -121.869 -17.071638 -37.616543
35530000000 -15.013803 -53.533501 -0.46096107 -122.34936 -0.44475165 -122.30647 -16.366787 -44.504166
35560000000 -14.709416 -55.414665 -0.46797147 -122.75941 -0.45380017 -122.72473 -15.96158 -39.733932
35590000000 -14.897756 -55.884033 -0.4618437 -123.09534 -0.44358006 -123.01157 -16.693453 -41.433578
35620000000 -14.873442 -53.441284 -0.46380073 -123.61368 -0.44395593 -123.46086 -16.220005 -46.333473
35650000000 -14.453583 -55.075329 -0.47280711 -123.92992 -0.46139574 -123.95896 -15.676842 -39.819565
35680000000 -14.383258 -55.843388 -0.46450907 -124.3567 -0.46692243 -124.24496 -16.261633 -41.935669
35710000000 -14.564761 -55.878944 -0.47150904 -124.75575 -0.45261467 -124.66148 -15.79905 -45.93906
35740000000 -14.434927 -54.826145 -0.48561472 -125.2328 -0.45869833 -125.15746 -15.716712 -42.124493
35770000000 -14.10875 -55.442505 -0.4805916 -125.62544 -0.45828062 -125.54403 -16.000034 -44.260372
35800000000 -14.02833 -56.253235 -0.47519448 -125.88963 -0.46397933 -125.9267 -15.509647 -46.494904
35830000000 -14.088733 -57.009056 -0.47658581 -126.36879 -0.45480093 -126.28893 -15.208365 -44.375145
35860000000 -14.027712 -55.991779 -0.47675568 -126.83514 -0.45254856 -126.7385 -15.757255 -44.857224
35890000000 -13.721441 -55.010563 -0.47642663 -127.20294 -0.47243366 -127.06514 -15.621799 -48.815819
35920000000 -13.572248 -57.838745 -0.49504304 -127.46316 -0.47045195 -127.28268 -14.553875 -44.567142
35950000000 -13.690701 -57.93792 -0.47029385 -128.00427 -0.46078435 -127.89571 -15.964377 -46.416233
35980000000 -13.791983 -57.145626 -0.47951925 -128.46225 -0.47102749 -128.42807 -14.98389 -49.824364
36010000000 -13.417307 -57.022015 -0.49782786 -128.78554 -0.48093742 -128.78761 -15.046357 -46.288975
36040000000 -13.194495 -58.439674 -0.47284493 -129.17175 -0.45986164 -129.05161 -15.530404 -46.431206
36070000000 -13.426599 -59.075878 -0.48408186 -129.6122 -0.46086004 -129.5325 -14.636931 -50.416023
36100000000 -13.356678 -57.542057 -0.48780435 -130.04332 -0.47875875 -129.89659 -14.795448 -49.642555
36130000000 -12.937753 -57.009865 -0.50351506 -130.4386 -0.48139259 -130.38518 -15.717566 -46.583103
36160000000 -12.944838 -58.986847 -0.4950355 -130.72443 -0.48881122 -130.58582 -14.42667 -50.831638
36190000000 -12.98655 -60.005657 -0.47398835 -131.2585 -0.46777803 -131.12967 -14.60054 -49.241234
36220000000 -12.903036 -58.46426 -0.47660661 -131.6555 -0.47476912 -131.49953 -15.296528 -52.090221
36250000000 -12.827871 -56.909489 -0.50893617 -131.99283 -0.4872092 -131.94675 -14.721181 -50.208298
36280000000 -12.504902 -60.41687 -0.47938281 -132.25424 -0.47334978 -132.26015 -14.175334 -49.448063
36310000000 -12.546508 -60.239006 -0.47813421 -132.72546 -0.45966423 -132.7437 -14.886837 -51.726654
36340000000 -12.848877 -58.068821 -0.4908877 -133.29997 -0.46896943 -133.28 -14.865939 -54.251034
36370000000 -12.443686 -58.8396 -0.49877492 -133.5396 -0.4922165 -133.41096 -14.164161 -48.170963
36400000000 -12.12216 -59.8521 -0.47416678 -133.97667 -0.47346351 -133.83478 -14.678382 -53.417137
36430000000 -12.535696 -59.993179 -0.48642766 -134.49229 -0.47360036 -134.40686 -14.417073 -54.07304
36460000000 -12.417478 -59.461857 -0.49461949 -134.84387 -0.47637492 -134.72098 -14.50645 -51.951996
36490000000 -12.070711 -58.668896 -0.48468325 -135.18674 -0.47738928 -135.0182 -14.589994 -51.744083
36520000000 -12.031878 -60.048393 -0.47991791 -135.61403 -0.46323219 -135.46262 -14.163483 -55.065018
36550000000 -12.117439 -61.987431 -0.46649817 -136.00912 -0.47098738 -135.93536 -14.217876 -52.595257
36580000000 -12.025142 -59.306431 -0.48501956 -136.29944 -0.46987444 -136.2532 -14.7485 -54.255768
36610000000 -12.066416 -58.7738 -0.48785415 -136.62198 -0.46416309 -136.65886 -13.944871 -53.968342
36640000000 -11.733971 -62.302315 -0.45044872 -137.28606 -0.44243973 -137.1898 -14.141809 -53.81744
36670000000 -11.934473 -60.875099 -0.4622485 -137.61212 -0.463532 -137.65613 -14.339925 -55.227497
36700000000 -11.936902 -60.262287 -0.47133303 -138.00302 -0.45891383 -137.98532 -14.467099 -56.174614
36730000000 -11.680361 -60.197083 -0.45956668 -138.21942 -0.45056042 -138.25856 -13.839582 -52.32859
36760000000 -11.442651 -60.961613 -0.44546062 -138.77766 -0.43427467 -138.73631 -14.403486 -56.449196
36790000000 -11.888136 -61.509796 -0.46769729 -139.33696 -0.46841463 -139.2429 -13.974566 -57.707729
36820000000 -11.768132 -60.85928 -0.48726392 -139.535 -0.45733169 -139.62936 -14.142703 -52.174759
36850000000 -11.334045 -59.720039 -0.45299333 -140.01247 -0.42852765 -139.90883 -14.139956 -56.395943
36880000000 -11.446887 -61.814716 -0.44767198 -140.52019 -0.45023823 -140.46562 -13.971937 -56.634094
36910000000 -11.58814 -63.113224 -0.46590564 -140.98405 -0.44047797 -140.96014 -14.099784 -55.370113
36940000000 -11.59265 -59.725483 -0.4745225 -141.27519 -0.45682237 -141.05028 -14.114223 -55.641827
36970000000 -11.346617 -61.240551 -0.43186995 -141.7885 -0.42712277 -141.66576 -13.980238 -58.28421
37000000000 -11.299839 -62.694233 -0.44751933 -142.16869 -0.4294523 -142.00648 -13.88819 -52.877815
37030000000 -11.400812 -62.572178 -0.45689112 -142.66713 -0.4354043 -142.57706 -14.084764 -59.519985
37060000000 -11.551411 -60.491127 -0.46968928 -142.94202 -0.44775838 -142.9198 -14.113382 -55.759869
37090000000 -11.168625 -63.097069 -0.41553071 -143.43181 -0.42919597 -143.40524 -13.639706 -55.522125
37120000000 -11.30654 -62.266121 -0.44100657 -143.99055 -0.43760082 -143.73061 -13.79287 -57.117119
37150000000 -11.432299 -63.417843 -0.47451991 -144.39359 -0.45613801 -144.38048 -13.941644 -59.427364
37180000000 -11.183422 -62.160076 -0.4484067 -144.63333 -0.41703668 -144.53619 -13.784895 -53.921982
37210000000 -11.107485 -62.743561 -0.42860764 -145.08971 -0.41991648 -145.06935 -13.832661 -57.324268
37240000000 -11.206405 -63.510181 -0.45391917 -145.5836 -0.43578261 -145.54883 -13.537701 -58.487225
37270000000 -11.229192 -64.105644 -0.451069 -146.02921 -0.43647751 -146.01109 -13.698621 -56.291008
37300000000 -11.262384 -61.64122 -0.46218228 -146.32056 -0.43146226 -146.25549 -13.822595 -58.032246
37330000000 -11.143251 -64.005112 -0.44475052 -146.89998 -0.41185227 -146.88118 -13.53101 -58.457413
37360000000 -11.220727 -64.646011 -0.45319933 -147.24117 -0.43780753 -147.25783 -13.521186 -57.047382
37390000000 -11.233568 -64.434586 -0.4507376 -147.73744 -0.45026121 -147.61661 -13.605424 -58.154613
37420000000 -11.374108 -64.023376 -0.46845961 -148.03746 -0.44625002 -148.10416 -13.523314 -58.420986
37450000000 -11.066582 -64.576813 -0.44186023 -148.53256 -0.42249462 -148.55136 -13.364708 -57.685429
37480000000 -11.154459 -65.269234 -0.45042601 -149.01265 -0.42940542 -148.95396 -13.534875 -58.917732
37510000000 -11.245148 -65.525223 -0.46340501 -149.49121 -0.45039701 -149.3156 -13.390686 -58.825317
37540000000 -11.379647 -65.321388 -0.44962063 -149.92239 -0.44215542 -149.76549 -13.029564 -58.226662
37570000000 -11.122066 -65.127281 -0.45841208 -150.37692 -0.44292012 -150.25957 -13.547528 -59.27515
37600000000 -11.377038 -65.941376 -0.47022 -150.67325 -0.45659059 -150.50613 -13.188415 -58.489109
37630000000 -11.158868 -66.338921 -0.46852651 -151.1351 -0.44678622 -151.18837 -12.906608 -59.936863
37660000000 -11.377223 -66.397873 -0.45771825 -151.45573 -0.4471724 -151.30057 -13.351171 -58.662727
37690000000 -11.279198 -66.105957 -0.47630849 -152.00406 -0.46549299 -151.93513 -13.088442 -59.960011
37720000000 -11.18725 -66.846565 -0.47553554 -152.42792 -0.45159948 -152.30614 -12.915037 -60.506306
37750000000 -11.219728 -67.112511 -0.47917786 -152.80835 -0.47260883 -152.6508 -13.212405 -60.02272
37780000000 -11.425177 -68.081665 -0.4821631 -153.25494 -0.47318986 -153.07857 -12.871378 -61.086945
37810000000 -11.234388 -67.472336 -0.48090446 -153.56024 -0.46824104 -153.51994 -12.85511 -61.272316
37840000000 -11.286898 -67.545326 -0.49171701 -154.0587 -0.47623888 -153.91504 -12.753101 -60.359619
37870000000 -11.310879 -68.195015 -0.49994555 -154.44051 -0.49424645 -154.33656 -12.836856 -62.784874
37900000000 -11.430093 -70.006538 -0.52265054 -154.67599 -0.50418895 -154.70569 -12.724713 -62.714355
37930000000 -11.295006 -67.824478 -0.4906967 -155.09302 -0.46782443 -155.07863 -12.718051 -59.070686
37960000000 -11.323222 -69.14888 -0.52477652 -155.72723 -0.512209 -155.53493 -12.610946 -66.805832
37990000000 -11.225272 -70.63279 -0.51747561 -156.14085 -0.51656383 -155.98709 -12.512019 -60.054337
38020000000 -11.44091 -70.20649 -0.50855839 -156.44992 -0.51870412 -156.2778 -12.582128 -64.536049
38050000000 -11.440893 -70.079185 -0.52785033 -156.81564 -0.50818914 -156.73558 -12.550635 -64.367516
38080000000 -11.124786 -71.239899 -0.5440774 -157.40178 -0.51256585 -157.12201 -12.329386 -64.429115
38110000000 -11.257522 -71.564171 -0.54532224 -157.65306 -0.55126512 -157.57755 -12.308405 -65.043594
38140000000 -11.4322 -71.976822 -0.53934234 -157.91643 -0.52326429 -157.80548 -12.466168 -66.135246
38170000000 -11.286114 -72.555008 -0.5420956 -158.44756 -0.52211803 -158.27304 -12.028736 -65.310814
38200000000 -11.227102 -71.296967 -0.5437274 -158.90669 -0.52354401 -158.72932 -12.443153 -66.542908
38230000000 -11.272291 -73.853874 -0.56430149 -159.17555 -0.53681374 -159.10455 -12.340301 -66.478577
38260000000 -11.285004 -74.588181 -0.54816914 -159.50143 -0.54540676 -159.65248 -11.680194 -67.122063
38290000000 -11.494081 -72.729126 -0.52946562 -159.90071 -0.51372212 -159.79955 -12.500634 -67.525955
38320000000 -11.136585 -73.578651 -0.55894721 -160.6904 -0.53663212 -160.44234 -12.082174 -69.743187
38350000000 -11.12545 -76.670044 -0.58350122 -160.70308 -0.56307483 -160.55412 -11.996636 -67.621117
38380000000 -11.182231 -76.029587 -0.54975301 -161.0094 -0.54785347 -161.00592 -12.25286 -67.961182
38410000000 -11.420943 -76.062752 -0.55012876 -161.48212 -0.5370056 -161.35873 -11.839377 -71.654068
38440000000 -10.976106 -75.85553 -0.57665551 -161.90878 -0.55867636 -161.97705 -12.084816 -69.59977
38470000000 -11.045973 -77.599144 -0.57992744 -162.15677 -0.56656307 -162.01891 -11.854569 -70.380836
38500000000 -11.166776 -79.441498 -0.55178475 -162.48738 -0.53452194 -162.41173 -11.974905 -71.439384
38530000000 -11.314001 -78.563759 -0.54404396 -163.07004 -0.51042628 -162.90573 -11.55559 -72.355873
38560000000 -10.948071 -77.655609 -0.58676082 -163.60414 -0.57750434 -163.40343 -12.151407 -72.108482
38590000000 -10.941243 -81.066101 -0.56635159 -163.63715 -0.55119395 -163.60469 -11.677907 -72.715332
38620000000 -10.879714 -82.049515 -0.55439121 -164.16669 -0.52790701 -163.93718 -11.570537 -73.506859
38650000000 -11.158279 -78.76516 -0.52815521 -164.66719 -0.51147974 -164.72134 -12.025439 -75.045189
38680000000 -10.761231 -80.419075 -0.57327735 -164.87508 -0.5532282 -164.81648 -11.879493 -76.487381
38710000000 -10.655145 -82.52578 -0.56345206 -165.26587 -0.5452022 -165.13367 -11.655642 -72.960365
38740000000 -11.04054 -83.223679 -0.53876472 -165.85989 -0.50575387 -165.73102 -11.678945 -77.363754
38770000000 -11.03926 -83.77047 -0.53110409 -166.25197 -0.52472836 -166.28189 -11.940029 -77.732346
38800000000 -10.527575 -82.133217 -0.57649678 -166.59615 -0.56730425 -166.63823 -11.863881 -74.936783
38830000000 -10.595564 -84.239319 -0.54266047 -166.83786 -0.54228127 -166.86299 -11.646708 -78.051048
38860000000 -10.750278 -86.371353 -0.50852668 -167.27391 -0.48560804 -167.13828 -11.961924 -79.084457
38890000000 -10.646049 -83.991486 -0.53551775 -167.98595 -0.51231736 -167.78018 -11.774217 -78.765472
38920000000 -10.436874 -84.562149 -0.54534745 -168.28534 -0.51879072 -168.13185 -12.149932 -77.750404
38950000000 -10.250071 -87.657562 -0.50720716 -168.47148 -0.50848597 -168.37863 -11.88709 -79.861908
38980000000 -10.381447 -88.092392 -0.49974659 -168.90283 -0.50091487 -168.80261 -11.567924 -79.502716
39010000000 -10.791459 -87.297096 -0.53917998 -169.76352 -0.51437974 -169.61455 -12.246317 -80.20092
39040000000 -10.156322 -86.978821 -0.5285157 -169.61542 -0.51411372 -169.60149 -11.8382 -79.800179
39070000000 -9.9724989 -88.752258 -0.54418921 -170.05219 -0.52272528 -169.87689 -11.585542 -80.49147
39100000000 -10.323242 -90.495995 -0.4764142 -170.80252 -0.45392549 -170.69997 -12.205959 -82.80619
39130000000 -10.373047 -90.012978 -0.50879848 -171.39461 -0.50038266 -171.15523 -12.079245 -81.202766
39160000000 -9.8574228 -87.688171 -0.5228371 -171.5347 -0.52550423 -171.45726 -11.961579 -80.483444
39190000000 -9.8059711 -90.977959 -0.47585616 -171.81311 -0.46857205 -171.75893 -12.058113 -81.620399
39220000000 -10.063862 -92.491493 -0.4681479 -172.54694 -0.45953992 -172.52866 -12.131725 -84.82695
39250000000 -10.092257 -89.035477 -0.52137542 -172.74156 -0.50284368 -172.77257 -11.945659 -81.508034
39280000000 -9.8382568 -89.946449 -0.51363266 -173.08522 -0.480818 -173.12517 -12.204478 -83.281494
39310000000 -9.4517899 -93.41906 -0.44850945 -173.45177 -0.44252685 -173.33214 -11.837638 -83.214981
39340000000 -9.9373789 -93.510376 -0.48605332 -174.1393 -0.46876669 -174.0871 -12.045523 -83.087753
39370000000 -9.8915749 -90.808304 -0.50504929 -174.59464 -0.50031412 -174.49222 -12.231776 -83.450729
39400000000 -9.4818497 -92.155411 -0.4922803 -174.85255 -0.46478364 -174.81557 -12.066657 -84.150749
39430000000 -9.182806 -93.730141 -0.46765462 -175.20892 -0.46355823 -175.19135 -11.952248 -82.111542
39460000000 -9.8523016 -95.571495 -0.47920677 -176.25764 -0.44534129 -176.08156 -12.30316 -83.781937
39490000000 -9.618618 -92.209984 -0.49941203 -176.28496 -0.46525499 -176.07198 -12.127301 -85.469849
39520000000 -9.2085934 -93.224464 -0.46743321 -176.48395 -0.44724759 -176.54147 -12.018367 -82.627289
39550000000 -9.1843319 -94.992836 -0.44887513 -177.14595 -0.43854427 -177.08122 -12.318625 -83.119591
39580000000 -9.5296383 -96.771965 -0.44825485 -177.91191 -0.45671684 -177.72769 -12.011658 -85.708427
39610000000 -9.3677368 -92.970901 -0.50828546 -177.88812 -0.48388046 -177.91943 -11.973595 -83.325737
39640000000 -9.1850882 -93.457619 -0.48094782 -178.44379 -0.46986234 -178.28847 -12.468167 -84.28717
39670000000 -8.8148003 -96.97506 -0.41865236 -179.01608 -0.40739217 -178.86099 -11.92636 -84.900093
39700000000 -9.510376 -97.018883 -0.49239191 -179.54359 -0.47988844 -179.58653 -11.919326 -83.051933
39730000000 -9.3877001 -93.573792 -0.47651649 -179.82344 -0.4577243 -179.77396 -12.288105 -86.623009
39760000000 -8.7574863 -95.615814 -0.43147254 179.58466 -0.44121143 179.78627 -12.098915 -83.256401
39790000000 -8.861557 -96.614395 -0.43466121 179.29359 -0.43863821 179.28133 -11.735789 -84.541092
39820000000 -9.2902889 -98.361092 -0.48713681 178.53601 -0.46744907 178.5851 -11.977196 -84.263115
39850000000 -9.2017307 -95.206398 -0.47955394 178.2399 -0.46530914 178.39232 -11.97821 -86.658859
39880000000 -8.6958246 -95.397522 -0.44717759 177.94772 -0.44070485 178.02454 -11.688492 -83.346344
39910000000 -8.7374134 -97.948753 -0.46340761 177.144 -0.45296171 177.24402 -12.249895 -84.310402
39940000000 -9.0431509 -98.905426 -0.48155341 176.63246 -0.46754333 176.89264 -11.383568 -86.852715
39970000000 -8.9984493 -94.848434 -0.51227337 176.57748 -0.45263734 176.78169 -12.079511 -84.328918
40000000000 -8.7137222 -95.947327 -0.44736639 175.95103 -0.44697645 176.02002 -11.80508 -85.513702
40030000000 -8.632268 -99.201454 -0.48569402 175.2187 -0.47678602 175.31506 -11.65644 -85.401588
40060000000 -9.0829258 -97.119011 -0.48677251 175.10869 -0.48917422 175.10786 -11.451878 -87.28862
40090000000 -9.02736 -95.846962 -0.49382907 174.85374 -0.48707888 174.77194 -11.86356 -87.228668
40120000000 -8.7164736 -97.031403 -0.47706017 174.22563 -0.48083621 174.30634 -11.63572 -86.167107
40150000000 -8.6506748 -97.554039 -0.47414079 173.67944 -0.48911947 173.83638 -11.35271 -86.507874
40180000000 -9.3278761 -98.035767 -0.57221109 173.45757 -0.54213226 173.47861 -11.439068 -87.300697
40210000000 -8.9419546 -95.118851 -0.51477259 172.85774 -0.48826286 172.90504 -11.603935 -90.911591
40240000000 -8.7249136 -96.048439 -0.52109814 172.45555 -0.50379908 172.57553 -11.354118 -86.020767
40270000000 -8.9314003 -97.739388 -0.55741006 172.16852 -0.54711229 172.17659 -11.43749 -89.071915
40300000000 -9.0113392 -97.50898 -0.56501728 171.75043 -0.53007746 171.74373 -11.184251 -92.033897
40330000000 -9.1672544 -95.085014 -0.56053001 171.49107 -0.54778415 171.63519 -11.512625 -88.771507
40360000000 -8.71457 -95.845596 -0.52996075 170.71361 -0.51342756 170.99159 -11.512219 -89.88929
40390000000 -8.8741436 -98.383324 -0.56358588 170.39821 -0.57203126 170.4407 -11.116086 -90.462486
40420000000 -9.1213026 -96.480309 -0.60273707 170.04842 -0.56457949 170.21823 -11.285821 -91.964424
40450000000 -9.1718283 -96.677689 -0.56720042 169.7869 -0.5733819 169.89388 -11.546142 -91.161392
40480000000 -8.8006725 -95.791725 -0.57563221 169.16132 -0.55248171 169.20723 -11.288179 -91.535034
40510000000 -8.8780203 -97.314034 -0.59371507 168.69939 -0.57162642 168.81363 -11.096312 -93.672668
40540000000 -9.3333988 -96.028625 -0.62707728 168.6279 -0.60076815 168.82166 -11.615072 -94.525909
40570000000 -9.1268072 -96.418411 -0.60247505 168.01689 -0.5873698 167.86707 -11.166853 -94.642403
40600000000 -9.0371199 -95.452217 -0.57160723 167.63048 -0.58731288 167.72296 -11.22621 -93.269958
40630000000 -9.2506466 -97.113838 -0.63387626 167.25771 -0.62156773 167.33647 -11.329851 -96.051796
40660000000 -9.2503462 -96.430313 -0.61957592 166.92621 -0.5920617 167.02649 -11.392501 -97.68885
40690000000 -9.3276796 -96.304153 -0.59080285 166.57298 -0.5922302 166.6832 -11.441384 -94.47673
40720000000 -9.2342834 -95.269409 -0.59297168 165.93527 -0.57869989 166.18033 -11.480406 -96.035126
40750000000 -9.2580261 -96.314972 -0.61866426 165.5894 -0.61018139 165.80135 -11.128445 -99.969841
40780000000 -9.4232693 -97.514038 -0.64534062 165.32735 -0.60933506 165.40181 -11.722363 -96.213928
40810000000 -9.797698 -95.783859 -0.60962641 165.06477 -0.61009973 165.09746 -11.31906 -98.31295
40840000000 -9.4149427 -95.979416 -0.62853819 164.4593 -0.62572122 164.49721 -11.596318 -100.75456
40870000000 -9.5756912 -96.565552 -0.61935413 164.23488 -0.62048155 164.21721 -11.633414 -97.581467
40900000000 -9.7926655 -96.224388 -0.64132106 163.71994 -0.63201147 164.136 -11.669321 -101.54337
40930000000 -9.8060436 -96.563652 -0.61172718 163.65845 -0.61209971 163.59842 -12.148408 -100.33625
40960000000 -9.8028908 -93.980217 -0.61373746 162.78236 -0.59270817 162.92172 -11.399072 -100.76577
40990000000 -9.8725042 -96.78685 -0.66609156 162.72595 -0.63171834 162.72702 -12.085151 -101.42554
41020000000 -9.9946575 -96.379349 -0.64778751 162.27713 -0.63074243 162.35252 -11.854183 -103.6628
41050000000 -10.316796 -96.323212 -0.61004078 162.08807 -0.60947269 162.13065 -12.115637 -101.08442
41080000000 -10.055586 -94.909569 -0.64277238 161.3273 -0.62160599 161.21231 -12.115885 -102.95785
41110000000 -10.028585 -98.153641 -0.68843848 160.84584 -0.652964 160.87267 -11.903651 -102.39812
41140000000 -10.453465 -96.603584 -0.65180463 160.77303 -0.64724302 160.73839 -12.241915 -105.98305
41170000000 -10.55671 -96.715157 -0.6075204 160.4395 -0.60354459 160.58525 -12.410471 -101.10217
41200000000 -10.512034 -96.375557 -0.65111202 159.6299 -0.64231318 159.73212 -12.111445 -106.25608
41230000000 -10.427028 -97.050179 -0.67478275 159.5397 -0.6355657 159.66081 -12.574436 -102.17406
41260000000 -10.60891 -98.288795 -0.63485557 159.10304 -0.65632677 159.5201 -12.627733 -105.06382
41290000000 -11.004972 -97.363831 -0.6611656 158.63367 -0.63029617 158.70172 -12.746064 -105.9492
41320000000 -11.05168 -95.496544 -0.65082693 158.13599 -0.63777769 158.13286 -12.325706 -104.31308
41350000000 -10.753783 -98.342148 -0.66472811 158.01733 -0.64746541 158.14687 -13.163383 -104.74484
41380000000 -11.318005 -98.481934 -0.64326137 157.59277 -0.61960578 157.77332 -12.539067 -105.71304
41410000000 -11.436106 -97.496056 -0.6295917 156.92137 -0.59403735 157.03946 -12.936991 -104.18776
41440000000 -11.24726 -96.721085 -0.65796983 156.70587 -0.64601165 156.90128 -13.310061 -103.25357
41470000000 -11.345042 -99.304466 -0.69771922 156.15594 -0.65992385 156.2574 -12.549883 -104.80598
41500000000 -11.440424 -100.12968 -0.6630131 155.94125 -0.66095549 155.85356 -13.294108 -104.68787
41530000000 -12.042918 -100.71515 -0.63343209 155.38885 -0.60300565 155.47449 -12.949423 -103.51289
41560000000 -11.733289 -96.704544 -0.70181781 154.83145 -0.68697608 154.9328 -13.280649 -104.5465
41590000000 -11.76624 -100.97469 -0.70943832 154.57433 -0.67927623 154.83517 -12.678346 -105.00235
41620000000 -11.888519 -102.19744 -0.67702782 154.45399 -0.65100527 154.62578 -13.463779 -105.75769
41650000000 -12.591037 -100.28108 -0.65130329 153.82101 -0.66860813 153.78337 -13.401078 -103.28647
41680000000 -12.320884 -99.446274 -0.71332651 153.12656 -0.70560294 153.2229 -12.45594 -104.97045
41710000000 -12.157866 -102.0839 -0.71919233 153.51712 -0.71985316 153.60307 -14.040281 -106.7334
41740000000 -12.672201 -102.66797 -0.69605345 152.63664 -0.66282767 152.73965 -12.735481 -105.17369
41770000000 -12.940862 -102.36156 -0.67402416 152.08044 -0.6867308 152.11282 -13.385083 -106.02289
41800000000 -12.70822 -100.88914 -0.73201334 151.70175 -0.72688258 151.78203 -13.088716 -104.58406
41830000000 -12.51684 -103.35671 -0.74541283 151.64981 -0.73803151 151.76407 -13.108899 -108.97396
41860000000 -12.913725 -106.94499 -0.70425379 151.12402 -0.68391675 151.33124 -13.057308 -106.12016
41890000000 -13.462948 -105.67457 -0.7401281 150.60394 -0.70631647 150.47527 -13.219895 -104.83138
41920000000 -12.999327 -102.35562 -0.79263675 150.16647 -0.76075941 150.32657 -12.693312 -107.69018
41950000000 -12.793021 -108.07845 -0.74787742 150.01204 -0.71621948 149.92236 -13.267053 -105.91829
41980000000 -13.499063 -108.93451 -0.73715472 149.41388 -0.75575298 149.65074 -13.085986 -108.64906
42010000000 -13.857332 -107.39417 -0.79834008 148.85376 -0.74981421 149.13188 -13.069548 -106.59279
42040000000 -13.507812 -105.80275 -0.82089758 148.69902 -0.77453887 148.76382 -12.729783 -108.25584
42070000000 -13.286349 -109.57203 -0.75826871 148.57544 -0.73508716 148.51422 -13.478537 -108.7869
42100000000 -14.012534 -112.30698 -0.79901367 148.02867 -0.78629798 147.85547 -12.822001 -109.14901
42130000000 -13.924583 -110.45697 -0.80895066 147.38852 -0.77840656 147.53574 -12.88107 -106.94663
42160000000 -13.848511 -108.77272 -0.82691127 147.20984 -0.79920971 147.42409 -13.096132 -109.70519
42190000000 -13.413783 -112.37217 -0.80659521 146.73988 -0.79553986 147.12752 -12.859023 -112.62946
42220000000 -14.344787 -114.88057 -0.81545997 146.42004 -0.79757893 146.49399 -13.063991 -110.92649
42250000000 -14.371869 -113.77924 -0.82928777 146.05389 -0.83736402 145.89635 -12.898085 -110.08385
42280000000 -13.96111 -110.88444 -0.85456055 145.74001 -0.81390768 146.03185 -12.847157 -115.68694
42310000000 -13.861269 -114.25964 -0.83080989 145.31772 -0.81527728 145.54823 -13.050756 -111.07037
42340000000 -14.257126 -117.08209 -0.84456819 145.35754 -0.81143719 145.10817 -13.267863 -112.7669
42370000000 -14.650001 -117.22366 -0.8809076 144.52565 -0.84317017 144.52383 -12.50411 -114.17022
42400000000 -14.212972 -114.69984 -0.84927803 144.35455 -0.84293127 144.49698 -12.949034 -117.43077
42430000000 -13.849855 -116.01041 -0.84734356 144.20647 -0.82531476 144.26918 -13.542301 -114.799
42460000000 -14.553102 -121.45188 -0.89108545 143.34073 -0.83264476 143.57991 -12.647411 -116.14201
42490000000 -14.751328 -118.72227 -0.8778556 143.20306 -0.8765254 143.38127 -13.095236 -118.15414
42520000000 -14.645774 -116.46452 -0.88678122 143.01778 -0.8784526 143.23016 -13.291656 -117.21961
42550000000 -13.747413 -119.05226 -0.82784361 142.81731 -0.8276732 142.66907 -13.207128 -120.2327
42580000000 -14.53947 -124.32983 -0.86224604 142.04469 -0.86464262 142.27188 -13.170177 -117.80426
42610000000 -14.936044 -120.53343 -0.90985119 141.88715 -0.89967936 142.21275 -13.347442 -119.1524
42640000000 -14.512284 -122.20819 -0.9035731 141.66557 -0.86136436 141.90816 -13.376052 -125.04337
42670000000 -14.066622 -123.21391 -0.89346969 141.30978 -0.85404563 141.44751 -13.555925 -120.67857
42700000000 -14.365239 -127.49327 -0.90507525 140.66048 -0.86963457 140.57986 -13.297462 -123.19021
42730000000 -14.696836 -122.98025 -0.88965935 140.4201 -0.87623715 140.70557 -13.891747 -123.39188
42760000000 -14.346872 -123.55557 -0.88557488 140.088 -0.86733669 140.27521 -13.367523 -123.86477
42790000000 -14.213322 -126.21408 -0.88778079 139.82588 -0.8638792 139.79933 -14.030869 -124.81029
42820000000 -14.210983 -129.22269 -0.88781255 139.34882 -0.85307014 139.41928 -13.799226 -124.19617
42850000000 -14.909002 -127.79726 -0.93227047 139.20848 -0.87157995 139.5305 -13.841875 -128.17474
42880000000 -14.280076 -124.35425 -0.8617993 138.83737 -0.8551228 139.00385 -14.435387 -126.24121
42910000000 -14.366094 -126.85664 -0.87615353 138.65668 -0.8341012 138.54073 -14.258547 -128.90028
42940000000 -14.11865 -129.51241 -0.88037944 138.17062 -0.85502005 138.153 -14.369238 -128.59415
42970000000 -14.66998 -130.82162 -0.83108133 137.70216 -0.88624847 137.81526 -14.935 -122.70866
43000000000 -14.047631 -126.57632 -0.8576104 137.15503 -0.81822342 137.51402 -13.858448 -132.96831
43030000000 -14.294868 -128.80867 -0.86564153 137.09496 -0.84263957 137.06717 -15.451069 -125.43201
43060000000 -13.74543 -131.48039 -0.8642503 136.49892 -0.86978382 136.60126 -14.925365 -132.08409
43090000000 -14.54235 -128.44867 -0.85843897 136.36856 -0.83422542 136.56551 -14.600166 -126.07927
43120000000 -13.918862 -130.48183 -0.83194494 135.74316 -0.8296259 135.92044 -15.204485 -134.07733
43150000000 -13.997702 -128.80199 -0.8215512 135.62033 -0.78993988 135.49605 -15.565042 -125.4502
43180000000 -13.701098 -130.39218 -0.85163754 135.05521 -0.81445628 135.03894 -15.829459 -130.31087
43210000000 -14.005145 -132.40466 -0.80499369 134.78807 -0.82249492 134.80002 -14.811955 -126.37427
43240000000 -14.422834 -129.02896 -0.85621762 134.56996 -0.80115151 134.59392 -16.40167 -133.52545
43270000000 -13.651729 -130.90424 -0.81968939 133.8544 -0.78780264 134.12401 -15.868182 -128.70328
43300000000 -14.131267 -131.25 -0.81555152 133.67061 -0.76634258 133.75394 -16.335003 -126.23694
43330000000 -13.780068 -132.51469 -0.80387747 133.27678 -0.7966913 133.22729 -15.907287 -128.35121
43360000000 -14.285879 -131.2377 -0.77871531 132.76378 -0.77746618 133.06708 -16.420416 -129.99089
43390000000 -13.768954 -128.07022 -0.75533557 132.51312 -0.78982157 132.58928 -16.814478 -128.94739
43420000000 -13.851567 -133.39287 -0.82227749 132.06749 -0.7764684 132.14412 -16.910772 -125.41629
43450000000 -13.719403 -132.41539 -0.80370456 131.46194 -0.77877724 131.86632 -16.204973 -131.41075
43480000000 -14.247921 -131.37917 -0.75844288 131.39981 -0.7420013 131.45593 -16.65843 -125.74922
43510000000 -13.563505 -128.5296 -0.7542311 130.77397 -0.77566463 130.72449 -17.578224 -124.93982
43540000000 -13.417553 -132.12289 -0.77934992 130.09006 -0.72751611 130.47499 -16.463089 -120.42197
43570000000 -14.084574 -133.39545 -0.77494639 129.90019 -0.7382015 130.01808 -16.461506 -128.65965
43600000000 -14.257708 -128.32634 -0.72312349 129.70711 -0.70633084 129.87544 -17.795454 -123.53766
43630000000 -13.543944 -127.52139 -0.72160113 129.19131 -0.71074027 129.18541 -17.133492 -119.23438
43660000000 -13.702058 -131.82645 -0.74132115 128.82106 -0.73901588 128.62669 -16.521227 -122.74944
43690000000 -14.262573 -131.36746 -0.73594481 128.31639 -0.71266699 128.72838 -17.845814 -124.84194
43720000000 -14.356157 -129.66289 -0.73045903 127.95472 -0.69756508 128.05693 -17.123569 -124.18604
43750000000 -13.821713 -128.38379 -0.71281463 127.5536 -0.71302021 127.38617 -17.185997 -121.06942
43780000000 -13.752545 -131.44858 -0.74877727 126.97139 -0.71595544 127.29349 -16.936926 -122.15298
43810000000 -14.102854 -130.51462 -0.71608824 126.80685 -0.68430674 126.94849 -17.679892 -122.50922
43840000000 -14.196091 -126.59066 -0.63589895 126.09026 -0.67765957 126.22047 -16.320116 -120.49507
43870000000 -13.637487 -126.81771 -0.7246238 125.54436 -0.66124576 125.73889 -17.384384 -122.34594
43900000000 -13.310862 -129.87332 -0.70895159 125.35896 -0.69428563 125.44762 -16.912182 -118.8645
43930000000 -14.619229 -129.53369 -0.66939205 125.13596 -0.66813743 125.32256 -17.04908 -123.17797
43960000000 -14.005304 -126.8375 -0.68144035 124.37835 -0.65620089 124.41504 -17.23645 -121.82366
43990000000 -14.105827 -127.22282 -0.68371522 124.2028 -0.67324936 124.36069 -17.199999 -121.49419
44020000000 -13.855618 -128.29898 -0.72774106 123.64193 -0.67527169 123.95072 -17.242064 -123.24089
44050000000 -14.648064 -131.50867 -0.65815961 123.3822 -0.63899571 123.64966 -16.488428 -120.33971
44080000000 -14.618102 -123.75431 -0.62987781 122.9429 -0.64732414 123.16059 -17.981497 -120.76709
44110000000 -13.864013 -122.53403 -0.66862023 122.28938 -0.67934978 122.22546 -16.500343 -124.19096
44140000000 -14.196194 -127.32961 -0.61717445 122.49388 -0.6233713 122.45622 -17.532532 -116.57908
44170000000 -14.558891 -126.167 -0.64466792 121.98286 -0.63605624 121.95872 -16.784128 -125.22958
44200000000 -14.825108 -120.49948 -0.63132793 121.13641 -0.610448 121.13834 -16.893679 -120.73163
44230000000 -13.973203 -122.78967 -0.66131598 120.97467 -0.63466769 121.00368 -17.719627 -122.63199
44260000000 -14.545286 -126.34252 -0.64360839 120.38261 -0.61487061 120.84625 -16.479483 -122.7476
44290000000 -15.144226 -126.74875 -0.60946852 120.00153 -0.58967775 120.25846 -17.278353 -128.55936
44320000000 -15.322433 -123.06192 -0.5937373 119.30067 -0.56988025 119.44215 -16.716637 -122.39023
44350000000 -14.02111 -117.6649 -0.62561297 119.38715 -0.62554932 119.37828 -18.364393 -129.08241
44380000000 -14.816586 -125.46283 -0.60533559 119.09572 -0.59963363 118.89879 -16.59823 -125.03936
44410000000 -15.685745 -121.72348 -0.57136333 118.30221 -0.58022183 118.68973 -17.972626 -128.71561
44440000000 -15.083752 -119.58685 -0.5606752 117.82407 -0.58568597 118.16581 -18.2787 -130.18124
44470000000 -14.768138 -118.39094 -0.62491882 117.29082 -0.57416922 117.55218 -16.904444 -128.17165
44500000000 -14.837519 -124.87502 -0.54681987 117.44839 -0.55252373 117.5695 -18.309622 -129.60478
44530000000 -16.221258 -120.74358 -0.55905497 116.89252 -0.51972455 117.09567 -19.071455 -133.98997
44560000000 -16.024094 -113.99152 -0.59613389 116.40992 -0.57576609 116.40141 -17.666538 -128.45222
44590000000 -15.189775 -115.75397 -0.58551234 116.07909 -0.58110094 116.06377 -18.491507 -135.77693
44620000000 -15.144151 -119.56719 -0.55480504 115.76054 -0.53864247 115.72771 -19.088636 -132.54379
44650000000 -16.883415 -118.57244 -0.52594221 115.12124 -0.52727067 115.15514 -18.175497 -135.5114
44680000000 -15.933026 -112.57105 -0.52036798 114.37917 -0.52017099 114.51604 -19.254633 -129.8167
44710000000 -15.28654 -111.8677 -0.5575428 114.32809 -0.56641942 114.45907 -19.234165 -142.15295
44740000000 -16.427048 -120.40154 -0.53003067 114.02457 -0.49933913 114.04584 -19.689117 -132.22734
44770000000 -16.805246 -112.65495 -0.47616982 113.32946 -0.53353137 113.53399 -19.204542 -133.9399
44800000000 -16.478241 -107.13098 -0.52343017 112.79117 -0.49553162 113.02739 -20.679483 -141.07657
44830000000 -15.747513 -110.83981 -0.51776081 112.70428 -0.52694774 112.79611 -19.19482 -137.51668
44860000000 -16.680281 -117.49842 -0.52169853 112.30116 -0.47905704 112.36155 -21.466747 -134.85344
44890000000 -16.840158 -108.85647 -0.52045697 111.4917 -0.50159466 111.59341 -20.148663 -140.07143
44920000000 -16.675602 -106.22973 -0.52018529 111.20514 -0.5031727 111.4584 -20.772585 -140.13351
44950000000 -16.26877 -107.35777 -0.50725657 110.93562 -0.50874585 110.94978 -21.703459 -135.91147
44980000000 -16.732523 -110.9482 -0.50030279 110.52656 -0.44419104 110.68896 -22.093914 -139.20827
