!Keysight Technologies,N5247B,MY61255062,A.19.80.06
!Date: Friday, March 13, 2026 17:45:59
!Correction: S11(C  2-Port  ) 
!S21(C  2-Port  ) 
!S12(C  2-Port  ) 
!S22(C  2-Port  ) 
!S2P File: Measurements: S11, S21, S12, S22:
# Hz S  dB   R 50
1000000000 -33.384491 12.444684 -0.086167 -6.9853268 -0.085853323 -6.9808545 -36.856934 48.777157
1030000000 -33.350185 11.879237 -0.087663613 -7.187747 -0.087664671 -7.1894326 -36.82518 48.159569
1060000000 -33.185474 11.942643 -0.087949157 -7.3952012 -0.088302344 -7.3982401 -36.878475 48.131634
1090000000 -33.079735 12.495057 -0.088808805 -7.6048589 -0.088825181 -7.6030235 -36.739483 46.792686
1120000000 -33.006214 12.766513 -0.089665711 -7.8090963 -0.08996354 -7.8110685 -36.599129 46.361027
1150000000 -32.918964 12.698032 -0.090494514 -8.0142517 -0.091282755 -8.0110044 -36.566536 45.637886
1180000000 -32.86216 13.110797 -0.092356712 -8.22155 -0.092506379 -8.2163973 -36.564991 44.948914
1210000000 -32.669941 13.279259 -0.092968896 -8.4237719 -0.093289167 -8.422039 -36.381374 45.276909
1240000000 -32.575615 13.431484 -0.093687497 -8.628252 -0.093921319 -8.6253366 -36.209595 43.956512
1270000000 -32.617786 14.011328 -0.093999617 -8.834115 -0.093991153 -8.834075 -36.297977 43.270988
1300000000 -32.589695 14.099978 -0.095765144 -9.0467749 -0.095834747 -9.0390339 -36.38908 43.397152
1330000000 -32.441921 13.963075 -0.097566865 -9.2502232 -0.097163945 -9.2448235 -36.311966 44.075184
1360000000 -32.391205 14.208643 -0.098697454 -9.4553595 -0.098926522 -9.45086 -36.402714 44.08606
1390000000 -32.348614 14.402754 -0.10103635 -9.6639452 -0.10073247 -9.6560106 -36.420853 44.054928
1420000000 -32.258377 15.126983 -0.10291766 -9.863513 -0.10213366 -9.8595037 -36.352039 44.590767
1450000000 -32.222851 15.995366 -0.10381819 -10.064174 -0.10411619 -10.059736 -36.341106 45.104294
1480000000 -32.193283 15.863022 -0.10537394 -10.262406 -0.10484141 -10.260804 -36.360146 45.091316
1510000000 -32.017723 16.315561 -0.10690265 -10.464164 -0.10621078 -10.458685 -36.193085 45.605644
1540000000 -31.976261 17.269726 -0.108175 -10.662187 -0.10705415 -10.656923 -36.076832 45.569946
1570000000 -31.92359 17.502415 -0.10810707 -10.860602 -0.10841413 -10.85588 -36.080696 46.632156
1600000000 -31.825663 17.863821 -0.11067462 -11.05692 -0.10983825 -11.053391 -35.930573 46.923443
1630000000 -31.809301 18.571913 -0.11042449 -11.249976 -0.11027473 -11.248167 -35.710812 46.812359
1660000000 -31.728811 18.837772 -0.11043644 -11.455181 -0.11088069 -11.443542 -35.689426 47.003796
1690000000 -31.532383 18.941357 -0.11141395 -11.650569 -0.11085971 -11.651515 -35.570862 47.482903
1720000000 -31.407738 19.560276 -0.11167609 -11.848244 -0.11088228 -11.847226 -35.397938 47.355663
1750000000 -31.385977 19.507645 -0.11133189 -12.055452 -0.11097044 -12.047761 -35.429497 47.504494
1780000000 -31.260841 19.525711 -0.11206602 -12.255687 -0.11156666 -12.250883 -35.310184 47.10347
1810000000 -31.111485 20.197498 -0.11253885 -12.457347 -0.11188008 -12.457751 -35.111824 47.350029
1840000000 -31.092442 20.434988 -0.11253248 -12.661879 -0.11262705 -12.655672 -35.125122 47.629314
1870000000 -31.061121 20.400566 -0.11378761 -12.860282 -0.11268045 -12.859591 -35.048756 47.643158
1900000000 -30.958008 20.377064 -0.11419925 -13.0582 -0.11328435 -13.056299 -34.888035 47.922924
1930000000 -30.8197 20.781565 -0.11373898 -13.26048 -0.1140018 -13.261535 -34.774567 48.233269
1960000000 -30.73843 20.932281 -0.11396592 -13.467213 -0.11425985 -13.466465 -34.65836 48.275482
1990000000 -30.702269 21.114084 -0.11460534 -13.667066 -0.11433373 -13.666812 -34.489155 47.751556
2020000000 -30.630985 21.444878 -0.11437811 -13.875704 -0.11500111 -13.876628 -34.461487 48.09132
2050000000 -30.554365 21.819458 -0.11548969 -14.07772 -0.11533365 -14.078259 -34.445663 48.678753
2080000000 -30.516245 21.666037 -0.1163011 -14.277698 -0.11598657 -14.282379 -34.18153 49.045624
2110000000 -30.425653 21.94767 -0.11662336 -14.490332 -0.11632396 -14.480092 -34.024975 49.233665
2140000000 -30.411915 22.572933 -0.11731158 -14.685464 -0.11793022 -14.684321 -34.008781 48.87709
2170000000 -30.401884 22.976479 -0.11755067 -14.890718 -0.11848164 -14.885276 -33.899979 48.981384
2200000000 -30.303129 22.70122 -0.11704245 -15.091516 -0.11860481 -15.093052 -33.684658 49.519012
2230000000 -30.306007 23.450493 -0.11845929 -15.300819 -0.11883174 -15.293562 -33.624477 48.911671
2260000000 -30.319544 23.495333 -0.11914966 -15.499902 -0.11857688 -15.497942 -33.533463 48.575653
2290000000 -30.202721 22.834719 -0.11991093 -15.701676 -0.1192364 -15.70188 -33.278126 49.430603
2320000000 -30.176458 23.773113 -0.11983696 -15.909546 -0.12038915 -15.908573 -33.238079 48.767056
2350000000 -30.210564 23.655117 -0.12129144 -16.108845 -0.12096883 -16.113716 -33.1259 48.704353
2380000000 -30.100863 23.442245 -0.12146421 -16.319042 -0.12154806 -16.312593 -32.989513 48.675121
2410000000 -30.037514 23.672779 -0.12237764 -16.52187 -0.12259252 -16.519419 -32.937286 48.961597
2440000000 -30.099695 24.192867 -0.1237315 -16.72234 -0.12338261 -16.720772 -32.741512 48.901794
2470000000 -29.979374 23.646057 -0.12345053 -16.92959 -0.12397175 -16.922724 -32.599583 48.783733
2500000000 -29.885839 24.220592 -0.12502158 -17.126047 -0.1244022 -17.12816 -32.527733 48.108242
2530000000 -29.975124 24.593439 -0.12558457 -17.329878 -0.12563786 -17.329475 -32.499592 48.158066
2560000000 -29.919004 23.999353 -0.12665024 -17.538494 -0.12684375 -17.524851 -32.280777 48.594509
2590000000 -29.798939 24.656944 -0.12728009 -17.741344 -0.12731527 -17.732727 -32.191753 47.253853
2620000000 -29.860857 25.470528 -0.12785642 -17.946054 -0.12869893 -17.936182 -32.132999 47.07589
2650000000 -29.94182 24.778502 -0.12915386 -18.146566 -0.12973097 -18.131872 -32.023884 47.623489
2680000000 -29.82567 24.889265 -0.13033004 -18.344908 -0.13020948 -18.336784 -31.912815 47.20105
2710000000 -29.841692 25.380278 -0.13098282 -18.547329 -0.13076246 -18.536449 -31.731134 46.482838
2740000000 -29.80743 25.36941 -0.13114209 -18.750576 -0.1314868 -18.739275 -31.646984 46.136948
2770000000 -29.792555 25.577158 -0.13288355 -18.946495 -0.13213015 -18.947203 -31.592819 45.836906
2800000000 -29.854946 25.93051 -0.13326444 -19.151897 -0.13327432 -19.143627 -31.443577 45.480099
2830000000 -29.794451 25.516775 -0.13407677 -19.356539 -0.13475868 -19.349052 -31.312206 45.694828
2860000000 -29.722708 25.698044 -0.1348225 -19.558683 -0.13533601 -19.552645 -31.334068 44.760624
2890000000 -29.771544 26.132971 -0.1361295 -19.754065 -0.13619334 -19.750704 -31.224991 44.369843
2920000000 -29.77247 25.922085 -0.13672011 -19.95985 -0.13720658 -19.951122 -31.184635 45.014351
2950000000 -29.769224 26.050505 -0.13793308 -20.152122 -0.13834941 -20.153923 -31.05377 43.87352
2980000000 -29.788717 26.104229 -0.13910122 -20.359266 -0.13936263 -20.347197 -30.983856 43.121292
3010000000 -29.794586 26.137022 -0.14010206 -20.556856 -0.13965 -20.55097 -30.855076 43.924774
3040000000 -29.76392 26.459801 -0.14098172 -20.760759 -0.14011997 -20.751835 -30.781551 43.17178
3070000000 -29.77162 26.462753 -0.14153875 -20.955341 -0.14157806 -20.946938 -30.692091 42.587635
3100000000 -29.739941 26.391567 -0.14222878 -21.151964 -0.14129859 -21.146151 -30.695705 42.685078
3130000000 -29.832924 26.527153 -0.14200197 -21.354965 -0.14200304 -21.344976 -30.615253 42.127968
3160000000 -29.733501 26.503429 -0.14309549 -21.556553 -0.14212821 -21.551598 -30.475893 41.374237
3190000000 -29.64039 26.574902 -0.14375608 -21.754372 -0.14347166 -21.750475 -30.392683 41.26429
3220000000 -29.75823 26.277119 -0.14510566 -21.950851 -0.14364691 -21.942066 -30.402163 40.936081
3250000000 -29.7498 26.264526 -0.1452684 -22.150578 -0.14462149 -22.144741 -30.351377 40.286102
3280000000 -29.635693 26.410841 -0.14623691 -22.355482 -0.14512038 -22.350927 -30.226488 40.282951
3310000000 -29.67654 26.475304 -0.14673464 -22.555149 -0.14588942 -22.549259 -30.189508 39.786182
3340000000 -29.729738 26.566439 -0.14763546 -22.751318 -0.14635953 -22.744787 -30.212887 39.076248
3370000000 -29.695805 26.434666 -0.14813228 -22.957081 -0.14704499 -22.948496 -30.11949 39.378178
3400000000 -29.683069 26.509066 -0.14858094 -23.150118 -0.14716521 -23.147507 -30.002773 38.876064
3430000000 -29.679451 26.635715 -0.14929433 -23.347378 -0.1490934 -23.345234 -29.962519 38.090275
3460000000 -29.662605 26.672733 -0.15026803 -23.549391 -0.15009895 -23.541399 -29.944183 38.076515
3490000000 -29.697346 26.380066 -0.15095302 -23.751226 -0.14968631 -23.743847 -29.893011 38.283615
3520000000 -29.636263 26.132767 -0.15139876 -23.948364 -0.15055478 -23.939205 -29.781979 37.621956
3550000000 -29.505495 26.506994 -0.15032752 -24.144796 -0.15153976 -24.134405 -29.707842 37.346653
3580000000 -29.652428 26.542786 -0.15242307 -24.344027 -0.15083297 -24.337099 -29.674665 36.664474
3610000000 -29.627598 25.913252 -0.15272684 -24.544968 -0.15108705 -24.534607 -29.646118 36.647472
3640000000 -29.494045 26.036922 -0.15265955 -24.743917 -0.15126394 -24.733849 -29.546219 36.474319
3670000000 -29.497992 26.317999 -0.15301724 -24.943628 -0.15214747 -24.940172 -29.538567 35.732307
3700000000 -29.558277 25.711643 -0.15289068 -25.138992 -0.15220913 -25.131737 -29.557747 35.283291
3730000000 -29.505869 25.608873 -0.15274642 -25.342648 -0.1526365 -25.333599 -29.478224 35.339882
3760000000 -29.454842 25.654922 -0.15356375 -25.543753 -0.1531186 -25.540489 -29.433786 35.019173
3790000000 -29.409134 25.253914 -0.15451883 -25.734858 -0.15314139 -25.739265 -29.373854 34.390427
3820000000 -29.405323 25.596371 -0.15422459 -25.93981 -0.15349321 -25.937649 -29.392572 34.242538
3850000000 -29.464146 25.209747 -0.15502904 -26.132504 -0.15352727 -26.138554 -29.3887 34.071224
3880000000 -29.369631 24.545462 -0.15546823 -26.336384 -0.15416799 -26.336195 -29.282837 33.504555
3910000000 -29.293716 25.010509 -0.15620206 -26.540154 -0.15552188 -26.541265 -29.247358 33.364132
3940000000 -29.396276 24.607897 -0.15596701 -26.737659 -0.15576041 -26.737501 -29.270943 33.160297
3970000000 -29.351021 23.840332 -0.15690464 -26.940125 -0.15518223 -26.935789 -29.185766 32.783459
4000000000 -29.157011 24.240841 -0.15755095 -27.14061 -0.15627585 -27.13739 -29.067402 32.874477
4030000000 -29.210861 24.25437 -0.15757269 -27.343006 -0.15686893 -27.339529 -29.067484 32.620605
4060000000 -29.235081 23.671915 -0.15802903 -27.541197 -0.1572039 -27.537754 -29.11194 31.786192
4090000000 -29.1089 24.188686 -0.1580575 -27.734949 -0.15830071 -27.737305 -29.00923 32.166504
4120000000 -29.167717 23.685289 -0.15999509 -27.941353 -0.15801641 -27.934214 -29.00799 32.09502
4150000000 -29.101082 23.169678 -0.15896603 -28.135714 -0.15912795 -28.133686 -28.951345 31.295322
4180000000 -29.006088 23.639727 -0.16048069 -28.336884 -0.15862881 -28.335592 -28.885386 31.565468
4210000000 -29.05867 23.07246 -0.16028328 -28.536732 -0.15956807 -28.529703 -28.923862 31.464138
4240000000 -28.975346 22.675938 -0.16186477 -28.734715 -0.1594193 -28.732908 -28.827009 30.837639
4270000000 -28.890963 22.954876 -0.16109557 -28.931139 -0.16087314 -28.937918 -28.697575 30.99136
4300000000 -28.984468 22.737579 -0.16126402 -29.136461 -0.16014174 -29.134394 -28.766668 31.215652
4330000000 -28.944336 22.089209 -0.16211492 -29.334 -0.1608025 -29.333355 -28.706522 30.53838
4360000000 -28.765263 22.529961 -0.16201739 -29.53018 -0.16110846 -29.531389 -28.565319 30.445368
4390000000 -28.8218 22.340456 -0.16242367 -29.732046 -0.1616877 -29.731766 -28.599081 30.647387
4420000000 -28.812174 22.026928 -0.16256207 -29.92602 -0.16269188 -29.929859 -28.575459 30.172699
4450000000 -28.665504 22.172113 -0.16349898 -30.122412 -0.16249678 -30.125858 -28.448219 30.197861
4480000000 -28.668636 21.79974 -0.16387315 -30.325638 -0.16271633 -30.324387 -28.510738 29.955942
4510000000 -28.667597 21.638138 -0.16395514 -30.518911 -0.16365676 -30.522423 -28.376507 29.228043
4540000000 -28.531485 21.997894 -0.16449119 -30.717117 -0.16253009 -30.726765 -28.23649 29.488379
4570000000 -28.546995 21.707645 -0.16337991 -30.922653 -0.16334066 -30.921284 -28.313704 29.580675
4600000000 -28.513578 21.39349 -0.16446538 -31.121092 -0.1637132 -31.114962 -28.2243 28.897707
4630000000 -28.378389 21.611963 -0.16460223 -31.316448 -0.16378847 -31.316919 -28.113192 28.918407
4660000000 -28.417475 21.510191 -0.16398713 -31.517731 -0.16391481 -31.517286 -28.153173 29.048437
4690000000 -28.370815 21.238747 -0.16440517 -31.712675 -0.16404277 -31.719429 -28.050379 27.911053
4720000000 -28.178711 21.236801 -0.16400729 -31.917952 -0.16427559 -31.919308 -27.883249 28.504004
4750000000 -28.251415 20.870434 -0.16435355 -32.118866 -0.16385029 -32.121952 -27.967539 28.394041
4780000000 -28.230877 21.028517 -0.16446754 -32.3256 -0.16332965 -32.319111 -27.8988 27.417892
4810000000 -28.092037 21.056829 -0.16474958 -32.517723 -0.16437909 -32.520271 -27.742802 27.674541
4840000000 -28.118477 20.517965 -0.16489154 -32.718811 -0.16475818 -32.72258 -27.869362 27.560564
4870000000 -28.08231 20.708391 -0.16470145 -32.922165 -0.16464122 -32.921989 -27.742687 26.912062
4900000000 -27.981285 21.027332 -0.16494074 -33.126652 -0.16503136 -33.124008 -27.598328 26.975071
4930000000 -27.984888 20.45155 -0.1653188 -33.32737 -0.16505072 -33.327934 -27.667347 26.783987
4960000000 -28.004404 20.47817 -0.16503592 -33.526085 -0.16573831 -33.52639 -27.590408 25.73279
4990000000 -27.880123 20.603752 -0.16490202 -33.729763 -0.16534731 -33.732204 -27.480829 26.572695
5020000000 -27.935259 20.203634 -0.16575767 -33.930599 -0.16475199 -33.933689 -27.566107 26.192841
5050000000 -27.857244 20.113014 -0.1660102 -34.134678 -0.16673937 -34.129936 -27.469461 25.126606
5080000000 -27.75806 20.150284 -0.16586095 -34.333443 -0.16593517 -34.329048 -27.337816 25.804823
5110000000 -27.806511 19.908506 -0.16607825 -34.537117 -0.1658397 -34.529644 -27.426098 25.706907
5140000000 -27.7572 20.068518 -0.16662802 -34.735889 -0.167201 -34.735973 -27.377714 24.800465
5170000000 -27.642492 20.139891 -0.16670172 -34.937611 -0.16600294 -34.933506 -27.187502 25.285234
5200000000 -27.658932 19.652481 -0.16741407 -35.143883 -0.16569152 -35.139713 -27.309664 24.944321
5230000000 -27.630693 20.137365 -0.16725749 -35.343754 -0.16667482 -35.34269 -27.222281 23.958307
5260000000 -27.498993 20.187885 -0.16699816 -35.544399 -0.16729623 -35.543339 -27.011164 24.435766
5290000000 -27.557808 19.575317 -0.16776651 -35.744102 -0.16837624 -35.744793 -27.189653 24.142958
5320000000 -27.511536 19.988255 -0.168387 -35.949966 -0.16793603 -35.943344 -27.057644 23.131407
5350000000 -27.432833 20.083418 -0.16894971 -36.149879 -0.16872929 -36.15218 -26.918545 23.860804
5380000000 -27.445305 19.491283 -0.16934077 -36.352394 -0.16943982 -36.352707 -27.012053 23.544357
5410000000 -27.437437 20.013338 -0.16975798 -36.547665 -0.16941667 -36.553436 -26.885445 22.371229
5440000000 -27.34453 19.855494 -0.17044686 -36.751118 -0.16915533 -36.75433 -26.753906 23.283558
5470000000 -27.332897 19.768112 -0.17005838 -36.954315 -0.16997117 -36.953747 -26.836201 22.924891
5500000000 -27.312021 19.83185 -0.17125648 -37.163887 -0.17076616 -37.149715 -26.750662 21.924921
5530000000 -27.243624 19.754332 -0.17101522 -37.359943 -0.17127775 -37.356537 -26.584402 22.272226
5560000000 -27.329117 19.602745 -0.17199111 -37.561264 -0.17178725 -37.553619 -26.737911 21.853918
5590000000 -27.251944 19.882488 -0.17220926 -37.755878 -0.17260654 -37.759457 -26.596182 21.034077
5620000000 -27.199596 19.73909 -0.1732711 -37.961796 -0.17281154 -37.955994 -26.481388 21.930624
5650000000 -27.279453 19.126379 -0.17317277 -38.16227 -0.17356098 -38.161896 -26.613268 21.148819
5680000000 -27.197563 19.511808 -0.1741602 -38.366169 -0.17356879 -38.364079 -26.499046 20.254845
5710000000 -27.120523 19.71866 -0.17431164 -38.563805 -0.17427121 -38.560734 -26.377979 20.819605
5740000000 -27.196152 19.139307 -0.17439166 -38.763359 -0.17395164 -38.763241 -26.474827 20.326302
5770000000 -27.127857 19.418789 -0.17531306 -38.965832 -0.17524569 -38.963432 -26.328318 19.130659
5800000000 -27.084791 19.664173 -0.17586076 -39.167698 -0.17511955 -39.159737 -26.269548 20.121101
5830000000 -27.128862 19.119879 -0.17565779 -39.376347 -0.17526132 -39.366859 -26.391718 19.589254
5860000000 -27.04623 19.412853 -0.17618102 -39.567837 -0.17602789 -39.564579 -26.172403 18.508404
5890000000 -27.002079 19.655752 -0.17623331 -39.769619 -0.17607804 -39.766701 -26.112661 19.172237
5920000000 -27.055733 19.242287 -0.17741099 -39.966671 -0.17647971 -39.969349 -26.238214 18.5054
5950000000 -26.957676 19.518356 -0.17763482 -40.172939 -0.17752048 -40.167221 -26.078697 17.661486
5980000000 -26.934805 19.391527 -0.17826426 -40.372887 -0.17675418 -40.372604 -25.993277 18.107378
6010000000 -27.016254 18.98937 -0.17862353 -40.568844 -0.17775671 -40.57452 -26.101664 17.424519
6040000000 -26.933378 19.393309 -0.17872657 -40.777748 -0.17878591 -40.771446 -25.95282 16.600697
6070000000 -26.874214 19.175339 -0.17852373 -40.978111 -0.17912687 -40.977234 -25.905478 17.576389
6100000000 -26.933464 18.688025 -0.179463 -41.1791 -0.17951156 -41.175495 -25.999279 16.506699
6130000000 -26.880005 19.204033 -0.18103313 -41.377682 -0.17989333 -41.376266 -25.841864 15.569167
6160000000 -26.829979 19.266439 -0.18125282 -41.580387 -0.18052849 -41.580265 -25.808846 16.36762
6190000000 -26.907436 18.557785 -0.18100049 -41.783691 -0.18108657 -41.780354 -25.91411 15.646728
6220000000 -26.842842 18.853767 -0.18165363 -41.978302 -0.18161881 -41.982914 -25.743799 14.841508
6250000000 -26.843479 18.903423 -0.18208012 -42.180656 -0.18186094 -42.182972 -25.728537 15.277843
6280000000 -26.869038 18.465385 -0.18286897 -42.384636 -0.18176079 -42.382153 -25.831976 14.798991
6310000000 -26.7952 18.578102 -0.18322159 -42.585457 -0.18346731 -42.583889 -25.668783 14.074578
6340000000 -26.775042 18.304405 -0.18349728 -42.78442 -0.18362232 -42.78241 -25.585691 14.618225
6370000000 -26.826124 18.257616 -0.18378974 -42.983677 -0.18501809 -42.979527 -25.6943 13.56729
6400000000 -26.786434 18.797012 -0.18477769 -43.186081 -0.18446492 -43.17976 -25.603788 12.965551
6430000000 -26.787153 18.510836 -0.18465723 -43.38493 -0.18508185 -43.384186 -25.526909 13.691523
6460000000 -26.798861 17.920664 -0.18551677 -43.585049 -0.18580073 -43.583752 -25.588772 12.676667
6490000000 -26.70632 18.314955 -0.18646973 -43.786842 -0.1858753 -43.783478 -25.459192 12.037224
6520000000 -26.702202 18.336771 -0.18637732 -43.991501 -0.1862133 -43.984531 -25.44529 12.511265
6550000000 -26.768398 17.71422 -0.18717748 -44.189045 -0.18715668 -44.187031 -25.542257 11.964243
6580000000 -26.693495 17.855621 -0.18782912 -44.392738 -0.18709533 -44.387409 -25.378082 11.272045
6610000000 -26.687868 18.040943 -0.18849953 -44.590218 -0.1881043 -44.587605 -25.345026 11.676983
6640000000 -26.749298 17.461069 -0.18926358 -44.790127 -0.18825731 -44.788979 -25.47117 10.839597
6670000000 -26.6539 17.819727 -0.18951938 -44.997608 -0.18934876 -44.992908 -25.292309 10.684985
6700000000 -26.678568 17.622963 -0.18994312 -45.189529 -0.18948612 -45.190254 -25.274321 10.566069
6730000000 -26.7005 16.975309 -0.19048998 -45.396606 -0.19049701 -45.389378 -25.338449 10.2194
6760000000 -26.648754 17.303686 -0.19123192 -45.588772 -0.19105041 -45.59145 -25.246597 9.5677261
6790000000 -26.648684 17.256647 -0.19165638 -45.794071 -0.19189283 -45.791447 -25.215399 9.9163103
6820000000 -26.648163 16.529081 -0.1914221 -45.99057 -0.19230464 -45.991684 -25.258667 9.455759
6850000000 -26.59779 16.855352 -0.19245996 -46.19162 -0.1925893 -46.191113 -25.16013 8.6911526
6880000000 -26.595612 16.917057 -0.19302146 -46.393436 -0.19284557 -46.38805 -25.167683 8.8054981
6910000000 -26.604975 16.080069 -0.19400908 -46.59124 -0.19373435 -46.592873 -25.20393 8.6296186
6940000000 -26.522339 16.227257 -0.194322 -46.797337 -0.19491056 -46.794636 -25.040003 8.1222725
6970000000 -26.534243 16.24222 -0.19478819 -46.996338 -0.19446467 -46.991425 -25.069927 8.0404673
7000000000 -26.574854 15.44803 -0.19627586 -47.198795 -0.19552249 -47.194275 -25.161861 7.9695683
7030000000 -26.473661 15.785789 -0.1964974 -47.398205 -0.19734576 -47.38744 -24.965191 7.3356619
7060000000 -26.472223 15.903802 -0.19702719 -47.596302 -0.19728996 -47.588688 -24.939991 7.5330524
7090000000 -26.519222 15.223418 -0.19786617 -47.795094 -0.19770768 -47.789036 -25.031878 6.788794
7120000000 -26.443569 15.324071 -0.19903104 -47.994335 -0.19830076 -47.984901 -24.953773 6.3727674
7150000000 -26.459324 15.257032 -0.19952103 -48.19228 -0.19955139 -48.182961 -24.894217 6.5848122
7180000000 -26.475243 14.711978 -0.19916491 -48.389042 -0.19977906 -48.3829 -24.921164 6.1274257
7210000000 -26.390442 14.761588 -0.20051284 -48.584663 -0.20054999 -48.581482 -24.838562 5.3959489
7240000000 -26.388041 14.804028 -0.20008834 -48.782074 -0.20039329 -48.781963 -24.835365 5.5507178
7270000000 -26.397699 14.027963 -0.20064649 -48.979378 -0.20131291 -48.981682 -24.858727 5.4524741
7300000000 -26.34808 14.318528 -0.2018715 -49.182987 -0.20150217 -49.178589 -24.7722 4.7566261
7330000000 -26.367655 14.038185 -0.20227367 -49.375999 -0.20210227 -49.377895 -24.746973 4.7275262
7360000000 -26.321346 13.285406 -0.20256522 -49.575489 -0.20279033 -49.575283 -24.814089 4.6747322
7390000000 -26.281025 13.728002 -0.20381302 -49.775883 -0.2027936 -49.767776 -24.692547 4.015183
7420000000 -26.313324 13.658127 -0.2040675 -49.969975 -0.20364752 -49.972343 -24.640253 4.0526013
7450000000 -26.285179 12.741743 -0.20339198 -50.171581 -0.20351622 -50.16597 -24.742357 3.7752783
7480000000 -26.23609 13.097768 -0.20478654 -50.372723 -0.20380053 -50.365616 -24.649521 3.1725347
7510000000 -26.230667 13.025372 -0.20509426 -50.573124 -0.20492113 -50.566704 -24.577318 3.4722495
7540000000 -26.196218 12.402237 -0.20576245 -50.769112 -0.20554097 -50.764774 -24.586361 3.4249821
7570000000 -26.16404 12.654361 -0.20692943 -50.967907 -0.20642367 -50.966572 -24.600376 2.343739
7600000000 -26.201717 12.46175 -0.20640956 -51.166103 -0.20651108 -51.161983 -24.543961 2.7010756
7630000000 -26.130569 11.668148 -0.20727859 -51.362442 -0.20733479 -51.357841 -24.530506 2.8812525
7660000000 -26.099323 11.883066 -0.20850247 -51.563618 -0.20891695 -51.552856 -24.482058 1.6639477
7690000000 -26.122332 12.07597 -0.20888652 -51.756721 -0.20839655 -51.752995 -24.4202 1.6491741
7720000000 -26.072548 11.067072 -0.20874093 -51.953594 -0.20893921 -51.951923 -24.486498 2.0446913
7750000000 -26.046297 11.774393 -0.2098332 -52.152935 -0.20944473 -52.152035 -24.406527 1.0650504
7780000000 -26.046225 11.634353 -0.21045239 -52.3526 -0.21067955 -52.343826 -24.318848 0.98619926
7810000000 -26.042604 10.691391 -0.21087356 -52.542591 -0.2107127 -52.543217 -24.395121 1.0975318
7840000000 -26.001431 11.20909 -0.2111021 -52.743835 -0.21112792 -52.737564 -24.369848 0.022925612
7870000000 -26.006332 11.218866 -0.21199164 -52.938145 -0.21111977 -52.932384 -24.243462 0.30742955
7900000000 -25.982779 10.162493 -0.21163124 -53.134251 -0.21071135 -53.131496 -24.324928 0.29307991
7930000000 -25.976469 10.815524 -0.21144453 -53.329208 -0.21164401 -53.326542 -24.321301 -0.69772667
7960000000 -25.98572 10.643525 -0.21149372 -53.529209 -0.21133445 -53.522217 -24.209688 -0.47848153
7990000000 -25.934294 9.9040451 -0.21191907 -53.729721 -0.21081106 -53.717976 -24.267429 -0.20302965
8020000000 -25.925179 10.430202 -0.21178643 -53.920261 -0.21133718 -53.919132 -24.217381 -1.5097219
8050000000 -25.939344 10.387809 -0.21156111 -54.114048 -0.2123325 -54.113609 -24.139473 -1.0542347
8080000000 -25.856413 9.6702566 -0.21199219 -54.318287 -0.21063662 -54.307972 -24.220245 -0.87239367
8110000000 -25.902195 10.345807 -0.21171331 -54.511761 -0.21085399 -54.512192 -24.161167 -2.0004754
8140000000 -25.856703 10.079509 -0.21118961 -54.709518 -0.21154644 -54.710537 -24.058348 -1.9572462
8170000000 -25.826113 9.5924377 -0.21113227 -54.915104 -0.2114698 -54.904736 -24.165617 -1.5875711
8200000000 -25.852058 10.356128 -0.21084151 -55.114651 -0.21006548 -55.10704 -24.139442 -2.7486227
8230000000 -25.792032 10.281854 -0.21101786 -55.316956 -0.21019916 -55.305992 -23.983759 -2.2522891
8260000000 -25.700985 9.4616995 -0.21089667 -55.516563 -0.21037957 -55.508572 -24.077194 -2.0932381
8290000000 -25.74428 10.375637 -0.21167254 -55.724369 -0.21177502 -55.714474 -24.042721 -3.5376272
8320000000 -25.675276 10.013879 -0.21200442 -55.920429 -0.21204302 -55.918427 -23.886076 -2.9571481
8350000000 -25.578423 9.483449 -0.21270439 -56.122883 -0.21240155 -56.122395 -23.978483 -2.7314348
8380000000 -25.646475 9.9790354 -0.21398637 -56.325554 -0.21416883 -56.325462 -23.936563 -4.4369779
8410000000 -25.619867 9.3712997 -0.21423954 -56.519459 -0.21472037 -56.519886 -23.79855 -3.9501665
8440000000 -25.562241 8.8203421 -0.21455801 -56.719013 -0.21448974 -56.70993 -23.938324 -3.3913553
8470000000 -25.587614 9.4259834 -0.21649677 -56.912369 -0.21588542 -56.909191 -23.847101 -5.3315687
8500000000 -25.561182 8.8330698 -0.21630195 -57.107925 -0.2158291 -57.102932 -23.707808 -4.8222599
8530000000 -25.509663 8.4371815 -0.2158808 -57.303616 -0.21526463 -57.303558 -23.905087 -4.4191122
8560000000 -25.543396 9.4290285 -0.21608946 -57.502544 -0.2161866 -57.502407 -23.806219 -5.7410212
8590000000 -25.533318 8.7540636 -0.2157298 -57.705059 -0.21594989 -57.694389 -23.644186 -5.4356585
8620000000 -25.462078 8.0802765 -0.21573335 -57.897457 -0.21634793 -57.898018 -23.802015 -5.2969704
8650000000 -25.527582 8.8986425 -0.21636507 -58.097836 -0.2164886 -58.0961 -23.767752 -6.6091104
8680000000 -25.495686 8.3196688 -0.21607423 -58.292156 -0.21697485 -58.288719 -23.599396 -5.7986817
8710000000 -25.404278 7.8653693 -0.21618061 -58.496834 -0.2164935 -58.491611 -23.72876 -6.0436735
8740000000 -25.501917 8.8335342 -0.21757765 -58.699234 -0.2174892 -58.694138 -23.678844 -7.4844661
8770000000 -25.466797 8.4527283 -0.21775727 -58.89492 -0.21793637 -58.89386 -23.548643 -6.7953329
8800000000 -25.385063 7.9144483 -0.21800795 -59.098061 -0.21744592 -59.094826 -23.630558 -6.5156546
8830000000 -25.45133 8.3746214 -0.21878076 -59.302402 -0.21775754 -59.289047 -23.598639 -8.3922195
8860000000 -25.433367 8.0185242 -0.21886188 -59.49194 -0.2193955 -59.488708 -23.443853 -7.7435589
8890000000 -25.398447 7.558845 -0.21916707 -59.689217 -0.21837541 -59.693001 -23.632456 -7.5808144
8920000000 -25.42301 8.1539183 -0.21994443 -59.889141 -0.21858039 -59.886711 -23.520418 -8.8787527
8950000000 -25.365444 7.8746958 -0.22004193 -60.0854 -0.21988997 -60.084415 -23.342587 -8.4126043
8980000000 -25.373169 7.3865886 -0.21937263 -60.27528 -0.21976744 -60.288494 -23.584038 -8.3032703
9010000000 -25.441118 8.0951538 -0.22053403 -60.479496 -0.21944478 -60.475601 -23.475193 -10.014568
9040000000 -25.371367 7.5779858 -0.22100385 -60.675671 -0.21999563 -60.673759 -23.313282 -9.0791702
9070000000 -25.352762 6.9891877 -0.21967077 -60.875263 -0.21940067 -60.878349 -23.484285 -9.3210278
9100000000 -25.461861 7.7788763 -0.220055 -61.077084 -0.21919702 -61.069473 -23.401611 -10.950837
9130000000 -25.358877 7.5930538 -0.22075626 -61.275021 -0.22046921 -61.27367 -23.314928 -9.7258043
9160000000 -25.308874 7.0889754 -0.22020994 -61.477612 -0.21987528 -61.47488 -23.389183 -9.8515224
9190000000 -25.447685 7.6961231 -0.21982953 -61.680271 -0.22110979 -61.67094 -23.310249 -11.873479
9220000000 -25.371765 7.1328521 -0.22128166 -61.877697 -0.22067128 -61.874424 -23.198341 -10.703548
9250000000 -25.341473 6.9073353 -0.2218066 -62.072781 -0.22076552 -62.074741 -23.408716 -10.739138
9280000000 -25.39583 7.2142425 -0.2221989 -62.277107 -0.22258417 -62.269619 -23.209555 -12.565299
9310000000 -25.333666 6.6948228 -0.22295229 -62.470543 -0.22288144 -62.469032 -23.119888 -12.021977
9340000000 -25.302561 6.6597815 -0.22227737 -62.673038 -0.22251141 -62.66058 -23.384281 -11.870829
9370000000 -25.372833 7.3904119 -0.22198913 -62.868389 -0.22207277 -62.86269 -23.210022 -13.294911
9400000000 -25.296469 6.6385636 -0.22245474 -63.061401 -0.22217983 -63.058201 -23.098068 -12.415578
9430000000 -25.321997 6.4362354 -0.22228636 -63.263268 -0.22251523 -63.26228 -23.291513 -12.903054
9460000000 -25.421377 7.105103 -0.22320926 -63.46376 -0.22140805 -63.460045 -23.25276 -14.38829
9490000000 -25.275673 6.3897281 -0.22244658 -63.662109 -0.22353193 -63.66164 -23.07127 -12.889798
9520000000 -25.282475 6.3104677 -0.22132307 -63.863281 -0.22285664 -63.866348 -23.248661 -13.508826
9550000000 -25.331398 6.7710743 -0.22266127 -64.070709 -0.22388025 -64.062553 -23.139278 -15.341332
9580000000 -25.2505 6.3100772 -0.2237118 -64.268936 -0.22496377 -64.260742 -23.078568 -14.12257
9610000000 -25.2605 5.8314505 -0.22376223 -64.467499 -0.22360606 -64.461845 -23.216568 -13.750778
9640000000 -25.358068 5.867856 -0.22567238 -64.668587 -0.22466008 -64.660278 -23.071449 -15.562942
9670000000 -25.272291 5.2667022 -0.22566828 -64.864937 -0.22527675 -64.860313 -22.981754 -14.88735
9700000000 -25.243975 5.4103489 -0.22563285 -65.062843 -0.22511427 -65.055862 -23.179165 -14.777236
9730000000 -25.314095 5.6068492 -0.22660172 -65.262177 -0.22634919 -65.257225 -22.966677 -16.203636
9760000000 -25.256693 4.9140382 -0.22745407 -65.45816 -0.22604895 -65.453705 -22.899118 -15.521271
9790000000 -25.292919 4.7627048 -0.22721949 -65.660446 -0.22685783 -65.651176 -23.097137 -16.240635
9820000000 -25.337383 5.5440269 -0.22704111 -65.855347 -0.22803949 -65.845787 -22.990479 -17.375372
9850000000 -25.228241 4.704586 -0.22739515 -66.04924 -0.22798193 -66.044647 -22.866875 -16.085264
9880000000 -25.285528 4.2885113 -0.22877671 -66.251198 -0.22655018 -66.241478 -23.012451 -16.817791
9910000000 -25.35536 4.8860941 -0.22906813 -66.447334 -0.2278619 -66.437096 -22.919575 -18.427475
9940000000 -25.231558 4.2930837 -0.22896662 -66.643471 -0.2298964 -66.636696 -22.870089 -16.826904
9970000000 -25.259558 4.050014 -0.22849184 -66.84243 -0.22794783 -66.839005 -22.988459 -17.403631
10000000000 -25.348757 4.0497403 -0.2303918 -67.034874 -0.22880262 -67.030792 -22.838785 -18.843319
10030000000 -25.253155 3.6171696 -0.22947228 -67.24025 -0.22961938 -67.226532 -22.811853 -18.254812
10060000000 -25.254751 3.8005145 -0.22923787 -67.435219 -0.22867383 -67.434227 -22.967896 -18.29314
10090000000 -25.2799 3.9468355 -0.22930828 -67.634033 -0.22994661 -67.632202 -22.783083 -19.367298
10120000000 -25.192545 3.2542782 -0.22904029 -67.827614 -0.22931182 -67.816994 -22.678473 -18.693993
10150000000 -25.266113 3.4799294 -0.22970562 -68.03125 -0.22901465 -68.026695 -22.934286 -19.248552
10180000000 -25.288982 3.8999825 -0.22989176 -68.226524 -0.22984727 -68.224449 -22.785095 -20.265232
10210000000 -25.161066 3.1441965 -0.23015024 -68.427811 -0.23041117 -68.420799 -22.680208 -19.051821
10240000000 -25.230383 2.9954541 -0.23016278 -68.627342 -0.23008773 -68.624153 -22.786421 -20.137304
10270000000 -25.27121 3.2441001 -0.22979814 -68.831589 -0.22971654 -68.826187 -22.724308 -21.384651
10300000000 -25.140505 2.8879216 -0.2311952 -69.022972 -0.23050289 -69.031891 -22.673624 -19.987127
10330000000 -25.173889 2.4361916 -0.23043548 -69.234444 -0.23028234 -69.233055 -22.758108 -20.515108
10360000000 -25.249979 2.6261206 -0.23137785 -69.423256 -0.23123342 -69.419075 -22.574551 -22.134508
10390000000 -25.101038 2.0261476 -0.23110703 -69.630974 -0.2311365 -69.627083 -22.611847 -21.192966
10420000000 -25.122171 2.1551607 -0.23265688 -69.830566 -0.23089708 -69.832901 -22.744846 -21.306581
10450000000 -25.143547 1.7831823 -0.23316981 -70.029465 -0.23327962 -70.019844 -22.524527 -22.534937
10480000000 -25.066412 1.4672073 -0.23431167 -70.22551 -0.23372076 -70.215271 -22.516363 -22.185537
10510000000 -25.11676 1.3194642 -0.2349994 -70.427887 -0.23356642 -70.413696 -22.691994 -22.673302
10540000000 -25.131258 1.3570411 -0.23448215 -70.616325 -0.23539974 -70.616783 -22.588987 -23.298151
10570000000 -25.007357 0.71023917 -0.23587909 -70.81015 -0.23596983 -70.804443 -22.4419 -22.477091
10600000000 -25.128351 0.76449609 -0.23413682 -71.008095 -0.23543854 -71.010513 -22.62496 -23.737581
10630000000 -25.116968 0.74090034 -0.23581813 -71.20414 -0.23567903 -71.203979 -22.538422 -24.53344
10660000000 -24.991814 0.3468439 -0.235837 -71.399963 -0.23596764 -71.401207 -22.520849 -23.282408
10690000000 -25.038322 0.15333697 -0.23694074 -71.603104 -0.23491114 -71.594788 -22.556046 -23.964548
10720000000 -25.071459 0.27135751 -0.23550576 -71.793716 -0.23529835 -71.791931 -22.4825 -25.270317
10750000000 -24.945129 0.1516968 -0.23562218 -71.994507 -0.23602559 -71.990799 -22.474297 -24.513582
10780000000 -24.986532 -0.36710134 -0.23702767 -72.194664 -0.23535436 -72.186638 -22.594385 -24.529181
10810000000 -24.979239 -0.47399172 -0.23680352 -72.390404 -0.23642984 -72.385643 -22.408897 -25.371214
10840000000 -24.930914 -0.48670316 -0.23746976 -72.588417 -0.23589876 -72.586983 -22.407166 -25.377029
10870000000 -24.965067 -0.34449726 -0.23692462 -72.795555 -0.2371179 -72.788864 -22.545807 -25.846727
10900000000 -24.929998 -0.64155602 -0.23706979 -72.988342 -0.23738582 -72.984657 -22.409775 -26.000734
10930000000 -24.85743 -1.1116881 -0.2376215 -73.185829 -0.23806228 -73.182831 -22.332903 -25.812775
10960000000 -24.953997 -1.0580674 -0.2396967 -73.388412 -0.23937091 -73.383591 -22.453571 -26.812986
10990000000 -24.906914 -1.0040741 -0.23925959 -73.583397 -0.2394598 -73.577446 -22.395723 -27.485842
11020000000 -24.827326 -1.715137 -0.24100363 -73.775993 -0.24048814 -73.760155 -22.339714 -26.429985
11050000000 -24.902069 -2.0997236 -0.24049388 -73.973953 -0.23956047 -73.964287 -22.438126 -27.361156
11080000000 -24.882399 -1.9241896 -0.24055736 -74.162682 -0.23980501 -74.15168 -22.3347 -28.434103
11110000000 -24.785704 -2.215765 -0.2423033 -74.355301 -0.24083972 -74.348312 -22.387583 -27.818972
11140000000 -24.808634 -2.7039247 -0.24125619 -74.546791 -0.2400184 -74.544159 -22.433273 -27.739862
11170000000 -24.852249 -2.8626406 -0.24061537 -74.744713 -0.24029498 -74.746658 -22.265799 -28.58387
11200000000 -24.78632 -2.8913994 -0.2408545 -74.945969 -0.24013001 -74.933861 -22.352407 -28.605589
11230000000 -24.775713 -2.6109793 -0.23934656 -75.140091 -0.24054149 -75.133934 -22.425194 -28.698837
11260000000 -24.755934 -2.9567101 -0.24001156 -75.334106 -0.24032234 -75.335037 -22.250328 -29.304913
11290000000 -24.737865 -3.0960505 -0.24086572 -75.5326 -0.2403508 -75.538368 -22.212341 -29.119532
11320000000 -24.788046 -2.729743 -0.24093221 -75.724068 -0.24037898 -75.725906 -22.386539 -29.983353
11350000000 -24.792456 -2.669898 -0.24119818 -75.929352 -0.24118997 -75.931419 -22.318014 -30.265165
11380000000 -24.737646 -3.2680442 -0.24151179 -76.119858 -0.24151453 -76.112144 -22.256735 -29.905506
11410000000 -24.825785 -3.4370687 -0.24185224 -76.332405 -0.24073932 -76.314018 -22.293133 -30.775928
11440000000 -24.794058 -3.2369668 -0.24164096 -76.514626 -0.2413985 -76.520752 -22.280016 -31.242746
11470000000 -24.695086 -3.589941 -0.24262218 -76.709457 -0.24118997 -76.715408 -22.285482 -30.562283
11500000000 -24.703352 -3.9105377 -0.2416686 -76.914421 -0.24204929 -76.906021 -22.296335 -31.023901
11530000000 -24.772343 -3.8866458 -0.24333696 -77.10939 -0.24285761 -77.104919 -22.204359 -32.253052
11560000000 -24.703089 -4.2160335 -0.24367289 -77.302841 -0.24429172 -77.300194 -22.271938 -32.142422
11590000000 -24.678644 -4.1861176 -0.24420273 -77.488953 -0.24448369 -77.489815 -22.259451 -32.032814
11620000000 -24.751352 -4.7513347 -0.24467704 -77.677322 -0.24438237 -77.674515 -22.235731 -32.49968
11650000000 -24.750368 -4.6673985 -0.24456228 -77.86721 -0.24429365 -77.868156 -22.222897 -32.757843
11680000000 -24.765064 -4.3728862 -0.24398914 -78.06324 -0.24288963 -78.057152 -22.302616 -33.529057
11710000000 -24.764296 -4.2719383 -0.24223979 -78.255066 -0.24253568 -78.252609 -22.290327 -33.299091
11740000000 -24.792042 -4.8851314 -0.24188098 -78.448463 -0.24067555 -78.44648 -22.251865 -33.203857
11770000000 -24.836084 -4.7466135 -0.24100691 -78.644325 -0.23998803 -78.647453 -22.355646 -33.680962
11800000000 -24.854939 -4.3487878 -0.24078774 -78.845291 -0.23918436 -78.842155 -22.356817 -34.539143
11830000000 -24.783575 -4.6748724 -0.23946801 -79.045509 -0.23866472 -79.044762 -22.327986 -34.091568
11860000000 -24.796879 -4.5528665 -0.23774372 -79.248734 -0.24000308 -79.251801 -22.22917 -34.188614
11890000000 -24.818069 -4.5160618 -0.23878615 -79.446808 -0.23974374 -79.442703 -22.254877 -34.777164
11920000000 -24.715017 -4.6737337 -0.23909985 -79.647911 -0.23841476 -79.642166 -22.308586 -34.773621
11950000000 -24.781673 -4.5610805 -0.23883811 -79.846107 -0.24026215 -79.840736 -22.345102 -34.995701
11980000000 -24.854862 -4.8964419 -0.2401229 -80.036713 -0.24019814 -80.039505 -22.228142 -35.427155
12010000000 -24.798176 -4.8216805 -0.24064463 -80.230476 -0.23976289 -80.23101 -22.218473 -35.746262
12040000000 -24.827618 -4.5256605 -0.24014178 -80.426704 -0.23970708 -80.418091 -22.336281 -35.864983
12070000000 -24.903114 -4.9871731 -0.23991007 -80.621544 -0.2395725 -80.615646 -22.354469 -36.031162
12100000000 -24.931232 -5.3652978 -0.238831 -80.810799 -0.23856217 -80.80912 -22.25495 -36.703861
12130000000 -24.897688 -4.7618122 -0.23653753 -81.010422 -0.23762752 -81.005089 -22.283859 -36.746906
12160000000 -24.907867 -4.5047784 -0.23652086 -81.202866 -0.2361401 -81.212158 -22.324476 -36.782787
12190000000 -24.909403 -5.2596378 -0.23559049 -81.412575 -0.23543307 -81.409737 -22.320105 -36.546371
12220000000 -24.947868 -4.8860288 -0.23508438 -81.614532 -0.23628579 -81.609344 -22.244707 -37.178997
12250000000 -24.972094 -4.8399487 -0.23601137 -81.819893 -0.23569407 -81.813637 -22.243904 -37.630592
12280000000 -24.857952 -5.3080463 -0.23658483 -82.012749 -0.23615979 -82.008797 -22.237394 -37.471584
12310000000 -24.878822 -5.130178 -0.2378583 -82.205467 -0.2369227 -82.20575 -22.227415 -37.278717
12340000000 -24.994326 -5.4432983 -0.23765376 -82.401001 -0.23700334 -82.398376 -22.217676 -38.049709
12370000000 -24.952856 -5.499331 -0.23899591 -82.595955 -0.23704107 -82.594421 -22.240065 -39.063835
12400000000 -24.905035 -4.9890895 -0.23752826 -82.788574 -0.23718187 -82.78215 -22.208195 -38.679104
12430000000 -25.031498 -5.4924011 -0.23727892 -82.982628 -0.2375299 -82.971237 -22.236643 -38.709389
12460000000 -25.045158 -5.9498796 -0.23739676 -83.162834 -0.23624724 -83.166046 -22.189625 -39.73938
12490000000 -25.023539 -4.79355 -0.23655748 -83.360886 -0.23640114 -83.360977 -22.256947 -39.610367
12520000000 -25.114515 -5.3964109 -0.23473571 -83.554398 -0.2346002 -83.550316 -22.30064 -39.730621
12550000000 -25.075914 -5.6318808 -0.23462588 -83.747665 -0.23355959 -83.745552 -22.247097 -39.94136
12580000000 -25.101051 -4.9610171 -0.23260637 -83.945755 -0.23185922 -83.937271 -22.202732 -40.285686
12610000000 -25.181101 -5.1677318 -0.23091319 -84.143555 -0.23007381 -84.13485 -22.329073 -40.545059
12640000000 -25.104885 -5.4230285 -0.22970617 -84.335922 -0.22953287 -84.336845 -22.31518 -40.68454
12670000000 -25.113832 -5.117816 -0.22761638 -84.539818 -0.22915736 -84.539703 -22.215818 -40.427734
12700000000 -25.173018 -5.2783155 -0.22726831 -84.739685 -0.226446 -84.738228 -22.275061 -40.910606
12730000000 -25.143429 -5.2644405 -0.22647245 -84.940033 -0.22557068 -84.943085 -22.326147 -41.49157
12760000000 -25.096033 -4.8738184 -0.22589187 -85.140175 -0.22539918 -85.131935 -22.221155 -41.061527
12790000000 -25.183825 -5.4342928 -0.22454587 -85.341904 -0.22405741 -85.336899 -22.347176 -40.937122
12820000000 -25.115644 -5.4623308 -0.22388242 -85.537231 -0.22338612 -85.536102 -22.160938 -41.818329
12850000000 -25.071159 -4.8125572 -0.22281905 -85.73867 -0.22270241 -85.73838 -22.206316 -41.700207
12880000000 -25.181219 -5.5319881 -0.22169 -85.944687 -0.22231825 -85.9422 -22.424021 -41.358692
12910000000 -25.09354 -5.5853763 -0.22187771 -86.137001 -0.2216031 -86.136154 -22.129044 -42.02393
12940000000 -25.104729 -5.0460405 -0.22108093 -86.338013 -0.21991013 -86.340202 -22.204451 -42.240826
12970000000 -25.138483 -5.3681631 -0.21955369 -86.541527 -0.21941783 -86.543114 -22.343559 -42.224014
13000000000 -25.064753 -5.3133383 -0.218548 -86.737404 -0.2185744 -86.744308 -22.249125 -42.791527
13030000000 -25.108156 -5.2338991 -0.21807572 -86.940666 -0.21799053 -86.942284 -22.16643 -42.101192
13060000000 -25.151285 -5.630569 -0.21724536 -87.149544 -0.21694955 -87.140785 -22.237738 -42.793423
13090000000 -25.059902 -5.3512421 -0.21633542 -87.342209 -0.21653405 -87.348808 -22.224253 -43.763874
13120000000 -25.08079 -5.3448305 -0.21553013 -87.558243 -0.21620591 -87.547569 -22.236553 -42.515743
13150000000 -25.138058 -6.0008402 -0.21562535 -87.755356 -0.21469182 -87.752991 -22.222918 -42.622261
13180000000 -25.058178 -5.5443201 -0.21385148 -87.946609 -0.21433717 -87.948341 -22.168539 -44.671528
13210000000 -25.019207 -5.3798118 -0.21496952 -88.151421 -0.21428414 -88.155235 -22.159334 -42.912209
13240000000 -25.056952 -6.6967425 -0.21294008 -88.355659 -0.21323588 -88.362442 -22.285145 -43.061764
13270000000 -24.953165 -5.9473 -0.2133335 -88.562614 -0.21236132 -88.561806 -22.096445 -44.280727
13300000000 -24.991961 -5.6250753 -0.21165462 -88.766762 -0.21187368 -88.762657 -22.05698 -43.784836
13330000000 -25.014223 -6.6233878 -0.21159074 -88.974236 -0.21108933 -88.965843 -22.346737 -44.339317
13360000000 -24.870665 -6.2670498 -0.21140322 -89.163887 -0.21206966 -89.163918 -22.036175 -44.236183
13390000000 -24.919022 -6.2277107 -0.21053201 -89.36937 -0.21115102 -89.36779 -22.055 -43.933949
13420000000 -24.98744 -6.7512693 -0.21104151 -89.580681 -0.20955719 -89.57943 -22.19243 -44.738796
13450000000 -24.873142 -6.5644679 -0.21045075 -89.780205 -0.20939827 -89.779434 -22.17536 -45.597958
13480000000 -24.852449 -6.7612929 -0.21040158 -89.979362 -0.20991634 -89.975983 -22.022018 -43.620541
13510000000 -24.920324 -7.4284301 -0.20867385 -90.182869 -0.2090715 -90.189545 -22.201187 -45.402168
13540000000 -24.749531 -6.7388687 -0.2085337 -90.38662 -0.20840064 -90.381325 -22.007612 -46.231697
13570000000 -24.794621 -6.8669405 -0.2096941 -90.587723 -0.2095542 -90.583824 -22.10253 -44.734791
13600000000 -24.866085 -7.705862 -0.20811656 -90.798958 -0.20772851 -90.793541 -22.246851 -45.027985
13630000000 -24.75878 -7.1455431 -0.20856602 -90.998802 -0.20863664 -90.995865 -21.946953 -46.705219
13660000000 -24.771397 -7.6763687 -0.20859128 -91.201874 -0.20876592 -91.192841 -22.000416 -45.360874
13690000000 -24.787823 -8.3105021 -0.20814073 -91.405617 -0.2084821 -91.404526 -22.286064 -46.157883
13720000000 -24.698721 -7.7790103 -0.2086782 -91.609138 -0.20888978 -91.60141 -21.968592 -46.801636
13750000000 -24.712061 -7.7372546 -0.20845304 -91.806313 -0.20839249 -91.794601 -21.919733 -46.235958
13780000000 -24.752806 -8.7115192 -0.20764542 -92.015388 -0.2086198 -92.000565 -22.19413 -47.053291
13810000000 -24.634306 -8.1684361 -0.20806496 -92.205559 -0.20770895 -92.210129 -22.014799 -47.891106
13840000000 -24.657619 -8.5464258 -0.20807691 -92.407471 -0.20811467 -92.393883 -21.942204 -45.649975
13870000000 -24.666847 -9.1863832 -0.20697993 -92.622757 -0.20703776 -92.609917 -22.15477 -47.63377
13900000000 -24.553703 -8.1940308 -0.20672691 -92.817558 -0.20755473 -92.810425 -21.93248 -48.763111
13930000000 -24.610331 -8.7705107 -0.20799924 -93.021194 -0.20753464 -93.008736 -22.016825 -46.717846
13960000000 -24.604145 -9.5976477 -0.20692645 -93.227509 -0.20728593 -93.226212 -22.169449 -47.652004
13990000000 -24.517576 -8.5060635 -0.20669542 -93.434341 -0.20762886 -93.425438 -21.861834 -49.007641
14020000000 -24.610136 -9.2674656 -0.20777114 -93.633728 -0.20823714 -93.627838 -22.002781 -47.74065
14050000000 -24.556896 -10.013829 -0.20740592 -93.835205 -0.20806687 -93.826607 -22.212616 -48.411972
14080000000 -24.491589 -9.1424799 -0.2087844 -94.034637 -0.20918748 -94.026939 -21.881088 -49.460808
14110000000 -24.5256 -9.699893 -0.20899898 -94.234688 -0.20921029 -94.214828 -21.883278 -48.267193
14140000000 -24.552423 -10.42755 -0.20862931 -94.439873 -0.20970687 -94.422592 -22.176952 -50.175293
14170000000 -24.479008 -9.6759443 -0.20883545 -94.63282 -0.20849434 -94.619507 -21.986002 -50.105648
14200000000 -24.550016 -10.246134 -0.20799138 -94.814842 -0.20868744 -94.816856 -21.918493 -48.345932
14230000000 -24.538589 -10.948466 -0.20776029 -95.028297 -0.20789985 -95.016006 -22.15556 -50.420158
14260000000 -24.43968 -9.9773283 -0.20633464 -95.22641 -0.20774101 -95.211433 -21.9368 -51.284473
14290000000 -24.520483 -10.596862 -0.20716129 -95.423531 -0.20709017 -95.414536 -22.045017 -48.700993
14320000000 -24.455454 -11.006225 -0.20566176 -95.629555 -0.20603442 -95.619156 -22.112572 -50.819115
14350000000 -24.370586 -9.8921824 -0.2050883 -95.828896 -0.20587264 -95.819786 -21.833755 -51.299274
14380000000 -24.443466 -10.833785 -0.20507526 -96.03714 -0.2052419 -96.025452 -22.035452 -50.089882
14410000000 -24.408382 -11.294658 -0.20350239 -96.23822 -0.20461857 -96.22554 -22.223177 -50.94677
14440000000 -24.36232 -10.011408 -0.20516238 -96.443634 -0.20476592 -96.430191 -21.882673 -51.845119
14470000000 -24.389219 -10.599437 -0.20540066 -96.641129 -0.20451112 -96.636444 -21.906029 -50.533401
14500000000 -24.370985 -11.271115 -0.20438007 -96.84697 -0.20561208 -96.84697 -22.166718 -52.320507
14530000000 -24.305937 -10.581412 -0.20577547 -97.049896 -0.20569243 -97.040527 -21.91824 -52.070576
14560000000 -24.346043 -11.373981 -0.20642231 -97.24437 -0.20539442 -97.238083 -21.932955 -50.428619
14590000000 -24.327364 -11.474929 -0.20611422 -97.450203 -0.20626162 -97.43644 -22.090431 -53.255253
14620000000 -24.289106 -10.503358 -0.20500579 -97.645538 -0.20522915 -97.64048 -21.926329 -53.604912
14650000000 -24.354179 -11.557852 -0.20505057 -97.847145 -0.20503564 -97.828224 -22.01561 -51.093384
14680000000 -24.33242 -11.512837 -0.20445739 -98.048599 -0.204023 -98.040627 -22.113461 -53.008404
14710000000 -24.237749 -10.723317 -0.20359191 -98.239563 -0.20366244 -98.231934 -21.814859 -54.279774
14740000000 -24.280748 -11.47172 -0.20395137 -98.450005 -0.20385858 -98.440331 -22.004511 -52.019249
14770000000 -24.309608 -11.636112 -0.20265689 -98.655556 -0.20295282 -98.644714 -22.223217 -53.697662
14800000000 -24.24036 -10.732873 -0.20439689 -98.857651 -0.20415404 -98.842575 -21.708677 -53.825363
14830000000 -24.233566 -11.596663 -0.20318501 -99.062057 -0.20394486 -99.0522 -21.964783 -52.863621
14860000000 -24.249323 -11.609169 -0.20222621 -99.270493 -0.20198674 -99.251923 -22.191793 -54.737492
14890000000 -24.197586 -10.844849 -0.20277895 -99.472282 -0.20310877 -99.454681 -21.820299 -54.318096
14920000000 -24.237114 -11.791145 -0.20320915 -99.667381 -0.20361632 -99.665504 -21.880234 -52.86779
14950000000 -24.158707 -11.742561 -0.20248494 -99.871834 -0.20159924 -99.866333 -22.068151 -55.572411
14980000000 -24.118584 -10.986067 -0.20274261 -100.07516 -0.20233631 -100.06348 -21.868626 -54.962421
15010000000 -24.14633 -11.963826 -0.20245348 -100.2729 -0.20276648 -100.27036 -21.914333 -53.441936
15040000000 -24.097389 -11.64794 -0.20342235 -100.48478 -0.20262869 -100.47591 -21.951965 -55.574276
15070000000 -24.08604 -11.188021 -0.20245619 -100.68854 -0.20318934 -100.67042 -21.773867 -55.906429
15100000000 -24.113575 -12.16155 -0.20270382 -100.88548 -0.20418525 -100.87598 -21.888493 -54.371281
15130000000 -24.098232 -11.96674 -0.20219448 -101.09409 -0.20213617 -101.08714 -22.091373 -55.968662
15160000000 -24.046011 -11.508503 -0.20413777 -101.29664 -0.20326285 -101.27429 -21.595427 -55.979095
15190000000 -24.069759 -12.107544 -0.20419881 -101.50668 -0.20345438 -101.49057 -21.900969 -55.540947
15220000000 -24.022182 -12.095942 -0.20251206 -101.70272 -0.20177524 -101.68821 -22.003075 -56.957005
15250000000 -24.002707 -11.532711 -0.20397931 -101.91068 -0.20263736 -101.8919 -21.686062 -56.354198
15280000000 -24.05245 -12.307778 -0.20371507 -102.1129 -0.20328672 -102.08949 -21.78031 -55.687874
15310000000 -23.993971 -11.982599 -0.2028614 -102.31273 -0.20332308 -102.30365 -21.905878 -58.396351
15340000000 -23.982618 -11.679132 -0.20453066 -102.51279 -0.20450541 -102.5035 -21.756121 -57.189232
15370000000 -23.973211 -12.523219 -0.20374301 -102.71192 -0.20431115 -102.70471 -21.751499 -56.212448
15400000000 -23.993383 -12.264877 -0.20490675 -102.92089 -0.20427451 -102.91702 -21.840132 -58.629326
15430000000 -23.937099 -12.024014 -0.20457461 -103.1153 -0.20441018 -103.11557 -21.676748 -58.458572
15460000000 -23.948563 -12.793449 -0.20619892 -103.30992 -0.20379293 -103.31141 -21.80555 -57.278572
15490000000 -23.909912 -12.564548 -0.20599696 -103.52722 -0.20442809 -103.51413 -21.900105 -58.881729
15520000000 -23.890514 -12.303741 -0.20532195 -103.71415 -0.20459767 -103.70973 -21.55348 -59.055668
15550000000 -23.958548 -12.720491 -0.20518599 -103.92776 -0.20594594 -103.91302 -21.867706 -58.209789
15580000000 -23.917307 -13.029791 -0.2056243 -104.1267 -0.20491923 -104.12125 -21.908207 -59.925983
15610000000 -23.860741 -12.616525 -0.20630369 -104.32598 -0.20601162 -104.31425 -21.566628 -59.039803
15640000000 -23.909256 -13.099216 -0.20625211 -104.53249 -0.20683686 -104.52054 -21.784113 -58.96682
15670000000 -23.894411 -12.786943 -0.20544028 -104.74123 -0.2050712 -104.73212 -21.84672 -60.702263
15700000000 -23.840485 -13.080075 -0.20669407 -104.93189 -0.20637752 -104.93212 -21.694931 -59.738667
15730000000 -23.91036 -13.438166 -0.2054411 -105.13837 -0.20534231 -105.13148 -21.755943 -59.216545
15760000000 -23.920809 -13.451258 -0.20741814 -105.34563 -0.20634983 -105.33996 -21.81937 -61.367722
15790000000 -23.851446 -13.193174 -0.20707551 -105.54475 -0.20688899 -105.53686 -21.63586 -60.924721
15820000000 -23.887104 -14.036757 -0.20814453 -105.74299 -0.20643888 -105.73985 -21.865194 -59.99572
15850000000 -23.927057 -13.93549 -0.20770435 -105.95059 -0.20731959 -105.94968 -21.751188 -61.569054
15880000000 -23.889151 -13.692136 -0.20815839 -106.15308 -0.20800333 -106.14851 -21.621012 -61.801323
15910000000 -23.907253 -14.088978 -0.20931216 -106.34869 -0.21011874 -106.3421 -21.828808 -61.379593
15940000000 -23.885193 -14.472138 -0.20897073 -106.55367 -0.21013749 -106.55173 -21.869354 -62.141354
15970000000 -23.904718 -14.396729 -0.20990928 -106.758 -0.20916195 -106.74814 -21.619671 -62.124115
16000000000 -23.927086 -14.844655 -0.21003425 -106.95729 -0.21018586 -106.94577 -21.748415 -62.694893
16030000000 -23.881571 -14.626613 -0.2109589 -107.15232 -0.21110809 -107.15195 -21.912464 -62.744694
16060000000 -23.910994 -14.710934 -0.21109097 -107.35622 -0.21085237 -107.35027 -21.715477 -63.06744
16090000000 -23.968828 -15.504921 -0.21168151 -107.54913 -0.21088199 -107.53758 -21.82523 -62.184994
16120000000 -24.025728 -15.359369 -0.21143827 -107.75993 -0.21206367 -107.75531 -21.851002 -63.940338
16150000000 -23.911062 -15.306529 -0.21262826 -107.95486 -0.21214385 -107.9467 -21.769621 -63.946533
16180000000 -23.984497 -16.096659 -0.2117992 -108.15338 -0.21128988 -108.14287 -21.901962 -62.987568
16210000000 -24.0478 -15.953815 -0.2126772 -108.35444 -0.21201339 -108.35372 -21.809309 -64.260689
16240000000 -24.006189 -15.731704 -0.21213761 -108.55264 -0.21353851 -108.55057 -21.792448 -64.496971
16270000000 -23.989862 -16.074686 -0.21299365 -108.74609 -0.21388629 -108.74569 -21.895241 -64.373291
16300000000 -24.04373 -16.459084 -0.21283706 -108.95367 -0.21300371 -108.94453 -21.975645 -64.283417
16330000000 -24.093962 -16.201792 -0.21277697 -109.15681 -0.21303253 -109.14058 -21.77882 -64.904953
16360000000 -24.137703 -16.549 -0.21448648 -109.35056 -0.21361955 -109.34659 -21.891045 -65.129387
16390000000 -24.099318 -17.045885 -0.21478483 -109.55006 -0.21486561 -109.54349 -22.071363 -65.219986
16420000000 -24.096397 -17.191797 -0.21416122 -109.74906 -0.21458112 -109.74386 -21.847246 -65.26078
16450000000 -24.162769 -17.268885 -0.21255188 -109.94855 -0.21364672 -109.93917 -21.88628 -65.205162
16480000000 -24.145342 -17.164063 -0.21357903 -110.14675 -0.21426402 -110.1385 -22.034266 -66.558708
16510000000 -24.096506 -16.926832 -0.21425477 -110.34969 -0.21356271 -110.34412 -22.015022 -66.451485
16540000000 -24.192585 -17.774086 -0.21277453 -110.53665 -0.21322964 -110.53569 -21.996304 -65.359985
16570000000 -24.206964 -18.008398 -0.2118628 -110.74083 -0.213799 -110.7362 -22.02177 -66.585251
16600000000 -24.208342 -17.349546 -0.21313693 -110.94717 -0.21346673 -110.94382 -22.042107 -67.596085
16630000000 -24.217119 -18.104195 -0.21178806 -111.14161 -0.21220447 -111.13707 -22.09927 -66.476295
16660000000 -24.218122 -18.95767 -0.21152145 -111.34698 -0.21141626 -111.33362 -22.137955 -65.88195
16690000000 -24.223953 -18.169285 -0.21244559 -111.55507 -0.21286315 -111.54885 -21.978573 -68.030167
16720000000 -24.261118 -18.372089 -0.21181524 -111.75169 -0.21162282 -111.74501 -22.145775 -67.144669
16750000000 -24.202829 -19.275574 -0.21167201 -111.95174 -0.21101813 -111.93954 -22.294422 -66.77623
16780000000 -24.217808 -19.035767 -0.21247984 -112.15934 -0.210557 -112.15601 -22.012169 -67.583717
16810000000 -24.296469 -19.36042 -0.2109953 -112.3607 -0.21109097 -112.36004 -22.058472 -67.132103
16840000000 -24.213612 -19.812511 -0.21082574 -112.5547 -0.21138284 -112.55889 -22.290182 -67.950394
16870000000 -24.160385 -19.310596 -0.21008994 -112.77216 -0.21172011 -112.74934 -22.128235 -68.170807
16900000000 -24.277384 -19.970131 -0.21084857 -112.97038 -0.21066651 -112.96241 -22.045158 -66.505157
16930000000 -24.283026 -20.397053 -0.21150677 -113.17518 -0.21111542 -113.17441 -22.17522 -68.158508
16960000000 -24.225945 -19.720873 -0.21217132 -113.37582 -0.21120754 -113.37511 -22.185261 -69.027206
16990000000 -24.249706 -20.582922 -0.21257173 -113.57323 -0.21155487 -113.57704 -22.157375 -67.167137
17020000000 -24.245798 -21.386324 -0.21147606 -113.77877 -0.21114396 -113.79143 -22.183449 -67.538315
17050000000 -24.205854 -20.413666 -0.21219061 -113.98164 -0.21331447 -113.98332 -22.003769 -70.065689
17080000000 -24.231094 -21.165215 -0.21242493 -114.1851 -0.21188672 -114.19063 -22.136581 -67.852753
17110000000 -24.22942 -22.041918 -0.21273428 -114.38562 -0.21075726 -114.38229 -22.342289 -68.263649
17140000000 -24.240919 -21.042612 -0.21381423 -114.59365 -0.21356951 -114.59794 -21.983326 -69.773766
17170000000 -24.260736 -22.232691 -0.21230994 -114.79774 -0.21480823 -114.7991 -21.953068 -68.987
17200000000 -24.150055 -22.608692 -0.21273646 -114.99129 -0.21283759 -114.99315 -22.386696 -69.078522
17230000000 -24.140574 -21.784161 -0.21354069 -115.19949 -0.2152573 -115.19934 -21.998158 -69.843536
17260000000 -24.20175 -22.820278 -0.21537617 -115.4076 -0.21444894 -115.40741 -21.946215 -68.899292
17290000000 -24.127108 -23.010473 -0.21381369 -115.60214 -0.2149532 -115.60413 -22.235634 -70.213905
17320000000 -24.067076 -22.324862 -0.21480197 -115.80952 -0.21435077 -115.80203 -22.042686 -71.390785
17350000000 -24.134485 -23.81786 -0.21565036 -116.01642 -0.21753736 -116.00629 -22.064552 -68.65329
17380000000 -24.088678 -24.10323 -0.21469373 -116.21471 -0.21560548 -116.20967 -22.152853 -70.114594
17410000000 -24.062609 -22.894646 -0.21620291 -116.40466 -0.21616347 -116.41168 -21.961998 -72.498993
17440000000 -24.03886 -24.216141 -0.21670628 -116.6207 -0.21550484 -116.61742 -22.043468 -70.102089
17470000000 -23.936138 -24.698448 -0.21457732 -116.82253 -0.21707499 -116.82611 -22.193411 -69.992622
17500000000 -24.037626 -23.42634 -0.21737789 -117.02895 -0.21816581 -117.01778 -21.82729 -72.658142
17530000000 -24.04538 -24.902094 -0.21891142 -117.23034 -0.21664833 -117.23275 -21.938951 -71.159325
17560000000 -23.854603 -25.37207 -0.21801257 -117.43934 -0.21706465 -117.42358 -22.287258 -71.267998
17590000000 -23.91614 -24.53418 -0.2185273 -117.62929 -0.2193601 -117.63257 -21.839418 -72.429016
17620000000 -23.894625 -25.647106 -0.22057787 -117.84284 -0.22035564 -117.83598 -21.7691 -71.343735
17650000000 -23.768076 -26.052977 -0.22021621 -118.05038 -0.2184168 -118.03592 -22.131975 -72.584023
17680000000 -23.768291 -24.973297 -0.22053294 -118.23988 -0.21977997 -118.2453 -21.899982 -74.257805
17710000000 -23.820875 -26.715975 -0.22248799 -118.44997 -0.22158022 -118.44828 -21.82568 -71.103699
17740000000 -23.721418 -26.687017 -0.22151756 -118.65677 -0.22298336 -118.65466 -21.953894 -73.429771
17770000000 -23.761818 -25.699425 -0.22389251 -118.85213 -0.22369981 -118.85571 -21.815563 -75.67495
17800000000 -23.7143 -27.764839 -0.22691782 -119.06026 -0.22658782 -119.06854 -21.853546 -72.166199
17830000000 -23.614357 -27.73107 -0.22762947 -119.26729 -0.22603095 -119.26371 -22.036949 -73.528275
17860000000 -23.712904 -26.413395 -0.23196845 -119.4577 -0.22977985 -119.44934 -21.573721 -76.220451
17890000000 -23.583002 -28.455362 -0.23387046 -119.66682 -0.23227811 -119.66456 -21.774824 -74.002602
17920000000 -23.538071 -28.492666 -0.2351874 -119.85219 -0.23342137 -119.85625 -22.091127 -75.234215
17950000000 -23.711231 -28.016426 -0.23993579 -120.03107 -0.23907222 -120.04652 -21.591381 -77.054306
17980000000 -23.660921 -29.529657 -0.24123541 -120.20346 -0.24174359 -120.21839 -21.670338 -75.549767
18010000000 -23.615194 -29.089287 -0.24090923 -120.39319 -0.24121159 -120.37875 -22.11879 -78.232704
18040000000 -23.819719 -28.453705 -0.24150659 -120.55039 -0.24177861 -120.54228 -21.828344 -78.983978
18070000000 -23.846601 -29.746956 -0.23984523 -120.72835 -0.24054587 -120.7197 -21.823992 -75.823296
18100000000 -23.823362 -28.500206 -0.23520544 -120.92692 -0.23605865 -120.91447 -22.253628 -78.975174
18130000000 -23.810379 -27.215446 -0.23219755 -121.10812 -0.23103712 -121.09444 -21.956863 -80.207657
18160000000 -23.794672 -29.362974 -0.22996272 -121.31536 -0.22831941 -121.30361 -22.083363 -76.085129
18190000000 -23.725239 -27.686588 -0.22682618 -121.51684 -0.22730514 -121.52266 -22.384247 -78.702782
18220000000 -23.766592 -26.675077 -0.22545943 -121.70457 -0.22537409 -121.7133 -21.926828 -79.835243
18250000000 -23.55785 -28.615818 -0.22351557 -121.92598 -0.22441693 -121.91744 -22.097731 -77.685028
18280000000 -23.535269 -27.824518 -0.22200248 -122.13744 -0.22163798 -122.13683 -22.62958 -79.046638
18310000000 -23.651808 -26.820595 -0.22128057 -122.33347 -0.22154699 -122.32915 -21.869137 -79.562332
18340000000 -23.497293 -28.423927 -0.22163716 -122.5349 -0.22295202 -122.53682 -22.051487 -77.406525
18370000000 -23.451542 -27.58864 -0.22155842 -122.75729 -0.22157259 -122.75646 -22.618256 -81.273682
18400000000 -23.528639 -27.306433 -0.22108828 -122.95693 -0.22370471 -122.95469 -22.019766 -80.101982
18430000000 -23.446749 -28.770676 -0.22365566 -123.14375 -0.22225285 -123.14058 -22.067982 -76.922966
18460000000 -23.356993 -27.102325 -0.22051959 -123.37477 -0.22292313 -123.35965 -22.526995 -81.644867
18490000000 -23.47205 -27.071716 -0.22044986 -123.57324 -0.2200757 -123.56548 -22.039783 -81.927261
18520000000 -23.413387 -29.190435 -0.22271904 -123.75994 -0.22429045 -123.77067 -22.360567 -77.772285
18550000000 -23.409319 -27.046291 -0.2218747 -123.98312 -0.22317083 -123.98221 -22.52466 -81.270569
18580000000 -23.499825 -26.78491 -0.22192238 -124.18227 -0.22224413 -124.17159 -21.997019 -82.765877
18610000000 -23.342823 -29.209051 -0.2233616 -124.38447 -0.22502647 -124.37725 -22.515572 -79.808548
18640000000 -23.406477 -27.604561 -0.22309127 -124.59144 -0.22285719 -124.59146 -22.699554 -81.446777
18670000000 -23.524336 -27.092871 -0.22270024 -124.79382 -0.22467345 -124.77989 -22.110237 -82.205688
18700000000 -23.323374 -28.882011 -0.22385162 -124.99099 -0.22328965 -124.98715 -22.313286 -80.092812
18730000000 -23.315647 -27.673601 -0.22325914 -125.19148 -0.2243526 -125.1917 -23.000214 -83.824608
18760000000 -23.594873 -27.545216 -0.2257359 -125.39838 -0.22529939 -125.39362 -22.164755 -82.533432
18790000000 -23.377203 -29.198877 -0.22438067 -125.58597 -0.22561429 -125.58404 -22.488108 -79.62455
18820000000 -23.285324 -27.08954 -0.22564974 -125.80476 -0.22616075 -125.79997 -22.800798 -84.994926
18850000000 -23.533503 -27.902769 -0.22689192 -126.0043 -0.22689301 -125.99986 -22.422506 -83.682663
18880000000 -23.467958 -29.655008 -0.22824194 -126.19758 -0.22569664 -126.1955 -22.72398 -80.124519
18910000000 -23.416245 -27.211189 -0.2286943 -126.41833 -0.22702828 -126.40527 -22.803946 -84.342957
18940000000 -23.524693 -27.494326 -0.22878788 -126.59924 -0.22801276 -126.60865 -22.307106 -84.923073
18970000000 -23.333639 -30.019136 -0.23123752 -126.80017 -0.23043165 -126.79861 -22.923929 -80.704979
19000000000 -23.464138 -27.257113 -0.23010683 -127.00969 -0.22944362 -127.02454 -22.972549 -85.120224
19030000000 -23.563108 -27.516624 -0.23021328 -127.20143 -0.22957245 -127.21716 -22.416718 -83.898941
19060000000 -23.319347 -28.977009 -0.23130414 -127.42619 -0.23129377 -127.40761 -22.80448 -83.032982
19090000000 -23.482237 -27.719864 -0.23032328 -127.60577 -0.23084384 -127.60501 -23.299643 -85.400879
19120000000 -23.683819 -28.081764 -0.23356533 -127.81616 -0.23299173 -127.80412 -22.464668 -84.544937
19150000000 -23.428427 -29.329273 -0.23354457 -128.01587 -0.23255776 -128.0072 -22.815166 -81.406647
19180000000 -23.449438 -27.837271 -0.23376529 -128.21223 -0.23364401 -128.2198 -23.118172 -87.181892
19210000000 -23.645115 -28.889614 -0.23563722 -128.43199 -0.23422015 -128.41682 -22.68572 -84.950134
19240000000 -23.540852 -29.427153 -0.23440813 -128.61536 -0.23649025 -128.60594 -23.075005 -81.668388
19270000000 -23.64204 -27.265053 -0.23714469 -128.82452 -0.2385463 -128.82033 -23.01757 -87.388237
19300000000 -23.701912 -29.408052 -0.23805243 -129.02661 -0.2381722 -129.02657 -22.799324 -85.893745
19330000000 -23.581758 -30.463686 -0.24102743 -129.22186 -0.24068759 -129.22197 -23.170113 -83.326088
19360000000 -23.817877 -28.221405 -0.24034998 -129.42599 -0.24027693 -129.42004 -23.209599 -86.455643
19390000000 -23.847679 -29.075642 -0.24397409 -129.60509 -0.24366386 -129.61227 -22.679878 -86.783234
19420000000 -23.695702 -30.894234 -0.24657586 -129.79955 -0.24655668 -129.80344 -23.257278 -85.305481
19450000000 -23.972019 -29.534241 -0.24591452 -129.98335 -0.24485724 -129.97569 -23.403841 -87.683769
19480000000 -24.19602 -30.41543 -0.24752229 -130.16061 -0.24703179 -130.15683 -22.885477 -86.580589
19510000000 -23.905464 -30.953711 -0.24659066 -130.34308 -0.24731019 -130.35493 -23.238682 -84.318413
19540000000 -24.136608 -29.178387 -0.24457352 -130.52769 -0.24548773 -130.51543 -23.647598 -89.233894
19570000000 -24.326384 -30.517958 -0.24192558 -130.72469 -0.24296683 -130.72369 -23.03717 -86.139015
19600000000 -24.147762 -30.255651 -0.23913157 -130.93732 -0.23915127 -130.93457 -23.483067 -83.43515
19630000000 -24.205366 -28.352007 -0.24060825 -131.13255 -0.23900467 -131.13936 -23.364655 -88.65564
19660000000 -24.221869 -30.300676 -0.23980448 -131.34277 -0.23832479 -131.33827 -23.139969 -86.126633
19690000000 -24.133055 -30.789831 -0.2387443 -131.54384 -0.23771173 -131.55115 -23.519865 -83.257484
19720000000 -24.367252 -28.706356 -0.23776287 -131.75327 -0.23736204 -131.76793 -23.436199 -86.855232
19750000000 -24.293224 -29.827604 -0.23962119 -131.94354 -0.23996614 -131.9583 -23.043346 -86.674484
19780000000 -24.05607 -31.236282 -0.23954159 -132.16545 -0.24027063 -132.16563 -23.418156 -84.019325
19810000000 -24.40624 -29.317461 -0.23781043 -132.36055 -0.23825096 -132.37389 -23.541534 -87.301109
19840000000 -24.458008 -30.437185 -0.24025723 -132.56755 -0.23984797 -132.56599 -22.995169 -85.972824
19870000000 -24.122309 -31.084017 -0.24076366 -132.77396 -0.24253596 -132.77342 -23.318787 -84.09182
19900000000 -24.368727 -30.210682 -0.23948525 -132.95892 -0.24061865 -132.96524 -23.439404 -88.991798
19930000000 -24.456247 -32.126171 -0.24104768 -133.16331 -0.24152657 -133.1709 -23.039349 -85.53904
19960000000 -24.251451 -31.822145 -0.24199784 -133.36493 -0.24203999 -133.37912 -23.236099 -84.017174
19990000000 -24.417027 -30.842905 -0.24214263 -133.57813 -0.24172689 -133.56972 -23.30789 -88.869827
20020000000 -24.399855 -33.385223 -0.24055216 -133.76239 -0.24044737 -133.7645 -23.058981 -87.327972
20050000000 -24.254328 -33.018963 -0.24226169 -133.97919 -0.242092 -133.97774 -23.264381 -84.19561
20080000000 -24.557739 -31.646706 -0.24043807 -134.18871 -0.24291043 -134.19385 -23.270916 -88.668755
20110000000 -24.431065 -33.906181 -0.24253541 -134.36902 -0.24403788 -134.36592 -22.756266 -87.974197
20140000000 -24.304348 -34.600407 -0.24599588 -134.5968 -0.24435224 -134.58603 -23.495892 -85.799576
20170000000 -24.663137 -33.441391 -0.2448408 -134.8076 -0.24423833 -134.79874 -23.34153 -88.133255
20200000000 -24.500978 -34.886887 -0.24828666 -134.97563 -0.24678436 -134.97441 -22.679106 -87.432289
20230000000 -24.219227 -35.291897 -0.24759409 -135.17242 -0.24980183 -135.17796 -23.341475 -87.376892
20260000000 -24.582571 -34.84129 -0.24885763 -135.38438 -0.24759875 -135.39064 -23.336672 -88.320328
20290000000 -24.592901 -36.307854 -0.24915178 -135.56491 -0.24936643 -135.57507 -22.840284 -87.585449
20320000000 -24.257986 -35.990444 -0.25167298 -135.76588 -0.25062063 -135.76201 -22.993893 -87.047241
20350000000 -24.528498 -36.06086 -0.24889655 -135.97128 -0.25044346 -135.97081 -23.231838 -89.809151
20380000000 -24.456272 -38.557011 -0.24919318 -136.16313 -0.25007164 -136.15814 -22.840807 -88.560867
20410000000 -24.322287 -37.245823 -0.25362456 -136.36971 -0.25395772 -136.36417 -23.15102 -87.32309
20440000000 -24.529486 -36.669048 -0.25230587 -136.56865 -0.25208199 -136.57135 -22.952799 -90.074226
20470000000 -24.428146 -39.209904 -0.24975905 -136.74396 -0.25172263 -136.75404 -22.721674 -91.054039
20500000000 -24.340294 -39.036858 -0.25367835 -136.9516 -0.25267872 -136.96185 -23.224552 -89.094933
20530000000 -24.680622 -38.475883 -0.25645319 -137.16385 -0.2553494 -137.1667 -22.882761 -90.402428
20560000000 -24.43606 -40.47599 -0.25463402 -137.33659 -0.25492772 -137.33719 -22.660057 -92.17823
20590000000 -24.322065 -40.259109 -0.25715706 -137.52754 -0.2580407 -137.53195 -23.153679 -91.710182
20620000000 -24.692734 -40.300106 -0.25581723 -137.72951 -0.25717491 -137.74387 -23.202908 -92.408829
20650000000 -24.571791 -41.887619 -0.2542105 -137.90813 -0.25487804 -137.91544 -22.898991 -92.918045
20680000000 -24.358217 -40.680267 -0.25356254 -138.08156 -0.25604457 -138.08221 -23.039215 -91.716408
20710000000 -24.719717 -41.043373 -0.2537939 -138.31264 -0.2539731 -138.31348 -23.538342 -94.953285
20740000000 -24.583498 -42.80579 -0.25259009 -138.49127 -0.25204825 -138.48576 -23.023243 -91.922302
20770000000 -24.422028 -40.953842 -0.25442266 -138.67911 -0.25511989 -138.6806 -23.203823 -91.217201
20800000000 -24.580854 -41.250137 -0.25294128 -138.91269 -0.25256649 -138.90506 -23.314531 -95.135132
20830000000 -24.371166 -42.967773 -0.25352961 -139.08939 -0.25173253 -139.09756 -23.152851 -93.722992
20860000000 -24.340475 -41.547428 -0.25435239 -139.28023 -0.25620767 -139.28169 -23.4419 -91.823944
20890000000 -24.577118 -41.641834 -0.25625491 -139.49281 -0.25483495 -139.49606 -23.278631 -93.563606
20920000000 -24.169867 -43.270962 -0.25290644 -139.67416 -0.25074512 -139.67793 -23.137207 -95.453308
20950000000 -24.195881 -42.731041 -0.25250667 -139.85408 -0.25505236 -139.86423 -23.404024 -93.570122
20980000000 -24.457058 -42.948277 -0.25602454 -140.06812 -0.25565058 -140.07185 -23.557341 -94.42617
21010000000 -24.118896 -44.016487 -0.2517018 -140.2515 -0.25108138 -140.24774 -23.100039 -94.896851
21040000000 -23.991571 -43.201653 -0.25158441 -140.42432 -0.25020763 -140.42462 -23.239805 -95.165398
21070000000 -24.282352 -44.322628 -0.254729 -140.65227 -0.25195608 -140.65041 -23.758644 -96.511253
21100000000 -24.130781 -44.91835 -0.24990903 -140.84122 -0.24975686 -140.83513 -23.288307 -95.861176
21130000000 -23.989763 -43.989204 -0.2500442 -141.01237 -0.24842015 -140.99594 -23.361929 -95.144318
21160000000 -24.165014 -45.154396 -0.24935219 -141.25078 -0.24868494 -141.24159 -23.684587 -99.159737
21190000000 -24.029377 -46.430466 -0.24683835 -141.44984 -0.2453927 -141.44603 -23.4816 -97.786827
21220000000 -24.091137 -44.820492 -0.24849744 -141.61993 -0.24702412 -141.61452 -23.58922 -96.021645
21250000000 -24.186842 -45.503819 -0.24740227 -141.83904 -0.24704055 -141.8392 -23.783607 -98.688652
21280000000 -23.954771 -46.709732 -0.24377421 -142.06367 -0.24510044 -142.06566 -23.557714 -100.30759
21310000000 -24.104988 -46.040974 -0.24627668 -142.24565 -0.24782266 -142.24074 -23.936258 -98.530968
21340000000 -24.298634 -46.618881 -0.24978483 -142.44469 -0.24850951 -142.44304 -24.074722 -98.144119
21370000000 -23.948235 -46.864285 -0.2453727 -142.65993 -0.24735513 -142.66049 -23.781298 -100.98749
21400000000 -23.935244 -46.911671 -0.24618299 -142.83286 -0.2461471 -142.841 -23.787109 -99.970009
21430000000 -24.205002 -47.627663 -0.25202632 -143.0385 -0.25243452 -143.03416 -24.742744 -100.15445
21460000000 -23.993443 -46.668755 -0.24988189 -143.22795 -0.24959894 -143.23386 -23.816525 -101.53835
21490000000 -23.868641 -46.201748 -0.25014237 -143.39426 -0.24784239 -143.38319 -24.13525 -99.365776
21520000000 -24.106712 -47.426765 -0.25367451 -143.61095 -0.25228637 -143.59875 -24.675734 -103.95184
21550000000 -24.041054 -47.448833 -0.25110769 -143.80356 -0.25023615 -143.79451 -24.374268 -102.0399
21580000000 -24.026512 -46.050606 -0.24956 -143.94037 -0.24823788 -143.94162 -24.681961 -99.362068
21610000000 -24.088585 -47.136639 -0.2458044 -144.17194 -0.2448671 -144.17786 -24.871384 -102.48341
21640000000 -23.915052 -47.659779 -0.24324223 -144.39125 -0.24265312 -144.39822 -24.628935 -103.96397
21670000000 -24.110552 -46.839283 -0.24393 -144.56192 -0.24466443 -144.55508 -25.148851 -99.40274
21700000000 -24.167011 -46.655289 -0.24321732 -144.75795 -0.2443873 -144.77077 -25.015768 -100.63847
21730000000 -23.814894 -47.00288 -0.24230658 -144.98181 -0.2425116 -144.98842 -24.710169 -103.46643
21760000000 -23.878782 -47.204369 -0.2407653 -145.16452 -0.24084848 -145.16414 -24.988842 -100.71609
21790000000 -24.177452 -48.11195 -0.24426351 -145.35745 -0.24471784 -145.34576 -25.784664 -102.20258
21820000000 -23.850046 -46.382751 -0.23983182 -145.56483 -0.23843636 -145.56961 -24.644064 -102.09212
21850000000 -23.797897 -47.061565 -0.2390859 -145.75708 -0.23651321 -145.74298 -25.145844 -99.999504
21880000000 -24.087074 -48.607918 -0.24087913 -145.95947 -0.24023506 -145.95091 -25.762545 -104.27695
21910000000 -23.978951 -47.714943 -0.23811068 -146.1739 -0.23915838 -146.17291 -25.205564 -102.75955
21940000000 -23.965059 -46.563015 -0.23459309 -146.35162 -0.23422424 -146.34415 -25.305529 -98.271622
21970000000 -23.960838 -48.462887 -0.23750393 -146.56148 -0.23773415 -146.56714 -25.62545 -104.45411
22000000000 -23.926182 -48.721321 -0.23769587 -146.78601 -0.2379849 -146.79248 -25.453165 -104.0694
22030000000 -24.114849 -47.630379 -0.23650365 -146.95264 -0.23601028 -146.96149 -25.525421 -98.467636
22060000000 -24.135075 -47.669739 -0.23722014 -147.15401 -0.23738419 -147.15782 -26.016827 -102.15309
22090000000 -23.820637 -48.1889 -0.23794633 -147.37984 -0.23586105 -147.38179 -25.179974 -103.90682
22120000000 -24.076759 -48.315426 -0.23736368 -147.56232 -0.23602477 -147.55624 -25.803846 -101.31702
22150000000 -24.311865 -48.852898 -0.23677617 -147.74516 -0.23584302 -147.75174 -26.292418 -101.09872
22180000000 -23.999882 -47.603714 -0.23643968 -147.96913 -0.23556589 -147.97984 -25.298954 -103.60704
22210000000 -24.034822 -48.207264 -0.23351152 -148.15649 -0.23374207 -148.16266 -25.639805 -100.59863
22240000000 -24.311312 -49.638733 -0.23555222 -148.33948 -0.23715016 -148.3446 -26.705029 -103.71012
22270000000 -24.192373 -48.079716 -0.23404667 -148.57697 -0.23455101 -148.57602 -25.586529 -102.02584
22300000000 -24.147011 -47.169247 -0.2313997 -148.76358 -0.23114415 -148.76118 -25.825735 -97.832962
22330000000 -24.186226 -49.107552 -0.23324519 -148.95412 -0.2345338 -148.97064 -26.329992 -103.87263
22360000000 -24.215618 -49.045216 -0.23342137 -149.18695 -0.23298873 -149.1909 -25.885056 -102.4282
22390000000 -24.400476 -48.088654 -0.23238379 -149.3788 -0.23147395 -149.37517 -25.975988 -96.052132
22420000000 -24.279879 -47.926342 -0.2361196 -149.56436 -0.2358195 -149.57663 -26.24896 -102.1216
22450000000 -24.096323 -48.547474 -0.23923743 -149.78171 -0.23652688 -149.79398 -25.664379 -102.00662
22480000000 -24.355291 -48.878693 -0.23483983 -149.96616 -0.23607096 -149.96964 -26.134069 -97.671265
22510000000 -24.45138 -48.157288 -0.23556834 -150.15366 -0.23618193 -150.15628 -26.365473 -99.96637
22540000000 -24.056709 -47.259216 -0.23818232 -150.36363 -0.23760892 -150.37427 -25.395006 -102.04463
22570000000 -24.215958 -48.594452 -0.23363307 -150.55074 -0.23380272 -150.55411 -25.606834 -98.588875
22600000000 -24.579853 -49.585892 -0.23515488 -150.71921 -0.23403138 -150.73065 -26.767733 -100.71631
22630000000 -24.387426 -48.39138 -0.23530245 -150.95331 -0.23579983 -150.94673 -25.42448 -101.62428
22660000000 -24.310186 -48.443504 -0.23202306 -151.13921 -0.23407945 -151.15192 -25.394327 -97.799957
22690000000 -24.459272 -50.112545 -0.23302914 -151.3175 -0.23286609 -151.31541 -26.400209 -103.88534
22720000000 -24.467236 -49.403923 -0.23231798 -151.5407 -0.23144583 -151.54233 -25.622967 -102.06254
22750000000 -24.632504 -48.712963 -0.23063147 -151.7412 -0.22964585 -151.74745 -25.464018 -96.432137
22780000000 -24.609903 -49.633793 -0.23226063 -151.93452 -0.23137949 -151.94029 -26.140755 -103.36724
22810000000 -24.399977 -50.185806 -0.23137458 -152.14142 -0.22974984 -152.15334 -25.470663 -104.01316
22840000000 -24.751644 -50.48912 -0.23137403 -152.35886 -0.22957735 -152.36902 -25.666309 -97.617279
22870000000 -24.8314 -49.704254 -0.23106143 -152.5475 -0.23119438 -152.56422 -26.058264 -101.84085
22900000000 -24.47242 -49.253609 -0.23472834 -152.73521 -0.23349322 -152.75812 -25.093607 -103.97153
22930000000 -24.629013 -50.44083 -0.23175956 -152.94026 -0.23166727 -152.94771 -25.624092 -100.85345
22960000000 -24.906406 -51.039745 -0.23043984 -153.13518 -0.22956507 -153.14635 -26.169632 -102.72741
22990000000 -24.741167 -49.240276 -0.23234692 -153.32898 -0.23225436 -153.34866 -25.159821 -104.47421
23020000000 -24.738472 -50.308369 -0.23035112 -153.54025 -0.23019063 -153.54094 -25.392387 -100.25386
23050000000 -24.843012 -51.691063 -0.22931154 -153.73801 -0.22945619 -153.72913 -26.041214 -107.49827
23080000000 -24.914557 -50.071335 -0.22969225 -153.94452 -0.22918384 -153.96432 -25.402037 -105.54987
23110000000 -24.982979 -49.981842 -0.23075294 -154.16164 -0.23076469 -154.16689 -25.348316 -99.911469
23140000000 -24.917725 -51.05566 -0.22889404 -154.33498 -0.2292908 -154.34618 -25.849701 -108.36375
23170000000 -24.86035 -51.444752 -0.22988576 -154.53954 -0.22893006 -154.55345 -25.281605 -107.76257
23200000000 -25.104574 -51.536148 -0.23008664 -154.7576 -0.23013794 -154.75891 -25.689259 -101.60155
23230000000 -25.14761 -51.115837 -0.23053701 -154.94243 -0.22936557 -154.94887 -25.998617 -107.58035
23260000000 -24.857697 -51.219563 -0.23063475 -155.12268 -0.23175628 -155.12123 -24.833817 -109.05306
23290000000 -25.039757 -52.502293 -0.22962348 -155.34874 -0.23007736 -155.33919 -25.877064 -105.52917
23320000000 -25.216112 -51.844151 -0.22895843 -155.55444 -0.2303331 -155.54774 -26.066261 -106.91008
23350000000 -25.009663 -50.473083 -0.23219755 -155.73537 -0.23042537 -155.73448 -25.080349 -110.22918
23380000000 -25.076786 -52.255154 -0.231436 -155.929 -0.22966141 -155.93704 -25.524818 -106.42994
23410000000 -25.267418 -53.347275 -0.22596414 -156.13454 -0.22680737 -156.14664 -26.329472 -111.11349
23440000000 -25.185104 -52.391735 -0.22890931 -156.32574 -0.22986147 -156.3309 -25.192167 -110.54218
23470000000 -25.165255 -53.041721 -0.22977768 -156.5164 -0.22883183 -156.52332 -25.704323 -105.20908
23500000000 -25.180229 -53.532242 -0.22665545 -156.71736 -0.22736351 -156.72206 -26.108351 -114.99947
23530000000 -25.223999 -53.369808 -0.22677381 -156.92239 -0.22762237 -156.92186 -25.437572 -112.70969
23560000000 -25.397541 -53.97401 -0.2273957 -157.13161 -0.22679891 -157.13457 -25.995096 -106.59791
23590000000 -25.343134 -53.752197 -0.22508755 -157.341 -0.22605413 -157.33081 -26.056997 -114.14182
23620000000 -25.134264 -54.115517 -0.22479093 -157.51169 -0.226578 -157.51785 -25.55245 -114.82899
23650000000 -25.505659 -55.498619 -0.22469662 -157.72391 -0.22542153 -157.74617 -26.284172 -108.92836
23680000000 -25.52334 -55.457142 -0.22319183 -157.93784 -0.22519279 -157.94496 -26.489349 -114.68804
23710000000 -25.246632 -54.137135 -0.22729641 -158.11566 -0.22500113 -158.1179 -25.715937 -113.01124
23740000000 -25.467625 -56.141342 -0.22546189 -158.32803 -0.22493652 -158.32909 -26.32011 -112.88436
23770000000 -25.663544 -56.645325 -0.22254248 -158.54196 -0.22182049 -158.54593 -27.0828 -116.72272
23800000000 -25.558321 -55.142063 -0.22309099 -158.72894 -0.22395356 -158.72717 -26.046473 -115.24352
23830000000 -25.61965 -56.798969 -0.22176737 -158.91919 -0.22338422 -158.92067 -26.38413 -109.96058
23860000000 -25.652205 -57.655842 -0.21876878 -159.1393 -0.21786778 -159.1429 -27.127165 -122.54515
23890000000 -25.73485 -56.829441 -0.22158377 -159.34937 -0.22078703 -159.33418 -26.469856 -114.44705
23920000000 -25.916624 -57.244774 -0.22240107 -159.5547 -0.2228324 -159.53983 -27.376249 -112.28902
23950000000 -25.763939 -57.097939 -0.21851614 -159.75824 -0.21933424 -159.74115 -26.668995 -120.26869
23980000000 -25.837141 -57.67123 -0.22111987 -159.9604 -0.22095808 -159.95013 -27.187277 -118.37321
24010000000 -26.02368 -58.340641 -0.2210387 -160.15086 -0.22001415 -160.14731 -27.326487 -114.14924
24040000000 -25.958015 -57.992294 -0.21726657 -160.35649 -0.22038315 -160.35136 -27.585835 -118.60591
24070000000 -25.736086 -57.885418 -0.21765004 -160.52858 -0.21953927 -160.52435 -26.953899 -118.83447
24100000000 -25.965612 -59.600075 -0.21955723 -160.74843 -0.21860325 -160.74016 -27.810167 -116.88011
24130000000 -26.028906 -59.849487 -0.21873148 -160.94943 -0.21702002 -160.95549 -28.105026 -118.26009
24160000000 -25.93889 -58.514725 -0.21655254 -161.13741 -0.21739149 -161.14917 -27.397364 -119.55103
24190000000 -26.007481 -60.557598 -0.21788003 -161.35233 -0.21838059 -161.33865 -28.052225 -113.20975
24220000000 -26.134111 -60.87923 -0.21511857 -161.57257 -0.216589 -161.57176 -28.63872 -122.49517
24250000000 -26.116526 -59.288685 -0.21630332 -161.75383 -0.21584842 -161.74814 -27.862066 -119.72834
24280000000 -26.236591 -60.248528 -0.21767236 -161.95454 -0.219099 -161.95142 -28.78437 -110.42482
24310000000 -26.083879 -60.661655 -0.21479571 -162.17848 -0.21638928 -162.16881 -28.530355 -123.35721
24340000000 -26.158482 -60.418316 -0.21779048 -162.35402 -0.21761765 -162.37181 -28.496956 -119.47136
24370000000 -26.362936 -61.310154 -0.22046621 -162.55042 -0.21748565 -162.55492 -29.62668 -113.50037
24400000000 -26.177593 -61.301174 -0.21597764 -162.75233 -0.21671771 -162.7623 -29.212646 -117.31037
24430000000 -26.036934 -60.663986 -0.21338271 -162.95395 -0.21574967 -162.94913 -28.582952 -121.74106
24460000000 -26.334459 -62.188908 -0.21735965 -163.15005 -0.22007079 -163.14693 -29.679922 -113.06148
24490000000 -26.347609 -61.482841 -0.21355727 -163.35638 -0.21597764 -163.33862 -30.146996 -116.11275
24520000000 -26.221037 -61.227509 -0.21312849 -163.53639 -0.21333078 -163.54614 -28.773554 -119.56545
24550000000 -26.177851 -63.794815 -0.21404456 -163.75443 -0.21239612 -163.7485 -29.98131 -110.98622
24580000000 -26.401957 -63.403839 -0.21259129 -163.95416 -0.21410955 -163.96759 -30.313448 -121.70264
24610000000 -26.287321 -61.864254 -0.21282427 -164.14703 -0.21280389 -164.14223 -29.78454 -114.16473
24640000000 -26.247423 -63.701725 -0.21169348 -164.34161 -0.21121189 -164.34503 -29.882851 -110.11353
24670000000 -26.322466 -64.376495 -0.21053526 -164.57629 -0.21170652 -164.56787 -30.872616 -118.49843
24700000000 -26.38368 -63.853443 -0.21226862 -164.75815 -0.21143664 -164.77022 -30.177481 -116.09497
24730000000 -26.445791 -63.962067 -0.2116701 -164.93475 -0.21040782 -164.92757 -30.632839 -107.82401
24760000000 -26.201899 -64.593697 -0.21001631 -165.14417 -0.20959224 -165.15732 -30.647657 -113.05144
24790000000 -26.30792 -64.592072 -0.20707767 -165.36234 -0.20682356 -165.35852 -30.217449 -118.68354
24820000000 -26.510187 -66.569664 -0.21061787 -165.52211 -0.20910083 -165.55026 -30.968477 -104.34435
24850000000 -26.302158 -65.458405 -0.20639192 -165.74126 -0.20539904 -165.74892 -31.146944 -110.87418
24880000000 -26.174902 -65.827034 -0.20325309 -165.95212 -0.2037479 -165.96219 -30.158922 -114.93971
24910000000 -26.403234 -67.998459 -0.20425145 -166.13637 -0.20406859 -166.16112 -31.188581 -106.1649
24940000000 -26.582438 -67.140526 -0.20485301 -166.35942 -0.20433773 -166.36137 -32.085384 -111.21116
24970000000 -26.37468 -66.268959 -0.2011825 -166.56242 -0.20084114 -166.5582 -30.062593 -111.6433
25000000000 -26.421267 -68.603172 -0.20098783 -166.76498 -0.20008916 -166.78275 -31.599497 -105.10812
25030000000 -26.56654 -69.084976 -0.19978611 -167.00183 -0.20082271 -166.99445 -31.850544 -111.2052
25060000000 -26.691805 -68.493584 -0.19930314 -167.19566 -0.20040685 -167.18852 -31.190773 -108.37939
25090000000 -26.615366 -69.318588 -0.19916953 -167.38206 -0.20009132 -167.39807 -31.639761 -105.31111
25120000000 -26.538843 -69.442268 -0.19857199 -167.61653 -0.19847499 -167.61967 -31.848978 -107.43187
25150000000 -26.782146 -69.73008 -0.1983452 -167.82288 -0.20078801 -167.84361 -31.395849 -112.92921
25180000000 -26.807323 -70.235672 -0.19936275 -168.02463 -0.19938579 -168.02921 -31.626081 -100.85049
25210000000 -26.680737 -68.608803 -0.19784749 -168.22697 -0.19981511 -168.24153 -32.518307 -108.74413
25240000000 -26.698305 -70.394157 -0.19704291 -168.44807 -0.197715 -168.44984 -30.700808 -106.5521
25270000000 -26.896711 -71.630959 -0.1999642 -168.65605 -0.20049116 -168.65855 -32.974907 -106.91315
25300000000 -27.046841 -69.369301 -0.20081457 -168.84911 -0.20176601 -168.8645 -32.200108 -101.5257
25330000000 -26.826315 -69.383049 -0.20021276 -169.05583 -0.19976172 -169.06165 -31.526279 -108.86403
25360000000 -26.861984 -71.752571 -0.20216601 -169.26691 -0.20322515 -169.26273 -31.865931 -103.36815
25390000000 -26.912819 -71.688606 -0.20433258 -169.45621 -0.2027624 -169.46661 -32.791935 -103.44069
25420000000 -27.000486 -70.33963 -0.20165484 -169.65247 -0.20258312 -169.66772 -31.93141 -106.60065
25450000000 -26.822268 -70.697906 -0.20046324 -169.84813 -0.20224872 -169.85858 -31.238567 -98.381004
25480000000 -26.820919 -70.910423 -0.20286818 -170.05502 -0.20369689 -170.06609 -33.622192 -109.52995
25510000000 -27.050684 -71.677811 -0.20215489 -170.26714 -0.20232846 -170.28561 -31.343351 -106.85867
25540000000 -27.051046 -71.411934 -0.20335102 -170.4346 -0.20348421 -170.45436 -32.286335 -95.327568
25570000000 -26.936035 -70.029121 -0.20458084 -170.65889 -0.20258448 -170.67503 -32.949657 -110.15312
25600000000 -26.958235 -72.851852 -0.20267072 -170.85948 -0.20198946 -170.87259 -31.454185 -105.26122
25630000000 -27.207272 -73.751602 -0.20480987 -171.06732 -0.20517378 -171.05899 -32.845188 -99.883636
25660000000 -27.131571 -71.36235 -0.20313998 -171.26845 -0.20295064 -171.26501 -32.397266 -103.05589
25690000000 -27.038996 -71.447884 -0.20367844 -171.45755 -0.20337325 -171.46806 -32.502083 -106.12148
25720000000 -26.919367 -74.104332 -0.20501395 -171.65947 -0.20426719 -171.66515 -31.939413 -102.93069
25750000000 -27.234594 -72.802979 -0.20248386 -171.8645 -0.20307948 -171.86099 -33.019665 -101.94687
25780000000 -27.16535 -71.012421 -0.20454313 -172.06003 -0.20165022 -172.07399 -32.996822 -113.74163
25810000000 -26.960554 -72.870178 -0.20074111 -172.24719 -0.20048113 -172.25267 -31.157528 -98.354355
25840000000 -27.13352 -73.825569 -0.20268564 -172.46904 -0.20347852 -172.45537 -34.298229 -111.62956
25870000000 -27.388578 -73.487282 -0.20272063 -172.67664 -0.20310064 -172.68202 -32.022827 -112.62589
25900000000 -27.294384 -73.378639 -0.20038624 -172.85876 -0.20279197 -172.87428 -32.886738 -96.654564
25930000000 -27.182085 -72.899986 -0.20200492 -173.07813 -0.20140809 -173.09074 -33.195648 -111.44132
25960000000 -27.171942 -74.942596 -0.19979696 -173.278 -0.20100111 -173.28917 -32.168812 -112.39872
25990000000 -27.493252 -75.218269 -0.20358947 -173.49469 -0.20155938 -173.49939 -34.194038 -107.17037
26020000000 -27.37899 -72.432541 -0.19996962 -173.68719 -0.19965683 -173.70682 -33.35989 -101.51151
26050000000 -27.253508 -72.72538 -0.20417982 -173.91185 -0.20396358 -173.91643 -33.280918 -120.54843
26080000000 -27.506647 -74.754974 -0.20333637 -174.1255 -0.20039546 -174.12595 -33.040321 -105.50147
26110000000 -27.810623 -73.65834 -0.20347282 -174.32343 -0.20591825 -174.32399 -36.408932 -108.97672
26140000000 -27.421108 -71.416199 -0.20916602 -174.55344 -0.2075064 -174.54881 -33.207111 -112.72721
26170000000 -27.446341 -73.53273 -0.20779748 -174.71339 -0.20770516 -174.73589 -32.992779 -104.93067
26200000000 -27.474281 -73.232155 -0.21027714 -174.91154 -0.20920187 -174.92245 -37.249359 -118.52168
26230000000 -27.702335 -72.264175 -0.20935997 -175.11189 -0.21223085 -175.1245 -33.732285 -109.29733
26260000000 -27.372648 -72.898392 -0.21279083 -175.31134 -0.21399125 -175.29623 -33.728271 -100.30787
26290000000 -27.428993 -72.986412 -0.21301486 -175.48872 -0.21284603 -175.48744 -35.830276 -114.93847
26320000000 -27.57336 -73.971687 -0.21069096 -175.69687 -0.20973539 -175.68779 -34.138432 -111.58983
26350000000 -27.566864 -73.623367 -0.21156493 -175.88937 -0.21227759 -175.87798 -35.144142 -100.27845
26380000000 -27.438015 -71.784874 -0.21170136 -176.08748 -0.21378377 -176.0842 -35.271816 -107.70086
26410000000 -27.458887 -73.608299 -0.21254453 -176.28668 -0.21106894 -176.26717 -34.655525 -116.33015
26440000000 -27.521555 -74.400787 -0.21085998 -176.47208 -0.21104069 -176.47012 -35.36153 -103.5901
26470000000 -27.724203 -72.769211 -0.21257608 -176.68765 -0.21269079 -176.67482 -37.356331 -99.593987
26500000000 -27.34762 -72.170372 -0.21249452 -176.86685 -0.21303633 -176.84908 -34.902225 -117.38086
26530000000 -27.52565 -74.369308 -0.21240699 -177.045 -0.20866325 -177.05702 -33.528408 -107.15858
26560000000 -27.937824 -74.204369 -0.20836723 -177.19751 -0.20639001 -177.19817 -40.260071 -101.60083
26590000000 -27.499315 -73.355835 -0.20750396 -177.43668 -0.20842779 -177.41237 -33.023262 -112.55045
26620000000 -27.471548 -75.079659 -0.20706953 -177.5954 -0.2072327 -177.62395 -35.399307 -100.46411
26650000000 -27.497641 -76.312782 -0.20193279 -177.77359 -0.20459631 -177.84413 -37.806808 -116.98015
26680000000 -27.562996 -75.423386 -0.20144793 -178.02242 -0.2012904 -178.0481 -35.492241 -118.8771
26710000000 -27.608025 -76.019524 -0.19452883 -178.22052 -0.1987503 -178.26491 -36.589252 -95.3657
26740000000 -27.547056 -76.456551 -0.19804418 -178.40884 -0.20114671 -178.42966 -36.967983 -116.56049
26770000000 -27.802994 -77.262863 -0.19452801 -178.6501 -0.19581521 -178.64333 -36.626289 -119.21876
26800000000 -27.829185 -76.003235 -0.2009656 -178.83813 -0.19198076 -178.86743 -36.694817 -105.4043
26830000000 -27.873171 -76.410271 -0.20033637 -179.03323 -0.19173835 -179.08861 -39.026051 -99.483109
26860000000 -27.640213 -76.595459 -0.19453615 -179.25963 -0.196281 -179.2706 -36.004246 -123.55401
26890000000 -27.988392 -77.025017 -0.19831783 -179.50204 -0.19429007 -179.5029 -38.890907 -95.710388
26920000000 -28.090532 -77.894905 -0.19605243 -179.67822 -0.19255033 -179.69011 -42.346268 -102.61221
26950000000 -27.912533 -75.753448 -0.19696842 -179.89368 -0.19335029 -179.8927 -36.747208 -115.17446
26980000000 -28.015821 -77.734428 -0.19575644 179.86093 -0.19349103 179.90048 -38.439663 -98.22126
27010000000 -28.258326 -77.380867 -0.19361958 179.6812 -0.19312295 179.70207 -44.490479 -106.7139
27040000000 -28.08993 -76.120033 -0.19337004 179.48569 -0.19377983 179.48907 -37.781132 -107.06475
27070000000 -28.549229 -76.513504 -0.19544098 179.26962 -0.19858202 179.26524 -39.23064 -79.535583
27100000000 -28.192911 -76.870506 -0.19404212 179.10992 -0.19073719 179.10872 -41.234676 -100.84327
27130000000 -28.332958 -76.541672 -0.19202216 178.89755 -0.19279172 178.868 -40.036797 -112.89806
27160000000 -28.552135 -78.583656 -0.19798593 178.65089 -0.19328722 178.66978 -39.114574 -62.860252
27190000000 -28.488361 -77.31237 -0.19670351 178.4592 -0.19003209 178.4442 -42.510338 -89.177269
27220000000 -28.378428 -78.390167 -0.18633895 178.24561 -0.18851493 178.20761 -41.811874 -106.63445
27250000000 -28.737183 -79.301796 -0.19076964 178.02873 -0.19470616 178.02162 -40.226246 -52.247196
27280000000 -28.695002 -78.39846 -0.19361986 177.84253 -0.19102147 177.82875 -42.996983 -82.548767
27310000000 -28.698862 -77.603531 -0.19140074 177.60471 -0.19110993 177.60144 -42.061909 -62.808666
27340000000 -29.097101 -78.172905 -0.19963135 177.39513 -0.19745059 177.38095 -40.15662 -67.970528
27370000000 -29.145338 -79.386681 -0.19752942 177.1908 -0.19530965 177.19504 -42.529831 -33.565933
27400000000 -28.902784 -76.504822 -0.19746901 176.98547 -0.19878335 176.97438 -40.961437 -63.768291
27430000000 -28.99337 -79.378784 -0.19949014 176.77452 -0.20225848 176.80307 -38.499882 -38.15406
27460000000 -29.064615 -78.141388 -0.19813114 176.58018 -0.20329486 176.58455 -43.894855 -39.063858
27490000000 -29.036125 -76.031616 -0.206238 176.38687 -0.2019873 176.4017 -40.154751 -53.62822
27520000000 -29.31492 -77.504799 -0.20384936 176.16644 -0.20639707 176.18787 -37.68787 -34.670219
27550000000 -29.239861 -78.952606 -0.20514664 176.01883 -0.20764868 175.95799 -40.678761 -35.794842
27580000000 -29.343843 -79.907257 -0.20255682 175.79105 -0.20459062 175.75266 -37.629543 -41.302513
27610000000 -29.68078 -79.12706 -0.2089221 175.58708 -0.20494826 175.54926 -38.312271 -31.898165
27640000000 -29.505245 -77.490051 -0.20593643 175.36633 -0.20448263 175.38638 -38.358974 -26.618818
27670000000 -29.424097 -76.227791 -0.20868798 175.18166 -0.20204261 175.19051 -37.032242 -43.632446
27700000000 -29.770557 -81.08522 -0.21189353 175.00131 -0.20465738 174.9868 -36.091412 -31.213924
27730000000 -29.903391 -78.700073 -0.21251191 174.76512 -0.21028203 174.76709 -38.007755 -8.203474
27760000000 -29.855999 -75.743095 -0.21100563 174.59613 -0.20782383 174.63672 -34.689991 -36.172619
27790000000 -29.624588 -81.255699 -0.21384278 174.35919 -0.20977779 174.40648 -36.375237 -28.32107
27820000000 -29.960743 -78.713287 -0.21914393 174.19431 -0.21105808 174.19893 -36.095242 -25.59133
27850000000 -29.90539 -78.68956 -0.21239394 174.00768 -0.21340746 174.06047 -36.27206 -30.4683
27880000000 -29.826241 -79.234245 -0.20940615 173.83113 -0.21644779 173.8242 -33.845673 -21.358715
27910000000 -29.941013 -82.637985 -0.20699812 173.61784 -0.21024372 173.59877 -36.00869 -35.102779
27940000000 -30.640606 -80.662514 -0.21164103 173.41182 -0.21017987 173.44693 -34.208641 -30.412397
27970000000 -30.820993 -81.441093 -0.21323344 173.2084 -0.21204872 173.2653 -34.608341 -27.275051
28000000000 -30.136097 -80.991562 -0.21026573 173.032 -0.20746186 172.99066 -34.157059 -25.255672
28030000000 -30.40279 -79.767143 -0.208443 172.83231 -0.21193783 172.81715 -34.534714 -39.651279
28060000000 -30.858803 -83.598274 -0.21334547 172.63132 -0.21628508 172.61351 -34.190323 -21.43656
28090000000 -30.387861 -83.564354 -0.20901147 172.45328 -0.21195658 172.42468 -34.008793 -25.326376
28120000000 -30.421684 -80.166519 -0.20434751 172.2639 -0.20853317 172.31393 -33.266869 -34.159916
28150000000 -31.076342 -85.113464 -0.21089259 172.03613 -0.20839655 172.0806 -33.394257 -23.997522
28180000000 -30.753298 -84.361183 -0.21052739 171.86246 -0.20440312 171.82819 -34.546265 -27.122482
28210000000 -30.69507 -82.113579 -0.20640847 171.66899 -0.20764677 171.6691 -33.112473 -28.41786
28240000000 -30.683842 -84.342026 -0.1992465 171.46945 -0.20141865 171.46104 -32.894112 -25.565462
28270000000 -30.84494 -83.595055 -0.20540012 171.26382 -0.20602491 171.2581 -34.915909 -32.692471
28300000000 -31.54851 -83.663216 -0.20809565 171.12125 -0.20587237 171.07999 -33.376888 -27.728643
28330000000 -31.573301 -87.832901 -0.19824603 170.8914 -0.20420451 170.91634 -32.858875 -21.768896
28360000000 -30.793192 -83.364693 -0.19895463 170.60184 -0.19432905 170.68112 -34.45459 -32.276943
28390000000 -31.444984 -89.886955 -0.20339903 170.49788 -0.20386836 170.46101 -32.886173 -22.753157
28420000000 -32.119308 -92.767212 -0.20380975 170.23672 -0.20455615 170.27631 -33.52879 -17.51606
28450000000 -31.295668 -88.863037 -0.19701149 170.07852 -0.19651771 170.04501 -33.269402 -30.231773
28480000000 -31.829542 -88.96843 -0.20008291 169.83777 -0.20037214 169.90714 -33.548504 -18.470701
28510000000 -32.004623 -95.0951 -0.20303962 169.63673 -0.19585772 169.66719 -34.086082 -27.174334
28540000000 -32.209255 -91.521645 -0.19800055 169.44978 -0.19292513 169.44627 -32.870567 -13.60992
28570000000 -32.021637 -91.547707 -0.19430198 169.26372 -0.19212092 169.23685 -33.005165 -27.907911
28600000000 -32.242043 -98.294769 -0.19587451 169.034 -0.19337843 169.00883 -32.420181 -19.324881
28630000000 -31.937374 -93.285645 -0.19828233 168.78407 -0.18932605 168.83134 -35.522808 -16.476555
28660000000 -33.235592 -93.865364 -0.19193396 168.67073 -0.19084728 168.61604 -30.662941 -22.701391
28690000000 -32.97126 -96.425339 -0.19509223 168.43114 -0.1944885 168.42728 -34.610992 -14.780948
28720000000 -32.257023 -94.169052 -0.19569416 168.14688 -0.19351673 168.21689 -33.297058 -22.881021
28750000000 -32.972061 -99.321083 -0.19596225 168.03668 -0.19459867 168.04585 -32.839554 -14.911986
28780000000 -32.868137 -96.878654 -0.19824196 167.81966 -0.19313134 167.80919 -33.708405 -19.049862
28810000000 -32.704758 -92.199738 -0.19288914 167.61821 -0.19045697 167.55928 -33.115765 -24.698477
28840000000 -33.204445 -96.670685 -0.18961971 167.39087 -0.19378145 167.3929 -32.869728 -10.801313
28870000000 -32.946857 -101.71222 -0.19227813 167.17366 -0.19323878 167.2179 -33.950634 -12.275089
28900000000 -33.513145 -95.317352 -0.19127819 166.96519 -0.19131336 166.95071 -32.559612 -19.764416
28930000000 -33.620708 -102.2841 -0.19573966 166.73839 -0.19283907 166.78661 -32.940125 -13.475438
28960000000 -32.524536 -102.77503 -0.19163771 166.54335 -0.18886748 166.5304 -33.255272 -7.6442189
28990000000 -33.601421 -97.100121 -0.18598147 166.34764 -0.19396956 166.34119 -32.492886 -14.986717
29020000000 -34.43927 -100.39785 -0.19954163 166.12219 -0.18894562 166.16611 -32.773666 -9.021904
29050000000 -33.169502 -97.449684 -0.20500742 165.92506 -0.19294082 165.94919 -33.839554 -9.1701546
29080000000 -33.412441 -96.279602 -0.19140695 165.73535 -0.19714828 165.70029 -32.55455 -19.466192
29110000000 -34.560699 -108.28374 -0.19228408 165.54614 -0.19447172 165.57776 -30.742668 0.44728366
29140000000 -33.694912 -104.13388 -0.20055486 165.36882 -0.19308831 165.33414 -33.95517 -14.629181
29170000000 -33.223381 -98.100906 -0.19309318 165.09247 -0.19724959 165.14172 -32.259048 -11.611903
29200000000 -34.075356 -101.48647 -0.18948638 164.90326 -0.19223754 164.93353 -32.42342 -4.4862933
29230000000 -32.997974 -107.16429 -0.19456728 164.74979 -0.19433798 164.75467 -33.5037 -0.83258349
29260000000 -33.286324 -97.117058 -0.19120054 164.45743 -0.19620165 164.5024 -31.775967 -14.171775
29290000000 -34.025967 -105.81087 -0.19739641 164.34723 -0.19557068 164.27124 -32.309666 3.445703
29320000000 -32.907806 -106.52509 -0.19690476 164.1161 -0.19832027 164.0713 -32.839249 -5.2817845
29350000000 -33.418922 -102.04184 -0.19702937 163.88741 -0.19605406 163.88571 -31.243633 -12.16817
29380000000 -35.095181 -101.13997 -0.19497932 163.70905 -0.19487157 163.67691 -30.835588 5.5133438
29410000000 -33.208126 -101.30815 -0.20583953 163.43887 -0.20263438 163.49818 -33.051147 -12.657448
29440000000 -33.850742 -96.432503 -0.20298672 163.26445 -0.20161118 163.27498 -30.72706 -3.0608497
29470000000 -34.356625 -104.88108 -0.20454124 163.08133 -0.20223083 163.09105 -30.966082 -4.2597246
29500000000 -33.214306 -100.15658 -0.20886751 162.89647 -0.21138501 162.87703 -32.276054 -1.634999
29530000000 -33.44648 -98.046402 -0.20957892 162.66318 -0.21280797 162.64879 -30.365147 -10.153637
29560000000 -34.182579 -105.31385 -0.20774209 162.48329 -0.20737742 162.48895 -31.07303 3.095871
29590000000 -32.67366 -101.88798 -0.21511531 162.3418 -0.21148475 162.32843 -31.870024 -7.3986506
29620000000 -33.282543 -98.566566 -0.21637923 162.11916 -0.21200116 162.10428 -29.497232 -7.1068487
29650000000 -33.624329 -104.30322 -0.20478898 161.93587 -0.21198513 161.98074 -31.339041 -0.70640922
29680000000 -32.338024 -102.56924 -0.20886642 161.76613 -0.20389603 161.78616 -31.45509 -10.812655
29710000000 -32.916965 -95.92942 -0.20865348 161.51988 -0.20848101 161.52057 -30.175829 -5.9333301
29740000000 -33.369106 -109.60326 -0.20235096 161.35699 -0.20876919 161.32796 -30.316299 -6.3303671
29770000000 -32.279587 -103.77403 -0.2089767 161.1825 -0.19995524 161.20088 -31.248602 -7.7117338
29800000000 -33.125027 -99.138596 -0.20241469 160.94438 -0.20335183 160.9478 -30.530338 -7.6023412
29830000000 -33.134956 -109.81012 -0.19512013 160.72835 -0.19935733 160.71741 -29.894821 -4.592237
29860000000 -32.427139 -103.3531 -0.20385614 160.54469 -0.19622901 160.54817 -31.072046 -12.086936
29890000000 -33.211231 -103.66599 -0.20121421 160.29189 -0.20040631 160.35997 -29.263811 -7.0558257
29920000000 -33.072983 -110.74304 -0.1961112 160.10977 -0.19545208 160.09053 -30.119526 -1.2612398
29950000000 -32.339706 -103.57917 -0.19426787 159.92184 -0.19568495 159.92978 -30.391706 -10.652298
29980000000 -33.199692 -100.43501 -0.20859998 159.69127 -0.20097834 159.71025 -28.432415 -6.1939139
30010000000 -33.285633 -109.80687 -0.19358684 159.50925 -0.19046915 159.48895 -30.404535 -3.1249037
30040000000 -32.44199 -106.36491 -0.19803226 159.33427 -0.19473864 159.33011 -30.345036 -9.2072325
30070000000 -33.225628 -101.08509 -0.1966989 159.10493 -0.19405347 159.10483 -28.247234 -5.4140487
30100000000 -33.807369 -108.31436 -0.19571663 158.84869 -0.19940178 158.87936 -29.235357 -4.5304251
30130000000 -32.817394 -103.21262 -0.18955021 158.67674 -0.19594654 158.67993 -29.899742 -12.584813
30160000000 -34.663078 -101.85286 -0.20240413 158.44629 -0.20503673 158.47794 -28.677073 -3.6789317
30190000000 -34.124676 -106.79133 -0.19737501 158.28075 -0.19634546 158.25279 -28.204605 -1.7610584
30220000000 -32.925732 -104.02094 -0.19113211 158.09946 -0.19647762 158.04202 -29.336718 -11.216819
30250000000 -34.644695 -101.56077 -0.19754352 157.9037 -0.20396331 157.86807 -27.586981 -7.9416018
30280000000 -34.548111 -112.08696 -0.19768818 157.64589 -0.19601777 157.59055 -28.732246 1.2125671
30310000000 -33.618076 -100.45428 -0.18877988 157.45947 -0.19257225 157.44238 -27.606201 -9.6500502
30340000000 -35.120377 -102.43344 -0.20265825 157.26407 -0.19576889 157.26657 -27.806784 -11.656047
30370000000 -35.060162 -108.28085 -0.20154122 157.01596 -0.19972539 157.00972 -28.071419 -0.40020102
30400000000 -33.997818 -97.048683 -0.19089705 156.84521 -0.19916925 156.8795 -28.153883 -8.8559284
30430000000 -36.268875 -102.50642 -0.2003136 156.62949 -0.2012538 156.65355 -26.456444 -11.770563
30460000000 -35.003334 -107.79337 -0.19474758 156.37584 -0.19958717 156.39247 -27.869501 -0.010287054
30490000000 -35.311943 -97.4674 -0.2025636 156.17609 -0.1905465 156.23904 -27.59597 -16.840315
30520000000 -37.614864 -96.959564 -0.2031633 156.00668 -0.20870019 156.04071 -26.40074 -2.4856443
30550000000 -36.87838 -101.17987 -0.20030817 155.75812 -0.20713414 155.81468 -26.911667 -7.0251646
30580000000 -35.533325 -95.153389 -0.20429432 155.58469 -0.19838881 155.62909 -27.045633 -16.301777
30610000000 -38.224255 -94.137863 -0.20559797 155.40691 -0.20929967 155.41286 -26.927437 -8.2020407
30640000000 -36.479267 -100.76735 -0.21299691 155.22507 -0.20659144 155.22064 -26.543694 -3.7406492
30670000000 -35.001698 -90.277771 -0.20086582 155.01537 -0.19800977 155.04617 -26.410654 -16.90295
30700000000 -39.38615 -91.370445 -0.21354204 154.821 -0.20797969 154.81273 -26.02544 -11.023355
30730000000 -37.213558 -98.20816 -0.21510361 154.62721 -0.20550461 154.60725 -27.01074 -8.4896069
30760000000 -36.31971 -81.35498 -0.20515993 154.42659 -0.19453099 154.4407 -25.969011 -9.9508152
30790000000 -39.69973 -85.069839 -0.20376417 154.22777 -0.2004177 154.32712 -25.212605 -18.651815
30820000000 -37.387955 -102.67413 -0.20917526 154.0249 -0.21631719 154.03259 -27.060595 0.55265361
30850000000 -36.621674 -89.242805 -0.20135278 153.79958 -0.20493144 153.8549 -25.455353 -18.488197
30880000000 -41.128384 -80.285202 -0.21085563 153.74683 -0.210288 153.67799 -25.532887 -7.047246
30910000000 -38.583542 -100.51023 -0.21850635 153.43738 -0.2096099 153.38412 -26.602066 -15.386587
30940000000 -38.386158 -84.016624 -0.20779395 153.23247 -0.20827271 153.21165 -26.028215 -11.36752
30970000000 -42.045128 -80.916893 -0.21090889 153.1076 -0.21307656 153.10097 -25.323172 -12.289705
31000000000 -40.909481 -87.057144 -0.21494585 152.82242 -0.20234554 152.92603 -26.437458 -12.168145
31030000000 -40.670414 -77.091141 -0.20078936 152.71413 -0.19872022 152.6562 -25.394024 -11.898386
31060000000 -45.369312 -95.269867 -0.20103039 152.48061 -0.20926191 152.47527 -25.004114 -15.341952
31090000000 -42.613007 -91.642876 -0.21721187 152.23351 -0.20874311 152.23259 -26.33009 -10.543543
31120000000 -39.697342 -76.622185 -0.20218255 152.03003 -0.20518681 152.03912 -25.597507 -12.207004
31150000000 -48.508682 -85.81675 -0.20396873 151.9296 -0.19782229 151.91017 -24.53178 -17.876759
31180000000 -42.038067 -95.956055 -0.20832622 151.64102 -0.21471493 151.62654 -26.412735 -6.9337549
31210000000 -42.848495 -79.335281 -0.20518219 151.41415 -0.19823518 151.39023 -25.206408 -19.596842
31240000000 -48.258205 -45.690117 -0.20873089 151.3159 -0.20274939 151.25958 -24.760397 -9.8021145
31270000000 -43.284027 -107.48758 -0.21314454 151.03169 -0.21248391 150.98506 -26.389534 -14.514931
31300000000 -46.817177 -69.649635 -0.2099905 150.88197 -0.20693567 150.87599 -24.706741 -14.9292
31330000000 -65.321663 8.5798492 -0.21191391 150.70816 -0.21447968 150.70479 -25.874714 -12.306802
31360000000 -47.223564 -99.864365 -0.21243091 150.42612 -0.20682845 150.47949 -25.059284 -11.869684
31390000000 -50.267838 -51.212666 -0.20731632 150.20021 -0.19652909 150.20346 -25.766207 -17.988949
31420000000 -54.857357 157.98373 -0.21305455 150.07373 -0.21208461 150.06047 -24.787159 -11.403547
31450000000 -59.819794 -136.47841 -0.20917173 149.80191 -0.21267693 149.82544 -25.375036 -16.924326
31480000000 -49.023243 -55.181301 -0.19989562 149.64775 -0.20629853 149.58115 -25.487425 -10.92063
31510000000 -61.415333 161.95016 -0.20353277 149.44875 -0.20730819 149.46602 -24.427689 -15.947662
31540000000 -51.359711 -147.6848 -0.21383871 149.22803 -0.21050836 149.22258 -25.696177 -12.062431
31570000000 -54.289474 39.345818 -0.19497636 149.07286 -0.21216615 148.96855 -25.24024 -14.880587
31600000000 -51.032299 125.84377 -0.21106432 148.83569 -0.21103552 148.8093 -24.621967 -14.373078
31630000000 -53.377441 -141.9971 -0.21006984 148.59749 -0.21351676 148.60176 -25.27286 -11.683933
31660000000 -62.162498 61.008869 -0.20698944 148.40781 -0.21175843 148.40742 -25.254961 -18.82972
31690000000 -47.499481 134.55276 -0.21318722 148.21227 -0.21096922 148.27182 -24.871939 -8.3187304
31720000000 -50.857224 175.86531 -0.20257336 148.00241 -0.20408893 148.01717 -24.631041 -16.66861
31750000000 -54.469471 157.05576 -0.2137506 147.76219 -0.21697159 147.84366 -25.360428 -13.720565
31780000000 -46.21685 138.22278 -0.20873822 147.62691 -0.20932765 147.62193 -24.627228 -13.803806
31810000000 -45.386368 172.48251 -0.20645408 147.34915 -0.22134323 147.40456 -24.654066 -12.915003
31840000000 -49.414894 116.5126 -0.21632425 147.16893 -0.21171631 147.14874 -25.642986 -17.049484
31870000000 -45.431046 129.74608 -0.20832676 146.99869 -0.21187422 147.01334 -24.105597 -14.044399
31900000000 -47.679516 134.11806 -0.22124082 146.82822 -0.21135348 146.81398 -25.228672 -12.695064
31930000000 -45.210121 119.92565 -0.20790394 146.54103 -0.21134207 146.60789 -25.020409 -18.475628
31960000000 -43.380772 132.67665 -0.20985901 146.40565 -0.2030746 146.42107 -24.377426 -11.353697
31990000000 -44.313023 152.83859 -0.21868928 146.18466 -0.22280079 146.15845 -24.794073 -17.765532
32020000000 -43.572563 118.41282 -0.218116 145.9398 -0.21837895 145.95341 -24.936628 -14.008831
32050000000 -40.500168 130.9593 -0.21466516 145.77269 -0.2148841 145.80493 -24.848761 -12.861319
32080000000 -43.925419 153.46968 -0.21638031 145.55711 -0.22129038 145.56889 -24.294489 -15.005711
32110000000 -44.844296 129.17554 -0.21996704 145.34599 -0.21429828 145.33807 -25.525057 -16.008488
32140000000 -40.654633 140.28674 -0.22003049 145.12816 -0.20777631 145.23839 -24.205566 -15.533875
32170000000 -42.795883 144.03989 -0.22390586 144.97813 -0.21966396 144.97583 -25.099712 -13.619126
32200000000 -43.138752 143.87073 -0.2225403 144.70178 -0.21738006 144.75737 -24.607819 -15.840556
32230000000 -40.29195 144.09102 -0.20763348 144.53746 -0.21392246 144.53831 -24.056547 -17.850594
32260000000 -41.966431 150.79471 -0.21852486 144.38808 -0.22725986 144.37553 -25.418182 -14.267337
32290000000 -44.206779 133.88994 -0.21619692 144.03781 -0.22058441 144.13797 -23.817465 -16.639099
32320000000 -39.798309 145.46637 -0.22008114 143.91356 -0.22419123 143.96379 -24.445442 -16.47319
32350000000 -41.942963 152.38965 -0.22172923 143.73929 -0.2239939 143.69716 -24.142029 -16.556135
32380000000 -41.101219 137.77495 -0.22121276 143.52798 -0.2191619 143.48647 -24.250935 -14.244137
32410000000 -39.689621 142.81517 -0.22209619 143.3519 -0.22488853 143.32599 -24.245527 -17.740421
32440000000 -42.188534 157.30975 -0.22660635 143.15149 -0.23751268 143.13943 -23.672932 -15.566717
32470000000 -41.876087 137.70818 -0.22070533 142.93608 -0.21842279 142.93527 -25.170492 -17.418026
32500000000 -38.286972 145.52797 -0.23131451 142.75606 -0.2282403 142.7468 -23.85117 -18.687252
32530000000 -41.54269 157.9874 -0.2278589 142.54634 -0.22769304 142.53183 -23.999781 -15.74681
32560000000 -41.127254 138.52037 -0.22776423 142.32471 -0.22580789 142.3313 -24.268084 -20.188473
32590000000 -39.676147 147.22421 -0.22382219 142.10561 -0.22925179 142.18065 -23.966475 -15.937793
32620000000 -40.354111 149.84605 -0.2350136 141.8963 -0.23089762 141.93858 -23.674191 -16.305555
32650000000 -41.037422 131.72345 -0.22878325 141.70953 -0.24218833 141.74699 -23.745646 -18.651915
32680000000 -40.007305 158.75363 -0.2356118 141.54967 -0.22525194 141.58223 -24.212538 -18.071743
32710000000 -41.018539 150.09833 -0.23677289 141.39163 -0.22778332 141.34122 -23.896482 -18.69524
32740000000 -41.92968 144.7951 -0.22908477 141.14717 -0.24262026 141.09061 -23.709759 -11.999674
32770000000 -40.799728 146.49783 -0.22457886 140.96185 -0.2399883 140.95798 -23.469694 -24.474829
32800000000 -42.136528 141.20882 -0.23934273 140.74924 -0.23653507 140.76485 -23.496733 -15.62428
32830000000 -42.658337 133.0743 -0.23678383 140.50108 -0.2371518 140.53766 -24.230074 -15.57182
32860000000 -39.188896 143.59561 -0.23885398 140.32481 -0.24562031 140.39572 -22.839289 -19.821684
32890000000 -42.678242 129.40614 -0.24273852 140.14857 -0.23524123 140.22502 -23.613724 -18.093214
32920000000 -43.250332 135.1458 -0.24431664 139.98647 -0.24650106 140.0043 -23.607777 -15.09777
32950000000 -40.828598 132.60861 -0.2320206 139.76999 -0.23680817 139.80882 -23.176167 -21.551598
32980000000 -42.806141 144.19298 -0.24896455 139.60399 -0.24259618 139.5811 -22.79855 -14.236904
33010000000 -42.867531 105.06602 -0.24231999 139.35855 -0.24543844 139.40479 -23.723551 -15.87412
33040000000 -40.96986 136.90887 -0.23237506 139.20717 -0.23643175 139.19171 -22.903122 -23.272055
33070000000 -44.51516 133.21623 -0.24291919 138.98119 -0.24586493 138.99814 -22.248634 -14.660077
33100000000 -43.494804 119.02862 -0.23852114 138.80728 -0.24815044 138.85274 -23.527176 -17.58494
33130000000 -39.815308 122.735 -0.23799883 138.61934 -0.24375476 138.6646 -22.622248 -24.341705
33160000000 -43.916321 129.65491 -0.24655284 138.43764 -0.2457433 138.45595 -21.820175 -14.9871
33190000000 -42.990807 102.91114 -0.24197814 138.14047 -0.23469938 138.181 -24.369757 -21.564585
33220000000 -39.672485 118.44301 -0.2450725 138.11992 -0.23864311 138.11073 -21.049904 -19.640583
33250000000 -44.147034 104.33509 -0.23256676 137.83304 -0.24238978 137.81528 -22.69556 -20.97328
33280000000 -43.254753 100.16141 -0.24595506 137.6591 -0.24259399 137.66483 -22.638174 -17.787043
33310000000 -40.945564 107.37248 -0.23516035 137.4248 -0.23657116 137.40805 -22.039837 -22.962902
33340000000 -44.24564 83.993141 -0.23583645 137.26581 -0.23960096 137.24149 -21.900299 -17.710264
33370000000 -40.427048 75.307663 -0.24065696 137.099 -0.23496415 136.9968 -22.809572 -19.416826
33400000000 -40.095207 99.845474 -0.23850036 136.81096 -0.23910423 136.88133 -21.703573 -25.559334
33430000000 -40.277428 78.128708 -0.24581699 136.67809 -0.23960423 136.72093 -21.627081 -16.858351
33460000000 -39.396126 77.943535 -0.24732828 136.45465 -0.24230877 136.44806 -22.872364 -22.198786
33490000000 -38.929153 78.289864 -0.23638912 136.39241 -0.24618463 136.38103 -20.898386 -24.491335
33520000000 -40.209541 67.158173 -0.23894723 136.12999 -0.24396177 136.13498 -21.57415 -18.679798
33550000000 -38.843777 62.217361 -0.24228139 135.83107 -0.23421715 135.88159 -22.681929 -21.759819
33580000000 -37.549686 75.358109 -0.23371503 135.80168 -0.23828213 135.83122 -20.535635 -23.572252
33610000000 -38.811325 65.734932 -0.23747222 135.57396 -0.24113908 135.59599 -21.638596 -16.553677
33640000000 -37.601303 60.235622 -0.2302403 135.30879 -0.23486742 135.34164 -21.811125 -24.997997
33670000000 -37.997051 74.487267 -0.23630054 135.12662 -0.23872735 135.10014 -21.369751 -23.139111
33700000000 -36.743824 59.157894 -0.23837292 135.02785 -0.24000691 134.99631 -20.922272 -17.966232
33730000000 -36.58625 61.27026 -0.23242065 134.74422 -0.22618584 134.72769 -21.741104 -26.310503
33760000000 -35.926773 68.928352 -0.23602284 134.60057 -0.23081873 134.50945 -21.325483 -25.928146
33790000000 -36.382046 60.233521 -0.24218862 134.44853 -0.23795399 134.45549 -20.508135 -16.130749
33820000000 -35.706764 59.80838 -0.23167218 134.1364 -0.23576839 134.13615 -21.980154 -26.993406
33850000000 -35.520264 66.979134 -0.22461784 134.03123 -0.22436705 133.968 -20.252304 -26.504362
33880000000 -34.8922 52.441456 -0.23267245 133.82957 -0.23303242 133.80911 -21.149702 -18.025087
33910000000 -35.368427 56.142929 -0.22827794 133.48889 -0.23365985 133.5323 -21.670834 -27.832973
33940000000 -34.096733 61.628551 -0.22171479 133.37631 -0.22980824 133.42529 -20.29637 -27.000914
33970000000 -33.84309 56.29248 -0.24647449 133.26453 -0.23430894 133.26491 -21.159922 -17.76207
34000000000 -34.302811 55.392262 -0.22295992 132.93115 -0.22365321 132.9144 -21.264582 -33.752563
34030000000 -34.218204 63.811295 -0.23261592 132.80521 -0.23182563 132.8033 -20.798334 -23.803345
34060000000 -33.687046 57.872967 -0.22719385 132.60251 -0.22536182 132.6404 -20.36429 -22.40913
34090000000 -33.80872 56.276844 -0.23407125 132.3502 -0.22950803 132.35107 -21.23823 -30.093206
34120000000 -33.432365 57.832676 -0.23290925 132.14032 -0.22956398 132.15477 -20.78706 -30.09757
34150000000 -32.751682 54.462833 -0.22264983 132.07861 -0.22490571 132.16867 -20.167662 -19.228245
34180000000 -33.613907 52.761478 -0.22152956 131.72356 -0.21901979 131.71713 -21.318382 -32.820354
34210000000 -32.007694 65.22271 -0.2092448 131.61342 -0.21880525 131.57249 -19.883789 -34.597622
34240000000 -33.090317 58.077316 -0.22872649 131.57845 -0.23975797 131.54134 -21.129238 -16.382999
34270000000 -32.391205 59.032158 -0.22433951 131.13011 -0.22266127 131.1387 -20.960297 -35.968647
34300000000 -32.88559 63.507912 -0.22008604 130.96756 -0.21408671 131.03075 -19.842007 -29.135857
34330000000 -32.552517 57.265724 -0.22717039 130.9106 -0.2221376 130.93021 -21.113577 -24.726622
34360000000 -31.982569 60.710205 -0.23296605 130.60225 -0.22475687 130.61104 -21.537674 -33.708229
34390000000 -32.03196 66.039635 -0.21160977 130.47694 -0.21527851 130.41953 -19.976574 -29.110891
34420000000 -32.638645 58.675907 -0.214858 130.22781 -0.21718493 130.27525 -20.549175 -26.949549
34450000000 -32.757553 64.275513 -0.22316566 129.96696 -0.23288466 129.998 -21.660963 -38.526272
34480000000 -32.039833 72.783295 -0.22335233 129.83701 -0.22740525 129.88403 -20.155489 -27.504223
34510000000 -32.488529 66.691017 -0.22816445 129.57397 -0.21853657 129.67685 -21.032175 -25.856495
34540000000 -32.381016 67.57959 -0.21147035 129.39348 -0.21631801 129.34752 -21.187578 -35.610703
34570000000 -31.957111 73.735023 -0.22049507 129.17281 -0.21725978 129.25012 -20.488543 -33.236481
34600000000 -31.504034 63.958412 -0.20991172 129.10027 -0.22053538 129.1364 -21.242504 -22.753977
34630000000 -32.020023 66.531799 -0.21155541 128.79254 -0.21925147 128.77631 -21.232239 -38.539455
34660000000 -31.45455 73.568153 -0.21187097 128.6132 -0.21338788 128.60826 -19.841946 -31.60881
34690000000 -32.543907 71.405792 -0.23321952 128.50345 -0.217195 128.44566 -21.994013 -25.148029
34720000000 -31.495966 71.297531 -0.21874128 128.28435 -0.21697649 128.17003 -21.283312 -34.962421
34750000000 -32.374043 72.817101 -0.20976229 127.91788 -0.21817099 127.93824 -19.973206 -35.955147
34780000000 -33.000408 67.491592 -0.21311191 127.89636 -0.21122304 127.86944 -21.79874 -21.803503
34810000000 -31.519939 77.217773 -0.22460093 127.55821 -0.2208396 127.54684 -21.059223 -39.757683
34840000000 -31.032215 80.481453 -0.21876904 127.4059 -0.20312858 127.422 -20.596193 -33.311115
34870000000 -31.279459 70.357414 -0.21110347 127.237 -0.20930158 127.31089 -21.477613 -23.66091
34900000000 -31.801001 72.030434 -0.21793582 126.88983 -0.22740033 127.02939 -21.334644 -42.190529
34930000000 -31.033716 83.322685 -0.2122988 126.8361 -0.22611384 126.7267 -20.512026 -31.027954
34960000000 -31.414928 72.377029 -0.20906009 126.56091 -0.21319103 126.70226 -21.558334 -26.702581
34990000000 -31.445461 78.117889 -0.21985731 126.41697 -0.21615557 126.39033 -21.774551 -40.200706
35020000000 -30.899534 84.07608 -0.22205997 126.16759 -0.21805885 126.24577 -19.703934 -33.323433
35050000000 -32.219833 79.267227 -0.20375659 126.15017 -0.22535364 126.06544 -22.604467 -26.695419
35080000000 -30.46064 81.113945 -0.21344498 125.77813 -0.21870834 125.79595 -21.162357 -39.386379
35110000000 -31.026215 79.491074 -0.22481301 125.61722 -0.21977234 125.57157 -20.316292 -31.283186
35140000000 -32.136116 75.118607 -0.21821101 125.39809 -0.21638711 125.41267 -22.032644 -28.854671
35170000000 -30.823833 82.583336 -0.21505003 125.23045 -0.21430753 125.13937 -21.656034 -38.891399
35200000000 -31.224112 83.028931 -0.2098783 124.97501 -0.21121053 125.00304 -20.463787 -31.538675
35230000000 -32.037788 71.613464 -0.21457297 124.79489 -0.21759996 124.77454 -21.452452 -27.661999
35260000000 -31.375877 81.19117 -0.21497332 124.64773 -0.21027143 124.63767 -21.900717 -41.600708
35290000000 -31.678474 84.231705 -0.21233305 124.41243 -0.20930918 124.35619 -19.8417 -28.467846
35320000000 -32.173615 73.845848 -0.21351376 124.16344 -0.21400295 124.24084 -23.05402 -28.099461
35350000000 -31.647627 74.732765 -0.21908893 123.96634 -0.22959755 123.90866 -20.731964 -35.400654
35380000000 -32.22073 84.191307 -0.22166984 123.78348 -0.21994607 123.73331 -20.427334 -32.4007
35410000000 -32.083374 75.886925 -0.20350483 123.73844 -0.20769647 123.55931 -22.291204 -24.492548
35440000000 -31.238199 79.941666 -0.21778123 123.3608 -0.2080408 123.35348 -20.795517 -36.815228
35470000000 -32.344585 81.734268 -0.22062416 123.14944 -0.22699937 123.14173 -20.202518 -33.002655
35500000000 -32.498428 75.99881 -0.22161072 122.97902 -0.21743938 122.97275 -21.661201 -24.676172
35530000000 -31.184711 81.602829 -0.21702492 122.76541 -0.21177258 122.77345 -21.11866 -37.748894
35560000000 -31.63406 81.713356 -0.2218886 122.49084 -0.21981917 122.47848 -19.996544 -29.087471
35590000000 -32.70647 66.328056 -0.22593687 122.33144 -0.21188836 122.39375 -21.817343 -27.360319
35620000000 -31.943918 79.90377 -0.22027177 122.1603 -0.20333149 122.20814 -20.803299 -40.085018
35650000000 -31.355267 80.244576 -0.221614 122.02036 -0.22540981 121.90927 -19.774273 -27.921909
35680000000 -31.437349 70.07473 -0.22219156 121.72057 -0.22542235 121.72533 -21.263538 -29.186525
35710000000 -31.490826 74.923592 -0.22450034 121.58797 -0.22037934 121.56087 -20.615995 -35.733212
35740000000 -32.832893 79.134384 -0.22322915 121.41956 -0.21099477 121.33767 -19.899916 -28.156395
35770000000 -32.401199 68.178795 -0.2266549 121.09268 -0.21001278 121.12524 -21.055195 -31.113981
35800000000 -31.100191 67.034615 -0.21856351 120.9808 -0.21368317 120.92387 -20.237383 -36.412941
35830000000 -32.545189 65.377441 -0.22157831 120.79372 -0.22586243 120.79948 -19.646635 -29.285355
35860000000 -32.208939 62.492462 -0.22759265 120.59024 -0.20761175 120.53676 -20.693132 -28.848343
35890000000 -31.901318 68.592865 -0.20525086 120.34774 -0.20679559 120.39937 -20.757126 -38.673359
35920000000 -31.969358 59.162655 -0.22779343 120.21577 -0.23044857 120.34174 -18.677776 -29.434746
35950000000 -31.885124 52.563698 -0.2178441 119.93623 -0.21895662 120.00494 -21.587055 -28.620987
35980000000 -32.574657 64.015152 -0.2162459 119.82731 -0.22534792 119.78345 -19.320539 -38.665909
36010000000 -31.634253 63.310631 -0.22982816 119.54006 -0.21698602 119.59286 -19.420954 -31.293192
36040000000 -32.059277 50.39896 -0.22713685 119.34418 -0.22300869 119.45307 -20.661129 -29.792049
36070000000 -31.543861 51.324989 -0.22390504 119.30962 -0.23383905 119.26006 -18.890583 -37.814568
36100000000 -31.257063 52.45985 -0.21816555 119.09364 -0.21479245 119.04958 -19.304644 -33.393436
36130000000 -31.34267 51.629143 -0.21989407 118.76972 -0.21630032 118.77795 -20.495455 -27.077293
36160000000 -30.902355 49.798996 -0.22331092 118.70226 -0.23043984 118.72343 -18.809238 -39.018486
36190000000 -31.979589 46.614098 -0.21644805 118.49881 -0.22097361 118.46069 -18.619011 -31.766169
36220000000 -31.162327 39.578068 -0.20611206 118.21992 -0.21371906 118.25117 -20.205133 -34.965446
36250000000 -30.165934 48.984871 -0.22573836 118.07277 -0.21623394 117.99633 -18.978531 -34.892208
36280000000 -30.10162 43.156612 -0.22159657 117.9636 -0.22308283 117.96689 -18.263191 -34.474461
36310000000 -29.669012 38.175468 -0.21774857 117.70379 -0.21951176 117.68441 -19.534586 -33.39814
36340000000 -30.951899 46.065372 -0.20883274 117.39751 -0.20329703 117.43718 -19.405367 -41.633358
36370000000 -30.352785 39.456455 -0.20803943 117.38213 -0.22327821 117.39973 -17.889511 -31.762405
36400000000 -29.110748 37.090836 -0.21146165 117.12037 -0.21533182 117.13234 -19.717323 -38.494904
36430000000 -29.574585 41.978474 -0.20264007 116.9336 -0.20794737 116.8845 -18.534302 -39.592346
36460000000 -29.334335 32.454247 -0.20057194 116.72942 -0.20163396 116.83019 -18.542349 -35.336941
36490000000 -28.793177 35.115391 -0.20068933 116.43845 -0.2091068 116.58535 -19.060163 -36.203201
36520000000 -28.513092 39.234371 -0.20697533 116.3264 -0.20358378 116.3616 -18.458765 -42.777798
36550000000 -29.341908 31.669603 -0.19750017 116.27553 -0.1940662 116.18619 -18.115679 -36.060562
36580000000 -27.724524 28.888197 -0.19293839 115.97382 -0.1969928 116.0134 -19.299545 -37.841049
36610000000 -28.075544 39.081051 -0.20113559 115.83447 -0.19019464 115.73265 -18.077553 -41.232632
36640000000 -28.214672 30.048523 -0.18323915 115.53777 -0.18496245 115.58913 -18.335711 -39.026772
36670000000 -27.404278 34.097382 -0.17690921 115.45514 -0.18900213 115.34779 -18.588915 -40.854359
36700000000 -27.598577 35.434204 -0.1848879 115.19791 -0.18562755 115.10473 -18.515791 -43.449245
36730000000 -27.40387 34.784031 -0.18347163 115.1268 -0.18340845 115.00421 -17.564659 -38.085449
36760000000 -26.70726 28.511446 -0.18813565 114.82401 -0.17701948 114.83282 -18.798449 -42.732121
36790000000 -26.776201 35.806416 -0.17343031 114.58733 -0.18131194 114.50709 -18.326086 -46.45245
36820000000 -27.103966 32.275417 -0.18874474 114.48666 -0.16955906 114.365 -17.979797 -37.860817
36850000000 -26.041542 32.12009 -0.17077343 114.25627 -0.16040763 114.24216 -18.363102 -44.649982
36880000000 -26.356222 34.564224 -0.16438097 113.99133 -0.17468862 113.92623 -18.085033 -45.719509
36910000000 -26.768436 31.122847 -0.16037057 113.84876 -0.15438686 113.72511 -18.136997 -43.970192
36940000000 -25.794189 34.001965 -0.17549741 113.52827 -0.18030669 113.64471 -18.409643 -42.967339
36970000000 -25.560598 34.466686 -0.14710738 113.35583 -0.17068997 113.32072 -18.182447 -50.993652
37000000000 -25.77162 31.258375 -0.1607203 113.2999 -0.15944025 113.32777 -17.721235 -40.632862
37030000000 -25.048641 31.998562 -0.15501268 112.95586 -0.15654233 113.00775 -18.468155 -51.617748
37060000000 -25.661604 38.113308 -0.16959809 112.70488 -0.16577972 112.70976 -18.412296 -46.559509
37090000000 -24.934948 34.312969 -0.14964022 112.61012 -0.14948295 112.56344 -17.827719 -46.783554
37120000000 -24.861294 33.866009 -0.14879738 112.2655 -0.15238233 112.47182 -18.351274 -49.16502
37150000000 -25.351746 34.943035 -0.16625926 112.06947 -0.15785481 111.996 -18.615108 -52.870468
37180000000 -24.790339 36.900654 -0.15228206 112.06625 -0.13980559 112.01321 -18.040777 -43.735046
37210000000 -24.099651 34.419323 -0.15474442 111.82442 -0.14011249 111.82484 -18.264622 -50.75808
37240000000 -24.53915 38.417355 -0.1489825 111.54382 -0.15138215 111.47785 -18.391489 -54.515804
37270000000 -24.649704 34.415611 -0.15721999 111.37494 -0.13107432 111.35571 -18.404682 -47.232334
37300000000 -24.101917 39.441502 -0.16297998 111.21937 -0.14467154 111.17066 -18.799219 -51.252388
37330000000 -24.439131 35.758808 -0.13628575 110.89037 -0.13014279 110.86517 -18.153221 -54.007652
37360000000 -24.219233 37.434067 -0.14240345 110.75187 -0.15469426 110.62299 -18.637291 -51.452763
37390000000 -23.892504 39.285126 -0.14636007 110.5887 -0.15456711 110.60423 -18.974096 -52.946072
37420000000 -24.30158 41.278458 -0.15254292 110.34551 -0.13473465 110.29285 -18.774324 -52.570446
37450000000 -23.804153 36.357464 -0.12983739 110.21324 -0.11468481 110.05984 -18.267893 -52.67971
37480000000 -23.966745 39.183376 -0.14130956 109.92544 -0.12463236 109.94109 -18.953726 -54.566505
37510000000 -23.811008 40.996231 -0.14525367 109.74747 -0.14219508 109.77848 -19.193691 -53.027237
37540000000 -23.760624 41.071766 -0.11547667 109.4875 -0.11691055 109.55202 -18.339252 -53.091137
37570000000 -23.418257 40.386906 -0.12509485 109.30556 -0.12928933 109.3362 -19.647383 -55.79607
37600000000 -23.86824 42.891392 -0.13174216 109.13355 -0.12398054 109.18935 -18.956671 -51.992786
37630000000 -23.296453 40.635506 -0.12311843 108.94138 -0.11657896 108.89701 -18.815588 -55.873447
37660000000 -23.496914 41.584888 -0.11050176 108.83094 -0.11884504 108.86957 -19.551903 -51.791603
37690000000 -24.035677 43.730492 -0.12583451 108.47432 -0.13359223 108.40674 -19.011097 -55.580566
37720000000 -23.685452 41.908783 -0.1219772 108.20134 -0.099102899 108.23249 -18.949499 -55.475071
37750000000 -23.454359 45.534325 -0.11847818 108.18076 -0.12725769 108.2194 -19.909851 -51.185192
37780000000 -23.77636 45.738327 -0.10074863 107.85361 -0.096860059 107.94653 -18.78648 -55.482647
37810000000 -23.328184 42.26585 -0.10435615 107.6759 -0.10779843 107.60814 -19.556772 -54.564659
37840000000 -23.641909 47.414135 -0.10889241 107.42907 -0.10983852 107.48223 -19.421467 -50.517586
37870000000 -23.538061 48.786411 -0.11675393 107.22865 -0.12346996 107.27678 -19.679726 -56.541351
37900000000 -23.42454 43.866936 -0.10694803 107.07028 -0.10162618 106.97164 -19.354998 -53.022617
37930000000 -23.202538 45.295788 -0.087806776 106.85333 -0.085801311 106.90259 -19.561686 -44.604446
37960000000 -24.172945 51.26297 -0.12762982 106.51458 -0.13334692 106.54156 -19.563313 -63.345177
37990000000 -23.361666 49.365757 -0.094891682 106.32822 -0.10064848 106.42133 -19.67753 -45.647343
38020000000 -23.761042 50.829533 -0.093222253 106.13841 -0.098142974 106.08155 -19.877014 -54.158024
38050000000 -24.588129 51.538891 -0.12073407 105.90811 -0.099595249 105.91474 -19.679646 -52.949314
38080000000 -23.859058 52.535156 -0.10458685 105.62818 -0.097671434 105.79517 -19.624029 -53.067413
38110000000 -23.229107 55.123425 -0.087761872 105.50182 -0.11508618 105.6128 -19.897848 -48.997547
38140000000 -24.052872 50.920883 -0.095289096 105.32898 -0.094528697 105.38936 -20.463221 -49.54422
38170000000 -24.119299 49.847878 -0.10615666 105.00471 -0.10198525 105.08132 -18.561569 -49.259953
38200000000 -24.069145 55.649273 -0.10410745 104.95232 -0.091363117 104.95424 -20.44055 -51.44112
38230000000 -24.097687 53.536766 -0.09200716 104.72108 -0.074550226 104.66573 -20.666771 -48.882072
38260000000 -24.077637 50.732235 -0.077973701 104.40041 -0.08297506 104.28502 -18.503654 -49.885254
38290000000 -24.695019 56.947605 -0.08631672 104.3561 -0.078873023 104.32112 -20.482592 -45.221497
38320000000 -25.34363 59.015533 -0.09880285 103.90667 -0.099696167 104.03423 -19.57165 -54.277546
38350000000 -24.439327 56.141422 -0.096175604 103.83891 -0.087275349 103.76567 -19.155758 -46.062214
38380000000 -24.55813 54.108047 -0.083919227 103.6424 -0.08113797 103.57481 -19.926708 -41.929031
38410000000 -25.413557 59.579876 -0.092026986 103.41242 -0.096600667 103.45193 -18.94854 -52.776871
38440000000 -24.842897 59.04792 -0.089595422 103.19725 -0.087740742 103.12492 -19.789352 -45.537785
38470000000 -24.553715 58.214897 -0.092043906 102.93758 -0.082323126 102.98828 -18.99173 -43.807903
38500000000 -25.130901 57.74371 -0.083429173 102.75397 -0.077315144 102.72031 -19.148365 -46.556591
38530000000 -26.132177 59.383286 -0.089918882 102.53204 -0.065466292 102.55693 -18.385769 -49.643894
38560000000 -25.442745 65.003166 -0.078369044 102.34612 -0.077992417 102.3063 -20.021931 -43.127335
38590000000 -25.557663 64.666809 -0.091130227 102.1295 -0.077692501 102.09469 -18.617188 -46.144005
38620000000 -25.728506 55.306252 -0.10161346 101.84286 -0.067036487 101.78637 -18.11145 -46.36956
38650000000 -26.518818 60.775311 -0.0928967 101.67542 -0.081319958 101.59917 -18.729172 -43.236839
38680000000 -26.368145 64.998466 -0.077995844 101.52018 -0.0830025 101.61379 -19.115313 -49.474251
38710000000 -25.901005 61.511898 -0.073362723 101.16564 -0.074929982 101.17931 -17.857744 -41.234425
38740000000 -26.754875 65.122307 -0.071678124 100.96798 -0.079818942 101.00446 -18.502735 -49.591805
38770000000 -28.195158 68.276871 -0.078396983 100.84829 -0.065277345 100.78423 -18.376028 -48.973705
38800000000 -26.819033 61.512699 -0.08335977 100.68023 -0.08029408 100.50737 -17.830067 -43.268169
38830000000 -26.946339 57.992161 -0.079700559 100.40318 -0.07449045 100.19578 -17.91267 -46.527184
38860000000 -27.829094 58.646423 -0.079638332 100.1254 -0.051184487 100.22952 -17.987379 -46.61776
38890000000 -29.468292 64.226501 -0.068915218 99.867935 -0.068855256 99.974464 -17.022474 -50.671246
38920000000 -28.822647 59.888977 -0.057716656 99.762764 -0.038520649 99.706818 -17.849041 -46.964275
38950000000 -28.86725 57.856915 -0.044927858 99.49649 -0.071469173 99.533913 -17.600502 -50.337681
38980000000 -29.793791 55.663311 -0.057619337 99.357841 -0.06235569 99.369141 -16.72414 -48.625668
39010000000 -30.102112 71.122879 -0.058038279 99.010628 -0.054247253 98.971115 -17.896816 -51.958981
39040000000 -29.946783 61.93652 -0.043112285 98.839874 -0.039337132 98.824066 -17.326456 -50.253578
39070000000 -28.428265 55.828716 -0.07857991 98.584686 -0.072290033 98.623833 -16.789402 -50.97205
39100000000 -31.534281 52.907211 -0.046009507 98.289185 -0.044445321 98.347229 -17.280388 -52.483421
39130000000 -34.158398 63.001148 -0.040975519 98.122345 -0.042195242 98.165932 -16.833189 -56.706367
39160000000 -31.735065 61.148254 -0.043142874 97.81086 -0.062536888 97.861626 -16.738367 -55.554607
39190000000 -30.998785 46.80759 -0.053557687 97.67823 -0.034434281 97.677963 -16.818184 -51.447186
39220000000 -34.287483 42.628075 -0.036303133 97.40844 -0.015248464 97.429146 -16.790346 -59.676697
39250000000 -33.543873 41.596149 -0.028291086 97.291664 -0.022859901 97.242424 -16.204655 -55.304253
39280000000 -33.374016 48.601009 -0.037996002 96.856514 -0.012060955 96.789177 -17.111444 -58.071609
39310000000 -31.451546 16.618486 -0.023021504 96.863182 -0.039168652 96.846039 -16.341059 -58.81245
39340000000 -32.821728 18.449368 -0.043772738 96.644661 -0.034798805 96.562859 -16.351585 -58.198418
39370000000 -34.025379 22.500845 -0.015263011 96.321396 -0.025506945 96.148674 -16.543461 -60.075859
39400000000 -34.476456 19.857632 -0.019207606 95.951378 -0.023676567 95.985062 -16.571537 -65.656395
39430000000 -31.399778 6.4934397 -0.043720443 95.944824 -0.03993614 95.878845 -16.246105 -58.024883
39460000000 -33.220032 -16.751865 -0.0044948352 95.52845 0.01039991 95.65358 -16.427214 -63.135128
39490000000 -33.27972 -2.0582895 0.001611879 95.33046 -0.0015580971 95.459969 -16.498234 -68.004189
39520000000 -33.459435 -5.9481235 0.003400085 95.088341 -0.011513796 95.073357 -16.28875 -64.920578
39550000000 -30.987062 -10.672335 -0.0060527311 94.934036 -0.024900811 94.887871 -16.938984 -63.635632
39580000000 -31.824961 -31.013018 0.032983106 94.579964 0.010747488 94.594963 -16.192322 -70.998985
39610000000 -30.586945 -19.985163 -0.0024264518 94.445671 -0.0014936184 94.421738 -16.415928 -67.766266
39640000000 -30.618385 -10.201468 -0.0036040451 94.114388 -0.015270025 94.057869 -17.675325 -69.06086
39670000000 -28.916759 -24.086065 0.010368921 93.892036 0.010597718 93.941628 -16.488407 -71.092804
39700000000 -28.245329 -27.53054 -0.0014218901 93.694092 0.0056456826 93.587952 -16.256872 -69.288452
39730000000 -28.986717 -29.407377 0.019061435 93.200134 0.01988041 93.158844 -17.266687 -77.8955
39760000000 -28.205978 -23.232542 0.019668594 93.135696 0.0023451531 93.04097 -17.354586 -71.858765
39790000000 -26.601696 -28.930639 0.027655305 92.918945 0.015487366 92.857246 -16.688581 -74.345665
39820000000 -26.097631 -35.709278 0.030532606 92.612152 0.023995116 92.498055 -17.388216 -73.828598
39850000000 -27.195295 -29.714951 0.010495974 92.24781 0.010889506 92.256264 -17.567146 -82.650017
39880000000 -25.729115 -27.084244 0.013225175 92.229935 0.0097609758 92.202873 -16.995489 -73.861214
39910000000 -24.630733 -31.421108 0.021971218 91.842072 0.021499868 91.844612 -18.466759 -75.612213
39940000000 -24.929382 -38.41206 0.057640743 91.494583 0.04011704 91.521431 -16.67864 -83.798241
39970000000 -24.192802 -30.324999 -0.00035517002 91.373756 0.028817255 91.25621 -18.325041 -75.113022
40000000000 -23.883991 -29.353592 0.024357053 90.991081 0.019193389 91.057861 -18.274508 -82.077034
40030000000 -22.919838 -34.69846 0.039078176 90.775826 0.028637247 90.820351 -17.912174 -77.823608
40060000000 -23.364061 -36.322807 0.028706165 90.362282 0.040423267 90.389183 -18.082922 -82.182655
40090000000 -22.711647 -30.612696 0.026984433 90.276459 0.021921251 90.221275 -19.288136 -81.01255
40120000000 -22.349085 -30.942287 0.030930495 89.962082 0.019158853 89.984657 -18.960697 -79.223648
40150000000 -21.391752 -32.239792 0.051412575 89.711105 0.033936106 89.802521 -18.630928 -78.070366
40180000000 -21.808325 -32.776318 -0.0037486113 89.424461 0.023899864 89.417946 -19.347803 -76.93663
40210000000 -21.629858 -30.255413 0.019498516 89.042755 0.013657168 88.948929 -20.241138 -86.193024
40240000000 -20.983143 -30.294624 0.0031150354 88.871689 -0.0033796923 89.038597 -19.50803 -71.397919
40270000000 -20.647261 -30.754498 0.0048684916 88.604088 0.00049749983 88.570763 -19.992231 -74.790146
40300000000 -20.807165 -31.050825 -0.0069712475 88.304924 0.0067029144 88.263123 -19.701189 -82.578392
40330000000 -20.570982 -25.742743 -0.026410311 88.048538 -0.017585466 88.191643 -20.823086 -65.738327
40360000000 -19.811373 -27.490971 0.0080373995 87.762611 -0.0072764251 87.845612 -20.974123 -74.579559
40390000000 -19.817436 -30.814207 -0.0302832 87.505173 -0.01689598 87.567757 -19.826458 -71.604874
40420000000 -19.691051 -26.062164 -0.050387774 87.169754 -0.021973142 87.222099 -21.072624 -72.48394
40450000000 -19.514034 -27.544643 -0.028598808 87.091103 -0.03158284 87.102608 -21.08757 -66.607765
40480000000 -19.357172 -25.875324 -0.04746617 86.808243 -0.050044201 86.767822 -20.781204 -66.187141
40510000000 -18.874613 -30.190413 -0.050263643 86.429298 -0.052588653 86.4729 -19.795963 -67.710213
40540000000 -18.983721 -22.530256 -0.085419551 86.255653 -0.081551805 86.276642 -21.672781 -60.999233
40570000000 -18.974102 -25.356188 -0.070027322 85.936073 -0.073765807 85.853539 -21.118011 -63.5243
40600000000 -18.385475 -24.190884 -0.083089039 85.763535 -0.076695152 85.755531 -19.948801 -55.927036
40630000000 -18.642647 -23.48538 -0.11276945 85.441719 -0.094367854 85.480659 -20.724224 -57.351639
40660000000 -18.275183 -22.623545 -0.11740971 85.297951 -0.10711969 85.20285 -20.520441 -60.385292
40690000000 -17.994234 -24.292536 -0.10768273 85.108116 -0.10228419 85.074013 -19.693029 -54.421463
40720000000 -17.726423 -24.480658 -0.12801264 84.773048 -0.098034687 84.855164 -19.728821 -51.839848
40750000000 -17.979942 -22.638931 -0.13875109 84.521179 -0.13850468 84.52758 -19.462429 -61.160286
40780000000 -17.741301 -19.921314 -0.16718781 84.335136 -0.11743099 84.423378 -20.084431 -45.817997
40810000000 -17.626923 -20.404675 -0.14318512 84.177345 -0.16104212 84.065384 -19.024046 -52.191277
40840000000 -17.671301 -19.063665 -0.19640666 83.844215 -0.19059707 83.775398 -19.505236 -53.136776
40870000000 -17.580568 -18.970808 -0.18664268 83.942032 -0.19287018 83.751633 -18.24704 -46.161907
40900000000 -17.395737 -15.713838 -0.20298781 83.476013 -0.20571847 83.635368 -18.545292 -54.412209
40930000000 -16.965788 -19.560427 -0.20362121 83.484184 -0.21034643 83.305748 -18.526207 -49.374725
40960000000 -17.300957 -14.939871 -0.2300427 83.068954 -0.22726941 83.02346 -17.388348 -53.387718
40990000000 -17.242344 -14.823631 -0.26537192 83.205833 -0.23546886 83.234634 -18.021576 -48.634392
41020000000 -16.788658 -11.139441 -0.24890588 82.74472 -0.23675212 82.723022 -17.585825 -54.147278
41050000000 -16.64546 -14.490725 -0.23109283 82.694893 -0.26868704 82.448784 -17.211979 -51.340298
41080000000 -17.12532 -13.143821 -0.27729818 82.272049 -0.283595 82.359161 -17.25481 -53.858707
41110000000 -17.618946 -11.26659 -0.31647444 82.012238 -0.27346671 82.076401 -17.028414 -55.848526
41140000000 -16.759117 -8.9531288 -0.31159383 81.93856 -0.31608465 82.066147 -17.525021 -56.995213
41170000000 -16.682468 -12.126053 -0.29386273 81.852234 -0.29953846 81.999649 -16.079588 -51.436909
41200000000 -17.382595 -8.3316708 -0.33310106 81.559883 -0.34358779 81.571388 -17.075134 -63.23138
41230000000 -16.829763 -6.7192426 -0.34464726 81.543945 -0.34539863 81.589867 -16.131498 -55.01899
41260000000 -16.602268 -6.8126478 -0.33607534 81.40406 -0.35968766 81.526749 -16.338703 -60.904846
41290000000 -16.815117 -7.6645412 -0.40235499 81.178604 -0.36947894 80.944717 -16.65815 -61.039619
41320000000 -17.042919 -3.6761162 -0.38586733 80.94651 -0.39361668 80.903465 -15.63687 -61.311741
41350000000 -16.680384 -1.7197334 -0.38146603 80.759605 -0.37768474 80.964172 -16.340328 -62.130989
41380000000 -16.579105 -3.2773349 -0.40678918 80.425201 -0.40341184 80.569519 -15.824205 -66.171608
41410000000 -16.727619 -3.271826 -0.41957036 80.503204 -0.4033238 80.450958 -16.016182 -67.289406
41440000000 -17.095816 -1.5441939 -0.42903966 80.518105 -0.43326321 80.391266 -15.733483 -63.436584
41470000000 -16.803398 1.6881014 -0.46157452 80.187866 -0.44362766 79.991974 -15.412173 -73.086876
41500000000 -16.487543 -0.23729531 -0.44866645 80.138977 -0.4590922 79.84182 -16.319559 -68.81675
41530000000 -17.200161 0.67062563 -0.45367146 79.829811 -0.43535021 79.968605 -15.537666 -70.838882
41560000000 -17.091015 4.9185839 -0.45172757 79.800369 -0.46336064 79.827644 -16.242579 -72.509972
41590000000 -16.922382 8.4259968 -0.48403007 79.320259 -0.4705604 79.517975 -15.324757 -74.984787
41620000000 -16.667997 4.5611677 -0.51465893 79.417061 -0.47395256 79.647751 -16.397987 -75.172226
41650000000 -17.445736 5.2933455 -0.46757016 79.26387 -0.51482654 79.288628 -16.105379 -73.256966
41680000000 -17.376293 11.622655 -0.51415396 78.877617 -0.5129562 79.040985 -14.842303 -80.192055
41710000000 -16.55065 11.796382 -0.53591835 79.288086 -0.53426254 79.178268 -17.303015 -76.587883
41740000000 -16.714111 9.232645 -0.5409171 78.679062 -0.5216133 78.736954 -15.583891 -80.232407
41770000000 -17.55896 11.057408 -0.52448678 78.672859 -0.51672506 78.67775 -16.361916 -81.895767
41800000000 -17.450949 17.609396 -0.52286017 78.437874 -0.51923382 78.382545 -16.02914 -81.42205
41830000000 -17.005964 16.292948 -0.5791415 78.191956 -0.56927931 78.344437 -16.777239 -87.707108
41860000000 -17.167633 11.817491 -0.56311578 78.256897 -0.56904 78.195305 -16.357779 -84.336418
41890000000 -17.993137 17.982557 -0.54034746 78.267197 -0.53856015 78.100868 -17.188671 -82.959579
41920000000 -17.780821 19.842308 -0.5906406 77.981552 -0.55168188 78.011375 -16.319269 -94.407257
41950000000 -17.354647 19.518902 -0.57902169 77.733582 -0.58925408 77.656731 -17.455706 -87.504509
41980000000 -17.53101 19.418781 -0.58733809 77.622108 -0.62842 77.879662 -17.459322 -90.293869
42010000000 -17.876242 20.775816 -0.59714752 77.472603 -0.57135922 77.462631 -17.613497 -88.551285
42040000000 -17.622564 25.374712 -0.6164372 77.353516 -0.61136544 77.301224 -16.83658 -94.690811
42070000000 -17.575092 24.185734 -0.60054493 77.285294 -0.5905264 77.219543 -18.454691 -90.851921
42100000000 -17.877335 24.812962 -0.61645091 77.187897 -0.62268525 76.971947 -18.190649 -93.660889
42130000000 -18.506273 25.652872 -0.60274303 76.914886 -0.59270585 76.880013 -17.769453 -91.971748
42160000000 -18.016665 29.56971 -0.62984544 76.556778 -0.6168862 76.770477 -18.501389 -93.67141
42190000000 -18.060394 28.735611 -0.63563341 76.465126 -0.63417435 76.620964 -19.03883 -99.556915
42220000000 -17.910776 28.57461 -0.64911622 76.529854 -0.63655287 76.346794 -19.407173 -88.617676
42250000000 -18.701403 33.854221 -0.62331724 76.332085 -0.64172584 76.001801 -18.740458 -89.821014
42280000000 -18.585218 33.592201 -0.66314518 75.946533 -0.6381588 76.100067 -19.211973 -102.05341
42310000000 -18.316511 30.933142 -0.65912449 75.890137 -0.66166568 76.007896 -19.653292 -89.728493
42340000000 -18.904802 31.3666 -0.66127771 75.943253 -0.64537126 76.038269 -20.949963 -84.567879
42370000000 -19.491634 39.509308 -0.63760442 75.58606 -0.63454878 75.531136 -19.341358 -92.706818
42400000000 -19.073704 39.398148 -0.67755699 75.380936 -0.65656912 75.363617 -20.491423 -95.13089
42430000000 -19.167694 33.690746 -0.66415316 75.538994 -0.68561089 75.429047 -21.903666 -76.469627
42460000000 -20.165375 36.945923 -0.68396431 75.079552 -0.66189659 75.352989 -19.615564 -91.903671
42490000000 -19.885668 40.409424 -0.70037216 74.956947 -0.69641715 74.96875 -21.393423 -83.903763
42520000000 -19.42325 43.059349 -0.71319807 74.729591 -0.69654936 74.868202 -20.776194 -80.125923
42550000000 -19.9398 38.452824 -0.6817953 74.687431 -0.69533485 74.861023 -21.342731 -84.184677
42580000000 -20.692146 42.181873 -0.69853091 74.470215 -0.70482951 74.542732 -20.788851 -79.628548
42610000000 -20.445669 47.781956 -0.69940901 74.233391 -0.72957671 74.530975 -20.775921 -71.325531
42640000000 -19.997589 46.67215 -0.74321169 74.107948 -0.73954988 74.35981 -21.84457 -83.071991
42670000000 -20.445688 44.943989 -0.76021045 73.93219 -0.75934678 74.122398 -21.087704 -63.563545
42700000000 -22.07863 51.416634 -0.73196888 73.82515 -0.70976782 73.648811 -21.010521 -75.718216
42730000000 -21.594748 50.848446 -0.73591596 73.611115 -0.7447257 73.828712 -20.432262 -63.749409
42760000000 -21.355606 52.759377 -0.77639657 73.299812 -0.74934411 73.584717 -20.046495 -76.127136
42790000000 -21.415768 54.174332 -0.77262503 73.464569 -0.74095333 73.571701 -21.259064 -59.671246
42820000000 -22.270155 53.270271 -0.76351941 73.334923 -0.75180942 73.213219 -19.498234 -66.048569
42850000000 -21.614981 60.690022 -0.80039418 72.9478 -0.75556874 73.000313 -19.696344 -65.59893
42880000000 -22.185614 57.064541 -0.77694917 73.095802 -0.77865922 73.107742 -19.693342 -59.787186
42910000000 -22.419376 54.618729 -0.7988556 73.011726 -0.77685875 72.876884 -19.110151 -61.594757
42940000000 -23.007343 59.195755 -0.78000629 72.905571 -0.79178554 72.781776 -18.885517 -63.352589
42970000000 -23.452452 66.353729 -0.76905113 72.574951 -0.81849968 72.692696 -17.587082 -54.371857
43000000000 -23.660641 62.216488 -0.78862977 72.446602 -0.7805835 72.420418 -19.360054 -77.454056
43030000000 -23.862499 58.356113 -0.80101013 72.423141 -0.82161564 72.42115 -17.515388 -53.961502
43060000000 -24.760496 75.969238 -0.77516389 72.203697 -0.81963658 72.065598 -18.826736 -64.756226
43090000000 -24.549532 66.982704 -0.78376597 72.154198 -0.80887359 72.198624 -16.475723 -66.641388
43120000000 -24.945795 68.76796 -0.79246992 71.685081 -0.830199 72.121857 -18.939783 -67.682526
43150000000 -26.391657 71.106979 -0.79635262 71.747025 -0.77070373 71.841034 -16.830667 -61.029045
43180000000 -27.23024 75.31266 -0.79202533 71.48967 -0.80421543 71.594002 -16.786161 -67.030418
43210000000 -27.738665 76.793465 -0.77574015 71.603737 -0.78828245 71.692245 -16.301548 -71.839035
43240000000 -26.437498 70.663795 -0.83981162 71.656548 -0.83312017 71.704262 -17.66329 -60.483326
43270000000 -29.063055 70.67115 -0.78780818 71.191063 -0.8071968 71.488129 -16.271061 -68.625977
43300000000 -27.752289 74.525024 -0.83103776 71.287498 -0.79312205 71.372498 -16.091841 -66.598381
43330000000 -29.29859 77.791519 -0.80738479 71.285927 -0.78124875 71.208992 -16.271563 -74.202278
43360000000 -28.384718 78.364594 -0.80788392 70.931961 -0.8000434 71.126396 -16.643915 -69.793335
43390000000 -29.207191 76.955551 -0.79311275 70.953186 -0.81948841 70.949707 -15.846192 -73.071449
43420000000 -29.504749 92.832222 -0.83227009 70.551048 -0.79343063 70.838058 -15.675162 -69.921394
43450000000 -31.018185 91.133034 -0.80240619 70.469505 -0.81075609 70.847534 -16.002138 -81.328133
43480000000 -30.620619 85.358894 -0.81255722 70.522049 -0.78218716 70.560577 -15.839736 -76.105804
43510000000 -35.261585 81.619537 -0.79069722 70.65963 -0.78123909 70.576218 -16.02932 -73.227211
43540000000 -35.204662 106.30833 -0.7844165 70.315399 -0.75865191 70.560333 -14.581902 -77.950653
43570000000 -33.217876 95.945686 -0.75576866 70.253418 -0.7653656 70.115761 -15.851722 -87.68689
43600000000 -38.010414 97.570259 -0.77029169 70.103203 -0.75428039 70.298668 -16.115559 -75.094444
43630000000 -41.873783 136.07153 -0.71982807 69.969116 -0.74919432 69.912704 -14.889515 -81.646851
43660000000 -41.508327 111.38116 -0.75050396 69.891739 -0.73499238 69.72068 -14.969613 -86.260254
43690000000 -39.472263 112.92764 -0.75762761 69.722229 -0.75544459 69.721489 -16.240332 -84.340759
43720000000 -47.536755 82.944542 -0.71530807 69.378654 -0.73077112 69.501564 -15.744679 -83.783348
43750000000 -47.382744 147.50621 -0.72217822 69.435196 -0.72948855 69.237869 -15.746306 -86.371445
43780000000 -39.944729 -167.55714 -0.71010739 69.27388 -0.74583602 69.462898 -15.152379 -88.959198
43810000000 -43.129612 -112.32314 -0.70396096 68.954277 -0.68464947 69.163063 -16.113081 -90.28344
43840000000 -38.192951 -120.4279 -0.64539409 68.834915 -0.68586069 68.851738 -15.543975 -93.817238
43870000000 -36.708801 -142.30568 -0.6828748 68.688927 -0.66652948 68.723526 -16.246973 -92.196404
43900000000 -36.850719 -100.73698 -0.6874103 68.436615 -0.63176143 68.588043 -15.324325 -96.504738
43930000000 -39.133945 -57.481152 -0.65592545 68.407585 -0.63588876 68.487587 -16.316746 -97.631905
43960000000 -31.699957 -113.39301 -0.62803024 68.283936 -0.62319797 67.947098 -16.718664 -95.854118
43990000000 -35.973831 -90.371338 -0.63600439 68.195076 -0.65111619 68.01181 -16.11796 -96.180031
44020000000 -36.226032 -73.172859 -0.63426566 67.791168 -0.59376937 68.058815 -16.786459 -99.852242
44050000000 -31.765011 -91.431358 -0.60527223 67.745499 -0.61131775 67.856941 -16.450106 -99.927872
44080000000 -31.918785 -87.726814 -0.58053309 67.662292 -0.59813637 67.613358 -17.738955 -97.656769
44110000000 -31.314857 -91.607506 -0.57599634 67.536568 -0.61154687 67.198311 -16.452364 -105.63381
44140000000 -30.080427 -71.118164 -0.51813239 67.41938 -0.53413433 67.443565 -17.07914 -96.590691
44170000000 -28.157431 -77.487396 -0.57415026 67.089149 -0.56698543 67.159187 -17.297508 -110.93894
44200000000 -29.432325 -83.739441 -0.55504799 66.712402 -0.55372012 66.941322 -17.524298 -101.26954
44230000000 -28.227798 -79.742195 -0.53487855 66.828949 -0.55659342 66.949867 -17.974215 -102.36787
44260000000 -28.991446 -71.173615 -0.50829881 66.542076 -0.50592023 66.733253 -17.469723 -104.35088
44290000000 -26.829432 -64.663925 -0.50412148 66.410095 -0.48596847 66.199127 -19.005203 -113.30946
44320000000 -27.834152 -88.902336 -0.4942807 66.099495 -0.47618484 65.926804 -18.323267 -100.48322
44350000000 -25.771214 -64.099976 -0.47029907 66.226494 -0.49432856 66.139435 -19.242447 -104.68165
44380000000 -26.518944 -59.625126 -0.47696483 65.920235 -0.46766761 65.667458 -17.296309 -109.2104
44410000000 -24.921026 -64.162132 -0.45199013 65.433464 -0.48810413 65.775772 -20.127729 -106.08691
44440000000 -25.164351 -70.188911 -0.44149685 65.233452 -0.43025994 65.537056 -20.473011 -103.54128
44470000000 -26.999437 -60.738365 -0.45436722 64.918869 -0.40678123 65.270203 -18.050982 -105.12771
44500000000 -23.270395 -58.020359 -0.41686144 65.184837 -0.40697369 65.02282 -19.69685 -107.79121
44530000000 -23.526114 -57.197739 -0.41836733 65.067993 -0.38790476 65.005272 -22.243134 -103.19576
44560000000 -24.145947 -60.269161 -0.45005247 64.695839 -0.40977171 64.671867 -18.835155 -96.918724
44590000000 -24.209473 -57.760471 -0.37718835 64.288078 -0.39071745 64.421982 -20.448282 -106.96008
44620000000 -22.529182 -50.533409 -0.36581507 64.201042 -0.36040816 64.103432 -21.107115 -101.08402
44650000000 -23.139181 -51.658352 -0.36830717 63.971363 -0.37255552 63.806919 -20.588959 -104.5225
44680000000 -23.425684 -60.810535 -0.33904943 63.468372 -0.3288143 63.612095 -20.840239 -88.456367
44710000000 -22.311712 -46.797359 -0.3773216 63.448013 -0.36116821 63.470566 -21.166636 -106.23765
44740000000 -22.33065 -50.461361 -0.37219056 63.34148 -0.35475966 63.326817 -21.210449 -91.673668
44770000000 -21.149315 -54.400478 -0.3172023 62.967979 -0.37558377 63.144917 -20.779922 -93.855423
44800000000 -22.674984 -48.756401 -0.29261512 62.782055 -0.32044885 62.726143 -23.186865 -89.270691
44830000000 -21.929211 -46.3237 -0.31794089 62.621567 -0.32859123 62.611347 -19.86853 -97.657928
44860000000 -21.013956 -47.574772 -0.33194047 62.5369 -0.30786258 62.359936 -21.987764 -82.544624
44890000000 -20.928925 -52.100231 -0.29712459 62.020599 -0.30064049 62.10191 -22.172152 -95.041374
44920000000 -21.265293 -47.413147 -0.31671834 61.939838 -0.29259962 62.005276 -20.579523 -90.087738
44950000000 -21.250811 -44.446495 -0.31833082 61.562969 -0.30294308 61.684402 -20.517677 -84.760559
44980000000 -19.954422 -46.437267 -0.31741703 61.533195 -0.26442268 61.588573 -22.233856 -88.024063
