!Keysight Technologies,N5247B,MY61255062,A.19.80.06
!Date: Friday, March 13, 2026 17:38:55
!Correction: S11(C  2-Port  ) 
!S21(C  2-Port  ) 
!S12(C  2-Port  ) 
!S22(C  2-Port  ) 
!S2P File: Measurements: S11, S21, S12, S22:
# Hz S  dB   R 50
1000000000 -29.609554 -15.988936 -0.20904514 -14.128064 -0.20457841 -14.121812 -33.807991 -4.4142399
1030000000 -29.618868 -17.053757 -0.21199599 -14.542781 -0.20751753 -14.541219 -33.882099 -5.68929
1060000000 -29.578926 -17.660666 -0.21533591 -14.960442 -0.21099341 -14.958082 -33.995758 -7.2593369
1090000000 -29.59444 -17.7875 -0.21868058 -15.376419 -0.21429202 -15.365599 -33.983784 -8.0426445
1120000000 -29.581198 -18.356117 -0.22153609 -15.782506 -0.2169041 -15.779194 -33.963646 -8.4677639
1150000000 -29.508228 -18.753435 -0.22353739 -16.195118 -0.2193092 -16.183634 -33.897675 -9.6356192
1180000000 -29.560146 -19.305611 -0.22863182 -16.614849 -0.22406204 -16.603764 -34.03315 -11.298252
1210000000 -29.526045 -19.002014 -0.23346071 -17.008713 -0.22865856 -16.998299 -34.132633 -10.715731
1240000000 -29.490835 -18.905766 -0.2337265 -17.410332 -0.22987074 -17.403145 -33.914112 -11.829172
1270000000 -29.667957 -19.384722 -0.23869562 -17.829086 -0.23429665 -17.821877 -34.122391 -13.896282
1300000000 -29.748688 -19.403973 -0.24439305 -18.224844 -0.23985863 -18.2118 -34.416195 -14.354794
1330000000 -29.696133 -19.26228 -0.24789363 -18.611717 -0.24332573 -18.599693 -34.581768 -13.357017
1360000000 -29.716364 -18.90439 -0.25045884 -18.999325 -0.24769549 -18.985506 -34.784603 -12.987763
1390000000 -29.64814 -18.35321 -0.2526488 -19.376421 -0.24847086 -19.363058 -34.825214 -11.989614
1420000000 -29.540882 -17.634449 -0.25211382 -19.750544 -0.24809892 -19.743904 -34.716156 -11.114599
1450000000 -29.461143 -17.741537 -0.2504997 -20.151876 -0.24725127 -20.138855 -34.637081 -11.430725
1480000000 -29.34569 -18.119385 -0.25035545 -20.540085 -0.24620408 -20.5319 -34.577229 -11.253996
1510000000 -29.166422 -17.987509 -0.24939358 -20.942251 -0.24537297 -20.926661 -34.376354 -10.896584
1540000000 -29.133358 -17.853806 -0.24921566 -21.340286 -0.24427995 -21.330334 -34.215721 -11.245177
1570000000 -29.076319 -17.969679 -0.24780977 -21.742525 -0.24429199 -21.729273 -34.192844 -11.324333
1600000000 -28.934896 -18.086351 -0.24715729 -22.145014 -0.24235366 -22.130177 -34.033554 -11.983184
1630000000 -28.903059 -18.494005 -0.24499062 -22.551443 -0.24068102 -22.541899 -33.860039 -12.823404
1660000000 -28.8407 -19.04023 -0.24433608 -22.96847 -0.2403352 -22.949223 -33.836979 -13.592752
1690000000 -28.709511 -19.312246 -0.24427557 -23.373001 -0.2398994 -23.365379 -33.835381 -13.981089
1720000000 -28.651669 -19.642899 -0.24349082 -23.78528 -0.23886846 -23.773996 -33.746799 -14.327084
1750000000 -28.589144 -20.479929 -0.24303335 -24.201351 -0.23927025 -24.189142 -33.769108 -15.380524
1780000000 -28.49188 -20.858192 -0.24340157 -24.618431 -0.23955117 -24.603622 -33.694523 -16.182791
1810000000 -28.45752 -20.703009 -0.24462773 -25.025852 -0.2402761 -25.018444 -33.636581 -16.273554
1840000000 -28.442629 -21.285301 -0.24441084 -25.439337 -0.23996532 -25.426899 -33.693604 -17.266697
1870000000 -28.431629 -21.903446 -0.24584411 -25.846575 -0.24064492 -25.840376 -33.654549 -17.595078
1900000000 -28.359694 -22.233047 -0.24496487 -26.256927 -0.24070647 -26.245665 -33.581375 -17.807766
1930000000 -28.298105 -22.418753 -0.24422792 -26.670538 -0.24053793 -26.661825 -33.559555 -18.209108
1960000000 -28.263847 -22.813461 -0.24544145 -27.087612 -0.24184567 -27.078505 -33.53516 -18.88389
1990000000 -28.271746 -23.332514 -0.24650818 -27.50149 -0.24292138 -27.486961 -33.451691 -19.317114
2020000000 -28.2423 -23.683981 -0.24691123 -27.914165 -0.24328466 -27.903564 -33.533306 -19.922935
2050000000 -28.217875 -23.937603 -0.24783444 -28.325174 -0.24317488 -28.316227 -33.571232 -20.07725
2080000000 -28.184881 -24.590569 -0.24858817 -28.729952 -0.24457133 -28.728258 -33.507423 -19.844322
2110000000 -28.14282 -24.772152 -0.24966912 -29.148867 -0.24509469 -29.132181 -33.508263 -19.553471
2140000000 -28.208054 -25.023438 -0.24952053 -29.554619 -0.24680464 -29.545933 -33.479557 -20.517176
2170000000 -28.211666 -25.231228 -0.24975796 -29.963972 -0.24680409 -29.952948 -33.470081 -21.004534
2200000000 -28.149019 -25.582754 -0.24948049 -30.37517 -0.24720661 -30.369139 -33.422768 -20.347258
2230000000 -28.212032 -25.860132 -0.25106463 -30.798912 -0.24766152 -30.781965 -33.289139 -21.388306
2260000000 -28.226202 -26.751966 -0.25153255 -31.209108 -0.24743131 -31.196083 -33.262314 -22.047102
2290000000 -28.128788 -27.342237 -0.2527816 -31.623516 -0.24831544 -31.612759 -33.253143 -21.449959
2320000000 -28.196306 -27.321526 -0.25376999 -32.037701 -0.24987504 -32.02565 -33.235126 -22.323248
2350000000 -28.208563 -28.072809 -0.25475946 -32.449684 -0.25090036 -32.437408 -33.161358 -22.76403
2380000000 -28.116062 -28.332668 -0.25576451 -32.862896 -0.25147441 -32.846504 -33.124458 -22.955894
2410000000 -28.154812 -28.636145 -0.25702521 -33.2733 -0.2523267 -33.263096 -33.16954 -23.631859
2440000000 -28.21755 -29.061953 -0.25849453 -33.682938 -0.25442377 -33.676601 -33.076214 -23.415964
2470000000 -28.143553 -29.449427 -0.2586709 -34.10178 -0.25551137 -34.084602 -33.043663 -23.659929
2500000000 -28.152489 -29.641731 -0.26123065 -34.50774 -0.25668988 -34.49984 -32.943253 -24.960993
2530000000 -28.223753 -30.415932 -0.26205683 -34.917549 -0.25846484 -34.910271 -33.008514 -25.353861
2560000000 -28.164803 -31.029892 -0.2644169 -35.333733 -0.26049972 -35.314999 -33.02092 -24.753046
2590000000 -28.199024 -30.914042 -0.26618731 -35.743931 -0.26139751 -35.725094 -32.855438 -25.837542
2620000000 -28.289385 -31.423359 -0.26704168 -36.151539 -0.26384279 -36.133995 -32.866283 -26.201759
2650000000 -28.280905 -32.696785 -0.26925272 -36.560787 -0.26483563 -36.536961 -32.9254 -26.494743
2680000000 -28.238918 -32.982162 -0.27032256 -36.964691 -0.26646146 -36.946152 -32.857059 -26.88929
2710000000 -28.256504 -33.425461 -0.27218691 -37.374744 -0.26810026 -37.3535 -32.722912 -27.12035
2740000000 -28.240583 -33.720364 -0.27368313 -37.784702 -0.26841828 -37.764507 -32.670166 -27.593697
2770000000 -28.31743 -34.077339 -0.27480701 -38.190742 -0.2702449 -38.180477 -32.675354 -28.328716
2800000000 -28.387243 -34.825512 -0.27621615 -38.597385 -0.27197799 -38.578667 -32.651825 -28.404266
2830000000 -28.328096 -35.27198 -0.27780592 -39.004387 -0.2740283 -38.98885 -32.691044 -28.314739
2860000000 -28.341913 -35.605919 -0.28040928 -39.413231 -0.27597809 -39.398708 -32.593151 -29.817974
2890000000 -28.409157 -36.311157 -0.28083149 -39.806995 -0.27678087 -39.801071 -32.589737 -30.051901
2920000000 -28.413242 -36.9217 -0.28270751 -40.218975 -0.27804521 -40.201893 -32.721706 -30.022026
2950000000 -28.423595 -37.243561 -0.28387079 -40.613831 -0.28058434 -40.608414 -32.501881 -30.395964
2980000000 -28.464647 -37.912594 -0.28549573 -41.022739 -0.28117588 -41.003094 -32.458683 -30.925802
3010000000 -28.495058 -38.510635 -0.28650129 -41.419731 -0.28189591 -41.407883 -32.558704 -30.460878
3040000000 -28.523008 -38.515121 -0.28753611 -41.82476 -0.28198874 -41.809772 -32.461922 -30.980171
3070000000 -28.544296 -39.021954 -0.28803205 -42.224869 -0.2830874 -42.206066 -32.352135 -31.200871
3100000000 -28.525414 -39.542122 -0.28794214 -42.622105 -0.28289071 -42.612427 -32.409561 -31.84293
3130000000 -28.589182 -40.413563 -0.28864229 -43.033165 -0.28383982 -43.013687 -32.312225 -32.869797
3160000000 -28.522848 -40.624413 -0.28927559 -43.441051 -0.28411037 -43.422737 -32.226505 -32.760303
3190000000 -28.489748 -40.7715 -0.29041651 -43.839302 -0.28503436 -43.832096 -32.224529 -32.895988
3220000000 -28.558975 -41.810143 -0.29143292 -44.244522 -0.28601685 -44.227215 -32.222328 -33.979847
3250000000 -28.51914 -42.442192 -0.29231662 -44.646133 -0.28705847 -44.632286 -32.173332 -34.804802
3280000000 -28.479231 -42.317451 -0.29272282 -45.053619 -0.2875585 -45.041546 -32.175037 -34.517628
3310000000 -28.504004 -42.940094 -0.29345256 -45.456909 -0.28853771 -45.441639 -32.114601 -35.495369
3340000000 -28.522982 -43.700504 -0.29407629 -45.859623 -0.28798169 -45.84343 -32.15765 -36.475845
3370000000 -28.538416 -44.102478 -0.29462782 -46.273064 -0.28947592 -46.250927 -32.173 -36.234661
3400000000 -28.53841 -44.563057 -0.29506859 -46.671528 -0.29019567 -46.66069 -32.09111 -36.440758
3430000000 -28.52408 -44.916046 -0.29537672 -47.071747 -0.29102379 -47.054119 -32.030876 -36.713772
3460000000 -28.516808 -45.474514 -0.29658881 -47.476696 -0.29167789 -47.459896 -32.107761 -37.010921
3490000000 -28.525461 -46.280285 -0.29709187 -47.884834 -0.29076499 -47.868359 -32.105854 -37.134075
3520000000 -28.456247 -46.295891 -0.2974492 -48.287964 -0.29254866 -48.270081 -31.974758 -37.254116
3550000000 -28.410124 -45.990566 -0.29730725 -48.689129 -0.29292691 -48.671204 -31.91688 -37.164112
3580000000 -28.484196 -47.132481 -0.29779127 -49.091537 -0.29155749 -49.072094 -31.85673 -38.237396
3610000000 -28.417849 -47.531452 -0.29787168 -49.497238 -0.29207215 -49.47879 -31.912151 -38.686043
3640000000 -28.356234 -47.253967 -0.29751378 -49.905666 -0.29199213 -49.884079 -31.869698 -38.5005
3670000000 -28.363775 -47.651051 -0.29783896 -50.312469 -0.29244232 -50.294437 -31.775972 -39.322987
3700000000 -28.313412 -48.442368 -0.29736272 -50.711796 -0.29213333 -50.699898 -31.802898 -40.359241
3730000000 -28.312847 -48.856365 -0.29683936 -51.123409 -0.29304656 -51.106468 -31.852922 -40.497269
3760000000 -28.279524 -48.922134 -0.29882938 -51.528137 -0.29328167 -51.518547 -31.804026 -40.746628
3790000000 -28.221558 -49.187611 -0.29938176 -51.934326 -0.29311743 -51.92445 -31.749723 -41.161236
3820000000 -28.265966 -49.720142 -0.29871735 -52.34351 -0.29379874 -52.327854 -31.821821 -41.68222
3850000000 -28.242487 -50.755623 -0.29970628 -52.743198 -0.29392201 -52.739342 -31.851789 -42.329773
3880000000 -28.128113 -50.627487 -0.30054089 -53.153942 -0.29449901 -53.141941 -31.776678 -42.452995
3910000000 -28.129627 -50.58794 -0.30122173 -53.565746 -0.2949273 -53.554619 -31.823383 -42.583237
3940000000 -28.118683 -51.681271 -0.30089682 -53.966366 -0.29597414 -53.954723 -31.836708 -43.149158
3970000000 -28.015768 -51.992146 -0.30094871 -54.374882 -0.29519051 -54.358116 -31.770357 -43.317776
4000000000 -28.002878 -51.499474 -0.30180579 -54.780914 -0.29637486 -54.765942 -31.798954 -42.728634
4030000000 -28.00572 -52.176098 -0.30245793 -55.186077 -0.29701844 -55.172955 -31.755569 -43.13879
4060000000 -27.953279 -52.936127 -0.30236581 -55.597206 -0.2969375 -55.578358 -31.719234 -44.1437
4090000000 -27.973957 -52.732719 -0.30226368 -55.995625 -0.29769981 -55.985645 -31.748957 -43.664528
4120000000 -27.960255 -53.504402 -0.30414677 -56.40638 -0.29788193 -56.391632 -31.756723 -44.204613
4150000000 -27.855759 -53.574505 -0.30304912 -56.8078 -0.298884 -56.795959 -31.673018 -44.668381
4180000000 -27.87146 -53.465832 -0.30402017 -57.218666 -0.29803413 -57.202187 -31.753649 -44.570251
4210000000 -27.826836 -54.534801 -0.3044222 -57.625134 -0.29937235 -57.606876 -31.799824 -45.235867
4240000000 -27.758995 -54.109383 -0.30562961 -58.030216 -0.29903013 -58.014687 -31.664557 -44.929668
4270000000 -27.759109 -54.217854 -0.30549908 -58.433006 -0.30033895 -58.424641 -31.674437 -44.480141
4300000000 -27.777092 -55.231224 -0.30513138 -58.841431 -0.29949325 -58.824562 -31.801298 -44.974094
4330000000 -27.724407 -55.311237 -0.30595207 -59.243416 -0.29951766 -59.229385 -31.676809 -45.197548
4360000000 -27.719473 -54.601791 -0.30641314 -59.649178 -0.2999545 -59.640392 -31.589863 -44.618908
4390000000 -27.70517 -55.317509 -0.30600679 -60.056038 -0.30064273 -60.045731 -31.691269 -45.169159
4420000000 -27.661907 -55.625996 -0.30657789 -60.457592 -0.30158937 -60.455288 -31.591385 -45.320293
4450000000 -27.643051 -55.262985 -0.3069593 -60.864819 -0.30093512 -60.85603 -31.57085 -44.859108
4480000000 -27.658489 -55.946449 -0.30748469 -61.276783 -0.30129164 -61.266708 -31.633923 -46.122391
4510000000 -27.622107 -55.774487 -0.30704042 -61.680569 -0.30214241 -61.669258 -31.411797 -45.778847
4540000000 -27.591145 -55.832321 -0.30809906 -62.085274 -0.30182245 -62.077 -31.43593 -44.975704
4570000000 -27.586378 -56.362305 -0.30682236 -62.496353 -0.30244768 -62.484524 -31.57065 -45.944393
4600000000 -27.546743 -56.143867 -0.30836058 -62.901684 -0.30304551 -62.88612 -31.405891 -45.898766
4630000000 -27.509892 -55.914577 -0.3079693 -63.305035 -0.30297861 -63.292603 -31.3874 -45.518299
4660000000 -27.52582 -56.62941 -0.30798319 -63.713768 -0.30353212 -63.700394 -31.459145 -46.031696
4690000000 -27.504927 -56.584007 -0.30801266 -64.118034 -0.30348799 -64.107208 -31.242256 -46.263924
4720000000 -27.40984 -56.195251 -0.30810213 -64.526375 -0.30329061 -64.513649 -31.236214 -44.880882
4750000000 -27.432154 -56.889629 -0.30857289 -64.932449 -0.30303469 -64.925629 -31.316826 -46.274719
4780000000 -27.4671 -56.646564 -0.30889335 -65.34317 -0.303287 -65.326988 -31.161051 -46.391083
4810000000 -27.3971 -56.64949 -0.30772451 -65.747498 -0.30325007 -65.731255 -31.15382 -45.504059
4840000000 -27.375694 -57.224991 -0.30813131 -66.153702 -0.30419508 -66.146309 -31.265177 -46.870747
4870000000 -27.365303 -56.844822 -0.30830693 -66.56591 -0.30370563 -66.553688 -31.091148 -46.49197
4900000000 -27.372845 -56.90271 -0.30919105 -66.974045 -0.3041662 -66.964439 -31.078655 -46.174885
4930000000 -27.318695 -57.538837 -0.30956966 -67.383354 -0.30390632 -67.371445 -31.088137 -46.96283
4960000000 -27.343985 -57.357731 -0.30917576 -67.792099 -0.30467069 -67.779312 -30.917709 -46.992577
4990000000 -27.30035 -57.409626 -0.30936339 -68.20475 -0.30513582 -68.189949 -31.036919 -46.081524
5020000000 -27.302801 -57.95488 -0.31056967 -68.610199 -0.3045674 -68.598328 -31.087896 -47.326382
5050000000 -27.278353 -57.544468 -0.31123203 -69.019432 -0.30643871 -69.004921 -30.833788 -47.084145
5080000000 -27.233126 -57.786884 -0.30975783 -69.427826 -0.30568877 -69.408096 -30.914883 -46.520618
5110000000 -27.252153 -58.18697 -0.31110135 -69.840042 -0.30633676 -69.818893 -30.994846 -47.571835
5140000000 -27.246504 -57.875778 -0.31177324 -70.24559 -0.30708599 -70.228767 -30.827358 -47.114986
5170000000 -27.210478 -57.872509 -0.31225359 -70.652664 -0.30622372 -70.636688 -30.795872 -46.514862
5200000000 -27.20738 -58.369678 -0.31242269 -71.065025 -0.30629426 -71.050507 -30.872374 -47.965149
5230000000 -27.200575 -57.923698 -0.31253538 -71.471001 -0.30704126 -71.457817 -30.678379 -47.835678
5260000000 -27.161234 -57.961498 -0.31192815 -71.881195 -0.30789927 -71.863976 -30.657795 -46.384243
5290000000 -27.179241 -58.840046 -0.31290981 -72.28878 -0.30855957 -72.276649 -30.757444 -48.485542
5320000000 -27.170893 -58.150368 -0.31367019 -72.697548 -0.30841699 -72.680832 -30.508715 -48.210663
5350000000 -27.145821 -58.288765 -0.31389445 -73.10598 -0.30911711 -73.094009 -30.588745 -47.326706
5380000000 -27.139839 -58.966034 -0.31480336 -73.519661 -0.31028384 -73.506454 -30.621643 -48.61013
5410000000 -27.166553 -58.444862 -0.3151485 -73.920387 -0.31028885 -73.908249 -30.320004 -48.299431
5440000000 -27.123558 -58.480545 -0.31606042 -74.330399 -0.31045705 -74.32193 -30.432566 -47.292503
5470000000 -27.137945 -58.594208 -0.31579122 -74.739319 -0.3117407 -74.726334 -30.428932 -48.451527
5500000000 -27.135859 -58.549557 -0.31696117 -75.154129 -0.31213787 -75.134651 -30.238522 -48.448284
5530000000 -27.112221 -58.874878 -0.31711209 -75.561363 -0.31291482 -75.544739 -30.241404 -47.925373
5560000000 -27.185062 -59.408291 -0.31849045 -75.972382 -0.31291175 -75.955704 -30.354364 -49.596104
5590000000 -27.129919 -58.850529 -0.31917325 -76.375511 -0.31466922 -76.362373 -30.097574 -48.958847
5620000000 -27.112932 -59.420746 -0.3198804 -76.787422 -0.31547055 -76.766312 -30.248289 -47.863964
5650000000 -27.101635 -59.940258 -0.32002139 -77.195862 -0.31686065 -77.182167 -30.186064 -49.706364
5680000000 -27.110113 -59.398243 -0.321668 -77.602242 -0.31660613 -77.59008 -29.995029 -49.686821
5710000000 -27.067375 -59.355774 -0.3219685 -78.009033 -0.31738639 -77.994415 -30.033407 -48.939575
5740000000 -27.071058 -60.144455 -0.32226652 -78.421021 -0.3179214 -78.403419 -30.063375 -50.205036
5770000000 -27.043901 -59.806244 -0.32335007 -78.828728 -0.31891358 -78.807922 -29.783388 -50.162682
5800000000 -27.062433 -59.803989 -0.32403001 -79.235291 -0.31936324 -79.214821 -29.991909 -49.579784
5830000000 -27.068312 -60.075352 -0.32445258 -79.649689 -0.31978482 -79.628426 -30.016184 -50.94706
5860000000 -27.022453 -59.811375 -0.32540917 -80.050117 -0.32080865 -80.029961 -29.669533 -50.122807
5890000000 -27.008371 -60.223751 -0.32586229 -80.457382 -0.32130393 -80.445183 -29.808455 -49.808197
5920000000 -27.033304 -60.452919 -0.32727244 -80.863976 -0.32206804 -80.853752 -29.802874 -51.429634
5950000000 -26.97484 -59.907917 -0.32823384 -81.277138 -0.32350177 -81.254715 -29.590277 -50.994946
5980000000 -26.960999 -60.522743 -0.32921278 -81.681145 -0.32367888 -81.668427 -29.64278 -50.517647
6010000000 -26.973108 -61.273914 -0.32998803 -82.088379 -0.32535335 -82.07827 -29.626205 -52.13702
6040000000 -26.937309 -60.607056 -0.33109084 -82.499939 -0.32697716 -82.477592 -29.426088 -51.605503
6070000000 -26.900309 -60.812439 -0.33199075 -82.902916 -0.32811409 -82.887489 -29.583622 -51.264725
6100000000 -26.879431 -61.504051 -0.33363381 -83.311867 -0.32931581 -83.292549 -29.511679 -52.651592
6130000000 -26.887968 -61.102127 -0.33511949 -83.713188 -0.3300249 -83.696037 -29.262283 -52.389633
6160000000 -26.910845 -61.37595 -0.33575958 -84.111557 -0.33109418 -84.107193 -29.457294 -52.291328
6190000000 -26.908213 -61.977184 -0.33611226 -84.52433 -0.33240992 -84.511253 -29.438318 -53.857487
6220000000 -26.829733 -61.732574 -0.33710974 -84.928062 -0.33363211 -84.911041 -29.199137 -52.888996
6250000000 -26.848248 -62.38335 -0.3380554 -85.332558 -0.33434471 -85.311958 -29.311642 -52.915859
6280000000 -26.838837 -62.546043 -0.33966157 -85.731323 -0.3349025 -85.716713 -29.289089 -54.243683
6310000000 -26.767971 -62.193901 -0.34026006 -86.141151 -0.33664286 -86.124268 -29.126953 -53.768349
6340000000 -26.728468 -62.751831 -0.34075281 -86.542885 -0.33713633 -86.525131 -29.22402 -53.532516
6370000000 -26.768061 -63.207226 -0.34191269 -86.94426 -0.3389025 -86.925941 -29.173256 -55.433395
6400000000 -26.782412 -62.506634 -0.34277788 -87.345886 -0.33850202 -87.32785 -29.061337 -55.145271
6430000000 -26.754189 -63.149975 -0.34388196 -87.748222 -0.34015006 -87.733055 -29.235128 -54.616062
6460000000 -26.699526 -63.875446 -0.34424287 -88.155823 -0.34093201 -88.133842 -29.120636 -55.56089
6490000000 -26.6632 -63.553318 -0.34498608 -88.554855 -0.34129128 -88.535225 -28.970537 -55.565205
6520000000 -26.714554 -63.904072 -0.3456907 -88.961479 -0.34119019 -88.937675 -29.15073 -55.732918
6550000000 -26.688551 -64.261459 -0.34651348 -89.357971 -0.34259078 -89.342018 -29.175316 -56.631176
6580000000 -26.633381 -64.175827 -0.34712273 -89.763252 -0.3421922 -89.745842 -29.012466 -55.986504
6610000000 -26.66148 -64.502838 -0.34749484 -90.166656 -0.34298491 -90.147438 -29.094019 -55.485115
6640000000 -26.649874 -64.810287 -0.34852692 -90.572083 -0.3435483 -90.551338 -29.088398 -56.962132
6670000000 -26.572918 -64.305763 -0.34952867 -90.981865 -0.34548721 -90.959389 -28.982973 -55.969219
6700000000 -26.538471 -65.116241 -0.35062858 -91.37632 -0.34599429 -91.359474 -28.998598 -55.884903
6730000000 -26.479652 -65.598648 -0.35181609 -91.780746 -0.34774557 -91.756287 -28.954874 -56.662476
6760000000 -26.487158 -65.16481 -0.35267287 -92.172089 -0.34878471 -92.155624 -28.844053 -56.867416
6790000000 -26.502949 -65.702011 -0.3536531 -92.572075 -0.34906802 -92.556168 -28.937681 -56.517082
6820000000 -26.409328 -66.453255 -0.35325885 -92.970367 -0.35000986 -92.954193 -28.871613 -57.119102
6850000000 -26.432758 -66.43502 -0.35374969 -93.367027 -0.34933901 -93.349846 -28.733643 -57.310444
6880000000 -26.486483 -66.699646 -0.35356522 -93.765594 -0.34957215 -93.749962 -28.857141 -57.817532
6910000000 -26.440453 -66.976883 -0.35406339 -94.169868 -0.3497158 -94.146233 -28.904612 -58.072701
6940000000 -26.409357 -66.707932 -0.35380334 -94.566994 -0.35025424 -94.546715 -28.717808 -57.348244
6970000000 -26.463043 -67.354286 -0.35257319 -94.971588 -0.34852749 -94.949715 -28.804176 -57.586399
7000000000 -26.436359 -67.276711 -0.35314485 -95.379089 -0.34872243 -95.35553 -28.87459 -58.128777
7030000000 -26.385298 -66.557251 -0.35276243 -95.786507 -0.34932753 -95.750099 -28.638535 -57.497059
7060000000 -26.391922 -67.168335 -0.35424483 -96.185112 -0.34958786 -96.156792 -28.724955 -57.232384
7090000000 -26.370619 -67.606789 -0.35472822 -96.583069 -0.35061961 -96.561859 -28.684032 -58.384644
7120000000 -26.37809 -66.978401 -0.35511923 -96.980576 -0.35092577 -96.956833 -28.608536 -58.719437
7150000000 -26.366482 -67.549706 -0.35490742 -97.384422 -0.3506923 -97.359474 -28.74791 -58.341255
7180000000 -26.283417 -67.902504 -0.35480294 -97.783806 -0.35037661 -97.757103 -28.663069 -58.515091
7210000000 -26.268391 -67.36689 -0.35530353 -98.179161 -0.35039735 -98.161964 -28.506632 -58.973656
7240000000 -26.320229 -67.555115 -0.35520718 -98.585953 -0.35061315 -98.565697 -28.634848 -59.050407
7270000000 -26.270531 -68.075134 -0.35550776 -98.978645 -0.35161427 -98.959885 -28.685678 -59.292885
7300000000 -26.271124 -67.850258 -0.35628715 -99.377686 -0.35144022 -99.359573 -28.534531 -59.071575
7330000000 -26.241081 -68.334328 -0.35570133 -99.766235 -0.35068023 -99.752693 -28.557442 -59.226566
7360000000 -26.237579 -68.623398 -0.35559541 -100.16759 -0.35146773 -100.14451 -28.68714 -59.687263
7390000000 -26.241236 -68.013763 -0.35456643 -100.56277 -0.34932584 -100.54056 -28.552488 -59.683273
7420000000 -26.238487 -68.734306 -0.35360226 -100.95585 -0.34882566 -100.93853 -28.596626 -58.97958
7450000000 -26.198307 -68.839836 -0.35243028 -101.35642 -0.34785211 -101.3329 -28.65062 -59.684196
7480000000 -26.253246 -67.958656 -0.35080427 -101.75881 -0.34607193 -101.73058 -28.542328 -59.864525
7510000000 -26.269091 -68.27494 -0.34920549 -102.16024 -0.34485126 -102.13634 -28.649611 -58.711357
7540000000 -26.211958 -68.22345 -0.34733865 -102.56142 -0.34298715 -102.54006 -28.651188 -58.408546
7570000000 -26.277037 -67.605606 -0.34637469 -102.96694 -0.34152314 -102.94991 -28.503418 -59.460091
7600000000 -26.279728 -67.891716 -0.34449509 -103.37603 -0.33920869 -103.3576 -28.60607 -58.358231
7630000000 -26.173185 -67.337219 -0.34360963 -103.7904 -0.33924562 -103.76751 -28.613886 -57.734413
7660000000 -26.162657 -66.718178 -0.34304625 -104.19928 -0.33984604 -104.17831 -28.427607 -58.517597
7690000000 -26.094633 -67.010445 -0.34448442 -104.61617 -0.33843598 -104.59116 -28.385771 -58.050495
7720000000 -26.050877 -67.087402 -0.34405711 -105.02142 -0.34008959 -104.99908 -28.518904 -58.389275
7750000000 -26.086376 -66.415451 -0.34594437 -105.41583 -0.34065148 -105.39565 -28.347858 -58.589836
7780000000 -26.0257 -67.120888 -0.34505865 -105.81358 -0.34069458 -105.78947 -28.291319 -57.90316
7810000000 -26.010775 -67.425468 -0.34414199 -106.21183 -0.34005207 -106.1908 -28.4473 -58.331375
7840000000 -26.080669 -66.601028 -0.34293699 -106.61452 -0.33803779 -106.58928 -28.285858 -59.105377
7870000000 -26.014351 -66.887527 -0.34147441 -107.018 -0.33660397 -106.99354 -28.324902 -57.515152
7900000000 -25.94268 -66.913231 -0.33985358 -107.42198 -0.33474395 -107.40271 -28.332403 -57.67976
7930000000 -25.980471 -66.457512 -0.33886892 -107.82297 -0.33410484 -107.80589 -28.191111 -58.559856
7960000000 -26.000343 -66.705673 -0.33776778 -108.23102 -0.33314773 -108.20823 -28.222359 -57.609547
7990000000 -25.939133 -66.517616 -0.33737385 -108.64207 -0.33166942 -108.62002 -28.325081 -57.525097
8020000000 -25.930132 -65.913788 -0.33614472 -109.04703 -0.33106792 -109.02796 -28.063438 -58.094292
8050000000 -25.896193 -66.406448 -0.33535746 -109.44726 -0.33174264 -109.4293 -28.095993 -56.979244
8080000000 -25.890146 -66.307159 -0.3345857 -109.86237 -0.32888299 -109.83115 -28.254145 -57.46497
8110000000 -25.957403 -65.392624 -0.33309489 -110.26157 -0.32754934 -110.24018 -28.066771 -57.698898
8140000000 -25.854387 -65.894356 -0.3306542 -110.67014 -0.32703465 -110.64847 -27.954569 -56.579971
8170000000 -25.82864 -65.820427 -0.32974198 -111.08591 -0.32577831 -111.0575 -28.061689 -56.925793
8200000000 -25.924007 -65.113823 -0.32985955 -111.49006 -0.32397646 -111.46778 -27.926085 -57.815079
8230000000 -25.803059 -65.202461 -0.32828382 -111.90364 -0.32366744 -111.86936 -27.857635 -55.610889
8260000000 -25.732964 -64.845863 -0.32751474 -112.30788 -0.32280743 -112.27717 -27.927452 -56.552532
8290000000 -25.838427 -64.404816 -0.32623175 -112.72132 -0.32161391 -112.69373 -27.742498 -57.755116
8320000000 -25.790527 -64.721039 -0.32462999 -113.12943 -0.32024765 -113.10358 -27.739519 -55.678577
8350000000 -25.747862 -63.992413 -0.32374889 -113.54161 -0.31852165 -113.51783 -27.842302 -55.990913
8380000000 -25.779476 -63.600475 -0.32358992 -113.95497 -0.31891611 -113.93477 -27.543032 -57.025063
8410000000 -25.684755 -64.426041 -0.32250601 -114.36676 -0.31800243 -114.34621 -27.479023 -55.735565
8440000000 -25.711613 -63.694874 -0.32122785 -114.78854 -0.31694084 -114.75583 -27.702625 -56.097916
8470000000 -25.691713 -62.984879 -0.3212755 -115.1948 -0.31701267 -115.16781 -27.360514 -57.202972
8500000000 -25.523283 -63.608452 -0.3203778 -115.60139 -0.3159374 -115.57674 -27.257315 -55.492115
8530000000 -25.545767 -63.125366 -0.31997764 -116.01624 -0.31463692 -115.9931 -27.476315 -56.799824
8560000000 -25.62257 -62.476593 -0.31996176 -116.42652 -0.31541237 -116.41002 -27.240061 -56.91119
8590000000 -25.501076 -62.938629 -0.31849602 -116.84531 -0.31407702 -116.8196 -27.11747 -55.497871
8620000000 -25.403572 -62.868038 -0.3180612 -117.2501 -0.31448331 -117.23129 -27.250107 -56.462891
8650000000 -25.457697 -62.680874 -0.31808126 -117.66351 -0.31387192 -117.64304 -27.04892 -57.363796
8680000000 -25.371233 -62.760704 -0.31751421 -118.07543 -0.31425455 -118.04478 -26.973358 -55.547462
8710000000 -25.32745 -62.231789 -0.31693998 -118.48884 -0.31313488 -118.46426 -27.113535 -56.796581
8740000000 -25.345695 -61.90036 -0.31755626 -118.90041 -0.31281078 -118.87648 -26.882286 -57.435524
8770000000 -25.253929 -62.64082 -0.3166351 -119.3103 -0.3120597 -119.29017 -26.819422 -55.811459
8800000000 -25.239109 -61.93222 -0.31560388 -119.7276 -0.3105616 -119.69649 -26.943436 -56.344448
8830000000 -25.233004 -61.506523 -0.31517103 -120.14867 -0.31009617 -120.11398 -26.705534 -57.415733
8860000000 -25.094063 -62.238056 -0.31515434 -120.55863 -0.31045872 -120.53326 -26.612726 -55.687027
8890000000 -25.112257 -61.930138 -0.31480893 -120.97272 -0.30967668 -120.95329 -26.779869 -56.770172
8920000000 -25.107506 -61.344688 -0.31468591 -121.38775 -0.3094312 -121.36378 -26.509682 -57.417557
8950000000 -24.956846 -61.665024 -0.31474435 -121.80061 -0.30984318 -121.78165 -26.387981 -55.711472
8980000000 -24.963495 -61.512745 -0.31466809 -122.20923 -0.31032556 -122.20565 -26.59503 -57.169136
9010000000 -24.977627 -61.555782 -0.3154569 -122.6306 -0.30976063 -122.60738 -26.267756 -57.866291
9040000000 -24.864307 -61.988224 -0.31537145 -123.04375 -0.31053296 -123.02235 -26.219864 -55.992382
9070000000 -24.822763 -61.48682 -0.31528878 -123.4609 -0.30950627 -123.43836 -26.344664 -57.512043
9100000000 -24.767708 -61.431015 -0.3146798 -123.87878 -0.30989546 -123.84953 -26.078564 -58.166656
9130000000 -24.684212 -61.754944 -0.31487963 -124.29006 -0.31045455 -124.26386 -26.119852 -56.697258
9160000000 -24.6938 -61.403763 -0.31525037 -124.71001 -0.31019959 -124.68273 -26.145664 -57.550575
9190000000 -24.668978 -61.278431 -0.31495172 -125.12498 -0.31162834 -125.09695 -25.837395 -58.759327
9220000000 -24.496674 -62.084213 -0.31611249 -125.54108 -0.31189367 -125.51009 -25.816166 -56.89806
9250000000 -24.523729 -61.835075 -0.31665292 -125.94827 -0.31129181 -125.92731 -26.019508 -58.241741
9280000000 -24.493147 -61.824127 -0.31727389 -126.37154 -0.31243104 -126.34058 -25.612896 -58.756538
9310000000 -24.341425 -61.995277 -0.31856397 -126.78578 -0.31327009 -126.75864 -25.587318 -57.776455
9340000000 -24.348259 -61.571255 -0.31821525 -127.20204 -0.31419194 -127.16957 -25.771097 -59.242603
9370000000 -24.315668 -62.065006 -0.3198266 -127.61161 -0.31544161 -127.58803 -25.447504 -59.450596
9400000000 -24.189117 -62.567524 -0.32054722 -128.02367 -0.31603092 -127.99873 -25.422697 -58.030304
9430000000 -24.19486 -62.114868 -0.32152054 -128.44234 -0.31661227 -128.41652 -25.4877 -59.60741
9460000000 -24.13032 -62.258869 -0.32330433 -128.85788 -0.31794563 -128.83167 -25.294607 -60.503532
9490000000 -24.003096 -62.875015 -0.32288802 -129.26987 -0.31998989 -129.24498 -25.266315 -58.790977
9520000000 -24.036343 -62.489101 -0.32409555 -129.68794 -0.32060519 -129.67078 -25.316244 -60.294754
9550000000 -23.942219 -62.728336 -0.32588378 -130.10951 -0.32232311 -130.07361 -24.99832 -61.325272
9580000000 -23.839022 -63.409901 -0.32773107 -130.52167 -0.32415497 -130.49002 -25.062262 -59.991493
9610000000 -23.875669 -63.492947 -0.32935938 -130.94096 -0.3250699 -130.90736 -25.130672 -60.788193
9640000000 -23.76597 -63.767979 -0.33259937 -131.35277 -0.32718006 -131.32108 -24.755543 -61.87579
9670000000 -23.578672 -64.124825 -0.33501601 -131.76102 -0.32939485 -131.73273 -24.762047 -61.495819
9700000000 -23.597801 -64.100571 -0.33740684 -132.17314 -0.33182701 -132.14357 -24.902634 -62.747417
9730000000 -23.523008 -64.45269 -0.34121931 -132.5813 -0.33615953 -132.55139 -24.577202 -63.308586
9760000000 -23.461445 -65.349762 -0.34469798 -132.98871 -0.3380999 -132.96169 -24.620874 -62.714512
9790000000 -23.46368 -65.380531 -0.34874767 -133.39839 -0.34226418 -133.36813 -24.663654 -65.023209
9820000000 -23.37676 -65.873215 -0.3509126 -133.78943 -0.34781453 -133.75856 -24.489496 -65.420959
9850000000 -23.290747 -66.684967 -0.35590026 -134.18178 -0.35102317 -134.15089 -24.52709 -64.474136
9880000000 -23.375349 -67.242653 -0.35987774 -134.56732 -0.353921 -134.53793 -24.6145 -66.391144
9910000000 -23.334446 -67.580147 -0.36272296 -134.94138 -0.35739526 -134.90863 -24.414722 -67.617149
9940000000 -23.308891 -68.285828 -0.36472988 -135.30878 -0.36077493 -135.27722 -24.669777 -66.731575
9970000000 -23.429657 -68.584373 -0.36340684 -135.6729 -0.35825819 -135.64134 -24.754604 -68.090927
10000000000 -23.452965 -68.802727 -0.36225501 -136.03275 -0.35693461 -136.00473 -24.597967 -68.208664
10030000000 -23.473621 -68.697701 -0.35700095 -136.41837 -0.35180289 -136.38461 -24.820148 -67.520111
10060000000 -23.559172 -68.37822 -0.35116097 -136.80827 -0.34589422 -136.77719 -24.993853 -68.046181
10090000000 -23.499342 -68.284248 -0.34596792 -137.20021 -0.3415643 -137.17294 -24.746206 -67.245163
10120000000 -23.475475 -67.968277 -0.34064922 -137.60754 -0.33598053 -137.57851 -24.764168 -65.985977
10150000000 -23.526514 -67.39418 -0.33615449 -138.02556 -0.33030671 -137.99678 -24.924372 -67.088875
10180000000 -23.413881 -67.051476 -0.33303732 -138.44395 -0.32755885 -138.42123 -24.642561 -66.592262
10210000000 -23.291632 -67.330482 -0.32966769 -138.87804 -0.32611844 -138.84332 -24.662466 -64.837624
10240000000 -23.325079 -67.089943 -0.32755464 -139.30919 -0.32279629 -139.27826 -24.572033 -66.280983
10270000000 -23.188858 -66.724052 -0.32572946 -139.73816 -0.3215417 -139.70274 -24.366421 -66.815819
10300000000 -23.077337 -66.833229 -0.32628226 -140.16431 -0.32121503 -140.1424 -24.420496 -65.075905
10330000000 -23.042917 -66.868805 -0.32666877 -140.60136 -0.32024431 -140.57748 -24.370758 -66.272346
10360000000 -22.922989 -67.207855 -0.3268379 -141.02037 -0.32147676 -140.99454 -24.003496 -66.736557
10390000000 -22.837717 -67.153587 -0.32831955 -141.46103 -0.32384789 -141.43021 -24.107107 -66.623436
10420000000 -22.773249 -67.029922 -0.33092403 -141.88269 -0.32582098 -141.86624 -24.128481 -67.525719
10450000000 -22.620523 -67.834946 -0.33530906 -142.30783 -0.33028439 -142.28584 -23.820007 -67.695389
10480000000 -22.593935 -68.417183 -0.34015256 -142.7318 -0.3353211 -142.69606 -23.780138 -67.958946
10510000000 -22.561691 -68.65168 -0.34611902 -143.14659 -0.34009016 -143.11389 -23.855576 -69.696609
10540000000 -22.428366 -69.307129 -0.35231212 -143.52748 -0.34776771 -143.50653 -23.731903 -70.412056
10570000000 -22.402912 -70.364708 -0.35792086 -143.9006 -0.35264677 -143.8671 -23.751476 -70.009209
10600000000 -22.54648 -70.783875 -0.35870856 -144.25992 -0.3553361 -144.23288 -23.901304 -72.03022
10630000000 -22.57172 -71.021988 -0.35869902 -144.61403 -0.35375082 -144.5867 -23.895576 -72.246742
10660000000 -22.594128 -70.748329 -0.35314682 -144.98354 -0.3489202 -144.95322 -24.063887 -70.920753
10690000000 -22.641611 -70.642464 -0.34781453 -145.37909 -0.34122884 -145.3493 -24.081644 -71.234833
10720000000 -22.658022 -70.226799 -0.34113362 -145.77742 -0.3365058 -145.75523 -23.91618 -71.298424
10750000000 -22.615244 -69.775658 -0.33716765 -146.19722 -0.33269161 -146.17194 -24.023067 -70.32811
10780000000 -22.544853 -69.434807 -0.33368802 -146.63205 -0.32865152 -146.59958 -24.068647 -70.778557
10810000000 -22.432545 -69.688911 -0.33171859 -147.04778 -0.32731238 -147.0193 -23.794386 -70.424606
10840000000 -22.432835 -69.64418 -0.33194661 -147.47185 -0.32529923 -147.44621 -23.743511 -70.582291
10870000000 -22.410379 -69.343033 -0.3294585 -147.90169 -0.32489973 -147.86737 -23.819771 -71.509407
10900000000 -22.25041 -69.510544 -0.32951772 -148.31369 -0.32562009 -148.287 -23.706186 -70.674347
10930000000 -22.205147 -69.883293 -0.32975259 -148.73878 -0.32445091 -148.7036 -23.63394 -70.434425
10960000000 -22.216581 -69.644173 -0.32966352 -149.16481 -0.32590553 -149.12988 -23.591862 -72.029388
10990000000 -22.113565 -69.491997 -0.32944316 -149.58459 -0.32526436 -149.54565 -23.496725 -72.204239
11020000000 -22.047873 -69.7733 -0.33181334 -149.99854 -0.32639694 -149.96036 -23.523891 -71.188087
11050000000 -22.028896 -70.071457 -0.33129895 -150.4218 -0.32609472 -150.38373 -23.455782 -72.325897
11080000000 -21.966431 -70.378807 -0.33248425 -150.83513 -0.32664615 -150.80052 -23.264627 -72.752296
11110000000 -21.926052 -70.27317 -0.33433798 -151.25197 -0.32901704 -151.22098 -23.345724 -72.923027
11140000000 -21.851345 -70.394798 -0.33475766 -151.6743 -0.32918096 -151.63925 -23.354914 -73.371033
11170000000 -21.772726 -70.92498 -0.33788139 -152.088 -0.33254573 -152.06209 -23.110514 -73.416428
11200000000 -21.762096 -71.178627 -0.33980852 -152.51546 -0.33497185 -152.46935 -23.145023 -74.663094
11230000000 -21.719671 -71.172607 -0.34471563 -152.91446 -0.34010834 -152.88577 -23.243259 -75.602837
11260000000 -21.679972 -71.94577 -0.35154858 -153.29968 -0.34667918 -153.27367 -23.096764 -75.841225
11290000000 -21.768143 -72.800697 -0.35414457 -153.64699 -0.34843689 -153.62323 -23.189234 -75.88195
11320000000 -21.905821 -72.260857 -0.34764376 -154.01001 -0.34179589 -153.98311 -23.40629 -76.743401
11350000000 -21.849451 -71.723709 -0.34081078 -154.42285 -0.33575568 -154.39522 -23.338181 -75.868622
11380000000 -21.780792 -71.760513 -0.33723536 -154.85036 -0.33256054 -154.81961 -23.277868 -75.197525
11410000000 -21.717611 -71.953766 -0.33667392 -155.28899 -0.33055755 -155.24974 -23.191864 -75.77771
11440000000 -21.67061 -71.893806 -0.33669013 -155.70016 -0.33131543 -155.67259 -23.096849 -76.095512
11470000000 -21.628828 -71.845047 -0.33706024 -156.12109 -0.33045617 -156.09239 -23.171133 -76.081856
11500000000 -21.593779 -71.752792 -0.33646971 -156.54079 -0.33117744 -156.50845 -23.134695 -76.491432
11530000000 -21.545687 -72.162689 -0.33731341 -156.9595 -0.33253679 -156.9247 -22.956553 -76.742577
11560000000 -21.54089 -72.371841 -0.33843485 -157.37231 -0.33420464 -157.34421 -22.983831 -77.318146
11590000000 -21.496685 -72.243393 -0.33874324 -157.78549 -0.33462903 -157.75824 -23.007538 -77.291153
11620000000 -21.445301 -72.623718 -0.340222 -158.19843 -0.33571008 -158.17175 -22.92275 -77.662712
11650000000 -21.413902 -72.982422 -0.34156823 -158.60941 -0.33743232 -158.58235 -22.831154 -77.984055
11680000000 -21.377926 -72.967377 -0.34360683 -159.03006 -0.33897135 -159.00049 -22.856359 -79.005943
11710000000 -21.37393 -73.214195 -0.34625471 -159.43581 -0.34107453 -159.40826 -22.850218 -78.841225
11740000000 -21.336958 -73.819382 -0.34994981 -159.83508 -0.34437093 -159.80124 -22.830183 -78.991364
11770000000 -21.377192 -73.809753 -0.35182309 -160.21358 -0.34549701 -160.18726 -22.898951 -79.936188
11800000000 -21.3776 -73.792671 -0.34835416 -160.60713 -0.34247929 -160.57864 -22.850506 -80.282944
11830000000 -21.342796 -73.764168 -0.34534088 -161.01668 -0.33981439 -160.9919 -22.85828 -79.903526
11860000000 -21.294529 -73.656532 -0.34414816 -161.44067 -0.3403866 -161.41257 -22.773598 -79.76757
11890000000 -21.279285 -74.194839 -0.34429863 -161.85083 -0.34009042 -161.82495 -22.719585 -80.298653
11920000000 -21.270666 -74.370728 -0.34613165 -162.27505 -0.33951992 -162.23766 -22.735636 -80.670456
11950000000 -21.267214 -74.457245 -0.34577537 -162.6821 -0.34070605 -162.64951 -22.763433 -80.959824
11980000000 -21.212198 -74.823578 -0.34651908 -163.0844 -0.3414506 -163.06343 -22.635859 -81.157486
12010000000 -21.164585 -75.065781 -0.34775034 -163.496 -0.34192556 -163.47221 -22.601931 -81.332695
12040000000 -21.169876 -75.112289 -0.34770152 -163.9104 -0.34276107 -163.87933 -22.658195 -81.77314
12070000000 -21.172426 -75.410431 -0.34916005 -164.32716 -0.3441759 -164.28865 -22.635056 -81.91114
12100000000 -21.080313 -75.683617 -0.34907308 -164.73264 -0.3445856 -164.70383 -22.528025 -82.228455
12130000000 -21.055824 -75.662094 -0.34889522 -165.14445 -0.34470525 -165.10794 -22.526482 -82.43972
12160000000 -21.057011 -75.960464 -0.35078883 -165.54135 -0.34485546 -165.51646 -22.510212 -83.208565
12190000000 -21.030298 -76.153587 -0.35091567 -165.95386 -0.34567192 -165.91924 -22.526064 -83.391006
12220000000 -21.029381 -76.224274 -0.35016081 -166.37064 -0.34600997 -166.33345 -22.462433 -83.419586
12250000000 -20.96929 -76.786201 -0.35080397 -166.77991 -0.34568116 -166.74008 -22.38187 -84.201332
12280000000 -20.90663 -76.838242 -0.35211027 -167.18677 -0.34620202 -167.14716 -22.427862 -84.349213
12310000000 -20.956926 -76.889755 -0.35215151 -167.59239 -0.34625807 -167.55879 -22.484421 -84.239784
12340000000 -20.968422 -77.299103 -0.35264984 -168.01102 -0.34668478 -167.97571 -22.409439 -84.84903
12370000000 -20.880253 -77.402443 -0.35326025 -168.41441 -0.34679103 -168.38481 -22.340605 -85.771172
12400000000 -20.86941 -77.645004 -0.35383508 -168.82744 -0.34822288 -168.79639 -22.388199 -85.418869
12430000000 -20.886143 -78.207321 -0.35457009 -169.24484 -0.34945378 -169.20706 -22.411375 -85.599068
12460000000 -20.841686 -78.198807 -0.3557488 -169.64616 -0.35020569 -169.61671 -22.317562 -86.022583
12490000000 -20.810957 -78.232979 -0.35717294 -170.05878 -0.35190028 -170.03096 -22.33724 -86.247589
12520000000 -20.772392 -79.059143 -0.35659906 -170.47112 -0.35249627 -170.43652 -22.330122 -86.696915
12550000000 -20.741043 -79.151978 -0.35744864 -170.87698 -0.35415354 -170.84953 -22.275324 -86.804428
12580000000 -20.775244 -79.106026 -0.35939631 -171.2896 -0.35390359 -171.25674 -22.258755 -86.581497
12610000000 -20.732405 -79.741638 -0.36018908 -171.69427 -0.35448834 -171.65956 -22.239344 -87.537125
12640000000 -20.647995 -79.858704 -0.36151421 -172.1021 -0.35629418 -172.06589 -22.200991 -87.933624
12670000000 -20.716831 -79.897102 -0.36124527 -172.50966 -0.35721284 -172.47987 -22.188793 -87.459068
12700000000 -20.695478 -80.269814 -0.36254907 -172.92101 -0.3569304 -172.88846 -22.156235 -88.288368
12730000000 -20.601315 -80.431633 -0.36324024 -173.31688 -0.35792592 -173.29575 -22.128998 -89.055153
12760000000 -20.590475 -80.802826 -0.36452296 -173.72792 -0.35957995 -173.69261 -22.070505 -88.446678
12790000000 -20.624687 -81.149918 -0.36479998 -174.13316 -0.3598921 -174.10286 -22.168125 -89.414467
12820000000 -20.546644 -81.163651 -0.3658697 -174.5432 -0.36020932 -174.50812 -22.015852 -89.322723
12850000000 -20.533552 -81.302788 -0.36676279 -174.9483 -0.36156401 -174.91887 -22.060236 -89.630081
12880000000 -20.524107 -82.005486 -0.36604515 -175.35582 -0.36225221 -175.32217 -22.137207 -90.75901
12910000000 -20.465384 -81.943588 -0.36767858 -175.75479 -0.36330497 -175.72586 -21.988834 -90.150887
12940000000 -20.523359 -81.890991 -0.36890006 -176.16962 -0.36292025 -176.13892 -22.038002 -90.541389
12970000000 -20.461172 -82.480171 -0.37027043 -176.56804 -0.36478958 -176.54732 -22.082039 -91.279411
13000000000 -20.399178 -82.733963 -0.37081707 -176.97662 -0.36536676 -176.94966 -21.974957 -91.633263
13030000000 -20.47216 -83.017197 -0.37195057 -177.38231 -0.36714587 -177.35501 -22.036987 -91.024483
13060000000 -20.439629 -83.113716 -0.3724114 -177.79355 -0.36721179 -177.75568 -22.005428 -91.999367
13090000000 -20.331213 -83.183769 -0.37288553 -178.18776 -0.36734024 -178.16223 -21.893143 -92.677818
13120000000 -20.407867 -83.702805 -0.37364465 -178.60786 -0.36880198 -178.56876 -22.057964 -92.152725
13150000000 -20.37607 -84.182289 -0.37479892 -179.00891 -0.36874112 -178.97847 -22.023382 -92.417755
13180000000 -20.29789 -83.799934 -0.37524736 -179.40065 -0.36920047 -179.37746 -21.813959 -93.530815
13210000000 -20.300045 -84.295578 -0.37688962 -179.80684 -0.37143481 -179.77727 -21.944326 -92.743729
13240000000 -20.268574 -84.883286 -0.37596735 179.79361 -0.37053514 179.81563 -22.026463 -93.820564
13270000000 -20.241896 -84.710899 -0.37760624 179.38478 -0.37166265 179.42123 -21.828382 -93.835747
13300000000 -20.282373 -84.972534 -0.37682384 178.98578 -0.37132654 179.01413 -21.853437 -93.691139
13330000000 -20.189224 -85.33033 -0.37623551 178.57867 -0.37142748 178.61284 -21.965908 -95.792282
13360000000 -20.14975 -85.611771 -0.37632558 178.17978 -0.37269288 178.21072 -21.847141 -94.697136
13390000000 -20.271996 -85.968826 -0.3769986 177.77184 -0.37263957 177.80307 -21.909594 -94.507126
13420000000 -20.205851 -86.102974 -0.37867317 177.3539 -0.37282404 177.3924 -21.898808 -95.951958
13450000000 -20.109726 -86.164536 -0.37865624 176.95808 -0.37236741 176.99184 -21.808231 -96.658501
13480000000 -20.182474 -86.84935 -0.37898049 176.56323 -0.37398121 176.59244 -21.951601 -94.956909
13510000000 -20.16312 -86.80677 -0.37875536 176.15227 -0.37354222 176.18121 -21.873156 -97.000053
13540000000 -20.121956 -86.618294 -0.3790206 175.7594 -0.3730748 175.79372 -21.705341 -96.710503
13570000000 -20.155273 -87.188019 -0.37899151 175.34676 -0.37390137 175.39136 -21.936455 -96.817635
13600000000 -20.107351 -87.768875 -0.37763193 174.93631 -0.37242043 174.97589 -21.942968 -98.117668
13630000000 -20.104404 -87.795502 -0.37704095 174.52716 -0.37210146 174.5665 -21.719086 -97.978882
13660000000 -20.138361 -88.173607 -0.37681821 174.11966 -0.37153012 174.16071 -21.883009 -97.846169
13690000000 -20.046062 -88.235924 -0.37656498 173.70517 -0.37207833 173.73587 -22.003242 -100.09493
13720000000 -20.066599 -88.515106 -0.37844864 173.28606 -0.37324321 173.3213 -21.83946 -98.902657
13750000000 -20.176636 -88.823105 -0.37955761 172.8761 -0.37508255 172.92062 -21.870642 -98.708542
13780000000 -20.104404 -88.89325 -0.38043091 172.45761 -0.37666124 172.51048 -21.955549 -100.34396
13810000000 -20.051123 -88.893234 -0.38310415 172.06902 -0.37769037 172.10237 -21.795572 -100.20852
13840000000 -20.151674 -89.429802 -0.38451862 171.67755 -0.37948331 171.71954 -22.007982 -99.19593
13870000000 -20.096073 -89.282295 -0.38653392 171.26489 -0.37983108 171.31239 -21.9669 -101.362
13900000000 -20.080996 -88.96653 -0.38535473 170.87917 -0.38069537 170.92091 -21.777308 -101.21593
13930000000 -20.148371 -89.817177 -0.38499802 170.48773 -0.38058123 170.53062 -22.022017 -100.79559
13960000000 -20.043369 -89.911812 -0.38365129 170.07555 -0.37841362 170.11243 -22.065048 -102.13474
13990000000 -20.095539 -89.959839 -0.38193974 169.67279 -0.37757772 169.71248 -21.797186 -101.74397
14020000000 -20.110258 -90.542221 -0.38217577 169.26773 -0.37759918 169.30576 -22.012098 -101.93793
14050000000 -19.990665 -90.609215 -0.38106301 168.85333 -0.37689838 168.89418 -22.098726 -103.54893
14080000000 -20.044004 -90.890923 -0.38106048 168.44728 -0.375857 168.48354 -21.854906 -102.70634
14110000000 -20.128714 -91.367958 -0.37999803 168.0307 -0.37542233 168.08218 -22.024208 -102.29136
14140000000 -20.065071 -91.249199 -0.3808381 167.60965 -0.3760227 167.66107 -22.013248 -104.55657
14170000000 -20.09931 -91.485199 -0.38178852 167.2011 -0.37619063 167.24237 -21.941484 -103.95551
14200000000 -20.171926 -92.306892 -0.38175857 166.80269 -0.37757236 166.83562 -22.095457 -103.13839
14230000000 -20.115046 -92.11409 -0.38286835 166.37392 -0.37813941 166.41936 -22.024958 -105.41577
14260000000 -20.179005 -92.005455 -0.38333374 165.96503 -0.37918216 166.01817 -21.839764 -105.06033
14290000000 -20.245134 -92.377739 -0.38561299 165.55183 -0.38130718 165.59726 -22.184891 -104.7113
14320000000 -20.175554 -92.072594 -0.3872923 165.13481 -0.38379776 165.18257 -22.036568 -106.38438
14350000000 -20.272575 -92.188309 -0.39117458 164.7374 -0.38638142 164.7804 -21.861343 -105.35936
14380000000 -20.295156 -92.308632 -0.39427114 164.33821 -0.38853544 164.38428 -22.078941 -106.04303
14410000000 -20.179567 -91.812477 -0.39532205 163.94318 -0.39021844 163.99442 -22.125393 -107.73946
14440000000 -20.210255 -91.960709 -0.39752164 163.55589 -0.39276963 163.60002 -21.891306 -106.96795
14470000000 -20.258144 -92.556572 -0.39787287 163.16988 -0.39234263 163.21104 -22.068659 -107.09891
14500000000 -20.156212 -92.428139 -0.39790803 162.77492 -0.39309552 162.80656 -22.040148 -109.4945
14530000000 -20.181236 -92.523209 -0.39868316 162.38228 -0.39354271 162.4274 -21.987972 -108.72315
14560000000 -20.223629 -93.102417 -0.39794633 161.99059 -0.39252228 162.03738 -22.24345 -108.2971
14590000000 -20.131437 -92.933403 -0.39686927 161.59251 -0.39273846 161.64163 -22.057293 -110.39042
14620000000 -20.217356 -93.274429 -0.39606836 161.20818 -0.39006352 161.24086 -21.977795 -110.08923
14650000000 -20.230747 -93.875969 -0.39432189 160.80339 -0.3893998 160.85312 -22.319584 -109.78002
14680000000 -20.156506 -93.654305 -0.39263561 160.39694 -0.38655061 160.4505 -22.188541 -111.46973
14710000000 -20.246861 -94.107048 -0.39027223 160.01129 -0.38456103 160.05412 -21.971569 -111.24812
14740000000 -20.316908 -94.524399 -0.38852438 159.59648 -0.38330829 159.64032 -22.382788 -111.55283
14770000000 -20.25131 -94.111671 -0.385914 159.18248 -0.38063747 159.22852 -22.365343 -113.66358
14800000000 -20.308964 -94.714096 -0.38529247 158.77184 -0.3800568 158.82141 -22.176252 -111.68204
14830000000 -20.374538 -95.090309 -0.38265717 158.34651 -0.37877259 158.39543 -22.528622 -112.80259
14860000000 -20.349659 -94.652122 -0.38240418 157.91887 -0.37724566 157.97311 -22.463629 -114.58981
14890000000 -20.418728 -94.965988 -0.38348925 157.50403 -0.37856925 157.55142 -22.383423 -113.0834
14920000000 -20.425695 -95.43338 -0.38564271 157.09514 -0.38074285 157.13136 -22.614458 -112.77695
14950000000 -20.382702 -95.068756 -0.38696459 156.67361 -0.38154432 156.71916 -22.434658 -115.15656
14980000000 -20.494301 -95.081261 -0.38793421 156.27072 -0.38250932 156.31628 -22.455193 -114.33299
15010000000 -20.492504 -95.230606 -0.38931456 155.86505 -0.3843393 155.90884 -22.730307 -114.12297
15040000000 -20.416372 -95.026947 -0.39089134 155.45139 -0.38593891 155.50082 -22.556417 -115.62289
15070000000 -20.499935 -95.462677 -0.39245623 155.04979 -0.38783288 155.10388 -22.481281 -115.34141
15100000000 -20.512327 -95.576523 -0.39391485 154.65254 -0.38956827 154.69696 -22.797661 -115.30557
15130000000 -20.436584 -95.175903 -0.39481032 154.24133 -0.38974947 154.28883 -22.738791 -117.31837
15160000000 -20.47304 -95.558975 -0.39683551 153.84686 -0.39143974 153.90134 -22.581009 -115.03751
15190000000 -20.507919 -96.132309 -0.39762747 153.44237 -0.39242679 153.50099 -22.868519 -116.75665
15220000000 -20.467695 -95.547279 -0.3973279 153.05287 -0.39104629 153.10349 -22.813829 -118.11227
15250000000 -20.519749 -95.84729 -0.3982777 152.65875 -0.39130208 152.71059 -22.768887 -116.40247
15280000000 -20.461994 -96.425743 -0.39758605 152.26549 -0.39130744 152.32281 -22.985771 -116.77263
15310000000 -20.449255 -96.439865 -0.39601535 151.8784 -0.39060131 151.92418 -22.729862 -119.13503
15340000000 -20.544802 -96.879524 -0.39432725 151.47699 -0.38889271 151.52426 -22.928242 -118.18699
15370000000 -20.526922 -97.11689 -0.39192134 151.07164 -0.38705233 151.1114 -23.147919 -118.31518
15400000000 -20.473181 -97.138016 -0.39132416 150.65628 -0.38574907 150.69733 -22.952723 -120.07977
15430000000 -20.599283 -97.910652 -0.39005643 150.24675 -0.38455367 150.28969 -23.040546 -119.55111
15460000000 -20.64612 -97.954567 -0.38958412 149.83658 -0.3832916 149.87657 -23.399315 -119.32786
15490000000 -20.622692 -97.802727 -0.38975343 149.41483 -0.38287798 149.45624 -23.312296 -120.38499
15520000000 -20.71443 -98.295952 -0.39023542 149.00319 -0.38465834 149.04692 -23.217587 -118.31902
15550000000 -20.790613 -98.702492 -0.39216584 148.58887 -0.38718477 148.6367 -23.527554 -119.74277
15580000000 -20.737356 -98.169296 -0.39383405 148.1748 -0.38788494 148.21703 -23.348995 -120.68223
15610000000 -20.821573 -98.147316 -0.3962127 147.78426 -0.39058205 147.83 -23.301838 -118.13954
15640000000 -20.805349 -98.574448 -0.39770833 147.37802 -0.39311704 147.42725 -23.495213 -119.34942
15670000000 -20.81835 -98.604912 -0.39832339 146.98238 -0.39292973 147.02267 -23.276785 -120.88598
15700000000 -20.88249 -98.670113 -0.39931569 146.5963 -0.3937003 146.62776 -23.389338 -119.74194
15730000000 -20.850973 -98.694237 -0.39923567 146.20001 -0.39382073 146.23187 -23.507486 -119.67453
15760000000 -20.808775 -98.990158 -0.4002699 145.7986 -0.39420822 145.83623 -23.297707 -121.37529
15790000000 -20.899342 -99.427818 -0.39896211 145.40005 -0.39427227 145.45132 -23.339935 -120.74339
15820000000 -20.909706 -99.430313 -0.39908129 145.01546 -0.39298385 145.05475 -23.621857 -121.68294
15850000000 -20.85873 -99.424667 -0.3975676 144.61528 -0.39228398 144.65446 -23.402136 -122.11328
15880000000 -20.930393 -99.942734 -0.39647505 144.2233 -0.38994458 144.25981 -23.367006 -122.12422
15910000000 -20.945074 -100.47357 -0.3938219 143.82291 -0.38977212 143.86496 -23.610847 -122.98161
15940000000 -20.943283 -100.17323 -0.39284587 143.42145 -0.38733986 143.45984 -23.589977 -124.20103
15970000000 -21.016027 -100.38277 -0.39068514 143.01299 -0.38544044 143.05998 -23.568331 -122.93552
16000000000 -21.011614 -101.08972 -0.38836786 142.60817 -0.38324156 142.65062 -23.625444 -123.83893
16030000000 -21.071041 -100.91642 -0.38762936 142.20482 -0.38232842 142.2408 -23.77199 -125.67528
16060000000 -21.148214 -101.34177 -0.38570097 141.79393 -0.38137418 141.83043 -23.686014 -124.7385
16090000000 -21.143072 -101.53735 -0.38494316 141.38367 -0.37851077 141.42938 -23.973423 -124.8092
16120000000 -21.115164 -101.69417 -0.38346916 140.96233 -0.37845683 141.00865 -23.780712 -126.7597
16150000000 -21.209143 -101.92117 -0.38169128 140.55263 -0.37716123 140.59837 -23.909349 -126.48035
16180000000 -21.270802 -101.89749 -0.38099945 140.14143 -0.37611839 140.18553 -24.249001 -126.22985
16210000000 -21.291931 -101.8367 -0.38242397 139.72205 -0.37672985 139.76443 -23.99057 -126.6141
16240000000 -21.347574 -101.88988 -0.38202709 139.31248 -0.3787387 139.35506 -24.107197 -127.25438
16270000000 -21.365557 -102.37022 -0.38332808 138.9061 -0.3792977 138.94263 -24.283691 -127.30626
16300000000 -21.370218 -101.99064 -0.38438907 138.48973 -0.37959516 138.53601 -24.324739 -128.10184
16330000000 -21.451546 -102.21761 -0.38492051 138.08577 -0.38024837 138.13629 -24.236225 -126.95375
16360000000 -21.423813 -102.63564 -0.38691649 137.68813 -0.38084686 137.73045 -24.309484 -127.93262
16390000000 -21.384804 -102.46349 -0.3880814 137.28964 -0.3821899 137.33096 -24.428251 -129.97986
16420000000 -21.439905 -102.26852 -0.38748419 136.88867 -0.38244233 136.93192 -24.442768 -128.44836
16450000000 -21.460209 -102.67859 -0.38606623 136.49751 -0.38148412 136.53664 -24.497808 -128.53226
16480000000 -21.40954 -102.6132 -0.38594654 136.0968 -0.38190779 136.14584 -24.400644 -130.83028
16510000000 -21.49514 -102.92415 -0.38651466 135.70198 -0.37964603 135.74902 -24.531734 -130.90796
16540000000 -21.522696 -103.43556 -0.38293791 135.30742 -0.37875056 135.35439 -24.759138 -130.14769
16570000000 -21.503384 -103.31439 -0.38048488 134.90881 -0.37627929 134.94681 -24.620522 -131.81728
16600000000 -21.546587 -103.64482 -0.37926182 134.49471 -0.37421906 134.54353 -24.600399 -132.67033
16630000000 -21.53993 -104.43 -0.37693679 134.09959 -0.37201741 134.13701 -24.913795 -132.88995
16660000000 -21.564196 -104.12953 -0.3757695 133.6924 -0.36996627 133.73138 -25.106951 -133.13425
16690000000 -21.693888 -104.21222 -0.37453172 133.26688 -0.36981997 133.31807 -24.773859 -133.21461
16720000000 -21.671934 -104.84408 -0.37219706 132.86555 -0.36709374 132.90756 -25.031937 -134.48808
16750000000 -21.681248 -104.80698 -0.37044916 132.45486 -0.36474115 132.50279 -25.310246 -136.27438
16780000000 -21.775061 -104.81519 -0.37024787 132.03539 -0.36207044 132.0775 -25.213766 -134.5934
16810000000 -21.852932 -105.11578 -0.36881974 131.62451 -0.36378008 131.66304 -25.328749 -134.86389
16840000000 -21.77536 -104.50085 -0.36689094 131.21883 -0.36301059 131.26192 -25.396986 -138.25883
16870000000 -21.885813 -104.77296 -0.36576268 130.79779 -0.36166978 130.85396 -25.516314 -137.05669
16900000000 -21.973219 -105.67839 -0.36450353 130.3876 -0.36144134 130.43527 -25.823885 -135.69551
16930000000 -21.940411 -104.84373 -0.36561513 129.97929 -0.36049113 130.01567 -25.669178 -138.77844
16960000000 -21.990839 -104.75399 -0.36504072 129.56226 -0.3588022 129.60548 -25.751181 -139.7178
16990000000 -21.990597 -105.7114 -0.3639318 129.15582 -0.35657153 129.19077 -26.152256 -139.02715
17020000000 -21.985966 -105.19962 -0.36156768 128.74028 -0.35693347 128.76242 -26.313437 -139.72371
17050000000 -22.141516 -104.93593 -0.36134318 128.31425 -0.35705376 128.3614 -25.933914 -139.37589
17080000000 -22.121868 -104.9404 -0.36245903 127.89987 -0.35596207 127.94532 -26.502567 -140.09149
17110000000 -22.036127 -104.70317 -0.36163154 127.48748 -0.35454226 127.53395 -26.764513 -142.75854
17140000000 -22.27206 -105.28465 -0.36251643 127.06767 -0.3577733 127.1104 -26.50354 -139.55077
17170000000 -22.270996 -105.37846 -0.36117324 126.65981 -0.3584162 126.69839 -26.733376 -139.13562
17200000000 -22.157303 -103.96848 -0.36258873 126.26472 -0.35795096 126.30001 -27.008966 -144.92024
17230000000 -22.30308 -104.6788 -0.362367 125.83872 -0.35949868 125.8811 -26.979792 -141.20464
17260000000 -22.347267 -105.63213 -0.36455703 125.43677 -0.3587575 125.47409 -27.253866 -139.93944
17290000000 -22.350098 -103.84373 -0.36306742 125.03381 -0.35823739 125.07731 -27.249819 -144.31461
17320000000 -22.408792 -104.22224 -0.36402214 124.63024 -0.3568354 124.67284 -27.069265 -142.9959
17350000000 -22.348404 -105.07246 -0.3624686 124.2081 -0.35886434 124.25722 -27.890503 -142.25459
17380000000 -22.394358 -104.32707 -0.36107987 123.81551 -0.35549679 123.86215 -27.842627 -144.52751
17410000000 -22.538828 -104.32824 -0.36069393 123.41415 -0.35577717 123.44961 -27.416477 -143.75246
17440000000 -22.427153 -104.31129 -0.35922873 122.99722 -0.35349303 123.04493 -28.132399 -144.78839
17470000000 -22.429163 -103.5554 -0.35644647 122.58914 -0.35372332 122.6319 -28.631409 -146.85028
17500000000 -22.739471 -104.33375 -0.35718784 122.17316 -0.35232222 122.22917 -27.99733 -143.161
17530000000 -22.712784 -104.26395 -0.35725641 121.76009 -0.34907112 121.8056 -28.489201 -144.28503
17560000000 -22.570053 -102.77891 -0.35317743 121.3501 -0.3487418 121.39813 -28.942303 -149.54179
17590000000 -22.779173 -103.55866 -0.35302073 120.93323 -0.34800103 120.97904 -28.805815 -145.00787
17620000000 -22.839905 -103.89693 -0.35251114 120.51441 -0.34657487 120.55885 -29.297127 -143.60748
17650000000 -22.861881 -101.34635 -0.35208893 120.09561 -0.34468284 120.14645 -29.47019 -149.37035
17680000000 -22.956583 -102.14481 -0.34993494 119.69073 -0.34440932 119.72729 -29.140928 -146.80032
17710000000 -22.891224 -102.56112 -0.35224923 119.26542 -0.3447473 119.30293 -30.451878 -144.55765
17740000000 -22.976194 -101.39706 -0.34963334 118.84412 -0.34573248 118.88237 -30.154293 -147.52417
17770000000 -23.192951 -101.16788 -0.35060614 118.43272 -0.3441647 118.47362 -29.585461 -145.95975
17800000000 -23.005741 -100.88923 -0.34968692 118.01869 -0.34506035 118.04669 -31.064367 -145.68184
17830000000 -23.018095 -99.931091 -0.34972507 117.58769 -0.34384891 117.63668 -31.280762 -149.40224
17860000000 -23.358974 -100.38463 -0.351612 117.19376 -0.34400219 117.2295 -30.381346 -143.25026
17890000000 -23.280111 -99.451286 -0.34968746 116.7569 -0.34386602 116.80991 -31.582943 -143.7193
17920000000 -23.162752 -97.896294 -0.34839958 116.35552 -0.34350234 116.38828 -31.832962 -150.71167
17950000000 -23.370447 -99.387894 -0.35189328 115.93874 -0.34478512 115.96757 -31.346539 -142.56708
17980000000 -23.424398 -98.546028 -0.34955671 115.52649 -0.34516823 115.55858 -32.470764 -140.033
18010000000 -23.42156 -96.574585 -0.34957692 115.10052 -0.34398368 115.15773 -32.393623 -148.70024
18040000000 -23.497728 -97.033257 -0.35050678 114.68527 -0.34587011 114.72773 -32.158577 -142.99065
18070000000 -23.470516 -97.403542 -0.35246849 114.26669 -0.34587121 114.31526 -33.662628 -136.69032
18100000000 -23.56452 -95.493141 -0.35173637 113.84825 -0.34599793 113.89555 -33.372784 -145.8197
18130000000 -23.734074 -95.700317 -0.35103384 113.43732 -0.34476551 113.4906 -32.651199 -140.49025
18160000000 -23.518909 -94.828743 -0.35284019 113.01448 -0.34526774 113.06794 -34.871136 -136.46024
18190000000 -23.569897 -94.091904 -0.35143182 112.599 -0.34829161 112.62589 -34.620411 -144.7196
18220000000 -23.878904 -94.257713 -0.35152611 112.19903 -0.3463921 112.23229 -33.611095 -133.71768
18250000000 -23.706406 -92.711388 -0.35212204 111.76787 -0.34779099 111.81691 -34.965294 -131.77377
18280000000 -23.682316 -91.198624 -0.35256505 111.3436 -0.34813622 111.39423 -35.953918 -143.78357
18310000000 -23.952459 -92.454247 -0.3541086 110.93935 -0.34909469 110.98762 -34.441978 -126.6729
18340000000 -23.897757 -91.421631 -0.35399178 110.52561 -0.35049528 110.57271 -36.32378 -121.54449
18370000000 -23.840105 -89.537727 -0.35485125 110.09731 -0.35077479 110.1415 -36.057655 -140.47209
18400000000 -23.99143 -90.013397 -0.3561947 109.68628 -0.35295221 109.71623 -35.659622 -123.61597
18430000000 -23.888464 -89.480904 -0.358762 109.26702 -0.35298115 109.32255 -37.464771 -110.52194
18460000000 -23.961609 -87.398117 -0.35789192 108.83506 -0.35589939 108.88842 -37.361969 -130.94472
18490000000 -24.188766 -87.805489 -0.3599444 108.4292 -0.35379687 108.47654 -35.481644 -118.27921
18520000000 -23.85936 -87.013077 -0.36366579 108.00665 -0.35905355 108.05267 -38.775917 -104.53767
18550000000 -23.971548 -85.78289 -0.36477381 107.58174 -0.36034292 107.62711 -38.391087 -117.20731
18580000000 -24.240772 -86.353157 -0.36639464 107.1692 -0.36191908 107.23174 -35.543098 -109.04472
18610000000 -23.891378 -85.208076 -0.36955586 106.75323 -0.36607864 106.80344 -38.91597 -101.54264
18640000000 -23.941244 -83.567986 -0.37202391 106.34226 -0.36632761 106.38513 -38.95372 -107.01373
18670000000 -24.107668 -84.646614 -0.37512657 105.92472 -0.37114778 105.96783 -36.282448 -98.898529
18700000000 -23.909403 -82.979935 -0.37923273 105.5238 -0.3731645 105.5638 -37.303303 -87.649765
18730000000 -23.889868 -81.58239 -0.38214919 105.11391 -0.37614548 105.1579 -39.640289 -105.25021
18760000000 -24.049881 -82.8274 -0.38526902 104.69479 -0.37840205 104.74001 -35.630119 -90.884293
18790000000 -23.758589 -81.870857 -0.38734692 104.29942 -0.38252828 104.34436 -37.093464 -75.756195
18820000000 -23.852041 -80.089363 -0.39124909 103.8969 -0.38638395 103.93721 -37.694901 -97.09697
18850000000 -23.964661 -81.245544 -0.39539975 103.48344 -0.38993692 103.53082 -35.716328 -87.816216
18880000000 -23.612667 -80.632568 -0.39918885 103.08617 -0.39262199 103.13831 -36.97057 -72.13755
18910000000 -23.681719 -79.611809 -0.40416238 102.67381 -0.39689478 102.73444 -37.250038 -87.336311
18940000000 -23.823889 -80.75386 -0.40704617 102.30026 -0.40004706 102.34434 -34.950947 -87.523026
18970000000 -23.476051 -79.487129 -0.41262308 101.91832 -0.40513358 101.95598 -36.870163 -67.812531
19000000000 -23.597609 -78.999878 -0.41254309 101.51535 -0.40706691 101.55309 -36.917057 -86.15519
19030000000 -23.676836 -80.232529 -0.4167127 101.13967 -0.40932 101.17729 -34.589046 -81.442299
19060000000 -23.467667 -79.695801 -0.41888726 100.7538 -0.4118332 100.80199 -35.848488 -77.125633
19090000000 -23.640606 -79.128281 -0.41777277 100.39497 -0.41198492 100.43335 -37.637547 -85.09079
19120000000 -23.718721 -80.544212 -0.41946685 100.00605 -0.41428608 100.05674 -34.473415 -82.687218
19150000000 -23.42853 -80.028473 -0.42104292 99.627251 -0.41432652 99.681526 -35.931347 -70.42511
19180000000 -23.532644 -79.714508 -0.42168242 99.260643 -0.41385356 99.303261 -37.11887 -89.330307
19210000000 -23.739269 -80.816902 -0.41779613 98.878845 -0.41239476 98.933868 -35.37426 -81.913521
19240000000 -23.501621 -79.714165 -0.41632465 98.506783 -0.41159359 98.556946 -36.921383 -67.196175
19270000000 -23.724293 -79.95182 -0.41488954 98.123528 -0.40944743 98.170219 -37.246929 -89.869064
19300000000 -23.767324 -81.97155 -0.41158646 97.743118 -0.40707177 97.78141 -36.565224 -82.492584
19330000000 -23.642996 -80.2789 -0.40967813 97.353653 -0.40184441 97.406494 -38.195419 -66.776741
19360000000 -23.905216 -80.097862 -0.40304798 96.965057 -0.39672235 97.021423 -39.06036 -80.687386
19390000000 -23.95458 -81.667465 -0.39845333 96.59256 -0.39324796 96.636162 -37.285454 -79.90493
19420000000 -23.871195 -80.836586 -0.39571676 96.188934 -0.38811225 96.237251 -40.232132 -62.469971
19450000000 -24.194096 -80.40686 -0.38639528 95.780228 -0.37941834 95.82943 -41.2425 -69.108597
19480000000 -24.267666 -80.718437 -0.38282737 95.374817 -0.37630102 95.416321 -38.670933 -66.352592
19510000000 -24.058666 -79.412743 -0.37712142 94.951584 -0.3725135 94.989304 -39.643082 -40.853676
19540000000 -24.383278 -79.375183 -0.37207016 94.539436 -0.3673563 94.586647 -44.286163 -46.410122
19570000000 -24.52145 -79.590302 -0.36859092 94.099541 -0.36284906 94.15226 -38.527905 -45.188423
19600000000 -24.233583 -77.015762 -0.36577731 93.671394 -0.35975963 93.707199 -38.172981 -20.584728
19630000000 -24.411121 -76.993439 -0.36391377 93.245445 -0.35680562 93.284149 -40.828773 -31.667624
19660000000 -24.448648 -77.725548 -0.3607021 92.811394 -0.3544535 92.855919 -37.759708 -26.200489
19690000000 -24.365267 -75.049301 -0.36015561 92.367348 -0.35339558 92.407082 -36.157433 -11.245146
19720000000 -24.440418 -74.404228 -0.357436 91.93895 -0.35323778 91.967491 -37.363354 -15.175849
19750000000 -24.352924 -75.209038 -0.35868075 91.5168 -0.3537761 91.546799 -36.138294 -19.190107
19780000000 -24.189365 -73.453094 -0.35911852 91.070396 -0.35219449 91.105309 -34.286671 -7.4965205
19810000000 -24.457172 -72.543541 -0.35705236 90.636955 -0.35203221 90.672432 -35.14677 -8.7291069
19840000000 -24.318495 -72.800301 -0.36011678 90.20948 -0.35456222 90.255203 -33.778122 -15.786061
19870000000 -23.950651 -71.492523 -0.36201951 89.766762 -0.35544735 89.822182 -32.694439 -7.3446159
19900000000 -24.182547 -71.486839 -0.36019835 89.355003 -0.3555162 89.395943 -33.809288 -8.8161602
19930000000 -24.086903 -71.271126 -0.36444807 88.911369 -0.35976893 88.961075 -31.8804 -13.208779
19960000000 -23.755892 -69.151871 -0.36843312 88.49575 -0.36282682 88.520393 -31.189138 -9.8605585
19990000000 -23.806057 -69.845825 -0.37038517 88.066048 -0.36558893 88.122345 -32.383022 -11.858415
20020000000 -23.710571 -70.7229 -0.37126255 87.661095 -0.36489627 87.702843 -31.084558 -14.011194
20050000000 -23.564281 -67.890167 -0.37716123 87.226273 -0.37131497 87.274055 -29.909611 -10.508144
20080000000 -23.584558 -68.13163 -0.37668806 86.803406 -0.37361982 86.846916 -30.806362 -13.401496
20110000000 -23.32655 -69.280907 -0.38096413 86.407356 -0.37605402 86.460678 -30.014633 -19.130663
20140000000 -23.183512 -68.337357 -0.38594994 85.971008 -0.3800585 86.025711 -29.399498 -10.107123
20170000000 -23.311531 -67.883095 -0.39023316 85.553383 -0.38231483 85.598923 -29.516916 -14.533249
20200000000 -22.984217 -68.326294 -0.39607403 85.169456 -0.38758606 85.217232 -28.828178 -21.733627
20230000000 -22.662025 -67.477417 -0.39883468 84.773659 -0.39328 84.804222 -28.906662 -15.091428
20260000000 -22.903332 -68.464256 -0.40348741 84.346046 -0.39561808 84.396545 -28.726091 -16.571938
20290000000 -22.719849 -68.302002 -0.40826029 83.963554 -0.40228626 84.012344 -28.141008 -21.595135
20320000000 -22.427868 -67.250549 -0.41420123 83.59066 -0.40713289 83.634331 -27.927719 -20.167233
20350000000 -22.453491 -68.619095 -0.41413316 83.19651 -0.40944174 83.248154 -28.456381 -19.81472
20380000000 -22.363407 -69.847382 -0.41739631 82.828018 -0.41204867 82.870171 -27.768934 -23.18014
20410000000 -22.327084 -68.083366 -0.42329156 82.456543 -0.41720396 82.508301 -27.534433 -20.786364
20440000000 -22.316929 -68.601151 -0.42087978 82.096405 -0.41369069 82.140945 -27.804901 -24.237627
20470000000 -22.203934 -69.94339 -0.41624233 81.738602 -0.41072282 81.776199 -27.874336 -25.946787
20500000000 -22.200974 -69.239502 -0.41525641 81.360329 -0.40887457 81.39933 -27.472246 -20.172009
20530000000 -22.437145 -68.682114 -0.4121941 80.967873 -0.40596455 81.008224 -27.290617 -23.871107
20560000000 -22.194767 -68.774979 -0.40228543 80.585487 -0.39759231 80.641396 -27.418434 -26.025881
20590000000 -22.080326 -68.009666 -0.40101534 80.18029 -0.39555711 80.21994 -27.244766 -20.615252
20620000000 -22.342987 -68.30088 -0.39560643 79.754066 -0.39045915 79.784264 -26.909378 -21.16227
20650000000 -22.114328 -67.789085 -0.39023599 79.34108 -0.38592446 79.37645 -26.660786 -24.506336
20680000000 -21.928602 -65.678383 -0.39085424 78.93737 -0.38657239 78.984146 -26.269625 -23.511488
20710000000 -22.020359 -66.890259 -0.39188281 78.475266 -0.38551795 78.52803 -26.834156 -21.394361
20740000000 -21.8514 -67.222343 -0.3904753 78.076103 -0.38531965 78.128807 -25.888186 -24.524035
20770000000 -21.723475 -65.243011 -0.39286882 77.690254 -0.3880378 77.729164 -25.597006 -23.683819
20800000000 -21.699139 -65.696632 -0.39197403 77.262497 -0.38649544 77.315598 -26.12933 -25.570171
20830000000 -21.455999 -65.831627 -0.38991824 76.869713 -0.38343185 76.917938 -25.761591 -26.435669
20860000000 -21.503349 -65.042435 -0.39252681 76.484459 -0.38785523 76.526161 -25.37752 -23.747419
20890000000 -21.60376 -64.923325 -0.39239079 76.073479 -0.38466257 76.119148 -25.411842 -26.306305
20920000000 -21.275446 -65.00341 -0.38543051 75.678398 -0.37861896 75.726189 -25.57086 -28.259752
20950000000 -21.279533 -64.289093 -0.38487583 75.292191 -0.38031647 75.329575 -25.204063 -25.732409
20980000000 -21.365391 -64.981857 -0.38323987 74.859299 -0.37741902 74.908936 -25.216208 -25.062677
21010000000 -21.222771 -64.002663 -0.37793466 74.460251 -0.37260741 74.506378 -24.956747 -28.060345
21040000000 -21.062412 -62.557396 -0.37566957 74.05201 -0.36795864 74.111786 -24.819115 -27.526218
21070000000 -21.057121 -63.412159 -0.37492904 73.615898 -0.36780113 73.666756 -25.01292 -25.104555
21100000000 -20.983734 -62.914272 -0.37141085 73.192833 -0.36604995 73.252731 -24.598579 -27.671371
21130000000 -20.93034 -61.884731 -0.37210739 72.79409 -0.36557627 72.837852 -24.265385 -27.694632
21160000000 -20.884283 -61.709572 -0.37075981 72.348839 -0.36500862 72.403549 -24.712503 -27.717936
21190000000 -20.674625 -62.042824 -0.36924809 71.92231 -0.36139691 71.978691 -24.298473 -28.710352
21220000000 -20.668365 -61.285984 -0.37084129 71.521385 -0.36269709 71.575012 -23.908024 -27.587955
21250000000 -20.711542 -61.190571 -0.36976248 71.098557 -0.36366636 71.145386 -24.096195 -28.274143
21280000000 -20.483168 -60.836761 -0.36634284 70.661415 -0.36144274 70.723503 -24.083719 -30.823315
21310000000 -20.362379 -60.350796 -0.36705518 70.265823 -0.36239767 70.317963 -23.835304 -28.597847
21340000000 -20.409548 -61.121056 -0.36936057 69.830009 -0.36378402 69.884735 -23.670341 -28.184416
21370000000 -20.234062 -60.564667 -0.36807445 69.411209 -0.36307588 69.454849 -23.736013 -31.087641
21400000000 -20.118265 -59.585777 -0.36684304 69.023422 -0.36099827 69.05835 -23.472975 -31.737652
21430000000 -20.025661 -60.48806 -0.36931235 68.589333 -0.36537182 68.63707 -23.629288 -27.280611
21460000000 -19.917751 -60.119251 -0.3681598 68.154182 -0.36232227 68.203308 -23.396694 -32.491718
21490000000 -19.90007 -59.417797 -0.36988622 67.771622 -0.36240077 67.818802 -22.997799 -31.365021
21520000000 -19.839506 -59.507252 -0.37189388 67.330467 -0.36483207 67.389061 -23.504068 -30.937946
21550000000 -19.692526 -59.585827 -0.37145174 66.887436 -0.36440781 66.952271 -23.135498 -32.528881
21580000000 -19.62369 -59.579449 -0.37399787 66.504791 -0.36665744 66.550949 -22.763544 -30.970835
21610000000 -19.664766 -59.824944 -0.37513813 66.066513 -0.36817953 66.11927 -23.025541 -32.216068
21640000000 -19.462463 -59.161652 -0.37444678 65.639969 -0.3688857 65.693657 -23.050251 -34.360683
21670000000 -19.366104 -59.177826 -0.37740546 65.245094 -0.37196299 65.294449 -22.68804 -31.704365
21700000000 -19.353464 -60.146454 -0.38205081 64.825813 -0.37742552 64.865189 -22.63032 -32.661385
21730000000 -19.315025 -59.659878 -0.38568062 64.412949 -0.37998843 64.453377 -22.69824 -35.092003
21760000000 -19.15649 -59.059265 -0.38556349 64.017998 -0.37850145 64.063232 -22.432526 -34.320229
21790000000 -19.108103 -60.320583 -0.39057356 63.606033 -0.38677642 63.664829 -22.716892 -32.222324
21820000000 -19.064476 -60.278149 -0.39440691 63.184612 -0.38829312 63.229092 -22.325527 -36.630116
21850000000 -19.052797 -60.191261 -0.39838183 62.819984 -0.3903079 62.880264 -22.139978 -34.866745
21880000000 -19.049835 -60.425598 -0.40165615 62.43148 -0.39565548 62.484715 -22.591797 -34.666229
21910000000 -18.928587 -60.862309 -0.40460476 62.024601 -0.39855266 62.079651 -22.374077 -36.754906
21940000000 -18.961237 -61.105831 -0.40393397 61.682564 -0.39918402 61.745872 -21.99618 -35.737804
21970000000 -19.055208 -61.584969 -0.40414903 61.337654 -0.39706016 61.38377 -22.555374 -36.317108
22000000000 -18.962561 -60.761082 -0.39756933 60.931011 -0.39170745 60.979321 -22.545208 -36.944916
22030000000 -18.874348 -60.496563 -0.39096215 60.54628 -0.38495898 60.595268 -22.061106 -34.937805
22060000000 -18.92601 -61.429745 -0.38921887 60.148129 -0.38400361 60.196655 -22.38969 -33.474304
22090000000 -18.923397 -60.389481 -0.38427228 59.715218 -0.37726796 59.766575 -22.172152 -36.754475
22120000000 -18.830421 -59.683449 -0.37996158 59.308323 -0.37232199 59.356201 -21.97711 -34.152287
22150000000 -18.740093 -60.589176 -0.37905762 58.88496 -0.37186202 58.928974 -21.961735 -32.447376
22180000000 -18.690289 -60.700226 -0.37787056 58.454842 -0.37209103 58.506493 -21.798719 -36.035835
22210000000 -18.724005 -60.151974 -0.3747552 58.050373 -0.36725572 58.098129 -21.465841 -34.627296
22240000000 -18.615864 -59.980816 -0.37479159 57.622749 -0.36805275 57.673489 -21.778559 -32.547661
22270000000 -18.463446 -60.124805 -0.37556291 57.16814 -0.36916244 57.213463 -21.418257 -36.055328
22300000000 -18.458307 -60.444588 -0.37564871 56.768566 -0.36869207 56.826958 -21.028973 -34.267761
22330000000 -18.536455 -60.352295 -0.37314221 56.380493 -0.36798003 56.417164 -21.399317 -34.447758
22360000000 -18.346375 -59.788334 -0.37378007 55.913109 -0.36660025 55.952396 -21.139023 -36.100636
22390000000 -18.244753 -60.316383 -0.37490362 55.501194 -0.36762366 55.555832 -20.676937 -34.847927
22420000000 -18.256853 -61.039043 -0.37861046 55.108818 -0.37129411 55.156387 -21.000076 -34.988388
22450000000 -18.284525 -60.627792 -0.37783158 54.677391 -0.37103191 54.716412 -20.735838 -37.258816
22480000000 -18.098042 -60.109409 -0.37511671 54.23666 -0.3705278 54.293411 -20.486301 -35.835285
22510000000 -18.048149 -60.787251 -0.37954348 53.837055 -0.37437144 53.891636 -20.608 -35.579117
22540000000 -18.019444 -61.129932 -0.38236064 53.428036 -0.37551603 53.469612 -20.424597 -38.725311
22570000000 -18.027781 -60.549431 -0.37854609 53.008633 -0.37306324 53.059837 -20.097965 -37.955479
22600000000 -17.983931 -60.823067 -0.38084146 52.599075 -0.37433702 52.648228 -20.374767 -35.666649
22630000000 -17.803961 -61.345371 -0.38697225 52.169235 -0.38161159 52.230698 -20.114531 -39.579647
22660000000 -17.799921 -61.75267 -0.38714853 51.776054 -0.38164607 51.824066 -19.734528 -38.98243
22690000000 -17.857616 -61.805031 -0.38592333 51.371933 -0.38113341 51.422138 -20.153086 -38.071346
22720000000 -17.666031 -61.258171 -0.39029261 50.941929 -0.38366625 50.980614 -19.806057 -40.348652
22750000000 -17.560974 -61.913036 -0.39416116 50.534416 -0.38672096 50.587337 -19.38273 -39.851475
22780000000 -17.630787 -62.891441 -0.3944191 50.145596 -0.38613948 50.201996 -19.808565 -39.643147
22810000000 -17.556942 -62.502693 -0.39477006 49.731056 -0.38637885 49.775192 -19.559065 -42.082684
22840000000 -17.444548 -62.229923 -0.39762491 49.30135 -0.38968945 49.351688 -19.191156 -40.98711
22870000000 -17.397278 -63.196232 -0.39785725 48.927502 -0.39303458 48.965435 -19.409521 -41.145844
22900000000 -17.33005 -63.719101 -0.39901829 48.516327 -0.39309013 48.561409 -19.211378 -44.058929
22930000000 -17.362061 -63.345039 -0.39801952 48.095551 -0.39207488 48.144001 -19.044123 -42.803165
22960000000 -17.283617 -63.33308 -0.4006764 47.670322 -0.39606184 47.715134 -19.166822 -42.577869
22990000000 -17.159586 -64.008537 -0.40758324 47.29332 -0.3988713 47.332664 -18.982391 -45.598446
23020000000 -17.176346 -64.713966 -0.40770692 46.876331 -0.4016431 46.928764 -18.714109 -44.507679
23050000000 -17.235725 -64.833488 -0.40897754 46.471283 -0.40155932 46.522236 -19.10602 -45.23267
23080000000 -17.125475 -64.374687 -0.41483346 46.070648 -0.40817213 46.112022 -18.829424 -47.082714
23110000000 -17.032675 -65.084671 -0.41972458 45.69669 -0.41357166 45.734604 -18.492926 -46.465527
23140000000 -17.142359 -65.987991 -0.41643578 45.337376 -0.40971425 45.38467 -18.984087 -47.387825
23170000000 -17.140526 -65.432327 -0.41586968 44.95018 -0.40923864 44.991879 -18.75561 -48.857479
23200000000 -17.025917 -64.923759 -0.41437808 44.555561 -0.40919769 44.607796 -18.49123 -47.150978
23230000000 -17.002758 -65.783195 -0.40743056 44.166321 -0.40198866 44.229149 -18.780834 -47.817001
23260000000 -16.933073 -65.839104 -0.40473321 43.781902 -0.39779258 43.826588 -18.492508 -50.821384
23290000000 -16.915958 -65.410149 -0.40419394 43.318024 -0.39617243 43.382977 -18.442675 -48.240913
23320000000 -16.876408 -65.299324 -0.40083763 42.903568 -0.3969833 42.968597 -18.440615 -48.634148
23350000000 -16.718649 -65.492912 -0.40392232 42.512215 -0.39786521 42.569466 -18.333094 -51.657265
23380000000 -16.739466 -66.04039 -0.40311557 42.098267 -0.39406422 42.152893 -18.125132 -50.398521
23410000000 -16.76948 -66.389709 -0.39935428 41.67281 -0.39268634 41.712997 -18.394337 -50.341515
23440000000 -16.610201 -65.987343 -0.4023158 41.277229 -0.39802408 41.321827 -18.076998 -53.215801
23470000000 -16.473539 -66.477394 -0.40441212 40.868176 -0.39778918 40.914024 -17.895781 -51.575706
23500000000 -16.541534 -67.183205 -0.40065369 40.446579 -0.39508277 40.498077 -18.30208 -53.224941
23530000000 -16.484873 -66.929367 -0.40467638 40.038555 -0.39881569 40.073036 -18.014706 -54.705318
23560000000 -16.43726 -66.731522 -0.40914279 39.617218 -0.40000564 39.664299 -17.782843 -53.170967
23590000000 -16.357098 -67.65287 -0.40360132 39.21909 -0.39860401 39.273483 -18.069206 -54.852524
23620000000 -16.3125 -67.850845 -0.40515828 38.828999 -0.39993837 38.871239 -17.965252 -56.694077
23650000000 -16.329372 -68.007965 -0.40980414 38.426125 -0.40249869 38.459259 -17.774284 -54.768608
23680000000 -16.313133 -68.12545 -0.40724349 38.013855 -0.40162066 38.055805 -17.995211 -56.148197
23710000000 -16.14233 -68.162651 -0.40824264 37.6357 -0.39964092 37.683228 -17.734121 -57.656517
23740000000 -16.209749 -68.610352 -0.40654415 37.220173 -0.40055376 37.264671 -17.790985 -57.065029
23770000000 -16.248814 -69.064827 -0.40277618 36.785225 -0.3974238 36.833012 -18.006756 -56.698402
23800000000 -16.137426 -68.465919 -0.40334395 36.393852 -0.39781272 36.450775 -17.714397 -59.009987
23830000000 -16.037119 -69.035179 -0.40247172 36.005951 -0.39788109 36.052662 -17.498861 -57.839211
23860000000 -16.070456 -69.692261 -0.39979076 35.563705 -0.39286485 35.610622 -18.075886 -59.258682
23890000000 -16.000141 -69.528351 -0.40179899 35.149113 -0.39550892 35.219933 -17.591883 -59.67477
23920000000 -16.006569 -69.427902 -0.40319738 34.750008 -0.39831147 34.807117 -17.61055 -58.413746
23950000000 -15.913501 -69.832565 -0.40038458 34.334332 -0.39542896 34.39006 -17.745955 -61.3825
23980000000 -15.867131 -70.261497 -0.40154883 33.917416 -0.3953833 33.980988 -17.729208 -60.751221
24010000000 -15.912991 -70.3769 -0.40507248 33.515732 -0.39682588 33.567402 -17.52776 -60.388271
24040000000 -15.870525 -70.702797 -0.40261969 33.104084 -0.39714864 33.164818 -17.699186 -61.256458
24070000000 -15.70805 -70.444801 -0.39997301 32.730991 -0.39663926 32.779884 -17.565477 -62.957085
24100000000 -15.72658 -71.190369 -0.40410244 32.304935 -0.39636046 32.368523 -17.617636 -61.876762
24130000000 -15.749362 -71.691536 -0.40311787 31.904087 -0.39501783 31.947056 -17.663027 -62.224937
24160000000 -15.700389 -71.015198 -0.40257764 31.499102 -0.39655304 31.555761 -17.580858 -63.891304
24190000000 -15.626883 -71.569527 -0.39929923 31.097815 -0.3942343 31.164227 -17.42001 -62.450806
24220000000 -15.612944 -72.340935 -0.39706099 30.664923 -0.39085963 30.707018 -17.764246 -63.52042
24250000000 -15.626082 -72.176735 -0.39839914 30.246449 -0.39188024 30.304379 -17.546904 -64.568863
24280000000 -15.645168 -72.133301 -0.40216586 29.863493 -0.39533168 29.912746 -17.349039 -62.455956
24310000000 -15.527469 -72.573326 -0.39758605 29.411444 -0.39054921 29.481802 -17.649681 -65.267502
24340000000 -15.473746 -72.897507 -0.39917493 29.016064 -0.39199215 29.062609 -17.525696 -65.264641
24370000000 -15.553261 -73.475876 -0.40238255 28.606815 -0.39485595 28.668367 -17.495913 -63.480633
24400000000 -15.515292 -73.234047 -0.39977518 28.209846 -0.39641178 28.254938 -17.493036 -64.903122
24430000000 -15.383449 -73.116982 -0.39662394 27.790249 -0.39098084 27.850107 -17.506756 -66.875648
24460000000 -15.4162 -73.818367 -0.39909604 27.386467 -0.3963168 27.444311 -17.401926 -64.767273
24490000000 -15.451845 -74.346085 -0.39856088 26.953791 -0.3949481 27.02549 -17.507679 -65.000893
24520000000 -15.413131 -73.787621 -0.40011746 26.572258 -0.39249703 26.623116 -17.379131 -67.354614
24550000000 -15.321031 -74.296371 -0.3989743 26.157679 -0.39106384 26.216049 -17.293285 -65.46048
24580000000 -15.313266 -75.266884 -0.39808536 25.720503 -0.39219218 25.767845 -17.552509 -67.017494
24610000000 -15.320979 -75.048309 -0.39943773 25.311329 -0.39387318 25.375351 -17.294834 -66.866631
24640000000 -15.348791 -75.091957 -0.40072238 24.927752 -0.39414981 24.979782 -17.160479 -66.68586
24670000000 -15.249988 -75.492043 -0.39786008 24.480917 -0.39120632 24.540525 -17.4513 -67.397995
24700000000 -15.21174 -75.830788 -0.40010583 24.071907 -0.39392221 24.127373 -17.285831 -68.256958
24730000000 -15.294939 -76.361488 -0.4032383 23.681633 -0.39571106 23.745302 -17.181341 -67.030396
24760000000 -15.259024 -76.299332 -0.40201452 23.265196 -0.39741215 23.309347 -17.227955 -68.131058
24790000000 -15.194344 -75.978058 -0.40068716 22.838911 -0.39562601 22.899445 -17.279234 -69.76532
24820000000 -15.18373 -77.260597 -0.40833506 22.451996 -0.40048137 22.484205 -17.078869 -67.706696
24850000000 -15.222704 -77.42881 -0.40754941 22.031565 -0.40113658 22.090071 -17.193151 -68.637367
24880000000 -15.174859 -76.853333 -0.40597194 21.637556 -0.39942241 21.687122 -17.080919 -70.372322
24910000000 -15.15641 -77.297562 -0.40751302 21.256245 -0.402399 21.29302 -17.017231 -68.93055
24940000000 -15.098646 -77.978241 -0.40937319 20.81542 -0.40240809 20.859697 -17.197773 -69.433762
24970000000 -15.131993 -78.09333 -0.40785876 20.439114 -0.40169194 20.483616 -16.931353 -71.39212
25000000000 -15.142686 -78.196564 -0.40795147 20.033613 -0.40204093 20.086643 -16.977381 -69.691231
25030000000 -15.0538 -78.316055 -0.40668628 19.599161 -0.39955747 19.663364 -17.068466 -70.987831
25060000000 -15.00645 -78.821732 -0.40744647 19.188168 -0.40240413 19.258335 -16.927814 -71.473267
25090000000 -15.071873 -79.623177 -0.40976062 18.816467 -0.40547857 18.861841 -16.93528 -71.139694
25120000000 -15.065133 -79.350563 -0.4088757 18.386818 -0.40168795 18.444248 -16.95186 -71.495934
25150000000 -14.973333 -79.276375 -0.4073737 17.960812 -0.40285826 18.006588 -16.947975 -72.987404
25180000000 -14.960213 -80.336128 -0.41090974 17.571796 -0.40298721 17.626528 -16.795843 -71.806946
25210000000 -14.982764 -80.612465 -0.41031566 17.174856 -0.40476558 17.21483 -17.009508 -72.593658
25240000000 -15.00236 -80.371735 -0.40699556 16.773922 -0.40099433 16.824202 -16.67412 -73.620239
25270000000 -14.944264 -80.671616 -0.40949008 16.356853 -0.40407944 16.40081 -16.937954 -72.977287
25300000000 -14.909298 -81.300621 -0.41109186 15.946071 -0.40505117 15.997527 -16.749258 -73.285545
25330000000 -14.95714 -81.59346 -0.40861464 15.55166 -0.40462607 15.609499 -16.755236 -74.862907
25360000000 -14.987107 -81.962158 -0.40835983 15.148077 -0.40372035 15.205729 -16.651882 -74.171242
25390000000 -14.852509 -82.023956 -0.41089696 14.73231 -0.40292585 14.781224 -16.738995 -74.312248
25420000000 -14.84931 -82.414864 -0.40986559 14.324574 -0.40534642 14.370667 -16.682467 -75.768936
25450000000 -14.894958 -83.049683 -0.40844768 13.95505 -0.401113 13.992127 -16.475389 -75.256065
25480000000 -14.938618 -82.788712 -0.40918174 13.533107 -0.40436751 13.564078 -16.824505 -75.902885
25510000000 -14.861461 -82.787651 -0.40788719 13.090145 -0.4008362 13.133327 -16.465874 -77.277031
25540000000 -14.83539 -83.842659 -0.41112515 12.711722 -0.40650293 12.767379 -16.502638 -75.936691
25570000000 -14.854622 -83.854828 -0.41108787 12.30265 -0.40333176 12.344134 -16.709032 -77.760178
25600000000 -14.922437 -84.028679 -0.40816244 11.897716 -0.40231153 11.947604 -16.43442 -78.166824
25630000000 -14.834899 -84.184784 -0.41155487 11.469763 -0.40162861 11.540735 -16.527788 -77.698685
25660000000 -14.7942 -84.704895 -0.40984511 11.073694 -0.40448287 11.122341 -16.502666 -78.74292
25690000000 -14.829845 -84.952347 -0.41054496 10.685596 -0.40424535 10.720828 -16.547037 -79.411125
25720000000 -14.859877 -85.127548 -0.40914193 10.269094 -0.40212923 10.307204 -16.404474 -79.664658
25750000000 -14.803312 -84.865433 -0.40888083 9.8488388 -0.40439934 9.895216 -16.513878 -79.672592
25780000000 -14.767589 -85.352745 -0.41179308 9.4639273 -0.40374419 9.5003977 -16.61846 -81.51709
25810000000 -14.768203 -86.024788 -0.41004083 9.0756483 -0.40296903 9.1251364 -16.22888 -80.544151
25840000000 -14.821747 -85.998672 -0.40964454 8.6411371 -0.40347037 8.6952467 -16.694752 -81.335159
25870000000 -14.777319 -85.731834 -0.41092795 8.2108164 -0.40253901 8.2566767 -16.422077 -82.986893
25900000000 -14.702808 -86.706337 -0.41097236 7.8475151 -0.40798444 7.8921232 -16.388943 -81.157104
25930000000 -14.745023 -87.051064 -0.41104063 7.4296031 -0.40503213 7.4763432 -16.539644 -83.052902
25960000000 -14.758724 -87.141571 -0.40753037 7.0247817 -0.40377885 7.0695009 -16.383472 -83.954475
25990000000 -14.731146 -87.075836 -0.41269112 6.6024623 -0.40502161 6.6483693 -16.526043 -83.140175
26020000000 -14.652853 -87.356178 -0.40960985 6.2224383 -0.4054189 6.260355 -16.391214 -83.295105
26050000000 -14.693673 -87.772186 -0.41209278 5.7953992 -0.4056738 5.8526468 -16.525688 -85.911713
26080000000 -14.762195 -88.199898 -0.41031963 5.3761015 -0.40186229 5.4356318 -16.312881 -84.720146
26110000000 -14.729459 -87.792313 -0.41255161 4.9769244 -0.4066911 5.032855 -16.643888 -84.625511
26140000000 -14.610855 -88.107498 -0.41296241 4.561656 -0.4049986 4.6204462 -16.346178 -86.580482
26170000000 -14.673244 -89.042 -0.40796256 4.1780763 -0.40245411 4.2228117 -16.254322 -86.523102
26200000000 -14.731784 -88.902672 -0.40997711 3.7696774 -0.39933443 3.8083463 -16.737825 -86.744774
26230000000 -14.688581 -88.385536 -0.40839791 3.3508582 -0.40512618 3.3974726 -16.326609 -87.727722
26260000000 -14.567603 -89.326805 -0.40820965 2.9547017 -0.40634912 3.0253448 -16.293623 -87.382843
26290000000 -14.642884 -89.828934 -0.40837175 2.5518639 -0.40241265 2.6221442 -16.600607 -88.674698
26320000000 -14.726633 -89.858284 -0.40736261 2.1215477 -0.39968577 2.1814594 -16.432123 -89.272049
26350000000 -14.645238 -89.42131 -0.41073278 1.7019527 -0.40440416 1.7817146 -16.441854 -88.349281
26380000000 -14.581042 -89.909264 -0.40945539 1.3147168 -0.40428001 1.3824811 -16.467455 -89.639626
26410000000 -14.618763 -90.748222 -0.40735778 0.90396661 -0.40084559 0.98554826 -16.505249 -91.244919
26440000000 -14.696886 -90.606651 -0.40632442 0.49555942 -0.40005332 0.55399299 -16.509499 -90.068115
26470000000 -14.666387 -90.255653 -0.4084619 0.061904378 -0.40196142 0.15096474 -16.633583 -89.952911
26500000000 -14.520431 -90.630066 -0.40907538 -0.31464288 -0.4034681 -0.24048725 -16.524855 -92.59864
26530000000 -14.584904 -91.774994 -0.40336213 -0.70804465 -0.3971566 -0.66579926 -16.360395 -92.398941
26560000000 -14.739325 -91.439667 -0.40557435 -1.1097945 -0.39778405 -1.0390793 -16.896111 -90.894272
26590000000 -14.598406 -90.804138 -0.40663224 -1.5475626 -0.40260661 -1.4691807 -16.310913 -93.72245
26620000000 -14.502885 -91.727097 -0.40819061 -1.9238237 -0.40009788 -1.8603122 -16.570576 -92.423058
26650000000 -14.562653 -92.206039 -0.40420359 -2.301002 -0.39663017 -2.3025355 -16.831438 -93.721695
26680000000 -14.624287 -91.901619 -0.40367064 -2.7441695 -0.39731345 -2.7122271 -16.650461 -94.537552
26710000000 -14.59696 -91.701691 -0.4045144 -3.2049077 -0.39877254 -3.131386 -16.629616 -92.584312
26740000000 -14.444547 -92.378296 -0.41025621 -3.5659862 -0.40232831 -3.4885709 -16.732859 -94.864616
26770000000 -14.548959 -93.088722 -0.40148723 -3.9910307 -0.39919138 -3.9113023 -16.779819 -95.693878
26800000000 -14.689901 -92.829865 -0.40631872 -4.4009662 -0.39380997 -4.3908625 -16.668856 -94.509377
26830000000 -14.572179 -92.460785 -0.40889618 -4.8202796 -0.39800677 -4.7684264 -16.792391 -94.374557
26860000000 -14.42337 -93.17894 -0.40801486 -5.1870255 -0.40131515 -5.1469474 -16.632711 -97.529724
26890000000 -14.595322 -93.799911 -0.41022974 -5.635325 -0.39874163 -5.5985427 -16.802582 -95.303406
26920000000 -14.666313 -93.746346 -0.40720338 -6.0477071 -0.40522507 -6.0060115 -16.990698 -95.528618
26950000000 -14.514812 -92.964699 -0.40644976 -6.4459291 -0.39770746 -6.3781877 -16.659225 -97.394913
26980000000 -14.509023 -93.794128 -0.40787897 -6.8572645 -0.39844993 -6.801693 -16.756266 -96.940224
27010000000 -14.569774 -94.679459 -0.40095261 -7.2441258 -0.39353392 -7.220881 -17.075727 -97.451958
27040000000 -14.637737 -94.185585 -0.4062559 -7.6634569 -0.39846894 -7.6208324 -16.683393 -98.273697
27070000000 -14.677609 -93.639465 -0.40890187 -8.0636444 -0.4042303 -8.0261059 -16.793114 -96.803322
27100000000 -14.522321 -94.625999 -0.39974111 -8.4554682 -0.3942306 -8.4190693 -16.900948 -98.755333
27130000000 -14.59343 -94.91452 -0.40474483 -8.8807688 -0.39653856 -8.8513098 -16.883736 -99.877647
27160000000 -14.77126 -95.44693 -0.40845481 -9.3461924 -0.399037 -9.2653475 -16.910213 -96.848763
27190000000 -14.608777 -94.412247 -0.40794265 -9.7203941 -0.39614919 -9.6396599 -16.966127 -99.381996
27220000000 -14.51438 -95.061913 -0.39963382 -10.107918 -0.39215648 -10.088305 -16.927032 -100.72978
27250000000 -14.660123 -96.162827 -0.40330192 -10.56045 -0.40008169 -10.514372 -17.066879 -98.228218
27280000000 -14.73002 -95.858513 -0.40186828 -10.950265 -0.39516073 -10.924656 -17.022655 -100.14394
27310000000 -14.661214 -94.900108 -0.40256828 -11.359251 -0.40011123 -11.301175 -17.008236 -99.868782
27340000000 -14.658492 -95.781952 -0.40233624 -11.773165 -0.40221187 -11.708884 -16.893658 -100.50588
27370000000 -14.748531 -97.047989 -0.4053953 -12.230396 -0.39578763 -12.174575 -17.195284 -100.22103
27400000000 -14.814482 -96.042953 -0.41075638 -12.619366 -0.40159115 -12.563171 -16.984444 -100.99245
27430000000 -14.760682 -95.887726 -0.40896758 -13.002409 -0.40258959 -12.933355 -17.069757 -99.590164
27460000000 -14.681632 -96.653625 -0.40426213 -13.442387 -0.39742464 -13.357728 -17.179031 -102.31174
27490000000 -14.771931 -96.712341 -0.40478379 -13.839411 -0.40047058 -13.808572 -17.049625 -102.22776
27520000000 -14.915653 -96.669357 -0.41045648 -14.237841 -0.40421864 -14.201643 -17.132156 -100.2874
27550000000 -14.806481 -96.556931 -0.4107396 -14.602508 -0.40394819 -14.590195 -17.166496 -102.3032
27580000000 -14.774449 -97.430588 -0.41237372 -15.058791 -0.40256971 -15.042337 -17.014965 -101.94021
27610000000 -14.911102 -98.123962 -0.40810958 -15.498441 -0.40028208 -15.481525 -17.199404 -102.36364
27640000000 -14.973727 -97.588341 -0.40815592 -15.892703 -0.40192506 -15.818418 -17.242285 -102.24165
27670000000 -14.858685 -96.324364 -0.41116357 -16.299089 -0.39665967 -16.217489 -17.02112 -102.73534
27700000000 -14.887815 -98.396133 -0.41145328 -16.672615 -0.40037492 -16.686052 -17.118153 -102.59753
27730000000 -14.954364 -98.820641 -0.40831771 -17.168478 -0.39836028 -17.066782 -17.536009 -103.59766
27760000000 -15.06832 -97.616486 -0.40715763 -17.533026 -0.40665698 -17.438114 -17.057671 -102.2616
27790000000 -14.996811 -98.322853 -0.41484058 -17.9424 -0.409161 -17.839672 -17.225409 -103.60388
27820000000 -14.937659 -98.61142 -0.41644204 -18.370583 -0.40063494 -18.324862 -17.257353 -104.08384
27850000000 -15.065957 -98.895065 -0.41866091 -18.779486 -0.40812805 -18.690224 -17.280525 -104.56673
27880000000 -15.176771 -98.879944 -0.41233814 -19.192896 -0.41187134 -19.090502 -17.378922 -102.62827
27910000000 -15.075049 -98.656357 -0.4109385 -19.574135 -0.40913171 -19.514124 -17.167921 -105.49991
27940000000 -15.153746 -99.29866 -0.41401413 -19.966711 -0.41108987 -19.905413 -17.227604 -104.62549
27970000000 -15.317762 -99.82682 -0.42311206 -20.383501 -0.4166922 -20.284023 -17.338898 -105.11664
28000000000 -15.237967 -99.48362 -0.41644716 -20.766657 -0.41358048 -20.737606 -17.346331 -104.95583
28030000000 -15.241294 -98.83979 -0.41836676 -21.184898 -0.41344753 -21.160032 -17.078291 -106.24178
28060000000 -15.252475 -100.36964 -0.42003083 -21.616573 -0.42011523 -21.543417 -17.425325 -105.75885
28090000000 -15.235776 -100.81778 -0.41661042 -21.993044 -0.41675004 -21.957245 -17.436714 -106.50304
28120000000 -15.42704 -99.685486 -0.41918403 -22.401182 -0.41560134 -22.274174 -17.230972 -106.11498
28150000000 -15.416397 -100.40802 -0.41815326 -22.802034 -0.4121924 -22.738676 -17.408974 -106.1971
28180000000 -15.276945 -100.77659 -0.4208661 -23.181894 -0.41017482 -23.167208 -17.43573 -107.92797
28210000000 -15.431062 -100.61831 -0.42130476 -23.606647 -0.41634318 -23.531223 -17.42271 -106.94823
28240000000 -15.480259 -100.78595 -0.41700619 -23.986202 -0.41391677 -23.958017 -17.455313 -106.89281
28270000000 -15.415898 -100.6284 -0.42304075 -24.38883 -0.41685462 -24.326303 -17.410963 -109.43433
28300000000 -15.555846 -100.87793 -0.42403385 -24.743103 -0.41407794 -24.726845 -17.465282 -108.57148
28330000000 -15.575508 -102.20545 -0.41624573 -25.166676 -0.41635114 -25.088964 -17.568838 -108.06221
28360000000 -15.467657 -101.17918 -0.42459586 -25.652109 -0.41008976 -25.53813 -17.365349 -110.15559
28390000000 -15.621645 -102.1238 -0.4221029 -25.932507 -0.41656768 -25.916185 -17.552162 -108.82433
28420000000 -15.642776 -102.9755 -0.42703566 -26.38439 -0.41592067 -26.319647 -17.703373 -110.24514
28450000000 -15.523936 -102.98531 -0.42098674 -26.778923 -0.412561 -26.713434 -17.503675 -110.57499
28480000000 -15.690932 -102.2041 -0.41120711 -27.217478 -0.40963289 -27.093784 -17.678595 -110.90457
28510000000 -15.691909 -103.29651 -0.42014262 -27.601318 -0.40967214 -27.508722 -17.560932 -111.79675
28540000000 -15.645486 -102.84332 -0.41667625 -27.989981 -0.40629798 -27.919764 -17.810688 -110.9591
28570000000 -15.745928 -103.34415 -0.41683838 -28.392094 -0.40404078 -28.34746 -17.548676 -111.89306
28600000000 -15.790459 -104.58761 -0.41639587 -28.768894 -0.40472835 -28.740192 -17.757967 -111.5024
28630000000 -15.695092 -103.85942 -0.41913983 -29.227568 -0.4018589 -29.126909 -17.778807 -114.89336
28660000000 -15.873937 -104.2439 -0.40621412 -29.561415 -0.40290567 -29.51964 -17.671949 -110.44692
28690000000 -15.846771 -105.127 -0.40809733 -29.98251 -0.40238625 -29.929291 -17.884995 -115.33199
28720000000 -15.761848 -105.15568 -0.40803307 -30.449038 -0.39487609 -30.34037 -17.734283 -114.7038
28750000000 -15.946802 -105.34866 -0.40770665 -30.777369 -0.40247086 -30.717793 -17.932905 -114.89629
28780000000 -15.86357 -105.60104 -0.40304628 -31.217398 -0.39792818 -31.157513 -17.883139 -115.92263
28810000000 -15.890217 -104.74249 -0.39653373 -31.623053 -0.39111936 -31.62171 -17.728603 -116.02383
28840000000 -15.958499 -105.91515 -0.40164509 -32.043602 -0.3958469 -31.986814 -18.164368 -117.02934
28870000000 -16.035036 -107.02962 -0.40307242 -32.451382 -0.39505044 -32.382545 -18.168268 -118.57654
28900000000 -15.990545 -104.92664 -0.39908978 -32.903542 -0.38602236 -32.84024 -18.005184 -116.83703
28930000000 -16.090273 -106.7743 -0.40137139 -33.298756 -0.38955125 -33.220016 -18.12698 -118.60857
28960000000 -15.914216 -107.59144 -0.39913973 -33.70079 -0.39275461 -33.641598 -18.370377 -119.57127
28990000000 -16.100006 -106.52083 -0.38855526 -34.096508 -0.3911562 -34.018429 -18.223248 -118.72456
29020000000 -16.205225 -106.62948 -0.39685366 -34.544212 -0.38943404 -34.418774 -18.39291 -119.84549
29050000000 -16.028986 -107.41322 -0.40401408 -34.908676 -0.38810855 -34.888828 -18.401131 -121.83487
29080000000 -16.097902 -107.40005 -0.3983424 -35.312656 -0.39146098 -35.29113 -18.245291 -120.62415
29110000000 -16.418114 -108.60039 -0.38774288 -35.779873 -0.37579009 -35.638416 -18.939972 -119.6437
29140000000 -16.151592 -107.74365 -0.39728451 -36.181149 -0.38796309 -36.096909 -18.440451 -123.10548
29170000000 -16.058641 -107.65659 -0.38947368 -36.614799 -0.39004454 -36.543377 -18.591255 -121.68716
29200000000 -16.253269 -108.69476 -0.39348263 -37.015457 -0.38349518 -36.908878 -18.874699 -123.14342
29230000000 -16.227949 -109.41265 -0.38696346 -37.406513 -0.38770467 -37.303993 -18.997166 -124.53535
29260000000 -16.21542 -107.06143 -0.39187431 -37.902596 -0.38710156 -37.790527 -18.767117 -122.34927
29290000000 -16.260557 -109.08186 -0.39524013 -38.209644 -0.38896292 -38.191444 -19.198769 -125.10172
29320000000 -16.173138 -109.46954 -0.39604822 -38.633739 -0.38649091 -38.578377 -19.040798 -124.87392
29350000000 -16.393688 -108.79158 -0.38700986 -39.046143 -0.38345194 -39.004642 -18.965355 -122.82561
29380000000 -16.532806 -107.76485 -0.38867697 -39.441559 -0.38127273 -39.441612 -19.535334 -124.87881
29410000000 -16.164089 -109.15622 -0.39219359 -39.879086 -0.38548625 -39.737179 -18.908339 -126.0427
29440000000 -16.369112 -109.13289 -0.38875315 -40.264465 -0.37854919 -40.229195 -19.427689 -125.00539
29470000000 -16.627018 -110.40806 -0.38702798 -40.698677 -0.37571812 -40.633461 -19.398182 -125.38242
29500000000 -16.388384 -108.64581 -0.39388791 -41.114632 -0.38493863 -41.029739 -19.405493 -127.90107
29530000000 -16.349669 -109.0795 -0.38618731 -41.534817 -0.38380313 -41.459942 -19.368753 -125.15208
29560000000 -16.597122 -110.80619 -0.38539913 -41.933434 -0.37755823 -41.864239 -19.842236 -128.28256
29590000000 -16.510868 -109.97091 -0.39565665 -42.330112 -0.38387465 -42.291851 -19.486021 -127.96634
29620000000 -16.611797 -108.25351 -0.39945391 -42.729069 -0.38694254 -42.716698 -19.824238 -125.27369
29650000000 -16.497643 -110.03106 -0.38020486 -43.157658 -0.3873359 -43.070274 -19.849554 -129.92406
29680000000 -16.460167 -110.47041 -0.38548031 -43.574585 -0.37651077 -43.487728 -19.683308 -129.27063
29710000000 -16.706123 -108.30274 -0.3903943 -44.015602 -0.3833001 -43.960827 -20.044895 -127.94962
29740000000 -16.720247 -109.54611 -0.39713845 -44.429211 -0.3897931 -44.353649 -19.99597 -128.75142
29770000000 -16.37673 -109.3027 -0.39526194 -44.768848 -0.38301793 -44.687244 -19.797346 -130.10048
29800000000 -16.666737 -109.65374 -0.39096925 -45.204712 -0.38531482 -45.093956 -20.08082 -130.05099
29830000000 -16.863413 -109.9482 -0.3850857 -45.635944 -0.38087624 -45.56461 -20.279461 -129.37561
29860000000 -16.564434 -108.12449 -0.39614296 -45.965759 -0.3806951 -45.962685 -19.900078 -130.78049
29890000000 -16.635656 -109.05957 -0.39221483 -46.450386 -0.38295996 -46.325706 -20.347462 -129.52049
29920000000 -16.774559 -110.5231 -0.38675547 -46.815727 -0.37808403 -46.792114 -20.518669 -131.98456
29950000000 -16.727442 -109.01181 -0.391359 -47.250797 -0.39058885 -47.161758 -20.172606 -130.70221
29980000000 -16.868427 -106.96555 -0.40214542 -47.629242 -0.39180234 -47.502834 -20.695738 -128.18582
30010000000 -16.624535 -109.96541 -0.38046592 -48.042965 -0.37494257 -47.956287 -20.405947 -133.57025
30040000000 -16.75198 -109.67571 -0.39479586 -48.393688 -0.3826094 -48.355572 -20.442295 -133.10565
30070000000 -16.951979 -108.10172 -0.38861245 -48.79517 -0.38479269 -48.757484 -20.918238 -130.00609
30100000000 -16.911476 -108.28419 -0.38516575 -49.239483 -0.38412946 -49.132004 -20.824877 -133.18796
30130000000 -16.573622 -108.83453 -0.3740955 -49.587437 -0.37547991 -49.55061 -20.380816 -133.42993
30160000000 -17.160721 -109.24277 -0.38615704 -50.05481 -0.37990084 -49.966923 -21.065319 -134.78206
30190000000 -17.12571 -108.81182 -0.38586959 -50.453453 -0.38054901 -50.375263 -21.360743 -133.4913
30220000000 -16.871557 -107.54463 -0.37487653 -50.743816 -0.36945215 -50.740364 -20.686161 -134.57477
30250000000 -17.030256 -107.95303 -0.36839199 -51.183235 -0.37018332 -51.136395 -21.206503 -132.81412
30280000000 -17.274126 -111.061 -0.36819896 -51.67757 -0.36187941 -51.64994 -21.460112 -138.63177
30310000000 -17.15773 -107.08253 -0.36396727 -52.014931 -0.35652742 -52.007034 -21.392405 -133.46118
30340000000 -17.263784 -106.72673 -0.36149395 -52.433624 -0.35329309 -52.378906 -21.174467 -133.67615
30370000000 -17.231634 -109.05225 -0.35827085 -52.926212 -0.35609102 -52.836433 -21.736494 -138.02011
30400000000 -17.281557 -108.43024 -0.35888737 -53.347034 -0.35505238 -53.254021 -21.580652 -137.70792
30430000000 -17.764149 -107.11607 -0.36876535 -53.691715 -0.35239014 -53.656376 -21.828873 -132.30551
30460000000 -17.437637 -107.60715 -0.34872553 -54.137184 -0.34301487 -54.09486 -21.976461 -138.9809
30490000000 -17.342667 -107.79889 -0.34753832 -54.626949 -0.33676034 -54.510098 -21.355305 -136.05664
30520000000 -18.035448 -107.50444 -0.35733202 -54.999821 -0.35103664 -54.896748 -22.842131 -138.12665
30550000000 -17.915356 -107.93867 -0.35281241 -55.405918 -0.35283148 -55.357086 -22.409029 -138.35393
30580000000 -17.64747 -105.77493 -0.35130888 -55.823193 -0.33165714 -55.697701 -21.878214 -136.6615
30610000000 -17.857172 -106.85511 -0.35062465 -56.264565 -0.33928174 -56.197224 -22.481735 -139.89554
30640000000 -18.08534 -108.09579 -0.35363793 -56.681782 -0.34878135 -56.623611 -23.165861 -140.71362
30670000000 -17.986855 -104.94563 -0.33681461 -57.060841 -0.33870324 -57.004383 -22.370378 -136.35794
30700000000 -18.20859 -103.94872 -0.34173736 -57.469036 -0.33491898 -57.407848 -22.966501 -137.88065
30730000000 -18.067738 -107.30827 -0.34543422 -57.929138 -0.33354771 -57.923965 -23.006578 -141.70215
30760000000 -18.175671 -105.14344 -0.34652442 -58.375134 -0.33286545 -58.331474 -23.381149 -139.69241
30790000000 -18.575062 -103.69104 -0.34062964 -58.763424 -0.32445008 -58.610344 -22.938669 -133.44879
30820000000 -18.529575 -105.38846 -0.3373386 -59.210522 -0.33993897 -59.127159 -23.903387 -147.78455
30850000000 -18.231037 -104.58611 -0.33230484 -59.644039 -0.32049316 -59.565384 -23.153982 -135.25125
30880000000 -18.906481 -104.63385 -0.34670496 -60.002441 -0.33619002 -59.949814 -24.618578 -139.95375
30910000000 -18.797129 -105.0946 -0.34612295 -60.457516 -0.3384231 -60.455673 -23.519115 -142.11929
30940000000 -18.6353 -102.26296 -0.33792081 -60.877457 -0.32984364 -60.842808 -24.352995 -141.62193
30970000000 -18.986958 -103.02447 -0.34345472 -61.282768 -0.33403298 -61.222332 -24.422371 -136.90074
31000000000 -18.944141 -103.71264 -0.3445853 -61.793823 -0.3311657 -61.64959 -24.368256 -141.85027
31030000000 -19.090294 -99.761566 -0.32946661 -62.107288 -0.32466373 -62.112709 -24.809734 -138.80156
31060000000 -19.242966 -101.61829 -0.3344982 -62.568611 -0.33072683 -62.486137 -24.921253 -135.72604
31090000000 -19.079062 -102.2704 -0.35007158 -63.073662 -0.33145961 -62.966122 -24.795696 -143.44061
31120000000 -19.164278 -101.48633 -0.34454021 -63.438141 -0.33075169 -63.396793 -25.152477 -141.66812
31150000000 -19.760157 -100.22679 -0.3347311 -63.796516 -0.33008718 -63.691242 -25.103697 -133.30351
31180000000 -19.144396 -100.78278 -0.34093061 -64.271645 -0.34274259 -64.253693 -25.544979 -148.22914
31210000000 -19.407146 -100.25737 -0.33969629 -64.705475 -0.33109668 -64.678856 -24.998268 -138.31776
31240000000 -19.803646 -99.014977 -0.34140581 -64.976799 -0.33240655 -65.019279 -26.754709 -137.40558
31270000000 -19.627937 -101.18508 -0.34675545 -65.502342 -0.34183148 -65.46917 -25.30736 -146.93303
31300000000 -19.641863 -96.992348 -0.34709415 -65.936668 -0.32975817 -65.846115 -26.593731 -136.16698
31330000000 -19.94244 -99.324417 -0.35455209 -66.373306 -0.34333172 -66.277069 -26.388626 -145.93579
31360000000 -19.807167 -99.8685 -0.35232279 -66.798592 -0.34503847 -66.682663 -27.216974 -141.21532
31390000000 -19.977545 -97.470329 -0.35118371 -67.230507 -0.33198825 -67.137962 -26.042435 -143.56653
31420000000 -20.198179 -97.902489 -0.3510271 -67.598671 -0.34526634 -67.509552 -28.104021 -139.72133
31450000000 -19.798407 -98.366714 -0.35504478 -68.082298 -0.3486436 -67.978241 -26.826307 -140.90979
31480000000 -20.034086 -97.314735 -0.35475236 -68.446365 -0.34731847 -68.371704 -27.804323 -147.31639
31510000000 -20.413626 -97.164902 -0.35090923 -68.838608 -0.34456962 -68.736542 -27.644468 -134.718
31540000000 -19.975641 -97.31086 -0.36474395 -69.287903 -0.34955561 -69.230484 -27.74342 -147.35213
31570000000 -20.169525 -95.785896 -0.34915161 -69.636543 -0.35799816 -69.639366 -28.246185 -141.7451
31600000000 -20.503731 -97.406425 -0.3645255 -70.095642 -0.35935301 -70.034859 -28.529182 -139.37468
31630000000 -20.217443 -96.308517 -0.36533299 -70.515411 -0.37006098 -70.427002 -28.687227 -146.37366
31660000000 -20.273754 -95.044006 -0.36432928 -70.960808 -0.36531326 -70.92028 -27.879017 -143.82756
31690000000 -20.52467 -96.157539 -0.37101245 -71.353142 -0.3592962 -71.200752 -30.144888 -145.67784
31720000000 -20.135664 -96.365135 -0.3741824 -71.772415 -0.36151251 -71.611244 -29.09944 -138.90558
31750000000 -20.532152 -95.042664 -0.36624566 -72.136009 -0.36362359 -72.039703 -29.132099 -146.30974
31780000000 -20.411251 -95.229309 -0.36387914 -72.524895 -0.36785862 -72.427765 -29.953217 -142.43323
31810000000 -20.35391 -96.137001 -0.37545592 -72.923698 -0.37676993 -72.883095 -30.462807 -142.69043
31840000000 -20.395887 -95.458466 -0.38197649 -73.30983 -0.37368554 -73.302612 -29.077961 -151.27974
31870000000 -20.77664 -95.067307 -0.36966383 -73.630577 -0.36720476 -73.661484 -31.628695 -135.29362
31900000000 -20.435808 -93.136505 -0.37932652 -74.100281 -0.37247375 -74.040955 -31.325716 -150.7402
31930000000 -20.540144 -93.128265 -0.37790868 -74.56147 -0.36307701 -74.467293 -30.669893 -146.17632
31960000000 -20.586498 -94.577545 -0.3796494 -74.839767 -0.3675656 -74.87867 -33.221809 -143.3091
31990000000 -20.591963 -94.639954 -0.37687466 -75.31591 -0.37645346 -75.245201 -31.996899 -146.42082
32020000000 -20.581158 -91.05687 -0.37638119 -75.800301 -0.37103528 -75.709885 -33.059597 -148.42339
32050000000 -20.627638 -94.294449 -0.37249431 -76.159836 -0.36970639 -76.018585 -33.884037 -150.61009
32080000000 -20.424515 -93.223763 -0.37522846 -76.520508 -0.37343475 -76.455818 -34.222134 -140.18706
32110000000 -20.633221 -92.735718 -0.37860313 -76.892685 -0.36417922 -76.898529 -32.819111 -156.88884
32140000000 -20.85059 -91.946426 -0.362591 -77.341248 -0.35909939 -77.243492 -36.011078 -142.33368
32170000000 -20.356159 -92.023148 -0.3748695 -77.772499 -0.36369845 -77.690666 -35.577511 -159.26157
32200000000 -20.668991 -92.015305 -0.36881128 -78.152779 -0.36226937 -78.044716 -36.031143 -147.11496
32230000000 -20.656137 -92.649338 -0.3597914 -78.578316 -0.34879115 -78.506554 -37.778469 -136.07047
32260000000 -20.629089 -90.988144 -0.36323038 -78.934242 -0.3574155 -78.874451 -36.584206 -171.35899
32290000000 -20.375542 -88.76004 -0.36626199 -79.427429 -0.36004931 -79.285011 -39.630226 -121.77104
32320000000 -20.55825 -92.279022 -0.35597077 -79.814247 -0.35011256 -79.716003 -38.862408 -154.32764
32350000000 -20.609432 -90.356155 -0.35141021 -80.177429 -0.34587878 -80.174278 -42.080856 -143.33067
32380000000 -20.511347 -88.030167 -0.35503384 -80.645103 -0.3464832 -80.597664 -48.643482 -143.49687
32410000000 -20.44392 -88.116196 -0.35499957 -81.050766 -0.35111353 -80.948105 -46.329624 -118.40488
32440000000 -20.209211 -89.077881 -0.35162604 -81.441559 -0.35462064 -81.377716 -48.165222 -11.959383
32470000000 -20.595524 -87.639038 -0.34794578 -81.906693 -0.33562759 -81.834763 -45.835804 179.65556
32500000000 -20.775286 -86.60688 -0.36035109 -82.320839 -0.3471449 -82.287781 -43.474091 -25.046404
32530000000 -20.09355 -86.623085 -0.34997058 -82.739624 -0.34909832 -82.671188 -44.400787 8.0272264
32560000000 -20.39044 -86.878693 -0.3358793 -83.136169 -0.34287006 -83.081795 -45.492943 -43.089989
32590000000 -20.465942 -85.422676 -0.34498551 -83.642349 -0.34345302 -83.504448 -41.232014 -2.1362684
32620000000 -20.295248 -84.703125 -0.35373229 -84.041039 -0.34668422 -83.960175 -39.648022 6.9918404
32650000000 -20.03739 -81.887177 -0.35202268 -84.407204 -0.35587075 -84.303024 -37.081978 -9.8147411
32680000000 -20.324472 -85.979355 -0.35294998 -84.846008 -0.3354637 -84.739296 -38.029514 -7.200675
32710000000 -20.189186 -82.866913 -0.35561171 -85.210045 -0.33757249 -85.244278 -36.249302 -2.7987981
32740000000 -20.107052 -81.826477 -0.34708908 -85.709526 -0.35206929 -85.660271 -34.430794 10.681397
32770000000 -19.841583 -81.067329 -0.34538236 -86.078445 -0.34991643 -86.00856 -34.232891 -24.155111
32800000000 -19.881706 -82.630112 -0.34599176 -86.561378 -0.34635311 -86.458588 -32.696903 1.3848065
32830000000 -19.972841 -80.624733 -0.35684666 -87.003777 -0.34500512 -86.916565 -34.511814 2.3804822
32860000000 -20.052414 -79.225327 -0.35448188 -87.329659 -0.35278684 -87.289551 -31.12755 -10.922718
32890000000 -19.451653 -78.118378 -0.35794139 -87.814247 -0.3434858 -87.656761 -31.560343 -8.2250566
32920000000 -19.530031 -79.244102 -0.35058117 -88.216141 -0.34380606 -88.092392 -31.686562 -0.2660419
32950000000 -19.791445 -77.220947 -0.34693292 -88.638504 -0.34294093 -88.561493 -30.191561 -19.088871
32980000000 -19.49494 -76.032478 -0.35848311 -89.008469 -0.35168189 -88.961647 -29.389759 -5.018527
33010000000 -19.275635 -74.760162 -0.35314149 -89.457367 -0.35508579 -89.294441 -30.590097 -8.2596245
33040000000 -19.441032 -77.214104 -0.34452534 -89.839844 -0.3408637 -89.785713 -29.296774 -21.434921
33070000000 -19.145342 -74.488228 -0.3505834 -90.279167 -0.33993143 -90.240723 -27.972094 -7.9353471
33100000000 -19.33354 -72.567032 -0.35828182 -90.706818 -0.35650268 -90.565704 -29.630625 -10.535051
33130000000 -19.180593 -72.74369 -0.35437065 -91.059692 -0.3566269 -90.989227 -28.440451 -17.654356
33160000000 -18.970407 -74.327133 -0.36364356 -91.527725 -0.34825402 -91.406471 -26.501959 -8.9322824
33190000000 -19.179033 -71.925323 -0.35973403 -92.020172 -0.3481797 -91.929344 -30.904751 -17.578741
33220000000 -18.938332 -70.841949 -0.36454746 -92.236679 -0.35269728 -92.179245 -25.493458 -16.747221
33250000000 -18.584021 -72.22934 -0.34999806 -92.768845 -0.35587019 -92.688919 -28.058611 -15.161171
33280000000 -18.601278 -71.599045 -0.36292362 -93.194489 -0.34979326 -93.111443 -27.582485 -13.146546
33310000000 -18.862055 -70.31546 -0.35306481 -93.567932 -0.35688683 -93.552284 -26.660704 -19.49144
33340000000 -18.526045 -69.766129 -0.35914043 -93.988686 -0.35930577 -93.893005 -26.033039 -12.87886
33370000000 -18.346762 -68.666031 -0.35103157 -94.384537 -0.35027921 -94.36866 -27.589922 -15.983229
33400000000 -18.468632 -70.300224 -0.34489751 -94.879883 -0.34546983 -94.736885 -25.829462 -25.483606
33430000000 -18.35976 -68.023849 -0.36012721 -95.268013 -0.35550833 -95.091019 -25.407391 -13.633092
33460000000 -18.474731 -67.407433 -0.35431141 -95.701012 -0.35349107 -95.611954 -27.451305 -16.878363
33490000000 -18.054337 -66.986443 -0.34959629 -96.015923 -0.34476802 -95.912796 -24.408869 -24.814896
33520000000 -18.063599 -68.712601 -0.35942388 -96.486763 -0.35373735 -96.410675 -25.000311 -15.893243
33550000000 -18.159676 -67.068428 -0.3658694 -96.930138 -0.35079753 -96.796524 -26.611156 -20.033312
33580000000 -18.099094 -65.201668 -0.34875861 -97.251396 -0.35387915 -97.123466 -23.976393 -23.079676
33610000000 -17.817116 -65.473091 -0.35043412 -97.639183 -0.35506305 -97.590271 -24.949352 -12.959676
33640000000 -17.784107 -66.26738 -0.34924281 -98.199455 -0.33869484 -98.068291 -25.548731 -25.814146
33670000000 -18.145647 -65.620201 -0.36994034 -98.607231 -0.36434108 -98.49308 -24.911346 -20.620623
33700000000 -17.736084 -63.567696 -0.36359233 -98.854851 -0.35784271 -98.821892 -24.018366 -13.744123
33730000000 -17.813616 -64.096352 -0.36034769 -99.379723 -0.34457523 -99.367584 -25.031021 -25.421886
33760000000 -17.68512 -63.916992 -0.35870352 -99.770752 -0.34789392 -99.756638 -24.413456 -24.033043
33790000000 -17.79318 -65.100807 -0.37544069 -100.11079 -0.36647633 -100.03265 -23.45747 -12.627331
33820000000 -17.723875 -62.045631 -0.3656002 -100.62755 -0.36151168 -100.58471 -25.443579 -24.134954
33850000000 -17.490149 -63.894154 -0.34491292 -101.00967 -0.34536695 -100.97163 -23.107033 -24.307232
33880000000 -17.347378 -63.773266 -0.35879657 -101.38285 -0.36165798 -101.3111 -23.839073 -14.135228
33910000000 -17.614655 -64.341446 -0.36384255 -101.94706 -0.36661154 -101.79092 -24.918474 -23.070017
33940000000 -17.683254 -60.429203 -0.3644748 -102.20814 -0.35403252 -102.06151 -22.844843 -23.563536
33970000000 -17.362284 -61.739544 -0.37118414 -102.55039 -0.35613206 -102.51377 -23.497005 -11.983356
34000000000 -17.501019 -62.617714 -0.36356699 -103.09299 -0.3437402 -103.05257 -24.296339 -28.669596
34030000000 -17.657253 -61.98431 -0.37760058 -103.48885 -0.36347947 -103.36576 -23.472578 -17.111561
34060000000 -17.48654 -60.947308 -0.3669115 -103.80637 -0.34722987 -103.71101 -22.721167 -16.27807
34090000000 -17.176662 -60.950462 -0.36234564 -104.28611 -0.35028538 -104.29327 -23.712511 -23.934227
34120000000 -17.264643 -61.956661 -0.36275589 -104.81567 -0.35972983 -104.65852 -23.059929 -23.652861
34150000000 -17.210154 -61.447205 -0.35381177 -105.01783 -0.35454282 -104.91338 -22.181805 -12.556006
34180000000 -17.352497 -60.10746 -0.3574436 -105.58402 -0.34320033 -105.49231 -23.944767 -24.219566
34210000000 -17.050133 -58.988991 -0.34636322 -106.03196 -0.34510827 -105.94291 -21.881443 -25.691526
34240000000 -17.057367 -62.096428 -0.36284006 -106.26584 -0.36518487 -106.2572 -22.761089 -6.2454615
34270000000 -17.205101 -59.797043 -0.36265263 -106.86092 -0.35529339 -106.80556 -22.881796 -25.706083
34300000000 -17.224499 -59.210236 -0.3490195 -107.22401 -0.35338044 -107.09052 -21.570038 -19.985563
34330000000 -16.858463 -59.883083 -0.35345429 -107.52819 -0.35220993 -107.45349 -22.557238 -14.062312
34360000000 -16.955975 -59.821381 -0.36706334 -108.10225 -0.3566165 -108.02344 -22.766621 -21.268692
34390000000 -17.105608 -58.965057 -0.36200684 -108.40218 -0.35060418 -108.35211 -21.269844 -20.621222
34420000000 -16.909048 -59.820934 -0.35770246 -108.82682 -0.35260493 -108.71235 -21.605492 -15.459997
34450000000 -16.928377 -59.255123 -0.36068943 -109.35798 -0.35980603 -109.22473 -22.825432 -25.646544
34480000000 -16.817074 -60.212666 -0.36181974 -109.73324 -0.36255243 -109.68117 -20.814922 -18.559738
34510000000 -17.000713 -60.479073 -0.37589821 -110.11337 -0.36548108 -110.01862 -21.438967 -15.964203
34540000000 -16.828295 -58.742481 -0.35942218 -110.56696 -0.35039005 -110.48319 -21.867935 -22.95929
34570000000 -16.847448 -59.610584 -0.35970619 -111.06395 -0.35592526 -110.92588 -20.734179 -21.147289
34600000000 -16.590258 -60.692856 -0.37002942 -111.37046 -0.36208647 -111.25877 -20.992538 -13.037484
34630000000 -16.825287 -60.500607 -0.36906323 -111.83159 -0.37664655 -111.75799 -21.630714 -26.38027
34660000000 -16.702717 -58.983608 -0.3635307 -112.21511 -0.36398217 -112.06138 -19.988506 -21.741827
34690000000 -16.458809 -60.998779 -0.37977257 -112.64452 -0.36670786 -112.5433 -21.276564 -13.147121
34720000000 -16.571362 -60.882298 -0.38054222 -113.0836 -0.36671546 -113.06312 -20.824409 -21.903509
34750000000 -16.69216 -61.422928 -0.37888446 -113.57288 -0.3767657 -113.42885 -19.833708 -26.888866
34780000000 -16.568495 -60.685699 -0.37360713 -113.78752 -0.36784792 -113.75417 -20.917271 -12.231054
34810000000 -16.359192 -59.508797 -0.386805 -114.35226 -0.37687495 -114.33725 -20.456448 -26.502701
34840000000 -16.427446 -62.150604 -0.3925707 -114.74749 -0.38286299 -114.65604 -19.62981 -21.833828
34870000000 -16.435955 -61.483894 -0.38674784 -115.11328 -0.38299221 -115.0227 -19.987192 -14.7896
34900000000 -16.421419 -60.632977 -0.38776296 -115.64742 -0.39004824 -115.48061 -20.257517 -27.509722
34930000000 -16.224878 -60.115406 -0.38602039 -115.97749 -0.38225377 -115.99033 -19.091927 -21.164091
34960000000 -16.052752 -62.310314 -0.391893 -116.38033 -0.38443404 -116.29581 -19.707924 -18.287167
34990000000 -16.389721 -61.782089 -0.39877963 -116.75951 -0.38028002 -116.66839 -20.237589 -26.198694
35020000000 -16.189596 -61.347462 -0.39222872 -117.23681 -0.38145104 -117.13238 -18.236963 -23.694315
35050000000 -16.081099 -62.344063 -0.37597102 -117.51095 -0.39452288 -117.55026 -19.902287 -16.737873
35080000000 -15.892602 -62.11829 -0.39300087 -118.10539 -0.39034727 -117.98605 -19.209408 -26.217772
35110000000 -16.004669 -63.026379 -0.40759888 -118.34767 -0.39287221 -118.30519 -18.237513 -24.164473
35140000000 -15.953299 -62.773216 -0.40009731 -118.82127 -0.38239652 -118.78496 -19.119125 -21.442963
35170000000 -15.691959 -62.23016 -0.40992418 -119.27992 -0.39747202 -119.30069 -18.893641 -27.081903
35200000000 -15.642595 -63.636417 -0.40762788 -119.71045 -0.40006551 -119.61525 -18.008587 -25.249228
35230000000 -15.541595 -64.705521 -0.4119795 -120.1239 -0.40680566 -119.98965 -18.336651 -23.194918
35260000000 -15.735203 -62.744495 -0.40686822 -120.4986 -0.39552534 -120.43974 -18.881794 -30.475389
35290000000 -15.302233 -63.764278 -0.41745901 -120.98485 -0.40740725 -120.91763 -17.130568 -25.626011
35320000000 -15.250722 -64.304909 -0.41927156 -121.33833 -0.40607315 -121.18589 -18.917252 -24.539785
35350000000 -15.249547 -64.136429 -0.42514652 -121.70471 -0.42861223 -121.64522 -17.688866 -31.158842
35380000000 -15.354879 -63.744694 -0.41875783 -122.1955 -0.41065964 -122.16187 -17.492846 -29.209375
35410000000 -15.026578 -64.345856 -0.41709453 -122.51781 -0.40352747 -122.57134 -18.15464 -23.560589
35440000000 -15.002844 -65.339081 -0.43158749 -122.97325 -0.42122376 -122.90414 -17.485703 -32.160038
35470000000 -15.026238 -66.687019 -0.42770377 -123.33188 -0.41550365 -123.27567 -16.961962 -30.977736
35500000000 -14.844776 -64.829216 -0.42386061 -123.82684 -0.41559651 -123.76251 -17.822483 -26.090441
35530000000 -14.886382 -64.93116 -0.42929056 -124.23635 -0.42064935 -124.11501 -17.248457 -34.372322
35560000000 -14.601023 -66.268433 -0.43399262 -124.65266 -0.42767233 -124.5884 -16.634857 -30.047127
35590000000 -14.690478 -66.658997 -0.430424 -124.93153 -0.4218376 -124.88468 -17.481728 -30.617075
35620000000 -14.800004 -65.213997 -0.43448123 -125.44551 -0.41377693 -125.3643 -17.149223 -36.743088
35650000000 -14.410336 -66.131592 -0.44308323 -125.85011 -0.43398061 -125.76154 -16.410988 -30.386713
35680000000 -14.353867 -66.328911 -0.43431416 -126.21441 -0.43919581 -126.16972 -17.085003 -32.296535
35710000000 -14.43919 -66.647591 -0.4391689 -126.59509 -0.43358815 -126.5333 -16.638062 -37.383503
35740000000 -14.393957 -66.078102 -0.43397716 -127.05325 -0.42671639 -127.07492 -16.413944 -33.333458
35770000000 -14.121378 -66.088425 -0.44179058 -127.45577 -0.43037027 -127.37305 -16.922182 -35.00415
35800000000 -14.070203 -66.388252 -0.43429756 -127.76097 -0.43724781 -127.663 -16.347673 -38.008793
35830000000 -14.040724 -67.588249 -0.44935223 -128.13663 -0.42926711 -128.15665 -15.994526 -36.231106
35860000000 -14.007908 -66.498169 -0.44151691 -128.65288 -0.42654589 -128.64372 -16.696335 -36.141808
35890000000 -13.88346 -65.629616 -0.43493274 -129.0947 -0.43094423 -128.91171 -16.522589 -40.89006
35920000000 -13.6679 -67.929527 -0.43952948 -129.38998 -0.43560061 -129.15535 -15.260261 -37.335957
35950000000 -13.74831 -68.030334 -0.43567672 -129.81775 -0.42307013 -129.74458 -16.925671 -38.105392
35980000000 -13.825747 -67.628761 -0.42487445 -130.2562 -0.42285842 -130.2468 -15.827495 -42.992584
36010000000 -13.544649 -67.041801 -0.45170403 -130.69188 -0.42914483 -130.6501 -15.871323 -39.430851
36040000000 -13.347219 -67.674492 -0.44314572 -131.08434 -0.42798084 -130.92206 -16.486822 -38.826092
36070000000 -13.518693 -68.254951 -0.43150544 -131.39223 -0.43353838 -131.35428 -15.468947 -44.303913
36100000000 -13.424506 -67.299568 -0.44804794 -131.84364 -0.44317868 -131.74301 -15.667211 -42.892475
36130000000 -13.164578 -66.505753 -0.45946914 -132.32991 -0.44043326 -132.20848 -16.608414 -38.356548
36160000000 -13.105437 -68.184288 -0.44959566 -132.54195 -0.44842678 -132.45392 -15.303795 -44.930874
36190000000 -13.131951 -69.092651 -0.43346515 -133.1256 -0.42394367 -132.99692 -15.530171 -42.831337
36220000000 -13.097209 -67.651726 -0.42836708 -133.52481 -0.43771419 -133.40045 -16.353697 -45.525654
36250000000 -13.052138 -66.262398 -0.46277085 -133.79001 -0.44271719 -133.83101 -15.699363 -44.396553
36280000000 -12.693598 -69.271301 -0.43240097 -134.08864 -0.42339858 -134.11977 -15.073323 -44.169846
36310000000 -12.805784 -69.059532 -0.41917035 -134.63217 -0.41721535 -134.5916 -15.962343 -45.851967
36340000000 -13.097018 -67.530602 -0.44136387 -135.13002 -0.42543629 -135.13454 -15.89756 -48.866737
36370000000 -12.706391 -68.037804 -0.43798533 -135.37329 -0.43610084 -135.31107 -15.069454 -42.359306
36400000000 -12.43859 -68.492577 -0.423287 -135.8497 -0.41249952 -135.761 -15.818987 -47.680813
36430000000 -12.791149 -68.942764 -0.43296519 -136.33842 -0.4294003 -136.30032 -15.42901 -49.036983
36460000000 -12.669395 -68.746124 -0.43432274 -136.63275 -0.42313689 -136.60799 -15.627989 -46.262871
36490000000 -12.433064 -67.579651 -0.42342168 -137.11209 -0.42628202 -136.94627 -15.68889 -45.643082
36520000000 -12.419315 -68.533318 -0.41932401 -137.56189 -0.42740154 -137.37582 -15.299148 -49.952587
36550000000 -12.459642 -70.311073 -0.41477564 -137.95114 -0.42407352 -137.81924 -15.259947 -47.066917
36580000000 -12.395669 -67.864487 -0.42396763 -138.28891 -0.41991764 -138.20245 -15.97446 -48.962532
36610000000 -12.539522 -67.321449 -0.43472099 -138.63882 -0.40282473 -138.60606 -15.038121 -49.002979
36640000000 -12.131639 -70.170532 -0.3944979 -139.28825 -0.39962104 -139.05066 -15.32023 -48.277645
36670000000 -12.307397 -69.01918 -0.40524185 -139.46198 -0.40797818 -139.52187 -15.543495 -49.8438
36700000000 -12.33645 -68.570755 -0.41948938 -139.92056 -0.4110617 -139.91946 -15.739815 -50.858227
36730000000 -12.1005 -68.251213 -0.40408257 -140.15306 -0.41087845 -140.21683 -14.910401 -46.400665
36760000000 -11.904963 -68.784943 -0.39651105 -140.7256 -0.38156664 -140.64806 -15.778963 -51.074444
36790000000 -12.282807 -69.387123 -0.40122259 -141.28654 -0.4182362 -141.18723 -15.234053 -52.913998
36820000000 -12.188733 -69.181633 -0.43959308 -141.49831 -0.40344906 -141.50775 -15.210774 -45.840508
36850000000 -11.851462 -67.030586 -0.38730109 -141.90631 -0.37270305 -141.82169 -15.396704 -51.29686
36880000000 -11.97335 -69.426666 -0.39695832 -142.38219 -0.39892066 -142.34158 -15.142773 -51.481789
36910000000 -12.064175 -70.642921 -0.39941955 -142.94165 -0.388643 -142.9267 -15.405135 -49.09898
36940000000 -12.158061 -67.619698 -0.40821508 -143.24077 -0.4084326 -143.01877 -15.331806 -49.62653
36970000000 -11.915477 -68.646172 -0.38296306 -143.72914 -0.39038041 -143.55724 -15.142316 -53.382973
37000000000 -11.836216 -70.244232 -0.39840311 -144.13889 -0.37367681 -143.99281 -14.981025 -46.3736
37030000000 -11.992123 -69.626633 -0.39681935 -144.50427 -0.3877143 -144.47612 -15.307417 -54.718479
37060000000 -12.138996 -68.052963 -0.4257378 -144.92899 -0.38890573 -144.82016 -15.327703 -49.954189
37090000000 -11.77175 -69.984612 -0.36316198 -145.44305 -0.38568062 -145.29794 -14.743083 -49.358276
37120000000 -11.96237 -69.432663 -0.39337379 -145.91974 -0.39101031 -145.65234 -14.941554 -51.659771
37150000000 -12.054688 -70.877403 -0.41910422 -146.29709 -0.41852981 -146.29369 -15.152207 -54.613491
37180000000 -11.909942 -69.320663 -0.39890477 -146.52017 -0.37460563 -146.40253 -14.891973 -47.859856
37210000000 -11.859079 -69.471642 -0.38315901 -146.96449 -0.365565 -146.98965 -14.877199 -52.233746
37240000000 -11.866229 -70.534378 -0.39598471 -147.43823 -0.38420948 -147.43408 -14.734529 -53.647999
37270000000 -11.862048 -70.824402 -0.40313944 -147.95174 -0.38686839 -147.79347 -14.814767 -50.367214
37300000000 -11.964769 -68.596664 -0.40487242 -148.2883 -0.37253946 -148.13896 -14.933587 -52.402966
37330000000 -11.851786 -70.652885 -0.38275385 -148.81343 -0.36536002 -148.73151 -14.581241 -53.616936
37360000000 -11.932184 -71.260452 -0.3941195 -149.13277 -0.3742879 -149.08871 -14.685934 -52.076862
37390000000 -11.935437 -71.268562 -0.3913199 -149.65619 -0.39327914 -149.47769 -14.690303 -53.256435
37420000000 -12.113484 -70.6446 -0.40817726 -149.93822 -0.38815838 -149.95787 -14.539482 -53.778648
37450000000 -11.76916 -71.301277 -0.37404469 -150.48795 -0.36969933 -150.43288 -14.427859 -53.081837
37480000000 -11.898385 -71.810555 -0.39114514 -150.88968 -0.36654449 -150.8416 -14.688341 -54.135593
37510000000 -12.004171 -72.011803 -0.40769327 -151.31816 -0.38638395 -151.18616 -14.592015 -54.254871
37540000000 -12.119923 -72.040749 -0.38611093 -151.81718 -0.37646729 -151.68594 -14.062252 -54.025318
37570000000 -11.873809 -71.307541 -0.3910681 -152.32401 -0.36492077 -152.17006 -14.656977 -54.911659
37600000000 -12.143154 -72.629478 -0.40200657 -152.54568 -0.40791678 -152.41336 -14.281447 -54.233082
37630000000 -11.959993 -72.515678 -0.40305337 -153.03577 -0.38904899 -153.04976 -14.001488 -56.381451
37660000000 -12.196493 -72.583061 -0.38857138 -153.35114 -0.39335454 -153.22563 -14.46285 -54.104961
37690000000 -12.10069 -72.216774 -0.39961681 -153.85802 -0.39789867 -153.82716 -14.212477 -55.837654
37720000000 -12.032365 -73.128601 -0.41573808 -154.2997 -0.38646713 -154.24365 -14.009787 -56.77536
37750000000 -12.041297 -73.023788 -0.41216764 -154.68124 -0.41938159 -154.52055 -14.440619 -56.031567
37780000000 -12.203287 -74.319138 -0.41156682 -155.14023 -0.40209687 -155.04143 -13.955561 -56.6054
37810000000 -12.074695 -73.772758 -0.40201819 -155.46779 -0.41646284 -155.4008 -13.985725 -57.476547
37840000000 -12.124642 -73.733208 -0.41898105 -155.92273 -0.41079649 -155.78912 -13.875465 -56.279423
37870000000 -12.201435 -74.451363 -0.42734414 -156.31593 -0.41909906 -156.28662 -14.024357 -59.377716
37900000000 -12.221682 -76.006248 -0.44840527 -156.59563 -0.44414201 -156.67868 -13.830944 -59.460056
37930000000 -12.185439 -73.896027 -0.41157082 -156.98848 -0.39628986 -156.97829 -13.847928 -54.808548
37960000000 -12.169019 -75.446121 -0.44202301 -157.65393 -0.43705258 -157.48296 -13.680374 -64.166847
37990000000 -12.112647 -76.730499 -0.43286481 -157.98245 -0.44790846 -157.91142 -13.59629 -56.465919
38020000000 -12.285924 -76.136055 -0.43065867 -158.3804 -0.43920153 -158.28703 -13.689466 -61.285347
38050000000 -12.280517 -76.339005 -0.43751407 -158.73152 -0.42473942 -158.62067 -13.664807 -61.150597
38080000000 -12.000396 -77.426414 -0.44727054 -159.3571 -0.44562468 -159.10304 -13.485806 -61.017914
38110000000 -12.179936 -77.571526 -0.45184362 -159.584 -0.47311309 -159.44456 -13.459528 -61.703358
38140000000 -12.30944 -77.932755 -0.46006423 -159.8443 -0.44836938 -159.76384 -13.647035 -63.202171
38170000000 -12.127608 -78.3964 -0.45416862 -160.26955 -0.44911739 -160.28259 -13.127251 -62.365536
38200000000 -12.152861 -77.412308 -0.45787704 -160.83556 -0.44679281 -160.72212 -13.644238 -64.15229
38230000000 -12.205685 -79.86911 -0.46866435 -161.06894 -0.44810304 -161.09529 -13.497653 -63.910969
38260000000 -12.146955 -80.563629 -0.45494723 -161.46198 -0.45094982 -161.55528 -12.713719 -64.575508
38290000000 -12.445975 -78.935051 -0.43569848 -161.81631 -0.41033018 -161.76295 -13.73661 -65.337852
38320000000 -12.010824 -80.135925 -0.46006337 -162.56367 -0.45706481 -162.3035 -13.198907 -67.615311
38350000000 -11.98735 -82.355774 -0.4848375 -162.69186 -0.47797325 -162.60315 -13.122678 -65.51535
38380000000 -12.100112 -82.043152 -0.4463751 -162.99539 -0.43859783 -162.9649 -13.418602 -65.781845
38410000000 -12.284221 -82.761864 -0.45655006 -163.4357 -0.44933644 -163.38428 -12.962685 -70.352692
38440000000 -11.927999 -81.877525 -0.47237217 -163.94861 -0.46473148 -164.01721 -13.289113 -68.065887
38470000000 -11.989103 -84.124443 -0.47395343 -164.19276 -0.4622108 -164.05273 -13.044362 -68.252899
38500000000 -12.059934 -85.101173 -0.43952948 -164.57784 -0.44300643 -164.50931 -13.16513 -69.97834
38530000000 -12.230683 -84.759941 -0.44769523 -165.14722 -0.41616312 -164.97226 -12.703009 -71.026161
38560000000 -11.94527 -83.938042 -0.48810238 -165.55504 -0.47564012 -165.47496 -13.473862 -70.450714
38590000000 -11.834659 -86.865204 -0.45991632 -165.71701 -0.44861534 -165.72224 -12.892006 -71.461754
38620000000 -11.677714 -87.818344 -0.46684864 -166.21721 -0.43367109 -166.10649 -12.74965 -72.152039
38650000000 -12.020549 -85.054962 -0.4323023 -166.72737 -0.42048594 -166.79979 -13.376533 -73.410301
38680000000 -11.718349 -86.224915 -0.46806315 -167.04948 -0.46201673 -166.8959 -13.18316 -75.430695
38710000000 -11.60433 -87.961418 -0.46346086 -167.38176 -0.44317785 -167.25664 -12.901213 -71.534958
38740000000 -11.893416 -89.101555 -0.42712077 -167.96039 -0.418883 -167.8053 -12.956163 -76.754463
38770000000 -11.86204 -89.561119 -0.43645689 -168.35338 -0.41625258 -168.26385 -13.247714 -76.758224
38800000000 -11.50366 -87.60685 -0.46355045 -168.61864 -0.46732685 -168.74904 -13.102928 -73.969238
38830000000 -11.472207 -89.719292 -0.445452 -168.98698 -0.43526408 -168.92636 -12.917549 -77.466133
38860000000 -11.648468 -92.146011 -0.41822052 -169.43373 -0.38126594 -169.24005 -13.289604 -78.849907
38890000000 -11.456587 -89.808998 -0.42047083 -170.03598 -0.41774371 -169.89525 -13.072215 -77.895615
38920000000 -11.319563 -89.757973 -0.43580151 -170.3858 -0.41272128 -170.24687 -13.523694 -77.406471
38950000000 -11.065647 -92.6707 -0.41045138 -170.57646 -0.41509461 -170.45432 -13.191556 -79.552498
38980000000 -11.184804 -93.126862 -0.41289493 -171.05109 -0.40700069 -170.93839 -12.891439 -79.041542
39010000000 -11.67661 -92.504051 -0.44179231 -171.88286 -0.40565705 -171.71989 -13.7299 -80.156769
39040000000 -11.056286 -92.420036 -0.42023814 -171.84761 -0.41004539 -171.70026 -13.201433 -79.622215
39070000000 -10.854038 -93.704742 -0.42652819 -172.22543 -0.41860875 -172.08894 -12.880836 -80.16291
39100000000 -11.10203 -94.958694 -0.37147966 -172.88609 -0.37467673 -172.77882 -13.654177 -83.090492
39130000000 -11.151889 -94.921906 -0.40238568 -173.4379 -0.39332166 -173.23544 -13.505841 -81.199776
39160000000 -10.695483 -92.903908 -0.41572326 -173.72487 -0.41328466 -173.62254 -13.416224 -80.43029
39190000000 -10.672112 -95.885002 -0.37995228 -174.07181 -0.36786199 -173.89444 -13.557363 -81.772964
39220000000 -10.83928 -97.276939 -0.36477324 -174.62805 -0.33369893 -174.55452 -13.606236 -85.658623
39250000000 -10.960458 -93.717323 -0.40788206 -174.85612 -0.39287618 -174.93205 -13.408564 -81.644699
39280000000 -10.750912 -94.506477 -0.40172744 -175.35637 -0.37127465 -175.42899 -13.79474 -83.182167
39310000000 -10.340041 -97.304367 -0.3415783 -175.63394 -0.34506875 -175.61459 -13.355802 -83.273232
39340000000 -10.757077 -97.580566 -0.37302262 -176.26015 -0.34863883 -176.37598 -13.617312 -83.212479
39370000000 -10.702184 -95.182449 -0.38357437 -176.74179 -0.38882899 -176.58006 -13.857122 -83.751213
39400000000 -10.379595 -96.281601 -0.37951833 -177.09857 -0.35360339 -177.1174 -13.722437 -84.70224
39430000000 -10.069321 -97.235222 -0.36645266 -177.48456 -0.3511315 -177.39545 -13.515591 -81.81868
39460000000 -10.573822 -99.769722 -0.34732434 -178.37627 -0.32542729 -178.23454 -13.938041 -83.865402
39490000000 -10.431107 -96.218651 -0.36610681 -178.55095 -0.34659591 -178.3736 -13.759542 -86.008476
39520000000 -10.107645 -96.941788 -0.35451108 -178.78848 -0.34876844 -178.87215 -13.617311 -82.503624
39550000000 -9.9718399 -98.805862 -0.32202733 -179.53337 -0.33147582 -179.44246 -14.03619 -82.646782
39580000000 -10.283364 -100.30814 -0.32748821 179.95432 -0.3288196 -179.93602 -13.557591 -86.233513
39610000000 -10.185043 -96.985611 -0.38339254 179.83521 -0.36764619 179.79582 -13.574196 -82.656898
39640000000 -10.133368 -97.080894 -0.3583996 179.26923 -0.35924643 179.27357 -14.215976 -84.028152
39670000000 -9.6620293 -99.929726 -0.31209782 178.72211 -0.30820328 178.76649 -13.453872 -84.737091
39700000000 -10.329961 -100.08442 -0.36305785 178.21863 -0.34498718 178.18425 -13.510132 -82.514099
39730000000 -10.237344 -97.16507 -0.36783919 177.80502 -0.34384218 177.78535 -13.946622 -86.323921
39760000000 -9.6991377 -98.54731 -0.33194661 177.33466 -0.33239344 177.47519 -13.756973 -82.751053
39790000000 -9.7293758 -99.035118 -0.32418984 177.00069 -0.34036449 176.97057 -13.331476 -84.040871
39820000000 -10.067133 -100.98777 -0.3553198 176.21925 -0.35885927 176.29633 -13.714989 -83.56353
39850000000 -10.05659 -97.978767 -0.36459306 176.03677 -0.36398357 176.09711 -13.59595 -86.801773
39880000000 -9.6451225 -97.844116 -0.34575742 175.6221 -0.33599088 175.74997 -13.271686 -82.383408
39910000000 -9.6196184 -100.18943 -0.35282645 174.81213 -0.35168612 174.95996 -13.940529 -83.270493
39940000000 -9.8708849 -101.28694 -0.34048936 174.43399 -0.35375729 174.64029 -12.89324 -86.745811
39970000000 -9.8594866 -96.935677 -0.37493241 174.30118 -0.3622207 174.40288 -13.768195 -83.324875
40000000000 -9.5896378 -97.626282 -0.33696511 173.57391 -0.33582222 173.69092 -13.358546 -85.01368
40030000000 -9.5008392 -100.39161 -0.36286229 173.00496 -0.3532111 173.02785 -13.233964 -84.624725
40060000000 -9.9784393 -98.638306 -0.38156721 172.78535 -0.37764859 172.85927 -12.965712 -86.630981
40090000000 -9.9411745 -97.337975 -0.38784504 172.51318 -0.39255598 172.51488 -13.409067 -86.782181
40120000000 -9.6473446 -98.860909 -0.3652378 171.91707 -0.36328724 171.92416 -13.188392 -85.220932
40150000000 -9.4383526 -99.056274 -0.35706136 171.32562 -0.36785805 171.39809 -12.789246 -85.905075
40180000000 -10.159697 -99.459404 -0.44205052 171.1059 -0.4306258 171.25081 -13.04285 -86.808121
40210000000 -9.7666206 -96.664001 -0.39919251 170.49174 -0.38796422 170.45483 -13.062574 -90.54805
40240000000 -9.6422367 -97.300476 -0.40176407 170.11726 -0.40715563 170.28517 -12.785405 -85.001526
40270000000 -9.8201933 -98.837616 -0.3973228 169.57933 -0.4262332 169.74889 -12.874532 -88.317543
40300000000 -9.9183435 -98.673508 -0.45064655 169.27347 -0.41285393 169.26506 -12.595195 -92.330345
40330000000 -10.148948 -96.271439 -0.43696356 169.15129 -0.44205624 169.20691 -12.950567 -87.865349
40360000000 -9.6138849 -96.827347 -0.40466812 168.28201 -0.39444518 168.47047 -12.943795 -89.350189
40390000000 -9.7558842 -99.027367 -0.44488156 167.96738 -0.43838048 167.96394 -12.548223 -90.234322
40420000000 -10.114298 -97.314941 -0.4694998 167.64 -0.44707975 167.82269 -12.650324 -92.256821
40450000000 -10.171354 -97.604538 -0.45552993 167.28767 -0.45717409 167.39909 -12.97936 -91.423897
40480000000 -9.7888126 -96.036781 -0.44958535 166.66545 -0.44731674 166.84993 -12.685464 -91.494179
40510000000 -9.8600645 -97.628578 -0.47210753 166.4166 -0.46304816 166.41141 -12.429181 -94.292969
40540000000 -10.277682 -96.456528 -0.5042401 166.23872 -0.47514307 166.27982 -13.088409 -94.96302
40570000000 -10.074814 -97.017609 -0.48767576 165.51053 -0.48244977 165.4744 -12.598917 -95.680542
40600000000 -10.081224 -95.340073 -0.46794841 165.1581 -0.48248506 165.27866 -12.588575 -94.23085
40630000000 -10.230396 -96.52166 -0.50914484 164.73204 -0.48848444 164.72534 -12.736086 -97.075935
40660000000 -10.211512 -96.310547 -0.50196397 164.39778 -0.49545154 164.46939 -12.793502 -99.278656
40690000000 -10.348688 -95.603638 -0.46704292 164.07275 -0.45365909 164.09973 -12.858848 -94.917305
40720000000 -10.269407 -94.484802 -0.46565637 163.56699 -0.46045852 163.56609 -12.874763 -97.074303
40750000000 -10.296371 -95.563606 -0.49191499 163.25983 -0.48493823 163.20581 -12.557001 -101.49821
40780000000 -10.468554 -96.689102 -0.52456886 162.8119 -0.49299416 162.84856 -13.171933 -98.067116
40810000000 -10.817997 -94.42585 -0.48732185 162.51212 -0.49331343 162.49646 -12.732317 -99.885361
40840000000 -10.50087 -94.846458 -0.52861273 161.83946 -0.50799912 161.9655 -13.005671 -103.188
40870000000 -10.625908 -95.484474 -0.51551437 161.75967 -0.51115388 161.63322 -13.07906 -99.361565
40900000000 -10.851004 -94.697388 -0.51221108 161.18326 -0.49929702 161.38399 -13.087538 -104.18594
40930000000 -10.750104 -95.329994 -0.52028686 160.9987 -0.49503434 160.98387 -13.65536 -102.47832
40960000000 -10.859956 -92.646446 -0.49668917 160.21007 -0.4910132 160.31126 -12.8572 -103.03596
40990000000 -11.047312 -95.912682 -0.54807752 160.23515 -0.53015316 160.41739 -13.654638 -104.01694
41020000000 -11.094332 -94.357765 -0.55056596 159.58195 -0.50998694 159.70406 -13.309473 -106.6895
41050000000 -11.423547 -94.66832 -0.47589457 159.47508 -0.50680041 159.42825 -13.675411 -103.443
41080000000 -11.216089 -92.922104 -0.52326047 158.76266 -0.49615926 158.73448 -13.6952 -106.23211
41110000000 -11.165225 -96.541748 -0.55844766 158.31871 -0.55588138 158.30325 -13.409187 -105.0302
41140000000 -11.584512 -94.451431 -0.54662317 158.06473 -0.54185808 158.2191 -13.815001 -109.85836
41170000000 -11.704841 -94.644966 -0.50826538 157.89868 -0.49438423 158.04202 -14.178296 -103.34799
41200000000 -11.56356 -94.682106 -0.53627944 157.02808 -0.53997868 157.04039 -13.729548 -110.12209
41230000000 -11.647447 -95.003296 -0.56387883 156.96907 -0.53327465 157.14267 -14.250039 -105.11233
41260000000 -11.88231 -95.758049 -0.54307556 156.69362 -0.53184867 156.92754 -14.367731 -108.75581
41290000000 -12.23998 -94.411934 -0.54375762 156.21291 -0.52909309 156.13947 -14.421042 -109.41901
41320000000 -12.22191 -93.285301 -0.55155784 155.5471 -0.54187185 155.52226 -14.095757 -107.12145
41350000000 -11.974979 -95.859489 -0.5462603 155.45468 -0.54380482 155.58998 -15.020164 -108.13737
41380000000 -12.542342 -96.176437 -0.54597557 155.07423 -0.5338583 155.04138 -14.2845 -109.54883
41410000000 -12.605085 -94.928139 -0.53398097 154.4158 -0.50422817 154.53903 -14.782261 -107.23863
41440000000 -12.500936 -94.433891 -0.53117228 154.17154 -0.5453313 154.36261 -15.250904 -105.92804
41470000000 -12.679743 -97.05645 -0.60052437 153.47437 -0.55280423 153.65265 -14.308798 -108.6791
41500000000 -12.747405 -97.507362 -0.5560444 153.32614 -0.56278753 153.31053 -15.348633 -108.63478
41530000000 -13.146264 -98.435616 -0.52206343 152.78821 -0.50438195 152.86852 -14.796423 -106.21844
41560000000 -12.994805 -94.748421 -0.57146937 152.28949 -0.58011121 152.31267 -15.234563 -107.88078
41590000000 -13.070831 -98.314957 -0.59665596 151.90755 -0.57882798 152.26497 -14.462182 -108.28754
41620000000 -13.305868 -99.30452 -0.56741518 151.7449 -0.54854476 151.96523 -15.633423 -109.95908
41650000000 -13.93785 -97.474297 -0.53724051 151.15662 -0.57891345 151.04332 -15.510504 -106.38548
41680000000 -13.62404 -96.967514 -0.61011493 150.44943 -0.59742403 150.64151 -14.229836 -107.8238
41710000000 -13.668727 -99.284569 -0.60220444 150.7834 -0.61644554 150.87555 -16.26259 -110.91262
41740000000 -14.11201 -98.696266 -0.59515768 149.96149 -0.58440614 149.96352 -14.589417 -107.88592
41770000000 -14.208128 -99.190674 -0.5782814 149.4906 -0.57622308 149.49191 -15.375495 -108.85452
41800000000 -14.328258 -98.292709 -0.60844016 149.08936 -0.60993946 149.19675 -15.000988 -107.42992
41830000000 -13.988103 -100.83462 -0.63258004 148.87032 -0.6240204 149.06033 -15.036897 -112.52493
41860000000 -14.437016 -103.49863 -0.60489553 148.38651 -0.5831598 148.50366 -15.080611 -108.84097
41890000000 -14.885441 -102.7791 -0.62075031 147.95187 -0.60314363 147.78421 -15.29867 -107.12473
41920000000 -14.529668 -100.26279 -0.67681789 147.46735 -0.64151794 147.71786 -14.397063 -110.9045
41950000000 -14.206563 -105.53599 -0.65678746 147.34447 -0.64803064 147.2639 -15.238516 -108.50522
41980000000 -15.063528 -106.6044 -0.65147531 146.62279 -0.6376521 146.9534 -15.065449 -111.78035
42010000000 -15.177238 -105.38223 -0.67078692 146.30377 -0.64470971 146.3555 -15.09865 -109.48502
42040000000 -15.075985 -103.72746 -0.71929407 146.03781 -0.65668505 146.05855 -14.542397 -110.73103
42070000000 -14.852358 -106.6899 -0.6718241 145.74496 -0.65016633 145.95801 -15.451894 -112.29176
42100000000 -15.427102 -109.02999 -0.7185182 145.34782 -0.68883824 145.17047 -14.746902 -112.44022
42130000000 -15.379486 -109.21613 -0.69594163 144.54907 -0.67167336 144.94328 -14.769912 -109.87775
42160000000 -15.368302 -107.05633 -0.72744417 144.33296 -0.70542324 144.56575 -15.03522 -112.37773
42190000000 -14.984997 -109.764 -0.70552373 144.07951 -0.70531636 144.42343 -14.599069 -116.6899
42220000000 -15.925605 -113.08923 -0.71351928 143.72108 -0.70679653 143.60686 -15.139565 -114.05267
42250000000 -15.854698 -112.80695 -0.73579359 143.32597 -0.7263633 143.1221 -14.821888 -113.14235
42280000000 -15.467919 -109.44507 -0.75799686 143.00191 -0.73914844 143.07669 -14.5839 -120.35494
42310000000 -15.621941 -113.14294 -0.72374851 142.46956 -0.73149526 142.79196 -14.972749 -115.24654
42340000000 -15.717617 -116.59218 -0.7467044 142.37752 -0.70904481 142.32054 -15.226462 -116.94688
42370000000 -16.073072 -117.17259 -0.75888526 141.72568 -0.73323107 141.66483 -14.283322 -118.01505
42400000000 -15.65134 -114.70541 -0.75747877 141.51582 -0.75369132 141.56808 -14.792565 -122.54145
42430000000 -15.510094 -113.93696 -0.73466158 141.26143 -0.74803543 141.3398 -15.625587 -118.77278
42460000000 -15.798268 -120.68571 -0.77310103 140.63986 -0.71623993 140.91788 -14.398361 -120.52514
42490000000 -16.178299 -116.40314 -0.77036154 140.52019 -0.79061025 140.40709 -15.034816 -122.98548
42520000000 -16.199911 -116.26666 -0.7891553 140.06149 -0.80153221 140.33018 -15.212984 -122.50065
42550000000 -15.069994 -118.14014 -0.71176088 139.83795 -0.71500593 139.75896 -15.197581 -126.24258
42580000000 -16.001883 -123.2523 -0.78852016 139.20564 -0.77831024 139.41261 -15.080106 -123.23191
42610000000 -16.456976 -119.41264 -0.78327179 138.97867 -0.81066686 139.22821 -15.22123 -124.36018
42640000000 -16.051933 -122.3119 -0.79948229 138.82025 -0.7390883 138.80624 -15.195998 -132.35873
42670000000 -15.482496 -122.3934 -0.80471176 138.21506 -0.77558506 138.49069 -15.656064 -126.85502
42700000000 -15.709743 -125.73627 -0.78760368 137.68314 -0.77072257 137.73149 -15.153913 -128.89063
42730000000 -16.12565 -122.1765 -0.81291556 137.4046 -0.8125816 137.74245 -15.914164 -130.19212
42760000000 -15.816192 -123.91563 -0.78636098 136.97728 -0.78863847 137.23082 -15.111155 -129.86076
42790000000 -15.511663 -125.07327 -0.80494726 136.82587 -0.78615749 136.72449 -16.155979 -132.49419
42820000000 -15.606904 -127.57375 -0.80765629 136.39047 -0.82641369 136.45502 -15.724419 -131.11603
42850000000 -16.131269 -127.29601 -0.84481376 136.11453 -0.8074764 136.33434 -15.821093 -135.78607
42880000000 -15.646581 -123.10185 -0.78674042 135.84058 -0.7701866 135.96295 -16.646534 -134.18401
42910000000 -15.518991 -125.0278 -0.78916645 135.48845 -0.77411938 135.56306 -16.293354 -136.60477
42940000000 -15.367933 -128.64993 -0.79956102 135.24207 -0.78796184 134.91 -16.453896 -137.13367
42970000000 -15.889144 -128.97594 -0.78719467 134.85553 -0.81178731 134.93172 -17.444572 -129.83719
43000000000 -15.296776 -124.39945 -0.79206884 134.17253 -0.77177095 134.34668 -15.487293 -142.57851
43030000000 -15.627884 -125.33842 -0.77409834 134.05309 -0.79955202 134.10764 -18.01178 -133.39571
43060000000 -14.941667 -130.34317 -0.8228628 133.4964 -0.80468398 133.59668 -17.009811 -141.43433
43090000000 -15.666753 -126.31735 -0.77760303 133.38245 -0.7956627 133.4818 -16.715694 -133.4761
43120000000 -15.19938 -128.21301 -0.76647848 132.67252 -0.78175509 132.90121 -17.084251 -144.66951
43150000000 -15.149899 -125.88908 -0.76956719 132.52498 -0.71977556 132.55147 -18.037613 -134.51028
43180000000 -14.773092 -128.35089 -0.79000103 131.86607 -0.77258766 132.05212 -18.274065 -140.40889
43210000000 -15.102508 -129.2305 -0.75453413 131.71538 -0.79360497 131.72928 -17.072214 -134.9657
43240000000 -15.676112 -126.98715 -0.80941379 131.64082 -0.767326 131.58731 -19.175694 -146.8613
43270000000 -14.781199 -127.43225 -0.7698701 130.76031 -0.77344126 131.02296 -18.233219 -138.88997
43300000000 -15.33238 -127.92338 -0.79211295 130.61911 -0.726919 130.85841 -19.151985 -135.71634
43330000000 -14.871778 -127.31606 -0.70971966 130.11237 -0.74442488 130.12865 -18.329195 -138.56412
43360000000 -15.385389 -126.81393 -0.75840282 129.70004 -0.74955088 130.20197 -19.12438 -142.31934
43390000000 -14.722212 -125.4613 -0.74266064 129.37987 -0.76356232 129.57919 -19.678392 -140.79071
43420000000 -14.935143 -128.95038 -0.79537135 128.9259 -0.73813951 129.30255 -20.002834 -135.67815
43450000000 -14.841163 -127.53809 -0.77446276 128.50885 -0.75000125 128.96545 -18.962706 -143.46597
43480000000 -15.335533 -127.231 -0.7332179 128.38342 -0.73325437 128.4823 -19.655085 -135.21623
43510000000 -14.617917 -123.67248 -0.73232245 127.78314 -0.72109377 127.96077 -21.111382 -137.16304
43540000000 -14.30712 -126.3807 -0.72540748 127.24603 -0.71265781 127.63719 -19.678299 -125.32726
43570000000 -15.008388 -127.00755 -0.69948596 126.93163 -0.6974104 127.05102 -18.927917 -140.26286
43600000000 -15.24638 -121.9656 -0.69935733 126.69808 -0.66700995 127.11594 -21.783993 -134.42406
43630000000 -14.263288 -121.94431 -0.6846934 126.25329 -0.69126213 126.26058 -20.337191 -126.7623
43660000000 -14.698393 -125.51192 -0.70350188 126.01495 -0.69289297 125.87398 -19.422241 -129.95909
43690000000 -15.28217 -123.90933 -0.69960183 125.43257 -0.70611459 125.71765 -21.380951 -135.23004
43720000000 -15.210025 -122.0864 -0.68956 125.03769 -0.69134349 125.153 -20.624691 -133.53363
43750000000 -14.703055 -121.32338 -0.66235876 124.60464 -0.68575728 124.45968 -20.644154 -128.96124
43780000000 -14.735286 -124.56276 -0.69329619 124.25571 -0.68827438 124.52795 -20.065453 -128.89055
43810000000 -14.788767 -122.53339 -0.70101368 123.73421 -0.64025062 124.17153 -21.527138 -132.27768
43840000000 -14.727918 -119.57086 -0.59938222 123.39723 -0.64499468 123.54885 -19.627987 -125.77578
43870000000 -14.433672 -119.85074 -0.66311324 122.94384 -0.66631067 122.80635 -20.874283 -130.17879
43900000000 -14.12389 -122.3104 -0.65746111 122.54803 -0.62214094 122.65336 -19.988501 -124.62545
43930000000 -15.521834 -121.04258 -0.64257878 122.44553 -0.61162168 122.47468 -20.325857 -130.52951
43960000000 -14.639319 -119.00666 -0.63684362 121.68723 -0.60971993 121.44742 -20.494465 -127.36301
43990000000 -14.643671 -118.74815 -0.65948814 121.41353 -0.64344478 121.46584 -20.701538 -127.5592
44020000000 -14.511628 -119.6715 -0.68798321 120.8649 -0.63291967 121.0374 -20.583199 -132.12997
44050000000 -15.33699 -120.38683 -0.60331523 120.46487 -0.59349364 120.70037 -19.420448 -126.21674
44080000000 -15.048105 -114.74833 -0.57838047 120.05574 -0.57576609 120.23026 -21.869507 -128.61049
44110000000 -14.392416 -115.54198 -0.61826634 119.48325 -0.63459909 119.56242 -19.280769 -130.37776
44140000000 -14.752396 -117.87981 -0.56535727 119.41224 -0.59085679 119.63412 -21.088005 -119.83798
44170000000 -14.893931 -116.17029 -0.60241175 118.95571 -0.59981996 119.01108 -19.761549 -134.48459
44200000000 -15.059427 -111.06245 -0.59678662 118.26878 -0.59773773 118.32472 -20.27565 -127.36128
44230000000 -14.464119 -113.92767 -0.60664785 118.04187 -0.62102294 118.12511 -21.389858 -128.65164
44260000000 -15.124401 -116.00298 -0.61792523 117.57553 -0.57668358 117.78361 -19.780741 -129.86279
44290000000 -15.405696 -114.83858 -0.59491718 117.28469 -0.55487031 117.45026 -20.37746 -139.26021
44320000000 -15.431211 -111.63902 -0.54988283 116.64935 -0.53868765 116.67416 -20.034698 -127.82455
44350000000 -14.325006 -107.44192 -0.58081859 116.63226 -0.59791833 116.58461 -22.142996 -139.67577
44380000000 -15.377666 -112.97746 -0.57913351 116.14471 -0.57550806 116.05659 -19.516672 -132.29539
44410000000 -15.77486 -110.04484 -0.55001974 115.45842 -0.55923074 115.86718 -21.483688 -139.9144
44440000000 -15.316412 -108.30412 -0.54429775 114.87108 -0.55411798 115.13132 -21.87698 -140.93704
44470000000 -14.998728 -107.21349 -0.58846462 114.51769 -0.54945922 114.84438 -19.774412 -133.895
44500000000 -15.094248 -111.61123 -0.53494471 114.70367 -0.52428234 114.63782 -21.696379 -137.78989
44530000000 -16.144728 -107.30053 -0.53882241 113.97693 -0.51565456 114.2625 -22.762993 -149.882
44560000000 -15.84979 -102.39117 -0.56844568 113.63072 -0.5233072 113.63612 -21.06148 -135.29622
44590000000 -15.132773 -104.8043 -0.56006145 113.33894 -0.55137265 113.34068 -21.912273 -147.40474
44620000000 -15.161405 -107.15491 -0.52045959 112.93647 -0.49517649 112.94777 -22.75828 -144.86717
44650000000 -16.680622 -104.5751 -0.48592389 112.25262 -0.49918407 112.33246 -21.495226 -147.80482
44680000000 -15.6231 -101.64767 -0.49720088 111.71729 -0.49780378 111.83985 -23.363672 -140.1629
44710000000 -15.293672 -99.916077 -0.55546069 111.50295 -0.52650994 111.66769 -22.341431 -157.7269
44740000000 -16.28676 -105.37172 -0.50848335 111.17005 -0.48575366 111.30439 -23.885906 -144.86507
44770000000 -16.278606 -98.778694 -0.4837462 110.51183 -0.51590818 110.79664 -22.931295 -146.95459
44800000000 -15.946865 -95.298492 -0.49273899 110.17461 -0.48409286 110.1378 -24.892447 -163.87434
44830000000 -15.42553 -99.000435 -0.50048083 109.97706 -0.52127385 109.92031 -22.949568 -151.71848
44860000000 -16.464291 -102.81481 -0.46589208 109.60304 -0.4457159 109.48265 -26.653219 -157.06949
44890000000 -16.135544 -95.481552 -0.4767918 108.81103 -0.47722861 108.88688 -23.948301 -156.95805
44920000000 -16.068058 -93.808044 -0.48837149 108.46716 -0.46014309 108.62419 -25.019255 -156.6994
44950000000 -15.788754 -93.459007 -0.51961517 108.07934 -0.4697386 108.18487 -26.845034 -150.48982
44980000000 -16.025505 -95.881172 -0.46704146 107.67287 -0.44194648 107.68009 -27.028105 -166.31339
