!Keysight Technologies,N5247B,MY61255062,A.19.80.06
!Date: Friday, March 13, 2026 17:13:35
!Correction: S11(C  2-Port  ) 
!S21(C  2-Port  ) 
!S12(C  2-Port  ) 
!S22(C  2-Port  ) 
!S2P File: Measurements: S11, S21, S12, S22:
# Hz S  dB   R 50
1000000000 -31.570807 -10.092396 -0.15585324 -6.9467812 -0.15404971 -6.9369235 -36.713543 -0.70596802
1030000000 -31.550234 -11.030173 -0.15757188 -7.1453905 -0.1551951 -7.1433148 -36.735699 -2.4029927
1060000000 -31.4701 -11.290672 -0.15913251 -7.3475924 -0.15703239 -7.3463073 -36.821793 -4.1458178
1090000000 -31.435562 -11.584111 -0.16048527 -7.553216 -0.15862665 -7.5466437 -36.757538 -5.1307592
1120000000 -31.399546 -12.162137 -0.16137685 -7.7537947 -0.15990351 -7.7508254 -36.680405 -6.0480289
1150000000 -31.324947 -12.512022 -0.16290767 -7.9549713 -0.1609223 -7.947937 -36.57711 -6.8605108
1180000000 -31.282709 -12.878724 -0.16497515 -8.1596975 -0.16253009 -8.1488256 -36.542229 -8.0205355
1210000000 -31.188799 -13.090348 -0.16649649 -8.3549738 -0.1644498 -8.3485804 -36.497826 -8.5418472
1240000000 -31.153721 -13.327279 -0.16727956 -8.5570488 -0.16533951 -8.5517073 -36.329075 -9.3813505
1270000000 -31.2017 -13.736817 -0.16812894 -8.7567587 -0.1668182 -8.7526522 -36.38002 -10.749313
1300000000 -31.209482 -14.133217 -0.17025599 -8.9607201 -0.1685455 -8.9555693 -36.428654 -12.59451
1330000000 -31.133047 -14.582356 -0.17215568 -9.1594849 -0.17007023 -9.1503868 -36.545887 -12.95548
1360000000 -31.084637 -15.058373 -0.17349902 -9.3616934 -0.1722758 -9.3565893 -36.589561 -13.878224
1390000000 -31.092613 -15.543831 -0.17612359 -9.5645351 -0.17350386 -9.5566006 -36.708618 -14.772244
1420000000 -31.071215 -15.594412 -0.1779204 -9.7588253 -0.17525323 -9.752862 -36.75209 -15.159595
1450000000 -31.06673 -15.94236 -0.17893319 -9.9550066 -0.17745198 -9.9459858 -36.838886 -15.975777
1480000000 -31.035477 -16.688831 -0.18056223 -10.147393 -0.1781901 -10.143026 -36.883148 -16.789948
1510000000 -30.945978 -16.605381 -0.18222833 -10.346489 -0.18006574 -10.33535 -36.847023 -16.289221
1540000000 -30.954323 -16.587027 -0.18417458 -10.536791 -0.18105905 -10.53212 -36.857845 -16.265688
1570000000 -30.954788 -16.829548 -0.18501134 -10.732559 -0.18263462 -10.724957 -36.996132 -16.476149
1600000000 -30.902422 -17.086208 -0.18712316 -10.921652 -0.18423076 -10.915273 -36.953659 -16.288376
1630000000 -30.912432 -17.277227 -0.18647864 -11.112611 -0.18450543 -11.105814 -36.851406 -15.997109
1660000000 -30.888519 -17.622591 -0.18702209 -11.310893 -0.18475366 -11.298021 -36.838753 -16.565535
1690000000 -30.774588 -17.724869 -0.18843627 -11.503531 -0.18527418 -11.499971 -36.835865 -16.504087
1720000000 -30.704945 -17.836557 -0.18853846 -11.697443 -0.18587178 -11.690318 -36.811966 -16.373867
1750000000 -30.697474 -18.372816 -0.18908188 -11.894793 -0.18690723 -11.886079 -36.767265 -16.839941
1780000000 -30.613602 -18.445892 -0.18955967 -12.092452 -0.18747234 -12.082013 -36.609535 -17.210743
1810000000 -30.559153 -18.366577 -0.19032824 -12.284587 -0.1874864 -12.282777 -36.58223 -16.686453
1840000000 -30.559607 -18.782681 -0.19069013 -12.483652 -0.1884606 -12.475767 -36.549034 -17.354286
1870000000 -30.550695 -19.155851 -0.19198483 -12.677291 -0.1884806 -12.670295 -36.421577 -17.809904
1900000000 -30.482866 -19.575623 -0.19097684 -12.872505 -0.1887231 -12.864405 -36.374744 -17.460459
1930000000 -30.433962 -19.648098 -0.19096872 -13.071683 -0.1892525 -13.062944 -36.308037 -17.645487
1960000000 -30.36545 -19.828087 -0.19157198 -13.269847 -0.19032824 -13.260375 -36.165134 -17.964689
1990000000 -30.34552 -20.348465 -0.19275816 -13.464884 -0.190421 -13.459402 -36.081009 -18.075357
2020000000 -30.335737 -20.663895 -0.19252463 -13.667521 -0.19131254 -13.66118 -36.029285 -19.10866
2050000000 -30.293022 -20.710438 -0.19378334 -13.86203 -0.19124058 -13.860744 -36.045975 -19.292675
2080000000 -30.256498 -21.372585 -0.19403832 -14.056798 -0.1918363 -14.054488 -35.947674 -18.787176
2110000000 -30.222975 -21.479755 -0.19497094 -14.260721 -0.19243614 -14.246237 -35.885246 -19.022488
2140000000 -30.243391 -21.609196 -0.19500858 -14.454819 -0.19389296 -14.444751 -35.806568 -19.575237
2170000000 -30.233931 -21.795059 -0.19511119 -14.652795 -0.19302905 -14.638584 -35.751591 -20.101173
2200000000 -30.174028 -22.245045 -0.19449933 -14.846405 -0.19390839 -14.844692 -35.677364 -19.793743
2230000000 -30.214598 -22.461037 -0.19633327 -15.050494 -0.19388457 -15.036961 -35.521122 -20.50815
2260000000 -30.202221 -23.080843 -0.19574589 -15.245667 -0.19335787 -15.239819 -35.421337 -21.386503
2290000000 -30.104557 -23.678602 -0.19677258 -15.445333 -0.1938778 -15.435632 -35.412464 -20.903126
2320000000 -30.146946 -23.495729 -0.19731948 -15.644012 -0.19484802 -15.639714 -35.264137 -21.518902
2350000000 -30.114363 -24.120119 -0.19781795 -15.842031 -0.1954418 -15.834076 -35.186985 -22.299183
2380000000 -30.059849 -24.238264 -0.19755813 -16.044394 -0.19556445 -16.03039 -35.132427 -22.872713
2410000000 -30.03949 -24.441545 -0.19835523 -16.241571 -0.19662523 -16.229628 -35.085678 -23.303211
2440000000 -30.108223 -24.859114 -0.19919311 -16.436579 -0.19741023 -16.430819 -34.999428 -23.53484
2470000000 -30.019358 -25.382835 -0.1994278 -16.640471 -0.19702232 -16.624161 -34.936146 -23.86701
2500000000 -29.996693 -25.341063 -0.19968013 -16.831594 -0.19805962 -16.826216 -34.803505 -24.790911
2530000000 -30.078283 -26.000477 -0.20003168 -17.028133 -0.19831322 -17.025633 -34.846943 -25.905884
2560000000 -29.999403 -26.570234 -0.20173293 -17.233917 -0.19949475 -17.216412 -34.789257 -25.806221
2590000000 -29.978111 -26.50663 -0.20237619 -17.433472 -0.19943945 -17.418001 -34.548248 -26.27697
2620000000 -30.052349 -26.971384 -0.20219882 -17.632219 -0.20088018 -17.618191 -34.597988 -27.497904
2650000000 -30.044069 -28.008274 -0.20312397 -17.828159 -0.20091951 -17.810877 -34.623463 -27.757952
2680000000 -29.976965 -27.890106 -0.2041885 -18.029303 -0.20144658 -18.009037 -34.538658 -27.991491
2710000000 -29.984095 -28.36775 -0.20448099 -18.223314 -0.20226391 -18.207903 -34.446007 -28.630375
2740000000 -29.990553 -28.734211 -0.20520662 -18.421068 -0.2026135 -18.410089 -34.316193 -28.952391
2770000000 -29.99246 -28.774132 -0.20595787 -18.619642 -0.20296285 -18.613714 -34.302242 -29.289074
2800000000 -30.037342 -29.521414 -0.20585066 -18.818335 -0.20314513 -18.800211 -34.282387 -29.891911
2830000000 -29.991142 -29.955929 -0.2066175 -19.016691 -0.20529184 -19.003212 -34.251102 -30.152658
2860000000 -29.957747 -30.118406 -0.20756668 -19.217529 -0.20549566 -19.208212 -34.185902 -31.413044
2890000000 -29.999914 -30.423725 -0.20795363 -19.40918 -0.20610499 -19.400503 -34.133415 -31.651415
2920000000 -29.972645 -30.980194 -0.20914565 -19.611937 -0.20591173 -19.596962 -34.230701 -32.410763
2950000000 -29.957262 -31.243549 -0.20929396 -19.80052 -0.20730031 -19.797691 -34.05595 -32.250973
2980000000 -29.97229 -32.056095 -0.20995465 -20.002674 -0.20752378 -19.989134 -33.992863 -32.805183
3010000000 -29.990845 -32.555954 -0.21082954 -20.199604 -0.208141 -20.187336 -34.066299 -33.07439
3040000000 -29.990702 -32.471684 -0.21119314 -20.399708 -0.20799083 -20.382967 -33.964977 -33.191505
3070000000 -29.985743 -33.221363 -0.21167363 -20.593023 -0.20947488 -20.57749 -33.881203 -34.061916
3100000000 -29.989952 -33.622974 -0.21268237 -20.78578 -0.20937464 -20.776413 -33.899067 -34.879356
3130000000 -30.0333 -34.19672 -0.21277153 -20.984507 -0.2100049 -20.970457 -33.835976 -34.965492
3160000000 -29.971857 -34.435776 -0.21283759 -21.187391 -0.21051407 -21.17083 -33.741589 -35.019287
3190000000 -29.945526 -34.563324 -0.21376556 -21.377899 -0.21097003 -21.369482 -33.705299 -35.72356
3220000000 -29.965406 -35.536011 -0.21494558 -21.576469 -0.21113308 -21.564163 -33.698009 -36.195179
3250000000 -29.944502 -35.772667 -0.21484004 -21.768589 -0.21264049 -21.760967 -33.626442 -36.978447
3280000000 -29.893833 -35.841457 -0.21550919 -21.971695 -0.2125826 -21.961418 -33.642387 -36.852562
3310000000 -29.914 -36.433159 -0.21573932 -22.162119 -0.213231 -22.153509 -33.546028 -37.177361
3340000000 -29.939301 -36.988182 -0.21642874 -22.363094 -0.21356978 -22.351616 -33.473881 -37.997509
3370000000 -29.890593 -37.338295 -0.21632372 -22.567856 -0.21338923 -22.549858 -33.551903 -37.913525
3400000000 -29.883469 -37.63839 -0.21703418 -22.759317 -0.21450171 -22.750174 -33.43961 -37.823059
3430000000 -29.858562 -38.263344 -0.21740428 -22.950603 -0.21474703 -22.942738 -33.386723 -38.510704
3460000000 -29.878641 -38.766827 -0.21835527 -23.149239 -0.21610443 -23.137423 -33.355816 -39.333843
3490000000 -29.861624 -39.236832 -0.22014105 -23.347496 -0.21594445 -23.335587 -33.431648 -39.141258
3520000000 -29.807947 -39.452301 -0.219102 -23.542503 -0.21697649 -23.533112 -33.353313 -38.75528
3550000000 -29.809135 -39.27021 -0.2191864 -23.741791 -0.21680015 -23.719734 -33.241508 -39.463062
3580000000 -29.855045 -40.2836 -0.22024508 -23.934219 -0.21692723 -23.917648 -33.202003 -39.466305
3610000000 -29.800648 -40.569798 -0.22022846 -24.129469 -0.21694301 -24.115637 -33.185177 -40.203438
3640000000 -29.764452 -40.634312 -0.22050734 -24.328001 -0.21700098 -24.313614 -33.140968 -40.242065
3670000000 -29.79257 -40.909866 -0.22029899 -24.527958 -0.21767616 -24.516272 -33.03038 -40.349415
3700000000 -29.744884 -41.712234 -0.22044496 -24.719633 -0.21799162 -24.709339 -33.023266 -41.477085
3730000000 -29.733015 -42.194504 -0.22029327 -24.919733 -0.21817644 -24.903675 -32.978985 -41.594959
3760000000 -29.728436 -42.051582 -0.22140996 -25.11582 -0.21882921 -25.104647 -32.919273 -41.47287
3790000000 -29.668785 -42.495724 -0.22260842 -25.3151 -0.21819468 -25.305454 -32.865997 -41.930885
3820000000 -29.701124 -43.009258 -0.22196488 -25.511263 -0.21858992 -25.501211 -32.825485 -42.884342
3850000000 -29.700888 -43.577091 -0.22232342 -25.704735 -0.21892504 -25.698875 -32.801003 -42.915211
3880000000 -29.589882 -43.797546 -0.22284493 -25.902166 -0.21941918 -25.89327 -32.730129 -43.221752
3910000000 -29.613472 -43.962704 -0.22339131 -26.105667 -0.22015439 -26.098803 -32.648571 -43.658142
3940000000 -29.621408 -44.829784 -0.22320245 -26.301849 -0.22079439 -26.290209 -32.656082 -44.1502
3970000000 -29.507023 -45.129498 -0.22376604 -26.498495 -0.22037198 -26.484413 -32.64653 -44.132023
4000000000 -29.527327 -44.862446 -0.2239034 -26.692425 -0.22136366 -26.682112 -32.576046 -44.391045
4030000000 -29.546335 -45.465832 -0.22464973 -26.897833 -0.22166793 -26.880154 -32.544582 -44.445309
4060000000 -29.485897 -46.131748 -0.2244589 -27.093231 -0.22197959 -27.077152 -32.492306 -45.310333
4090000000 -29.517645 -46.028828 -0.22548042 -27.283028 -0.22238337 -27.27508 -32.47361 -45.506931
4120000000 -29.474449 -46.731071 -0.22587879 -27.485165 -0.22287571 -27.472996 -32.456299 -45.562588
4150000000 -29.413328 -47.055397 -0.22526585 -27.675234 -0.22366956 -27.664417 -32.357697 -46.089924
4180000000 -29.439201 -47.142239 -0.22666226 -27.879534 -0.22318746 -27.865063 -32.34269 -46.564091
4210000000 -29.403511 -47.592457 -0.22659872 -28.074863 -0.22416016 -28.055725 -32.315479 -46.77536
4240000000 -29.353367 -47.702385 -0.22796448 -28.269567 -0.22353084 -28.255281 -32.245358 -46.735714
4270000000 -29.340631 -48.021366 -0.22744617 -28.462927 -0.22499458 -28.45496 -32.220123 -46.763073
4300000000 -29.377504 -48.67564 -0.22726913 -28.663797 -0.2245167 -28.649433 -32.21225 -47.305073
4330000000 -29.28401 -48.941429 -0.2283347 -28.855074 -0.22486264 -28.84598 -32.170044 -47.523026
4360000000 -29.280222 -48.754368 -0.22805642 -29.052378 -0.22499703 -29.042856 -32.08828 -47.468803
4390000000 -29.31197 -49.345345 -0.22828503 -29.251444 -0.22545916 -29.240614 -32.054321 -47.767075
4420000000 -29.272516 -49.711552 -0.22898272 -29.439051 -0.22588533 -29.439236 -32.049953 -48.400475
4450000000 -29.243643 -49.64267 -0.22864901 -29.637243 -0.22566965 -29.629959 -31.977528 -48.347481
4480000000 -29.251392 -49.866623 -0.22920075 -29.836405 -0.22666337 -29.829168 -31.878271 -48.706337
4510000000 -29.203268 -50.401299 -0.22932437 -30.032684 -0.226335 -30.024801 -31.8353 -48.6786
4540000000 -29.21645 -50.375679 -0.22938168 -30.227789 -0.22579563 -30.22677 -31.783226 -48.81081
4570000000 -29.220739 -50.718262 -0.22823265 -30.427387 -0.22641683 -30.41873 -31.756456 -49.253689
4600000000 -29.144743 -51.090702 -0.22946791 -30.627562 -0.22668163 -30.608892 -31.726307 -49.656338
4630000000 -29.133829 -51.14719 -0.2296232 -30.822319 -0.22695109 -30.812862 -31.659801 -50.044136
4660000000 -29.173212 -51.628651 -0.22921658 -31.02215 -0.22698928 -31.011921 -31.59234 -50.138329
4690000000 -29.109531 -51.806133 -0.22942071 -31.216888 -0.22656818 -31.211933 -31.545261 -50.519646
4720000000 -29.044489 -51.736488 -0.22925806 -31.42066 -0.22706975 -31.411505 -31.543823 -50.54039
4750000000 -29.050541 -52.417961 -0.22911425 -31.614859 -0.22738805 -31.607409 -31.489006 -50.676537
4780000000 -29.050089 -52.716557 -0.22996518 -31.814165 -0.22673182 -31.799694 -31.476973 -51.482441
4810000000 -29.043297 -52.639698 -0.22996053 -32.006687 -0.22758719 -32.001812 -31.383968 -51.379025
4840000000 -29.033762 -53.037094 -0.23080836 -32.212654 -0.22852622 -32.201279 -31.364384 -51.703579
4870000000 -29.000483 -53.424805 -0.23018545 -32.411037 -0.22850603 -32.396843 -31.3925 -51.98642
4900000000 -29.020107 -53.537296 -0.23042919 -32.611778 -0.228416 -32.599468 -31.289854 -52.042736
4930000000 -28.981573 -53.760319 -0.23140571 -32.809635 -0.22900455 -32.799629 -31.260744 -51.922848
4960000000 -28.969246 -54.389652 -0.2308504 -33.009392 -0.22922803 -32.998524 -31.215034 -52.599583
4990000000 -28.97258 -54.52417 -0.23076086 -33.207691 -0.22919858 -33.195366 -31.20186 -52.758282
5020000000 -28.986448 -54.866562 -0.23244114 -33.405704 -0.22874041 -33.397213 -31.142559 -52.894562
5050000000 -28.924284 -55.016289 -0.23271751 -33.601597 -0.23056296 -33.592621 -31.139797 -53.418564
5080000000 -28.918222 -55.151413 -0.23187697 -33.800953 -0.22999603 -33.784912 -31.085842 -53.192406
5110000000 -28.95174 -55.630878 -0.23238161 -34.003986 -0.23038416 -33.984955 -31.076866 -53.426823
5140000000 -28.919008 -55.821045 -0.23361123 -34.198833 -0.2316274 -34.180721 -31.096964 -54.355652
5170000000 -28.926825 -55.9786 -0.23363854 -34.394054 -0.23005553 -34.378498 -30.980185 -53.939133
5200000000 -28.88987 -56.223259 -0.23475102 -34.59684 -0.23080426 -34.579044 -30.984518 -54.331638
5230000000 -28.898701 -56.4785 -0.23370738 -34.790394 -0.23109365 -34.780937 -30.905523 -54.781155
5260000000 -28.900631 -56.529667 -0.23345634 -34.986404 -0.23180598 -34.978165 -30.851395 -54.282623
5290000000 -28.857758 -57.078262 -0.23405269 -35.185028 -0.23252635 -35.17841 -30.847609 -54.914879
5320000000 -28.861858 -57.081966 -0.23476577 -35.380722 -0.23249686 -35.369751 -30.805323 -55.671139
5350000000 -28.866972 -57.339035 -0.23522265 -35.587467 -0.23261975 -35.574799 -30.751951 -55.279915
5380000000 -28.83573 -57.679985 -0.23606986 -35.782948 -0.23314741 -35.770634 -30.729944 -55.380951
5410000000 -28.857828 -57.934193 -0.23621035 -35.978039 -0.23327634 -35.965115 -30.665424 -55.842964
5440000000 -28.869658 -58.144993 -0.23687759 -36.175938 -0.23386091 -36.168716 -30.651373 -55.406868
5470000000 -28.877817 -58.11731 -0.23666738 -36.379086 -0.23443845 -36.365425 -30.646496 -55.771576
5500000000 -28.834852 -58.481739 -0.23728138 -36.578266 -0.2345439 -36.553143 -30.586605 -56.430935
5530000000 -28.843006 -58.988163 -0.23743203 -36.777966 -0.23485294 -36.760258 -30.492529 -56.021957
5560000000 -28.8811 -59.423855 -0.23834831 -36.974251 -0.23557217 -36.957714 -30.50419 -56.653423
5590000000 -28.850739 -59.326233 -0.23847711 -37.164303 -0.23560579 -37.156353 -30.482094 -56.87785
5620000000 -28.835449 -60.044193 -0.23923387 -37.367943 -0.23622729 -37.348057 -30.467525 -56.827408
5650000000 -28.837471 -60.529308 -0.23899865 -37.561718 -0.2370788 -37.553749 -30.422962 -57.305008
5680000000 -28.804983 -60.531418 -0.24038883 -37.76173 -0.23655148 -37.748867 -30.397854 -58.016579
5710000000 -28.827433 -60.529171 -0.24021208 -37.957668 -0.23728685 -37.946461 -30.338779 -57.565075
5740000000 -28.814688 -61.143425 -0.2402958 -38.160564 -0.23742628 -38.145782 -30.317585 -57.828281
5770000000 -28.788612 -61.30278 -0.24092209 -38.359085 -0.2379261 -38.341537 -30.227856 -58.213688
5800000000 -28.86829 -61.566097 -0.24104604 -38.556652 -0.23834804 -38.539566 -30.213953 -58.255272
5830000000 -28.809931 -61.80051 -0.24148141 -38.758389 -0.2389155 -38.740974 -30.258915 -58.564098
5860000000 -28.773975 -61.887859 -0.24189493 -38.950916 -0.23900631 -38.938187 -30.176394 -58.49437
5890000000 -28.852037 -62.264675 -0.24227291 -39.149071 -0.23902792 -39.135555 -30.111965 -58.477219
5920000000 -28.827509 -62.58596 -0.24296245 -39.345573 -0.239802 -39.332443 -30.12686 -59.059772
5950000000 -28.79463 -62.452984 -0.24331889 -39.545338 -0.24086161 -39.529194 -30.062696 -59.188816
5980000000 -28.783415 -63.031403 -0.24393356 -39.74139 -0.24028158 -39.733749 -29.970112 -59.112179
6010000000 -28.7785 -63.542419 -0.24414439 -39.939339 -0.24110542 -39.932526 -29.944155 -59.563675
6040000000 -28.773918 -63.428162 -0.24448971 -40.142086 -0.24221243 -40.121746 -29.929338 -59.791756
6070000000 -28.765625 -63.533669 -0.2447926 -40.340759 -0.24261479 -40.325268 -29.928253 -59.6031
6100000000 -28.739355 -64.197319 -0.2452026 -40.538448 -0.24332491 -40.520473 -29.855247 -59.901791
6130000000 -28.767786 -64.385757 -0.24617696 -40.732246 -0.24269883 -40.718189 -29.780767 -60.457317
6160000000 -28.819284 -64.459961 -0.24635887 -40.927555 -0.24365948 -40.919884 -29.759066 -60.332409
6190000000 -28.736422 -64.920746 -0.24644434 -41.134212 -0.24452969 -41.119072 -29.764071 -60.516739
6220000000 -28.734716 -65.159676 -0.24662517 -41.325329 -0.24439989 -41.31443 -29.724705 -60.828415
6250000000 -28.803009 -65.77533 -0.24698274 -41.524532 -0.2448556 -41.512634 -29.645437 -61.031715
6280000000 -28.739206 -65.849464 -0.24806713 -41.72105 -0.24463047 -41.707943 -29.704689 -61.565674
6310000000 -28.682314 -65.832413 -0.24830557 -41.923157 -0.24653503 -41.906567 -29.662642 -61.602913
6340000000 -28.681419 -66.290665 -0.24854843 -42.119598 -0.24613504 -42.104691 -29.564316 -61.257893
6370000000 -28.725864 -66.737854 -0.24964993 -42.316853 -0.24765493 -42.300827 -29.512434 -61.836803
6400000000 -28.753609 -66.610657 -0.25006998 -42.516319 -0.24680601 -42.496647 -29.512732 -62.310867
6430000000 -28.736654 -67.205208 -0.24979305 -42.709972 -0.24825515 -42.698879 -29.496971 -62.007839
6460000000 -28.666861 -67.560417 -0.25049666 -42.912941 -0.24908571 -42.894241 -29.442101 -62.429016
6490000000 -28.682457 -67.47905 -0.25136441 -43.103497 -0.24892068 -43.090008 -29.358803 -62.816322
6520000000 -28.737919 -67.794319 -0.25126183 -43.307552 -0.24916412 -43.28912 -29.35298 -62.974091
6550000000 -28.667503 -68.139069 -0.25247046 -43.500572 -0.24998498 -43.486042 -29.388308 -63.165699
6580000000 -28.645948 -68.522095 -0.25275224 -43.700138 -0.24984515 -43.682201 -29.307793 -63.441727
6610000000 -28.712273 -68.908531 -0.25358668 -43.896221 -0.24998334 -43.880264 -29.269503 -63.650764
6640000000 -28.69689 -69.156898 -0.2540985 -44.093216 -0.25026906 -44.078617 -29.304337 -64.018776
6670000000 -28.650806 -69.045685 -0.25446382 -44.295956 -0.25142914 -44.281631 -29.289606 -63.822205
6700000000 -28.65888 -69.623039 -0.25452092 -44.488438 -0.25184116 -44.476524 -29.193691 -64.041801
6730000000 -28.62661 -70.073898 -0.25515065 -44.687824 -0.25269929 -44.671978 -29.205223 -64.292274
6760000000 -28.6437 -69.994133 -0.2559559 -44.88184 -0.25346979 -44.867382 -29.171112 -64.453529
6790000000 -28.629156 -70.230766 -0.25680852 -45.079216 -0.25443915 -45.069157 -29.141367 -64.470917
6820000000 -28.562706 -70.599625 -0.25734931 -45.278645 -0.25461781 -45.264874 -29.114481 -64.737595
6850000000 -28.588034 -70.65551 -0.25794947 -45.473431 -0.25485361 -45.462662 -29.038389 -65.253555
6880000000 -28.634218 -71.048752 -0.25815523 -45.671993 -0.25581008 -45.65855 -29.005402 -65.601082
6910000000 -28.554094 -71.198708 -0.25968072 -45.869667 -0.25631559 -45.854019 -29.035381 -65.359421
6940000000 -28.555315 -71.203835 -0.25953177 -46.066799 -0.25745642 -46.048443 -28.970312 -65.167046
6970000000 -28.591368 -71.606628 -0.25976178 -46.263138 -0.25703317 -46.248936 -28.940708 -65.838135
7000000000 -28.546492 -71.930389 -0.26058659 -46.461502 -0.25796983 -46.445889 -28.974518 -66.115402
7030000000 -28.546431 -71.639557 -0.26054507 -46.659962 -0.25894785 -46.634624 -28.911747 -65.764069
7060000000 -28.562405 -72.109367 -0.26161829 -46.853775 -0.25876516 -46.832348 -28.855377 -65.886765
7090000000 -28.53133 -72.548691 -0.26297668 -47.053089 -0.25970736 -47.032265 -28.821285 -66.533478
7120000000 -28.514034 -72.303207 -0.26263234 -47.24477 -0.25996047 -47.22472 -28.819904 -66.622398
7150000000 -28.493921 -72.887535 -0.26350418 -47.443645 -0.26052365 -47.422733 -28.752272 -66.499947
7180000000 -28.463034 -73.205261 -0.26359221 -47.636627 -0.26092002 -47.616554 -28.758608 -66.881882
7210000000 -28.470781 -73.089417 -0.2641784 -47.830521 -0.26128122 -47.814381 -28.671928 -66.96563
7240000000 -28.494431 -73.400375 -0.2641063 -48.029949 -0.26160535 -48.013294 -28.67094 -67.122627
7270000000 -28.430222 -73.794281 -0.26511985 -48.220963 -0.26237965 -48.207787 -28.671371 -67.217842
7300000000 -28.462238 -73.855385 -0.26588652 -48.415272 -0.26263374 -48.401985 -28.61598 -67.532433
7330000000 -28.459274 -74.318886 -0.26637998 -48.611599 -0.2624957 -48.596989 -28.564798 -67.600029
7360000000 -28.403913 -74.301575 -0.2667923 -48.809792 -0.26434812 -48.79158 -28.589777 -68.054924
7390000000 -28.394768 -74.073532 -0.2674081 -49.007732 -0.26369452 -48.988148 -28.542 -67.73999
7420000000 -28.416586 -74.93116 -0.2679078 -49.198887 -0.26457372 -49.186897 -28.484985 -68.10218
7450000000 -28.364714 -75.020889 -0.26768202 -49.397747 -0.264314 -49.376251 -28.475927 -68.698494
7480000000 -28.37636 -74.811676 -0.26794112 -49.594002 -0.26529074 -49.564861 -28.463278 -68.598022
7510000000 -28.40424 -75.163368 -0.26791221 -49.788998 -0.26556563 -49.771606 -28.449184 -68.499565
7540000000 -28.360752 -75.33329 -0.26824757 -49.988327 -0.26592532 -49.964008 -28.444666 -68.594353
7570000000 -28.384134 -75.353996 -0.26934913 -50.185383 -0.26645869 -50.171734 -28.394913 -69.111771
7600000000 -28.398373 -75.854576 -0.26906186 -50.380714 -0.26542833 -50.364239 -28.383562 -69.320747
7630000000 -28.329794 -75.58342 -0.26994407 -50.575111 -0.26705214 -50.550053 -28.411299 -68.987938
7660000000 -28.323574 -75.633957 -0.27024516 -50.770847 -0.26891178 -50.748844 -28.317564 -69.252609
7690000000 -28.380888 -76.317642 -0.27175862 -50.965916 -0.26828778 -50.946712 -28.279715 -69.571869
7720000000 -28.320114 -76.191063 -0.2710411 -51.158173 -0.26839212 -51.145725 -28.298082 -69.7547
7750000000 -28.397898 -76.240524 -0.27266508 -51.35503 -0.26816055 -51.341228 -28.281069 -69.63295
7780000000 -28.383146 -76.691254 -0.27188045 -51.554249 -0.26951051 -51.528301 -28.216839 -69.84903
7810000000 -28.311365 -77.149635 -0.27261299 -51.747711 -0.26938492 -51.726753 -28.238239 -70.172508
7840000000 -28.377226 -76.644058 -0.2729829 -51.948429 -0.27008262 -51.925762 -28.214912 -70.139908
7870000000 -28.381002 -77.102623 -0.27314362 -52.145229 -0.27070469 -52.124046 -28.146152 -70.195053
7900000000 -28.296669 -77.292801 -0.27350283 -52.33847 -0.27055261 -52.317875 -28.129776 -70.265327
7930000000 -28.358845 -77.151375 -0.27439171 -52.531322 -0.27106699 -52.517071 -28.089249 -70.55674
7960000000 -28.345661 -77.672638 -0.27473697 -52.731194 -0.27184433 -52.70919 -28.080585 -70.636719
7990000000 -28.312721 -77.490196 -0.27586085 -52.928204 -0.27172089 -52.904861 -28.053764 -70.784554
8020000000 -28.346302 -77.489082 -0.27620178 -53.116917 -0.27284867 -53.100449 -28.00507 -70.799431
8050000000 -28.352428 -78.165154 -0.27660209 -53.310844 -0.27360511 -53.294506 -27.998211 -71.285248
8080000000 -28.311815 -77.994392 -0.27675134 -53.510319 -0.2737118 -53.485516 -27.982092 -71.27684
8110000000 -28.382544 -78.049095 -0.27682942 -53.701416 -0.2742613 -53.682102 -27.95574 -71.214836
8140000000 -28.31303 -78.456573 -0.27703387 -53.901058 -0.27434209 -53.880482 -27.891447 -71.69397
8170000000 -28.292212 -78.492996 -0.27820802 -54.095089 -0.27531502 -54.073112 -27.915464 -71.856873
8200000000 -28.375114 -78.6931 -0.27912715 -54.29134 -0.27543086 -54.269234 -27.89274 -71.742386
8230000000 -28.337778 -79.077629 -0.27840286 -54.482559 -0.27568763 -54.457832 -27.865835 -72.157478
8260000000 -28.265095 -78.751678 -0.27900708 -54.676311 -0.27581424 -54.648331 -27.837378 -72.098137
8290000000 -28.362871 -79.296356 -0.28011826 -54.871536 -0.27699992 -54.845299 -27.777195 -72.321976
8320000000 -28.35154 -79.464531 -0.27942336 -55.063477 -0.27657285 -55.038651 -27.776461 -72.650047
8350000000 -28.346348 -79.298973 -0.27911058 -55.254288 -0.27600291 -55.237793 -27.756422 -72.670235
8380000000 -28.408266 -79.76268 -0.27961549 -55.444832 -0.27706724 -55.427433 -27.715361 -72.890945
8410000000 -28.346842 -80.45327 -0.27983499 -55.640793 -0.27650607 -55.624073 -27.699524 -73.157722
8440000000 -28.400343 -80.414459 -0.27875119 -55.84127 -0.27636373 -55.813831 -27.728458 -73.283432
8470000000 -28.494513 -80.405174 -0.27906972 -56.032131 -0.27579382 -56.013397 -27.674374 -73.231407
8500000000 -28.399805 -80.801895 -0.27805761 -56.228043 -0.27584293 -56.211956 -27.647554 -73.538933
8530000000 -28.450352 -80.712357 -0.27862203 -56.429401 -0.27503976 -56.411018 -27.693132 -73.422554
8560000000 -28.614386 -80.947777 -0.27925467 -56.627125 -0.27600816 -56.607639 -27.67277 -73.68161
8590000000 -28.541813 -81.388 -0.27841005 -56.827507 -0.27611986 -56.803352 -27.61776 -73.763397
8620000000 -28.524525 -80.968422 -0.27845916 -57.016968 -0.27589259 -57.003807 -27.598389 -73.740845
8650000000 -28.576616 -81.165085 -0.27906531 -57.217178 -0.27603158 -57.201836 -27.575068 -73.987495
8680000000 -28.555254 -81.502617 -0.2792961 -57.418621 -0.2774207 -57.396797 -27.592169 -73.881737
8710000000 -28.535185 -80.781334 -0.27977037 -57.617775 -0.27745354 -57.596214 -27.521494 -74.026749
8740000000 -28.616243 -81.149918 -0.28112507 -57.816998 -0.27852154 -57.793701 -27.497976 -74.372162
8770000000 -28.566332 -81.905235 -0.28156641 -58.005333 -0.27879095 -57.990028 -27.481268 -74.510765
8800000000 -28.569216 -81.499069 -0.28137445 -58.20356 -0.27892399 -58.182537 -27.449457 -74.333725
8830000000 -28.623638 -81.614693 -0.28210667 -58.405315 -0.27924916 -58.374733 -27.397861 -74.687248
8860000000 -28.527349 -82.137291 -0.28226689 -58.593296 -0.28062853 -58.576298 -27.373154 -74.991837
8890000000 -28.566046 -82.149254 -0.28321865 -58.787991 -0.2798278 -58.775124 -27.383121 -75.025299
8920000000 -28.645082 -82.320869 -0.2837036 -58.987667 -0.279576 -58.964157 -27.361807 -74.967873
8950000000 -28.59411 -82.348793 -0.28307387 -59.180065 -0.281032 -59.160976 -27.329 -75.220901
8980000000 -28.61088 -82.362144 -0.28339523 -59.369938 -0.28020081 -59.361893 -27.355524 -75.515244
9010000000 -28.643965 -82.919807 -0.28389648 -59.570362 -0.27971599 -59.54406 -27.308115 -75.621956
9040000000 -28.621485 -83.30513 -0.28396723 -59.764458 -0.28040901 -59.744034 -27.270884 -75.632286
9070000000 -28.610559 -83.032784 -0.28411785 -59.962921 -0.28067631 -59.942616 -27.263924 -75.845528
9100000000 -28.658417 -83.523575 -0.28380749 -60.160873 -0.28050372 -60.135757 -27.271551 -76.136116
9130000000 -28.666346 -83.8806 -0.28443429 -60.353409 -0.2813471 -60.329716 -27.29476 -76.098503
9160000000 -28.702396 -83.595802 -0.28402138 -60.555126 -0.28090358 -60.52562 -27.230062 -75.822983
9190000000 -28.763044 -84.34848 -0.28382877 -60.750687 -0.28109109 -60.728054 -27.209749 -76.194183
9220000000 -28.665796 -84.412376 -0.28471068 -60.945396 -0.2817407 -60.923027 -27.237202 -76.18438
9250000000 -28.751896 -84.444939 -0.28494701 -61.141075 -0.28081024 -61.125618 -27.229721 -76.008537
9280000000 -28.739103 -84.831245 -0.28429002 -61.342327 -0.28209424 -61.315044 -27.166721 -76.206413
9310000000 -28.73937 -84.71032 -0.28596708 -61.541084 -0.28200501 -61.518116 -27.103212 -76.282539
9340000000 -28.767391 -84.594185 -0.28630799 -61.741829 -0.28332946 -61.713478 -27.145563 -76.437881
9370000000 -28.786446 -85.129585 -0.28666359 -61.936333 -0.28344661 -61.91106 -27.109495 -76.456596
9400000000 -28.747465 -85.276566 -0.28718293 -62.124271 -0.2841582 -62.10202 -27.018896 -76.58606
9430000000 -28.804203 -85.330521 -0.28744566 -62.315361 -0.28493926 -62.29673 -27.015297 -77.099548
9460000000 -28.789722 -85.761848 -0.28884783 -62.517071 -0.28485993 -62.489162 -27.024477 -77.39798
9490000000 -28.728802 -85.743263 -0.28804588 -62.705162 -0.28614542 -62.682796 -27.001215 -77.070915
9520000000 -28.831558 -86.088173 -0.28840464 -62.899773 -0.28594607 -62.879642 -26.980551 -77.319687
9550000000 -28.889462 -86.215584 -0.28778973 -63.099506 -0.28599307 -63.069157 -26.924232 -77.970749
9580000000 -28.810387 -86.45845 -0.28808847 -63.29026 -0.2861056 -63.26376 -26.918993 -78.183266
9610000000 -28.869606 -86.829796 -0.2879875 -63.484962 -0.28589079 -63.462006 -26.974802 -77.901917
9640000000 -28.860714 -87.114571 -0.28949887 -63.684048 -0.28547856 -63.658298 -26.934999 -77.938164
9670000000 -28.857544 -86.763199 -0.28919339 -63.878185 -0.28553277 -63.853096 -26.913395 -78.214249
9700000000 -28.934315 -86.481911 -0.28846246 -64.076057 -0.28482455 -64.046402 -26.930658 -78.265244
9730000000 -28.884747 -87.033371 -0.2894488 -64.272987 -0.28554189 -64.245003 -26.930166 -78.010506
9760000000 -28.888643 -87.305237 -0.28933561 -64.465515 -0.28511146 -64.440857 -26.839567 -78.331978
9790000000 -28.9669 -87.18364 -0.28917292 -64.665092 -0.28527623 -64.639412 -26.844252 -78.544472
9820000000 -28.989159 -87.407631 -0.28934449 -64.862305 -0.28666747 -64.83667 -26.903316 -78.821487
9850000000 -28.890202 -87.253532 -0.28951049 -65.058159 -0.2865845 -65.031464 -26.876883 -78.389679
9880000000 -28.963554 -87.686943 -0.29099941 -65.255577 -0.28658783 -65.230667 -26.792631 -78.57238
9910000000 -29.014965 -87.921112 -0.29057398 -65.449272 -0.28739893 -65.422295 -26.790653 -79.06813
9940000000 -28.952276 -87.606117 -0.29113588 -65.641731 -0.28908992 -65.615883 -26.795309 -78.99334
9970000000 -28.954922 -88.038788 -0.29111013 -65.839455 -0.28835678 -65.813431 -26.816584 -78.768913
10000000000 -28.942059 -88.54187 -0.2922225 -66.026009 -0.28789207 -66.00383 -26.730505 -79.226768
10030000000 -28.935244 -88.31839 -0.2914556 -66.227417 -0.28770262 -66.193626 -26.678566 -79.788857
10060000000 -29.021894 -88.172783 -0.29208791 -66.417488 -0.28768602 -66.402748 -26.752329 -79.513084
10090000000 -28.999573 -88.466827 -0.29067281 -66.616119 -0.28810063 -66.594704 -26.747448 -79.297096
10120000000 -29.015392 -88.580437 -0.29049319 -66.811333 -0.28728664 -66.785988 -26.687183 -79.536758
10150000000 -29.1257 -88.63784 -0.29072374 -67.008362 -0.28720644 -66.984482 -26.740999 -80.053482
10180000000 -29.085661 -88.581856 -0.2910094 -67.206551 -0.28715029 -67.187035 -26.782854 -79.970032
10210000000 -29.048496 -88.408302 -0.290106 -67.407974 -0.28738564 -67.382935 -26.716663 -79.418304
10240000000 -29.135324 -88.587769 -0.29093492 -67.611641 -0.28806967 -67.590439 -26.66264 -79.567192
10270000000 -29.129377 -88.582733 -0.29073259 -67.817917 -0.28871727 -67.782043 -26.648819 -80.193916
10300000000 -29.099739 -88.251793 -0.29206744 -68.007706 -0.2885806 -67.993073 -26.685814 -80.069
10330000000 -29.051596 -88.341316 -0.2928707 -68.205002 -0.28942665 -68.186989 -26.636742 -79.44091
10360000000 -29.11886 -88.670609 -0.29302606 -68.396103 -0.28972965 -68.381775 -26.568382 -79.835739
10390000000 -29.058189 -87.971375 -0.29366028 -68.600296 -0.29082835 -68.57386 -26.542847 -80.159531
10420000000 -29.116354 -88.20768 -0.29437131 -68.787582 -0.29085577 -68.77079 -26.616102 -80.12413
10450000000 -29.004494 -88.732529 -0.29412422 -68.984184 -0.29192126 -68.955566 -26.507572 -79.999115
10480000000 -29.108845 -88.810928 -0.29480264 -69.179214 -0.29157215 -69.146263 -26.456751 -80.372002
10510000000 -29.161804 -88.698135 -0.2960836 -69.375618 -0.290667 -69.344292 -26.525196 -80.783035
10540000000 -29.118326 -88.644478 -0.29390651 -69.569717 -0.29199103 -69.544617 -26.578194 -80.616081
10570000000 -29.081396 -88.476585 -0.29454306 -69.763435 -0.29122558 -69.743492 -26.520594 -80.028053
10600000000 -29.158707 -89.155563 -0.29387408 -69.966934 -0.29191905 -69.94342 -26.47332 -80.650246
10630000000 -29.130678 -88.340157 -0.29470843 -70.167542 -0.29142654 -70.147476 -26.474298 -80.994354
10660000000 -29.123499 -88.184303 -0.29432365 -70.361694 -0.29199213 -70.344162 -26.550182 -80.457024
10690000000 -29.126062 -88.519905 -0.29626676 -70.573128 -0.29178089 -70.54628 -26.469294 -80.101768
10720000000 -29.164347 -88.370201 -0.29675096 -70.771378 -0.2929931 -70.75238 -26.354908 -80.588318
10750000000 -29.16048 -87.626465 -0.29800642 -70.969543 -0.29512262 -70.946495 -26.365166 -80.576591
10780000000 -29.0555 -87.751602 -0.29994452 -71.162209 -0.29655111 -71.134521 -26.404175 -80.29731
10810000000 -29.01442 -88.063461 -0.3006061 -71.34993 -0.29763743 -71.329887 -26.267269 -80.365509
10840000000 -29.079536 -88.078583 -0.30307382 -71.545967 -0.29792187 -71.525291 -26.180264 -80.829254
10870000000 -29.078838 -88.219048 -0.30248097 -71.733795 -0.30025131 -71.714722 -26.205139 -81.21537
10900000000 -29.018192 -88.040146 -0.30313462 -71.920479 -0.30004242 -71.904503 -26.225788 -81.175308
10930000000 -29.042786 -88.486389 -0.30378613 -72.119881 -0.30042106 -72.089554 -26.154377 -81.236877
10960000000 -29.103914 -88.746788 -0.30422229 -72.308762 -0.30155495 -72.288254 -26.093508 -81.70639
10990000000 -29.119698 -88.21003 -0.3033528 -72.500008 -0.30096731 -72.4748 -26.09071 -82.049324
11020000000 -29.073347 -88.429489 -0.30471486 -72.700806 -0.30132854 -72.666237 -26.148726 -81.707375
11050000000 -29.071781 -88.918098 -0.3047393 -72.894707 -0.3011457 -72.862091 -26.088013 -81.857315
11080000000 -29.100937 -88.523117 -0.30517748 -73.08503 -0.30101141 -73.055794 -26.013943 -82.513809
11110000000 -29.140272 -88.434196 -0.3058815 -73.272575 -0.30261919 -73.246056 -26.052355 -82.646812
11140000000 -29.084764 -88.385101 -0.30601624 -73.468521 -0.30169979 -73.439293 -26.066832 -82.228699
11170000000 -29.07062 -88.839813 -0.30596346 -73.655746 -0.30250677 -73.634705 -26.003693 -82.471268
11200000000 -29.137255 -88.768715 -0.30627844 -73.853012 -0.30266443 -73.817131 -26.00695 -83.135963
11230000000 -29.213955 -88.896164 -0.30495781 -74.042168 -0.30265528 -74.015526 -26.018801 -83.43161
11260000000 -29.166924 -88.601723 -0.30444053 -74.234772 -0.30162266 -74.211922 -25.9664 -82.858826
11290000000 -29.235605 -89.070938 -0.3048037 -74.434952 -0.30149946 -74.415291 -25.959669 -82.903839
11320000000 -29.304754 -89.014725 -0.30534437 -74.625877 -0.30188015 -74.603554 -25.96854 -83.684853
11350000000 -29.307459 -88.927078 -0.30545685 -74.823433 -0.30202475 -74.801636 -25.989918 -83.988983
11380000000 -29.230675 -89.093025 -0.30644706 -75.017822 -0.30366954 -74.985977 -25.938421 -83.5728
11410000000 -29.230732 -89.521233 -0.30741802 -75.21637 -0.30301887 -75.181862 -25.888948 -83.752907
11440000000 -29.292839 -89.069038 -0.30798376 -75.398468 -0.30382887 -75.37883 -25.925415 -84.191338
11470000000 -29.293844 -89.089409 -0.30715436 -75.587715 -0.3030616 -75.566193 -25.997522 -84.400063
11500000000 -29.309031 -88.915741 -0.30673152 -75.784302 -0.30331615 -75.756073 -25.924356 -84.303886
11530000000 -29.355307 -89.381813 -0.30618176 -75.977333 -0.30360457 -75.949867 -25.81621 -84.788597
11560000000 -29.413393 -89.654533 -0.30626288 -76.168327 -0.30340415 -76.142807 -25.830141 -84.887901
11590000000 -29.433456 -89.143051 -0.30547047 -76.364365 -0.30287704 -76.34359 -25.930487 -84.891449
11620000000 -29.42589 -89.644905 -0.30598679 -76.55925 -0.30324259 -76.528969 -25.90539 -84.781036
11650000000 -29.488735 -89.492752 -0.30535078 -76.750282 -0.30253622 -76.731216 -25.876303 -85.10601
11680000000 -29.533049 -89.290215 -0.30567905 -76.957161 -0.30258951 -76.924324 -25.83898 -85.378098
11710000000 -29.609001 -89.025925 -0.30609179 -77.149208 -0.30264416 -77.122292 -25.881397 -85.1325
11740000000 -29.543804 -89.253662 -0.30700266 -77.34346 -0.30320874 -77.318069 -25.89282 -84.931084
11770000000 -29.576349 -89.083389 -0.3084662 -77.534325 -0.30402628 -77.518822 -25.853586 -85.739449
11800000000 -29.600063 -89.469025 -0.3091082 -77.729591 -0.30543104 -77.704361 -25.821577 -86.205353
11830000000 -29.587095 -89.827965 -0.30874938 -77.916405 -0.30600762 -77.893463 -25.825674 -85.870865
11860000000 -29.645536 -89.678024 -0.30836031 -78.114166 -0.30598095 -78.085205 -25.803574 -85.587463
11890000000 -29.680016 -89.797165 -0.30854902 -78.297714 -0.30648762 -78.270668 -25.795702 -86.102692
11920000000 -29.637175 -90.093643 -0.30875161 -78.49456 -0.30461293 -78.461601 -25.862019 -86.69606
11950000000 -29.708763 -90.402374 -0.30808574 -78.684761 -0.30500141 -78.65612 -25.848824 -87.000557
11980000000 -29.816803 -90.806351 -0.30813187 -78.869476 -0.30482092 -78.850235 -25.784134 -86.593559
12010000000 -29.775476 -90.383224 -0.30856234 -79.059731 -0.30376253 -79.035309 -25.815361 -86.67099
12040000000 -29.82959 -90.719574 -0.30835307 -79.248848 -0.30497032 -79.222969 -25.883871 -87.34742
12070000000 -29.841356 -91.56382 -0.30701572 -79.452866 -0.30419952 -79.414474 -25.891411 -87.613136
12100000000 -29.848804 -91.569626 -0.30636483 -79.635338 -0.30272189 -79.609993 -25.816767 -87.375465
12130000000 -29.953184 -90.77198 -0.30431306 -79.832108 -0.30192623 -79.799011 -25.820166 -87.667831
12160000000 -29.998341 -91.409912 -0.30522358 -80.01619 -0.30121118 -79.993469 -25.943855 -87.652451
12190000000 -29.977144 -92.133568 -0.30387774 -80.21048 -0.30099699 -80.18502 -25.952137 -87.613205
12220000000 -30.124216 -91.749123 -0.3028129 -80.41832 -0.30055839 -80.382942 -25.863716 -88.025803
12250000000 -30.171366 -91.557487 -0.30302691 -80.609741 -0.29997143 -80.576599 -25.857609 -87.862671
12280000000 -30.053881 -91.564499 -0.30302775 -80.798294 -0.29888842 -80.767776 -25.936808 -87.712036
12310000000 -30.242977 -91.686264 -0.30344161 -80.990067 -0.29863691 -80.961006 -25.975655 -87.711731
12340000000 -30.326206 -92.336159 -0.30165595 -81.184563 -0.2977289 -81.16021 -25.890408 -88.100861
12370000000 -30.267809 -91.620323 -0.30116069 -81.373856 -0.29688928 -81.351471 -25.901222 -88.265038
12400000000 -30.34697 -91.797386 -0.29887402 -81.569794 -0.29617062 -81.541122 -25.987595 -88.321556
12430000000 -30.450644 -93.015793 -0.29809764 -81.765381 -0.29425025 -81.73571 -25.989487 -87.931366
12460000000 -30.426676 -92.345596 -0.29820216 -81.962624 -0.29426935 -81.933632 -25.970285 -88.30925
12490000000 -30.577091 -91.559189 -0.29738432 -82.157135 -0.29314208 -82.133034 -26.032156 -88.776024
12520000000 -30.557579 -92.898201 -0.29513982 -82.358604 -0.29324734 -82.326439 -26.042521 -88.385735
12550000000 -30.639919 -92.636581 -0.29609579 -82.552567 -0.29242185 -82.527939 -26.083492 -87.780884
12580000000 -30.782383 -91.949516 -0.2955133 -82.757355 -0.29051754 -82.728615 -25.984243 -88.520767
12610000000 -30.740253 -92.094887 -0.29483533 -82.949532 -0.29032877 -82.917427 -26.036669 -88.784225
12640000000 -30.656445 -92.088928 -0.29401147 -83.141281 -0.29068774 -83.11705 -26.106707 -88.367126
12670000000 -30.86821 -92.33226 -0.29188803 -83.345108 -0.28967404 -83.317078 -26.032925 -88.118843
12700000000 -30.967026 -92.042915 -0.29194397 -83.543915 -0.28924403 -83.512108 -26.01198 -88.378036
12730000000 -30.816021 -91.54953 -0.29137728 -83.73645 -0.2872341 -83.713585 -26.08848 -88.743233
12760000000 -30.927443 -92.014137 -0.2907539 -83.942551 -0.28674322 -83.908813 -26.125362 -88.519165
12790000000 -31.03896 -92.59005 -0.2899884 -84.13372 -0.28681678 -84.106552 -26.070448 -87.747665
12820000000 -31.036783 -90.818642 -0.28948891 -84.340218 -0.28534505 -84.309242 -26.015833 -87.864967
12850000000 -31.074999 -90.027275 -0.28843921 -84.536423 -0.28512999 -84.507362 -26.101877 -88.258591
12880000000 -31.084593 -91.728661 -0.28767633 -84.736839 -0.28450033 -84.706245 -26.170601 -87.66053
12910000000 -31.128077 -90.727631 -0.28835404 -84.933357 -0.28424609 -84.906906 -26.096157 -87.281044
12940000000 -31.309587 -89.729805 -0.28728858 -85.130829 -0.28323689 -85.10936 -26.023628 -88.231621
12970000000 -31.264551 -89.764771 -0.28683144 -85.330872 -0.28378704 -85.306602 -26.120638 -87.968323
13000000000 -31.17765 -89.536293 -0.28574064 -85.527977 -0.28323966 -85.504967 -26.185669 -87.244957
13030000000 -31.446325 -90.170181 -0.28575972 -85.728737 -0.28286639 -85.707962 -26.039045 -87.373833
13060000000 -31.462622 -89.218651 -0.28526959 -85.94059 -0.28237739 -85.903618 -26.01202 -87.610023
13090000000 -31.272057 -88.219818 -0.28474551 -86.13166 -0.28176472 -86.108124 -26.151821 -87.698181
13120000000 -31.420099 -89.265678 -0.2845512 -86.343597 -0.28201857 -86.305473 -26.114079 -87.389603
13150000000 -31.499638 -89.593704 -0.28485274 -86.542946 -0.28136533 -86.512657 -26.030485 -87.038429
13180000000 -31.537621 -87.245453 -0.2845639 -86.732704 -0.28170863 -86.709793 -26.025303 -87.560043
13210000000 -31.493532 -87.109924 -0.28536412 -86.934853 -0.28247464 -86.908501 -26.092253 -87.443779
13240000000 -31.354464 -88.145065 -0.2846297 -87.130257 -0.28132859 -87.108505 -26.068472 -86.487709
13270000000 -31.490709 -86.831047 -0.28606081 -87.336693 -0.28173295 -87.306404 -26.013647 -86.766563
13300000000 -31.649746 -85.850769 -0.28499427 -87.537163 -0.2814852 -87.507294 -25.952015 -87.515205
13330000000 -31.459272 -86.245087 -0.285496 -87.724762 -0.28098312 -87.699005 -26.035669 -87.002945
13360000000 -31.367958 -85.949081 -0.28422424 -87.926361 -0.28178018 -87.896484 -26.064276 -86.253227
13390000000 -31.697117 -85.692268 -0.28464711 -88.12516 -0.28117505 -88.101044 -25.922804 -86.564667
13420000000 -31.631596 -85.197426 -0.2846131 -88.329514 -0.28096709 -88.297783 -25.937366 -86.958237
13450000000 -31.412537 -84.020561 -0.28522092 -88.52858 -0.28027177 -88.495193 -26.063927 -86.460938
13480000000 -31.574587 -84.817833 -0.28396252 -88.729065 -0.28138328 -88.700424 -25.993446 -86.302307
13510000000 -31.61334 -84.717499 -0.28501362 -88.924644 -0.28108031 -88.902046 -25.88431 -86.221764
13540000000 -31.582867 -82.002861 -0.28580949 -89.120628 -0.2815755 -89.092445 -25.912251 -86.941093
13570000000 -31.585262 -82.666687 -0.28606746 -89.321564 -0.28271085 -89.290077 -25.936075 -86.908485
13600000000 -31.610094 -83.943443 -0.28485605 -89.516983 -0.28176498 -89.48597 -25.948755 -86.013359
13630000000 -31.679461 -81.893585 -0.28575531 -89.713371 -0.28184068 -89.684395 -25.830746 -86.155182
13660000000 -31.694502 -81.73745 -0.28558168 -89.908157 -0.28157911 -89.881538 -25.849787 -86.973366
13690000000 -31.519793 -81.765839 -0.28411868 -90.100868 -0.28117532 -90.077255 -25.976635 -86.363121
13720000000 -31.592552 -81.325241 -0.28488287 -90.305679 -0.28130043 -90.276459 -25.920719 -86.025543
13750000000 -31.892977 -80.717102 -0.28403354 -90.505127 -0.28123692 -90.469604 -25.786152 -86.245255
13780000000 -31.68536 -80.092331 -0.28417808 -90.705368 -0.28079781 -90.663292 -25.849308 -86.559563
13810000000 -31.537092 -79.150574 -0.2840775 -90.894798 -0.28049266 -90.874084 -25.967325 -86.405212
13840000000 -31.747551 -79.874702 -0.2831775 -91.1017 -0.28046203 -91.062599 -25.866539 -85.787041
13870000000 -31.757753 -78.868996 -0.28427178 -91.3041 -0.27999318 -91.266808 -25.79287 -85.932564
13900000000 -31.752525 -76.82093 -0.28358835 -91.496552 -0.28037339 -91.466591 -25.842438 -86.827232
13930000000 -31.800632 -77.889954 -0.2838285 -91.701233 -0.27964503 -91.660011 -25.89192 -86.215378
13960000000 -31.68734 -78.015976 -0.28345793 -91.893806 -0.27949402 -91.869347 -25.861378 -85.510216
13990000000 -31.800861 -76.037971 -0.28281334 -92.095482 -0.2792787 -92.060921 -25.77969 -85.916977
14020000000 -31.895531 -76.298538 -0.28318217 -92.296402 -0.28029579 -92.265289 -25.836317 -86.262108
14050000000 -31.582909 -76.276161 -0.28240529 -92.496078 -0.28011578 -92.461456 -25.92399 -85.5476
14080000000 -31.705254 -74.806435 -0.28395534 -92.695862 -0.27965608 -92.662544 -25.857292 -85.208649
14110000000 -31.879391 -74.757378 -0.2838763 -92.899513 -0.28057688 -92.857941 -25.715923 -85.718704
14140000000 -31.626127 -73.885063 -0.28344718 -93.099518 -0.28037199 -93.061615 -25.77968 -85.943672
14170000000 -31.617266 -73.244667 -0.28435966 -93.297035 -0.28077489 -93.264069 -25.865236 -85.462723
14200000000 -31.769371 -74.084435 -0.28393546 -93.490509 -0.28185973 -93.462082 -25.73587 -84.997398
14230000000 -31.611181 -72.932388 -0.28448847 -93.693039 -0.2807031 -93.654449 -25.700565 -85.161758
14260000000 -31.601234 -71.370346 -0.28425574 -93.887169 -0.28194535 -93.84832 -25.769285 -85.778801
14290000000 -31.671339 -72.446053 -0.28552666 -94.085289 -0.28250584 -94.052376 -25.758747 -85.334824
14320000000 -31.52808 -71.613533 -0.28554299 -94.28315 -0.28139791 -94.242599 -25.680714 -84.702522
14350000000 -31.624121 -70.111664 -0.28508824 -94.471382 -0.28227547 -94.440033 -25.648773 -85.536621
14380000000 -31.684202 -70.55687 -0.28575835 -94.675873 -0.28218484 -94.64035 -25.683416 -86.012558
14410000000 -31.461256 -70.180885 -0.28416508 -94.867699 -0.28158158 -94.830925 -25.731483 -85.142036
14440000000 -31.642784 -69.025276 -0.28490829 -95.057373 -0.28160119 -95.024651 -25.720272 -85.151031
14470000000 -31.725292 -69.143166 -0.28458989 -95.258522 -0.28070503 -95.226311 -25.594492 -85.450996
14500000000 -31.55271 -68.784782 -0.28413746 -95.450554 -0.28056476 -95.42823 -25.699707 -85.608246
14530000000 -31.574188 -67.66243 -0.28464738 -95.654625 -0.28098145 -95.618958 -25.772942 -85.248466
14560000000 -31.625996 -67.651924 -0.28388074 -95.855621 -0.27998987 -95.823082 -25.635178 -84.692543
14590000000 -31.499088 -66.639572 -0.28352234 -96.053391 -0.28038442 -96.019814 -25.630461 -85.076256
14620000000 -31.554399 -65.676384 -0.28366077 -96.253517 -0.27937201 -96.22406 -25.707842 -85.464714
14650000000 -31.560053 -66.109482 -0.2834397 -96.459618 -0.28004012 -96.414665 -25.707773 -84.989647
14680000000 -31.421505 -65.036621 -0.28336951 -96.654442 -0.27888036 -96.615402 -25.649748 -84.609253
14710000000 -31.429121 -63.948711 -0.28268266 -96.84996 -0.2795589 -96.814247 -25.60482 -85.153297
14740000000 -31.540543 -64.099297 -0.28342974 -97.04863 -0.28032091 -97.01757 -25.614325 -85.134354
14770000000 -31.344233 -63.658081 -0.28272742 -97.250847 -0.27974111 -97.220161 -25.674149 -84.494606
14800000000 -31.375843 -62.53746 -0.28433922 -97.450081 -0.2797668 -97.408897 -25.616919 -84.503906
14830000000 -31.451384 -62.719006 -0.28295535 -97.651268 -0.28098145 -97.607849 -25.525377 -84.781654
14860000000 -31.361691 -62.08313 -0.28279787 -97.847946 -0.27943301 -97.805016 -25.650593 -84.899582
14890000000 -31.348312 -61.112614 -0.28289789 -98.050934 -0.27937338 -98.010132 -25.662931 -84.412247
14920000000 -31.304832 -61.588268 -0.28324711 -98.2416 -0.27980101 -98.220299 -25.526981 -84.113976
14950000000 -31.13442 -60.813431 -0.28315428 -98.441719 -0.27936262 -98.412384 -25.568136 -84.363144
14980000000 -31.25466 -59.486885 -0.28343749 -98.645332 -0.27921411 -98.603996 -25.613632 -84.620316
15010000000 -31.210939 -59.53994 -0.28233236 -98.842712 -0.27889419 -98.809418 -25.534052 -83.880768
15040000000 -30.97831 -58.899952 -0.28374201 -99.045265 -0.27943164 -99.010628 -25.50947 -83.595467
15070000000 -31.135473 -58.471741 -0.28409213 -99.25074 -0.27971765 -99.207169 -25.524511 -84.240662
15100000000 -31.158165 -58.890179 -0.28366518 -99.442574 -0.28083342 -99.410835 -25.495373 -84.241188
15130000000 -30.940363 -57.251087 -0.28397855 -99.648293 -0.27929994 -99.615875 -25.553629 -83.520584
15160000000 -30.897062 -57.341789 -0.28481072 -99.851311 -0.28079256 -99.80146 -25.446745 -83.702713
15190000000 -30.976652 -57.449089 -0.2844716 -100.05524 -0.27977949 -100.00759 -25.406511 -83.991707
15220000000 -30.850672 -56.276615 -0.28375581 -100.243 -0.27891183 -100.20602 -25.459515 -83.602821
15250000000 -30.855055 -55.360851 -0.28501666 -100.44753 -0.27983636 -100.40543 -25.44215 -83.443077
15280000000 -30.75853 -55.864567 -0.28449315 -100.6493 -0.28023946 -100.60612 -25.320444 -83.596062
15310000000 -30.707401 -55.239536 -0.28454566 -100.83881 -0.28148714 -100.80885 -25.358656 -83.609261
15340000000 -30.744287 -54.473686 -0.28524554 -101.03636 -0.28182575 -101.00423 -25.369745 -83.563339
15370000000 -30.64863 -53.989143 -0.28438535 -101.24689 -0.28166693 -101.21186 -25.309584 -83.082008
15400000000 -30.497641 -54.290344 -0.28573486 -101.44783 -0.28219536 -101.41235 -25.309324 -83.177078
15430000000 -30.53167 -54.037865 -0.28688592 -101.64458 -0.28204674 -101.61235 -25.288702 -83.372429
15460000000 -30.54833 -53.852715 -0.28718239 -101.83856 -0.28185394 -101.80941 -25.257456 -83.316696
15490000000 -30.292114 -52.176849 -0.28689837 -102.04462 -0.28191137 -102.01036 -25.273066 -82.636581
15520000000 -30.2791 -52.806168 -0.28696805 -102.24294 -0.28346542 -102.21276 -25.179287 -83.213821
15550000000 -30.385881 -52.866489 -0.28714034 -102.44493 -0.28355768 -102.40508 -25.199574 -83.223427
15580000000 -30.266161 -52.320518 -0.28803205 -102.64207 -0.28340736 -102.60913 -25.212124 -82.906548
15610000000 -30.13942 -51.186813 -0.28871393 -102.84695 -0.28400233 -102.80257 -25.137741 -82.894821
15640000000 -30.127653 -51.614883 -0.28817645 -103.04464 -0.28518581 -103.00177 -25.060997 -82.874702
15670000000 -30.118137 -51.858711 -0.28831917 -103.23772 -0.2851499 -103.20663 -25.134092 -83.091187
15700000000 -30.100422 -50.878757 -0.28944907 -103.43973 -0.28565329 -103.41459 -25.106714 -82.924049
15730000000 -30.028969 -50.649788 -0.28895658 -103.64217 -0.28633067 -103.60836 -25.019592 -82.810921
15760000000 -29.848129 -50.80616 -0.2911832 -103.83972 -0.2861656 -103.8111 -25.006969 -82.730545
15790000000 -29.901571 -50.630085 -0.29041374 -104.04794 -0.28627953 -104.00674 -25.02511 -82.813576
15820000000 -29.910215 -50.685829 -0.29216599 -104.24599 -0.28653529 -104.21352 -24.990644 -82.608139
15850000000 -29.759535 -49.828102 -0.29160345 -104.44152 -0.28825831 -104.41261 -24.941565 -82.439926
15880000000 -29.660631 -49.893661 -0.29301 -104.64825 -0.28849927 -104.61398 -24.891396 -82.794762
15910000000 -29.680365 -50.370712 -0.29308531 -104.84521 -0.29085854 -104.81039 -24.8773 -82.620171
15940000000 -29.618872 -49.930519 -0.29507443 -105.0421 -0.29233655 -105.0072 -24.897724 -81.930992
15970000000 -29.461454 -49.526894 -0.29644829 -105.25179 -0.2917878 -105.21433 -24.788452 -82.45446
16000000000 -29.388582 -50.113621 -0.29756644 -105.44604 -0.29380098 -105.4051 -24.721397 -82.942146
16030000000 -29.358521 -49.970535 -0.29891282 -105.63381 -0.2956599 -105.60336 -24.794117 -82.225136
16060000000 -29.448874 -49.346794 -0.29980999 -105.83468 -0.29671603 -105.80499 -24.775106 -82.492134
16090000000 -29.311939 -49.66589 -0.30079114 -106.02859 -0.29706749 -105.99165 -24.622618 -82.555801
16120000000 -29.162989 -50.195065 -0.30237523 -106.2276 -0.29958367 -106.19002 -24.641361 -82.617836
16150000000 -29.139963 -50.002438 -0.30367038 -106.41673 -0.30033204 -106.37711 -24.657331 -82.791939
16180000000 -29.196415 -50.094463 -0.30360845 -106.61222 -0.30105221 -106.57533 -24.57696 -82.783104
16210000000 -29.110449 -49.744659 -0.30617067 -106.79794 -0.30243519 -106.76368 -24.57505 -82.836456
16240000000 -29.004442 -49.938004 -0.30648622 -106.98315 -0.3044197 -106.95051 -24.561098 -83.439583
16270000000 -29.045822 -50.359486 -0.30715322 -107.16824 -0.30460766 -107.13711 -24.582312 -83.459831
16300000000 -29.099424 -50.065269 -0.30800903 -107.36875 -0.30498588 -107.32445 -24.558781 -83.038399
16330000000 -29.039673 -49.295826 -0.30694571 -107.55391 -0.30422366 -107.51254 -24.54257 -83.535011
16360000000 -29.030363 -50.330597 -0.30740106 -107.74181 -0.30425033 -107.71141 -24.576231 -84.063026
16390000000 -28.989477 -50.829437 -0.30817133 -107.9305 -0.30422923 -107.90141 -24.648886 -83.100716
16420000000 -29.029175 -49.951923 -0.30695599 -108.12126 -0.304952 -108.08762 -24.606791 -83.323334
16450000000 -29.005819 -49.273048 -0.30618012 -108.31525 -0.30388719 -108.27869 -24.519789 -83.887886
16480000000 -28.836409 -49.717617 -0.30573791 -108.50636 -0.30271438 -108.46478 -24.620174 -83.564026
16510000000 -28.917048 -49.477581 -0.30538133 -108.69549 -0.30130774 -108.65986 -24.695711 -83.525116
16540000000 -28.999796 -49.508949 -0.303307 -108.88858 -0.3011027 -108.85276 -24.628227 -83.437561
16570000000 -28.81782 -48.64537 -0.30244213 -109.08037 -0.3012245 -109.05164 -24.606775 -83.29332
16600000000 -28.757158 -48.632881 -0.30321011 -109.27661 -0.2991491 -109.24796 -24.678766 -83.909782
16630000000 -28.828533 -49.108089 -0.30220261 -109.47408 -0.29779184 -109.44147 -24.692307 -83.094833
16660000000 -28.712034 -49.037933 -0.3017303 -109.67694 -0.29737157 -109.63737 -24.635248 -82.410515
16690000000 -28.603748 -47.462917 -0.30177388 -109.87589 -0.29768899 -109.83818 -24.637281 -83.19223
16720000000 -28.577063 -48.05899 -0.30044797 -110.07129 -0.29647517 -110.03028 -24.696272 -83.318062
16750000000 -28.449472 -48.630543 -0.29915991 -110.26766 -0.29505336 -110.22476 -24.730043 -81.836159
16780000000 -28.503363 -47.624973 -0.2990551 -110.47071 -0.29356721 -110.437 -24.630302 -81.942871
16810000000 -28.454308 -47.427471 -0.2975989 -110.66598 -0.29536453 -110.63696 -24.629406 -82.563454
16840000000 -28.171152 -47.974098 -0.29637459 -110.8637 -0.29369628 -110.8356 -24.69762 -82.101952
16870000000 -28.24572 -47.548973 -0.29661015 -111.07307 -0.29378629 -111.03313 -24.653082 -81.771614
16900000000 -28.350353 -47.064129 -0.29652867 -111.27528 -0.29340714 -111.24141 -24.56316 -81.2285
16930000000 -28.094923 -46.862812 -0.29811954 -111.47843 -0.29283941 -111.44831 -24.565487 -81.294807
16960000000 -27.979677 -46.661232 -0.29801807 -111.67985 -0.29213554 -111.65405 -24.65773 -81.807678
16990000000 -28.058659 -47.744587 -0.2977508 -111.86984 -0.29315594 -111.84946 -24.635771 -80.81813
17020000000 -27.936754 -47.418491 -0.29635352 -112.07749 -0.29311579 -112.06214 -24.493334 -80.178986
17050000000 -27.786747 -46.011166 -0.2965464 -112.28197 -0.29419154 -112.24889 -24.490917 -81.083855
17080000000 -27.701511 -47.192322 -0.29809096 -112.48155 -0.29271701 -112.45564 -24.556211 -81.000725
17110000000 -27.651913 -47.825459 -0.29808265 -112.68141 -0.29200819 -112.64645 -24.53768 -80.013985
17140000000 -27.72262 -46.265255 -0.29807904 -112.88643 -0.29397574 -112.85261 -24.427193 -80.274193
17170000000 -27.582932 -46.959064 -0.29633632 -113.08736 -0.29553437 -113.05196 -24.334402 -80.942085
17200000000 -27.334282 -47.112789 -0.2974456 -113.28069 -0.29468822 -113.25024 -24.46347 -79.86937
17230000000 -27.390675 -46.876888 -0.29751739 -113.48537 -0.29476827 -113.45557 -24.433117 -79.749641
17260000000 -27.500359 -46.85664 -0.29979086 -113.68182 -0.29548061 -113.656 -24.266125 -79.865135
17290000000 -27.181515 -46.019444 -0.29810512 -113.89191 -0.29669636 -113.85294 -24.254457 -80.091827
17320000000 -27.107086 -46.119011 -0.29985827 -114.0881 -0.2951121 -114.05793 -24.386723 -80.499474
17350000000 -27.176826 -47.696365 -0.30065325 -114.29862 -0.29745528 -114.26186 -24.292501 -79.38166
17380000000 -27.0235 -46.699039 -0.30020082 -114.49248 -0.29682413 -114.45213 -24.171389 -79.144135
17410000000 -26.959126 -45.496212 -0.30125502 -114.68899 -0.29781151 -114.65699 -24.21406 -80.49791
17440000000 -26.824774 -47.007957 -0.30080807 -114.89921 -0.29674348 -114.85473 -24.257208 -80.062485
17470000000 -26.683065 -46.968838 -0.30055061 -115.09203 -0.29875365 -115.06333 -24.134109 -78.939369
17500000000 -26.794682 -45.612083 -0.30221179 -115.30533 -0.29946968 -115.25916 -24.061956 -79.770432
17530000000 -26.726006 -46.318592 -0.30300775 -115.49287 -0.29914606 -115.46825 -24.040956 -80.601402
17560000000 -26.373049 -46.44276 -0.30299526 -115.69612 -0.29919845 -115.65298 -24.110376 -79.613762
17590000000 -26.486107 -46.56398 -0.30303746 -115.89246 -0.3008619 -115.86486 -24.041935 -79.172836
17620000000 -26.473528 -46.775269 -0.30561379 -116.09781 -0.30135879 -116.06387 -23.861244 -79.542831
17650000000 -26.168556 -46.031971 -0.30593818 -116.30518 -0.30067766 -116.25719 -23.879944 -79.905457
17680000000 -26.153494 -45.698631 -0.30642232 -116.49107 -0.3008655 -116.46819 -24.061062 -80.165062
17710000000 -26.2043 -47.390717 -0.30784953 -116.69512 -0.30247709 -116.66522 -23.842077 -79.459816
17740000000 -26.074505 -46.393448 -0.30775562 -116.90116 -0.30548602 -116.86658 -23.752312 -79.641075
17770000000 -26.087559 -45.680916 -0.30973423 -117.09462 -0.30512553 -117.06982 -23.852875 -80.829666
17800000000 -25.911533 -47.465359 -0.30987766 -117.29843 -0.30705962 -117.27159 -23.814863 -79.915253
17830000000 -25.773903 -47.171932 -0.31217542 -117.49662 -0.30649373 -117.46733 -23.734762 -79.266594
17860000000 -25.912874 -46.140545 -0.31442738 -117.6902 -0.3091338 -117.66251 -23.61026 -80.290825
17890000000 -25.705612 -46.477615 -0.31381044 -117.89729 -0.31043565 -117.86389 -23.632803 -80.656479
17920000000 -25.51404 -46.438484 -0.31436893 -118.08534 -0.30989686 -118.05134 -23.720873 -79.987366
17950000000 -25.691654 -46.741344 -0.31774843 -118.28676 -0.31277516 -118.26985 -23.620598 -80.379936
17980000000 -25.594984 -47.145176 -0.31757966 -118.48544 -0.31538063 -118.45357 -23.442015 -80.942642
18010000000 -25.408381 -45.789528 -0.31969118 -118.67459 -0.31645134 -118.6327 -23.521887 -81.193031
18040000000 -25.43671 -46.217564 -0.3209388 -118.87411 -0.31855536 -118.84192 -23.618589 -81.502121
18070000000 -25.413929 -47.847755 -0.32303384 -119.06854 -0.31969649 -119.03341 -23.404526 -80.777565
18100000000 -25.353735 -46.506836 -0.3251377 -119.25928 -0.32088807 -119.22613 -23.349138 -81.232048
18130000000 -25.361408 -45.970547 -0.32727051 -119.44975 -0.32210511 -119.41787 -23.451059 -82.454941
18160000000 -25.160215 -47.778152 -0.32623452 -119.64893 -0.32252276 -119.60452 -23.374777 -81.734833
18190000000 -25.135481 -46.822639 -0.3281554 -119.82515 -0.32545939 -119.80647 -23.36207 -81.388329
18220000000 -25.256104 -46.744038 -0.32907259 -120.00867 -0.32580146 -119.98271 -23.29352 -83.035187
18250000000 -25.058662 -47.220345 -0.32966155 -120.20716 -0.3271943 -120.16901 -23.275015 -83.363129
18280000000 -24.932781 -46.80122 -0.32981879 -120.38866 -0.32684514 -120.35304 -23.392946 -82.578041
18310000000 -25.102518 -47.4184 -0.33242556 -120.57008 -0.3287797 -120.54042 -23.338079 -83.219322
18340000000 -25.090343 -47.537785 -0.33367211 -120.75803 -0.32935548 -120.72289 -23.177807 -84.169136
18370000000 -24.964104 -46.330051 -0.33318853 -120.93742 -0.32942194 -120.90722 -23.334421 -84.202583
18400000000 -25.019464 -46.8298 -0.33389348 -121.1245 -0.33159986 -121.09287 -23.429409 -84.32901
18430000000 -24.962835 -47.874634 -0.33476689 -121.30704 -0.33029947 -121.27587 -23.28684 -83.950272
18460000000 -24.943775 -46.018677 -0.3317678 -121.4892 -0.33020449 -121.44346 -23.328886 -84.559906
18490000000 -25.077793 -46.065861 -0.33146548 -121.67102 -0.32713038 -121.63697 -23.497362 -85.721741
18520000000 -24.87558 -47.0359 -0.33019137 -121.86304 -0.32627666 -121.81984 -23.456528 -84.678276
18550000000 -24.879591 -45.847656 -0.3266671 -122.04155 -0.32526687 -122.00623 -23.452065 -83.904953
18580000000 -25.052933 -46.026455 -0.32718369 -122.23235 -0.32345715 -122.18666 -23.49618 -85.37796
18610000000 -24.864698 -46.296623 -0.32287994 -122.42266 -0.32171872 -122.38407 -23.524578 -85.002319
18640000000 -24.75507 -45.045322 -0.32113782 -122.61725 -0.31657162 -122.58723 -23.629387 -83.598946
18670000000 -24.911318 -45.741978 -0.32046446 -122.81245 -0.31864393 -122.7745 -23.528107 -83.773087
18700000000 -24.790298 -46.145447 -0.31824893 -123.00932 -0.31403637 -122.98087 -23.442181 -83.761414
18730000000 -24.698143 -44.253887 -0.31518719 -123.2057 -0.31220269 -123.17212 -23.61709 -83.720345
18760000000 -24.807055 -44.893726 -0.31548864 -123.42118 -0.31183469 -123.38261 -23.616945 -83.379211
18790000000 -24.577982 -45.594234 -0.3131777 -123.62946 -0.3095763 -123.59759 -23.378078 -82.743134
18820000000 -24.550171 -43.924221 -0.31038672 -123.82825 -0.30764809 -123.79058 -23.493406 -82.662552
18850000000 -24.687416 -44.417965 -0.31185415 -124.03467 -0.30717796 -124.00481 -23.575994 -83.526489
18880000000 -24.412153 -45.111553 -0.31099704 -124.26192 -0.30540743 -124.21971 -23.413599 -82.119034
18910000000 -24.340656 -44.143448 -0.31298521 -124.47032 -0.30715713 -124.42154 -23.355883 -81.540565
18940000000 -24.48469 -44.780941 -0.31437644 -124.66343 -0.3095741 -124.63712 -23.36565 -82.601479
18970000000 -24.229206 -44.986095 -0.31560221 -124.89023 -0.31026328 -124.85747 -23.316101 -82.158417
19000000000 -24.178526 -43.424538 -0.31521976 -125.09395 -0.31095591 -125.06758 -23.348183 -81.439827
19030000000 -24.257305 -45.216957 -0.31754792 -125.28344 -0.31372082 -125.26018 -23.251778 -82.141243
19060000000 -24.140657 -45.236141 -0.32013312 -125.49606 -0.31532356 -125.46048 -23.202925 -82.430542
19090000000 -24.164463 -43.925278 -0.31995645 -125.68026 -0.31570464 -125.65089 -23.299923 -81.812195
19120000000 -24.158813 -45.234367 -0.32281244 -125.87868 -0.31989264 -125.84341 -23.219738 -81.689674
19150000000 -23.989616 -46.040993 -0.32617927 -126.08514 -0.32167915 -126.04585 -23.067823 -81.906113
19180000000 -24.078428 -45.21693 -0.32638159 -126.24963 -0.32196349 -126.22021 -23.183376 -82.214378
19210000000 -24.174871 -45.33675 -0.32738635 -126.43904 -0.32309324 -126.40344 -23.25247 -82.391174
19240000000 -23.893559 -45.196453 -0.32579532 -126.64133 -0.32482609 -126.60718 -23.066669 -81.784103
19270000000 -23.969782 -45.042248 -0.32672682 -126.83318 -0.32384399 -126.79662 -23.124403 -81.663185
19300000000 -24.101751 -46.518082 -0.32769758 -127.00786 -0.32565638 -126.97995 -23.199305 -82.383499
19330000000 -23.888742 -45.478958 -0.32997212 -127.21307 -0.3248657 -127.17494 -23.104898 -81.511139
19360000000 -23.874216 -44.745274 -0.32850885 -127.41017 -0.32337376 -127.3632 -23.138533 -81.193245
19390000000 -23.908745 -46.348537 -0.32924378 -127.57743 -0.32498398 -127.54698 -23.130217 -82.066017
19420000000 -23.842291 -46.118149 -0.32956716 -127.77403 -0.32404172 -127.74198 -23.119915 -82.006706
19450000000 -23.928123 -45.002857 -0.32639053 -127.96727 -0.32155761 -127.92667 -23.203453 -81.166672
19480000000 -23.836662 -46.159088 -0.32622337 -128.15588 -0.32261226 -128.12657 -23.132761 -80.981552
19510000000 -23.627596 -46.474354 -0.32682168 -128.35022 -0.322999 -128.32686 -23.036425 -81.115715
19540000000 -23.810492 -45.732632 -0.32404006 -128.54428 -0.32139173 -128.5083 -23.16666 -80.579094
19570000000 -23.804668 -46.379063 -0.32364932 -128.74899 -0.31969452 -128.70644 -23.164978 -80.535606
19600000000 -23.470997 -46.144165 -0.32404536 -128.94765 -0.3200562 -128.91913 -22.966686 -80.051529
19630000000 -23.559324 -46.478664 -0.32331604 -129.13812 -0.31972072 -129.10962 -23.017517 -80.214905
19660000000 -23.633715 -47.651604 -0.32284367 -129.33583 -0.31747997 -129.30363 -23.095654 -80.18486
19690000000 -23.453672 -46.623119 -0.32320282 -129.53479 -0.31924874 -129.51646 -22.974409 -79.136803
19720000000 -23.434547 -46.576107 -0.32298309 -129.73691 -0.31912336 -129.70959 -22.920656 -79.105049
19750000000 -23.411049 -47.976555 -0.32319865 -129.92 -0.32035941 -129.90073 -22.933622 -79.623734
19780000000 -23.325457 -47.814484 -0.32258382 -130.12936 -0.31768939 -130.10258 -22.86865 -78.969383
19810000000 -23.421011 -46.568825 -0.32120973 -130.33711 -0.31759748 -130.31717 -22.861628 -78.307686
19840000000 -23.295137 -47.830307 -0.3235001 -130.53293 -0.32004505 -130.50237 -22.795292 -78.787621
19870000000 -23.107824 -48.07621 -0.32405037 -130.73779 -0.31971878 -130.70844 -22.697786 -78.881523
19900000000 -23.311628 -48.082359 -0.32198438 -130.94072 -0.31829545 -130.90752 -22.768826 -78.466568
19930000000 -23.245096 -48.337326 -0.32323852 -131.14668 -0.32055616 -131.10516 -22.672491 -78.381058
19960000000 -22.978968 -47.909676 -0.32599565 -131.32974 -0.32188374 -131.31509 -22.535374 -78.572083
19990000000 -23.074291 -48.699814 -0.32724679 -131.54359 -0.32244411 -131.49986 -22.652992 -78.721649
20020000000 -23.096186 -49.79414 -0.32591167 -131.72533 -0.32180262 -131.69327 -22.618517 -78.619148
20050000000 -22.921293 -48.372498 -0.32881516 -131.92485 -0.32448772 -131.8862 -22.443623 -78.18808
20080000000 -22.956299 -48.964817 -0.32797563 -132.11919 -0.32453766 -132.09425 -22.398067 -78.538849
20110000000 -22.897913 -50.531296 -0.32655516 -132.29015 -0.32381412 -132.25954 -22.455641 -79.395683
20140000000 -22.893478 -50.050476 -0.32784691 -132.4984 -0.32370034 -132.45775 -22.415174 -78.993668
20170000000 -22.97101 -49.550282 -0.32744747 -132.70065 -0.32324633 -132.6647 -22.382339 -78.597115
20200000000 -22.795753 -50.266682 -0.32679936 -132.88506 -0.32064366 -132.85126 -22.318754 -79.675217
20230000000 -22.63574 -50.338203 -0.32440627 -133.07237 -0.32257602 -133.04869 -22.344957 -79.480865
20260000000 -22.865211 -50.357555 -0.32609335 -133.29292 -0.32120442 -133.26855 -22.400448 -78.69709
20290000000 -22.758087 -50.271698 -0.3270902 -133.49483 -0.32254812 -133.46512 -22.307507 -78.835335
20320000000 -22.512106 -49.91254 -0.32805461 -133.67123 -0.32353133 -133.64874 -22.186884 -79.351738
20350000000 -22.607172 -50.717472 -0.32632774 -133.88365 -0.32308766 -133.86305 -22.293804 -79.027481
20380000000 -22.575588 -51.630527 -0.32662913 -134.08994 -0.3228434 -134.05757 -22.341143 -78.905464
20410000000 -22.434376 -49.957245 -0.33029053 -134.27388 -0.32669166 -134.24063 -22.135994 -78.953255
20440000000 -22.425383 -50.353676 -0.32972831 -134.46878 -0.32466096 -134.43094 -22.120392 -79.237434
20470000000 -22.322218 -51.559696 -0.32697633 -134.66328 -0.3242459 -134.64108 -22.205305 -79.96209
20500000000 -22.302532 -50.992443 -0.3284896 -134.85954 -0.32460403 -134.83621 -22.082571 -79.43132
20530000000 -22.375935 -50.656094 -0.33153644 -135.05707 -0.32606879 -135.03125 -22.018488 -79.179848
20560000000 -22.15239 -51.434544 -0.32784301 -135.24898 -0.32538742 -135.21436 -22.018515 -80.135315
20590000000 -22.076284 -51.463451 -0.32934597 -135.43355 -0.32571077 -135.41447 -21.992443 -80.288536
20620000000 -22.203655 -51.541855 -0.32998049 -135.64497 -0.32567257 -135.6266 -22.013565 -79.663773
20650000000 -22.075094 -51.952778 -0.32861719 -135.83932 -0.32504705 -135.80922 -21.897263 -79.962257
20680000000 -21.935644 -51.290764 -0.32710135 -136.01721 -0.3250328 -135.98752 -21.830088 -80.681778
20710000000 -22.014185 -52.052467 -0.32988384 -136.23895 -0.32594097 -136.19691 -21.951981 -80.648094
20740000000 -21.938755 -52.971653 -0.32811296 -136.43744 -0.32424924 -136.40172 -21.913408 -80.271317
20770000000 -21.81604 -51.768719 -0.32862166 -136.60623 -0.32553667 -136.58272 -21.713676 -80.668121
20800000000 -21.819902 -52.210468 -0.32911587 -136.81342 -0.3243452 -136.77657 -21.764309 -81.093246
20830000000 -21.674402 -52.81171 -0.32871881 -137.01131 -0.32351601 -136.98972 -21.87701 -81.590569
20860000000 -21.701525 -52.259235 -0.32908964 -137.19981 -0.32662439 -137.17372 -21.770023 -80.94796
20890000000 -21.765848 -52.280281 -0.33052012 -137.40105 -0.32664084 -137.36772 -21.667543 -80.834282
20920000000 -21.539244 -52.794659 -0.32840192 -137.60153 -0.32358208 -137.56479 -21.692236 -82.180458
20950000000 -21.515921 -52.404804 -0.32835028 -137.78214 -0.32551324 -137.75874 -21.713835 -81.972313
20980000000 -21.578678 -53.083504 -0.3291885 -137.98959 -0.32613853 -137.9631 -21.732128 -81.345161
21010000000 -21.473461 -53.110996 -0.328778 -138.18445 -0.32478091 -138.14764 -21.621384 -81.991539
21040000000 -21.367928 -52.25248 -0.32717282 -138.36842 -0.32265911 -138.32649 -21.568832 -82.924034
21070000000 -21.384167 -53.14114 -0.3288562 -138.57335 -0.32316101 -138.54111 -21.692026 -82.527542
21100000000 -21.324686 -53.543125 -0.32696012 -138.77348 -0.32410699 -138.73543 -21.696234 -82.23278
21130000000 -21.317635 -53.001152 -0.32762778 -138.96033 -0.32237497 -138.9296 -21.538782 -83.043976
21160000000 -21.28804 -53.160103 -0.3280856 -139.16975 -0.32430056 -139.13504 -21.613153 -83.410049
21190000000 -21.168522 -53.74321 -0.32679379 -139.3764 -0.3221578 -139.33876 -21.681305 -83.50872
21220000000 -21.205589 -53.375912 -0.32812524 -139.56937 -0.32312587 -139.53802 -21.572758 -83.23291
21250000000 -21.26009 -53.612007 -0.33018103 -139.76331 -0.32485846 -139.72517 -21.516195 -83.368469
21280000000 -21.13942 -53.544617 -0.32901201 -139.97325 -0.32583717 -139.93677 -21.614754 -84.366432
21310000000 -21.082144 -53.48037 -0.3303014 -140.15459 -0.32651472 -140.11644 -21.612789 -84.083519
21340000000 -21.148878 -54.395046 -0.33292246 -140.3445 -0.32833129 -140.31755 -21.645454 -83.63533
21370000000 -21.071119 -54.226547 -0.33206454 -140.53711 -0.32965818 -140.5025 -21.596123 -84.606293
21400000000 -21.016254 -53.479431 -0.33052292 -140.69902 -0.32504928 -140.67409 -21.609211 -84.944168
21430000000 -20.964611 -54.096367 -0.32905611 -140.90494 -0.32601577 -140.86642 -21.744984 -83.981674
21460000000 -20.877792 -54.526279 -0.32978946 -141.10056 -0.3245067 -141.06416 -21.73716 -83.641647
21490000000 -20.952486 -53.893642 -0.32820481 -141.27231 -0.32344154 -141.25002 -21.577091 -84.350731
21520000000 -20.914913 -53.834076 -0.32841057 -141.47948 -0.32219544 -141.43967 -21.648907 -84.11335
21550000000 -20.778299 -54.096745 -0.32632047 -141.68951 -0.32199219 -141.65234 -21.720884 -83.849548
21580000000 -20.77117 -54.541504 -0.32661572 -141.87648 -0.32045862 -141.85126 -21.560215 -83.907181
21610000000 -20.845345 -54.72974 -0.32370007 -142.07533 -0.31960148 -142.04449 -21.574524 -83.883087
21640000000 -20.728868 -54.205559 -0.32213548 -142.26717 -0.31982717 -142.24043 -21.637957 -84.442848
21670000000 -20.65682 -54.378639 -0.32339692 -142.47571 -0.31881917 -142.44133 -21.598368 -84.283592
21700000000 -20.687508 -55.465504 -0.32357597 -142.661 -0.31932005 -142.63672 -21.501923 -83.355515
21730000000 -20.688931 -55.067966 -0.32280743 -142.86732 -0.31753621 -142.83704 -21.551405 -84.191513
21760000000 -20.610159 -54.243992 -0.31938469 -143.05995 -0.31533054 -143.03519 -21.547861 -84.884407
21790000000 -20.561234 -55.262154 -0.3211576 -143.27754 -0.31897682 -143.2364 -21.583 -83.948219
21820000000 -20.532532 -55.714417 -0.32352799 -143.47221 -0.31853056 -143.45007 -21.564508 -83.755066
21850000000 -20.626595 -55.28059 -0.32354695 -143.66216 -0.31708339 -143.62732 -21.477106 -84.57222
21880000000 -20.566843 -55.063911 -0.32086885 -143.86046 -0.31682611 -143.82948 -21.575611 -83.930588
21910000000 -20.411814 -55.645859 -0.32239422 -144.07602 -0.31834781 -144.03558 -21.610163 -83.7845
21940000000 -20.451868 -56.034107 -0.32400015 -144.26521 -0.31983051 -144.21758 -21.446228 -84.026169
21970000000 -20.520588 -56.332218 -0.32300624 -144.44215 -0.31866705 -144.41342 -21.450424 -83.930031
22000000000 -20.406744 -55.753052 -0.32112554 -144.64523 -0.31803808 -144.62228 -21.541838 -83.998932
22030000000 -20.295979 -56.010269 -0.32390282 -144.85507 -0.31949782 -144.82611 -21.428635 -83.995247
22060000000 -20.350782 -57.192608 -0.32445091 -145.04144 -0.32064086 -145.01173 -21.395679 -83.421303
22090000000 -20.366749 -56.731884 -0.32423389 -145.23361 -0.318847 -145.20213 -21.45776 -84.334572
22120000000 -20.31245 -56.04118 -0.32248065 -145.43462 -0.31816566 -145.40643 -21.386303 -84.336182
22150000000 -20.186523 -57.281406 -0.32511008 -145.64325 -0.32010749 -145.61375 -21.424044 -83.438904
22180000000 -20.207878 -57.936996 -0.32696906 -145.81946 -0.32338604 -145.78748 -21.456135 -83.956177
22210000000 -20.340059 -57.602867 -0.32398203 -145.99402 -0.32040566 -145.96585 -21.417953 -83.937164
22240000000 -20.206501 -57.271629 -0.32298172 -146.20135 -0.31915736 -146.17082 -21.399599 -83.144119
22270000000 -20.063349 -57.951164 -0.32369366 -146.40923 -0.31969759 -146.38092 -21.43585 -82.999489
22300000000 -20.137365 -58.437325 -0.32566643 -146.59164 -0.32031316 -146.55104 -21.269491 -83.147942
22330000000 -20.233854 -58.409142 -0.31935599 -146.76122 -0.31743345 -146.74501 -21.260063 -82.582047
22360000000 -20.0867 -57.996758 -0.31987119 -146.98975 -0.31552705 -146.96568 -21.321804 -82.867447
22390000000 -20.019142 -58.690224 -0.32167858 -147.1749 -0.3161746 -147.14729 -21.195221 -83.159599
22420000000 -20.05831 -59.706154 -0.32097811 -147.36745 -0.3161757 -147.33284 -21.12343 -82.364113
22450000000 -20.162674 -59.27187 -0.31865591 -147.55431 -0.3126789 -147.53601 -21.17905 -82.993324
22480000000 -20.018238 -58.763561 -0.31534806 -147.7813 -0.31296879 -147.74658 -21.138077 -83.124702
22510000000 -19.935732 -59.459625 -0.3176451 -147.97617 -0.31352273 -147.9482 -21.030308 -82.677734
22540000000 -19.98387 -60.163467 -0.3178927 -148.16325 -0.31291565 -148.14111 -21.038864 -83.344627
22570000000 -20.082106 -59.550861 -0.31398073 -148.37033 -0.31002223 -148.33452 -20.986092 -83.452843
22600000000 -19.985332 -59.488331 -0.31484455 -148.58601 -0.31032333 -148.55426 -20.973881 -82.504776
22630000000 -19.849918 -60.533291 -0.31586361 -148.78638 -0.31319609 -148.74615 -20.973305 -82.904434
22660000000 -19.937513 -61.066689 -0.31616679 -148.97401 -0.31306088 -148.93864 -20.868954 -83.730843
22690000000 -20.012781 -60.725609 -0.31433916 -149.17557 -0.31029135 -149.14854 -20.881546 -83.12767
22720000000 -19.8424 -60.410488 -0.31569827 -149.39053 -0.31168172 -149.35736 -20.874252 -83.169624
22750000000 -19.78113 -61.232285 -0.3193039 -149.59244 -0.31274179 -149.55034 -20.780121 -83.603317
22780000000 -19.866262 -62.035889 -0.31715721 -149.7688 -0.31179464 -149.7301 -20.800936 -83.402878
22810000000 -19.888552 -61.747986 -0.31588504 -149.97145 -0.30977035 -149.93956 -20.838558 -83.828011
22840000000 -19.79388 -61.165989 -0.31713352 -150.18823 -0.31116807 -150.16466 -20.740509 -83.544083
22870000000 -19.722794 -61.982983 -0.31813279 -150.38042 -0.31400743 -150.35136 -20.595461 -83.607277
22900000000 -19.735384 -62.626564 -0.31590176 -150.56778 -0.31131351 -150.54097 -20.696333 -84.23571
22930000000 -19.82542 -61.957561 -0.31572944 -150.77673 -0.31149346 -150.75772 -20.682945 -84.429047
22960000000 -19.715622 -61.763176 -0.31763035 -150.99753 -0.31397265 -150.97112 -20.596355 -83.682968
22990000000 -19.618773 -62.811821 -0.31959423 -151.1666 -0.31523117 -151.14398 -20.578054 -84.277611
23020000000 -19.706322 -63.278973 -0.31790078 -151.36708 -0.31415519 -151.33415 -20.596916 -84.911049
23050000000 -19.748274 -62.789261 -0.31712016 -151.588 -0.31361789 -151.55168 -20.586296 -84.533936
23080000000 -19.616673 -62.461304 -0.31834421 -151.77943 -0.3148056 -151.76144 -20.592827 -84.738663
23110000000 -19.537495 -63.248604 -0.31999213 -151.96921 -0.3161228 -151.94829 -20.446869 -85.459419
23140000000 -19.610594 -64.060982 -0.31704691 -152.16061 -0.3121298 -152.12633 -20.495304 -85.111862
23170000000 -19.648561 -63.614285 -0.31750724 -152.38177 -0.31227499 -152.35226 -20.604183 -85.158073
23200000000 -19.528896 -63.20211 -0.31964326 -152.56895 -0.31596106 -152.54202 -20.458429 -85.609352
23230000000 -19.476484 -64.298439 -0.32158381 -152.76312 -0.31568906 -152.73135 -20.395695 -85.494514
23260000000 -19.507725 -64.594223 -0.31891358 -152.96118 -0.31411123 -152.93317 -20.478365 -86.304886
23290000000 -19.534426 -63.945515 -0.32073256 -153.17911 -0.31576201 -153.13286 -20.452307 -86.174576
23320000000 -19.453569 -63.807579 -0.32090786 -153.3837 -0.31780997 -153.33369 -20.415903 -85.87471
23350000000 -19.349216 -64.371666 -0.32327563 -153.55431 -0.31767407 -153.52702 -20.400448 -86.344719
23380000000 -19.455376 -64.651627 -0.3223114 -153.75378 -0.31610999 -153.72804 -20.431959 -87.039848
23410000000 -19.471907 -64.722328 -0.32109824 -153.959 -0.31782976 -153.93941 -20.426992 -86.566956
23440000000 -19.326265 -64.442108 -0.32154116 -154.15787 -0.31928161 -154.12151 -20.425533 -86.546356
23470000000 -19.233452 -65.012566 -0.323156 -154.33524 -0.31768548 -154.3006 -20.318455 -87.35099
23500000000 -19.320288 -65.372948 -0.32135439 -154.55002 -0.31767043 -154.5208 -20.384665 -87.422249
23530000000 -19.321112 -65.135941 -0.32141405 -154.75227 -0.31820521 -154.72723 -20.483315 -87.294273
23560000000 -19.278431 -64.845062 -0.32497227 -154.95451 -0.31776682 -154.91681 -20.33082 -87.614502
23590000000 -19.199831 -65.716507 -0.32019806 -155.15475 -0.31660306 -155.11707 -20.330091 -87.696266
23620000000 -19.204479 -65.910011 -0.32147259 -155.35654 -0.31709704 -155.32378 -20.503851 -88.449196
23650000000 -19.260233 -65.770775 -0.32163286 -155.54524 -0.31760138 -155.53751 -20.428654 -88.016563
23680000000 -19.190527 -65.657906 -0.32357988 -155.75285 -0.31967336 -155.73262 -20.356293 -87.48275
23710000000 -19.079807 -65.9869 -0.32485789 -155.94678 -0.31796262 -155.91818 -20.415546 -88.414238
23740000000 -19.170635 -66.19886 -0.32556653 -156.15471 -0.32037753 -156.12411 -20.476217 -88.675034
23770000000 -19.174376 -66.418953 -0.3265588 -156.36259 -0.32061523 -156.334 -20.480421 -87.82222
23800000000 -19.103043 -66.005714 -0.32670838 -156.554 -0.32201031 -156.52278 -20.467819 -88.086067
23830000000 -19.059511 -66.357224 -0.32641536 -156.73727 -0.32391426 -156.7092 -20.390585 -88.870842
23860000000 -19.061562 -66.846832 -0.32700479 -156.94991 -0.32150769 -156.91637 -20.480696 -88.661888
23890000000 -19.044006 -66.769951 -0.32825312 -157.15265 -0.32265574 -157.10504 -20.549604 -88.001907
23920000000 -19.037939 -66.466141 -0.32836422 -157.33365 -0.32458842 -157.28891 -20.422361 -88.631622
23950000000 -18.957569 -66.818245 -0.32711476 -157.52756 -0.32356063 -157.48531 -20.396658 -88.68206
23980000000 -18.954838 -67.105789 -0.32845441 -157.72636 -0.32383421 -157.68515 -20.548279 -88.806839
24010000000 -19.005957 -67.189453 -0.32948673 -157.9202 -0.3244417 -157.88889 -20.472334 -88.735847
24040000000 -18.95113 -67.346703 -0.32733274 -158.10982 -0.32517064 -158.07045 -20.369213 -88.203934
24070000000 -18.853355 -67.132103 -0.32858032 -158.28317 -0.32498372 -158.25204 -20.429535 -88.767799
24100000000 -18.856392 -67.763428 -0.3291896 -158.49312 -0.3223694 -158.4543 -20.489544 -89.431015
24130000000 -18.881758 -68.188568 -0.32777321 -158.68069 -0.32221383 -158.66594 -20.445255 -88.571144
24160000000 -18.866776 -67.572472 -0.32688925 -158.88573 -0.32379824 -158.85291 -20.431273 -88.6017
24190000000 -18.811243 -67.849968 -0.32394522 -159.08234 -0.32200029 -159.04651 -20.41437 -89.744911
24220000000 -18.791948 -68.508217 -0.32400799 -159.28903 -0.31962767 -159.26077 -20.428812 -89.23056
24250000000 -18.86124 -68.597275 -0.32627192 -159.50706 -0.32034937 -159.46402 -20.545786 -88.6548
24280000000 -18.890903 -68.189583 -0.3247399 -159.70125 -0.32109907 -159.65445 -20.40797 -89.310158
24310000000 -18.783649 -68.511963 -0.32382193 -159.92094 -0.31962851 -159.86086 -20.413862 -89.34716
24340000000 -18.735157 -68.803207 -0.32608607 -160.10477 -0.31943485 -160.08301 -20.591671 -89.204193
24370000000 -18.832647 -69.207207 -0.32821849 -160.31432 -0.32111245 -160.27692 -20.554094 -89.163712
24400000000 -18.807127 -68.93116 -0.32527024 -160.50729 -0.32379627 -160.48605 -20.507566 -88.626617
24430000000 -18.707409 -68.533249 -0.3255724 -160.7186 -0.32209703 -160.68323 -20.539093 -89.179199
24460000000 -18.735792 -68.983139 -0.3291561 -160.92471 -0.32608217 -160.88553 -20.577715 -89.43425
24490000000 -18.785875 -69.562317 -0.33059385 -161.13216 -0.32689315 -161.09251 -20.546091 -88.31591
24520000000 -18.792706 -68.901894 -0.33301693 -161.30791 -0.32930073 -161.27968 -20.58604 -88.221413
24550000000 -18.692444 -68.776154 -0.33316198 -161.51976 -0.32620719 -161.48734 -20.54463 -89.470055
24580000000 -18.653877 -69.816223 -0.33365113 -161.71321 -0.33007517 -161.69366 -20.546097 -88.296143
24610000000 -18.699907 -69.605087 -0.33798546 -161.90356 -0.33371124 -161.86603 -20.638208 -87.763161
24640000000 -18.746864 -69.161713 -0.3391653 -162.07582 -0.33327854 -162.04996 -20.522617 -88.310104
24670000000 -18.611166 -69.382401 -0.33726388 -162.28458 -0.33121571 -162.243 -20.48048 -88.177612
24700000000 -18.561363 -69.92775 -0.33902758 -162.47157 -0.33449203 -162.45107 -20.598242 -87.980469
24730000000 -18.648361 -70.072304 -0.34081581 -162.65964 -0.33540469 -162.61324 -20.507698 -88.090431
24760000000 -18.626703 -69.885284 -0.34040371 -162.84346 -0.3361752 -162.8121 -20.41457 -87.529762
24790000000 -18.521498 -69.507034 -0.33894166 -163.0403 -0.33474788 -163.00327 -20.458632 -87.784973
24820000000 -18.502642 -70.517586 -0.34256303 -163.22903 -0.33612514 -163.21811 -20.4282 -88.496834
24850000000 -18.518503 -70.828491 -0.34218296 -163.41568 -0.33536527 -163.38457 -20.357586 -87.46476
24880000000 -18.522064 -70.227615 -0.34099111 -163.60016 -0.33673012 -163.56715 -20.366613 -87.332527
24910000000 -18.441858 -70.282494 -0.33859688 -163.79662 -0.33464217 -163.7756 -20.331522 -88.082275
24940000000 -18.370798 -71.140739 -0.34076852 -164.00604 -0.33506691 -163.9761 -20.313606 -87.732101
24970000000 -18.453394 -71.469666 -0.34031439 -164.18112 -0.3358804 -164.14456 -20.336803 -87.563339
25000000000 -18.476978 -71.099464 -0.33990875 -164.36813 -0.33279109 -164.34351 -20.225779 -87.82843
25030000000 -18.333689 -71.245758 -0.33811921 -164.57999 -0.33245629 -164.54201 -20.219036 -87.571663
25060000000 -18.302103 -72.018486 -0.33962518 -164.78053 -0.33510688 -164.74124 -20.303968 -87.439171
25090000000 -18.385902 -72.570976 -0.33967471 -164.94888 -0.33554089 -164.91884 -20.248611 -87.940872
25120000000 -18.373903 -72.085068 -0.33723199 -165.1472 -0.33201757 -165.12505 -20.110729 -87.506821
25150000000 -18.273527 -71.870369 -0.33551097 -165.35959 -0.33283386 -165.32944 -20.188946 -87.477707
25180000000 -18.254385 -73.056366 -0.33859718 -165.5573 -0.33374283 -165.51457 -20.143276 -88.187485
25210000000 -18.298088 -73.34166 -0.33615562 -165.73672 -0.33363491 -165.70714 -20.073429 -87.746536
25240000000 -18.356508 -72.896851 -0.33342221 -165.92665 -0.33068019 -165.89435 -20.126944 -87.523277
25270000000 -18.224043 -72.838676 -0.33304375 -166.14337 -0.32903489 -166.10802 -20.046581 -88.148621
25300000000 -18.184265 -73.693176 -0.33602136 -166.34482 -0.33110592 -166.30354 -20.001114 -88.183426
25330000000 -18.274782 -74.204689 -0.33453315 -166.50964 -0.33093494 -166.4695 -20.048325 -87.908936
25360000000 -18.30113 -73.983192 -0.33320251 -166.71477 -0.3297604 -166.67815 -19.966358 -88.346863
25390000000 -18.122831 -74.019913 -0.33302587 -166.9213 -0.32617536 -166.89508 -19.882324 -88.25013
25420000000 -18.120033 -74.77475 -0.332221 -167.10556 -0.32924265 -167.07831 -19.949856 -88.12291
25450000000 -18.193985 -75.247589 -0.33008245 -167.29268 -0.32661238 -167.27118 -19.957779 -88.918259
25480000000 -18.202217 -74.613159 -0.32882938 -167.48785 -0.3243081 -167.47464 -19.822477 -88.73233
25510000000 -18.129705 -74.749649 -0.32757309 -167.71935 -0.32276115 -167.69398 -19.895512 -88.628952
25540000000 -18.082209 -75.756874 -0.33118021 -167.9185 -0.32617146 -167.88655 -19.873165 -89.333939
25570000000 -18.122948 -76.082535 -0.33096987 -168.09993 -0.32267609 -168.07741 -19.833738 -88.941414
25600000000 -18.236366 -75.848328 -0.3272652 -168.30887 -0.32115817 -168.2814 -19.872782 -89.000839
25630000000 -18.096344 -75.952118 -0.32857364 -168.53703 -0.32368416 -168.49359 -19.848911 -89.418152
25660000000 -18.053497 -76.615677 -0.33020365 -168.73474 -0.32465675 -168.70039 -19.78249 -89.474388
25690000000 -18.129139 -76.861023 -0.32864511 -168.90074 -0.32332554 -168.89441 -19.800756 -89.372696
25720000000 -18.164845 -76.596901 -0.32816377 -169.12888 -0.32447881 -169.10934 -19.8321 -89.775864
25750000000 -18.04965 -76.36116 -0.32940796 -169.35948 -0.32554224 -169.31537 -19.763863 -89.592766
25780000000 -18.029627 -77.054489 -0.33327127 -169.53378 -0.32693696 -169.50529 -19.768911 -89.802849
25810000000 -18.069601 -77.383202 -0.33292246 -169.728 -0.32726827 -169.69421 -19.805258 -90.553047
25840000000 -18.134062 -77.134514 -0.33141491 -169.94832 -0.32816544 -169.91132 -19.74201 -89.706703
25870000000 -18.063795 -76.923157 -0.33600459 -170.15878 -0.32980704 -170.12448 -19.80369 -89.660751
25900000000 -17.977448 -77.596458 -0.33776078 -170.33958 -0.33610079 -170.31923 -19.699293 -90.218895
25930000000 -18.027578 -78.046356 -0.33964896 -170.51881 -0.33586389 -170.50117 -19.700048 -89.881767
25960000000 -18.053431 -77.631653 -0.3406173 -170.71359 -0.33636454 -170.68451 -19.77733 -89.821289
25990000000 -17.946238 -77.479485 -0.34623566 -170.92096 -0.3405613 -170.89111 -19.675251 -89.915329
26020000000 -17.848461 -77.806084 -0.34398144 -171.08441 -0.34142122 -171.05447 -19.606701 -90.547325
26050000000 -17.906443 -78.184448 -0.3456066 -171.27016 -0.34238631 -171.23726 -19.666397 -90.327576
26080000000 -17.96792 -78.162552 -0.34566519 -171.47603 -0.34011254 -171.43381 -19.629887 -90.50164
26110000000 -17.857361 -77.876709 -0.34780866 -171.6624 -0.34194574 -171.60516 -19.527046 -89.908806
26140000000 -17.737196 -78.38916 -0.34754646 -171.84248 -0.34196395 -171.80721 -19.573038 -90.727966
26170000000 -17.809071 -79.057709 -0.34476775 -171.99982 -0.33894756 -171.98026 -19.521759 -91.428986
26200000000 -17.803034 -78.830254 -0.3444564 -172.20323 -0.3372899 -172.18141 -19.494629 -91.042412
26230000000 -17.73502 -78.527473 -0.34148085 -172.39662 -0.34010974 -172.36433 -19.483881 -90.813408
26260000000 -17.603672 -79.587097 -0.34078279 -172.58427 -0.34017104 -172.53746 -19.432936 -91.69603
26290000000 -17.69787 -80.139236 -0.33964056 -172.7744 -0.33354688 -172.73686 -19.414629 -91.887016
26320000000 -17.755083 -79.994904 -0.33707309 -172.97704 -0.33202291 -172.93965 -19.488947 -91.688988
26350000000 -17.633089 -79.47142 -0.33917761 -173.1994 -0.33490026 -173.13094 -19.452509 -91.869598
26380000000 -17.559322 -80.266228 -0.33598557 -173.36607 -0.33439392 -173.32262 -19.323935 -92.428764
26410000000 -17.626694 -81.128441 -0.33443278 -173.5592 -0.3301098 -173.50844 -19.465532 -92.659866
26440000000 -17.687563 -80.609116 -0.33303761 -173.77397 -0.3287124 -173.73175 -19.508114 -92.629982
26470000000 -17.599638 -80.432014 -0.33473361 -173.98282 -0.32953671 -173.93613 -19.352491 -92.140396
26500000000 -17.474491 -81.047043 -0.33504707 -174.15831 -0.33076707 -174.11064 -19.401585 -92.976631
26530000000 -17.577429 -82.067413 -0.33220395 -174.33685 -0.32828996 -174.31421 -19.488794 -93.365166
26560000000 -17.69733 -81.711746 -0.32873055 -174.53214 -0.32546413 -174.51787 -19.366959 -92.831596
26590000000 -17.549185 -81.050392 -0.33044329 -174.77141 -0.32803509 -174.72079 -19.388733 -92.986855
26620000000 -17.424267 -81.866562 -0.33352953 -174.92465 -0.32699558 -174.9122 -19.422964 -93.773262
26650000000 -17.49662 -82.576889 -0.32785699 -175.10838 -0.32455859 -175.11133 -19.426067 -94.402641
26680000000 -17.585709 -82.240387 -0.32658923 -175.35727 -0.32084239 -175.33244 -19.461027 -93.575783
26710000000 -17.478806 -81.795258 -0.32767802 -175.57387 -0.32646644 -175.54604 -19.478361 -93.625305
26740000000 -17.332102 -82.732986 -0.32831788 -175.74878 -0.3234753 -175.70198 -19.431211 -94.215302
26770000000 -17.470985 -83.331581 -0.32368919 -175.98276 -0.32019609 -175.90289 -19.551437 -94.519035
26800000000 -17.584045 -82.458633 -0.33203742 -176.15056 -0.31871802 -176.13763 -19.521696 -94.226379
26830000000 -17.435631 -82.296745 -0.33369642 -176.3642 -0.32359186 -176.33189 -19.391792 -93.665924
26860000000 -17.284182 -83.202766 -0.33018327 -176.54825 -0.32469806 -176.50267 -19.478615 -94.31076
26890000000 -17.46673 -83.66877 -0.33127773 -176.77409 -0.32541084 -176.73264 -19.569641 -94.753517
26920000000 -17.505903 -83.37368 -0.33210951 -176.95387 -0.3254407 -176.91153 -19.551088 -93.616638
26950000000 -17.375805 -82.706543 -0.33231771 -177.13667 -0.3221865 -177.07327 -19.515999 -94.162209
26980000000 -17.285265 -83.343559 -0.33336407 -177.3418 -0.32508582 -177.30014 -19.505632 -95.260063
27010000000 -17.400461 -84.398521 -0.32723674 -177.54091 -0.32063195 -177.4971 -19.519058 -95.234856
27040000000 -17.445179 -83.795761 -0.32022536 -177.76045 -0.32009301 -177.7095 -19.620321 -94.22036
27070000000 -17.435255 -83.256332 -0.32963333 -177.93341 -0.32267135 -177.90578 -19.364355 -94.43306
27100000000 -17.301298 -84.313667 -0.32467854 -178.14163 -0.31836817 -178.08182 -19.409054 -95.714554
27130000000 -17.371029 -84.639435 -0.32466877 -178.31746 -0.32431394 -178.33615 -19.589928 -95.252495
27160000000 -17.515469 -84.600502 -0.33302587 -178.56857 -0.32021004 -178.54568 -19.611671 -94.368683
27190000000 -17.339605 -83.875793 -0.32704833 -178.76534 -0.32304054 -178.69513 -19.463715 -94.988831
27220000000 -17.249222 -84.581429 -0.32196236 -178.92609 -0.31750363 -178.93008 -19.52807 -95.758537
27250000000 -17.37431 -85.145508 -0.32265937 -179.20062 -0.32546219 -179.14673 -19.59581 -95.549179
27280000000 -17.428724 -84.996353 -0.33039248 -179.36078 -0.32276505 -179.31596 -19.605019 -94.382027
27310000000 -17.314793 -84.133423 -0.32592118 -179.53592 -0.32369503 -179.48982 -19.497002 -94.528351
27340000000 -17.298229 -84.727341 -0.32948226 -179.75276 -0.32861859 -179.74664 -19.539398 -96.021454
27370000000 -17.396673 -86.211601 -0.33233923 -179.95999 -0.32617566 -179.90184 -19.535173 -94.882767
27400000000 -17.426928 -84.876335 -0.32880285 179.84126 -0.33048856 179.87698 -19.620243 -94.485275
27430000000 -17.309856 -84.058846 -0.33500817 179.68082 -0.32816154 179.73363 -19.486181 -95.186539
27460000000 -17.191746 -85.436363 -0.32706451 179.47316 -0.32530147 179.50981 -19.506308 -96.026634
27490000000 -17.302965 -85.476257 -0.32826123 179.28769 -0.32898074 179.29698 -19.592524 -95.931747
27520000000 -17.433077 -85.051506 -0.33277938 179.03752 -0.32992882 179.1356 -19.538582 -95.102036
27550000000 -17.283854 -85.241776 -0.3337976 178.92769 -0.32670784 178.90538 -19.435528 -95.167023
27580000000 -17.238632 -86.039551 -0.33373556 178.70103 -0.32426375 178.69629 -19.509579 -95.892349
27610000000 -17.356619 -86.817703 -0.33114585 178.45715 -0.32070526 178.48936 -19.633974 -95.737839
27640000000 -17.402729 -86.316841 -0.32575041 178.25723 -0.32000551 178.3037 -19.471243 -95.183311
27670000000 -17.271814 -85.294708 -0.33011401 178.03964 -0.31369886 178.12053 -19.412355 -95.712593
27700000000 -17.225163 -86.854103 -0.32622001 177.85551 -0.3178097 177.90335 -19.573658 -95.901619
27730000000 -17.355412 -87.750511 -0.32869342 177.65298 -0.32365656 177.69072 -19.620735 -95.515701
27760000000 -17.468033 -86.348801 -0.32791057 177.42151 -0.32177642 177.49467 -19.557993 -94.972748
27790000000 -17.372856 -86.64267 -0.32693976 177.24548 -0.32833269 177.3047 -19.502296 -95.320953
27820000000 -17.267616 -87.095207 -0.33169177 177.019 -0.32136667 177.05795 -19.463301 -96.652588
27850000000 -17.33136 -87.437798 -0.33283582 176.82933 -0.32526687 176.8833 -19.663401 -95.32457
27880000000 -17.432159 -87.095184 -0.32731432 176.5804 -0.32909578 176.6214 -19.593046 -95.275261
27910000000 -17.330576 -87.23835 -0.3301003 176.43208 -0.32355699 176.48422 -19.460415 -95.238365
27940000000 -17.393505 -87.460968 -0.33429241 176.21242 -0.32947835 176.29977 -19.469696 -95.236061
27970000000 -17.513241 -87.664139 -0.33960167 176.03934 -0.33261642 176.09222 -19.600075 -95.341339
28000000000 -17.495853 -87.331894 -0.33680847 175.85072 -0.33576715 175.89584 -19.427952 -95.507988
28030000000 -17.401316 -86.622841 -0.33154258 175.67908 -0.33714023 175.67949 -19.38072 -95.101677
28060000000 -17.341141 -88.167465 -0.3349506 175.46791 -0.33796504 175.45361 -19.501633 -95.631653
28090000000 -17.316509 -88.899773 -0.3403827 175.29106 -0.32982129 175.32964 -19.48406 -95.4384
28120000000 -17.438225 -87.637924 -0.33300352 175.07343 -0.33513263 175.16774 -19.391497 -94.580879
28150000000 -17.430811 -88.112991 -0.33819225 174.84937 -0.32849184 174.94655 -19.419762 -95.420341
28180000000 -17.259159 -88.874382 -0.34549168 174.70496 -0.32840499 174.71378 -19.430832 -95.994492
28210000000 -17.363865 -88.728737 -0.34310648 174.46701 -0.33599731 174.56007 -19.372334 -95.721069
28240000000 -17.394722 -88.755203 -0.33249319 174.3183 -0.32734808 174.35541 -19.405697 -95.010956
28270000000 -17.362951 -88.756371 -0.33819309 174.14351 -0.33393207 174.17673 -19.267855 -96.572868
28300000000 -17.411106 -88.683128 -0.33766228 173.91661 -0.32795078 173.94225 -19.280678 -96.192406
28330000000 -17.446241 -90.301353 -0.33292636 173.72032 -0.33321172 173.77594 -19.368162 -95.538437
28360000000 -17.321774 -89.350609 -0.33647448 173.46849 -0.32693779 173.59137 -19.341251 -96.417427
28390000000 -17.42902 -89.779999 -0.33410177 173.3858 -0.32904914 173.35736 -19.400347 -95.880188
28420000000 -17.467606 -90.638298 -0.33670637 173.10605 -0.33157137 173.16734 -19.338444 -95.96447
28450000000 -17.33036 -91.025124 -0.34062207 172.96014 -0.33202484 172.97247 -19.406666 -96.49868
28480000000 -17.427343 -90.683327 -0.3291505 172.72545 -0.32985228 172.79907 -19.304403 -96.290848
28510000000 -17.481308 -91.09536 -0.33824682 172.54515 -0.32731879 172.60046 -19.344023 -95.902405
28540000000 -17.361458 -90.92804 -0.33558062 172.32086 -0.32912928 172.36453 -19.329109 -95.883835
28570000000 -17.39444 -91.250832 -0.34172952 172.11034 -0.32828718 172.19324 -19.349628 -95.987267
28600000000 -17.461006 -92.353378 -0.34048125 171.96556 -0.3308489 171.96793 -19.263765 -95.873566
28630000000 -17.380095 -91.605484 -0.33966577 171.70091 -0.32300484 171.81244 -19.319941 -96.592476
28660000000 -17.45319 -91.892006 -0.33504707 171.59747 -0.32840556 171.56496 -19.25108 -95.831757
28690000000 -17.447275 -92.498627 -0.33688232 171.35091 -0.32834524 171.42044 -19.273363 -96.244186
28720000000 -17.357721 -92.955109 -0.34043926 171.12199 -0.32527524 171.20241 -19.192766 -96.946808
28750000000 -17.48472 -92.755859 -0.33730811 170.95755 -0.32857922 171.02444 -19.189564 -96.160103
28780000000 -17.381807 -93.02137 -0.33493632 170.77966 -0.33023801 170.83078 -19.19273 -96.832878
28810000000 -17.352634 -92.535515 -0.3340193 170.57372 -0.33145848 170.55653 -19.136772 -97.584412
28840000000 -17.409643 -93.735382 -0.33443305 170.39555 -0.32881209 170.39926 -19.203066 -97.348129
28870000000 -17.436762 -94.413429 -0.3383621 170.16656 -0.33276734 170.25157 -19.283455 -96.979927
28900000000 -17.372837 -93.177475 -0.33935422 169.94826 -0.33173901 170.01768 -19.133013 -97.752693
28930000000 -17.373724 -94.497017 -0.33554649 169.74294 -0.32793012 169.84119 -19.120321 -97.087303
28960000000 -17.262943 -95.547516 -0.33627924 169.59642 -0.33239257 169.61993 -19.223015 -97.26786
28990000000 -17.397142 -94.258095 -0.33031678 169.41022 -0.33285287 169.44456 -19.233395 -97.843781
29020000000 -17.417902 -94.459267 -0.33391643 169.16237 -0.32934096 169.24487 -19.05311 -97.15683
29050000000 -17.303913 -95.019989 -0.3414408 169.0119 -0.32724258 169.03671 -19.160639 -98.074875
29080000000 -17.304737 -95.744141 -0.3314473 168.8165 -0.330488 168.82298 -19.132326 -98.31205
29110000000 -17.555214 -96.543182 -0.32674131 168.62164 -0.32517985 168.70229 -19.276869 -97.431358
29140000000 -17.344181 -95.951981 -0.33708486 168.42613 -0.32202509 168.47668 -19.114162 -97.462723
29170000000 -17.172825 -96.357491 -0.33386275 168.1806 -0.32704693 168.25702 -19.148239 -98.797127
29200000000 -17.333548 -96.808174 -0.33246523 167.96986 -0.32803118 168.05711 -19.158792 -99.312553
29230000000 -17.367096 -97.272591 -0.32657191 167.82803 -0.32707122 167.88379 -19.338577 -98.72628
29260000000 -17.230797 -95.853973 -0.32746032 167.56822 -0.32957581 167.64595 -19.204777 -98.722839
29290000000 -17.239277 -97.563797 -0.33875838 167.43254 -0.32806328 167.45374 -19.153605 -99.099472
29320000000 -17.24778 -98.376259 -0.32870013 167.24547 -0.33042768 167.27864 -19.404373 -98.939468
29350000000 -17.361216 -97.557663 -0.32871351 166.99808 -0.32330796 167.08421 -19.341211 -98.934402
29380000000 -17.365858 -96.768723 -0.33091009 166.80382 -0.32367024 166.83141 -19.103292 -98.925385
29410000000 -17.156275 -98.280502 -0.33531439 166.59633 -0.3272236 166.71773 -19.240709 -99.383446
29440000000 -17.286533 -98.089607 -0.330688 166.42761 -0.32178366 166.44296 -19.228762 -100.06248
29470000000 -17.474888 -99.078651 -0.3254725 166.18385 -0.32033682 166.24309 -19.276281 -98.729805
29500000000 -17.257557 -97.747726 -0.33439532 166.02007 -0.32780421 166.07098 -19.303207 -99.21756
29530000000 -17.140316 -98.593353 -0.33034778 165.79446 -0.33099586 165.8501 -19.253119 -100.74738
29560000000 -17.365908 -99.858109 -0.33158448 165.6256 -0.32116401 165.65167 -19.331255 -100.32334
29590000000 -17.220503 -99.216843 -0.33662412 165.44521 -0.32775509 165.44975 -19.449661 -99.10038
29620000000 -17.170479 -97.84388 -0.33853197 165.2162 -0.33226767 165.26868 -19.32045 -99.951561
29650000000 -17.145901 -99.745697 -0.32620662 165.04214 -0.33273718 165.09453 -19.206438 -100.52499
29680000000 -17.136578 -100.18098 -0.32689372 164.86597 -0.32504815 164.88957 -19.468472 -100.92471
29710000000 -17.209362 -98.589714 -0.33225343 164.60716 -0.32446596 164.67342 -19.450926 -100.77565
29740000000 -17.191916 -99.371422 -0.33520561 164.41711 -0.33149731 164.43445 -19.239735 -100.02749
29770000000 -16.974091 -99.828247 -0.33273157 164.25836 -0.32107064 164.33018 -19.342037 -101.38489
29800000000 -17.159666 -99.79496 -0.32878193 164.0787 -0.32587624 164.11241 -19.476536 -102.35541
29830000000 -17.311638 -100.279 -0.33155152 163.82838 -0.32384259 163.83786 -19.412876 -100.26937
29860000000 -17.074581 -99.439499 -0.33342275 163.64896 -0.32513407 163.66524 -19.375095 -100.69505
29890000000 -17.010414 -100.13155 -0.33186808 163.40547 -0.32394356 163.49841 -19.41621 -102.1118
29920000000 -17.158539 -101.59277 -0.330145 163.24008 -0.31788406 163.22253 -19.575474 -101.05614
29950000000 -17.1506 -100.5362 -0.33497155 162.99709 -0.32937306 163.0909 -19.607317 -99.929153
29980000000 -17.111179 -98.664307 -0.34392849 162.79018 -0.33237469 162.88744 -19.406506 -101.51835
30010000000 -17.038597 -101.7329 -0.33182451 162.62799 -0.32239869 162.66891 -19.384489 -101.73341
30040000000 -17.058681 -101.80434 -0.33147219 162.44279 -0.33252561 162.4787 -19.692381 -101.60489
30070000000 -17.169771 -100.56502 -0.32989585 162.20433 -0.32171759 162.24252 -19.636763 -100.63825
30100000000 -17.138712 -100.45117 -0.33386052 161.9548 -0.33164904 162.05054 -19.376057 -101.03925
30130000000 -16.903366 -101.6007 -0.32287994 161.82323 -0.32784274 161.88806 -19.495928 -102.66811
30160000000 -17.252165 -101.46751 -0.3381528 161.58705 -0.33122522 161.66508 -19.641117 -102.46566
30190000000 -17.26 -101.14414 -0.33750311 161.39648 -0.33404052 161.4408 -19.637491 -100.563
30220000000 -17.026281 -100.80584 -0.32755995 161.24619 -0.32673463 161.27299 -19.538084 -100.75483
30250000000 -16.997108 -101.18205 -0.33148196 161.0468 -0.33703646 161.04758 -19.601568 -102.58195
30280000000 -17.264105 -103.27126 -0.33287439 160.80762 -0.33037153 160.82695 -19.681105 -101.56843
30310000000 -17.168859 -100.59751 -0.33207765 160.60683 -0.32453766 160.66988 -19.628796 -100.54566
30340000000 -17.15589 -100.44413 -0.33781534 160.38684 -0.32903713 160.4991 -19.48592 -101.30784
30370000000 -17.125082 -101.92198 -0.33699226 160.22189 -0.33175075 160.24983 -19.552349 -101.60233
30400000000 -17.206541 -102.08862 -0.3389414 160.01407 -0.33891144 160.06995 -19.723503 -101.03157
30430000000 -17.399061 -101.34697 -0.34485883 159.82387 -0.33287242 159.85976 -19.671103 -100.69845
30460000000 -17.095482 -101.47828 -0.33363268 159.59799 -0.33107519 159.66016 -19.44589 -100.66854
30490000000 -17.029333 -102.07919 -0.34248769 159.34851 -0.33104417 159.47775 -19.503738 -102.11472
30520000000 -17.424486 -102.46726 -0.33946338 159.20946 -0.34029421 159.31631 -19.865911 -101.03629
30550000000 -17.417051 -101.91113 -0.3352249 159.02882 -0.33174628 159.10393 -19.570234 -99.943268
30580000000 -17.110779 -101.2144 -0.34364185 158.83101 -0.33295348 158.92651 -19.552671 -101.10224
30610000000 -17.253292 -102.26036 -0.34544349 158.62445 -0.33367294 158.69145 -19.481651 -102.11223
30640000000 -17.29727 -103.68655 -0.34718499 158.43935 -0.33491647 158.47343 -19.614649 -100.82608
30670000000 -17.22114 -101.48583 -0.33925292 158.25821 -0.33487397 158.31259 -19.714975 -100.04488
30700000000 -17.424847 -101.41038 -0.33602247 158.07098 -0.32894862 158.11765 -19.352781 -100.61958
30730000000 -17.221952 -103.61691 -0.34267482 157.86046 -0.33945444 157.87042 -19.519133 -101.52006
30760000000 -17.350498 -102.29199 -0.34010497 157.60904 -0.32390645 157.6691 -19.639162 -100.3479
30790000000 -17.526012 -102.25154 -0.34198746 157.43254 -0.33345017 157.57571 -19.543526 -100.33225
30820000000 -17.371033 -103.6293 -0.33536723 157.1962 -0.33859494 157.30057 -19.491127 -100.24744
30850000000 -17.125473 -102.80439 -0.33964896 157.00803 -0.33481133 157.08838 -19.770378 -100.70592
30880000000 -17.564348 -104.05517 -0.34807369 156.85773 -0.3372899 156.87613 -19.55027 -100.86069
30910000000 -17.531212 -103.94003 -0.3500407 156.67967 -0.34620228 156.67624 -19.489271 -99.545174
30940000000 -17.422211 -102.39269 -0.33776525 156.44128 -0.3356961 156.44344 -19.460379 -100.59601
30970000000 -17.49836 -103.27592 -0.34781763 156.23781 -0.3464748 156.28481 -19.544397 -100.69901
31000000000 -17.587015 -104.54522 -0.3514725 156.02853 -0.33354828 156.16231 -19.523096 -100.02802
31030000000 -17.627621 -102.70739 -0.34152398 155.85298 -0.33375177 155.89238 -19.509214 -98.601639
31060000000 -17.617868 -103.92148 -0.34420282 155.62228 -0.34009883 155.71553 -19.441252 -99.892403
31090000000 -17.52836 -103.84615 -0.35598397 155.43387 -0.33921427 155.47395 -19.413242 -100.17468
31120000000 -17.52743 -104.41982 -0.35346216 155.21602 -0.34729686 155.30829 -19.41983 -99.591499
31150000000 -17.89817 -104.52424 -0.34870082 155.15848 -0.34121987 155.15689 -19.43531 -98.745354
31180000000 -17.559105 -104.2714 -0.3503474 154.86977 -0.34936848 154.89291 -19.277693 -99.727493
31210000000 -17.54097 -104.78078 -0.35738373 154.6516 -0.34835556 154.67096 -19.450836 -100.17282
31240000000 -17.843254 -104.73275 -0.34958422 154.5443 -0.34283951 154.53629 -19.421989 -100.26238
31270000000 -17.67864 -106.15964 -0.35160697 154.28378 -0.35183993 154.30219 -19.272148 -99.778999
31300000000 -17.734512 -104.43571 -0.35574234 154.09792 -0.35047594 154.14568 -19.406 -100.24245
31330000000 -17.872093 -105.8376 -0.35741296 153.9101 -0.34850898 153.95668 -19.339476 -100.43135
31360000000 -17.725452 -106.62524 -0.36305308 153.69202 -0.35406116 153.79196 -19.35564 -99.693794
31390000000 -17.910812 -105.77622 -0.36405087 153.52773 -0.34578937 153.54863 -19.305817 -99.770821
31420000000 -17.896044 -106.61964 -0.35503495 153.29892 -0.35340375 153.39256 -19.306335 -99.996986
31450000000 -17.718925 -107.10686 -0.36772734 153.07327 -0.35324425 153.13226 -19.218861 -99.877419
31480000000 -17.70225 -106.51602 -0.35632509 152.93028 -0.3571603 152.94167 -19.269196 -99.842133
31510000000 -17.944859 -107.10796 -0.35804427 152.75981 -0.35340205 152.83481 -19.338898 -99.996841
31540000000 -17.734982 -107.8477 -0.36250293 152.55995 -0.3583923 152.59891 -19.20167 -99.484985
31570000000 -17.849127 -107.50353 -0.35852695 152.44855 -0.371185 152.43022 -19.259523 -99.862885
31600000000 -17.834162 -108.8326 -0.36701262 152.18382 -0.35984316 152.22777 -19.259283 -100.71463
31630000000 -17.805687 -108.57115 -0.36209351 151.98801 -0.36768562 152.02094 -19.154955 -100.5453
31660000000 -17.88538 -107.57882 -0.35798299 151.8344 -0.36517221 151.83043 -19.174419 -100.94598
31690000000 -17.854387 -109.6266 -0.36533663 151.63762 -0.3577466 151.75729 -19.324003 -100.54471
31720000000 -17.75716 -110.07426 -0.35971716 151.39502 -0.35351297 151.53275 -19.146555 -100.32258
31750000000 -17.902939 -109.91557 -0.35309824 151.22537 -0.3592501 151.34476 -19.317764 -100.76998
31780000000 -17.902332 -109.75354 -0.35576877 151.0182 -0.35093924 151.12025 -19.21303 -101.25442
31810000000 -17.709072 -110.86301 -0.36066243 150.77223 -0.35941038 150.90941 -19.197519 -101.34316
31840000000 -17.932543 -111.12227 -0.36278546 150.64641 -0.35438696 150.69423 -19.196663 -101.42616
31870000000 -18.069674 -111.47605 -0.35247719 150.53006 -0.35476473 150.53123 -19.323277 -102.22987
31900000000 -17.917688 -110.57008 -0.36041462 150.30937 -0.35062128 150.34534 -19.281569 -101.71126
31930000000 -17.951916 -110.82267 -0.3553243 150.04573 -0.35011396 150.10789 -19.249134 -101.89725
31960000000 -17.901552 -112.38221 -0.36010104 149.92273 -0.34789419 149.92764 -19.284554 -102.05243
31990000000 -17.979607 -112.45693 -0.35924336 149.65445 -0.35415918 149.74599 -19.240379 -102.8331
32020000000 -18.093292 -111.08809 -0.36222097 149.46313 -0.35192919 149.513 -19.340435 -102.15167
32050000000 -17.91783 -112.96316 -0.35810274 149.26196 -0.35272846 149.36891 -19.327398 -102.92242
32080000000 -17.821095 -112.96638 -0.35856265 149.10982 -0.35813957 149.16824 -19.287748 -102.60109
32110000000 -17.99608 -113.17107 -0.36251503 148.92616 -0.35174367 148.92467 -19.346964 -103.34416
32140000000 -17.987429 -112.81461 -0.3525058 148.68857 -0.34426138 148.81667 -19.459352 -103.48691
32170000000 -17.772943 -113.26228 -0.36330497 148.54654 -0.35182253 148.55554 -19.323709 -103.34491
32200000000 -17.827129 -113.86823 -0.35564908 148.32394 -0.35098442 148.4091 -19.516665 -103.53193
32230000000 -17.898659 -115.16407 -0.34531063 148.14929 -0.34233141 148.20061 -19.392162 -104.20938
32260000000 -17.942669 -114.07542 -0.34885877 147.95798 -0.34864053 148.02715 -19.388351 -104.01984
32290000000 -17.816189 -112.9744 -0.34981036 147.68257 -0.3411493 147.83232 -19.515909 -104.0536
32320000000 -17.725567 -116.15965 -0.34970319 147.57207 -0.3408497 147.61858 -19.406504 -103.70377
32350000000 -17.846037 -115.32283 -0.34168977 147.37952 -0.33412665 147.40491 -19.574226 -104.8941
32380000000 -18.069042 -114.9827 -0.34176791 147.12282 -0.34407616 147.16136 -19.574921 -103.31798
32410000000 -17.861406 -115.08447 -0.34742671 146.95457 -0.34076235 147.02911 -19.657953 -103.99249
32440000000 -17.691252 -115.71687 -0.3411983 146.79263 -0.34302133 146.81734 -19.650694 -105.4771
32470000000 -18.015579 -116.44406 -0.3367402 146.51608 -0.33057877 146.54547 -19.79652 -105.40032
32500000000 -17.979813 -116.49699 -0.34659928 146.33955 -0.33190805 146.33633 -19.85276 -105.73271
32530000000 -17.791996 -114.67053 -0.34791017 146.09325 -0.33452699 146.15337 -19.530811 -105.53645
32560000000 -17.887396 -116.5305 -0.33446324 145.92212 -0.33898029 145.96086 -19.799248 -105.89112
32590000000 -18.012312 -117.20233 -0.33974105 145.6815 -0.33180076 145.75041 -19.914055 -105.90951
32620000000 -17.99769 -116.17609 -0.34942093 145.39169 -0.33609968 145.52373 -19.821987 -104.39542
32650000000 -17.907394 -114.74199 -0.34580898 145.31226 -0.34380352 145.39337 -19.8078 -105.62508
32680000000 -17.724045 -117.32037 -0.34614369 145.11977 -0.33251667 145.17473 -19.961721 -107.1019
32710000000 -18.023865 -116.47783 -0.34743455 144.86772 -0.33314604 144.88943 -19.897303 -106.23899
32740000000 -18.004541 -116.1511 -0.3458387 144.67183 -0.34054282 144.71382 -19.974363 -104.65225
32770000000 -17.837219 -115.25214 -0.3460854 144.47957 -0.34939316 144.53503 -19.949884 -105.50243
32800000000 -17.898525 -117.10175 -0.34097347 144.2386 -0.33772722 144.33958 -19.863094 -106.48911
32830000000 -18.110401 -116.86221 -0.35152388 144.02567 -0.35123196 144.08374 -20.083271 -104.92513
32860000000 -18.078449 -116.74822 -0.35353655 143.89189 -0.34660292 143.93657 -20.183655 -106.04204
32890000000 -17.946575 -114.84421 -0.34835106 143.66208 -0.34079173 143.85017 -20.020817 -104.85739
32920000000 -17.820517 -116.76639 -0.34298378 143.50002 -0.3463307 143.58629 -20.054838 -105.5651
32950000000 -18.132814 -117.22607 -0.34181187 143.28694 -0.34657937 143.28262 -20.195536 -105.15701
32980000000 -17.978638 -115.83561 -0.35143742 143.13437 -0.34910703 143.16753 -20.280355 -104.49503
33010000000 -18.048216 -114.99782 -0.35038951 142.92276 -0.35530519 143.02422 -20.092066 -104.5504
33040000000 -17.974133 -117.02809 -0.33863804 142.70602 -0.34612855 142.75444 -20.158758 -105.80029
33070000000 -18.094151 -116.51647 -0.33801037 142.49196 -0.34094098 142.52107 -20.186083 -104.91167
33100000000 -18.196108 -115.68629 -0.35396904 142.29645 -0.35117361 142.40038 -20.367348 -104.36333
33130000000 -18.063868 -116.48544 -0.35417098 142.10072 -0.3555176 142.18233 -20.10729 -105.57311
33160000000 -17.908321 -116.63227 -0.34255239 141.85275 -0.34311041 141.91753 -19.988609 -105.38746
33190000000 -18.29211 -116.10206 -0.35307914 141.68605 -0.35168555 141.68947 -20.202583 -104.63329
33220000000 -18.278023 -116.4398 -0.35870069 141.50137 -0.34880239 141.53525 -20.163265 -104.21786
33250000000 -18.02869 -115.22791 -0.34974471 141.26993 -0.35068557 141.34444 -19.836395 -104.77742
33280000000 -18.126373 -116.80962 -0.35993794 141.06482 -0.34372789 141.16325 -20.118956 -103.6258
33310000000 -18.268757 -116.87916 -0.3523733 140.84566 -0.35021329 140.89165 -20.2075 -105.73166
33340000000 -18.276348 -115.58019 -0.35577971 140.70314 -0.35449284 140.77257 -20.12686 -104.05804
33370000000 -18.306925 -114.81215 -0.35305864 140.56509 -0.34685972 140.54594 -20.090319 -102.68186
33400000000 -18.215975 -116.87362 -0.34754786 140.23015 -0.34863716 140.31668 -20.116253 -105.47615
33430000000 -18.404438 -116.1679 -0.36065203 140.00275 -0.35031036 140.14494 -20.126808 -104.32279
33460000000 -18.58577 -115.63875 -0.36224264 139.93256 -0.35569656 139.98175 -20.081642 -102.07684
33490000000 -18.467299 -114.45201 -0.35582381 139.75677 -0.36472481 139.78786 -20.204376 -104.03687
33520000000 -18.307827 -115.56167 -0.35960045 139.47897 -0.3533442 139.51656 -19.964689 -104.14715
33550000000 -18.575621 -115.73302 -0.3669225 139.2793 -0.35423726 139.42299 -20.247232 -102.39429
33580000000 -18.571524 -115.77377 -0.36373785 139.11688 -0.36173421 139.25822 -20.201275 -103.51462
33610000000 -18.520756 -115.27806 -0.35529789 138.95683 -0.3577241 139.00117 -19.916075 -103.59447
33640000000 -18.586233 -115.49804 -0.3521212 138.72736 -0.35936144 138.81862 -20.008057 -102.41087
33670000000 -18.64731 -116.84962 -0.3725324 138.47069 -0.36572269 138.552 -20.208599 -103.95757
33700000000 -18.799538 -114.86373 -0.36621273 138.36192 -0.36190471 138.4639 -19.977646 -102.62854
33730000000 -18.833952 -115.21848 -0.36011904 138.15016 -0.36168471 138.22266 -20.038309 -101.49456
33760000000 -18.664919 -115.20985 -0.37091854 137.98265 -0.3588784 137.96609 -20.216721 -104.43866
33790000000 -18.753345 -116.25598 -0.3744067 137.71846 -0.35760999 137.78339 -19.99502 -103.19288
33820000000 -19.034204 -115.16456 -0.36511728 137.65744 -0.36537832 137.6842 -20.041285 -101.43294
33850000000 -18.767405 -115.21865 -0.35992527 137.37993 -0.35843137 137.42378 -19.940035 -102.63236
33880000000 -18.874939 -115.01528 -0.35712036 137.1423 -0.35864502 137.23077 -19.703794 -102.48064
33910000000 -18.9856 -116.35262 -0.37033215 136.96709 -0.37345535 137.05487 -20.026951 -101.04785
33940000000 -19.256788 -115.54761 -0.38183939 136.84073 -0.37021828 136.91786 -20.045252 -102.93414
33970000000 -19.052063 -115.66598 -0.36942285 136.64171 -0.36171901 136.65477 -19.720737 -101.72057
34000000000 -19.002541 -115.76628 -0.37450179 136.46793 -0.36250997 136.49939 -19.930214 -101.39054
34030000000 -19.101515 -117.38245 -0.38034415 136.18803 -0.37221116 136.28198 -19.855406 -102.7248
34060000000 -19.264202 -116.31398 -0.37214601 136.077 -0.3645266 136.13629 -19.756905 -100.92694
34090000000 -19.121193 -115.16711 -0.37316337 135.88757 -0.36881128 135.91747 -19.821337 -100.90817
34120000000 -19.152855 -115.90487 -0.36972442 135.66954 -0.36735123 135.7337 -19.678093 -102.21107
34150000000 -19.219597 -117.10391 -0.37006888 135.45299 -0.37008634 135.61041 -19.603209 -100.71656
34180000000 -19.350962 -116.51917 -0.36256483 135.31233 -0.35711983 135.34995 -19.637537 -99.85466
34210000000 -19.433033 -116.75595 -0.36280346 135.05348 -0.36502185 135.13324 -19.701319 -102.35384
34240000000 -18.980881 -117.88351 -0.36254963 134.87334 -0.36517924 134.90518 -19.41124 -101.6855
34270000000 -19.40353 -118.43156 -0.36573255 134.73235 -0.36383581 134.82915 -19.810375 -100.63427
34300000000 -19.347578 -119.08753 -0.3726438 134.49825 -0.3688716 134.58836 -19.720032 -102.35944
34330000000 -19.347488 -117.74982 -0.36753914 134.3512 -0.36013281 134.44301 -19.454905 -101.60871
34360000000 -19.376734 -118.26714 -0.35950148 134.16034 -0.3583504 134.19478 -19.704805 -101.95982
34390000000 -19.543518 -120.61174 -0.37079281 134.0453 -0.3661485 134.07495 -19.865435 -101.86458
34420000000 -19.535095 -119.47782 -0.35813674 133.73776 -0.35292751 133.84573 -19.340385 -101.67143
34450000000 -19.541441 -118.97485 -0.35624558 133.61009 -0.35683933 133.64342 -19.676561 -101.16545
34480000000 -19.311022 -121.13184 -0.37532073 133.40785 -0.36729684 133.38686 -19.805319 -103.52801
34510000000 -19.342873 -123.10169 -0.37401593 133.09438 -0.37050778 133.24118 -19.630526 -103.27019
34540000000 -19.706488 -122.25224 -0.35741493 133.02641 -0.35224727 133.09161 -19.782324 -101.54039
34570000000 -19.685492 -121.75319 -0.36651915 132.78986 -0.3677569 132.85307 -19.629814 -104.30131
34600000000 -19.574253 -122.24726 -0.36075976 132.55487 -0.36350423 132.65822 -19.696533 -102.39318
34630000000 -19.602371 -123.70876 -0.36428761 132.41982 -0.3559525 132.44592 -19.907677 -102.71137
34660000000 -19.919998 -124.31196 -0.36714897 132.2112 -0.3592484 132.3201 -19.948769 -103.33031
34690000000 -19.680252 -123.17062 -0.36480364 131.965 -0.34920886 131.98286 -19.659872 -102.5507
34720000000 -19.651184 -123.18565 -0.37229747 131.81058 -0.35957825 131.78398 -19.86581 -103.32535
34750000000 -19.555714 -125.65119 -0.37403455 131.5916 -0.37382126 131.67647 -19.849098 -103.77125
34780000000 -19.780193 -125.7499 -0.36193371 131.44131 -0.35907915 131.45645 -19.778023 -101.76123
34810000000 -19.971014 -123.61765 -0.36648083 131.1601 -0.36357263 131.2216 -19.965034 -103.95461
34840000000 -19.618923 -126.23286 -0.38129392 131.03613 -0.35887361 131.09914 -19.994398 -104.54565
34870000000 -19.928852 -127.05766 -0.37658867 130.80579 -0.36642563 130.92688 -19.730551 -103.03352
34900000000 -20.045034 -126.30326 -0.36099717 130.59174 -0.35761729 130.75415 -19.940556 -103.85654
34930000000 -20.135347 -126.8622 -0.35977426 130.46019 -0.36805585 130.47473 -19.972698 -103.80569
34960000000 -19.837692 -125.32944 -0.36571735 130.17953 -0.36537239 130.32858 -19.900072 -102.50249
34990000000 -19.904955 -128.38672 -0.37559846 130.08694 -0.36186984 130.14607 -20.094671 -103.26797
35020000000 -20.223322 -129.13762 -0.36301339 129.8746 -0.35761392 129.98373 -19.997282 -105.99622
35050000000 -20.054567 -127.50059 -0.35005784 129.67964 -0.36900488 129.66293 -19.902653 -103.37226
35080000000 -20.052118 -127.46681 -0.35755488 129.39418 -0.36316791 129.53841 -20.111664 -103.83528
35110000000 -19.952406 -129.93695 -0.37337607 129.40384 -0.36023098 129.42284 -20.274378 -104.76154
35140000000 -20.33119 -128.25702 -0.36037609 129.11769 -0.35096815 129.10411 -20.113913 -104.03439
35170000000 -20.362352 -128.42531 -0.36634451 128.88565 -0.35430747 128.86554 -20.429335 -104.6086
35200000000 -19.981607 -128.37036 -0.36595869 128.7123 -0.35877773 128.76202 -20.243116 -105.17526
35230000000 -19.942894 -129.04561 -0.36338967 128.47763 -0.37275296 128.56238 -20.172527 -104.38619
35260000000 -20.419226 -129.61801 -0.36004958 128.31911 -0.34981203 128.31906 -20.395334 -104.44417
35290000000 -20.261196 -128.15182 -0.36614174 128.11597 -0.3527613 128.14333 -20.560648 -105.61776
35320000000 -19.992315 -127.22432 -0.36616457 127.84818 -0.37030002 127.90868 -20.398581 -102.96939
35350000000 -19.978542 -129.64017 -0.3623684 127.73865 -0.3644976 127.75932 -20.685688 -104.56683
35380000000 -20.24081 -131.82004 -0.36014885 127.58244 -0.3633787 127.50794 -20.56134 -106.08466
35410000000 -20.204847 -128.06818 -0.37046072 127.33821 -0.36189571 127.27785 -20.460123 -102.65787
35440000000 -20.051704 -128.08739 -0.36929095 127.0825 -0.36277279 127.14778 -20.57626 -103.12549
35470000000 -19.826538 -132.51794 -0.36728024 126.95582 -0.3653037 127.01378 -20.473536 -105.06394
35500000000 -20.280113 -130.36647 -0.37053907 126.67574 -0.36728191 126.75266 -20.7729 -103.8323
35530000000 -20.401539 -128.84494 -0.37598065 126.51711 -0.37136716 126.53915 -20.815311 -105.24295
35560000000 -19.809732 -128.8869 -0.38067928 126.33487 -0.37406108 126.35962 -20.430832 -105.05048
35590000000 -19.990711 -130.25607 -0.37731087 126.19051 -0.36780819 126.22751 -20.625526 -103.89473
35620000000 -20.414257 -130.99744 -0.37233722 125.91093 -0.35562378 125.96252 -20.912539 -105.94663
35650000000 -20.39159 -130.12614 -0.38107008 125.77598 -0.37855512 125.83568 -20.671564 -104.38542
35680000000 -20.037027 -129.16446 -0.36095667 125.64268 -0.38999358 125.62871 -20.585117 -104.51108
35710000000 -20.042839 -133.00497 -0.36548221 125.44553 -0.36200824 125.51826 -21.035162 -105.49134
35740000000 -20.272882 -133.17917 -0.37890619 125.19801 -0.35515013 125.24257 -20.859669 -105.5032
35770000000 -20.213972 -128.34518 -0.37282544 125.05205 -0.36211967 125.06008 -21.024197 -104.42168
35800000000 -20.244812 -128.33611 -0.37018558 124.87592 -0.35590333 124.94415 -20.831291 -105.11755
35830000000 -19.822729 -131.93648 -0.36461219 124.70518 -0.34952474 124.72495 -21.029573 -105.4886
35860000000 -20.480694 -131.27916 -0.37646589 124.46501 -0.34866354 124.48814 -21.098606 -103.63703
35890000000 -20.550888 -128.089 -0.36185014 124.20395 -0.37080297 124.36028 -21.240593 -104.55738
35920000000 -19.960482 -128.21295 -0.35779971 124.09593 -0.34213814 124.31367 -21.227222 -104.59402
35950000000 -20.057119 -130.66443 -0.35706306 123.95573 -0.3506732 123.95957 -21.104786 -104.5209
35980000000 -20.514284 -131.89606 -0.35592583 123.54665 -0.35112533 123.62335 -21.024448 -106.04808
36010000000 -20.531122 -129.31348 -0.36697713 123.52492 -0.35484001 123.47418 -21.115721 -103.52591
36040000000 -19.956049 -128.15218 -0.3623926 123.32639 -0.35272312 123.43214 -21.043802 -101.86099
36070000000 -20.274971 -130.52438 -0.35306847 123.09419 -0.34635285 123.10068 -21.039825 -102.95763
36100000000 -20.819952 -131.3582 -0.3489275 122.88973 -0.34643695 122.93156 -21.314699 -103.94974
36130000000 -20.670349 -127.84616 -0.35914099 122.76168 -0.35918936 122.7792 -21.248764 -101.51913
36160000000 -20.243704 -127.29814 -0.35426477 122.569 -0.35370308 122.68929 -21.004684 -101.89577
36190000000 -20.178307 -130.7876 -0.33589998 122.24493 -0.33668315 122.31094 -21.040216 -101.48955
36220000000 -20.608889 -129.8165 -0.34502754 122.07058 -0.34955168 122.13862 -21.25942 -101.59728
36250000000 -20.969585 -126.74529 -0.35523131 121.93223 -0.35364917 121.91209 -21.201004 -100.63602
36280000000 -20.328474 -126.91318 -0.33800364 121.80315 -0.33334449 121.76563 -20.932238 -100.53212
36310000000 -20.482273 -129.76634 -0.33531326 121.54089 -0.33256751 121.54374 -21.103853 -100.77628
36340000000 -20.752235 -130.96762 -0.35850108 121.16406 -0.33171692 121.27126 -21.066456 -103.33066
36370000000 -20.674641 -126.2616 -0.34162563 121.10315 -0.34332219 121.17874 -20.994318 -101.5415
36400000000 -20.435207 -126.36719 -0.33059245 120.92988 -0.3315275 121.11746 -20.992546 -100.02553
36430000000 -20.723906 -132.43132 -0.3430258 120.63275 -0.33333024 120.64072 -20.98522 -102.89658
36460000000 -21.204584 -127.67503 -0.336649 120.47659 -0.33019611 120.55232 -20.983479 -101.77928
36490000000 -21.133429 -125.67413 -0.33130175 120.29052 -0.33174488 120.45469 -21.015884 -99.256592
36520000000 -20.771021 -126.71545 -0.33047041 120.21338 -0.32890368 120.19334 -21.026134 -101.28374
36550000000 -20.659555 -129.76999 -0.32729954 119.90673 -0.33210197 119.89823 -20.694607 -100.84902
36580000000 -21.794813 -126.1912 -0.32603166 119.8004 -0.33166665 119.88226 -21.113817 -98.321518
36610000000 -21.622711 -124.76242 -0.33291519 119.57961 -0.32029307 119.58335 -20.939699 -100.70221
36640000000 -20.689396 -125.67352 -0.29997891 119.21378 -0.3023583 119.32379 -20.644697 -99.995689
36670000000 -21.384602 -128.82529 -0.30860403 119.08024 -0.31854895 119.06859 -20.949438 -100.98983
36700000000 -21.882093 -126.94453 -0.3296825 118.93291 -0.33014807 118.87439 -20.842636 -98.635834
36730000000 -21.565132 -126.0268 -0.32054779 118.74083 -0.32257739 118.67894 -20.881292 -99.637848
36760000000 -21.31658 -123.30167 -0.3265613 118.4986 -0.29895636 118.60154 -20.616215 -98.279556
36790000000 -21.896938 -130.52785 -0.32826066 118.24767 -0.33761221 118.3012 -20.716822 -101.09146
36820000000 -22.041851 -127.74406 -0.32836729 118.13297 -0.31923452 118.10815 -20.759369 -99.920372
36850000000 -22.066835 -122.16187 -0.30381721 117.94189 -0.30498865 118.00499 -20.807814 -97.710007
36880000000 -21.854227 -125.5521 -0.30648121 117.61465 -0.30824718 117.68298 -20.639324 -98.622238
36910000000 -21.631664 -128.8909 -0.32250908 117.41428 -0.31048709 117.31511 -20.38158 -101.54632
36940000000 -22.633049 -125.49731 -0.32118714 117.16977 -0.31934652 117.4461 -20.944139 -101.08997
36970000000 -22.440596 -123.31667 -0.29885876 116.99686 -0.29812008 117.13362 -20.567631 -98.977715
37000000000 -21.88353 -126.1569 -0.30923024 116.70533 -0.29990155 116.87907 -20.248573 -99.889954
37030000000 -22.618221 -126.01687 -0.310139 116.60925 -0.31572887 116.67362 -20.585203 -100.16783
37060000000 -23.192949 -127.59273 -0.33956808 116.40556 -0.314726 116.53522 -20.768072 -101.38716
37090000000 -22.745859 -124.06545 -0.2987273 116.20443 -0.31054187 116.25874 -20.450024 -98.711952
37120000000 -22.786772 -123.32073 -0.31353357 115.90216 -0.31078461 116.17041 -20.538952 -100.77229
37150000000 -22.952431 -127.04044 -0.33787605 115.73991 -0.32418564 115.74722 -20.691151 -101.72781
37180000000 -23.415436 -125.51351 -0.31819853 115.68578 -0.29150653 115.72712 -20.54567 -99.449135
37210000000 -23.376804 -122.03134 -0.31833556 115.46309 -0.2916851 115.48244 -20.588942 -97.756912
37240000000 -23.449301 -125.89046 -0.31804672 115.18704 -0.31349128 115.25362 -20.391548 -100.25918
37270000000 -23.044416 -125.6767 -0.33179909 114.91136 -0.30647734 114.97241 -20.384291 -101.38464
37300000000 -23.82103 -125.44276 -0.33629182 114.85493 -0.32097003 114.83481 -20.677271 -100.23974
37330000000 -23.454145 -123.50041 -0.31548363 114.53407 -0.31198156 114.58881 -20.453278 -99.139931
37360000000 -23.881912 -126.15701 -0.32698914 114.37561 -0.32816434 114.38831 -20.137722 -100.45706
37390000000 -23.964584 -124.97125 -0.32710919 114.184 -0.32708043 114.28818 -20.36405 -101.04875
37420000000 -24.247841 -129.02621 -0.34204209 114.07864 -0.31843695 114.0082 -20.737305 -101.71123
37450000000 -23.882223 -122.84135 -0.3292312 113.89346 -0.30652067 113.85194 -20.214508 -99.472687
37480000000 -24.299269 -124.26212 -0.32572305 113.64726 -0.31409371 113.73711 -20.137688 -99.95903
37510000000 -23.968884 -126.28111 -0.34147415 113.33684 -0.33455271 113.45673 -20.492599 -100.77704
37540000000 -24.230724 -127.37827 -0.33033633 113.19963 -0.31965274 113.26324 -20.372108 -102.54803
37570000000 -24.685301 -125.29858 -0.32387912 113.01357 -0.30541131 113.11327 -20.223856 -100.71799
37600000000 -24.889458 -127.14147 -0.32436082 112.86594 -0.33064583 112.96365 -20.183903 -101.14928
37630000000 -24.524704 -123.47488 -0.33101541 112.62157 -0.32672402 112.66367 -20.55702 -101.6445
37660000000 -24.81781 -128.04408 -0.31613949 112.45196 -0.31532273 112.63087 -20.031876 -100.12701
37690000000 -25.138889 -130.52411 -0.33812034 112.31502 -0.34220397 112.29413 -20.3398 -102.80116
37720000000 -24.899637 -126.82727 -0.33125985 112.10593 -0.31301859 112.08676 -20.178276 -102.56345
37750000000 -25.08744 -127.1249 -0.32310271 111.89658 -0.32882938 111.93228 -20.599617 -100.65045
37780000000 -25.02367 -133.41728 -0.3270542 111.71198 -0.32322234 111.87768 -20.157438 -102.25957
37810000000 -25.915861 -128.55099 -0.31391644 111.54027 -0.31900859 111.63779 -20.522268 -100.80489
37840000000 -25.882828 -128.88974 -0.33162919 111.293 -0.31493667 111.38425 -20.426954 -102.58757
37870000000 -25.344704 -129.89221 -0.32689595 111.16077 -0.32934934 111.17238 -20.680502 -102.53674
37900000000 -25.427984 -131.18158 -0.3384178 111.03418 -0.32678598 110.98977 -20.777065 -102.08212
37930000000 -26.779181 -129.56865 -0.3168506 110.84654 -0.30694681 110.83588 -20.553083 -101.09238
37960000000 -26.068607 -129.22742 -0.32542536 110.5012 -0.32295549 110.65499 -20.837101 -101.50797
37990000000 -25.7836 -132.38538 -0.33547071 110.37403 -0.33801904 110.44553 -20.74423 -102.89276
38020000000 -25.684528 -136.43005 -0.30366787 110.25938 -0.31896207 110.19851 -20.586151 -101.66971
38050000000 -26.50964 -137.24506 -0.32099649 110.00772 -0.30246794 110.04971 -20.811026 -101.99866
38080000000 -26.208809 -131.80133 -0.32729954 109.61228 -0.3164427 109.91938 -20.821041 -103.68738
38110000000 -26.72467 -134.57152 -0.32595158 109.53632 -0.33101904 109.6898 -21.208044 -101.25904
38140000000 -26.010248 -138.5488 -0.32030255 109.44381 -0.31269225 109.53874 -21.20331 -102.10477
38170000000 -27.081993 -134.88431 -0.30639428 109.19872 -0.30131355 109.31543 -20.942516 -101.27132
38200000000 -27.228201 -130.73599 -0.3083742 108.90469 -0.31744793 109.05775 -21.099226 -102.28958
38230000000 -26.357635 -131.47594 -0.31568435 108.87069 -0.30587873 108.75951 -21.285614 -99.507927
38260000000 -26.069695 -138.45189 -0.30847925 108.73241 -0.31404027 108.59305 -20.930733 -101.82207
38290000000 -27.636049 -142.2943 -0.29260239 108.41995 -0.28164014 108.44523 -20.974762 -99.976173
38320000000 -26.410389 -129.83134 -0.3152473 107.96344 -0.3036437 108.18082 -21.2805 -102.3506
38350000000 -25.977198 -136.07013 -0.33026791 108.04346 -0.3138018 108.07515 -21.222155 -101.96806
38380000000 -26.570023 -141.96967 -0.30289036 107.85309 -0.29734358 107.89077 -21.235306 -99.091042
38410000000 -27.320026 -146.91971 -0.29233101 107.56837 -0.28160727 107.65649 -21.704857 -100.90781
38440000000 -27.354204 -131.06561 -0.30824137 107.35714 -0.30646262 107.30443 -21.573677 -100.20324
38470000000 -26.535816 -134.2592 -0.32893047 107.25868 -0.30775645 107.31207 -21.513288 -97.229553
38500000000 -26.276917 -145.57133 -0.29721773 107.12952 -0.29187503 107.16087 -21.380989 -98.352501
38530000000 -27.628859 -144.64813 -0.28373069 106.82982 -0.26578304 106.83041 -21.591093 -101.37361
38560000000 -27.541403 -134.10014 -0.32361695 106.44388 -0.32905668 106.44845 -21.824404 -98.23748
38590000000 -25.796505 -141.32826 -0.29571754 106.45065 -0.29680833 106.50117 -21.979977 -95.701546
38620000000 -25.917095 -143.88365 -0.30015174 106.22144 -0.26618758 106.24396 -21.706703 -96.284996
38650000000 -28.389748 -144.48082 -0.27847877 105.85051 -0.28421953 105.84066 -21.958473 -96.73568
38680000000 -27.379448 -133.27835 -0.30775478 105.7504 -0.3115235 105.86079 -22.279867 -95.395821
38710000000 -25.817463 -137.50258 -0.31479362 105.58562 -0.29910085 105.76192 -22.051176 -96.508591
38740000000 -26.351471 -150.06354 -0.27942085 105.2197 -0.26541072 105.40759 -21.762075 -95.233322
38770000000 -27.614029 -150.14107 -0.28448623 105.02914 -0.28207657 105.03316 -22.148176 -95.192566
38800000000 -27.633261 -130.47946 -0.32396558 104.99302 -0.3148348 104.97141 -22.393597 -93.304398
38830000000 -25.832075 -134.06358 -0.31155685 104.91267 -0.29374835 104.87385 -22.092432 -91.341187
38860000000 -26.766563 -147.96738 -0.28380364 104.45677 -0.24881542 104.72189 -22.001831 -88.91803
38890000000 -27.61948 -141.16339 -0.28140593 104.1105 -0.28141505 104.23518 -21.846729 -93.810387
38920000000 -26.843775 -126.02114 -0.30946428 104.10861 -0.28626347 104.17648 -21.7621 -89.697632
38950000000 -25.401283 -133.47798 -0.29112646 104.03298 -0.28667521 104.08557 -21.785934 -86.977859
38980000000 -25.582861 -144.09399 -0.25346428 103.7496 -0.24951695 103.89686 -21.958534 -90.769676
39010000000 -28.502048 -146.54114 -0.31693861 103.15752 -0.2916829 103.30917 -21.627394 -90.370918
39040000000 -26.505463 -128.6122 -0.28219783 103.35507 -0.26487553 103.46349 -22.41165 -86.938316
39070000000 -25.60964 -135.62906 -0.28363368 103.14303 -0.26994985 103.31133 -22.102591 -86.987495
39100000000 -25.806337 -144.80798 -0.26080319 102.70613 -0.25270313 102.88552 -21.368286 -88.026527
39130000000 -27.155148 -138.81642 -0.28298602 102.41904 -0.27385956 102.65932 -21.610275 -91.09761
39160000000 -25.564329 -124.07716 -0.2974675 102.43499 -0.29919845 102.58349 -21.518982 -88.938217
39190000000 -25.089621 -132.8127 -0.27030107 102.25546 -0.23808907 102.40405 -21.542645 -83.960442
39220000000 -25.526051 -144.23306 -0.26277563 101.81136 -0.25928336 101.94266 -21.113718 -87.871399
39250000000 -27.746614 -129.54938 -0.29307535 101.86219 -0.27002147 101.80929 -21.382044 -89.943695
39280000000 -25.829851 -122.37561 -0.29597607 101.64822 -0.26433849 101.61662 -21.629917 -86.85054
39310000000 -24.611376 -125.63286 -0.2537497 101.4159 -0.24248204 101.52978 -21.07654 -82.0895
39340000000 -26.355541 -138.14903 -0.2689597 101.01307 -0.24226497 101.08743 -21.069304 -87.760124
39370000000 -27.446093 -128.36284 -0.27600014 100.88015 -0.28654912 100.96835 -21.408926 -87.932999
39400000000 -25.359777 -120.93179 -0.27205598 100.76395 -0.25961998 100.84403 -21.309967 -86.227036
39430000000 -24.424145 -127.76775 -0.26917452 100.59396 -0.2492502 100.56497 -21.046331 -84.782944
39460000000 -25.602283 -136.92345 -0.26630402 99.949318 -0.25171223 100.17269 -20.657661 -87.742165
39490000000 -26.798536 -121.22627 -0.26926705 100.04205 -0.26226801 100.16247 -21.278147 -89.04612
39520000000 -25.063446 -117.52427 -0.25792092 99.983391 -0.26102638 100.00599 -20.929216 -87.297119
39550000000 -24.214846 -125.73515 -0.23710451 99.559021 -0.23603679 99.572197 -20.436852 -86.03183
39580000000 -25.748373 -131.95444 -0.25094807 99.268791 -0.26563552 99.276993 -20.582592 -89.118782
39610000000 -26.495823 -115.60636 -0.27822486 99.326462 -0.25549847 99.228645 -21.150652 -91.318138
39640000000 -25.676172 -111.41917 -0.26902935 99.007607 -0.26171532 99.116104 -21.066771 -86.588699
39670000000 -24.00453 -119.90208 -0.23724037 98.67527 -0.23382594 98.74395 -20.922832 -88.383698
39700000000 -26.105143 -123.27318 -0.27542946 98.44886 -0.25407189 98.488243 -20.390053 -92.327728
39730000000 -26.247768 -106.92594 -0.28227133 98.448296 -0.26452476 98.365265 -20.854723 -90.464638
39760000000 -24.257025 -113.64896 -0.23594058 98.069397 -0.24133801 98.18232 -21.193121 -90.320297
39790000000 -24.313625 -111.50906 -0.24407731 97.834267 -0.24662463 97.835701 -20.709965 -90.452164
39820000000 -25.961828 -118.00271 -0.27792847 97.5252 -0.27604732 97.508873 -20.472677 -92.896378
39850000000 -25.923824 -104.54336 -0.28584599 97.434959 -0.26143491 97.517395 -21.13146 -94.248703
39880000000 -24.168711 -102.41114 -0.24094069 97.240395 -0.24104385 97.305542 -20.916281 -92.146881
39910000000 -24.298326 -109.95951 -0.23983155 96.729141 -0.25063598 96.986542 -20.500088 -91.82869
39940000000 -24.966005 -110.72808 -0.25951281 96.516029 -0.26470909 96.652786 -20.654556 -96.183136
39970000000 -25.050503 -95.358978 -0.27040797 96.551384 -0.25079066 96.734367 -21.026543 -93.932716
40000000000 -24.041891 -97.412552 -0.24231671 96.374611 -0.24501526 96.305443 -21.060865 -91.953529
40030000000 -23.569727 -108.04008 -0.2484144 95.823708 -0.26400179 95.957054 -20.746346 -93.866714
40060000000 -25.003597 -101.13302 -0.25783548 95.804962 -0.26364473 95.898224 -20.659754 -96.334572
40090000000 -25.109377 -94.02887 -0.27442425 95.708031 -0.27259067 95.704025 -21.554241 -95.327087
40120000000 -23.720211 -90.760506 -0.23717421 95.381889 -0.23874703 95.398712 -21.176672 -92.245262
40150000000 -23.566261 -97.196747 -0.25740013 94.924751 -0.24731623 95.113625 -20.985773 -94.652496
40180000000 -25.65406 -94.702606 -0.3204653 95.026909 -0.26194903 94.996941 -21.334242 -93.844078
40210000000 -24.476622 -87.104523 -0.25548667 94.743202 -0.24466416 94.700455 -21.703047 -96.935661
40240000000 -23.708162 -87.873131 -0.27948189 94.428123 -0.2533614 94.512802 -21.709694 -94.183289
40270000000 -24.142687 -93.187012 -0.27983662 94.188972 -0.28509736 94.160988 -21.372368 -93.193306
40300000000 -24.713943 -89.606682 -0.30482897 94.037933 -0.29010934 94.088242 -21.70307 -95.102768
40330000000 -25.083073 -76.853828 -0.28366491 93.930962 -0.27538535 94.047653 -21.977829 -94.785233
40360000000 -23.412853 -81.473976 -0.2536616 93.513077 -0.25780883 93.647171 -21.863647 -93.467674
40390000000 -23.534016 -87.205811 -0.28971305 93.308388 -0.30785787 93.38649 -21.472956 -92.021072
40420000000 -24.810722 -78.120392 -0.2939547 93.196548 -0.28366879 93.210526 -22.106718 -95.363182
40450000000 -24.518221 -79.055695 -0.29384696 93.044235 -0.2896187 93.135979 -21.81558 -92.589584
40480000000 -23.504374 -78.215431 -0.2729705 92.710648 -0.28941697 92.710976 -22.192301 -94.338585
40510000000 -23.424961 -80.406937 -0.29646602 92.505859 -0.30398545 92.504082 -21.550066 -91.975227
40540000000 -25.040979 -74.982628 -0.32903349 92.41774 -0.31371999 92.487007 -22.08658 -91.217957
40570000000 -24.142933 -75.213699 -0.30113488 92.062508 -0.30792817 91.966026 -22.462566 -94.31868
40600000000 -23.683338 -71.127754 -0.29641753 91.840042 -0.30697155 91.890717 -22.52984 -89.152451
40630000000 -24.364351 -73.695885 -0.31997791 91.680649 -0.30714408 91.670166 -22.180077 -89.666763
40660000000 -24.194309 -71.598457 -0.33149174 91.479576 -0.31280744 91.551529 -22.078804 -88.671562
40690000000 -23.848274 -66.942215 -0.30373561 91.347656 -0.28955641 91.444557 -21.777334 -91.200394
40720000000 -23.090927 -66.202644 -0.30519387 91.034294 -0.29177064 91.12252 -21.703417 -87.079292
40750000000 -23.281406 -67.835434 -0.32812637 90.866676 -0.30312434 90.950829 -21.820393 -87.47908
40780000000 -23.886143 -64.961784 -0.3322579 90.694862 -0.29305348 90.584991 -22.276937 -88.067253
40810000000 -24.733133 -61.946983 -0.33966827 90.603386 -0.32595715 90.611725 -22.229692 -87.128075
40840000000 -23.020731 -58.822758 -0.33577609 90.153641 -0.32333612 90.280708 -22.198336 -84.276077
40870000000 -23.552073 -60.999374 -0.344448 90.104179 -0.32534331 90.035423 -21.739645 -83.29348
40900000000 -23.688858 -59.442276 -0.3427594 89.768402 -0.33533564 90.059425 -21.714016 -83.905289
40930000000 -24.104467 -57.263824 -0.34021246 89.844368 -0.31956637 89.840775 -21.207003 -84.745422
40960000000 -23.320801 -50.762817 -0.33159259 89.255333 -0.32776541 89.314445 -21.706358 -84.003967
40990000000 -23.49165 -56.058193 -0.36196324 89.379303 -0.3246325 89.477661 -21.132998 -82.36731
41020000000 -24.121809 -52.019733 -0.37654153 89.130516 -0.35962832 89.155746 -21.406742 -80.360573
41050000000 -24.320681 -47.112396 -0.34112942 89.031975 -0.34384304 89.000298 -21.129704 -82.764427
41080000000 -23.015911 -46.8759 -0.35686183 88.630981 -0.33323717 88.586975 -21.020306 -82.175377
41110000000 -24.072357 -57.314564 -0.38831973 88.314842 -0.37931266 88.284828 -21.425508 -85.860634
41140000000 -24.201584 -46.390705 -0.38615194 88.348541 -0.3944259 88.466438 -20.986691 -80.323257
41170000000 -24.064632 -43.105328 -0.3624807 88.302887 -0.35582918 88.323822 -20.563253 -83.131233
41200000000 -23.349409 -42.882809 -0.37626433 87.75985 -0.38335806 87.755928 -21.062218 -83.030556
41230000000 -23.513687 -46.978752 -0.41082439 87.681168 -0.38493863 87.918274 -20.673544 -80.92057
41260000000 -24.727966 -49.897549 -0.39444971 87.734337 -0.41023487 87.949982 -20.446995 -83.46843
41290000000 -24.290861 -35.194115 -0.38347596 87.391441 -0.3607156 87.324287 -20.588654 -83.304588
41320000000 -23.036654 -34.601437 -0.39940649 86.955017 -0.40704077 87.084625 -20.743597 -80.95079
41350000000 -23.352066 -43.233147 -0.42124003 87.079636 -0.41836902 87.205925 -20.33666 -82.154724
41380000000 -24.490971 -40.502861 -0.40052453 86.921341 -0.40513101 87.101501 -20.194651 -81.911591
41410000000 -23.872875 -33.092922 -0.39369604 86.535316 -0.38373414 86.634094 -20.174721 -83.902397
41440000000 -23.067808 -36.480076 -0.41746244 86.42997 -0.41966614 86.530708 -19.861813 -82.303253
41470000000 -23.433754 -38.941944 -0.46253762 86.170784 -0.42215368 86.19162 -20.071724 -82.666893
41500000000 -24.491488 -38.078377 -0.41272098 86.3265 -0.42989954 86.229744 -20.076803 -83.794891
41530000000 -25.565186 -25.358955 -0.41331342 85.774712 -0.38814536 86.006622 -19.849302 -84.752632
41560000000 -22.741396 -28.632822 -0.43529555 85.661629 -0.42168871 85.727631 -20.29553 -84.757744
41590000000 -24.482779 -35.520725 -0.46305135 85.520454 -0.44174215 85.659615 -20.229141 -82.415382
41620000000 -25.199732 -32.738117 -0.43171299 85.461578 -0.41324994 85.696609 -19.753908 -82.483353
41650000000 -24.804047 -20.408276 -0.40825459 85.116325 -0.44834095 84.99688 -19.761309 -85.202461
41680000000 -23.136374 -26.149403 -0.46187451 84.745003 -0.4521662 85.007652 -20.256914 -84.664101
41710000000 -23.751961 -31.979847 -0.47419018 85.032097 -0.46379986 85.090118 -19.849598 -79.968513
41740000000 -25.439098 -24.87159 -0.4554733 84.714027 -0.42415085 84.818092 -19.971052 -84.633171
41770000000 -24.966007 -20.251682 -0.42347705 84.438812 -0.42709908 84.50927 -19.879482 -85.011787
41800000000 -23.824778 -22.593273 -0.46007115 84.225441 -0.45844892 84.378761 -20.027134 -85.236816
41830000000 -25.332212 -32.681667 -0.47091699 84.171394 -0.46196607 84.438576 -20.444891 -83.19162
41860000000 -25.447104 -22.39139 -0.45502228 83.966171 -0.42401159 84.089821 -20.010298 -83.598541
41890000000 -25.497604 -13.687784 -0.46928117 83.783203 -0.4682765 83.593658 -20.358824 -88.506477
41920000000 -23.711395 -24.656786 -0.51534766 83.658569 -0.48074484 83.817703 -20.246492 -87.469444
41950000000 -26.344582 -32.539768 -0.47002763 83.541718 -0.46439818 83.436386 -20.51091 -87.049873
41980000000 -26.206738 -13.899107 -0.45111841 83.165886 -0.49515793 83.467278 -20.402111 -83.736938
42010000000 -24.806416 -15.757386 -0.48342994 82.918442 -0.47944844 83.071518 -20.464235 -85.923668
42040000000 -23.858711 -19.953945 -0.51059896 83.056648 -0.47522423 82.994377 -20.499403 -86.100937
42070000000 -25.914097 -25.919931 -0.48906413 82.861511 -0.45868164 82.915482 -20.341047 -83.609978
42100000000 -26.269981 -10.146427 -0.50146484 82.644554 -0.49728766 82.498024 -20.507902 -84.411461
42130000000 -25.383215 -14.378421 -0.49784905 82.222275 -0.47954151 82.355637 -20.218449 -85.748703
42160000000 -24.044176 -16.795336 -0.50821882 82.151436 -0.47787818 82.351585 -20.520103 -84.251671
42190000000 -26.118639 -25.105478 -0.49632582 82.08979 -0.49117726 82.197731 -21.311674 -82.531128
42220000000 -26.509768 -6.9473486 -0.50248766 81.87822 -0.49689814 81.868729 -20.580017 -80.30661
42250000000 -25.431702 -5.5571003 -0.50023514 81.646919 -0.52449703 81.576813 -20.739138 -85.428024
42280000000 -25.123812 -16.258724 -0.5122574 81.420631 -0.50311714 81.649307 -20.974712 -82.157097
42310000000 -26.307268 -28.420717 -0.47561988 81.28447 -0.47816917 81.607658 -20.813614 -80.950897
42340000000 -26.899559 -10.905758 -0.51429296 81.311157 -0.49122334 81.131714 -20.823517 -77.440048
42370000000 -26.801903 -6.3916955 -0.50382119 80.830933 -0.50203663 80.885834 -20.852341 -82.523224
42400000000 -25.195803 -16.975874 -0.50964057 80.827896 -0.51647842 80.702728 -21.331461 -79.635422
42430000000 -26.434603 -26.599733 -0.50724667 80.636452 -0.501158 80.84787 -20.988728 -75.218781
42460000000 -27.971712 -15.412601 -0.51208115 80.426094 -0.48624843 80.440498 -20.388786 -76.718781
42490000000 -26.228876 -14.143608 -0.50894868 80.223785 -0.52800906 80.367233 -20.699617 -77.323914
42520000000 -24.983959 -19.454115 -0.50128585 80.11187 -0.51016831 80.221596 -20.949415 -75.122375
42550000000 -26.559414 -32.465675 -0.48275727 79.798553 -0.47038242 79.960274 -20.604528 -72.679436
42580000000 -28.394699 -16.477003 -0.50658923 79.532906 -0.51577145 79.75766 -20.636644 -76.64653
42610000000 -25.908236 -13.366118 -0.53054833 79.567863 -0.54561716 79.841148 -20.593115 -74.97142
42640000000 -26.148476 -16.668974 -0.56875139 79.428459 -0.51398319 79.559982 -21.064117 -69.346184
42670000000 -27.359619 -22.989649 -0.54352552 79.018272 -0.51598048 79.421471 -21.044529 -70.341423
42700000000 -30.315336 -16.356693 -0.53635794 78.861206 -0.49334967 78.776428 -20.468819 -72.405945
42730000000 -26.572269 -16.752386 -0.53571075 78.803879 -0.55523068 79.096901 -20.350521 -70.120346
42760000000 -26.767296 -24.572363 -0.53710693 78.534142 -0.52546424 78.749832 -20.803928 -71.53167
42790000000 -28.56514 -26.756151 -0.54534483 78.390923 -0.51000297 78.439232 -20.453295 -70.177521
42820000000 -28.993132 -26.075766 -0.52693343 78.261909 -0.5301953 78.300041 -20.052237 -68.220245
42850000000 -27.838926 -4.9448829 -0.57400757 78.042984 -0.52894402 78.094727 -20.261721 -68.947472
42880000000 -26.745331 -28.567133 -0.5157423 78.091682 -0.51746571 78.153732 -20.047213 -68.750214
42910000000 -27.262236 -25.178299 -0.55708724 77.897171 -0.54295701 77.828835 -19.981297 -62.258938
42940000000 -28.578857 -22.65572 -0.5401091 77.787392 -0.54582882 77.649277 -19.309458 -65.270981
42970000000 -27.930803 -17.684647 -0.50438869 77.557312 -0.54661053 77.516533 -19.0445 -70.214523
43000000000 -26.409462 -31.460583 -0.50886136 77.203667 -0.50735086 77.413109 -20.137728 -68.470879
43030000000 -26.713053 -26.098553 -0.54488462 77.156563 -0.5413692 77.164154 -19.451511 -66.591003
43060000000 -30.325483 -32.895771 -0.54067606 76.888062 -0.55705518 76.897362 -19.476494 -69.263756
43090000000 -26.740604 -22.580891 -0.54350179 76.798119 -0.56343818 76.808746 -19.240772 -70.780487
43120000000 -27.223209 -34.97718 -0.50597608 76.443886 -0.52032828 76.668663 -19.754988 -70.627953
43150000000 -26.439899 -43.172886 -0.52021563 76.276535 -0.49130943 76.40638 -19.196945 -69.356438
43180000000 -26.963192 -38.493668 -0.5376237 75.90934 -0.5307101 76.27153 -18.687756 -70.452019
43210000000 -28.484333 -42.189281 -0.54859763 75.812881 -0.52826864 76.007751 -19.143002 -71.919624
43240000000 -25.915915 -35.493286 -0.5657208 75.733093 -0.51075208 75.983101 -19.146265 -68.664948
43270000000 -26.723804 -44.300526 -0.54959995 75.499222 -0.55353576 75.767838 -19.110472 -67.681381
43300000000 -26.279085 -37.605507 -0.54839206 75.513786 -0.51684493 75.656555 -18.690962 -69.060265
43330000000 -26.970394 -42.351311 -0.51058173 75.46151 -0.51194721 75.386726 -18.538099 -75.523346
43360000000 -26.82197 -30.722546 -0.53060919 75.0355 -0.54472971 75.354691 -19.56127 -73.151108
43390000000 -25.378305 -42.521954 -0.53228521 75.039047 -0.54764819 74.866295 -18.6164 -69.822334
43420000000 -27.261084 -42.829338 -0.53958356 74.709572 -0.51186651 74.862907 -18.658129 -71.776047
43450000000 -27.420851 -44.999783 -0.50792491 74.485962 -0.52935249 74.804443 -18.626965 -77.602425
43480000000 -26.146782 -35.701729 -0.53789532 74.567123 -0.50228596 74.446808 -19.292044 -75.884384
43510000000 -24.383503 -48.593472 -0.50420988 74.140411 -0.51701051 74.243515 -18.458654 -72.249382
43540000000 -26.028397 -53.302235 -0.53271478 73.856903 -0.50049424 74.145302 -18.327415 -77.13829
43570000000 -26.842758 -42.794697 -0.51354438 73.818558 -0.48105425 73.803665 -18.809917 -78.570099
43600000000 -24.85549 -35.448383 -0.51087409 73.643745 -0.469246 74.025185 -18.956129 -76.384041
43630000000 -24.385891 -50.330471 -0.47303629 73.593987 -0.51660115 73.550842 -18.329134 -76.583603
43660000000 -25.063341 -55.16235 -0.5087083 73.27256 -0.50858808 73.348434 -18.356209 -75.655083
43690000000 -26.049444 -41.784473 -0.51013571 73.022728 -0.51709074 73.219933 -18.565605 -78.861328
43720000000 -24.29542 -39.752354 -0.48374677 72.783562 -0.50276518 72.91993 -19.278891 -77.538223
43750000000 -23.401939 -53.358051 -0.45533532 72.651039 -0.48811397 72.648758 -18.961515 -77.408714
43780000000 -24.912754 -53.70256 -0.49666449 72.628487 -0.52195835 72.62133 -18.295618 -78.049583
43810000000 -25.306519 -46.440739 -0.48847431 72.329041 -0.47947562 72.562134 -18.675615 -81.211159
43840000000 -23.666201 -47.049633 -0.41602209 72.153618 -0.46716282 72.231369 -19.242798 -84.269478
43870000000 -23.088379 -52.52998 -0.49514863 71.579399 -0.47783569 71.615974 -19.494173 -80.07576
43900000000 -23.891747 -59.925716 -0.48143628 71.590172 -0.43250304 71.784744 -18.640093 -82.721405
43930000000 -24.16634 -38.365875 -0.45071518 71.653114 -0.46600363 71.71508 -18.965078 -81.71067
43960000000 -22.834633 -49.069141 -0.46210888 71.27449 -0.41992077 71.133003 -20.146378 -85.641396
43990000000 -22.649765 -47.05722 -0.46234354 70.99971 -0.46480292 71.222794 -19.698524 -79.479759
44020000000 -23.32943 -54.159988 -0.4959242 70.711319 -0.44416925 70.896523 -19.273842 -78.167488
44050000000 -24.215586 -48.439533 -0.44808352 70.729965 -0.45049208 70.901451 -19.699842 -83.416656
44080000000 -21.833113 -41.782993 -0.43950915 70.391449 -0.44271374 70.364685 -19.986416 -84.143272
44110000000 -21.664806 -53.442455 -0.43408874 70.209984 -0.46232569 70.159386 -19.893784 -77.742813
44140000000 -22.399427 -55.642536 -0.47386798 70.309792 -0.45771882 70.388359 -19.138857 -83.1287
44170000000 -22.714972 -45.988213 -0.42813426 70.087891 -0.43027222 70.021278 -19.398546 -86.403915
44200000000 -21.400311 -42.590725 -0.44344014 69.519501 -0.43084249 69.675652 -20.271593 -82.972664
44230000000 -20.563246 -54.09581 -0.45185915 69.460419 -0.45842588 69.665382 -19.952297 -78.10405
44260000000 -22.609442 -54.691452 -0.44124696 69.268654 -0.39669567 69.576317 -19.602734 -79.197388
44290000000 -22.032078 -43.732533 -0.41332224 69.176338 -0.42194429 69.191315 -20.106707 -81.470734
44320000000 -21.63492 -43.636505 -0.40836066 68.503975 -0.39855745 68.768127 -21.190649 -83.344437
44350000000 -19.637102 -52.633537 -0.45327032 68.780731 -0.45821646 68.877785 -19.630026 -76.910477
44380000000 -21.769964 -49.137928 -0.41871822 68.683899 -0.42701995 68.512199 -19.626394 -80.13356
44410000000 -21.206036 -43.801502 -0.40552035 68.151695 -0.41667113 68.486923 -20.289949 -81.396507
44440000000 -20.438484 -43.449619 -0.39197233 67.811203 -0.41063261 68.121239 -20.395885 -78.444412
44470000000 -20.502083 -51.406269 -0.41222513 67.805824 -0.42423734 67.986023 -20.558735 -76.775955
44500000000 -20.169979 -53.119617 -0.41956207 67.87159 -0.42044345 67.946548 -19.501324 -77.885475
44530000000 -20.661329 -40.711838 -0.38934344 67.584679 -0.37872854 67.627632 -20.367062 -75.667953
44560000000 -19.500238 -42.679615 -0.44805741 67.328568 -0.4213019 67.256607 -20.352213 -73.158066
44590000000 -19.5448 -49.115063 -0.41532135 67.095924 -0.42820138 67.102898 -19.793934 -75.969749
44620000000 -20.319777 -50.570885 -0.41395462 67.073219 -0.3939378 66.962303 -19.835604 -76.930756
44650000000 -20.512104 -37.276611 -0.37805241 66.672806 -0.39261973 66.612976 -20.128757 -75.686768
44680000000 -19.454086 -43.952839 -0.38679114 66.290459 -0.39166439 66.305794 -20.267521 -73.694038
44710000000 -18.558771 -49.280624 -0.42393795 66.261765 -0.42168871 66.396721 -19.6486 -71.705132
44740000000 -20.590729 -48.143234 -0.41257468 66.142128 -0.38705203 66.179642 -19.397825 -72.315369
44770000000 -19.592098 -42.835205 -0.36269033 65.745064 -0.41184688 65.997032 -19.999594 -72.907417
44800000000 -18.995197 -41.310585 -0.38350368 65.57708 -0.36508378 65.499229 -19.943699 -72.844505
44830000000 -18.925303 -51.019203 -0.39339507 65.528648 -0.39335027 65.627991 -19.370817 -67.862335
44860000000 -20.011833 -48.223427 -0.38096693 65.425209 -0.37529364 65.424156 -19.612373 -72.557861
44890000000 -19.268187 -42.891891 -0.3766892 64.864052 -0.37613449 64.964905 -19.546801 -75.085335
44920000000 -18.49802 -44.621056 -0.40121779 64.777931 -0.36971906 64.910873 -19.435205 -70.202644
44950000000 -18.553354 -47.946053 -0.39686471 64.685852 -0.38901955 64.740715 -19.26701 -70.880371
44980000000 -19.249304 -49.160904 -0.38579121 64.389343 -0.35038334 64.409821 -18.774035 -72.465057
