!Keysight Technologies,N5247B,MY61255062,A.19.80.06
!Date: Friday, March 13, 2026 17:53:37
!Correction: S11(C  2-Port  ) 
!S21(C  2-Port  ) 
!S12(C  2-Port  ) 
!S22(C  2-Port  ) 
!S2P File: Measurements: S11, S21, S12, S22:
# Hz S  dB   R 50
1000000000 -1.2965032 175.82272 -17.708172 2.9448347 -17.707668 2.946913 -1.5676669 169.36082
1030000000 -1.2972667 175.73022 -17.702059 3.0427308 -17.699846 3.0529413 -1.5716121 169.06502
1060000000 -1.3007882 175.61502 -17.690544 3.1247334 -17.691185 3.1225498 -1.5740137 168.77483
1090000000 -1.3040336 175.48157 -17.681856 3.2087746 -17.681967 3.2220495 -1.578833 168.47101
1120000000 -1.3073833 175.37007 -17.671173 3.2965338 -17.670294 3.2917686 -1.5825028 168.16045
1150000000 -1.3110121 175.2683 -17.66448 3.3885608 -17.66189 3.3965671 -1.5862844 167.86751
1180000000 -1.3149358 175.14473 -17.652279 3.4698796 -17.651789 3.4739916 -1.5891349 167.57494
1210000000 -1.3193197 175.01886 -17.642019 3.5342798 -17.641445 3.5378687 -1.5937091 167.26797
1240000000 -1.3250622 174.88745 -17.634445 3.6271925 -17.633163 3.6339381 -1.5966153 166.97272
1270000000 -1.3245406 174.77893 -17.619427 3.7096679 -17.620455 3.7265654 -1.5999856 166.67564
1300000000 -1.3239335 174.68048 -17.60774 3.8059907 -17.608488 3.8040397 -1.6034683 166.36714
1330000000 -1.3267419 174.55815 -17.598543 3.8811941 -17.594595 3.8881526 -1.6065576 166.07199
1360000000 -1.328259 174.43976 -17.583311 3.9572451 -17.583324 3.9738157 -1.6090686 165.77515
1390000000 -1.329734 174.33852 -17.57033 4.0458288 -17.568916 4.0359693 -1.6143267 165.47192
1420000000 -1.3317283 174.21057 -17.558027 4.115047 -17.558369 4.1167879 -1.6165222 165.17366
1450000000 -1.3322247 174.08327 -17.54595 4.1841617 -17.543325 4.1851435 -1.6180632 164.87674
1480000000 -1.3341522 173.98541 -17.530651 4.2634726 -17.529282 4.2647963 -1.6213046 164.58661
1510000000 -1.338111 173.85263 -17.519495 4.3220944 -17.516792 4.3319688 -1.6259843 164.28233
1540000000 -1.3393868 173.7166 -17.505911 4.3890185 -17.504341 4.396678 -1.6283556 163.98363
1570000000 -1.339416 173.60452 -17.491686 4.4700723 -17.49206 4.470252 -1.6310387 163.69075
1600000000 -1.3423827 173.48303 -17.477398 4.5256958 -17.475828 4.5377731 -1.6349126 163.39395
1630000000 -1.3431623 173.36133 -17.463823 4.6004777 -17.461788 4.6048846 -1.6382678 163.08673
1660000000 -1.3419483 173.2533 -17.445217 4.6442671 -17.445736 4.6750631 -1.6407168 162.79524
1690000000 -1.3446791 173.11311 -17.432587 4.7384329 -17.430779 4.7369828 -1.6442674 162.49953
1720000000 -1.345908 172.98567 -17.416531 4.7933722 -17.416195 4.8075604 -1.6481497 162.18826
1750000000 -1.3448548 172.89044 -17.402838 4.8677115 -17.401125 4.8831134 -1.6509973 161.90022
1780000000 -1.3472656 172.761 -17.386326 4.9130239 -17.387009 4.9230161 -1.6551262 161.60655
1810000000 -1.3501563 172.61066 -17.374178 4.9713244 -17.370703 4.9712009 -1.6576966 161.28928
1840000000 -1.3501464 172.50165 -17.356855 5.0480051 -17.355316 5.0573997 -1.6597236 160.99825
1870000000 -1.3504651 172.39435 -17.337824 5.1090341 -17.337908 5.0998425 -1.6640899 160.69382
1900000000 -1.3520389 172.26268 -17.323503 5.1675315 -17.318787 5.1499186 -1.6676456 160.40155
1930000000 -1.3535067 172.11995 -17.306736 5.1977262 -17.305845 5.2065463 -1.6695808 160.09436
1960000000 -1.3552948 171.98204 -17.292442 5.2682824 -17.289215 5.2754889 -1.6737416 159.79803
1990000000 -1.3551155 171.8597 -17.271589 5.3133631 -17.274097 5.3197536 -1.6790797 159.4962
2020000000 -1.3558247 171.73088 -17.256216 5.3668671 -17.254292 5.3783917 -1.6806937 159.19414
2050000000 -1.354826 171.59967 -17.239552 5.4100957 -17.23875 5.4159193 -1.6835902 158.89621
2080000000 -1.3556093 171.46935 -17.222002 5.4646506 -17.220631 5.4511199 -1.6871595 158.59166
2110000000 -1.3578116 171.34367 -17.20549 5.490869 -17.203444 5.527225 -1.689833 158.28522
2140000000 -1.3568643 171.19678 -17.186407 5.5603213 -17.184664 5.5684328 -1.6916196 158.01164
2170000000 -1.3555322 171.08051 -17.16839 5.5929084 -17.168268 5.6088157 -1.6959484 157.69304
2200000000 -1.3578243 170.95372 -17.150358 5.6628709 -17.152494 5.6517415 -1.6981305 157.38043
2230000000 -1.3577688 170.81239 -17.13405 5.698688 -17.134142 5.6870675 -1.701939 157.08989
2260000000 -1.3560112 170.69951 -17.114887 5.7248039 -17.116623 5.7281947 -1.7061297 156.79324
2290000000 -1.3608336 170.56926 -17.096998 5.7703848 -17.097549 5.7731533 -1.7077541 156.48747
2320000000 -1.3620378 170.41524 -17.080799 5.817482 -17.079552 5.79775 -1.7108111 156.1855
2350000000 -1.3587632 170.31279 -17.061674 5.8298621 -17.060944 5.8401566 -1.7160802 155.88506
2380000000 -1.3633093 170.18375 -17.043663 5.8625712 -17.042395 5.8620377 -1.7190518 155.57614
2410000000 -1.3646364 170.0309 -17.028791 5.9073663 -17.024734 5.9139819 -1.7199821 155.29373
2440000000 -1.3618419 169.91667 -17.008429 5.956594 -17.006313 5.9297647 -1.7254573 154.9709
2470000000 -1.3657583 169.78839 -16.989115 5.9822979 -16.9872 5.9876966 -1.7279906 154.67442
2500000000 -1.3675423 169.63507 -16.97361 6.0104165 -16.971979 5.9981346 -1.7325758 154.39034
2530000000 -1.363368 169.52977 -16.951181 6.0444822 -16.951094 6.0370035 -1.7342541 154.082
2560000000 -1.366966 169.41425 -16.93565 6.0631247 -16.932329 6.0807161 -1.7387005 153.77092
2590000000 -1.3722405 169.25401 -16.915337 6.1183829 -16.916039 6.1476812 -1.7429945 153.47913
2620000000 -1.3675965 169.13184 -16.895014 6.1398196 -16.895679 6.1654119 -1.7461433 153.16968
2650000000 -1.3688239 169.0392 -16.874043 6.1738181 -16.874998 6.1831408 -1.7476288 152.87338
2680000000 -1.3716289 168.89378 -16.859362 6.2157884 -16.858442 6.2164588 -1.7503967 152.5752
2710000000 -1.3729376 168.76543 -16.840759 6.2190871 -16.838047 6.2519426 -1.7549225 152.26654
2740000000 -1.3756578 168.64563 -16.818361 6.2721453 -16.819042 6.2642212 -1.7579179 151.96863
2770000000 -1.3773044 168.4973 -16.798126 6.3081961 -16.800198 6.2910295 -1.7601228 151.68431
2800000000 -1.373943 168.39091 -16.779207 6.3181839 -16.775724 6.3273973 -1.765316 151.35472
2830000000 -1.3774178 168.27188 -16.756088 6.3364434 -16.757824 6.3414345 -1.7668993 151.04671
2860000000 -1.3813547 168.13809 -16.740717 6.3622661 -16.74255 6.3645124 -1.7722431 150.77721
2890000000 -1.3792826 168.02986 -16.716471 6.3948059 -16.723228 6.4182277 -1.7750775 150.45534
2920000000 -1.3796839 167.9135 -16.700392 6.4307923 -16.696218 6.448009 -1.7764205 150.15137
2950000000 -1.3850162 167.78392 -16.678089 6.4366941 -16.676996 6.4460902 -1.7808471 149.85316
2980000000 -1.3859429 167.68202 -16.656561 6.4440408 -16.654428 6.4603643 -1.7859906 149.55629
3010000000 -1.3850454 167.56161 -16.636698 6.4787722 -16.632647 6.5034275 -1.7862897 149.242
3040000000 -1.3881652 167.42609 -16.616293 6.4884348 -16.617544 6.5138521 -1.7902088 148.94139
3070000000 -1.3908491 167.32359 -16.592993 6.5328088 -16.592375 6.542274 -1.7947717 148.62959
3100000000 -1.38992 167.21396 -16.57122 6.5541458 -16.570864 6.5693846 -1.7963252 148.34528
3130000000 -1.3887701 167.10867 -16.550489 6.5538659 -16.548647 6.5564928 -1.7984201 148.04965
3160000000 -1.3933123 166.98737 -16.530085 6.5726171 -16.527668 6.5720072 -1.8051571 147.71759
3190000000 -1.39584 166.86266 -16.510046 6.5905557 -16.507347 6.5789428 -1.8081123 147.40312
3220000000 -1.3948417 166.76051 -16.486706 6.6076431 -16.48296 6.6376696 -1.8088428 147.12323
3250000000 -1.3973585 166.6646 -16.464472 6.6324363 -16.463156 6.6475859 -1.8133451 146.81419
3280000000 -1.4004455 166.51988 -16.445469 6.6191506 -16.439583 6.6194348 -1.8179673 146.49042
3310000000 -1.4020581 166.41115 -16.419073 6.6323066 -16.418364 6.6406469 -1.8199129 146.20128
3340000000 -1.4031572 166.32457 -16.396755 6.6638231 -16.39497 6.6752067 -1.8221955 145.90288
3370000000 -1.4028029 166.19734 -16.375748 6.6583223 -16.372692 6.7048516 -1.8248794 145.59439
3400000000 -1.4052607 166.07097 -16.355551 6.6719718 -16.354212 6.6760163 -1.8281 145.28368
3430000000 -1.4080848 165.9893 -16.329752 6.6758008 -16.32596 6.6868539 -1.8346297 144.97003
3460000000 -1.4080353 165.88762 -16.303465 6.6815629 -16.305395 6.7094188 -1.8371407 144.66037
3490000000 -1.407832 165.76678 -16.284626 6.7157412 -16.280704 6.7235794 -1.8378721 144.36407
3520000000 -1.4127816 165.65779 -16.26017 6.6842055 -16.257833 6.6973925 -1.843714 144.04907
3550000000 -1.4165846 165.53287 -16.238356 6.6987596 -16.237776 6.719276 -1.8479931 143.72656
3580000000 -1.4133612 165.44453 -16.214329 6.7002058 -16.215149 6.7064576 -1.8506541 143.43941
3610000000 -1.415727 165.35121 -16.190447 6.6966448 -16.189573 6.7064548 -1.8518927 143.12572
3640000000 -1.4197879 165.21165 -16.166656 6.6959023 -16.167833 6.7188807 -1.856378 142.80829
3670000000 -1.4193197 165.106 -16.143288 6.6887417 -16.140131 6.7116203 -1.8600216 142.4971
3700000000 -1.4214706 165.03099 -16.119305 6.7110968 -16.116451 6.721262 -1.8636392 142.20433
3730000000 -1.4230344 164.90355 -16.097084 6.6971493 -16.096668 6.7127824 -1.8659363 141.88492
3760000000 -1.4244328 164.78069 -16.072798 6.6974859 -16.07412 6.7034655 -1.8707376 141.58684
3790000000 -1.4296218 164.68112 -16.047422 6.682169 -16.048624 6.6946397 -1.8756517 141.26855
3820000000 -1.4283718 164.57166 -16.026623 6.6749516 -16.023684 6.6864324 -1.8783712 140.9509
3850000000 -1.4267644 164.47456 -16.001448 6.683393 -15.997941 6.6974659 -1.881373 140.65654
3880000000 -1.4349252 164.37248 -15.97537 6.6667066 -15.973811 6.6826372 -1.8848028 140.33432
3910000000 -1.4365919 164.23615 -15.952424 6.6671872 -15.951581 6.6832628 -1.8878047 140.01028
3940000000 -1.4330709 164.15666 -15.924383 6.6617198 -15.922592 6.6643772 -1.8922824 139.72101
3970000000 -1.4384481 164.05183 -15.903996 6.6529126 -15.899071 6.6525507 -1.8962387 139.41106
4000000000 -1.4425424 163.89172 -15.87596 6.63728 -15.876081 6.632894 -1.8997391 139.06543
4030000000 -1.4433458 163.79153 -15.85218 6.6139035 -15.852561 6.627645 -1.9023863 138.7686
4060000000 -1.4447131 163.71483 -15.826921 6.6198778 -15.827395 6.6249552 -1.9067281 138.47269
4090000000 -1.4448398 163.57932 -15.803605 6.6016688 -15.799471 6.5982332 -1.9105437 138.13203
4120000000 -1.4442911 163.47224 -15.776402 6.5970011 -15.774899 6.583766 -1.9136475 137.84088
4150000000 -1.4508075 163.39134 -15.749553 6.5676746 -15.74633 6.5589867 -1.9191955 137.51791
4180000000 -1.4526256 163.24963 -15.724929 6.5386457 -15.723249 6.5573068 -1.9208937 137.18143
4210000000 -1.4502699 163.14661 -15.700397 6.5208864 -15.698298 6.5528665 -1.9243089 136.91083
4240000000 -1.4580151 163.03793 -15.67351 6.5101461 -15.670743 6.5136228 -1.9304023 136.57852
4270000000 -1.4611269 162.90118 -15.64866 6.4771566 -15.646649 6.4923611 -1.9325156 136.23798
4300000000 -1.4561599 162.81165 -15.622707 6.45121 -15.618705 6.478775 -1.9329991 135.94656
4330000000 -1.4620835 162.71072 -15.596729 6.4221697 -15.593476 6.4424496 -1.9391215 135.64058
4360000000 -1.4671464 162.54858 -15.569289 6.3875422 -15.568407 6.3982043 -1.9435693 135.29413
4390000000 -1.4666864 162.45586 -15.542301 6.3752365 -15.54297 6.3774753 -1.9438589 134.989
4420000000 -1.4687951 162.36455 -15.51584 6.3477101 -15.513515 6.3498411 -1.9513152 134.68166
4450000000 -1.4721358 162.21516 -15.496667 6.2988682 -15.489948 6.318059 -1.9543225 134.33908
4480000000 -1.4728822 162.10057 -15.468035 6.2946844 -15.466972 6.295763 -1.9552513 134.05911
4510000000 -1.4767869 161.99768 -15.436953 6.2468247 -15.436247 6.2616501 -1.9634925 133.72989
4540000000 -1.4781623 161.86414 -15.413369 6.2005229 -15.411819 6.2027822 -1.9668802 133.36761
4570000000 -1.4770378 161.75195 -15.388954 6.1829443 -15.384213 6.1953516 -1.9672247 133.08456
4600000000 -1.4827509 161.64262 -15.360341 6.1302104 -15.357512 6.162674 -1.9739753 132.76529
4630000000 -1.4861863 161.49684 -15.334325 6.0998979 -15.332465 6.1091642 -1.9770644 132.41557
4660000000 -1.4840156 161.39302 -15.306113 6.0558338 -15.307762 6.0845795 -1.977253 132.118
4690000000 -1.487832 161.27989 -15.278989 6.012886 -15.279954 6.0398722 -1.9867705 131.8028
4720000000 -1.4919246 161.12245 -15.253757 5.9604502 -15.255248 5.9777751 -1.9898225 131.43698
4750000000 -1.4928064 161.01772 -15.228976 5.9514842 -15.226859 5.9542942 -1.9883026 131.16475
4780000000 -1.4949852 160.90854 -15.200665 5.8988509 -15.194665 5.9172025 -1.9966788 130.82523
4810000000 -1.4973003 160.76692 -15.175787 5.8482943 -15.175116 5.8500242 -1.9999871 130.46381
4840000000 -1.4985024 160.66406 -15.14825 5.8346233 -15.146007 5.8218994 -2.0012145 130.20323
4870000000 -1.5026157 160.54448 -15.118592 5.7693734 -15.11702 5.7605681 -2.0070925 129.85896
4900000000 -1.5031689 160.3924 -15.093981 5.6802225 -15.094749 5.7187676 -2.0101719 129.49648
4930000000 -1.5038869 160.28423 -15.069776 5.6672955 -15.067977 5.674664 -2.0131621 129.21623
4960000000 -1.507146 160.17422 -15.035129 5.6353674 -15.039662 5.6403103 -2.0212634 128.88301
4990000000 -1.5088202 160.03073 -15.013496 5.5522518 -15.010883 5.5704556 -2.0203156 128.51305
5020000000 -1.5101364 159.92677 -14.987698 5.5307112 -14.986213 5.5277591 -2.0227885 128.24861
5050000000 -1.5141661 159.79463 -14.95829 5.455821 -14.95738 5.4909039 -2.0349553 127.90718
5080000000 -1.5159321 159.64932 -14.934852 5.3893075 -14.932834 5.4092216 -2.0332091 127.54935
5110000000 -1.5172788 159.54971 -14.907398 5.3337121 -14.905999 5.3715587 -2.0335667 127.26968
5140000000 -1.5180763 159.43242 -14.878112 5.2947702 -14.8732 5.2966037 -2.044178 126.9296
5170000000 -1.5207839 159.28192 -14.853911 5.2329025 -14.852649 5.2581658 -2.044955 126.55212
5200000000 -1.5224468 159.16109 -14.826076 5.1959085 -14.824715 5.2059922 -2.0465567 126.29935
5230000000 -1.526929 159.04434 -14.797538 5.10638 -14.793215 5.1231313 -2.0547035 125.93549
5260000000 -1.5281006 158.89476 -14.769459 5.042604 -14.771939 5.0722079 -2.0560713 125.55042
5290000000 -1.529626 158.7886 -14.747249 5.0106316 -14.744523 5.028183 -2.057786 125.31656
5320000000 -1.5334439 158.65726 -14.717265 4.939045 -14.71411 4.9594455 -2.0679512 124.94299
5350000000 -1.5355941 158.51395 -14.692652 4.8739619 -14.685946 4.8935866 -2.0683773 124.57011
5380000000 -1.5378089 158.39429 -14.668155 4.8087163 -14.663116 4.8248644 -2.0691404 124.30853
5410000000 -1.5387462 158.27055 -14.63403 4.7394972 -14.633854 4.7611399 -2.0814209 123.95206
5440000000 -1.5415931 158.13068 -14.610929 4.6721902 -14.608427 4.6885996 -2.078634 123.58352
5470000000 -1.5440882 158.00964 -14.582938 4.6014018 -14.581665 4.6219759 -2.081857 123.29934
5500000000 -1.5457034 157.88992 -14.55548 4.5500889 -14.552131 4.5785794 -2.0922527 122.94215
5530000000 -1.5482029 157.74429 -14.532128 4.4683709 -14.529096 4.4799938 -2.0923817 122.57275
5560000000 -1.5498514 157.63657 -14.503169 4.405889 -14.500793 4.452445 -2.0937989 122.31438
5590000000 -1.5531282 157.50931 -14.472698 4.3415871 -14.472059 4.349865 -2.1052196 121.9399
5620000000 -1.5531949 157.38817 -14.44707 4.2739172 -14.445514 4.2891622 -2.1024673 121.57174
5650000000 -1.5557131 157.28986 -14.420112 4.2137504 -14.419824 4.2282653 -2.1073289 121.30883
5680000000 -1.5597768 157.14273 -14.390755 4.1256866 -14.389253 4.1473112 -2.1171405 120.95354
5710000000 -1.5611401 157.00021 -14.368844 4.043448 -14.364269 4.0715904 -2.1164045 120.57751
5740000000 -1.5619954 156.9061 -14.340428 3.9728355 -14.336869 3.9959681 -2.1195462 120.30231
5770000000 -1.5652649 156.77603 -14.311342 3.9012377 -14.310131 3.9155908 -2.1325772 119.92864
5800000000 -1.565203 156.6339 -14.285528 3.8353567 -14.283014 3.8385515 -2.1263521 119.57082
5830000000 -1.5687515 156.51915 -14.258043 3.7639837 -14.256645 3.7847111 -2.1290071 119.31345
5860000000 -1.5716686 156.39262 -14.232063 3.6820586 -14.229406 3.6972144 -2.1445751 118.91084
5890000000 -1.5708107 156.25574 -14.206409 3.5957582 -14.205495 3.6149025 -2.1398664 118.54571
5920000000 -1.5736392 156.14742 -14.176201 3.5536931 -14.176225 3.5581892 -2.1433547 118.29019
5950000000 -1.5781382 156.00415 -14.148818 3.4577332 -14.146881 3.4667168 -2.1531253 117.8923
5980000000 -1.5779308 155.88217 -14.124965 3.3931623 -14.121826 3.4037633 -2.1534882 117.5267
6010000000 -1.579288 155.78123 -14.096542 3.3178723 -14.093518 3.3302681 -2.1575303 117.26741
6040000000 -1.5839088 155.63867 -14.065713 3.205198 -14.063921 3.2418516 -2.1673789 116.86573
6070000000 -1.5861971 155.4995 -14.04012 3.1338263 -14.039919 3.1528039 -2.1619914 116.50778
6100000000 -1.5890372 155.40793 -14.013929 3.0621078 -14.011625 3.0976632 -2.1705413 116.23
6130000000 -1.5913876 155.26755 -13.984518 2.9871447 -13.980441 2.9929175 -2.1828825 115.83514
6160000000 -1.5909343 155.12358 -13.96064 2.9125054 -13.958199 2.9156163 -2.1773434 115.48171
6190000000 -1.5949501 155.03093 -13.93017 2.8421111 -13.929164 2.8636169 -2.1814659 115.21942
6220000000 -1.5970995 154.90797 -13.900823 2.7364786 -13.898676 2.7617803 -2.1947424 114.79757
6250000000 -1.5958632 154.78658 -13.876961 2.6635926 -13.872918 2.6599288 -2.1928072 114.44195
6280000000 -1.5993533 154.67351 -13.847856 2.5805748 -13.842196 2.6026578 -2.1978467 114.1804
6310000000 -1.60506 154.53789 -13.816122 2.4806437 -13.816555 2.4909728 -2.2065325 113.7735
6340000000 -1.6063735 154.41458 -13.791106 2.3921163 -13.787568 2.410995 -2.2037609 113.40686
6370000000 -1.607258 154.31378 -13.761946 2.3091018 -13.760884 2.3266759 -2.2143097 113.13093
6400000000 -1.6103706 154.17087 -13.732448 2.2179794 -13.730042 2.2451885 -2.219408 112.74839
6430000000 -1.6114986 154.05656 -13.707857 2.1247215 -13.705211 2.1531243 -2.2142985 112.36681
6460000000 -1.6139375 153.96912 -13.677601 2.0575485 -13.676764 2.0631671 -2.2269871 112.06321
6490000000 -1.6176822 153.81578 -13.651665 1.9464594 -13.648355 1.9578086 -2.2360163 111.6788
6520000000 -1.6171548 153.68066 -13.622698 1.8471416 -13.623358 1.8678116 -2.2319152 111.3231
6550000000 -1.6203783 153.59409 -13.595202 1.7868205 -13.593642 1.8056997 -2.2383223 111.04273
6580000000 -1.6242355 153.45808 -13.564561 1.6607095 -13.563522 1.6906551 -2.2480955 110.62363
6610000000 -1.6217349 153.33504 -13.538004 1.5713141 -13.535227 1.5966769 -2.2481596 110.25447
6640000000 -1.6271995 153.2408 -13.507729 1.4920857 -13.50614 1.5083308 -2.254282 109.991
6670000000 -1.631791 153.09074 -13.481437 1.3758961 -13.47944 1.4025912 -2.2578514 109.56207
6700000000 -1.6302711 152.99657 -13.452112 1.2895031 -13.452517 1.3039339 -2.2621636 109.20403
6730000000 -1.6330885 152.90039 -13.422032 1.1827463 -13.420332 1.1990297 -2.2675135 108.9023
6760000000 -1.637719 152.74391 -13.394835 1.08362 -13.392797 1.0891385 -2.2734976 108.52732
6790000000 -1.6384521 152.62108 -13.36928 0.98475426 -13.367848 0.9947688 -2.2735233 108.14639
6820000000 -1.6407259 152.54007 -13.339884 0.89042795 -13.338643 0.9083491 -2.2821898 107.82689
6850000000 -1.6442833 152.39687 -13.31245 0.77043033 -13.31013 0.78391057 -2.2906089 107.43811
6880000000 -1.6450212 152.27032 -13.289107 0.69035298 -13.286499 0.70401311 -2.2899487 107.09928
6910000000 -1.6504093 152.16869 -13.257045 0.61074162 -13.257405 0.62065715 -2.2936401 106.77252
6940000000 -1.654773 152.0249 -13.228505 0.49007663 -13.226592 0.50741518 -2.3037508 106.35217
6970000000 -1.6508496 151.90965 -13.20141 0.38335925 -13.200317 0.40997279 -2.3068898 106.0125
7000000000 -1.6566097 151.81357 -13.170602 0.2821292 -13.168921 0.30363965 -2.3081467 105.71287
7030000000 -1.6633639 151.65205 -13.139867 0.1558913 -13.139022 0.18913615 -2.3176045 105.29012
7060000000 -1.6616337 151.54633 -13.115644 0.058458705 -13.113077 0.091805913 -2.3175976 104.9068
7090000000 -1.6645806 151.46255 -13.085855 -0.042035814 -13.084537 -0.0016713188 -2.3267684 104.60361
7120000000 -1.6703888 151.30025 -13.05719 -0.13374215 -13.053016 -0.12793963 -2.3323975 104.23984
7150000000 -1.6716481 151.19089 -13.031105 -0.24680923 -13.030062 -0.23877367 -2.3307002 103.83479
7180000000 -1.6743932 151.10448 -12.997554 -0.35179397 -12.998643 -0.32670191 -2.3390567 103.50542
7210000000 -1.6799963 150.95039 -12.968458 -0.47270203 -12.968862 -0.46542957 -2.3502483 103.12983
7240000000 -1.6807772 150.81856 -12.943696 -0.5723002 -12.942934 -0.55243981 -2.3485222 102.76868
7270000000 -1.6853062 150.71368 -12.917456 -0.66940153 -12.913736 -0.65415537 -2.3517699 102.43494
7300000000 -1.6878858 150.57433 -12.883673 -0.78933764 -12.883501 -0.76138592 -2.3625317 102.03336
7330000000 -1.6883775 150.47673 -12.854846 -0.89807606 -12.85282 -0.89786571 -2.3660417 101.66396
7360000000 -1.6957858 150.36105 -12.82595 -1.0141138 -12.827103 -0.99236268 -2.3687379 101.35038
7390000000 -1.6989996 150.19969 -12.796494 -1.1419228 -12.796924 -1.1263006 -2.3770087 100.9437
7420000000 -1.6978959 150.11304 -12.767214 -1.2613 -12.766756 -1.2463694 -2.3799176 100.54156
7450000000 -1.7031362 150.01335 -12.741517 -1.3794669 -12.73735 -1.3514028 -2.3864856 100.24384
7480000000 -1.7094276 149.84105 -12.710796 -1.5099605 -12.707982 -1.4774337 -2.393723 99.865768
7510000000 -1.7095186 149.7289 -12.685903 -1.6149715 -12.681502 -1.5899663 -2.3933156 99.459328
7540000000 -1.7164391 149.62556 -12.655724 -1.7110472 -12.650767 -1.6893911 -2.3977208 99.106873
7570000000 -1.7182428 149.47136 -12.623863 -1.8307521 -12.620923 -1.8203614 -2.4103823 98.776176
7600000000 -1.7164491 149.36557 -12.595386 -1.9596819 -12.592966 -1.9439102 -2.4082537 98.377594
7630000000 -1.7260557 149.24733 -12.563269 -2.0776596 -12.562906 -2.0502496 -2.4110999 98.012215
7660000000 -1.7317032 149.09506 -12.534201 -2.2097516 -12.533378 -2.1872118 -2.4244671 97.650253
7690000000 -1.7305833 148.99103 -12.507791 -2.350385 -12.504795 -2.326601 -2.4274023 97.243965
7720000000 -1.7370576 148.86699 -12.477494 -2.4614205 -12.475917 -2.4281194 -2.4254227 96.93763
7750000000 -1.741518 148.70471 -12.447001 -2.5892806 -12.446835 -2.5812457 -2.4361899 96.533241
7780000000 -1.7412877 148.6093 -12.418341 -2.7244368 -12.41751 -2.6844425 -2.44204 96.120438
7810000000 -1.7480965 148.49948 -12.393394 -2.8466907 -12.387562 -2.8257308 -2.4410477 95.809319
7840000000 -1.7487926 148.32349 -12.362501 -2.9844158 -12.36043 -2.9665654 -2.4533274 95.454453
7870000000 -1.7509286 148.2252 -12.33478 -3.1079571 -12.331675 -3.1021242 -2.4527593 95.000565
7900000000 -1.7592005 148.11877 -12.303038 -3.2277911 -12.301048 -3.216418 -2.456821 94.688988
7930000000 -1.7615544 147.95464 -12.274814 -3.3732898 -12.271595 -3.3636761 -2.4685264 94.337906
7960000000 -1.7625731 147.83704 -12.247386 -3.4953377 -12.245956 -3.4872282 -2.4672081 93.907883
7990000000 -1.7722206 147.71103 -12.219124 -3.6209424 -12.216981 -3.6088078 -2.4661958 93.579338
8020000000 -1.7754506 147.57518 -12.187108 -3.774929 -12.185352 -3.7567816 -2.4815841 93.181572
8050000000 -1.7750182 147.4791 -12.158992 -3.8969231 -12.157479 -3.9029148 -2.4809287 92.750984
8080000000 -1.7835157 147.33412 -12.13345 -4.0361571 -12.131081 -4.0131288 -2.4783506 92.454659
8110000000 -1.7860862 147.18265 -12.101248 -4.1889777 -12.09666 -4.1545334 -2.4907298 92.060471
8140000000 -1.7874706 147.0889 -12.070299 -4.3274045 -12.07056 -4.3056931 -2.497123 91.612854
8170000000 -1.7918046 146.95699 -12.043387 -4.4506855 -12.040555 -4.4261398 -2.4955227 91.316483
8200000000 -1.7920446 146.80444 -12.01359 -4.6025891 -12.010585 -4.5734706 -2.5076153 90.94735
8230000000 -1.7957584 146.7057 -11.986575 -4.7432265 -11.98285 -4.7170534 -2.5077462 90.451988
8260000000 -1.8042573 146.56845 -11.956796 -4.8749795 -11.95268 -4.8557534 -2.5104952 90.166138
8290000000 -1.8025249 146.41118 -11.926592 -5.036963 -11.925216 -5.0071559 -2.5260463 89.797073
8320000000 -1.804364 146.28932 -11.900231 -5.1642833 -11.897543 -5.1538386 -2.5227029 89.315338
8350000000 -1.8148324 146.13515 -11.872001 -5.2999077 -11.869035 -5.3011413 -2.5212395 89.011421
8380000000 -1.8149724 146.00755 -11.840497 -5.4625959 -11.839303 -5.4414225 -2.5434279 88.624268
8410000000 -1.8176384 145.90729 -11.814519 -5.6155658 -11.811588 -5.603704 -2.5431411 88.159256
8440000000 -1.8258095 145.74858 -11.785043 -5.747541 -11.782974 -5.7325377 -2.5372672 87.895393
8470000000 -1.8294828 145.61491 -11.755957 -5.9111032 -11.753466 -5.9049301 -2.5611117 87.479141
8500000000 -1.8330928 145.53902 -11.731734 -6.0917797 -11.729051 -6.0714579 -2.5603199 86.99469
8530000000 -1.8376837 145.38336 -11.70596 -6.2238817 -11.702278 -6.2179322 -2.5556626 86.778427
8560000000 -1.8350993 145.22626 -11.679245 -6.3553786 -11.67823 -6.3533792 -2.5703483 86.339813
8590000000 -1.8375386 145.1301 -11.65262 -6.4923306 -11.648904 -6.4693155 -2.5703785 85.86322
8620000000 -1.8458953 144.98991 -11.622693 -6.6265397 -11.621422 -6.6120687 -2.5699968 85.598373
8650000000 -1.8436923 144.83556 -11.593889 -6.7605472 -11.590999 -6.7462583 -2.5848248 85.216797
8680000000 -1.8488046 144.72064 -11.562338 -6.9118071 -11.563099 -6.9073248 -2.5786791 84.724724
8710000000 -1.8597594 144.55881 -11.536119 -7.0613198 -11.535179 -7.047286 -2.581023 84.447121
8740000000 -1.8582494 144.43182 -11.506216 -7.2219758 -11.502446 -7.2144709 -2.5985734 84.032684
8770000000 -1.8599608 144.3306 -11.480691 -7.3934312 -11.47706 -7.3579569 -2.5936906 83.555305
8800000000 -1.8702016 144.15874 -11.45274 -7.51265 -11.449902 -7.4803381 -2.5892456 83.263741
8830000000 -1.8712294 144.03349 -11.423261 -7.6538587 -11.420856 -7.6387453 -2.6121578 82.837448
8860000000 -1.8742602 143.94948 -11.393579 -7.8162365 -11.394135 -7.7991772 -2.6089559 82.345711
8890000000 -1.8796728 143.79716 -11.364978 -7.9461322 -11.362138 -7.9441428 -2.6069548 82.108963
8920000000 -1.8821776 143.63959 -11.331912 -8.125906 -11.327915 -8.1076565 -2.6233521 81.659012
8950000000 -1.8873086 143.54057 -11.304076 -8.303647 -11.302304 -8.2778282 -2.6210413 81.14315
8980000000 -1.8912359 143.39806 -11.276915 -8.4404774 -11.27452 -8.4338226 -2.6217706 80.945511
9010000000 -1.8900354 143.27971 -11.248262 -8.6095924 -11.245369 -8.5955353 -2.6416306 80.49572
9040000000 -1.8943484 143.16957 -11.223303 -8.7734375 -11.219352 -8.7560434 -2.6328371 79.99427
9070000000 -1.901794 143.02528 -11.195556 -8.9095182 -11.192539 -8.9024372 -2.6344013 79.74501
9100000000 -1.9014189 142.91205 -11.162408 -9.082859 -11.159797 -9.0700855 -2.6530144 79.286324
9130000000 -1.9051439 142.78331 -11.137886 -9.2379284 -11.135061 -9.2288523 -2.6385198 78.831581
9160000000 -1.9104215 142.61058 -11.110715 -9.3975229 -11.10732 -9.384263 -2.6417811 78.515594
9190000000 -1.9092991 142.50723 -11.078938 -9.5783882 -11.077682 -9.5524359 -2.6649528 78.060471
9220000000 -1.9128336 142.42076 -11.054976 -9.7362394 -11.051498 -9.7174234 -2.6548722 77.565186
9250000000 -1.9177235 142.25507 -11.02671 -9.8750582 -11.021801 -9.8557444 -2.6547277 77.326622
9280000000 -1.9176749 142.12953 -10.993871 -10.060479 -10.993773 -10.037658 -2.6796849 76.787155
9310000000 -1.9248307 142.0127 -10.967348 -10.222244 -10.964346 -10.205782 -2.6741705 76.318878
9340000000 -1.9279108 141.83621 -10.937027 -10.362951 -10.935132 -10.342123 -2.6759894 76.126465
9370000000 -1.9259332 141.72314 -10.908673 -10.541898 -10.906572 -10.539555 -2.6956468 75.593201
9400000000 -1.9341867 141.61192 -10.886048 -10.70834 -10.881047 -10.698192 -2.6852462 75.11216
9430000000 -1.9391344 141.45538 -10.854914 -10.848255 -10.851948 -10.842788 -2.6933336 74.864006
9460000000 -1.9384507 141.34181 -10.822568 -11.037133 -10.821209 -11.012691 -2.7140081 74.423485
9490000000 -1.9477887 141.21637 -10.797118 -11.205761 -10.794944 -11.195965 -2.6993597 73.917458
9520000000 -1.9523028 141.06822 -10.766252 -11.367783 -10.765296 -11.342888 -2.7080014 73.643349
9550000000 -1.9511838 140.96455 -10.737834 -11.569853 -10.736506 -11.54605 -2.7346671 73.154396
9580000000 -1.9557493 140.85503 -10.717249 -11.740837 -10.713659 -11.71497 -2.7211244 72.717255
9610000000 -1.956447 140.70601 -10.686632 -11.877498 -10.68372 -11.868292 -2.7183664 72.452553
9640000000 -1.9562126 140.60849 -10.657258 -12.058983 -10.654318 -12.027101 -2.7438669 71.941628
9670000000 -1.9645247 140.49612 -10.627438 -12.244602 -10.626578 -12.216383 -2.7355559 71.483711
9700000000 -1.9666767 140.30392 -10.598989 -12.391338 -10.594794 -12.375033 -2.7356935 71.245697
9730000000 -1.9690497 140.18199 -10.569537 -12.604162 -10.565663 -12.571348 -2.7538815 70.698296
9760000000 -1.9735227 140.06886 -10.545604 -12.773492 -10.541517 -12.762816 -2.7454073 70.243393
9790000000 -1.9767857 139.89954 -10.517216 -12.940969 -10.515698 -12.916495 -2.7576694 69.995476
9820000000 -1.979067 139.78308 -10.488451 -13.127197 -10.48585 -13.10373 -2.7698522 69.488785
9850000000 -1.9880284 139.65202 -10.464989 -13.2963 -10.463608 -13.287791 -2.7548318 69.001053
9880000000 -1.9916434 139.50854 -10.439254 -13.467248 -10.43494 -13.445064 -2.7645109 68.707329
9910000000 -1.9922224 139.39331 -10.407902 -13.64837 -10.405198 -13.626657 -2.7889595 68.222771
9940000000 -2.0020418 139.25334 -10.383249 -13.82328 -10.381732 -13.80943 -2.7676578 67.776138
9970000000 -2.0052266 139.10751 -10.352118 -13.967365 -10.347276 -13.954069 -2.7780871 67.462151
10000000000 -2.0084801 139.0262 -10.321418 -14.14955 -10.317469 -14.140771 -2.8002241 66.922325
10030000000 -2.0163362 138.88354 -10.296491 -14.357936 -10.294004 -14.313535 -2.7919967 66.509422
10060000000 -2.0196393 138.70648 -10.267218 -14.51611 -10.265775 -14.49228 -2.7946305 66.238197
10090000000 -2.0233574 138.61125 -10.236259 -14.707496 -10.234823 -14.691361 -2.8107331 65.680496
10120000000 -2.0312917 138.47491 -10.209879 -14.914705 -10.208854 -14.878495 -2.8008125 65.220398
10150000000 -2.0313289 138.32085 -10.180871 -15.077527 -10.178515 -15.061153 -2.8115115 64.991814
10180000000 -2.036159 138.20341 -10.152551 -15.269769 -10.148982 -15.265955 -2.8259978 64.458557
10210000000 -2.0454323 138.08455 -10.129146 -15.493333 -10.125283 -15.458998 -2.8087571 63.96656
10240000000 -2.0464215 137.94293 -10.1015 -15.664636 -10.09831 -15.65067 -2.82533 63.630966
10270000000 -2.0501993 137.82747 -10.073212 -15.889271 -10.071849 -15.856664 -2.8415978 63.164154
10300000000 -2.060118 137.69339 -10.054407 -16.067083 -10.050456 -16.068153 -2.8212409 62.693951
10330000000 -2.0622635 137.55928 -10.026719 -16.246279 -10.02691 -16.226946 -2.8304174 62.375126
10360000000 -2.0621762 137.47917 -10.00307 -16.423048 -10.000209 -16.408947 -2.852972 61.798801
10390000000 -2.0718691 137.30292 -9.9801617 -16.602757 -9.9777937 -16.575035 -2.8436081 61.422848
10420000000 -2.0747046 137.15132 -9.950243 -16.748941 -9.9506788 -16.725546 -2.8444123 61.099613
10450000000 -2.0811689 137.05782 -9.9237757 -16.933231 -9.9236107 -16.911049 -2.8611732 60.522137
10480000000 -2.0829735 136.90976 -9.8996382 -17.088072 -9.8961391 -17.082506 -2.8600278 60.077362
10510000000 -2.0877366 136.74336 -9.8667183 -17.261131 -9.8640404 -17.253782 -2.8684473 59.795944
10540000000 -2.0950429 136.62415 -9.8372412 -17.459459 -9.8324728 -17.437773 -2.8757644 59.287128
10570000000 -2.1044161 136.49358 -9.8111582 -17.657532 -9.8110838 -17.641605 -2.8679724 58.77026
10600000000 -2.1073496 136.35342 -9.7844486 -17.819736 -9.7817335 -17.812057 -2.8862517 58.47036
10630000000 -2.1128578 136.23315 -9.7585897 -18.009609 -9.7563848 -17.993563 -2.8987203 57.964703
10660000000 -2.1239586 136.06952 -9.7318897 -18.206221 -9.7298574 -18.170595 -2.8830001 57.541988
10690000000 -2.1269383 135.9463 -9.7039833 -18.397184 -9.6994095 -18.374113 -2.8946764 57.148201
10720000000 -2.128855 135.8237 -9.673996 -18.57091 -9.6704359 -18.558418 -2.9141021 56.634773
10750000000 -2.1393824 135.65138 -9.648632 -18.774605 -9.6481733 -18.750942 -2.9061098 56.229527
10780000000 -2.1483629 135.52934 -9.6194229 -18.950577 -9.6175919 -18.92576 -2.9086514 55.91135
10810000000 -2.1535017 135.43204 -9.5912094 -19.163069 -9.5886497 -19.136005 -2.9220033 55.326485
10840000000 -2.1554296 135.27634 -9.566143 -19.358751 -9.5626736 -19.344481 -2.9268289 54.920662
10870000000 -2.1614587 135.12553 -9.5366163 -19.528055 -9.5371618 -19.513124 -2.9344494 54.608669
10900000000 -2.1693773 135.0309 -9.5116577 -19.737404 -9.5093317 -19.717445 -2.9339797 54.082745
10930000000 -2.1744053 134.90591 -9.4873714 -19.923029 -9.48421 -19.904673 -2.931473 53.621605
10960000000 -2.1743622 134.75423 -9.4578428 -20.102272 -9.4564323 -20.080328 -2.9489715 53.287842
10990000000 -2.1813705 134.60397 -9.4305563 -20.315046 -9.4289627 -20.274824 -2.954874 52.801125
11020000000 -2.1901755 134.47115 -9.4035568 -20.480919 -9.4016905 -20.459238 -2.9403193 52.364128
11050000000 -2.1927073 134.35275 -9.3750181 -20.671869 -9.3711824 -20.649015 -2.9553509 51.98447
11080000000 -2.1949861 134.21527 -9.3489132 -20.879196 -9.3451605 -20.844265 -2.969892 51.455105
11110000000 -2.2044444 134.03508 -9.3224983 -21.079725 -9.3171196 -21.034769 -2.9642577 51.083405
11140000000 -2.2122028 133.89795 -9.2902613 -21.261456 -9.2876072 -21.231222 -2.9622428 50.707844
11170000000 -2.2163041 133.78763 -9.261692 -21.467556 -9.2595806 -21.44249 -2.9742212 50.119572
11200000000 -2.2228246 133.60538 -9.2363634 -21.686586 -9.2327175 -21.655075 -2.9791377 49.772797
11230000000 -2.2311192 133.41772 -9.2081089 -21.879656 -9.2076855 -21.863895 -2.9771447 49.415485
11260000000 -2.2390878 133.30325 -9.1829395 -22.082201 -9.1802454 -22.061054 -2.983881 48.841137
11290000000 -2.2439382 133.16953 -9.1551876 -22.285639 -9.1531763 -22.274805 -2.9840391 48.369473
11320000000 -2.2468925 133.00398 -9.1297007 -22.480068 -9.1256847 -22.465525 -2.9993222 48.065994
11350000000 -2.2559149 132.86333 -9.1011324 -22.694038 -9.0973196 -22.678055 -3.0004749 47.558163
11380000000 -2.2655144 132.7408 -9.0766392 -22.900852 -9.0739441 -22.87678 -2.9964745 47.098694
11410000000 -2.2700219 132.63852 -9.0508108 -23.102579 -9.0472479 -23.082132 -3.0080791 46.659355
11440000000 -2.275522 132.49954 -9.0262423 -23.29896 -9.023365 -23.296406 -3.0184066 46.180935
11470000000 -2.2839634 132.33963 -9.0020828 -23.500011 -8.9988899 -23.475283 -3.0099962 45.80011
11500000000 -2.2921782 132.20825 -8.975565 -23.665674 -8.9744968 -23.651768 -3.0150943 45.367939
11530000000 -2.2947135 132.09721 -8.9506721 -23.875912 -8.9480944 -23.843874 -3.0317621 44.811615
11560000000 -2.300637 131.92911 -8.921792 -24.045542 -8.9202328 -24.034233 -3.0360773 44.437607
11590000000 -2.3090544 131.75839 -8.8951883 -24.236389 -8.8922825 -24.227383 -3.0336618 44.013855
11620000000 -2.3165481 131.66643 -8.8650751 -24.427845 -8.8635492 -24.413418 -3.0387316 43.534782
11650000000 -2.3202426 131.5184 -8.8362541 -24.6234 -8.8352299 -24.603487 -3.0479791 43.072189
11680000000 -2.3273933 131.36156 -8.8072491 -24.817209 -8.8066015 -24.804836 -3.0586078 42.68047
11710000000 -2.3303044 131.23055 -8.7801762 -25.00971 -8.7772188 -25.000326 -3.055599 42.226559
11740000000 -2.3390815 131.13635 -8.7497978 -25.215157 -8.7463884 -25.200405 -3.0554178 41.757236
11770000000 -2.3426754 130.98717 -8.7196722 -25.409723 -8.7157269 -25.392513 -3.0671668 41.376434
11800000000 -2.3462462 130.85626 -8.6889982 -25.63546 -8.6863184 -25.601376 -3.0825915 40.909832
11830000000 -2.3558185 130.70963 -8.6596069 -25.836952 -8.658185 -25.829222 -3.0754704 40.482281
11860000000 -2.3605759 130.55446 -8.6292715 -26.057344 -8.6285877 -26.037165 -3.0753963 39.972862
11890000000 -2.3616362 130.44719 -8.6020422 -26.263477 -8.6005917 -26.251196 -3.0899243 39.521091
11920000000 -2.3682101 130.27681 -8.5724869 -26.467379 -8.5699692 -26.452854 -3.0925939 39.139118
11950000000 -2.3718958 130.13484 -8.5436525 -26.681942 -8.5415592 -26.663719 -3.0928724 38.726822
11980000000 -2.3761778 130.0248 -8.5130987 -26.915976 -8.5101204 -26.899448 -3.0980914 38.183548
12010000000 -2.3832738 129.87227 -8.4844904 -27.157482 -8.4815817 -27.144243 -3.1051836 37.730503
12040000000 -2.3852906 129.71346 -8.4564247 -27.359793 -8.4543505 -27.344454 -3.1095839 37.376751
12070000000 -2.3905385 129.60445 -8.4283171 -27.594933 -8.425436 -27.569502 -3.1127598 36.931084
12100000000 -2.4007189 129.48917 -8.4014235 -27.827015 -8.3968239 -27.815327 -3.1174731 36.397686
12130000000 -2.4036412 129.31989 -8.3733454 -28.052101 -8.3707657 -28.038036 -3.1203737 35.964851
12160000000 -2.4044302 129.18306 -8.3460264 -28.277567 -8.3414574 -28.271763 -3.1274347 35.548595
12190000000 -2.4163816 129.05315 -8.3157711 -28.493877 -8.3148527 -28.48205 -3.1235976 35.143246
12220000000 -2.417556 128.91216 -8.2886353 -28.728155 -8.2869072 -28.705708 -3.1262858 34.610142
12250000000 -2.418999 128.80302 -8.259861 -28.954971 -8.2566042 -28.95112 -3.1403232 34.136127
12280000000 -2.4334536 128.62791 -8.2336378 -29.195009 -8.2329674 -29.185999 -3.1370618 33.723633
12310000000 -2.4360838 128.46704 -8.2082901 -29.430275 -8.2050247 -29.410809 -3.130717 33.302612
12340000000 -2.4357305 128.38327 -8.1788578 -29.644472 -8.1766949 -29.634258 -3.1416953 32.809093
12370000000 -2.4459667 128.21324 -8.1529322 -29.88916 -8.1492262 -29.879923 -3.1575127 32.340145
12400000000 -2.4478512 128.03616 -8.1279459 -30.11833 -8.1246109 -30.100025 -3.1490698 31.88525
12430000000 -2.4487672 127.947 -8.1002769 -30.352709 -8.0971737 -30.328602 -3.147402 31.445095
12460000000 -2.4584808 127.80735 -8.0753889 -30.566364 -8.0709333 -30.553686 -3.1606414 30.918285
12490000000 -2.458467 127.61946 -8.0467434 -30.812933 -8.0449457 -30.786081 -3.1630185 30.477493
12520000000 -2.4628103 127.53143 -8.0182953 -31.04446 -8.0149517 -31.020733 -3.1673844 30.046164
12550000000 -2.4735589 127.3679 -7.988699 -31.282553 -7.9865479 -31.263176 -3.1699216 29.553782
12580000000 -2.4735548 127.19098 -7.9654951 -31.506769 -7.9630041 -31.484928 -3.1711149 29.04039
12610000000 -2.4754024 127.08691 -7.9360876 -31.743591 -7.9334922 -31.716469 -3.185338 28.6411
12640000000 -2.4902115 126.93013 -7.9102798 -31.994215 -7.9066982 -31.974739 -3.1900942 28.18058
12670000000 -2.4914463 126.76131 -7.8831072 -32.232792 -7.8806057 -32.219509 -3.1810367 27.668945
12700000000 -2.4935966 126.63496 -7.8556108 -32.475571 -7.8534393 -32.457996 -3.1939907 27.2316
12730000000 -2.5038259 126.48084 -7.8315592 -32.72961 -7.8285842 -32.703163 -3.2076833 26.801918
12760000000 -2.5077639 126.31944 -7.8059554 -32.974327 -7.8029008 -32.951237 -3.1990967 26.290886
12790000000 -2.5106091 126.19773 -7.7791429 -33.218395 -7.7778587 -33.196747 -3.2040401 25.934855
12820000000 -2.5239785 126.03254 -7.7565165 -33.457146 -7.7563224 -33.4501 -3.2097135 25.332479
12850000000 -2.52686 125.8673 -7.7346535 -33.687492 -7.7339678 -33.67165 -3.2106731 24.909517
12880000000 -2.5306814 125.77908 -7.7050605 -33.916531 -7.7040625 -33.891224 -3.2175117 24.60442
12910000000 -2.5426636 125.60471 -7.6810622 -34.156288 -7.680707 -34.137886 -3.2137842 23.948309
12940000000 -2.5442045 125.41916 -7.6595163 -34.389465 -7.6582246 -34.376377 -3.2177825 23.51531
12970000000 -2.5499022 125.31171 -7.633533 -34.621208 -7.6305594 -34.604374 -3.2271788 23.129166
13000000000 -2.5606289 125.14965 -7.6077781 -34.865799 -7.6058235 -34.851425 -3.2341943 22.589737
13030000000 -2.5611031 125.00476 -7.5851173 -35.095985 -7.5846925 -35.066605 -3.2207828 22.119307
13060000000 -2.5698574 124.86275 -7.5581269 -35.317692 -7.5561275 -35.286007 -3.2348344 21.664543
13090000000 -2.5809278 124.70759 -7.5311694 -35.540443 -7.5285525 -35.513878 -3.2519257 21.126404
13120000000 -2.5801399 124.55309 -7.5068445 -35.773579 -7.5053267 -35.748886 -3.2377319 20.760038
13150000000 -2.5858376 124.44493 -7.4782124 -35.992802 -7.4758363 -35.969147 -3.2389841 20.296041
13180000000 -2.5959561 124.24997 -7.4506793 -36.247917 -7.4478803 -36.217293 -3.2670083 19.698723
13210000000 -2.5971191 124.0918 -7.4263992 -36.479866 -7.4241257 -36.465557 -3.2497761 19.316843
13240000000 -2.6078594 123.98718 -7.3970757 -36.717449 -7.3945265 -36.705711 -3.2582531 18.96348
13270000000 -2.6174476 123.77274 -7.371788 -36.97578 -7.3695359 -36.956135 -3.2634401 18.30867
13300000000 -2.6154816 123.59772 -7.3472619 -37.227711 -7.3447733 -37.200638 -3.257303 17.858974
13330000000 -2.6287203 123.4947 -7.3161607 -37.473755 -7.3141427 -37.44886 -3.2835407 17.563957
13360000000 -2.6396503 123.29527 -7.2921495 -37.727783 -7.2914171 -37.709507 -3.2679644 16.927385
13390000000 -2.6364975 123.13076 -7.2705159 -37.960087 -7.2692709 -37.944176 -3.2627978 16.49757
13420000000 -2.6470864 122.99747 -7.2423077 -38.21946 -7.2374568 -38.19199 -3.2852011 16.0695
13450000000 -2.6619964 122.8167 -7.2155318 -38.476185 -7.2129207 -38.453857 -3.3007686 15.547992
13480000000 -2.663332 122.66229 -7.1943688 -38.722141 -7.1933947 -38.696369 -3.2658308 15.12541
13510000000 -2.6744735 122.52206 -7.1657453 -38.954826 -7.1632872 -38.938438 -3.299438 14.67647
13540000000 -2.6847403 122.29938 -7.1438866 -39.207291 -7.1424594 -39.183567 -3.3028531 14.035678
13570000000 -2.6889126 122.1498 -7.1218081 -39.454906 -7.1188235 -39.432812 -3.2917511 13.745807
13600000000 -2.6973548 122.03341 -7.090075 -39.707649 -7.0883555 -39.672825 -3.3052833 13.362372
13630000000 -2.7063415 121.8325 -7.0691004 -39.97113 -7.0671496 -39.960312 -3.31106 12.609413
13660000000 -2.7120008 121.67822 -7.0450325 -40.203098 -7.0449166 -40.180504 -3.3008893 12.265813
13690000000 -2.7278488 121.53407 -7.0165753 -40.47131 -7.0151882 -40.436756 -3.3318763 11.956019
13720000000 -2.7375674 121.34047 -6.9959626 -40.717598 -6.995008 -40.689789 -3.3204365 11.255387
13750000000 -2.7386878 121.1706 -6.9728646 -40.952282 -6.9705615 -40.928558 -3.3120036 10.8084
13780000000 -2.7547176 121.05621 -6.9443631 -41.201641 -6.9443669 -41.162327 -3.3417537 10.461522
13810000000 -2.7668936 120.86668 -6.9205241 -41.439747 -6.9187403 -41.434788 -3.3450043 9.8317652
13840000000 -2.7673998 120.70757 -6.8974404 -41.689388 -6.8963585 -41.65617 -3.3146737 9.5154581
13870000000 -2.7839675 120.56257 -6.8685675 -41.963135 -6.8666139 -41.934757 -3.3520675 9.0464506
13900000000 -2.7939236 120.33955 -6.8465295 -42.228424 -6.8432226 -42.195034 -3.3579578 8.3728952
13930000000 -2.7948344 120.22923 -6.8206778 -42.45443 -6.8198471 -42.421844 -3.339838 8.1183033
13960000000 -2.8132665 120.08617 -6.7939105 -42.712475 -6.7909627 -42.687035 -3.3598168 7.6976166
13990000000 -2.8140655 119.87943 -6.7703862 -42.982037 -6.7702546 -42.950768 -3.363235 6.9245019
14020000000 -2.8187177 119.76861 -6.747293 -43.224072 -6.7465448 -43.195686 -3.3602488 6.6504884
14050000000 -2.8399568 119.61415 -6.7196655 -43.468864 -6.7188659 -43.454601 -3.3836291 6.2987833
14080000000 -2.8425925 119.41547 -6.6978827 -43.746067 -6.6941681 -43.709763 -3.3784084 5.5568161
14110000000 -2.8460188 119.25707 -6.6744108 -43.982315 -6.6728516 -43.955112 -3.3643022 5.1986079
14140000000 -2.8654885 119.10909 -6.6466045 -44.237614 -6.6467967 -44.204628 -3.4088719 4.7899623
14170000000 -2.8700352 118.90298 -6.6225157 -44.493313 -6.6189494 -44.474583 -3.3988562 4.2083035
14200000000 -2.8716319 118.78059 -6.5977097 -44.736107 -6.5960641 -44.723457 -3.3745372 3.8796883
14230000000 -2.8918612 118.617 -6.5689735 -45.012863 -6.5673976 -44.983284 -3.418613 3.398349
14260000000 -2.898422 118.39658 -6.5462861 -45.295971 -6.5462241 -45.267277 -3.4201002 2.7251329
14290000000 -2.9057043 118.26225 -6.522306 -45.546768 -6.5199366 -45.519703 -3.3976586 2.5564907
14320000000 -2.9266114 118.1028 -6.4961791 -45.832413 -6.4943128 -45.797165 -3.4286654 1.9902736
14350000000 -2.9267495 117.90305 -6.4779634 -46.096783 -6.4760604 -46.074081 -3.4190445 1.309134
14380000000 -2.9345958 117.78489 -6.4577565 -46.346783 -6.4551125 -46.318348 -3.4197986 1.0841579
14410000000 -2.9560053 117.6226 -6.4310932 -46.605988 -6.4296374 -46.569359 -3.4411447 0.70170033
14440000000 -2.9533434 117.43384 -6.4106936 -46.860962 -6.4082918 -46.835297 -3.4293244 -0.069692746
14470000000 -2.955266 117.28754 -6.3879342 -47.113167 -6.385428 -47.085434 -3.4187946 -0.40358514
14500000000 -2.9746196 117.13072 -6.3604407 -47.343311 -6.3588996 -47.332325 -3.4618134 -0.83400983
14530000000 -2.9785538 116.90059 -6.3375807 -47.623402 -6.3354187 -47.587627 -3.4436078 -1.4467751
14560000000 -2.9845531 116.76627 -6.3151412 -47.854546 -6.3099723 -47.833012 -3.423846 -1.7508044
14590000000 -3.0027943 116.57894 -6.2863474 -48.132885 -6.2854834 -48.095016 -3.4728107 -2.364877
14620000000 -3.0026155 116.35737 -6.2644725 -48.376476 -6.2612715 -48.364063 -3.4689784 -2.9666529
14650000000 -3.0146966 116.23505 -6.2392178 -48.626339 -6.236836 -48.592758 -3.4447732 -3.1512115
14680000000 -3.0318456 116.05065 -6.210187 -48.894707 -6.2084794 -48.871696 -3.4781778 -3.7427814
14710000000 -3.0323412 115.82948 -6.1883354 -49.161148 -6.1847472 -49.144142 -3.4805562 -4.4853387
14740000000 -3.0440073 115.66927 -6.1631641 -49.423607 -6.1624961 -49.398987 -3.4705524 -4.6403337
14770000000 -3.0640318 115.51485 -6.1356659 -49.690239 -6.1331582 -49.67104 -3.5063922 -5.1129675
14800000000 -3.0643775 115.32352 -6.1137681 -49.982681 -6.1112108 -49.958538 -3.4773808 -5.9011192
14830000000 -3.0734329 115.15324 -6.0896525 -50.247566 -6.0890045 -50.215794 -3.4914091 -6.1150665
14860000000 -3.0936198 114.96837 -6.0604162 -50.512852 -6.05795 -50.473763 -3.5299563 -6.6081252
14890000000 -3.0951192 114.75886 -6.0385213 -50.802498 -6.0372281 -50.776463 -3.5046928 -7.2547007
14920000000 -3.1070232 114.64864 -6.0158072 -51.066689 -6.0141706 -51.047249 -3.4969919 -7.5581012
14950000000 -3.1254196 114.44253 -5.9928312 -51.355255 -5.9880958 -51.327618 -3.5501175 -8.1316872
14980000000 -3.1273215 114.22218 -5.9722638 -51.643639 -5.970139 -51.616066 -3.5331049 -8.6400003
15010000000 -3.1422839 114.09959 -5.9495697 -51.896107 -5.9488249 -51.878712 -3.5189235 -8.8963614
15040000000 -3.1570792 113.90192 -5.9295888 -52.179131 -5.9262395 -52.141518 -3.5498633 -9.5276957
15070000000 -3.1550817 113.70018 -5.9052224 -52.428108 -5.9042811 -52.402206 -3.5463586 -10.125968
15100000000 -3.1704729 113.5314 -5.884263 -52.676624 -5.8824081 -52.638996 -3.5357163 -10.347658
15130000000 -3.1873944 113.33807 -5.8554978 -52.94212 -5.8528957 -52.920757 -3.5696476 -10.871785
15160000000 -3.1907175 113.13751 -5.8345356 -53.215408 -5.8326077 -53.174183 -3.5365739 -11.597495
15190000000 -3.1998205 112.96929 -5.8111091 -53.474968 -5.8096976 -53.433788 -3.561636 -11.844867
15220000000 -3.2204003 112.7346 -5.7845039 -53.741928 -5.7801332 -53.701103 -3.5878844 -12.343806
15250000000 -3.223686 112.54555 -5.7626419 -54.019043 -5.7601857 -53.976112 -3.5584075 -12.962667
15280000000 -3.2376354 112.41372 -5.7386436 -54.27346 -5.735054 -54.236771 -3.5609114 -13.312481
15310000000 -3.2514644 112.18456 -5.7099009 -54.548229 -5.7079716 -54.527802 -3.6112177 -13.949734
15340000000 -3.2577863 111.98237 -5.6894646 -54.822674 -5.6873565 -54.795361 -3.5880642 -14.368731
15370000000 -3.2773182 111.82159 -5.6625595 -55.113544 -5.6641021 -55.070095 -3.5799012 -14.725249
15400000000 -3.2924345 111.63771 -5.6377072 -55.394409 -5.6360087 -55.367119 -3.6191816 -15.400105
15430000000 -3.2953467 111.42882 -5.6190014 -55.676853 -5.6141663 -55.651669 -3.6113374 -15.89202
15460000000 -3.3115807 111.26942 -5.5979681 -55.921692 -5.5951495 -55.897812 -3.6077735 -16.143253
15490000000 -3.3288631 111.08433 -5.5734577 -56.215755 -5.5719814 -56.18536 -3.6350214 -16.722548
15520000000 -3.3314121 110.89337 -5.5539007 -56.463963 -5.5522985 -56.445004 -3.6115577 -17.368368
15550000000 -3.3362923 110.73486 -5.5297494 -56.722538 -5.5277038 -56.687809 -3.636075 -17.590084
15580000000 -3.3605702 110.51526 -5.5031004 -56.987213 -5.50002 -56.979477 -3.6579564 -18.196072
15610000000 -3.3667448 110.28913 -5.4813619 -57.260246 -5.4783988 -57.230156 -3.6210694 -18.766088
15640000000 -3.377671 110.13146 -5.4550815 -57.534729 -5.4551592 -57.493256 -3.6455884 -19.102255
15670000000 -3.3892164 109.90334 -5.4278917 -57.811131 -5.4260287 -57.785271 -3.6776106 -19.723661
15700000000 -3.4033692 109.66415 -5.4055281 -58.083794 -5.404716 -58.064114 -3.6572111 -20.152374
15730000000 -3.4164572 109.50739 -5.3815889 -58.335999 -5.3790889 -58.32576 -3.654186 -20.544374
15760000000 -3.4324713 109.33105 -5.3552704 -58.64011 -5.3540711 -58.614635 -3.6923184 -21.193079
15790000000 -3.4389362 109.08346 -5.3346171 -58.920258 -5.3331976 -58.890327 -3.6801934 -21.693596
15820000000 -3.4592474 108.91262 -5.3103848 -59.164383 -5.3086119 -59.140408 -3.6902575 -21.912485
15850000000 -3.475518 108.73043 -5.2835302 -59.461708 -5.2818146 -59.434593 -3.6989164 -22.626133
15880000000 -3.4829857 108.50792 -5.2615499 -59.741329 -5.2591591 -59.722778 -3.6971087 -23.175404
15910000000 -3.5009658 108.34959 -5.2380576 -60.000427 -5.237608 -59.974319 -3.7151716 -23.475674
15940000000 -3.5235157 108.13715 -5.2107968 -60.279774 -5.2091527 -60.259865 -3.7316151 -24.006294
15970000000 -3.5312073 107.92719 -5.1869431 -60.566402 -5.1860714 -60.539791 -3.7124376 -24.601429
16000000000 -3.548214 107.79128 -5.164444 -60.831017 -5.1640534 -60.798313 -3.7351682 -25.057833
16030000000 -3.5629919 107.55698 -5.1372147 -61.123745 -5.1348338 -61.10236 -3.7619863 -25.458231
16060000000 -3.5756259 107.35406 -5.1119428 -61.405212 -5.110466 -61.395191 -3.7463036 -26.08275
16090000000 -3.5935493 107.23251 -5.0903897 -61.67178 -5.0861588 -61.639233 -3.7496672 -26.392071
16120000000 -3.607893 107.03195 -5.0611386 -61.975937 -5.0579233 -61.949959 -3.7855709 -27.063654
16150000000 -3.6230576 106.79417 -5.0392184 -62.280945 -5.0370178 -62.244934 -3.7882588 -27.544777
16180000000 -3.643007 106.63828 -5.0148926 -62.529358 -5.0117245 -62.526108 -3.7880173 -27.821911
16210000000 -3.6552787 106.47893 -4.987649 -62.834133 -4.9840064 -62.813618 -3.8017805 -28.529392
16240000000 -3.6700706 106.24209 -4.9651403 -63.130444 -4.9640279 -63.107998 -3.8172982 -29.005093
16270000000 -3.6862948 106.09899 -4.9433074 -63.410583 -4.9426417 -63.385452 -3.8333931 -29.383465
16300000000 -3.7021544 105.92578 -4.9177542 -63.703468 -4.9150457 -63.661579 -3.8476608 -29.842484
16330000000 -3.7074523 105.74457 -4.8958201 -63.989174 -4.894258 -63.961159 -3.8399503 -30.448008
16360000000 -3.7202649 105.6095 -4.8740916 -64.250298 -4.8716178 -64.233749 -3.8622742 -30.890083
16390000000 -3.7384222 105.39994 -4.8463182 -64.536095 -4.8431001 -64.508003 -3.8967342 -31.252996
16420000000 -3.7517061 105.16714 -4.8219914 -64.818886 -4.8193812 -64.786934 -3.8742926 -31.800619
16450000000 -3.7598321 105.00638 -4.7969141 -65.08181 -4.7967229 -65.053635 -3.8799956 -32.254761
16480000000 -3.7758195 104.77166 -4.7689075 -65.359398 -4.7677298 -65.32914 -3.9203377 -32.810287
16510000000 -3.7867064 104.51842 -4.7439237 -65.65535 -4.7399354 -65.631645 -3.92047 -33.267956
16540000000 -3.8023744 104.38258 -4.7137699 -65.92321 -4.7116666 -65.889946 -3.906951 -33.618931
16570000000 -3.8180935 104.14336 -4.6838222 -66.22287 -4.6822081 -66.195587 -3.9356787 -34.254429
16600000000 -3.8313046 103.9018 -4.6605577 -66.540001 -4.6571746 -66.502327 -3.9560313 -34.822601
16630000000 -3.8502827 103.75512 -4.6332259 -66.836823 -4.6292701 -66.806961 -3.9599366 -35.150394
16660000000 -3.8753068 103.52713 -4.6035495 -67.139915 -4.6007624 -67.118477 -3.9628146 -35.5602
16690000000 -3.8865283 103.25496 -4.5803151 -67.470436 -4.5787382 -67.432816 -3.9768281 -36.361851
16720000000 -3.9002147 103.11462 -4.5541029 -67.761604 -4.5517073 -67.729218 -4.0011206 -36.699932
16750000000 -3.9290836 102.89214 -4.5254855 -68.065849 -4.5232434 -68.029289 -4.0256896 -37.037392
16780000000 -3.9429126 102.64633 -4.5022535 -68.402222 -4.4989824 -68.372963 -4.0100498 -37.730587
16810000000 -3.9549341 102.47881 -4.4790702 -68.694618 -4.478354 -68.676498 -4.0229564 -38.165798
16840000000 -3.9858282 102.21325 -4.4512768 -69.012993 -4.4476628 -68.979263 -4.0757251 -38.611675
16870000000 -3.9998612 101.96987 -4.4273629 -69.33445 -4.4276271 -69.2966 -4.0690346 -39.134212
16900000000 -4.0098414 101.8606 -4.4063072 -69.635658 -4.4055548 -69.601257 -4.0544977 -39.475552
16930000000 -4.035955 101.58511 -4.378489 -69.949478 -4.376956 -69.922287 -4.0997066 -40.094456
16960000000 -4.0531106 101.30972 -4.3579025 -70.260101 -4.3547668 -70.2314 -4.1193676 -40.628521
16990000000 -4.0716481 101.18692 -4.3305697 -70.541672 -4.3279724 -70.51899 -4.1114588 -40.899658
17020000000 -4.1005592 100.94326 -4.3034258 -70.868698 -4.3013358 -70.839378 -4.1252337 -41.404701
17050000000 -4.1121221 100.63172 -4.2821894 -71.188507 -4.2811079 -71.153572 -4.1406813 -42.226563
17080000000 -4.1365809 100.44112 -4.2551556 -71.462097 -4.2528877 -71.450439 -4.1500139 -42.414371
17110000000 -4.1733451 100.24096 -4.2266002 -71.793892 -4.2229948 -71.769737 -4.1856027 -42.842461
17140000000 -4.1773434 99.986122 -4.204145 -72.121361 -4.2025604 -72.101059 -4.1695042 -43.642513
17170000000 -4.2076211 99.80899 -4.1773982 -72.424965 -4.1778212 -72.403984 -4.1749792 -44.03661
17200000000 -4.2459631 99.500526 -4.1470466 -72.765785 -4.1464314 -72.733635 -4.2476072 -44.353611
17230000000 -4.2548428 99.28643 -4.1284499 -73.10331 -4.1280289 -73.078056 -4.2231078 -44.998619
17260000000 -4.2770076 99.175446 -4.1075277 -73.398331 -4.1056371 -73.374306 -4.2188597 -45.387897
17290000000 -4.3103304 98.815147 -4.0795398 -73.736008 -4.0769839 -73.699394 -4.2780447 -45.892761
17320000000 -4.3251367 98.580795 -4.0584893 -74.035934 -4.0559583 -74.009567 -4.2750239 -46.563644
17350000000 -4.3513942 98.473396 -4.0316935 -74.352585 -4.030859 -74.312256 -4.2708998 -46.712906
17380000000 -4.3808284 98.146103 -4.0035467 -74.669876 -4.0018201 -74.652527 -4.3027625 -47.323517
17410000000 -4.3938265 97.855072 -3.9831908 -74.994232 -3.9811344 -74.970329 -4.3138151 -48.142834
17440000000 -4.4328828 97.677742 -3.9547136 -75.329773 -3.9519594 -75.294014 -4.3277063 -48.323292
17470000000 -4.4689703 97.35305 -3.9261317 -75.650352 -3.9245145 -75.627937 -4.3546891 -48.69194
17500000000 -4.4678354 97.126961 -3.9061716 -75.977379 -3.9054694 -75.948341 -4.3429832 -49.607635
17530000000 -4.5077982 96.937317 -3.8819811 -76.294838 -3.8776743 -76.270164 -4.3651381 -49.926594
17560000000 -4.5576272 96.581764 -3.8517742 -76.638908 -3.8497362 -76.614975 -4.425777 -50.263821
17590000000 -4.5633769 96.374741 -3.8311515 -76.95327 -3.8289354 -76.93924 -4.396606 -50.997066
17620000000 -4.5947843 96.195999 -3.8090205 -77.290398 -3.804935 -77.267311 -4.3985186 -51.368263
17650000000 -4.6380472 95.762405 -3.7789798 -77.618546 -3.7754862 -77.588638 -4.4676709 -51.874928
17680000000 -4.6510682 95.569199 -3.7576513 -77.950195 -3.755662 -77.926453 -4.4657245 -52.629696
17710000000 -4.6933517 95.418991 -3.7337816 -78.273132 -3.7290304 -78.269608 -4.4579201 -52.702023
17740000000 -4.7236991 95.036163 -3.7052002 -78.634209 -3.7047825 -78.608734 -4.5051537 -53.43364
17770000000 -4.7406168 94.764786 -3.6843507 -78.947762 -3.6822779 -78.925255 -4.5175619 -54.240875
17800000000 -4.7965279 94.565857 -3.6588633 -79.289299 -3.6556754 -79.275612 -4.5236053 -54.244186
17830000000 -4.8380489 94.218544 -3.6335287 -79.655823 -3.6299269 -79.636284 -4.5737982 -54.828861
17860000000 -4.8424573 93.986519 -3.6145198 -79.971832 -3.6130712 -79.940216 -4.5471802 -55.733803
17890000000 -4.9020519 93.740242 -3.5955317 -80.316589 -3.5920186 -80.284622 -4.5828462 -55.858139
17920000000 -4.9517188 93.422188 -3.5669746 -80.646729 -3.5636761 -80.633308 -4.6472845 -56.375942
17950000000 -4.9678335 93.338097 -3.5513935 -80.958282 -3.5495884 -80.945297 -4.6097908 -57.179867
17980000000 -5.0105991 93.132759 -3.5303509 -81.237778 -3.5281844 -81.225143 -4.6230664 -57.410561
18010000000 -5.0524116 92.825104 -3.4999228 -81.557083 -3.4982166 -81.51281 -4.71348 -58.094208
18040000000 -5.0621176 92.71917 -3.4760232 -81.857819 -3.474417 -81.829201 -4.6943965 -58.772175
18070000000 -5.09657 92.55175 -3.4472389 -82.146194 -3.4431469 -82.108276 -4.6945868 -58.839088
18100000000 -5.1197567 92.160667 -3.4108536 -82.497749 -3.40922 -82.462166 -4.7808337 -59.667427
18130000000 -5.1274056 91.928795 -3.3849142 -82.834816 -3.3821189 -82.813881 -4.7732821 -60.426956
18160000000 -5.1845999 91.674728 -3.3535106 -83.173424 -3.349072 -83.136139 -4.7924447 -60.33147
18190000000 -5.2081575 91.3013 -3.3217254 -83.548424 -3.3199348 -83.537331 -4.8666043 -61.109184
18220000000 -5.215054 91.043732 -3.2966769 -83.87513 -3.2953217 -83.857262 -4.8311515 -61.867191
18250000000 -5.2790041 90.674576 -3.2660892 -84.255432 -3.2657228 -84.216019 -4.8738365 -62.030788
18280000000 -5.3104124 90.29129 -3.2388446 -84.61795 -3.2355402 -84.588951 -4.9707108 -62.557484
18310000000 -5.317874 90.133766 -3.2142901 -84.967896 -3.212348 -84.946503 -4.8989587 -63.282818
18340000000 -5.3780227 89.752335 -3.1867902 -85.330177 -3.1849546 -85.292496 -4.9461689 -63.404625
18370000000 -5.4191394 89.357178 -3.1567845 -85.726059 -3.1529362 -85.689522 -5.0606523 -64.306229
18400000000 -5.441998 89.204155 -3.1338806 -86.084167 -3.1329298 -86.067444 -5.0089135 -64.77494
18430000000 -5.5002947 88.853348 -3.1070049 -86.42437 -3.1024625 -86.392731 -5.0282173 -64.767906
18460000000 -5.5267196 88.408005 -3.0768361 -86.844589 -3.0772855 -86.800682 -5.1393123 -65.81601
18490000000 -5.5539222 88.265724 -3.0543723 -87.190521 -3.0522578 -87.157417 -5.0973344 -66.450592
18520000000 -5.6325426 87.974312 -3.0289731 -87.550926 -3.0272613 -87.519958 -5.1597195 -66.239159
18550000000 -5.6491351 87.585747 -3.0001836 -87.958 -3.0009151 -87.920441 -5.2202468 -67.189262
18580000000 -5.673336 87.459656 -2.9806044 -88.320656 -2.97875 -88.286797 -5.1779051 -68.010117
18610000000 -5.7557082 87.095436 -2.9525061 -88.681931 -2.9509807 -88.647568 -5.2721944 -67.946938
18640000000 -5.7740493 86.734856 -2.9250557 -89.053818 -2.9215472 -89.026428 -5.3252077 -68.647301
18670000000 -5.7989597 86.594864 -2.9014223 -89.429573 -2.900039 -89.399826 -5.2787971 -69.368057
18700000000 -5.8697906 86.146912 -2.8724313 -89.765892 -2.8693991 -89.756538 -5.3317609 -69.512337
18730000000 -5.9009657 85.761795 -2.8458483 -90.16185 -2.845917 -90.136429 -5.4652433 -70.362679
18760000000 -5.9256973 85.750244 -2.8231089 -90.545204 -2.8199353 -90.516594 -5.3786044 -70.872025
18790000000 -6.0067873 85.27446 -2.7903845 -90.899887 -2.7891672 -90.862869 -5.4461412 -70.886726
18820000000 -6.0236378 84.795601 -2.7650304 -91.294052 -2.7637427 -91.280594 -5.5440893 -72.097404
18850000000 -6.0713267 84.758217 -2.7426293 -91.68235 -2.7383711 -91.654739 -5.5168986 -72.514915
18880000000 -6.1500735 84.375923 -2.7107394 -92.061172 -2.707278 -92.019608 -5.5830183 -72.446594
18910000000 -6.1652665 83.933899 -2.6839335 -92.492844 -2.6807463 -92.454918 -5.6504126 -73.572678
18940000000 -6.2084379 83.801186 -2.6586413 -92.875809 -2.6545033 -92.84993 -5.6269722 -74.2649
18970000000 -6.3075414 83.315407 -2.6313291 -93.259674 -2.6285338 -93.230606 -5.7415009 -74.007324
19000000000 -6.3153396 82.980911 -2.6044931 -93.704231 -2.6026871 -93.674522 -5.7968073 -75.165901
19030000000 -6.3608894 82.859024 -2.5812242 -94.062134 -2.5773537 -94.043488 -5.7568793 -75.59433
19060000000 -6.4450994 82.370522 -2.554405 -94.480354 -2.5504613 -94.448387 -5.8524113 -75.883575
19090000000 -6.4642901 82.084412 -2.5247455 -94.863495 -2.5235462 -94.843307 -5.9624791 -76.628738
19120000000 -6.5114064 82.014542 -2.5050144 -95.277374 -2.5020783 -95.242828 -5.8932018 -77.15744
19150000000 -6.6041183 81.408485 -2.4749212 -95.694633 -2.4705837 -95.644203 -5.9831147 -77.167236
19180000000 -6.6385064 81.03891 -2.4497435 -96.092705 -2.4460857 -96.066414 -6.0826545 -78.417244
19210000000 -6.6921344 80.968445 -2.4249883 -96.497643 -2.4215221 -96.456161 -6.0562072 -78.704697
19240000000 -6.7695436 80.424011 -2.3939435 -96.888115 -2.3922031 -96.85495 -6.1513252 -78.681953
19270000000 -6.7917743 80.100349 -2.3661113 -97.335983 -2.3658533 -97.306206 -6.2056065 -80.057205
19300000000 -6.8819809 80.00309 -2.3406334 -97.739067 -2.3405483 -97.716461 -6.2206717 -80.416618
19330000000 -6.9691381 79.464172 -2.3145416 -98.180298 -2.3107319 -98.1418 -6.3243232 -80.467377
19360000000 -6.990283 79.198151 -2.2866781 -98.626236 -2.2845039 -98.59137 -6.3808866 -81.445465
19390000000 -7.0704222 79.025291 -2.2653561 -99.032661 -2.261404 -99.0131 -6.3669233 -82.064659
19420000000 -7.1805263 78.551361 -2.2362955 -99.464119 -2.2344418 -99.436905 -6.5039635 -82.286217
19450000000 -7.2057061 78.389503 -2.2121525 -99.898277 -2.2085838 -99.86525 -6.5697856 -83.095192
19480000000 -7.2790256 78.306313 -2.1878128 -100.3017 -2.1854851 -100.27917 -6.5515609 -83.563942
19510000000 -7.3835387 77.670647 -2.1590986 -100.73492 -2.1576593 -100.7169 -6.6663203 -83.739777
19540000000 -7.4148631 77.519043 -2.1317356 -101.17716 -2.1301005 -101.13838 -6.7895231 -84.937881
19570000000 -7.4922915 77.433037 -2.1072011 -101.62382 -2.1051552 -101.57629 -6.7613988 -85.090187
19600000000 -7.5764966 76.763474 -2.0761878 -102.06175 -2.072448 -102.04995 -6.8885584 -85.238014
19630000000 -7.6234937 76.456161 -2.0508106 -102.53401 -2.0481536 -102.51005 -6.9485683 -86.532341
19660000000 -7.7232223 76.294556 -2.0241516 -102.98666 -2.0208597 -102.95525 -6.9934444 -86.705185
19690000000 -7.810576 75.719803 -1.9969453 -103.44131 -1.9934013 -103.42029 -7.1172423 -86.76133
19720000000 -7.8523035 75.470367 -1.9686439 -103.93215 -1.9672215 -103.9163 -7.1762304 -87.842384
19750000000 -7.9671669 75.233864 -1.9469141 -104.40291 -1.9452325 -104.38992 -7.208241 -88.316956
19780000000 -8.0844488 74.633034 -1.9219924 -104.90345 -1.9180472 -104.87238 -7.3502326 -88.3265
19810000000 -8.1180382 74.535362 -1.8983319 -105.39748 -1.8955806 -105.38258 -7.4332623 -89.299858
19840000000 -8.2358103 74.340698 -1.8789705 -105.87853 -1.8758675 -105.84105 -7.4375162 -89.574463
19870000000 -8.3650646 73.672943 -1.8573982 -106.3716 -1.8550861 -106.33067 -7.5790362 -89.732864
19900000000 -8.42449 73.635971 -1.8373524 -106.83504 -1.835174 -106.80758 -7.6658683 -90.889053
19930000000 -8.535121 73.466331 -1.8190442 -107.30904 -1.8148596 -107.28011 -7.6846814 -90.776611
19960000000 -8.6355858 72.767906 -1.7971188 -107.76514 -1.7944692 -107.7622 -7.7999077 -91.058609
19990000000 -8.7185984 72.600143 -1.7751122 -108.259 -1.7718337 -108.21294 -7.8879242 -92.321281
20020000000 -8.8571587 72.444023 -1.7520193 -108.71189 -1.7494022 -108.69428 -7.943912 -92.497597
20050000000 -8.9495382 71.770889 -1.7319061 -109.20417 -1.7284354 -109.17114 -8.074132 -92.401245
20080000000 -9.0261335 71.609558 -1.7067839 -109.70338 -1.7053158 -109.67513 -8.1481562 -93.629631
20110000000 -9.194932 71.357391 -1.6870404 -110.17321 -1.6852719 -110.13459 -8.1582651 -93.900154
20140000000 -9.3200016 70.865509 -1.66637 -110.68581 -1.6629615 -110.6561 -8.3905439 -94.023537
20170000000 -9.3874283 70.802277 -1.6474601 -111.19546 -1.6432601 -111.16652 -8.4443178 -94.830009
20200000000 -9.5466681 70.394806 -1.6288061 -111.65813 -1.6258997 -111.64184 -8.4302473 -95.11129
20230000000 -9.6929884 69.723862 -1.6087117 -112.14552 -1.60574 -112.13419 -8.6482077 -95.654297
20260000000 -9.7759838 69.848434 -1.5874043 -112.67187 -1.5838618 -112.64761 -8.7501926 -96.229118
20290000000 -9.9276228 69.524567 -1.5684628 -113.15621 -1.5658846 -113.127 -8.7686539 -96.455521
20320000000 -10.067808 68.694191 -1.5500648 -113.65591 -1.5444779 -113.62375 -8.9100227 -96.825043
20350000000 -10.198415 68.696053 -1.5257857 -114.17693 -1.523666 -114.1476 -9.0625353 -97.850746
20380000000 -10.38612 68.477669 -1.5082006 -114.68823 -1.5055414 -114.6513 -9.1141567 -97.892982
20410000000 -10.496762 67.81543 -1.495894 -115.20014 -1.4924377 -115.16394 -9.3000317 -98.015182
20440000000 -10.620986 67.664421 -1.4764428 -115.71307 -1.4723912 -115.69038 -9.3566103 -98.870224
20470000000 -10.846787 67.380508 -1.4536272 -116.2032 -1.4531237 -116.17889 -9.4277554 -99.424744
20500000000 -10.989545 66.875992 -1.4378219 -116.70464 -1.4345938 -116.68799 -9.6610174 -99.462242
20530000000 -11.10714 66.873932 -1.4224801 -117.2227 -1.4181104 -117.19505 -9.6901188 -99.972137
20560000000 -11.344658 66.267601 -1.3967912 -117.71913 -1.3944235 -117.68669 -9.7573137 -100.7982
20590000000 -11.534516 65.747734 -1.3780068 -118.24335 -1.3762345 -118.22358 -10.005571 -101.2464
20620000000 -11.685819 66.061081 -1.3608336 -118.78221 -1.3573395 -118.77772 -10.151657 -101.77231
20650000000 -11.912062 65.678177 -1.3368627 -119.30733 -1.3343494 -119.27841 -10.214623 -102.25114
20680000000 -12.077502 64.918549 -1.317112 -119.8103 -1.3153622 -119.78644 -10.401311 -102.42931
20710000000 -12.273228 65.215569 -1.2978412 -120.41957 -1.2941473 -120.38326 -10.665626 -103.66537
20740000000 -12.53413 64.849022 -1.2754428 -120.96442 -1.2737401 -120.92015 -10.728799 -103.18987
20770000000 -12.700128 64.076462 -1.2597731 -121.50932 -1.2564945 -121.48376 -10.945954 -103.35152
20800000000 -12.937141 64.154015 -1.2401228 -122.12201 -1.2379539 -122.08263 -11.118461 -104.74277
20830000000 -13.249552 63.740898 -1.2215332 -122.70465 -1.2201349 -122.66916 -11.286875 -104.70107
20860000000 -13.426524 63.514252 -1.2119141 -123.27525 -1.2118032 -123.25309 -11.568576 -104.44804
20890000000 -13.652019 63.811649 -1.2025754 -123.88335 -1.1991186 -123.85069 -11.711455 -104.98811
20920000000 -13.993379 63.156082 -1.1881824 -124.46289 -1.1842861 -124.42333 -11.871758 -105.64439
20950000000 -14.217844 63.040829 -1.1801156 -125.01582 -1.1771926 -124.98944 -12.164952 -105.24595
20980000000 -14.480625 63.620113 -1.1733515 -125.62129 -1.1711781 -125.58428 -12.419257 -105.56678
21010000000 -14.80406 62.969078 -1.159413 -126.17869 -1.1556005 -126.13734 -12.498622 -105.53503
21040000000 -15.064703 62.459534 -1.1488516 -126.73188 -1.1438646 -126.69112 -12.750998 -105.5761
21070000000 -15.403825 63.237171 -1.1422385 -127.33958 -1.138888 -127.29738 -13.130427 -106.04673
21100000000 -15.745664 63.108646 -1.1314018 -127.90179 -1.1278548 -127.86728 -13.212041 -105.50508
21130000000 -16.020067 62.771263 -1.1240882 -128.45058 -1.1189218 -128.4175 -13.451661 -105.04253
21160000000 -16.401842 63.237736 -1.1152377 -129.0694 -1.1132289 -129.01772 -13.760161 -106.25194
21190000000 -16.864664 63.293438 -1.1041073 -129.64867 -1.1016362 -129.61195 -13.940303 -105.57115
21220000000 -17.138781 63.491192 -1.0989056 -130.19383 -1.0950645 -130.15681 -14.21852 -104.56804
21250000000 -17.533804 64.234085 -1.0916483 -130.7858 -1.0869532 -130.75671 -14.483291 -105.29778
21280000000 -18.055197 63.921589 -1.0770069 -131.37323 -1.07497 -131.33922 -14.639401 -105.72281
21310000000 -18.457823 64.495995 -1.0669432 -131.94054 -1.0648752 -131.90417 -15.068645 -104.88108
21340000000 -18.954908 66.008125 -1.0586935 -132.5526 -1.0542978 -132.51627 -15.416763 -104.40709
21370000000 -19.54138 65.77002 -1.0462363 -133.18655 -1.0437831 -133.14809 -15.606217 -105.09031
21400000000 -20.072544 66.459106 -1.0376021 -133.77995 -1.0339549 -133.75276 -15.942841 -104.17046
21430000000 -20.698252 68.91761 -1.0332237 -134.42006 -1.0322998 -134.38829 -16.708368 -103.60435
21460000000 -21.331268 69.713654 -1.0285094 -135.06802 -1.0245476 -135.0293 -16.677856 -103.03165
21490000000 -21.90587 71.227867 -1.0232189 -135.65642 -1.0188599 -135.62512 -17.169853 -100.88121
21520000000 -22.616358 74.864212 -1.0215024 -136.31821 -1.0191394 -136.27827 -17.837889 -101.58874
21550000000 -23.424589 77.493271 -1.0167673 -136.97104 -1.0146178 -136.93069 -18.050575 -98.889526
21580000000 -24.015619 81.026741 -1.0165023 -137.57117 -1.0120746 -137.54192 -18.544247 -95.297867
21610000000 -24.759604 86.634377 -1.0146459 -138.24951 -1.0119498 -138.21431 -18.98315 -94.863983
21640000000 -25.656935 91.289757 -1.015277 -138.91296 -1.0110493 -138.88321 -19.249472 -93.571274
21670000000 -26.115461 98.129135 -1.0182855 -139.53128 -1.0160791 -139.49826 -19.804663 -87.931717
21700000000 -26.478836 106.98687 -1.0224673 -140.19722 -1.0199758 -140.17293 -20.070339 -85.545982
21730000000 -27.025925 114.31879 -1.0309952 -140.8613 -1.0263095 -140.8354 -20.265846 -84.140205
21760000000 -27.062454 122.41251 -1.036575 -141.476 -1.0335988 -141.44315 -20.575546 -78.62748
21790000000 -26.666897 132.80823 -1.0473984 -142.09331 -1.0460854 -142.0533 -21.20104 -74.290169
21820000000 -26.69544 139.34088 -1.0506408 -142.73102 -1.046702 -142.69321 -20.704136 -72.683479
21850000000 -26.17643 147.02481 -1.054686 -143.32387 -1.0496179 -143.28773 -20.95455 -66.732513
21880000000 -25.375097 154.21831 -1.0613956 -143.95226 -1.0568273 -143.90846 -21.575203 -63.352028
21910000000 -24.894867 160.334 -1.0619686 -144.61232 -1.0602807 -144.56703 -21.231524 -60.056496
21940000000 -24.157434 164.39926 -1.0619226 -145.22186 -1.0604806 -145.18172 -20.973949 -53.703918
21970000000 -23.281431 169.40196 -1.0704414 -145.90099 -1.0666704 -145.87489 -21.486877 -50.753407
22000000000 -22.6474 173.10449 -1.0763141 -146.60004 -1.0722922 -146.57635 -21.275068 -46.413052
22030000000 -21.929438 175.07631 -1.0850625 -147.26151 -1.0804204 -147.23708 -20.556107 -39.743351
22060000000 -21.115047 177.30818 -1.0976008 -147.93785 -1.0960023 -147.90833 -20.55591 -35.208576
22090000000 -20.560246 179.63588 -1.1141844 -148.64618 -1.1101892 -148.61725 -20.092157 -34.85165
22120000000 -19.906355 -179.66159 -1.1305393 -149.28923 -1.1272286 -149.256 -19.539373 -29.341991
22150000000 -19.196409 -178.59349 -1.1475501 -149.92651 -1.1444165 -149.90546 -19.111559 -25.666862
22180000000 -18.756935 -177.14528 -1.1642581 -150.59444 -1.1610975 -150.56683 -18.723867 -27.084978
22210000000 -18.195364 -176.83134 -1.1796006 -151.22198 -1.1755798 -151.19086 -18.133152 -24.013165
22240000000 -17.615704 -176.2975 -1.1976054 -151.83694 -1.1960951 -151.81087 -17.98806 -20.173132
22270000000 -17.242245 -175.55357 -1.2139738 -152.52045 -1.2102387 -152.50581 -17.440737 -21.768215
22300000000 -16.79953 -175.47058 -1.2282521 -153.14934 -1.2260298 -153.10864 -16.861721 -19.755653
22330000000 -16.320498 -175.15021 -1.2457945 -153.76129 -1.2440643 -153.73677 -16.852028 -17.729832
22360000000 -15.968997 -174.6814 -1.2613088 -154.43079 -1.2566595 -154.39929 -16.434307 -17.799566
22390000000 -15.558335 -174.62968 -1.2724692 -155.06812 -1.2683691 -155.03473 -15.787819 -16.374947
22420000000 -15.148385 -174.24844 -1.2865185 -155.7187 -1.2823914 -155.69994 -15.763334 -15.069296
22450000000 -14.785443 -173.90015 -1.3016824 -156.44742 -1.2958843 -156.42932 -15.405229 -15.316942
22480000000 -14.387899 -174.1526 -1.315678 -157.16281 -1.3143623 -157.12486 -14.859341 -13.503634
22510000000 -14.019253 -174.18068 -1.3403362 -157.85608 -1.3366792 -157.83165 -14.608738 -12.506392
22540000000 -13.721461 -174.11392 -1.3645312 -158.58995 -1.3615416 -158.5667 -14.326725 -13.827616
22570000000 -13.338583 -174.67535 -1.3889704 -159.29012 -1.3867533 -159.25897 -13.830551 -13.008641
22600000000 -12.980267 -175.09381 -1.41756 -159.95168 -1.412735 -159.92633 -13.587487 -10.98798
22630000000 -12.707012 -175.06917 -1.4462274 -160.69379 -1.4457523 -160.65819 -13.293104 -12.961752
22660000000 -12.398271 -175.49747 -1.478318 -161.37573 -1.4757265 -161.35332 -12.81298 -12.938959
22690000000 -12.070715 -175.97701 -1.5103174 -162.0424 -1.5083742 -162.02638 -12.706752 -11.552965
22720000000 -11.851424 -176.33681 -1.5454758 -162.76741 -1.5428529 -162.73296 -12.350796 -12.821312
22750000000 -11.566977 -176.87198 -1.5808042 -163.44489 -1.5771856 -163.41077 -11.880157 -13.196898
22780000000 -11.277754 -177.24294 -1.617263 -164.09149 -1.6140538 -164.0585 -11.829045 -12.586082
22810000000 -11.058615 -177.58269 -1.6536356 -164.78288 -1.649979 -164.76357 -11.578315 -13.721845
22840000000 -10.812425 -178.30255 -1.6953734 -165.45654 -1.6902403 -165.43001 -11.13953 -13.81481
22870000000 -10.584878 -178.70013 -1.7287741 -166.09399 -1.7259737 -166.08089 -11.024426 -13.665257
22900000000 -10.381636 -178.94739 -1.7690625 -166.76596 -1.7652304 -166.74945 -10.845666 -15.143977
22930000000 -10.141226 -179.75995 -1.8100255 -167.44662 -1.8084443 -167.41637 -10.512763 -14.816816
22960000000 -9.9384642 179.65977 -1.8509974 -168.08792 -1.8488493 -168.0699 -10.339625 -14.658733
22990000000 -9.7816439 179.29456 -1.8956571 -168.72234 -1.8927779 -168.7043 -10.165187 -16.222555
23020000000 -9.5514498 178.76489 -1.9396223 -169.37431 -1.9357443 -169.34239 -9.8465147 -16.338863
23050000000 -9.3577452 178.22882 -1.9788171 -170.01207 -1.9748232 -169.96823 -9.8141918 -16.059895
23080000000 -9.213933 177.68057 -2.0224025 -170.67059 -2.018863 -170.65662 -9.5679646 -17.279011
23110000000 -9.02145 177.15105 -2.0690441 -171.32198 -2.0677605 -171.30833 -9.2335014 -17.721247
23140000000 -8.8153915 176.73878 -2.1113834 -171.95695 -2.1082113 -171.93614 -9.2411718 -17.746138
23170000000 -8.6587963 176.1321 -2.162689 -172.61655 -2.1586068 -172.59378 -9.0294228 -18.837505
23200000000 -8.4941187 175.44847 -2.2119884 -173.26534 -2.2114379 -173.23029 -8.7181692 -18.944937
23230000000 -8.3371782 175.02075 -2.2572775 -173.86064 -2.2554276 -173.82944 -8.6735535 -19.270449
23260000000 -8.1845026 174.59497 -2.306478 -174.49312 -2.3030274 -174.4691 -8.5409651 -20.903349
23290000000 -8.0183172 173.84369 -2.3610806 -175.15152 -2.3582447 -175.10356 -8.2953777 -20.441355
23320000000 -7.8915849 173.19672 -2.4084325 -175.76881 -2.409102 -175.7157 -8.1592951 -20.858538
23350000000 -7.7790523 172.7935 -2.4642158 -176.36839 -2.459938 -176.31975 -8.0728931 -22.334394
23380000000 -7.5997343 172.20924 -2.5150907 -176.99158 -2.5110443 -176.95764 -7.8486142 -22.396721
23410000000 -7.4520369 171.57068 -2.5639739 -177.60506 -2.5595191 -177.58725 -7.786335 -22.239189
23440000000 -7.3522773 171.05699 -2.6197212 -178.2245 -2.6183312 -178.19353 -7.6222887 -23.761671
23470000000 -7.2170639 170.55595 -2.6818757 -178.83698 -2.6776435 -178.8026 -7.3802056 -23.76602
23500000000 -7.080287 169.98372 -2.7295156 -179.44801 -2.7281191 -179.42528 -7.4113216 -24.042919
23530000000 -6.9585853 169.29771 -2.7918248 179.92006 -2.7909229 179.93858 -7.2225986 -25.172215
23560000000 -6.84027 168.60928 -2.8588986 179.31522 -2.8525341 179.34041 -6.9776731 -25.291533
23590000000 -6.7310157 168.21629 -2.9093785 178.72989 -2.9064929 178.76546 -6.9717708 -25.872326
23620000000 -6.6182251 167.71916 -2.9717627 178.12396 -2.9695535 178.1617 -6.8481374 -26.8246
23650000000 -6.4842234 166.94257 -3.0370889 177.55907 -3.0361788 177.57512 -6.6258645 -26.878998
23680000000 -6.3894358 166.42491 -3.0976229 176.94307 -3.0948477 176.97266 -6.5819502 -27.401426
23710000000 -6.3173079 165.97903 -3.1636777 176.36533 -3.1588707 176.38527 -6.4273071 -28.562775
23740000000 -6.1768203 165.26022 -3.2310333 175.77498 -3.2296979 175.80539 -6.3042226 -28.74506
23770000000 -6.0649567 164.6154 -3.2959206 175.1913 -3.291271 175.21249 -6.2375789 -28.937613
23800000000 -6.0034475 164.03986 -3.3645751 174.64104 -3.3635995 174.65817 -6.0878859 -30.267021
23830000000 -5.898365 163.50514 -3.4349444 174.12032 -3.4333465 174.16438 -5.9090285 -30.606543
23860000000 -5.7983513 162.99785 -3.4981031 173.54021 -3.4944406 173.56776 -5.9679189 -30.870672
23890000000 -5.7170014 162.2688 -3.5754535 172.9827 -3.5722733 173.02988 -5.749136 -31.902943
23920000000 -5.6281028 161.60114 -3.6453464 172.4623 -3.641784 172.51584 -5.6249647 -31.968386
23950000000 -5.5611324 161.23068 -3.7067306 171.93538 -3.7033064 171.97729 -5.6143823 -33.098972
23980000000 -5.4634638 160.65802 -3.7826807 171.39316 -3.7806001 171.43791 -5.4956594 -33.48983
24010000000 -5.3725238 159.96149 -3.8565123 170.8929 -3.8521531 170.91904 -5.342092 -33.966297
24040000000 -5.3096786 159.45325 -3.9244783 170.36003 -3.9225914 170.41016 -5.2953348 -34.573822
24070000000 -5.2515221 159.01315 -3.9964888 169.87645 -3.9950678 169.90295 -5.2034712 -35.596199
24100000000 -5.1475792 158.39615 -4.0750446 169.35703 -4.0696368 169.4093 -5.1010966 -35.766083
24130000000 -5.0731606 157.83698 -4.1481805 168.85744 -4.143373 168.89145 -5.0235367 -36.31731
24160000000 -5.0293837 157.23769 -4.2190528 168.35005 -4.2192345 168.38892 -4.9446826 -37.376114
24190000000 -4.9457603 156.78766 -4.2972183 167.87575 -4.2976112 167.93018 -4.8055973 -37.646793
24220000000 -4.8681984 156.27379 -4.3687515 167.37558 -4.3646765 167.40021 -4.8270288 -38.153778
24250000000 -4.8058825 155.56604 -4.4514613 166.87944 -4.4458432 166.91267 -4.7022843 -39.127209
24280000000 -4.742094 154.98112 -4.531981 166.43069 -4.5280776 166.46681 -4.5558867 -39.243084
24310000000 -4.6880007 154.60583 -4.6042547 165.91612 -4.6017189 165.96207 -4.5913858 -40.237526
24340000000 -4.615767 153.99487 -4.6920071 165.48602 -4.6877661 165.49171 -4.486743 -40.874878
24370000000 -4.5446534 153.31505 -4.7783494 165.02594 -4.7747889 165.07713 -4.3754878 -40.954983
24400000000 -4.5087423 152.81503 -4.8612204 164.60191 -4.858705 164.62785 -4.3296881 -41.919537
24430000000 -4.4664364 152.32834 -4.93751 164.16797 -4.9373012 164.20219 -4.2972836 -42.909565
24460000000 -4.3912802 151.7305 -5.0256968 163.78407 -5.026207 163.8192 -4.1851449 -42.958378
24490000000 -4.3457127 151.16835 -5.1036758 163.38246 -5.102459 163.4397 -4.1475596 -43.484261
24520000000 -4.3165793 150.62431 -5.1864166 163.03603 -5.1834612 163.05612 -4.0923958 -44.705021
24550000000 -4.265903 150.26245 -5.2684097 162.66663 -5.2633224 162.69051 -4.0013208 -44.749374
24580000000 -4.2172027 149.78781 -5.339128 162.27419 -5.3388386 162.30296 -4.0243611 -45.432846
24610000000 -4.1776748 149.25243 -5.4187508 161.88992 -5.4175229 161.92838 -3.9056582 -46.102055
24640000000 -4.1338434 148.80722 -5.498683 161.5502 -5.4913707 161.58365 -3.8279622 -46.5602
24670000000 -4.0908642 148.46924 -5.5647349 161.14177 -5.5645733 161.18613 -3.8501735 -47.074295
24700000000 -4.0358615 148.03015 -5.6415997 160.7543 -5.6387138 160.76494 -3.7746809 -47.787556
24730000000 -3.9814847 147.51062 -5.7215056 160.35654 -5.7162929 160.40057 -3.6758039 -47.994808
24760000000 -3.9502189 147.12372 -5.7964106 159.93988 -5.7945204 159.97287 -3.6524591 -48.782413
24790000000 -3.900317 146.67186 -5.873878 159.53873 -5.8720317 159.58086 -3.6352684 -49.601402
24820000000 -3.8319457 146.2742 -5.9591017 159.17915 -5.9548736 159.21194 -3.5222878 -49.579037
24850000000 -3.7967534 145.78276 -6.0383248 158.74907 -6.0309315 158.80188 -3.5055993 -50.240849
24880000000 -3.7673492 145.29207 -6.1203399 158.37444 -6.1179647 158.40387 -3.4538267 -51.223946
24910000000 -3.709563 144.86919 -6.2075911 158.02153 -6.2086692 158.05438 -3.3876216 -51.2836
24940000000 -3.6669579 144.40804 -6.291616 157.62888 -6.2872105 157.66692 -3.3786111 -51.799797
24970000000 -3.6295204 143.90994 -6.3775997 157.25143 -6.3726907 157.29498 -3.2852161 -52.836727
25000000000 -3.5914111 143.44583 -6.4669566 156.92627 -6.4654794 156.96355 -3.2431812 -52.925262
25030000000 -3.5503035 143.04501 -6.5531507 156.56223 -6.5516424 156.60558 -3.2376795 -53.642391
25060000000 -3.5070276 142.57787 -6.643877 156.23483 -6.6430545 156.27505 -3.1664844 -54.281696
25090000000 -3.4648807 142.1033 -6.7356844 155.95627 -6.7352519 155.96165 -3.1155739 -54.626633
25120000000 -3.4409521 141.65439 -6.821425 155.6088 -6.8186331 155.62225 -3.094115 -55.292301
25150000000 -3.4036331 141.21231 -6.911242 155.28789 -6.90834 155.30005 -3.0730536 -56.08799
25180000000 -3.363616 140.80476 -7.0007386 155.02077 -6.9947739 155.04361 -2.9931684 -56.245071
25210000000 -3.3406396 140.2948 -7.0925264 154.67842 -7.0930209 154.69798 -3.0004785 -56.878445
25240000000 -3.3110719 139.86198 -7.1826825 154.42171 -7.1822357 154.43854 -2.9103413 -57.766682
25270000000 -3.2797854 139.45024 -7.2821298 154.15968 -7.2717681 154.19632 -2.9406836 -57.906727
25300000000 -3.2522686 138.99837 -7.3639631 153.88878 -7.360826 153.91589 -2.870573 -58.431953
25330000000 -3.2254882 138.58147 -7.4562573 153.61591 -7.4544005 153.67142 -2.8497267 -59.306671
25360000000 -3.193481 138.21378 -7.5458918 153.4101 -7.5443716 153.4456 -2.8068902 -59.633781
25390000000 -3.1812587 137.85283 -7.6295829 153.21248 -7.628005 153.22546 -2.8045917 -60.014549
25420000000 -3.1473484 137.40097 -7.7165079 152.94551 -7.7135119 152.98244 -2.7707348 -60.718376
25450000000 -3.1273253 137.04132 -7.808526 152.74226 -7.8027349 152.75597 -2.6797521 -61.096542
25480000000 -3.0997086 136.67474 -7.8880081 152.46603 -7.8852878 152.48048 -2.7505066 -61.590229
25510000000 -3.0689223 136.27704 -7.9771419 152.24847 -7.9701905 152.27036 -2.6624107 -62.405369
25540000000 -3.04182 135.90274 -8.0654755 152.03841 -8.0613213 152.05884 -2.62357 -62.371117
25570000000 -3.0169532 135.4875 -8.1521578 151.7643 -8.1475439 151.79584 -2.6537247 -63.215572
25600000000 -2.9795294 135.11896 -8.239995 151.50392 -8.2405024 151.60091 -2.5774779 -63.846443
25630000000 -2.9594374 134.73946 -8.3329601 151.32733 -8.3277426 151.37999 -2.5696948 -63.977467
25660000000 -2.9385524 134.35503 -8.4177523 151.07536 -8.4142704 151.13565 -2.5416782 -64.664322
25690000000 -2.9117689 133.92061 -8.51439 150.89122 -8.509882 150.90451 -2.5231194 -65.202057
25720000000 -2.8888044 133.58873 -8.6083727 150.68695 -8.6022549 150.70442 -2.4755268 -65.706284
25750000000 -2.8702822 133.13702 -8.6910458 150.52132 -8.6926432 150.52927 -2.4763448 -66.040726
25780000000 -2.8502736 132.71304 -8.7835474 150.26865 -8.7781487 150.27934 -2.4849069 -66.777138
25810000000 -2.8249261 132.40727 -8.8774385 150.08026 -8.8770237 150.10019 -2.362498 -67.089752
25840000000 -2.8019927 132.01102 -8.977788 149.90486 -8.9691935 149.93552 -2.4510069 -67.565575
25870000000 -2.7762208 131.54857 -9.0712461 149.71535 -9.0627499 149.74594 -2.3862641 -68.41217
25900000000 -2.7669504 131.23059 -9.1605883 149.60297 -9.1586714 149.62918 -2.3459198 -68.339493
25930000000 -2.7485847 130.83736 -9.2581005 149.41864 -9.2565098 149.4485 -2.3617058 -69.170151
25960000000 -2.7225149 130.48254 -9.3577175 149.299 -9.3545332 149.33098 -2.3238115 -69.816139
25990000000 -2.7146454 130.01018 -9.4553728 149.17857 -9.4514885 149.21616 -2.3300343 -69.922859
26020000000 -2.7122409 129.61754 -9.5425615 149.0726 -9.5413961 149.07655 -2.2770069 -70.3302
26050000000 -2.6936812 129.27524 -9.641098 148.92644 -9.6396551 148.92598 -2.3141186 -71.335106
26080000000 -2.6618478 128.90552 -9.7320147 148.87944 -9.7281055 148.89726 -2.2431657 -71.504028
26110000000 -2.6559227 128.45535 -9.8196039 148.80977 -9.8190765 148.86467 -2.3064456 -71.692459
26140000000 -2.6622643 128.14418 -9.9148092 148.62778 -9.9077177 148.64883 -2.2378912 -72.612419
26170000000 -2.6388993 127.8274 -10.005087 148.57903 -10.000293 148.59769 -2.1913953 -72.858246
26200000000 -2.6195698 127.40402 -10.100548 148.40836 -10.097062 148.47798 -2.2797613 -73.128876
26230000000 -2.6143916 126.99047 -10.193401 148.35411 -10.192074 148.35158 -2.1874318 -73.826187
26260000000 -2.6178417 126.72771 -10.293627 148.28838 -10.294133 148.34625 -2.1512158 -74.02314
26290000000 -2.5926518 126.41763 -10.386749 148.22496 -10.38365 148.2941 -2.2080879 -74.618462
26320000000 -2.5739872 125.98508 -10.482594 148.15834 -10.480568 148.19156 -2.1522098 -75.175316
26350000000 -2.5809147 125.55799 -10.579624 148.17574 -10.583987 148.22664 -2.1347861 -75.32692
26380000000 -2.5799308 125.27148 -10.675526 148.17188 -10.672547 148.22023 -2.1395681 -75.902687
26410000000 -2.5510235 124.98475 -10.768955 148.13885 -10.757452 148.23116 -2.1355238 -76.583321
26440000000 -2.5352311 124.56283 -10.849744 148.16394 -10.84296 148.2133 -2.1143959 -76.695503
26470000000 -2.540858 124.15221 -10.93353 148.18994 -10.92969 148.18677 -2.1361444 -76.942429
26500000000 -2.5436623 123.90691 -11.023547 148.12056 -11.020247 148.13878 -2.1165638 -77.785263
26530000000 -2.5108643 123.62264 -11.104691 148.19283 -11.098737 148.16898 -2.0589669 -77.982521
26560000000 -2.480129 123.1876 -11.197973 148.1028 -11.19193 148.10777 -2.1368315 -77.789513
26590000000 -2.5019195 122.82137 -11.284911 147.98253 -11.291738 147.99651 -2.0194683 -78.896317
26620000000 -2.5104258 122.5584 -11.392959 147.96509 -11.382174 148.02559 -2.0223734 -78.801582
26650000000 -2.4809117 122.26936 -11.483234 147.91969 -11.47341 147.93883 -2.0444701 -79.268379
26680000000 -2.4843063 121.84074 -11.567119 147.84169 -11.581577 147.83325 -1.9903227 -79.939705
26710000000 -2.4862075 121.44229 -11.694062 147.92393 -11.685361 147.88565 -1.9554106 -79.939117
26740000000 -2.4822814 121.29758 -11.790743 147.92928 -11.788224 148.02989 -1.9698485 -80.726906
26770000000 -2.4469957 120.93536 -11.865635 148.02635 -11.870419 148.08832 -1.9508069 -81.188614
26800000000 -2.4369855 120.50044 -11.976669 148.00255 -11.98678 148.06296 -1.90719 -81.434578
26830000000 -2.4607196 120.17474 -12.083074 148.13708 -12.099148 148.15564 -1.9119611 -81.796288
26860000000 -2.4539919 119.8912 -12.198813 148.35254 -12.196095 148.28273 -1.8881069 -82.730064
26890000000 -2.4282544 119.45213 -12.298079 148.32362 -12.287985 148.39621 -1.8724436 -82.627251
26920000000 -2.4194753 119.11625 -12.385081 148.43237 -12.392675 148.54541 -1.9004701 -83.105347
26950000000 -2.4448416 118.75875 -12.494588 148.70872 -12.475997 148.71164 -1.8245929 -83.908524
26980000000 -2.4232514 118.59464 -12.589361 148.91795 -12.574113 148.9297 -1.8443279 -84.118668
27010000000 -2.4098763 118.2407 -12.64753 148.87016 -12.66346 148.98409 -1.8707922 -84.438339
27040000000 -2.4092979 117.74332 -12.772611 149.09778 -12.772982 149.29306 -1.8032244 -85.140678
27070000000 -2.4028454 117.38198 -12.854253 149.48004 -12.842257 149.43088 -1.8125985 -85.158516
27100000000 -2.4080446 117.26319 -12.934278 149.48328 -12.933225 149.56557 -1.8181034 -85.825523
27130000000 -2.3852935 116.88265 -13.021564 149.70872 -13.028631 149.60194 -1.804868 -86.410217
27160000000 -2.3678162 116.45257 -13.117479 149.81845 -13.122317 149.91563 -1.7881199 -86.198341
27190000000 -2.3871324 116.15743 -13.210045 149.81645 -13.183681 150.03859 -1.8023901 -86.998711
27220000000 -2.3899629 115.83658 -13.302605 150.21164 -13.289797 150.15901 -1.7864733 -87.546822
27250000000 -2.3555949 115.47771 -13.417291 150.38559 -13.379489 150.3499 -1.782387 -87.34745
27280000000 -2.3676233 115.12671 -13.481302 150.60417 -13.47111 150.55479 -1.7628151 -88.127342
27310000000 -2.3794672 114.75253 -13.613498 150.85504 -13.587335 150.80493 -1.7531699 -88.483597
27340000000 -2.3511908 114.52505 -13.675968 151.04974 -13.680902 151.07852 -1.7405634 -88.866249
27370000000 -2.3444598 114.30823 -13.767686 151.26599 -13.764444 151.37134 -1.7694501 -89.160255
27400000000 -2.3493736 113.79082 -13.883738 151.59334 -13.872143 151.66225 -1.7192541 -89.762451
27430000000 -2.3560848 113.48631 -13.965016 151.86575 -13.954 151.95966 -1.7330599 -89.738777
27460000000 -2.3568115 113.2571 -14.048899 152.16985 -14.042569 152.16444 -1.7483989 -90.528267
27490000000 -2.3336599 112.91933 -14.133952 152.48512 -14.144841 152.47203 -1.7103816 -90.939484
27520000000 -2.3389089 112.52757 -14.223557 152.91771 -14.216321 152.90521 -1.7065185 -90.988022
27550000000 -2.3372152 112.34779 -14.303739 153.28796 -14.29827 153.21867 -1.7443637 -91.731125
27580000000 -2.3319838 112.06099 -14.377027 153.62645 -14.388552 153.787 -1.700515 -91.948219
27610000000 -2.3138535 111.81224 -14.471939 153.92853 -14.472019 154.06508 -1.7147733 -92.360794
27640000000 -2.3206327 111.37704 -14.541796 154.28094 -14.550428 154.38695 -1.712149 -92.663063
27670000000 -2.3260496 111.06808 -14.618639 154.79993 -14.627823 154.77145 -1.6753372 -93.194366
27700000000 -2.3118279 110.9298 -14.690108 155.25674 -14.701674 155.19565 -1.7048432 -93.259338
27730000000 -2.305588 110.57244 -14.77562 155.58147 -14.757898 155.55492 -1.7543343 -93.712509
27760000000 -2.3066578 110.14614 -14.856878 155.83295 -14.860427 156.09157 -1.6475531 -93.932487
27790000000 -2.2987971 109.95165 -14.920956 156.35945 -14.934062 156.36887 -1.7038159 -94.461128
27820000000 -2.293443 109.63008 -14.991037 156.96049 -14.991989 156.72816 -1.7071267 -94.703949
27850000000 -2.2815819 109.34892 -15.092132 157.17728 -15.085503 157.33076 -1.6850418 -95.156876
27880000000 -2.2767408 109.03796 -15.149145 157.75044 -15.123993 157.76749 -1.6941983 -95.138611
27910000000 -2.277643 108.80122 -15.197302 158.1981 -15.192719 158.14978 -1.6623439 -95.99855
27940000000 -2.2590606 108.42236 -15.255398 158.74791 -15.257165 158.60574 -1.6586965 -96.005875
27970000000 -2.2439725 108.16099 -15.322236 159.13499 -15.315842 159.16508 -1.6697276 -96.364174
28000000000 -2.2500341 107.8786 -15.39783 159.71191 -15.364337 159.57401 -1.6661819 -96.682793
28030000000 -2.2484179 107.54667 -15.417062 160.16135 -15.44976 159.91716 -1.6170695 -97.357452
28060000000 -2.229784 107.44555 -15.516367 160.70744 -15.516301 160.46579 -1.6871283 -97.456985
28090000000 -2.2373564 107.07282 -15.567811 161.1472 -15.568675 161.17528 -1.6651567 -97.728157
28120000000 -2.225162 106.66582 -15.620378 161.51862 -15.622149 161.67249 -1.6207099 -98.199493
28150000000 -2.2247939 106.50837 -15.668046 162.10733 -15.669158 161.97542 -1.650781 -98.45752
28180000000 -2.2263517 106.16341 -15.748518 162.44803 -15.716134 162.40498 -1.6416208 -99.024956
28210000000 -2.2145445 105.78663 -15.76645 163.08253 -15.779194 163.17987 -1.6356633 -99.064064
28240000000 -2.2219954 105.54494 -15.81028 163.78352 -15.819429 163.77606 -1.6247017 -99.480644
28270000000 -2.2295763 105.24148 -15.890246 164.28313 -15.879644 164.13847 -1.6299109 -100.14076
28300000000 -2.1902342 104.86232 -15.940633 164.88123 -15.914346 164.72627 -1.6271683 -100.16188
28330000000 -2.1976495 104.69677 -15.96784 165.69046 -15.935047 165.52258 -1.6215487 -100.37868
28360000000 -2.2252717 104.28967 -15.999852 165.95068 -15.973867 165.91838 -1.5907394 -101.18186
28390000000 -2.2011421 104.10394 -16.078316 166.70898 -16.058659 166.65901 -1.611185 -101.14293
28420000000 -2.1893749 103.96027 -16.076099 167.19754 -16.078342 167.17053 -1.6502802 -101.62436
28450000000 -2.2151585 103.59779 -16.122343 167.68953 -16.121008 167.87491 -1.5950292 -102.02843
28480000000 -2.2072399 103.22867 -16.141098 168.31242 -16.163218 168.48236 -1.6148745 -102.30281
28510000000 -2.2099383 103.10596 -16.152111 168.93407 -16.13942 168.93306 -1.5823441 -102.83894
28540000000 -2.2094736 102.81968 -16.191229 169.54921 -16.183479 169.59494 -1.6312799 -102.97457
28570000000 -2.1990902 102.50297 -16.203831 170.35297 -16.221153 170.28444 -1.57435 -103.42701
28600000000 -2.2021809 102.42486 -16.22995 170.93352 -16.22621 170.8537 -1.6106275 -103.64703
28630000000 -2.2201965 102.03945 -16.235226 171.4687 -16.221937 171.543 -1.6339818 -104.61443
28660000000 -2.1892116 101.7304 -16.206926 172.30124 -16.221485 172.21092 -1.580364 -104.09143
28690000000 -2.1987729 101.60661 -16.201151 172.79474 -16.190775 172.9131 -1.6293002 -105.14728
28720000000 -2.2338412 101.3194 -16.193872 173.22441 -16.207737 173.40308 -1.5933231 -105.33537
28750000000 -2.2042854 101.19791 -16.176407 173.80626 -16.200277 174.08423 -1.6409162 -105.61358
28780000000 -2.2234685 100.8835 -16.164679 174.59943 -16.154665 174.64148 -1.6238977 -106.04085
28810000000 -2.2230611 100.53587 -16.167418 175.06201 -16.139906 174.91269 -1.5960329 -106.38938
28840000000 -2.215205 100.34763 -16.156235 175.2206 -16.131001 175.27293 -1.6656182 -106.65098
28870000000 -2.209981 100.27572 -16.146168 175.70955 -16.10078 175.70905 -1.6659943 -107.13017
28900000000 -2.2308171 99.832115 -16.087688 176.24986 -16.099638 176.3571 -1.6257296 -107.23195
28930000000 -2.2216411 99.739616 -16.095337 176.82336 -16.069914 176.86963 -1.6492622 -107.69666
28960000000 -2.2338743 99.68766 -16.07626 177.05168 -16.064793 177.06044 -1.6855801 -108.11068
28990000000 -2.2251971 99.217293 -16.061953 177.46654 -16.057402 177.52673 -1.6512032 -108.19319
29020000000 -2.199162 98.993843 -16.053146 178.08168 -16.030584 177.78441 -1.6836427 -108.58019
29050000000 -2.2399771 98.86393 -16.03511 178.12399 -16.010717 178.09558 -1.6790191 -109.15886
29080000000 -2.2540145 98.501762 -16.006739 178.5457 -16.01582 178.29878 -1.6326753 -109.17435
29110000000 -2.1981962 98.480209 -16.009855 178.9041 -15.98271 179.11728 -1.7199187 -109.16712
29140000000 -2.2325172 98.217995 -15.993987 179.27757 -15.993478 179.22153 -1.6595868 -110.00958
29170000000 -2.2526679 97.889275 -16.010586 179.59183 -16.018744 179.76926 -1.6689759 -110.07449
29200000000 -2.2093179 97.688721 -16.015553 179.97816 -15.994823 -179.96822 -1.6901046 -110.42434
29230000000 -2.2314756 97.597176 -16.054203 -179.55598 -16.005159 -179.81433 -1.6984837 -110.86411
29260000000 -2.2546988 96.998604 -15.988658 -179.17578 -15.993033 -179.27943 -1.6307911 -110.88198
29290000000 -2.2366064 97.022011 -15.992425 -178.8605 -15.998146 -178.82301 -1.7156017 -111.3625
29320000000 -2.2700441 96.885101 -15.97624 -178.36987 -15.999822 -178.39142 -1.6538308 -111.74672
29350000000 -2.2596192 96.418381 -15.97339 -177.89291 -15.959842 -177.77139 -1.622555 -111.7557
29380000000 -2.2367082 96.084412 -15.980906 -177.45638 -15.928048 -177.40578 -1.7024209 -112.20295
29410000000 -2.2893844 96.135948 -15.921487 -177.06833 -15.934853 -176.85313 -1.6061825 -112.81398
29440000000 -2.2728424 95.705482 -15.906733 -176.51927 -15.934372 -176.56396 -1.664734 -112.81022
29470000000 -2.2300949 95.599075 -15.874631 -176.12131 -15.868905 -176.00769 -1.6615586 -113.19432
29500000000 -2.2943189 95.2976 -15.874956 -175.74028 -15.85639 -175.88205 -1.6606802 -113.84127
29530000000 -2.3030119 94.970879 -15.819281 -175.33705 -15.840211 -175.36041 -1.6377696 -113.68417
29560000000 -2.2515993 94.872505 -15.800345 -174.96489 -15.815073 -175.01382 -1.6978871 -114.30844
29590000000 -2.2928176 94.616051 -15.769282 -174.49841 -15.778459 -174.57204 -1.6451161 -114.65275
29620000000 -2.3118012 94.092552 -15.7315 -174.25983 -15.733471 -174.28851 -1.673786 -114.48373
29650000000 -2.2976251 94.200699 -15.681542 -173.97768 -15.69471 -174.02959 -1.6813993 -115.29398
29680000000 -2.319416 94.072647 -15.703732 -173.91594 -15.680928 -173.72916 -1.635927 -115.47259
29710000000 -2.3103013 93.406357 -15.686769 -173.51663 -15.662287 -173.53349 -1.6742257 -115.58293
29740000000 -2.2952676 93.514412 -15.649273 -173.25221 -15.667383 -173.21259 -1.6820818 -115.91831
29770000000 -2.3495817 93.279488 -15.66529 -173.0755 -15.643887 -172.7769 -1.6369178 -116.36632
29800000000 -2.3159907 92.860672 -15.661818 -172.56677 -15.670168 -172.38609 -1.6485391 -116.53494
29830000000 -2.2955506 92.720573 -15.629745 -171.89627 -15.629791 -171.9707 -1.6501569 -116.82393
29860000000 -2.3556631 92.379814 -15.615266 -171.48738 -15.614149 -171.44107 -1.6029853 -117.37801
29890000000 -2.3327537 92.047493 -15.560902 -171.14162 -15.614288 -171.12302 -1.640687 -117.34215
29920000000 -2.3185325 91.968056 -15.537498 -170.6752 -15.538226 -170.66147 -1.6594445 -118.03347
29950000000 -2.3689375 91.534912 -15.520418 -170.05466 -15.503275 -170.19484 -1.5936044 -118.32533
29980000000 -2.3599992 91.012604 -15.489738 -169.6843 -15.446545 -169.76604 -1.6527618 -118.20526
30010000000 -2.3524206 91.240677 -15.38908 -169.36909 -15.411702 -169.47807 -1.6269236 -119.18745
30040000000 -2.3678162 90.820099 -15.378349 -168.81694 -15.373857 -168.94655 -1.6227367 -119.33488
30070000000 -2.3730977 90.355171 -15.312796 -168.5856 -15.314569 -168.52863 -1.6594536 -119.27261
30100000000 -2.3666143 90.205147 -15.231145 -168.38469 -15.24923 -168.10471 -1.6600252 -119.98038
30130000000 -2.409647 89.963623 -15.220947 -167.95438 -15.20394 -167.90207 -1.602554 -120.32377
30160000000 -2.3624883 89.574318 -15.165465 -167.69084 -15.149563 -167.61655 -1.6878941 -120.55058
30190000000 -2.3844609 89.325195 -15.134326 -167.35049 -15.11576 -167.39781 -1.704778 -120.78966
30220000000 -2.4286737 89.096046 -15.051352 -166.97618 -15.057513 -167.09525 -1.6216453 -121.2847
30250000000 -2.4212265 88.753403 -15.012738 -166.77629 -15.023674 -166.78528 -1.6807539 -121.13039
30280000000 -2.3852208 88.725647 -14.956802 -166.85861 -14.933433 -166.53839 -1.7112476 -122.10783
30310000000 -2.4283516 88.206276 -14.885151 -166.48631 -14.891424 -166.263 -1.6735916 -121.91483
30340000000 -2.4275401 87.985962 -14.842922 -166.18448 -14.845677 -166.16066 -1.6526482 -122.26447
30370000000 -2.4239383 87.912605 -14.797769 -166.01239 -14.778298 -165.89357 -1.7242774 -122.92155
30400000000 -2.438256 87.503059 -14.724821 -165.86276 -14.739453 -165.85092 -1.6923021 -123.11198
30430000000 -2.4179993 87.176865 -14.700554 -165.4185 -14.674755 -165.33528 -1.6952863 -122.77921
30460000000 -2.4461818 87.127785 -14.641048 -165.39551 -14.658382 -165.30394 -1.7454407 -123.94933
30490000000 -2.4456389 86.778053 -14.58827 -165.17091 -14.581162 -165.19685 -1.6541917 -123.79568
30520000000 -2.4215639 86.47908 -14.544311 -164.85333 -14.545818 -164.93805 -1.7774599 -124.02589
30550000000 -2.4254789 86.331688 -14.500542 -165.06653 -14.487738 -164.96568 -1.7480276 -124.5295
30580000000 -2.464098 85.990143 -14.478098 -164.87589 -14.463287 -164.64275 -1.6782682 -124.56567
30610000000 -2.4222059 85.750031 -14.403226 -164.57739 -14.412156 -164.40672 -1.7478247 -125.09872
30640000000 -2.4287066 85.615791 -14.357245 -164.29306 -14.394685 -164.10724 -1.8000551 -125.3287
30670000000 -2.4493182 85.159286 -14.338849 -163.97784 -14.322592 -164.097 -1.6972468 -125.42155
30700000000 -2.4166934 84.91851 -14.278058 -163.81793 -14.284105 -163.85823 -1.7547655 -125.73023
30730000000 -2.4355743 84.828331 -14.247016 -163.88054 -14.235559 -163.71843 -1.749842 -126.44112
30760000000 -2.4333608 84.304581 -14.186323 -163.50789 -14.201753 -163.33725 -1.7680858 -126.53185
30790000000 -2.4189696 84.149971 -14.143276 -163.23853 -14.103472 -163.1226 -1.685378 -126.31377
30820000000 -2.4406357 83.975952 -14.054595 -163.10416 -14.080248 -162.96141 -1.8277644 -127.78831
30850000000 -2.4601986 83.558708 -14.022103 -162.88408 -14.021646 -162.80873 -1.7207342 -127.06872
30880000000 -2.4019442 83.333824 -13.950239 -162.74773 -13.942588 -162.67685 -1.8339931 -127.53451
30910000000 -2.4419341 83.205124 -13.932093 -162.67805 -13.895104 -162.58931 -1.7567636 -128.25134
30940000000 -2.4480453 82.654968 -13.819021 -162.57555 -13.827882 -162.77821 -1.7981099 -128.37129
30970000000 -2.4281209 82.625572 -13.772918 -162.67851 -13.788334 -162.64088 -1.7994239 -128.38344
31000000000 -2.4366527 82.424835 -13.743172 -162.76175 -13.733857 -162.49602 -1.768544 -129.00314
31030000000 -2.4345181 81.912651 -13.685839 -162.4366 -13.653439 -162.35228 -1.805059 -129.01695
31060000000 -2.4123936 82.002075 -13.639821 -162.32329 -13.651902 -162.3687 -1.7897105 -129.09221
31090000000 -2.4377954 81.762115 -13.603252 -162.20384 -13.621946 -162.29832 -1.806666 -130.05399
31120000000 -2.4229312 81.262932 -13.583929 -162.11542 -13.585735 -162.08133 -1.8188161 -130.0304
31150000000 -2.3946431 81.283562 -13.542567 -161.80252 -13.53131 -161.9202 -1.7658936 -129.75188
31180000000 -2.4408822 80.998672 -13.486749 -161.93996 -13.513118 -161.85408 -1.8404549 -131.16861
31210000000 -2.4208319 80.614944 -13.447104 -161.65736 -13.439833 -161.51291 -1.7585551 -130.76605
31240000000 -2.3914807 80.412292 -13.379846 -161.40195 -13.376987 -161.42116 -1.8347387 -131.08777
31270000000 -2.4120619 80.337906 -13.332445 -161.12369 -13.336334 -161.22751 -1.7793939 -131.97569
31300000000 -2.4149692 79.670097 -13.259705 -161.11887 -13.271592 -161.21223 -1.8006401 -131.58795
31330000000 -2.3749418 79.825294 -13.217381 -160.90749 -13.222836 -161.06586 -1.8099477 -132.5273
31360000000 -2.4323866 79.457314 -13.145729 -161.00098 -13.137464 -160.9752 -1.8382528 -132.52235
31390000000 -2.3891611 79.002289 -13.082611 -160.83769 -13.077782 -160.80086 -1.7713451 -133.12912
31420000000 -2.3948925 79.071892 -13.008945 -160.69859 -13.031527 -160.68639 -1.8528174 -133.19054
31450000000 -2.4417548 78.779556 -12.931061 -160.657 -12.950085 -160.67339 -1.7914393 -133.72978
31480000000 -2.4133174 78.29921 -12.891557 -160.65953 -12.907106 -160.56297 -1.8654053 -134.29527
31510000000 -2.3970828 78.346848 -12.845864 -160.65468 -12.836699 -160.38802 -1.8341964 -134.01329
31540000000 -2.4536011 78.128281 -12.79365 -160.37297 -12.76619 -160.57562 -1.8494484 -135.00348
31570000000 -2.4185047 77.681572 -12.684377 -160.66327 -12.694672 -160.59647 -1.8556 -135.01871
31600000000 -2.4159942 77.712219 -12.65495 -160.7289 -12.643562 -160.49106 -1.8790758 -135.09981
31630000000 -2.4566014 77.463585 -12.576124 -160.65016 -12.586828 -160.52766 -1.9033027 -135.862
31660000000 -2.4252028 76.992722 -12.515147 -160.57368 -12.530845 -160.58212 -1.8524078 -135.99886
31690000000 -2.4289141 77.075211 -12.473242 -160.5354 -12.426743 -160.55786 -1.9555352 -136.4352
31720000000 -2.4745588 76.833527 -12.390727 -160.66431 -12.393402 -160.70576 -1.9028678 -136.46533
31750000000 -2.4613454 76.432343 -12.370128 -160.89256 -12.348072 -160.74347 -1.8977283 -137.14565
31780000000 -2.4680374 76.493355 -12.308828 -160.85054 -12.305752 -160.7812 -1.9291626 -137.27039
31810000000 -2.4980831 76.268776 -12.240105 -160.93533 -12.252818 -160.86243 -1.9699643 -137.5824
31840000000 -2.4622982 75.830513 -12.197058 -161.12375 -12.178762 -160.97833 -1.9154408 -138.1068
31870000000 -2.4772675 75.824287 -12.14502 -161.037 -12.150012 -161.28821 -1.9689637 -137.88481
31900000000 -2.4950027 75.470116 -12.089499 -161.15166 -12.095887 -161.28781 -1.9655365 -138.68526
31930000000 -2.4803741 75.321228 -12.036591 -161.46288 -12.066836 -161.34354 -1.9310924 -138.78189
31960000000 -2.499166 75.315033 -12.01049 -161.27505 -12.022049 -161.29991 -2.0052028 -139.01593
31990000000 -2.5280249 75.043541 -11.994143 -161.5126 -11.968475 -161.3743 -1.9559791 -139.33398
32020000000 -2.494493 74.584106 -11.910317 -161.44522 -11.927582 -161.44832 -1.9839823 -139.79475
32050000000 -2.5133247 74.72683 -11.882993 -161.38997 -11.89228 -161.32678 -2.0088074 -140.06192
32080000000 -2.5691614 74.371445 -11.849555 -161.46582 -11.831923 -161.54834 -2.004658 -140.07253
32110000000 -2.5241947 74.088905 -11.815783 -161.5323 -11.777209 -161.56631 -1.9727056 -140.8317
32140000000 -2.5062363 74.023216 -11.741385 -161.61313 -11.727277 -161.4671 -2.0274227 -140.6581
32170000000 -2.5642617 73.69207 -11.72952 -161.67522 -11.694731 -161.42023 -2.0084362 -141.26735
32200000000 -2.562948 73.368034 -11.701725 -161.50426 -11.67837 -161.40273 -2.0086038 -141.25497
32230000000 -2.5533087 73.383293 -11.618795 -161.60248 -11.622559 -161.37431 -2.0143471 -141.40718
32260000000 -2.5775712 72.969749 -11.561038 -161.70508 -11.585541 -161.52223 -1.9837972 -142.33904
32290000000 -2.5909445 72.500443 -11.54876 -161.48241 -11.544913 -161.40166 -2.0308235 -141.99547
32320000000 -2.59587 72.724915 -11.476823 -161.27293 -11.463605 -161.40472 -2.0146444 -142.68149
32350000000 -2.6275227 72.387207 -11.419662 -161.28763 -11.411857 -161.37125 -1.9998661 -142.90094
32380000000 -2.6106739 71.982254 -11.346622 -161.50072 -11.335162 -161.41713 -2.0148382 -143.3387
32410000000 -2.6264415 71.739243 -11.300848 -161.36018 -11.3006 -161.29744 -1.9983784 -143.45151
32440000000 -2.6724679 71.476776 -11.260858 -161.46027 -11.257157 -161.44119 -2.0766814 -143.70502
32470000000 -2.6335073 71.187668 -11.183055 -161.52496 -11.167925 -161.4297 -1.9654481 -144.63968
32500000000 -2.646163 71.100319 -11.120958 -161.51445 -11.126405 -161.48911 -2.0586891 -144.32774
32530000000 -2.6985669 70.739952 -11.061987 -161.6104 -11.060864 -161.7448 -2.0817742 -145.13354
32560000000 -2.6918626 70.432785 -10.998782 -161.70178 -11.00736 -161.62012 -2.0120394 -145.24573
32590000000 -2.7005603 70.347786 -10.936711 -161.79916 -10.922095 -161.75327 -2.0605793 -145.68599
32620000000 -2.7277727 70.103996 -10.875988 -161.92619 -10.902374 -161.95518 -2.1043677 -146.12712
32650000000 -2.7440355 69.573486 -10.805594 -162.07741 -10.820797 -161.93192 -2.0906243 -146.20445
32680000000 -2.7558863 69.638321 -10.774994 -162.12001 -10.769971 -162.03362 -2.0946848 -146.68558
32710000000 -2.7736495 69.293571 -10.704391 -162.24646 -10.695998 -162.2959 -2.1175551 -147.019
32740000000 -2.7892287 68.979042 -10.654757 -162.46249 -10.672118 -162.39258 -2.1781371 -147.74428
32770000000 -2.8074214 68.741493 -10.590749 -162.56654 -10.601727 -162.56299 -2.083812 -147.17831
32800000000 -2.8273134 68.569687 -10.547103 -162.89386 -10.529853 -162.8275 -2.1998506 -148.09253
32830000000 -2.8303001 68.251106 -10.505734 -163.03938 -10.496413 -162.858 -2.1517885 -148.79738
32860000000 -2.821178 68.131996 -10.466647 -163.05307 -10.465049 -163.0024 -2.2176178 -148.14642
32890000000 -2.8647654 67.715302 -10.403695 -163.30304 -10.376344 -163.16183 -2.2037985 -148.97601
32920000000 -2.8867841 67.531532 -10.377306 -163.32458 -10.359664 -163.22757 -2.2323835 -149.49539
32950000000 -2.8667459 67.365715 -10.314914 -163.39926 -10.309406 -163.46486 -2.175034 -149.13756
32980000000 -2.8957124 66.935829 -10.276848 -163.56731 -10.26477 -163.40952 -2.3295679 -149.8488
33010000000 -2.8704803 66.487823 -10.239805 -163.75336 -10.220263 -163.59348 -2.2245753 -150.51906
33040000000 -2.8960397 66.615196 -10.161534 -163.70636 -10.174051 -163.77118 -2.2135205 -149.98697
33070000000 -2.9269574 66.161491 -10.120134 -163.71942 -10.126458 -163.79179 -2.356385 -150.68011
33100000000 -2.9031038 65.782478 -10.051797 -164.07777 -10.092346 -163.96527 -2.2621317 -151.42422
33130000000 -2.9319901 65.65802 -10.002294 -164.0715 -9.9995737 -163.93675 -2.2618468 -150.99562
33160000000 -2.9735415 65.250908 -9.9665012 -164.36118 -9.9688377 -164.1601 -2.446624 -151.54224
33190000000 -2.940197 64.972595 -9.8999071 -164.44099 -9.8905907 -164.59782 -2.2179291 -152.89188
33220000000 -2.9856093 64.857964 -9.8430405 -164.47954 -9.8563156 -164.37082 -2.4743748 -151.4738
33250000000 -2.9996805 64.53923 -9.790657 -164.995 -9.7774248 -164.82364 -2.3670504 -153.00093
33280000000 -3.0260735 64.244881 -9.7671795 -165.02669 -9.7393398 -165.10503 -2.4225283 -153.39581
33310000000 -2.9980984 64.122757 -9.7034187 -165.28944 -9.6874657 -165.29286 -2.4164884 -153.15057
33340000000 -3.0284357 63.663082 -9.6547709 -165.64531 -9.6542282 -165.50479 -2.5180116 -153.74744
33370000000 -3.0169909 63.466957 -9.6339121 -165.68752 -9.606163 -165.81888 -2.4453311 -154.54478
33400000000 -3.0442162 63.394676 -9.5836611 -165.90492 -9.5794868 -165.87305 -2.4507051 -153.6156
33430000000 -3.0492902 63.071362 -9.5546007 -166.17876 -9.555603 -166.06021 -2.600261 -154.54012
33460000000 -3.0171854 62.803261 -9.5340261 -166.25517 -9.5272312 -166.30948 -2.4879737 -155.32784
33490000000 -3.0651283 62.4501 -9.4911051 -166.32715 -9.4842482 -166.34085 -2.553026 -153.97775
33520000000 -3.0850589 62.245571 -9.4737558 -166.68399 -9.4749212 -166.649 -2.6284397 -155.27013
33550000000 -3.0530105 62.118919 -9.4337063 -166.80412 -9.4257383 -166.80333 -2.4995198 -156.05118
33580000000 -3.0599205 61.790024 -9.3631325 -166.71918 -9.3793831 -166.71353 -2.633878 -154.61021
33610000000 -3.0732484 61.464314 -9.3483944 -166.91029 -9.3303938 -166.80002 -2.6648676 -156.35674
33640000000 -3.0595524 61.381584 -9.3094292 -167.06996 -9.3110771 -167.00485 -2.5309818 -156.33868
33670000000 -3.0650115 61.226151 -9.2952423 -167.05869 -9.273962 -167.07779 -2.6105237 -156.45572
33700000000 -3.0387192 60.733837 -9.2239008 -167.08646 -9.233983 -167.15797 -2.7206357 -156.85008
33730000000 -3.0522399 60.429657 -9.18923 -167.1877 -9.1601877 -167.22511 -2.5179012 -157.22729
33760000000 -3.0628254 60.245949 -9.145752 -167.31746 -9.138236 -167.35971 -2.5625241 -157.34869
33790000000 -3.080878 60.096691 -9.0997086 -167.38916 -9.096261 -167.4124 -2.7966547 -158.02843
33820000000 -3.0513973 59.742744 -9.0415564 -167.7032 -9.0404787 -167.59882 -2.5605626 -158.60255
33850000000 -3.0914268 59.528835 -8.9659615 -167.66371 -8.9719906 -167.72498 -2.6740124 -157.79341
33880000000 -3.0815098 59.166035 -8.950036 -168.06332 -8.9288731 -168.01292 -2.7590377 -159.48703
33910000000 -3.0690134 59.149841 -8.9059753 -168.28017 -8.9068518 -168.04582 -2.6317508 -159.69704
33940000000 -3.0569715 58.81456 -8.8503933 -168.3997 -8.8740406 -168.22844 -2.7393789 -158.92017
33970000000 -3.0808048 58.430611 -8.8324165 -168.44278 -8.8152819 -168.40303 -2.7993076 -160.46936
34000000000 -3.0641029 58.379105 -8.7718573 -168.62585 -8.7608118 -168.65669 -2.6123519 -160.08597
34030000000 -3.0829554 58.348286 -8.7478466 -168.76079 -8.7292719 -168.59778 -2.7880533 -160.74413
34060000000 -3.0796325 57.822826 -8.675005 -168.86781 -8.6810846 -168.84225 -2.8542573 -160.96935
34090000000 -3.0944362 57.515015 -8.6480446 -169.13953 -8.6531925 -169.07635 -2.6919811 -161.35559
34120000000 -3.0928793 57.403934 -8.5870743 -169.38361 -8.596077 -169.36894 -2.7293189 -161.36656
34150000000 -3.0885322 57.166637 -8.5531902 -169.3699 -8.5355635 -169.35597 -2.9334497 -162.21681
34180000000 -3.0505793 56.968281 -8.5310822 -169.6088 -8.4958038 -169.495 -2.6998653 -162.51501
34210000000 -3.0633595 56.645336 -8.4431057 -169.78458 -8.4171085 -169.53578 -2.7646792 -161.60976
34240000000 -3.117635 56.44796 -8.4371977 -169.60912 -8.4378719 -169.66185 -2.9463012 -164.16187
34270000000 -3.0572338 56.210011 -8.3616686 -169.91388 -8.3587904 -169.88774 -2.7270741 -163.1239
34300000000 -3.092186 55.947086 -8.3261719 -169.86307 -8.3133516 -169.87132 -2.9283297 -163.32034
34330000000 -3.0984881 55.619511 -8.2556276 -170.10208 -8.2666178 -170.07155 -2.8829479 -164.76567
34360000000 -3.0710177 55.49099 -8.2120972 -170.39102 -8.218401 -170.36868 -2.7774587 -164.84618
34390000000 -3.0848014 55.315926 -8.1543226 -170.42502 -8.1698065 -170.35371 -2.95118 -164.51782
34420000000 -3.0934756 54.962158 -8.1079683 -170.66931 -8.0890379 -170.54161 -2.9709036 -165.59833
34450000000 -3.1078792 54.878941 -8.1004267 -170.8264 -8.0779963 -170.97617 -2.7643793 -165.84637
34480000000 -3.1501691 54.624401 -8.0046349 -171.19725 -8.0044737 -171.06163 -3.0335968 -165.93796
34510000000 -3.1398804 54.240574 -7.9556322 -171.33447 -7.9794836 -171.31459 -3.0183759 -166.93524
34540000000 -3.1180215 53.925869 -7.9198704 -171.56761 -7.9149728 -171.57545 -2.8992996 -166.7007
34570000000 -3.1418843 53.852352 -7.8765831 -171.90488 -7.8828521 -171.83255 -2.9989746 -166.88373
34600000000 -3.1562204 53.488682 -7.830936 -172.05612 -7.824285 -171.97818 -3.0637758 -168.37213
34630000000 -3.1300898 53.311855 -7.7957025 -172.26416 -7.8065715 -172.26782 -2.9224446 -167.59737
34660000000 -3.1755526 53.076168 -7.7463441 -172.36652 -7.7401285 -172.37953 -3.113157 -167.58304
34690000000 -3.1988387 52.592896 -7.7023077 -172.6857 -7.6994772 -172.63933 -3.0634334 -169.65547
34720000000 -3.1638241 52.473522 -7.6732316 -173.08119 -7.6612511 -172.91508 -3.032795 -168.96774
34750000000 -3.2392972 52.283852 -7.6302924 -173.18433 -7.620398 -173.16161 -3.1226475 -168.53084
34780000000 -3.2228 51.905396 -7.5601006 -173.12727 -7.5771446 -173.20255 -3.1400087 -170.98059
34810000000 -3.1956339 51.654945 -7.5163908 -173.58131 -7.5208182 -173.57545 -3.0578079 -169.49052
34840000000 -3.2523208 51.569031 -7.4803944 -173.8121 -7.4931707 -173.64136 -3.1874423 -169.97734
34870000000 -3.2446909 51.112282 -7.4366212 -173.95114 -7.432775 -173.90874 -3.2377388 -171.64793
34900000000 -3.2455995 50.85524 -7.4060879 -174.37419 -7.4022932 -174.17216 -3.0693145 -170.45667
34930000000 -3.3191733 50.743038 -7.3342204 -174.27173 -7.3434868 -174.23596 -3.273705 -171.25676
34960000000 -3.2984648 50.139763 -7.2856035 -174.71822 -7.3002658 -174.64293 -3.2328863 -172.58562
34990000000 -3.2964182 50.159279 -7.2738562 -174.71017 -7.2623281 -174.82532 -3.1077535 -171.91043
35020000000 -3.3439693 50.053486 -7.1729703 -174.97455 -7.1844788 -174.9875 -3.3873682 -171.62886
35050000000 -3.3757708 49.400673 -7.1502271 -175.31787 -7.1465445 -175.33998 -3.2006304 -174.12082
35080000000 -3.3483434 49.294849 -7.082407 -175.5201 -7.0819969 -175.45001 -3.2201686 -172.98413
35110000000 -3.439533 49.059139 -7.0497222 -175.8703 -7.0461102 -175.89307 -3.4074137 -173.31914
35140000000 -3.4302495 48.54755 -6.990572 -176.0433 -7.0062232 -176.10959 -3.2815795 -174.90524
35170000000 -3.4481149 48.413952 -6.9436994 -176.27863 -6.9443002 -176.33257 -3.2493713 -174.17664
35200000000 -3.5010097 48.190235 -6.8877778 -176.59866 -6.8967476 -176.58908 -3.4604344 -174.79323
35230000000 -3.5311339 47.563908 -6.8367176 -177.06912 -6.8450875 -176.94778 -3.4303389 -176.01274
35260000000 -3.5212786 47.585121 -6.8032508 -177.11972 -6.8134918 -177.13638 -3.2595489 -175.2238
35290000000 -3.6060834 47.181637 -6.7481527 -177.72244 -6.744957 -177.70976 -3.6477554 -175.75507
35320000000 -3.6144958 46.623749 -6.7130556 -178.06807 -6.7248831 -177.97704 -3.3557885 -177.44978
35350000000 -3.6391196 46.552814 -6.6899266 -178.17906 -6.6874776 -178.24934 -3.53407 -176.06757
35380000000 -3.6699111 46.444214 -6.6327391 -178.5885 -6.6482673 -178.6143 -3.6387551 -176.73705
35410000000 -3.6840458 45.92445 -6.5971718 -178.98996 -6.5912213 -179.05852 -3.5124252 -178.61444
35440000000 -3.7077253 45.862473 -6.5803032 -179.37396 -6.5727735 -179.36351 -3.5793571 -177.13826
35470000000 -3.8027565 45.754997 -6.5482426 -179.47408 -6.5356989 -179.48698 -3.7161632 -177.21292
35500000000 -3.7799165 45.142551 -6.5043182 -179.74011 -6.5126987 -179.7112 -3.6214001 -179.52298
35530000000 -3.7666707 45.037838 -6.4817996 -179.9955 -6.4689531 179.99611 -3.5898707 -177.96124
35560000000 -3.8634458 44.591137 -6.4384766 179.73193 -6.4391689 179.70979 -3.8599343 -178.98264
35590000000 -3.8682976 44.130131 -6.4116707 179.20355 -6.4099956 179.44247 -3.6255777 179.81068
35620000000 -3.8510997 44.155178 -6.3653135 179.19083 -6.3438683 179.33852 -3.62573 -178.74969
35650000000 -3.9345479 43.897392 -6.2768154 178.84215 -6.2802863 178.93878 -3.9119322 179.69635
35680000000 -3.9360621 43.314404 -6.2610826 178.53529 -6.2792807 178.5408 -3.7412386 178.83795
35710000000 -3.9777842 43.261715 -6.2321219 178.38388 -6.2287207 178.36537 -3.7430189 179.7403
35740000000 -4.0208025 42.891823 -6.1997428 178.10002 -6.1783509 178.07104 -3.9685755 178.44072
35770000000 -4.0221748 42.274578 -6.167367 177.61568 -6.1497698 177.67348 -3.8004246 177.81241
35800000000 -4.029964 42.034645 -6.1063023 177.37697 -6.1004786 177.35278 -3.8723044 178.47362
35830000000 -4.1207776 41.742641 -6.0590343 177.1331 -6.0622001 177.18098 -4.0729504 177.48187
35860000000 -4.1096191 41.417824 -6.0376611 176.79021 -6.019845 176.72992 -3.9562128 176.34865
35890000000 -4.1201811 41.109756 -5.9895811 176.35492 -5.9994335 176.57776 -3.883369 177.2417
35920000000 -4.203505 40.768677 -5.9648428 175.90134 -5.9806013 176.06415 -4.367012 177.06024
35950000000 -4.2061672 40.529018 -5.9304247 175.59541 -5.931335 175.58076 -3.9849458 174.84285
35980000000 -4.2503595 40.448139 -5.9032283 175.32266 -5.9004521 175.38754 -4.1861897 176.98158
36010000000 -4.2754197 40.159195 -5.8650594 174.96286 -5.851068 174.90106 -4.3351245 175.44339
36040000000 -4.2978873 39.568722 -5.8789411 174.62019 -5.851028 174.6387 -4.208828 174.15007
36070000000 -4.3434448 39.595257 -5.8398857 174.2688 -5.8153238 174.39066 -4.373548 176.2036
36100000000 -4.3467202 39.311504 -5.8106213 173.91519 -5.7962093 173.98453 -4.3949633 175.17758
36130000000 -4.3502574 38.796818 -5.8121381 173.66856 -5.7941942 173.6929 -4.3264723 172.97769
36160000000 -4.3858418 38.665054 -5.7810163 173.40234 -5.7839088 173.41109 -4.4784184 175.96315
36190000000 -4.444416 38.408154 -5.7776914 173.05646 -5.7913446 173.19859 -4.5929561 174.32333
36220000000 -4.4118285 38.19416 -5.7638931 172.81117 -5.7704978 172.90587 -4.3289876 173.65483
36250000000 -4.383091 38.093807 -5.7826457 172.73813 -5.768405 172.73706 -4.5317259 174.02002
36280000000 -4.4374881 37.657616 -5.7303329 172.65428 -5.737072 172.61754 -4.6557531 174.47421
36310000000 -4.4192953 37.319901 -5.7181711 172.54156 -5.7357492 172.60336 -4.4147415 173.02592
36340000000 -4.3910847 37.286037 -5.7137895 172.4881 -5.6900434 172.46027 -4.3340425 173.60909
36370000000 -4.3990541 36.697308 -5.6709394 172.47984 -5.6797118 172.49605 -4.7437191 172.8644
36400000000 -4.3839202 36.081745 -5.6106558 172.34294 -5.6172686 172.39948 -4.3370295 172.16602
36430000000 -4.4137993 36.104259 -5.5869141 172.33119 -5.568924 172.33199 -4.4610763 172.62143
36460000000 -4.4030294 35.585182 -5.5282979 172.14246 -5.5350151 172.27623 -4.5413418 171.11113
36490000000 -4.3562121 34.918018 -5.4769378 171.88387 -5.4654388 172.13019 -4.4909453 170.37389
36520000000 -4.4105802 34.505554 -5.4103813 171.88115 -5.3986282 172.14977 -4.4709592 171.28316
36550000000 -4.4737468 33.948414 -5.357336 171.68307 -5.3462787 171.82104 -4.6512113 169.7462
36580000000 -4.379775 33.722088 -5.2941427 171.44446 -5.2929945 171.34311 -4.4469957 168.47011
36610000000 -4.3966074 33.530617 -5.2567058 171.14772 -5.2229042 171.13745 -4.6750641 169.37524
36640000000 -4.4881778 32.54604 -5.15448 170.72916 -5.1625485 170.86066 -4.6768446 168.07025
36670000000 -4.4800286 32.455284 -5.0879827 170.60626 -5.1111293 170.52646 -4.625998 167.56415
36700000000 -4.490428 32.357216 -5.0599465 170.40074 -5.07128 170.35826 -4.6288009 167.09729
36730000000 -4.4806814 31.694233 -4.9880853 170.14471 -5.000051 170.1525 -4.9670148 166.603
36760000000 -4.4826164 30.99835 -4.9645314 169.65324 -4.9546881 169.76517 -4.6855402 165.8394
36790000000 -4.5429935 31.103621 -4.9024334 169.2321 -4.9107366 169.30064 -4.741478 166.48778
36820000000 -4.5472951 30.767349 -4.8675261 169.19954 -4.8394399 169.04137 -5.0421267 164.33496
36850000000 -4.4543343 30.175348 -4.8202791 168.7495 -4.8038554 168.82162 -4.8727679 164.74576
36880000000 -4.5738664 29.966755 -4.7514491 168.39894 -4.756495 168.41069 -4.9524589 164.49753
36910000000 -4.5996389 29.424425 -4.7081423 168.03384 -4.7106237 167.99152 -5.0465279 163.51443
36940000000 -4.5281687 29.34804 -4.6907873 167.6797 -4.6825891 167.8622 -5.0491886 162.84846
36970000000 -4.5251493 28.920691 -4.622333 167.3167 -4.633358 167.1991 -5.0175529 163.60123
37000000000 -4.6043358 28.430687 -4.5808992 167.10651 -4.5813532 167.17854 -5.3344574 161.62299
37030000000 -4.571764 28.500505 -4.5527387 166.57959 -4.5462418 166.63799 -5.0489664 162.48341
37060000000 -4.6004591 28.413984 -4.5150042 166.35281 -4.5127697 166.37343 -5.2358556 160.92793
37090000000 -4.5695672 27.593922 -4.4496236 166.07053 -4.4495468 166.03085 -5.3894653 161.17842
37120000000 -4.5831151 27.450954 -4.4281807 165.49063 -4.4342546 165.6458 -5.3096385 160.76521
37150000000 -4.6931543 27.093298 -4.4099584 165.23538 -4.4093843 165.26907 -5.2154484 160.46309
37180000000 -4.6200585 26.826283 -4.3183446 165.25934 -4.312057 165.25455 -5.5264902 158.74329
37210000000 -4.5634079 26.434835 -4.2888265 164.67795 -4.2655811 164.73138 -5.4363565 159.14516
37240000000 -4.6739378 26.142834 -4.2327981 164.23436 -4.2219448 164.28255 -5.4288449 159.58028
37270000000 -4.6909771 25.493639 -4.2038145 163.93773 -4.2058163 164.10493 -5.5669608 157.4301
37300000000 -4.5937133 25.846134 -4.1872697 163.76596 -4.1597495 163.83646 -5.5495315 157.31737
37330000000 -4.6773167 24.937042 -4.1062078 163.30736 -4.0829201 163.29137 -5.6518674 157.57741
37360000000 -4.7405109 24.688442 -4.074615 162.76906 -4.0556283 162.81393 -5.6958404 156.55525
37390000000 -4.7166533 24.709301 -4.0124516 162.46687 -4.0363994 162.48427 -5.6719346 156.14455
37420000000 -4.7675433 24.333918 -4.0085669 162.14189 -3.9927745 162.14612 -5.7764773 155.70251
37450000000 -4.7545834 23.492762 -3.9199572 161.75659 -3.9130075 161.65492 -5.9166751 155.58066
37480000000 -4.8305535 23.579395 -3.8929408 161.29083 -3.8978713 161.24863 -5.841723 154.84746
37510000000 -4.8462329 23.20442 -3.8728216 160.83917 -3.871712 160.92618 -5.8580508 154.1721
37540000000 -4.8100996 22.999235 -3.7911146 160.33681 -3.7948618 160.4915 -6.1495833 154.24487
37570000000 -4.8336601 22.554279 -3.7749565 159.98422 -3.7710509 160.08214 -5.9479671 153.52052
37600000000 -4.9877791 22.496958 -3.7737107 159.67334 -3.7542808 159.85432 -6.1126075 152.67422
37630000000 -4.9093237 21.925642 -3.7055526 159.17793 -3.6987517 159.10913 -6.2095509 153.13683
37660000000 -4.9199009 22.068151 -3.6679158 158.90321 -3.665576 159.03479 -6.1724949 151.23251
37690000000 -5.0309744 21.354763 -3.6369286 158.45941 -3.6488988 158.43867 -6.3046932 151.87279
37720000000 -5.0313177 20.867872 -3.6123159 157.91373 -3.5968728 157.94351 -6.3604298 151.63377
37750000000 -5.0927367 21.192055 -3.5967002 157.70557 -3.6160402 157.85966 -6.2585282 149.7493
37780000000 -5.1407661 20.759287 -3.5120902 157.22615 -3.5212331 157.42741 -6.5386648 150.30434
37810000000 -5.1398726 20.242575 -3.4985445 156.69868 -3.5040553 156.79637 -6.472806 149.66495
37840000000 -5.2410531 20.273754 -3.4734066 156.19196 -3.4713411 156.35254 -6.5941405 148.46936
37870000000 -5.2772136 20.2549 -3.4499671 156.00809 -3.4594266 155.94629 -6.5900064 149.18477
37900000000 -5.3365464 19.60103 -3.4320121 155.42934 -3.4196439 155.32657 -6.7053246 148.4595
37930000000 -5.3091173 19.527357 -3.3625016 155.05414 -3.3644285 155.04906 -6.8531976 146.07585
37960000000 -5.5254507 19.492468 -3.3937628 154.49168 -3.3973248 154.66768 -6.7223153 149.71106
37990000000 -5.5449882 19.111502 -3.3227332 154.04926 -3.3337009 154.11693 -6.9508963 145.56624
38020000000 -5.5748787 18.910532 -3.311703 153.72675 -3.3323176 153.73451 -6.929934 146.91183
38050000000 -5.6865654 18.657909 -3.324883 153.27505 -3.3089242 153.32925 -6.9976215 146.43671
38080000000 -5.6880903 18.52718 -3.2606916 152.68871 -3.262558 152.91469 -7.1215258 146.27428
38110000000 -5.7802525 18.874495 -3.2639124 152.29927 -3.2814517 152.28072 -7.093452 145.28905
38140000000 -5.8037038 18.209003 -3.266181 152.10988 -3.2584279 151.9819 -7.0217128 144.9147
38170000000 -5.8738537 18.1355 -3.2268889 151.7258 -3.2261295 151.63269 -7.4960423 144.51062
38200000000 -5.8928533 18.165874 -3.217186 151.23875 -3.1985071 151.25667 -7.1458006 144.24045
38230000000 -5.9712219 17.895355 -3.2023175 150.91656 -3.1901031 150.8598 -7.1677432 143.57382
38260000000 -6.021565 17.481297 -3.1681557 150.5591 -3.1604893 150.35184 -7.6796627 143.94344
38290000000 -6.0442142 17.981918 -3.1368334 150.35664 -3.1300097 150.34134 -7.279295 141.86176
38320000000 -6.232831 16.965593 -3.1371403 149.82907 -3.1424773 149.97476 -7.4997864 143.57387
38350000000 -6.2925839 17.04987 -3.1134048 149.51625 -3.0966864 149.50873 -7.6454067 141.2775
38380000000 -6.2749043 16.894163 -3.0565691 149.17488 -3.0622389 149.22937 -7.4807105 139.78226
38410000000 -6.4025216 16.600685 -3.0421631 148.90169 -3.0559876 148.93654 -7.7789359 142.21344
38440000000 -6.4228735 16.204283 -3.0336254 148.35948 -3.016252 148.32571 -7.6413245 139.78548
38470000000 -6.5252433 16.239037 -3.0123801 148.19342 -3.0027115 148.14505 -7.860404 139.14105
38500000000 -6.6177931 15.814847 -2.9794455 147.82127 -2.969409 147.76228 -7.8928566 138.76656
38530000000 -6.6512585 15.491322 -2.9458532 147.41753 -2.9278018 147.48083 -8.1422491 139.79669
38560000000 -6.7543283 15.089633 -2.9125326 146.94144 -2.9161417 146.97342 -7.8352962 137.46657
38590000000 -6.9129066 14.864565 -2.9053531 146.64403 -2.8873663 146.6459 -8.1907139 137.49486
38620000000 -6.9721141 13.971248 -2.8655477 146.16615 -2.8516345 146.31766 -8.4131384 137.07161
38650000000 -6.9714069 14.189165 -2.8290725 146.0004 -2.8253419 145.93443 -8.2111311 135.47153
38680000000 -7.1421065 13.548215 -2.8146446 145.6508 -2.7900739 145.74437 -8.1932964 137.2093
38710000000 -7.1908417 13.132616 -2.7833631 145.1702 -2.767478 145.14421 -8.6527328 133.58519
38740000000 -7.3270535 13.089711 -2.7377381 144.67706 -2.7135246 144.72832 -8.4745426 135.65976
38770000000 -7.5265684 12.78083 -2.6917045 144.47617 -2.6881213 144.43718 -8.5470228 134.66025
38800000000 -7.5524244 12.046576 -2.6891356 144.02837 -2.6764712 143.903 -8.8190842 132.33713
38830000000 -7.6375351 11.871016 -2.6683862 143.67668 -2.6546009 143.56895 -8.8231993 133.18843
38860000000 -7.8127604 11.694203 -2.6178639 143.19034 -2.5907025 143.42107 -8.7758732 132.14944
38890000000 -7.9108787 10.609393 -2.5711315 142.97118 -2.565285 142.98917 -9.2875385 132.37079
38920000000 -7.9610314 10.396444 -2.5507352 142.38181 -2.5334017 142.4754 -9.0064573 130.57805
38950000000 -8.1570444 10.116947 -2.5113313 142.12535 -2.5184891 142.02936 -9.1668463 131.27599
38980000000 -8.2928352 9.9407492 -2.4762039 141.62759 -2.4932656 141.58736 -9.6839705 130.08411
39010000000 -8.4112892 10.077471 -2.4573028 141.07907 -2.4180999 141.07124 -9.2745352 129.83163
39040000000 -8.4877281 8.8441315 -2.4057493 140.72462 -2.411412 140.76923 -9.4902792 129.2618
39070000000 -8.6531811 8.5821161 -2.400233 140.35373 -2.3757014 140.34961 -9.7941542 128.68378
39100000000 -8.7769423 7.9881368 -2.3455629 139.89378 -2.330368 140.00478 -9.6532946 127.47162
39130000000 -8.927906 7.5551872 -2.2879679 139.38083 -2.3174112 139.59315 -10.006045 128.33163
39160000000 -8.9952316 6.2869687 -2.2627032 139.0921 -2.2917516 139.03094 -10.179041 127.14728
39190000000 -9.1206284 5.9948602 -2.2384923 138.55994 -2.2362568 138.6201 -10.094988 124.76074
39220000000 -9.3112955 5.5319338 -2.2126334 138.00552 -2.2105174 138.18764 -10.224412 127.22432
39250000000 -9.2475681 5.2806411 -2.2018001 137.76402 -2.193485 137.61572 -10.695262 124.50151
39280000000 -9.445262 4.3477817 -2.1715586 137.12321 -2.14433 137.16919 -10.427259 124.89005
39310000000 -9.5489502 3.3392322 -2.0963054 136.75012 -2.1252801 136.79683 -10.830055 124.43809
39340000000 -9.7105017 3.4552498 -2.0847645 136.21623 -2.085196 136.18817 -11.034126 122.88221
39370000000 -9.7729397 2.4438252 -2.0690079 135.72066 -2.0722888 135.69046 -11.007935 122.7365
39400000000 -9.9613714 1.1264634 -2.0220022 135.22295 -1.9963722 135.17259 -11.103952 124.74287
39430000000 -10.111849 0.32749313 -2.0096564 134.74327 -1.9999737 134.60226 -11.542646 120.52347
39460000000 -10.333948 -0.48440167 -1.9534975 134.0639 -1.9601789 134.18303 -11.572529 121.0727
39490000000 -10.318905 -0.76253384 -1.9412045 133.67674 -1.9113966 133.71017 -11.603442 123.5055
39520000000 -10.512954 -2.0161746 -1.9034768 133.12646 -1.9124773 133.1015 -12.114326 120.94951
39550000000 -10.651602 -3.305527 -1.872032 132.62492 -1.8811638 132.64392 -11.947268 119.07611
39580000000 -10.894232 -3.9811413 -1.8230706 131.98227 -1.8483173 132.09563 -12.384699 122.53392
39610000000 -10.87723 -4.0440259 -1.85015 131.58473 -1.8293191 131.47063 -12.660497 120.19366
39640000000 -10.982919 -5.0217638 -1.8271356 130.77487 -1.8211969 130.98586 -12.063919 119.54039
39670000000 -11.180384 -7.0618901 -1.7781638 130.43439 -1.7812496 130.49498 -12.854201 120.82094
39700000000 -11.42479 -6.700038 -1.7961161 129.81711 -1.7751608 129.74722 -13.366529 118.66707
39730000000 -11.353472 -7.8702059 -1.7487477 129.22531 -1.7409788 129.17789 -12.810761 121.3484
39760000000 -11.588772 -10.182416 -1.7300427 128.76341 -1.7371587 128.70348 -13.163467 118.65301
39790000000 -11.693615 -10.091962 -1.7157828 128.32196 -1.7150319 128.17007 -13.689172 120.2182
39820000000 -11.898037 -10.953946 -1.7024952 127.48469 -1.7253848 127.5045 -13.564457 117.89446
39850000000 -12.024634 -10.737082 -1.7080407 127.06831 -1.7037708 127.06882 -13.475122 122.67654
39880000000 -11.944179 -12.863679 -1.7049823 126.62868 -1.6973811 126.75506 -14.278172 117.85373
39910000000 -12.156532 -14.479963 -1.6837324 125.9836 -1.6692052 126.13293 -13.637215 116.27637
39940000000 -12.4937 -15.655189 -1.6488402 125.36554 -1.6622554 125.55625 -14.688703 124.11755
39970000000 -12.147553 -14.834403 -1.6837405 125.19752 -1.6419827 125.30922 -14.192328 115.04987
40000000000 -12.271376 -16.743721 -1.650496 124.57731 -1.6395009 124.52949 -14.376159 118.96317
40030000000 -12.475826 -19.206577 -1.6419585 123.93235 -1.6337129 124.11848 -14.856941 116.92606
40060000000 -12.7816 -18.376297 -1.6437957 123.5121 -1.6390312 123.5061 -14.941961 118.72721
40090000000 -12.651649 -18.326616 -1.6383327 123.07652 -1.6261778 123.11633 -14.604438 116.8497
40120000000 -12.734789 -20.101036 -1.6096311 122.53518 -1.6252884 122.54069 -15.075629 115.48363
40150000000 -12.716855 -22.569719 -1.5649629 121.89819 -1.5921173 122.04535 -15.711032 115.63428
40180000000 -13.157509 -21.637545 -1.636402 121.49349 -1.6122354 121.53909 -15.381281 113.80872
40210000000 -12.89676 -22.354717 -1.5855452 121.00217 -1.5895302 120.96333 -15.071677 117.93376
40240000000 -12.94974 -24.347145 -1.5810024 120.45554 -1.5671105 120.6274 -16.17136 110.51726
40270000000 -13.297375 -25.010601 -1.5817028 119.98734 -1.6000137 120.00561 -15.947609 111.77105
40300000000 -13.416023 -24.510798 -1.5931745 119.49415 -1.5666739 119.52083 -16.198853 117.02451
40330000000 -13.329628 -23.792391 -1.588964 119.18578 -1.5669698 119.21536 -16.258081 107.49841
40360000000 -13.270309 -27.088751 -1.5538731 118.40559 -1.5420054 118.52053 -16.417925 111.01551
40390000000 -13.589737 -29.281677 -1.57052 117.99314 -1.5675918 118.09035 -17.45932 109.12036
40420000000 -13.805944 -26.390278 -1.5712559 117.52654 -1.5345539 117.59451 -17.132111 110.94892
40450000000 -13.809403 -27.022118 -1.547333 117.13698 -1.5743444 117.19099 -17.147879 105.90011
40480000000 -13.914256 -29.909292 -1.5626786 116.54243 -1.5377603 116.58366 -17.896946 106.03527
40510000000 -14.02373 -32.341385 -1.5768648 116.05388 -1.563441 115.90454 -18.689631 108.06746
40540000000 -14.163371 -27.831057 -1.5963974 115.69084 -1.562892 115.8654 -17.670753 104.47779
40570000000 -14.30479 -30.651011 -1.5679513 115.07791 -1.5606362 115.01006 -18.694742 106.08043
40600000000 -14.104577 -30.245361 -1.5477282 114.71137 -1.5446283 114.60046 -19.46735 99.479507
40630000000 -14.47588 -31.472342 -1.5890447 114.18147 -1.5678744 114.14633 -19.307268 102.4269
40660000000 -14.542465 -30.430973 -1.5682971 113.76988 -1.5654131 113.93465 -19.878872 104.34089
40690000000 -14.473048 -30.923386 -1.5319036 113.47298 -1.5289063 113.51514 -20.95513 96.515114
40720000000 -14.407106 -32.821239 -1.5442146 112.88746 -1.5386142 113.01658 -20.958559 95.526604
40750000000 -14.674634 -32.170635 -1.537991 112.38142 -1.5412073 112.50813 -22.409973 108.41357
40780000000 -14.966515 -30.727098 -1.5643438 112.07345 -1.5365974 112.23364 -21.224562 92.339325
40810000000 -14.861137 -30.590204 -1.5455202 111.78786 -1.5262855 111.74387 -23.25522 93.430122
40840000000 -15.0384 -31.68339 -1.5464499 111.18052 -1.5326382 111.08849 -23.563198 100.32725
40870000000 -15.232898 -31.459106 -1.5254594 110.72308 -1.5428115 110.85894 -24.367311 84.365707
40900000000 -15.388333 -29.500229 -1.5391436 110.36417 -1.5226213 110.56984 -25.581215 97.436577
40930000000 -15.224566 -31.806179 -1.5236135 110.14784 -1.5198927 110.0894 -25.708658 84.49128
40960000000 -15.404173 -29.783064 -1.4923648 109.22347 -1.486709 109.24936 -31.217546 89.705437
40990000000 -15.821647 -29.78661 -1.5645189 109.08935 -1.5204176 109.18595 -27.280163 86.880722
41020000000 -15.800959 -28.443144 -1.5246096 108.44707 -1.5258681 108.53799 -30.800354 98.961098
41050000000 -16.045958 -29.150848 -1.4994389 108.25966 -1.5301392 108.15512 -31.62385 73.871269
41080000000 -16.112942 -29.080917 -1.5233852 107.59636 -1.5139967 107.53471 -36.055084 92.421249
41110000000 -17.073553 -29.915949 -1.5370539 107.04231 -1.497931 107.18056 -41.250156 143.81517
41140000000 -16.803526 -26.229797 -1.5371528 106.75039 -1.5227264 106.8193 -35.175293 136.31416
41170000000 -16.588154 -27.059956 -1.5072702 106.41224 -1.484138 106.64684 -37.692543 -5.3812189
41200000000 -17.269579 -26.701479 -1.5171543 105.75457 -1.5269239 105.76447 -31.052217 -156.44604
41230000000 -17.386137 -23.884216 -1.5356771 105.54397 -1.5253495 105.67431 -37.56221 -85.624977
41260000000 -17.531204 -23.85218 -1.5116374 105.3194 -1.5323792 105.29504 -32.80463 -129.16386
41290000000 -17.611389 -23.688921 -1.5586404 104.57735 -1.5241638 104.55479 -31.968403 -143.65515
41320000000 -17.646229 -19.960606 -1.5574919 104.07153 -1.534418 104.17017 -28.760811 -114.78455
41350000000 -18.198612 -19.285679 -1.5344511 103.93934 -1.5654142 104.01854 -30.192396 -129.27466
41380000000 -18.109755 -16.016842 -1.5345963 103.22258 -1.5449686 103.41589 -26.733458 -125.86703
41410000000 -17.94146 -16.643557 -1.5564868 102.96297 -1.5262554 102.77938 -26.386869 -122.40493
41440000000 -18.214024 -16.362873 -1.5334712 102.65639 -1.527315 102.79926 -26.997696 -113.73294
41470000000 -18.915346 -12.072018 -1.5530797 102.1886 -1.5285869 102.22421 -22.685724 -124.37529
41500000000 -18.393215 -11.696939 -1.5308371 101.91013 -1.5279722 101.73457 -25.512867 -131.36049
41530000000 -19.142887 -10.490591 -1.5245835 101.40265 -1.4962655 101.40325 -23.258821 -118.88312
41560000000 -19.118065 -6.3473859 -1.4986811 101.06495 -1.5081867 101.00732 -23.230589 -129.21001
41590000000 -19.789801 -3.8881741 -1.5288692 100.30431 -1.5064118 100.66296 -21.078632 -124.65156
41620000000 -19.651726 -2.7161605 -1.5089451 100.28576 -1.4953563 100.37855 -22.405376 -134.40506
41650000000 -19.994757 0.061037853 -1.4650414 99.716148 -1.5203754 99.526558 -22.159176 -124.50058
41680000000 -20.390125 3.5158687 -1.5166137 99.10006 -1.4933128 99.143776 -19.077295 -124.25535
41710000000 -20.149315 7.0080438 -1.5125035 98.954422 -1.516937 98.985085 -22.217737 -141.17458
41740000000 -20.220255 9.1256771 -1.5052383 98.293419 -1.5060576 98.38707 -19.498808 -128.2036
41770000000 -20.793728 9.9064493 -1.500662 97.916481 -1.510389 97.989075 -19.928183 -134.02631
41800000000 -20.881908 17.77212 -1.4965534 97.550697 -1.4819264 97.40831 -19.331413 -130.69867
41830000000 -20.88026 19.494957 -1.5388299 96.886436 -1.5061924 97.1539 -18.861439 -140.86821
41860000000 -20.800962 22.624701 -1.5008448 96.590401 -1.4850143 96.639809 -19.02648 -135.00452
41890000000 -21.294798 28.571606 -1.4964271 96.255669 -1.4732437 96.219147 -19.552118 -136.55153
41920000000 -21.286295 29.686766 -1.5236819 95.664223 -1.495978 95.76001 -17.220079 -138.11931
41950000000 -21.251118 34.527023 -1.4992158 95.19751 -1.4867251 95.21154 -18.548498 -140.10768
41980000000 -20.958387 38.640873 -1.481788 94.73867 -1.4878538 95.105164 -18.335262 -141.02571
42010000000 -20.954489 41.148342 -1.5024083 94.086914 -1.5044684 94.354744 -18.336882 -139.20181
42040000000 -20.31193 45.438557 -1.5309633 93.922096 -1.4840393 93.870735 -17.003242 -138.297
42070000000 -20.285589 48.250217 -1.5178931 93.404816 -1.4664359 93.523964 -18.041828 -143.47916
42100000000 -20.2138 53.404835 -1.5064256 93.127632 -1.5104982 92.923561 -17.538605 -142.32617
42130000000 -20.304415 56.027138 -1.5252277 92.310158 -1.4863832 92.511307 -17.188133 -137.53349
42160000000 -19.383055 56.922352 -1.5092628 92.014061 -1.5006167 92.03315 -17.307182 -141.18576
42190000000 -19.614614 61.760674 -1.4858499 91.619179 -1.490674 91.747635 -16.627012 -145.78116
42220000000 -18.959961 63.484047 -1.5206233 91.213226 -1.4823179 91.011078 -17.67437 -141.22928
42250000000 -18.662386 71.198875 -1.4919392 90.591125 -1.4864349 90.501175 -16.902964 -136.88196
42280000000 -18.713757 69.29705 -1.5165094 90.039444 -1.4939814 90.184387 -15.866544 -145.68243
42310000000 -18.629904 70.142281 -1.4941807 89.488319 -1.5012838 89.714043 -16.594246 -139.63452
42340000000 -18.148329 76.685806 -1.4993742 89.189705 -1.4632174 89.196632 -17.197712 -142.00465
42370000000 -17.576401 79.004906 -1.4894048 88.435989 -1.4815624 88.548882 -15.552805 -139.01614
42400000000 -17.269325 78.993614 -1.4913049 88.059738 -1.4958081 88.069527 -15.645758 -143.57263
42430000000 -17.386082 78.008331 -1.5180315 87.614807 -1.5280701 87.651276 -16.923006 -141.60165
42460000000 -17.049826 83.547035 -1.5147725 86.934265 -1.5013324 87.126953 -14.889638 -138.74536
42490000000 -16.467505 83.206871 -1.5372907 86.610359 -1.5609447 86.55307 -15.700757 -141.87067
42520000000 -15.928156 82.886871 -1.583955 86.00869 -1.5431671 86.200294 -15.400527 -139.57596
42550000000 -16.406319 85.023659 -1.5376912 85.52095 -1.5310801 85.674599 -15.016652 -143.60576
42580000000 -15.901986 87.870964 -1.5818501 85.04985 -1.573849 85.170097 -14.961724 -140.54413
42610000000 -15.38515 88.615845 -1.5672977 84.431557 -1.6031911 84.809715 -15.092405 -139.83746
42640000000 -14.899899 88.066208 -1.604636 84.05719 -1.5704023 84.384811 -14.330122 -145.03198
42670000000 -14.666343 89.594643 -1.618646 83.594933 -1.6195167 83.919113 -15.273232 -141.10208
42700000000 -14.653876 93.797661 -1.6309494 83.070473 -1.5965873 82.85585 -14.192661 -142.69951
42730000000 -14.493138 92.433067 -1.6430104 82.430542 -1.6230723 82.752693 -14.713328 -141.5656
42760000000 -14.167248 92.915199 -1.6525664 82.159782 -1.6551648 82.218704 -13.540083 -141.56744
42790000000 -13.848023 95.070442 -1.646733 81.740364 -1.6568265 81.853134 -14.473374 -144.28172
42820000000 -13.818982 95.706566 -1.6435372 81.105583 -1.658466 81.191612 -13.625006 -140.37837
42850000000 -13.104047 94.860596 -1.6973555 80.657974 -1.654213 80.705185 -13.374341 -142.6297
42880000000 -13.408025 95.984619 -1.681527 80.282974 -1.6723523 80.156532 -13.620814 -142.84822
42910000000 -13.215894 95.651466 -1.6968355 79.864227 -1.6764867 79.834145 -13.250085 -142.22993
42940000000 -12.75839 97.627869 -1.6987827 79.383728 -1.6986617 79.16291 -12.861631 -142.97426
42970000000 -12.481182 98.556137 -1.7336611 78.578079 -1.7603678 78.719566 -13.28272 -138.92619
43000000000 -12.572631 97.927917 -1.7333542 78.237434 -1.7195041 78.544708 -11.57287 -146.96555
43030000000 -12.343749 97.584488 -1.7842811 77.943832 -1.7561985 77.924477 -13.036168 -141.33485
43060000000 -12.049332 102.30209 -1.7595168 77.149406 -1.776493 77.133629 -12.141297 -147.53453
43090000000 -11.929108 98.903564 -1.7910084 76.87989 -1.8331529 76.945389 -11.580014 -141.1501
43120000000 -11.740582 100.13335 -1.7957306 76.249527 -1.8375717 76.758156 -11.638283 -150.56096
43150000000 -11.791779 101.24715 -1.8325382 76.054375 -1.7897164 75.925491 -11.857667 -144.53598
43180000000 -11.675361 101.40871 -1.8694431 75.096657 -1.851771 75.177666 -11.498008 -147.36058
43210000000 -11.452288 102.353 -1.8616041 74.988419 -1.8672525 75.106895 -10.762832 -146.87645
43240000000 -11.184144 100.17427 -1.9113098 74.595184 -1.8764333 74.693932 -11.566091 -151.6171
43270000000 -11.306563 101.17904 -1.9193708 73.821632 -1.8982549 74.401169 -10.858317 -148.7007
43300000000 -10.909269 101.29678 -1.9356283 73.538971 -1.9070915 73.778549 -10.950009 -149.84074
43330000000 -10.864613 102.57494 -1.9446641 72.947899 -1.9536039 73.093117 -10.239002 -152.2957
43360000000 -10.633591 101.54332 -1.9739162 72.545822 -1.9658991 72.860352 -10.534154 -154.3322
43390000000 -10.59678 102.05861 -2.0446272 71.976433 -2.0275126 71.953369 -10.407949 -153.85939
43420000000 -10.271789 103.07803 -2.0882568 71.556656 -2.0269752 71.834518 -10.496845 -153.95863
43450000000 -10.28121 102.98595 -2.0821671 71.082489 -2.0799921 71.513863 -9.6008263 -157.90068
43480000000 -10.065495 102.0319 -2.0747697 70.865685 -2.0467637 71.216621 -9.9654646 -157.49107
43510000000 -10.365772 103.342 -2.0879819 70.423721 -2.0961156 70.504272 -10.173749 -159.58043
43540000000 -10.089266 104.09274 -2.1260138 69.928619 -2.1064854 70.009933 -9.6016369 -155.83766
43570000000 -9.7933617 103.37186 -2.1467545 69.492416 -2.1106162 69.711105 -9.1081753 -162.50682
43600000000 -9.824482 102.43149 -2.1430409 69.318192 -2.1306958 69.52951 -10.033331 -163.13194
43630000000 -10.000352 103.89011 -2.1593778 68.662003 -2.1738613 68.589447 -9.4669933 -160.72122
43660000000 -9.5917568 103.10995 -2.1719973 68.403877 -2.2128704 68.296394 -9.1656637 -162.3754
43690000000 -9.3821888 102.65714 -2.2332726 67.862816 -2.2305701 68.010902 -9.456192 -166.84209
43720000000 -9.4312286 101.4546 -2.2186017 67.500237 -2.2006717 67.323929 -9.4254322 -165.74542
43750000000 -9.4068251 103.12099 -2.2515962 66.997978 -2.2300296 66.986725 -9.3401232 -167.02757
43780000000 -9.2499304 103.56469 -2.2769594 66.295578 -2.2813342 66.821541 -9.0518141 -166.8555
43810000000 -9.2234364 101.87615 -2.3060098 66.190125 -2.2876966 66.187637 -9.0585775 -170.65305
43840000000 -9.1254425 102.54582 -2.2798545 65.782478 -2.3060648 66.043167 -8.8725052 -169.77251
43870000000 -8.9872761 103.46961 -2.3434196 65.304802 -2.3289363 65.300621 -9.0916386 -172.50621
43900000000 -9.149169 103.76035 -2.3560665 64.889427 -2.3649049 65.029343 -8.7375765 -170.80412
43930000000 -8.7032881 101.10839 -2.3330405 64.691978 -2.3489914 64.860504 -8.7035971 -174.46431
43960000000 -8.9929237 102.74434 -2.3916347 64.347176 -2.3449843 64.112831 -8.9722519 -175.91675
43990000000 -8.805274 101.80212 -2.3807869 63.940208 -2.396379 63.685394 -8.8880005 -175.04494
44020000000 -8.5895758 101.80888 -2.4395647 63.311962 -2.3842175 63.620098 -8.7428541 -176.88458
44050000000 -8.5733299 101.93494 -2.3841553 63.086136 -2.3737335 63.259518 -8.6973534 -176.83961
44080000000 -8.6284266 100.28896 -2.4137232 62.464893 -2.4152451 62.670776 -8.9691582 179.43602
44110000000 -8.5559139 101.81397 -2.4486229 62.122135 -2.4510133 61.837502 -8.5430756 -177.85863
44140000000 -8.4168434 101.53366 -2.4380682 61.767506 -2.4483309 61.776413 -8.9525118 -179.92155
44170000000 -8.3608408 100.27622 -2.4995475 61.169571 -2.4711335 61.227119 -8.2629738 178.12589
44200000000 -8.2513142 99.598595 -2.497175 60.739235 -2.5097873 60.7136 -8.8006001 178.10272
44230000000 -8.4346609 100.56917 -2.5239372 60.327011 -2.5148404 60.582958 -8.7349005 176.56006
44260000000 -8.014966 99.767326 -2.5007484 59.608067 -2.453717 60.006798 -8.6073112 177.41472
44290000000 -8.0783901 98.583076 -2.5082502 59.42141 -2.5146251 59.472984 -8.3209372 173.136
44320000000 -8.0547647 99.128876 -2.5223536 59.114754 -2.4988368 58.979408 -8.8727455 174.66891
44350000000 -8.3056908 98.02047 -2.5484364 58.519325 -2.5876131 58.499725 -8.5985126 172.22734
44380000000 -7.8437767 97.854027 -2.6139588 58.0439 -2.554184 57.735474 -8.3595543 175.80748
44410000000 -7.9378276 96.745186 -2.5633106 57.304176 -2.6031477 57.608139 -8.5663834 169.88097
44440000000 -7.9698977 97.379967 -2.591671 56.762589 -2.6046724 57.19873 -8.6858635 168.87901
44470000000 -7.7308302 96.927582 -2.6218877 56.387451 -2.6019025 56.6166 -8.4992151 173.39584
44500000000 -7.8685679 96.247345 -2.6275568 56.026466 -2.6141913 55.930546 -8.3638592 169.70174
44530000000 -7.7027454 95.153984 -2.6464293 55.530495 -2.5985696 55.683178 -8.5048294 165.72781
44560000000 -7.5921144 94.959961 -2.7046976 54.89661 -2.6888173 55.016251 -8.7436428 170.80582
44590000000 -7.6140428 94.905037 -2.7289779 54.636749 -2.6998806 54.482132 -8.3236361 167.40378
44620000000 -7.5973272 93.578499 -2.7371604 53.926243 -2.7185957 53.760227 -8.4231195 166.48343
44650000000 -7.3306313 92.785812 -2.7417245 53.40453 -2.7581561 53.348564 -8.2649536 166.11476
44680000000 -7.401763 93.451561 -2.7741275 52.800842 -2.7573891 52.822655 -8.789916 165.22124
44710000000 -7.4080482 91.278069 -2.8170624 52.198765 -2.8225198 52.323875 -8.0673599 164.49954
44740000000 -7.1451459 92.106987 -2.8344784 52.076302 -2.8406165 51.845058 -8.4876604 164.00087
44770000000 -7.364078 90.796577 -2.8553612 51.144329 -2.8738966 51.374813 -8.382226 163.79515
44800000000 -7.1367354 89.827721 -2.8852963 50.817314 -2.9053986 50.845104 -8.3269491 159.83672
44830000000 -7.2284355 90.216896 -2.9148896 50.325726 -2.9527051 50.37344 -8.1610498 164.82124
44860000000 -7.1815376 89.813171 -2.9873018 49.942547 -2.9641788 49.997177 -8.4099703 159.84602
44890000000 -7.16956 88.484322 -3.0437806 49.20676 -3.0452261 49.289715 -8.0129347 160.11739
44920000000 -7.0808496 88.061264 -3.0710528 48.662731 -3.0327306 48.81152 -8.1318102 160.70963
44950000000 -7.0620933 87.673096 -3.120573 48.147091 -3.0707252 48.370975 -8.2676716 160.21881
44980000000 -7.0669751 86.935074 -3.1568234 47.860252 -3.1327105 47.813587 -7.9739828 157.444
