!Keysight Technologies,N5247B,MY61255062,A.19.80.06
!Date: Friday, March 13, 2026 16:57:44
!Correction: S11(C  2-Port  ) 
!S21(C  2-Port  ) 
!S12(C  2-Port  ) 
!S22(C  2-Port  ) 
!S2P File: Measurements: S11, S21, S12, S22:
# Hz S  dB   R 50
1000000000 -31.470797 11.803276 -0.15273167 -6.8894715 -0.15049501 -6.8809986 -35.074654 32.953796
1030000000 -31.46431 11.552834 -0.15455665 -7.0896659 -0.15209466 -7.0869813 -35.071808 32.67469
1060000000 -31.375628 11.583779 -0.15595654 -7.2924223 -0.15382496 -7.288507 -35.142933 32.454277
1090000000 -31.32119 11.882425 -0.15701951 -7.4971032 -0.15496868 -7.4867625 -35.054382 32.147903
1120000000 -31.2932 12.032082 -0.15782206 -7.6937828 -0.15592514 -7.691505 -35.010689 32.141167
1150000000 -31.203461 12.177552 -0.15954095 -7.8933892 -0.15752947 -7.8868194 -34.908428 32.213238
1180000000 -31.160732 12.197776 -0.16085058 -8.0985327 -0.15869592 -8.0894442 -34.842712 32.037991
1210000000 -31.066837 12.244595 -0.16258115 -8.2968616 -0.16010763 -8.2872601 -34.761208 32.18969
1240000000 -31.041864 12.482386 -0.16361107 -8.4963198 -0.16143757 -8.4899149 -34.653553 31.799244
1270000000 -31.047047 12.848166 -0.16472349 -8.6961641 -0.16224928 -8.6886435 -34.680752 31.904753
1300000000 -31.021788 12.925785 -0.16662748 -8.8964405 -0.16446324 -8.8895912 -34.73827 31.778353
1330000000 -30.940117 12.887149 -0.16848065 -9.0970802 -0.16590102 -9.0844812 -34.689056 32.562214
1360000000 -30.898348 13.015585 -0.1699219 -9.2940969 -0.16821963 -9.2874727 -34.714252 32.813877
1390000000 -30.869364 13.292899 -0.17214058 -9.4968977 -0.1700024 -9.4872351 -34.716293 33.457886
1420000000 -30.827301 13.732525 -0.17436472 -9.6863022 -0.17194533 -9.6832075 -34.673538 34.052299
1450000000 -30.801859 13.962631 -0.17591764 -9.8845053 -0.17364261 -9.8742151 -34.680019 34.391357
1480000000 -30.782831 13.994619 -0.1772999 -10.075268 -0.1745687 -10.06748 -34.633312 34.971035
1510000000 -30.658928 14.346864 -0.17902948 -10.272113 -0.17621902 -10.260839 -34.479359 35.702267
1540000000 -30.624935 14.892406 -0.18051095 -10.464786 -0.17737594 -10.457548 -34.363514 36.23597
1570000000 -30.613834 15.104328 -0.18110304 -10.657109 -0.17932758 -10.647959 -34.316956 37.250763
1600000000 -30.540104 15.37883 -0.1832089 -10.844119 -0.18036632 -10.834835 -34.165768 37.596806
1630000000 -30.497808 15.741341 -0.18313546 -11.035411 -0.18083559 -11.024929 -33.981117 38.015572
1660000000 -30.455132 15.861967 -0.18337119 -11.230716 -0.18134783 -11.215763 -33.876144 38.304428
1690000000 -30.347818 15.915261 -0.18443358 -11.420963 -0.18172435 -11.413597 -33.772064 38.680347
1720000000 -30.239105 16.071154 -0.18486331 -11.612685 -0.18152596 -11.605588 -33.638676 38.996044
1750000000 -30.208576 16.140783 -0.18514208 -11.810444 -0.18271373 -11.797025 -33.530041 39.126053
1780000000 -30.108925 16.177858 -0.18639028 -12.004184 -0.18325399 -11.995701 -33.368225 38.903252
1810000000 -30.018995 16.484085 -0.18675454 -12.198437 -0.18370251 -12.192534 -33.213528 39.289829
1840000000 -30.001511 16.708914 -0.18636353 -12.392667 -0.18422508 -12.379883 -33.137875 39.288269
1870000000 -29.954172 16.782244 -0.18781723 -12.588067 -0.18458484 -12.578864 -33.018085 39.064201
1900000000 -29.879219 16.631929 -0.1874491 -12.779362 -0.18472475 -12.767682 -32.849129 39.44511
1930000000 -29.810606 16.751722 -0.1872364 -12.97842 -0.18501945 -12.96618 -32.739353 39.322155
1960000000 -29.734322 16.79007 -0.18792509 -13.17518 -0.18586908 -13.163608 -32.622414 39.095676
1990000000 -29.694397 16.832012 -0.18885288 -13.371332 -0.18562457 -13.361118 -32.469723 38.97953
2020000000 -29.644308 16.918945 -0.18849438 -13.574162 -0.18677264 -13.560721 -32.433281 38.808784
2050000000 -29.579292 17.082237 -0.19026117 -13.76423 -0.18662511 -13.75807 -32.332561 38.930428
2080000000 -29.528942 16.92293 -0.19027983 -13.958995 -0.18738072 -13.954621 -32.168419 39.12112
2110000000 -29.47957 17.277473 -0.19132985 -14.161257 -0.18792644 -14.142852 -32.071041 38.983582
2140000000 -29.451534 17.614988 -0.19104636 -14.350899 -0.1888472 -14.340956 -31.951231 38.719944
2170000000 -29.396524 17.831192 -0.19087432 -14.547939 -0.18894534 -14.532151 -31.890253 38.579052
2200000000 -29.347763 17.696417 -0.19027333 -14.745139 -0.18936254 -14.733043 -31.755795 38.591351
2230000000 -29.324818 18.027737 -0.19209954 -14.94278 -0.1896435 -14.930664 -31.652624 38.225864
2260000000 -29.332163 17.973703 -0.1919602 -15.138574 -0.18891047 -15.127701 -31.589603 37.859203
2290000000 -29.252764 17.649828 -0.19200593 -15.336063 -0.18946232 -15.327978 -31.436144 38.147961
2320000000 -29.211256 18.083099 -0.19327883 -15.536822 -0.19008186 -15.524986 -31.384178 37.587364
2350000000 -29.188345 18.010862 -0.19369917 -15.73253 -0.19077939 -15.722732 -31.325531 37.353306
2380000000 -29.122824 18.007851 -0.19340874 -15.93311 -0.19064468 -15.917644 -31.268398 37.247341
2410000000 -29.07671 18.185402 -0.19485019 -16.128576 -0.19115321 -16.115377 -31.172676 37.146877
2440000000 -29.069933 18.363867 -0.19509494 -16.323092 -0.19201837 -16.315676 -31.099115 36.870823
2470000000 -29.022596 18.101368 -0.19530262 -16.52495 -0.19208981 -16.510643 -31.013397 36.843643
2500000000 -28.948343 18.378714 -0.19643538 -16.720898 -0.19307099 -16.708141 -30.960409 36.386219
2530000000 -28.97843 18.562021 -0.1957846 -16.914722 -0.19373354 -16.909096 -30.95244 36.307838
2560000000 -28.925972 18.314459 -0.19752076 -17.116352 -0.19452639 -17.100351 -30.869019 36.055317
2590000000 -28.882124 18.582676 -0.19803306 -17.312859 -0.194593 -17.299578 -30.744684 35.616661
2620000000 -28.88566 18.976831 -0.19857362 -17.514221 -0.19566031 -17.499748 -30.754349 35.633911
2650000000 -28.924391 18.671398 -0.19929473 -17.70755 -0.19635196 -17.689636 -30.701323 35.624371
2680000000 -28.813089 18.641697 -0.19989236 -17.908005 -0.19680129 -17.887087 -30.625221 35.331932
2710000000 -28.810537 18.648602 -0.20063619 -18.101912 -0.19686034 -18.08341 -30.565815 35.212708
2740000000 -28.793703 18.961174 -0.20103066 -18.295834 -0.19756383 -18.282381 -30.458725 34.927174
2770000000 -28.745863 19.127823 -0.20207299 -18.492853 -0.19875436 -18.484486 -30.394575 34.813396
2800000000 -28.768543 19.095392 -0.2018761 -18.694033 -0.19856116 -18.675489 -30.356081 34.742527
2830000000 -28.741665 19.037876 -0.20212126 -18.888426 -0.20014092 -18.872383 -30.318987 34.812218
2860000000 -28.685282 19.179188 -0.20320399 -19.083241 -0.20114344 -19.078278 -30.291418 34.366375
2890000000 -28.662033 19.44791 -0.20398827 -19.280781 -0.20131345 -19.269678 -30.216757 34.125553
2920000000 -28.654688 19.276375 -0.20438847 -19.478951 -0.20170526 -19.463818 -30.233543 34.344563
2950000000 -28.614929 19.262703 -0.20546715 -19.671093 -0.20259641 -19.666348 -30.132311 34.13596
2980000000 -28.62705 19.395412 -0.20701985 -19.871176 -0.20286004 -19.856607 -30.037434 33.950802
3010000000 -28.614811 19.38279 -0.20739779 -20.066162 -0.20357156 -20.05365 -29.996145 34.237083
3040000000 -28.555338 19.633263 -0.2081793 -20.262869 -0.20419176 -20.251806 -29.912777 33.876911
3070000000 -28.576948 19.605724 -0.20878656 -20.456175 -0.20533797 -20.442505 -29.887674 33.809074
3100000000 -28.534449 19.762741 -0.20869993 -20.644789 -0.20518273 -20.638189 -29.87396 33.881279
3130000000 -28.549356 19.783916 -0.20894165 -20.843443 -0.20559607 -20.828505 -29.774958 33.614681
3160000000 -28.477379 19.684658 -0.21001089 -21.040131 -0.20629609 -21.030354 -29.689184 33.318649
3190000000 -28.441458 19.773746 -0.21066569 -21.234541 -0.20648611 -21.225796 -29.656881 33.337151
3220000000 -28.469521 19.719276 -0.21122086 -21.427534 -0.20662999 -21.417095 -29.59333 33.42786
3250000000 -28.41124 19.750376 -0.21139507 -21.620079 -0.20799789 -21.613886 -29.571674 33.017586
3280000000 -28.36064 19.707079 -0.21235153 -21.823742 -0.20798866 -21.814257 -29.499592 32.978584
3310000000 -28.368862 19.786539 -0.21195251 -22.016451 -0.20814671 -22.004847 -29.449419 32.75425
3340000000 -28.362629 19.966295 -0.21282183 -22.213686 -0.20893976 -22.198889 -29.384842 32.528584
3370000000 -28.312115 19.729515 -0.21315596 -22.411993 -0.20947976 -22.398739 -29.322681 32.838352
3400000000 -28.295399 19.640326 -0.21357767 -22.604191 -0.20976719 -22.59543 -29.220903 32.624271
3430000000 -28.288275 19.735287 -0.21359752 -22.799465 -0.2105926 -22.786129 -29.197847 32.535721
3460000000 -28.291513 19.874323 -0.21519637 -22.995239 -0.21159428 -22.983368 -29.166769 32.279373
3490000000 -28.249262 19.706974 -0.21656097 -23.195496 -0.21168777 -23.181463 -29.096819 32.532509
3520000000 -28.186159 19.571844 -0.21623039 -23.383776 -0.21283895 -23.374075 -28.967466 32.339703
3550000000 -28.136471 19.962021 -0.21592133 -23.578548 -0.21336286 -23.565924 -28.951082 32.097935
3580000000 -28.173332 19.996092 -0.2172644 -23.771921 -0.21261603 -23.759995 -28.859592 31.959404
3610000000 -28.108025 19.828819 -0.21731557 -23.970472 -0.21227923 -23.955055 -28.815977 31.907162
3640000000 -28.061392 19.848377 -0.21737871 -24.163244 -0.21329463 -24.148636 -28.755907 31.723467
3670000000 -28.045427 20.144958 -0.21720508 -24.364298 -0.21338952 -24.351055 -28.675158 31.380949
3700000000 -28.01808 19.863464 -0.21669757 -24.552832 -0.21303116 -24.545229 -28.678635 31.283203
3730000000 -28.000427 19.838486 -0.21621734 -24.753874 -0.21429339 -24.739697 -28.601404 31.26123
3760000000 -27.93619 19.958145 -0.21802808 -24.948284 -0.21423219 -24.936935 -28.535769 31.013212
3790000000 -27.904989 19.75255 -0.21872631 -25.144882 -0.21367691 -25.140318 -28.488495 30.912125
3820000000 -27.904488 19.926521 -0.21856134 -25.34141 -0.21444595 -25.332741 -28.473141 30.732317
3850000000 -27.887011 19.844988 -0.21916707 -25.532505 -0.21483324 -25.528564 -28.411285 30.586138
3880000000 -27.830414 19.50386 -0.21966097 -25.729914 -0.21480034 -25.722647 -28.344435 30.238106
3910000000 -27.805111 19.748114 -0.2197933 -25.930574 -0.21568084 -25.923441 -28.31028 30.042124
3940000000 -27.812098 19.655857 -0.22007433 -26.124796 -0.21651581 -26.117861 -28.25733 30.034742
3970000000 -27.748991 19.191679 -0.22035128 -26.322493 -0.21621896 -26.313448 -28.183937 30.008755
4000000000 -27.684645 19.441074 -0.22102836 -26.514793 -0.21681431 -26.510159 -28.133307 29.769741
4030000000 -27.687437 19.566973 -0.22097006 -26.716763 -0.21775237 -26.706083 -28.070997 29.623756
4060000000 -27.659311 19.312653 -0.22149931 -26.911589 -0.21765874 -26.899939 -28.038614 29.380589
4090000000 -27.598818 19.549372 -0.22261605 -27.100044 -0.21850254 -27.09503 -27.991247 29.343367
4120000000 -27.605621 19.32686 -0.22280978 -27.302797 -0.21840182 -27.290939 -27.928993 29.232452
4150000000 -27.570261 19.123854 -0.22232832 -27.493696 -0.21924794 -27.483438 -27.899145 28.899979
4180000000 -27.536346 19.4205 -0.22329074 -27.692095 -0.21896723 -27.683054 -27.871395 28.782192
4210000000 -27.501411 19.24502 -0.22373389 -27.886099 -0.2202173 -27.875448 -27.807224 28.679384
4240000000 -27.44771 19.125872 -0.22488226 -28.082945 -0.21944696 -28.071859 -27.737198 28.397392
4270000000 -27.439234 19.126028 -0.22437522 -28.276348 -0.22041883 -28.271751 -27.672606 28.361902
4300000000 -27.428711 19.280317 -0.22421332 -28.474134 -0.22074673 -28.457388 -27.645287 28.318018
4330000000 -27.371159 18.90975 -0.22520505 -28.668886 -0.22058304 -28.657784 -27.581108 28.188187
4360000000 -27.302025 18.987965 -0.22554259 -28.860193 -0.22134405 -28.851969 -27.504053 27.902365
4390000000 -27.311306 19.086517 -0.22554396 -29.058695 -0.22169328 -29.046841 -27.472061 27.69702
4420000000 -27.273441 19.007149 -0.22558567 -29.245173 -0.22236755 -29.242414 -27.437084 27.676908
4450000000 -27.200151 18.992378 -0.22594532 -29.442587 -0.22176792 -29.435265 -27.360102 27.36866
4480000000 -27.174911 18.997564 -0.22655073 -29.640945 -0.22204471 -29.631506 -27.312971 26.926632
4510000000 -27.15756 18.760538 -0.22589324 -29.832764 -0.22270787 -29.8283 -27.243862 26.9035
4540000000 -27.102747 18.872992 -0.22658645 -30.030991 -0.22200711 -30.027872 -27.197855 26.799171
4570000000 -27.066431 18.938707 -0.22566719 -30.228762 -0.22301497 -30.218185 -27.144825 26.606552
4600000000 -27.039011 18.695318 -0.22639309 -30.426184 -0.22213188 -30.41301 -27.099506 26.483
4630000000 -26.995026 18.638981 -0.22709593 -30.618881 -0.22323352 -30.606703 -27.06864 26.087933
4660000000 -26.97901 18.83819 -0.22655399 -30.819698 -0.22288798 -30.804871 -27.013039 25.894176
4690000000 -26.919916 18.639887 -0.22666745 -31.010612 -0.22315557 -31.004265 -26.953817 25.678852
4720000000 -26.861456 18.421066 -0.22669363 -31.211531 -0.22342646 -31.201185 -26.905283 25.547413
4750000000 -26.851133 18.351456 -0.22691101 -31.405159 -0.22328258 -31.399542 -26.840776 25.32766
4780000000 -26.837532 18.448273 -0.22746499 -31.61046 -0.22302206 -31.595905 -26.839094 25.222733
4810000000 -26.780159 18.422262 -0.22761501 -31.800751 -0.22295746 -31.792267 -26.765463 24.877146
4840000000 -26.765034 18.373188 -0.22786872 -31.997248 -0.22423649 -31.993378 -26.738495 24.589413
4870000000 -26.729519 18.170763 -0.22817372 -32.19833 -0.22427164 -32.189201 -26.709576 24.637411
4900000000 -26.704756 18.386898 -0.22803077 -32.39489 -0.22417325 -32.389885 -26.643379 24.297329
4930000000 -26.651093 18.306065 -0.22937731 -32.593761 -0.22484791 -32.585785 -26.560369 24.197128
4960000000 -26.668383 18.096336 -0.22808588 -32.793655 -0.22562549 -32.781128 -26.542433 24.007877
4990000000 -26.644567 18.156933 -0.22864191 -32.991428 -0.22528821 -32.981758 -26.527987 23.767004
5020000000 -26.611471 18.237782 -0.23013876 -33.18449 -0.22531657 -33.176613 -26.445177 23.596855
5050000000 -26.55662 18.008263 -0.23041473 -33.379307 -0.22680655 -33.372467 -26.425312 23.517506
5080000000 -26.512682 17.854753 -0.23027879 -33.579418 -0.22635983 -33.571815 -26.350746 23.285561
5110000000 -26.517389 18.065023 -0.23014204 -33.776157 -0.2272844 -33.764175 -26.311214 23.208664
5140000000 -26.457281 17.984793 -0.23146194 -33.971771 -0.22751081 -33.961113 -26.317554 23.169483
5170000000 -26.449226 18.02659 -0.23198839 -34.173084 -0.22743744 -34.159084 -26.231588 22.867338
5200000000 -26.387285 17.906096 -0.2322702 -34.368519 -0.22702256 -34.357838 -26.19006 22.680082
5230000000 -26.367586 17.911247 -0.23227565 -34.565151 -0.22815681 -34.554359 -26.177177 22.349953
5260000000 -26.319389 17.908667 -0.23140161 -34.759415 -0.22820047 -34.748863 -26.082888 22.213829
5290000000 -26.295433 17.822506 -0.23307258 -34.95507 -0.22954652 -34.949162 -26.058859 22.021311
5320000000 -26.258652 17.76721 -0.23274975 -35.154514 -0.22863837 -35.1418 -26.036552 21.842152
5350000000 -26.244246 17.732155 -0.23355933 -35.353653 -0.22917892 -35.344131 -25.965979 21.575933
5380000000 -26.214287 17.59564 -0.23430347 -35.55098 -0.23003969 -35.540649 -25.909796 21.35788
5410000000 -26.182177 17.665947 -0.23442861 -35.741215 -0.2300446 -35.734909 -25.883524 21.253931
5440000000 -26.159225 17.606735 -0.23569706 -35.940857 -0.23083948 -35.934967 -25.795666 21.148056
5470000000 -26.101725 17.745647 -0.23542213 -36.13847 -0.23178414 -36.129028 -25.766834 21.000275
5500000000 -26.083998 17.634865 -0.23579381 -36.341415 -0.2317246 -36.319965 -25.768299 20.689119
5530000000 -26.072819 17.510447 -0.23570445 -36.533092 -0.23225354 -36.520821 -25.659267 20.396713
5560000000 -26.073763 17.624439 -0.23727591 -36.731224 -0.23265307 -36.717545 -25.650181 20.179789
5590000000 -26.008896 17.624987 -0.237084 -36.924606 -0.23349486 -36.916473 -25.614361 20.070671
5620000000 -26.028589 17.433651 -0.23802426 -37.119621 -0.23394887 -37.107464 -25.578007 20.019688
5650000000 -26.001438 17.364185 -0.23744652 -37.318237 -0.23433681 -37.308327 -25.5257 19.751894
5680000000 -25.952114 17.280951 -0.23856325 -37.513527 -0.23394231 -37.508514 -25.521893 19.533188
5710000000 -25.916712 17.351746 -0.23863135 -37.710808 -0.23537514 -37.702648 -25.455521 19.26923
5740000000 -25.922718 17.303505 -0.23879352 -37.907494 -0.23497398 -37.89917 -25.413971 19.05794
5770000000 -25.86718 17.141573 -0.2386349 -38.105209 -0.23576429 -38.096111 -25.38213 18.809021
5800000000 -25.857464 17.335211 -0.23956211 -38.302086 -0.23596491 -38.289612 -25.335642 18.571205
5830000000 -25.829638 17.079353 -0.23983401 -38.506611 -0.23652032 -38.490051 -25.306801 18.589333
5860000000 -25.780077 17.054083 -0.24051139 -38.697884 -0.2371846 -38.684811 -25.256735 18.336462
5890000000 -25.766975 17.235636 -0.24081072 -38.891792 -0.23696753 -38.885571 -25.189674 18.000599
5920000000 -25.736582 17.139469 -0.24230111 -39.089363 -0.23809235 -39.080738 -25.182791 17.99201
5950000000 -25.687189 17.005453 -0.24230412 -39.290325 -0.23866937 -39.277153 -25.138487 17.569521
5980000000 -25.691093 16.951216 -0.24236734 -39.483166 -0.23815142 -39.472965 -25.070673 17.316525
6010000000 -25.679752 16.850216 -0.24387415 -39.679626 -0.23922375 -39.673496 -25.044374 17.181349
6040000000 -25.62269 16.896395 -0.24406472 -39.881691 -0.24060497 -39.861958 -25.014605 16.965689
6070000000 -25.599743 16.803181 -0.24454175 -40.077145 -0.24071878 -40.063744 -24.944315 16.926838
6100000000 -25.594961 16.696054 -0.24485613 -40.272884 -0.24153204 -40.257122 -24.915545 16.573683
6130000000 -25.553064 16.761459 -0.24605067 -40.467957 -0.24106902 -40.45327 -24.898827 16.199476
6160000000 -25.51816 16.808058 -0.24625641 -40.657574 -0.24185936 -40.653629 -24.835056 15.996324
6190000000 -25.499788 16.59403 -0.24590357 -40.861397 -0.24247053 -40.846458 -24.790361 15.809241
6220000000 -25.468452 16.521116 -0.24620326 -41.056538 -0.24332052 -41.045559 -24.775454 15.621056
6250000000 -25.474403 16.655453 -0.24685423 -41.253986 -0.24305415 -41.242901 -24.739273 15.337856
6280000000 -25.42227 16.368748 -0.24744858 -41.448322 -0.24309166 -41.437695 -24.717915 15.373067
6310000000 -25.378666 16.204632 -0.24743241 -41.648109 -0.24440947 -41.63467 -24.6824 15.129376
6340000000 -25.375074 16.015488 -0.24842782 -41.844036 -0.24466717 -41.829735 -24.608845 14.770436
6370000000 -25.360655 16.136454 -0.24943772 -42.038853 -0.24588712 -42.025871 -24.590988 14.486702
6400000000 -25.31971 16.21534 -0.24986598 -42.236813 -0.24535544 -42.222961 -24.57785 14.386884
6430000000 -25.329933 16.061743 -0.24987641 -42.43438 -0.24655943 -42.422314 -24.513809 14.20187
6460000000 -25.297619 15.845531 -0.25054273 -42.634315 -0.24724552 -42.617214 -24.498951 13.972647
6490000000 -25.247831 15.842632 -0.25029922 -42.828545 -0.24751626 -42.814873 -24.455805 13.64295
6520000000 -25.230658 15.921784 -0.25148922 -43.023323 -0.24755573 -43.010372 -24.421116 13.397625
6550000000 -25.213848 15.685279 -0.25213853 -43.218929 -0.24885297 -43.208237 -24.382483 13.357929
6580000000 -25.196795 15.535494 -0.25234261 -43.415577 -0.24923293 -43.403202 -24.376829 13.020365
6610000000 -25.185106 15.676259 -0.25284854 -43.614674 -0.24912684 -43.599293 -24.327589 12.80442
6640000000 -25.158121 15.576745 -0.25431535 -43.806793 -0.25003022 -43.792885 -24.298042 12.764568
6670000000 -25.113619 15.418493 -0.25415149 -44.006546 -0.25048625 -43.991673 -24.26181 12.555477
6700000000 -25.117847 15.363529 -0.25476384 -44.197704 -0.25111702 -44.184937 -24.231112 12.178132
6730000000 -25.103548 15.281141 -0.25537741 -44.399452 -0.25216156 -44.382744 -24.190388 12.097597
6760000000 -25.051931 15.251809 -0.25616211 -44.587837 -0.25225702 -44.577049 -24.162275 11.897744
6790000000 -25.036564 15.118442 -0.25672778 -44.783051 -0.25275472 -44.777889 -24.126902 11.694442
6820000000 -24.999084 14.942847 -0.25685191 -44.983475 -0.25363609 -44.974571 -24.100328 11.53659
6850000000 -24.967831 14.913401 -0.25788191 -45.179081 -0.25360975 -45.166412 -24.090378 11.208948
6880000000 -24.946802 14.956523 -0.25795662 -45.374825 -0.25408563 -45.365429 -24.063242 10.851526
6910000000 -24.907471 14.573793 -0.25876597 -45.576149 -0.25514486 -45.561691 -24.008463 10.825509
6940000000 -24.862616 14.534496 -0.25967741 -45.774261 -0.25663826 -45.757935 -23.95746 10.645257
6970000000 -24.859459 14.478911 -0.26047528 -45.97081 -0.2562497 -45.954338 -23.960756 10.441224
7000000000 -24.838011 14.31729 -0.26163313 -46.166172 -0.25699034 -46.152775 -23.935261 10.378816
7030000000 -24.779329 14.210578 -0.26165923 -46.364563 -0.25805935 -46.339851 -23.86277 10.112721
7060000000 -24.78055 14.175246 -0.26282486 -46.556519 -0.25841102 -46.541759 -23.820812 9.8351183
7090000000 -24.761898 14.052981 -0.26363841 -46.752205 -0.25974146 -46.736473 -23.83083 9.5837612
7120000000 -24.699692 13.879265 -0.26445487 -46.946865 -0.26031008 -46.931984 -23.78587 9.4905462
7150000000 -24.700472 13.719998 -0.2647256 -47.138199 -0.26095191 -47.126022 -23.749987 9.1685877
7180000000 -24.691338 13.559121 -0.26514271 -47.333042 -0.26164633 -47.315735 -23.723671 9.0139866
7210000000 -24.641848 13.557508 -0.26577532 -47.528316 -0.26212528 -47.5173 -23.680576 8.6752501
7240000000 -24.610336 13.485257 -0.26583725 -47.722141 -0.26319945 -47.710251 -23.649899 8.5054731
7270000000 -24.611162 13.197705 -0.26690242 -47.915386 -0.26323739 -47.904579 -23.629177 8.3928957
7300000000 -24.579399 13.146953 -0.26829273 -48.115673 -0.26403892 -48.099388 -23.596849 8.1320295
7330000000 -24.574802 13.050853 -0.26849568 -48.301075 -0.26402295 -48.292583 -23.567923 7.9204636
7360000000 -24.53302 12.800437 -0.26932102 -48.499454 -0.26551858 -48.485405 -23.552174 7.8190804
7390000000 -24.473454 12.728895 -0.26947251 -48.700588 -0.26527312 -48.681835 -23.476749 7.6356912
7420000000 -24.503843 12.634837 -0.27063388 -48.886673 -0.26613447 -48.873837 -23.463346 7.3602009
7450000000 -24.471004 12.410311 -0.27069476 -49.081696 -0.26671687 -49.068901 -23.447868 7.1331749
7480000000 -24.405916 12.344885 -0.27160072 -49.280895 -0.26767239 -49.259945 -23.395058 6.9686551
7510000000 -24.395498 12.274739 -0.27142712 -49.47303 -0.26793644 -49.456795 -23.350134 6.7872062
7540000000 -24.3813 12.059712 -0.27176386 -49.669819 -0.26837149 -49.651779 -23.320614 6.6860952
7570000000 -24.353132 12.076068 -0.27378845 -49.861069 -0.26993662 -49.853775 -23.316271 6.3515406
7600000000 -24.341639 12.005939 -0.27334017 -50.059357 -0.26932487 -50.042019 -23.283665 6.1653218
7630000000 -24.283918 11.723344 -0.27424338 -50.250778 -0.27034682 -50.233807 -23.227093 6.0917115
7660000000 -24.246918 11.617644 -0.27478799 -50.44186 -0.27251488 -50.425415 -23.203552 5.7442451
7690000000 -24.262625 11.730624 -0.2757006 -50.640064 -0.27118218 -50.62265 -23.177301 5.4334526
7720000000 -24.216274 11.448179 -0.27605119 -50.828453 -0.27213177 -50.816864 -23.143593 5.4755502
7750000000 -24.186171 11.531301 -0.2773498 -51.022926 -0.27274585 -51.011772 -23.104713 5.2012224
7780000000 -24.182144 11.347204 -0.27750817 -51.223278 -0.27366713 -51.201347 -23.073055 4.9569383
7810000000 -24.172876 11.057521 -0.27765608 -51.413021 -0.27417997 -51.400543 -23.053482 4.725605
7840000000 -24.098696 11.127312 -0.27890989 -51.608894 -0.27480701 -51.589802 -23.006538 4.5494184
7870000000 -24.102829 11.03174 -0.27873188 -51.803028 -0.27522621 -51.78302 -22.968666 4.1817207
7900000000 -24.09129 10.721691 -0.27958098 -51.991493 -0.275713 -51.9804 -22.953039 4.0569129
7930000000 -24.041759 10.751411 -0.28008842 -52.182575 -0.27608511 -52.171661 -22.930048 3.7948165
7960000000 -24.044441 10.579844 -0.28043303 -52.37685 -0.27677202 -52.361958 -22.905952 3.6277499
7990000000 -24.010197 10.396796 -0.28169346 -52.573261 -0.27652648 -52.555569 -22.875574 3.3318839
8020000000 -23.980257 10.409777 -0.28157055 -52.764816 -0.27727583 -52.750874 -22.833204 3.0949492
8050000000 -23.983246 10.387494 -0.28205749 -52.955189 -0.27872249 -52.941017 -22.837059 3.0043783
8080000000 -23.933073 10.209946 -0.28270504 -53.152393 -0.27808273 -53.136246 -22.802322 2.7518816
8110000000 -23.933493 10.27707 -0.28266388 -53.340954 -0.27840674 -53.325153 -22.752619 2.5965946
8140000000 -23.912088 10.019397 -0.28301558 -53.536499 -0.27944407 -53.523335 -22.746634 2.2210367
8170000000 -23.882429 9.8849802 -0.28389704 -53.735405 -0.28041205 -53.713322 -22.719189 2.1646869
8200000000 -23.857634 10.025021 -0.28453156 -53.923317 -0.27957988 -53.90406 -22.680729 1.9845839
8230000000 -23.848089 9.8869133 -0.284659 -54.118374 -0.28028557 -54.09634 -22.678743 1.7823581
8260000000 -23.799603 9.6247826 -0.28491023 -54.310532 -0.28039989 -54.289803 -22.629744 1.5618451
8290000000 -23.787693 9.8508682 -0.28558335 -54.505966 -0.2814073 -54.479706 -22.607897 1.283164
8320000000 -23.752579 9.6686754 -0.28530607 -54.69503 -0.28139186 -54.677757 -22.585331 1.1109415
8350000000 -23.715614 9.6383228 -0.28557035 -54.884544 -0.28132224 -54.870399 -22.556038 0.87860334
8380000000 -23.712072 9.6550341 -0.28582636 -55.079643 -0.28227076 -55.065361 -22.527714 0.66392338
8410000000 -23.71641 9.3403778 -0.28594056 -55.270424 -0.28223762 -55.258152 -22.51494 0.43822438
8440000000 -23.685196 9.3776999 -0.28588665 -55.470547 -0.28211662 -55.449306 -22.48204 0.41662154
8470000000 -23.649355 9.4175014 -0.28727144 -55.661106 -0.2831634 -55.641521 -22.43614 0.049593963
8500000000 -23.644512 9.0567045 -0.2868306 -55.850677 -0.28327695 -55.835651 -22.429995 -0.16365252
8530000000 -23.607029 9.0920734 -0.28743571 -56.043705 -0.28311339 -56.02758 -22.394743 -0.1849138
8560000000 -23.589874 9.412384 -0.28742105 -56.23254 -0.28336096 -56.220028 -22.386349 -0.41775563
8590000000 -23.593607 9.0397406 -0.28651041 -56.436947 -0.28279757 -56.412823 -22.360651 -0.71716684
8620000000 -23.547733 8.9591932 -0.28639978 -56.625523 -0.28330404 -56.60556 -22.319258 -0.93965518
8650000000 -23.528763 8.9106207 -0.28756624 -56.819859 -0.28340074 -56.802834 -22.303995 -1.0412585
8680000000 -23.528772 8.7692928 -0.28684998 -57.010036 -0.28446108 -56.993111 -22.271931 -1.1377503
8710000000 -23.45738 8.7465601 -0.28732675 -57.2118 -0.28417614 -57.192322 -22.239168 -1.5225114
8740000000 -23.45311 8.8708153 -0.2883839 -57.407104 -0.28472671 -57.389572 -22.227057 -1.6453781
8770000000 -23.470028 8.6729584 -0.28831142 -57.594547 -0.28513026 -57.581589 -22.212669 -1.8555317
8800000000 -23.42309 8.5613251 -0.28767136 -57.790703 -0.2849445 -57.770641 -22.157866 -1.981661
8830000000 -23.396952 8.659153 -0.28823453 -57.990211 -0.28499481 -57.964489 -22.1404 -2.2828231
8860000000 -23.390236 8.348423 -0.28877923 -58.174908 -0.28546172 -58.16066 -22.132551 -2.5480685
8890000000 -23.369652 8.393424 -0.28839442 -58.373707 -0.28470874 -58.359917 -22.093855 -2.6279933
8920000000 -23.346317 8.4522724 -0.28910211 -58.567348 -0.28458408 -58.54649 -22.057713 -2.7093194
8950000000 -23.325575 8.3329887 -0.28811917 -58.761047 -0.28550705 -58.746826 -22.038059 -2.9643967
8980000000 -23.297525 8.3499374 -0.28854987 -58.950047 -0.28484499 -58.9468 -22.021448 -3.0842578
9010000000 -23.294147 8.2285185 -0.28874686 -59.145893 -0.2839852 -59.127186 -21.99308 -3.2691028
9040000000 -23.280388 8.1813011 -0.28844339 -59.350479 -0.28435275 -59.329914 -21.952641 -3.4912736
9070000000 -23.222479 8.0513897 -0.28837174 -59.549393 -0.28405124 -59.528336 -21.911926 -3.704839
9100000000 -23.215351 8.1245079 -0.28871173 -59.751457 -0.28485191 -59.727295 -21.90243 -3.8148904
9130000000 -23.188599 8.05867 -0.2900573 -59.940559 -0.28582662 -59.921947 -21.87582 -3.9606287
9160000000 -23.145334 8.0833015 -0.28982097 -60.138626 -0.28589106 -60.120468 -21.813684 -4.3698692
9190000000 -23.151983 8.1276417 -0.28949222 -60.338478 -0.28721502 -60.314152 -21.803679 -4.5575204
9220000000 -23.115093 7.6764779 -0.29099664 -60.531471 -0.28691882 -60.510094 -21.783335 -4.6742249
9250000000 -23.08367 7.7893782 -0.29130253 -60.720306 -0.28664809 -60.710983 -21.732742 -4.8503079
9280000000 -23.062496 7.6016703 -0.2912156 -60.920731 -0.28744429 -60.902004 -21.716091 -5.1658406
9310000000 -23.024424 7.5751061 -0.29158351 -61.118782 -0.28808904 -61.101078 -21.696026 -5.4714141
9340000000 -22.970503 7.4226909 -0.29200876 -61.319874 -0.28880912 -61.293606 -21.675985 -5.4877458
9370000000 -22.971666 7.2739511 -0.29270926 -61.513325 -0.28950828 -61.49181 -21.65449 -5.6993523
9400000000 -22.952787 7.0133214 -0.2933476 -61.706532 -0.29026401 -61.683868 -21.631046 -6.1066494
9430000000 -22.93428 7.0499415 -0.29452339 -61.899975 -0.29066035 -61.877838 -21.617682 -6.3116579
9460000000 -22.923914 6.8304992 -0.29575548 -62.099014 -0.29190907 -62.073837 -21.611721 -6.4548421
9490000000 -22.911842 6.5178967 -0.29562801 -62.281128 -0.2928178 -62.264099 -21.558512 -6.6184149
9520000000 -22.912271 6.7106581 -0.2956028 -62.471684 -0.29309863 -62.460621 -21.542017 -6.8040895
9550000000 -22.874495 6.6900821 -0.29642448 -62.67178 -0.29310915 -62.644257 -21.54635 -7.1250496
9580000000 -22.860632 6.3897929 -0.29690477 -62.858505 -0.29375944 -62.834599 -21.537889 -7.3846426
9610000000 -22.864611 6.3810353 -0.29762882 -63.053486 -0.29364643 -63.038807 -21.491516 -7.3558884
9640000000 -22.839449 6.1482129 -0.29793933 -63.245182 -0.29387325 -63.224991 -21.473009 -7.4851241
9670000000 -22.789816 6.059721 -0.29771143 -63.438778 -0.29347 -63.421669 -21.453773 -7.7042484
9700000000 -22.754236 6.0458989 -0.29753262 -63.634319 -0.29247695 -63.613365 -21.424898 -7.8132296
9730000000 -22.758221 5.8272977 -0.29794016 -63.831142 -0.29358327 -63.805565 -21.383755 -7.8182163
9760000000 -22.751354 5.7777672 -0.29789054 -64.021164 -0.29277185 -64.005302 -21.366732 -8.2768755
9790000000 -22.708942 5.7755351 -0.29877752 -64.224205 -0.29340601 -64.202255 -21.329311 -8.4341393
9820000000 -22.689415 5.7455006 -0.29769146 -64.41951 -0.29519773 -64.395294 -21.330063 -8.4582891
9850000000 -22.675123 5.4044566 -0.29820079 -64.612961 -0.29519522 -64.590378 -21.283401 -8.6564436
9880000000 -22.677536 5.4647937 -0.29981554 -64.813316 -0.29456523 -64.790329 -21.254356 -9.0761385
9910000000 -22.642445 5.5118113 -0.2996971 -65.004021 -0.29525647 -64.981857 -21.249655 -9.1765146
9940000000 -22.603163 5.2077727 -0.30011982 -65.193886 -0.29675981 -65.173393 -21.224035 -9.4154196
9970000000 -22.599588 5.0204787 -0.3003875 -65.392242 -0.29646993 -65.375046 -21.181492 -9.3958435
10000000000 -22.586933 4.9019618 -0.30105498 -65.582062 -0.29703006 -65.569069 -21.178408 -9.7818594
10030000000 -22.559235 4.7620773 -0.30116069 -65.783646 -0.29726291 -65.754814 -21.166395 -10.225138
10060000000 -22.512423 4.7917948 -0.30089602 -65.976936 -0.29733109 -65.959541 -21.127365 -10.16709
10090000000 -22.497049 4.6223807 -0.30170339 -66.169586 -0.29855153 -66.15387 -21.087578 -10.23085
10120000000 -22.477856 4.4855075 -0.30159101 -66.366722 -0.29811344 -66.346413 -21.060488 -10.578391
10150000000 -22.453114 4.6012926 -0.30257007 -66.566429 -0.29867074 -66.540718 -21.059593 -10.677216
10180000000 -22.421284 4.2595587 -0.30364814 -66.758171 -0.29926309 -66.739914 -21.04253 -10.747098
10210000000 -22.398071 4.0175619 -0.3034766 -66.957474 -0.30018723 -66.939827 -20.986012 -11.103964
10240000000 -22.37652 4.1389666 -0.30408958 -67.150932 -0.30127889 -67.128746 -20.959389 -11.39539
10270000000 -22.339663 3.913774 -0.30459073 -67.350166 -0.30120453 -67.323318 -20.966867 -11.593143
10300000000 -22.311344 3.6919858 -0.306169 -67.540337 -0.30149725 -67.528221 -20.943743 -11.731069
10330000000 -22.30854 3.4165304 -0.30716407 -67.735733 -0.30209079 -67.722176 -20.881083 -11.922466
10360000000 -22.280994 3.3930483 -0.30748138 -67.929062 -0.3031027 -67.911644 -20.866503 -12.223076
10390000000 -22.228851 3.1327667 -0.30747247 -68.124069 -0.30402932 -68.098862 -20.859077 -12.494488
10420000000 -22.215366 3.0493991 -0.30880913 -68.311295 -0.30434388 -68.303551 -20.826498 -12.463359
10450000000 -22.218912 2.6697295 -0.30856401 -68.508987 -0.30484286 -68.486382 -20.794168 -12.838468
10480000000 -22.188789 2.8161192 -0.3094365 -68.705437 -0.30579987 -68.680206 -20.783602 -13.20803
10510000000 -22.167355 2.6910305 -0.31104794 -68.896072 -0.30601457 -68.868774 -20.778788 -13.244595
10540000000 -22.138742 2.4051595 -0.31119394 -69.083748 -0.30785897 -69.07032 -20.749336 -13.296777
10570000000 -22.11355 2.2379076 -0.31185222 -69.284142 -0.30770975 -69.258575 -20.685757 -13.586656
10600000000 -22.126534 2.1832845 -0.31158969 -69.476654 -0.30927888 -69.458374 -20.696522 -13.997764
10630000000 -22.066597 1.8554807 -0.31364849 -69.666321 -0.30937034 -69.654366 -20.682621 -14.202532
10660000000 -22.040297 1.7428385 -0.31308925 -69.862358 -0.31104767 -69.845001 -20.657742 -14.167463
10690000000 -22.053465 1.5781673 -0.31576338 -70.054604 -0.31047153 -70.034195 -20.619314 -14.576522
10720000000 -22.016422 1.5386384 -0.31540623 -70.242844 -0.31105268 -70.226326 -20.618803 -15.007852
10750000000 -21.977264 1.3641689 -0.31488657 -70.438416 -0.31155547 -70.419548 -20.594124 -15.183269
10780000000 -21.968996 1.0489995 -0.31643602 -70.622787 -0.31217292 -70.607063 -20.565699 -15.18117
10810000000 -21.953848 0.86270666 -0.31707504 -70.813225 -0.31353915 -70.797203 -20.549593 -15.613516
10840000000 -21.946302 0.96964192 -0.3189019 -71.012566 -0.31440511 -70.991508 -20.536777 -16.008255
10870000000 -21.924925 0.72628105 -0.31791803 -71.197449 -0.31451559 -71.181145 -20.531675 -16.131941
10900000000 -21.8962 0.4663358 -0.31776515 -71.383163 -0.31484398 -71.362366 -20.523848 -16.244152
10930000000 -21.902147 0.43602183 -0.31897265 -71.578049 -0.31463054 -71.557777 -20.503716 -16.525343
10960000000 -21.889957 0.38953012 -0.31906849 -71.768059 -0.3156746 -71.749687 -20.48542 -16.896999
10990000000 -21.832052 0.2347317 -0.31853613 -71.960701 -0.31548336 -71.938759 -20.477116 -17.068348
11020000000 -21.833731 0.037466213 -0.32036638 -72.152946 -0.3158288 -72.127228 -20.468952 -17.046932
11050000000 -21.828705 -0.10755925 -0.31974998 -72.341263 -0.31503576 -72.317444 -20.447859 -17.304028
11080000000 -21.796648 -0.16885705 -0.32016239 -72.535065 -0.31538621 -72.50515 -20.440039 -17.704435
11110000000 -21.769794 -0.22988102 -0.3207911 -72.726379 -0.316497 -72.703369 -20.429577 -17.794758
11140000000 -21.749121 -0.46219704 -0.32048008 -72.917244 -0.3163625 -72.890846 -20.38159 -17.843012
11170000000 -21.737129 -0.66969866 -0.32143021 -73.10675 -0.31628373 -73.085449 -20.36635 -18.118073
11200000000 -21.715902 -0.6811747 -0.32081449 -73.304199 -0.31674924 -73.26992 -20.373615 -18.368572
11230000000 -21.706669 -0.71106637 -0.31987008 -73.487144 -0.31702825 -73.467216 -20.371296 -18.584728
11260000000 -21.666466 -0.94929159 -0.32085714 -73.68116 -0.31748998 -73.664948 -20.298735 -18.778189
11290000000 -21.669544 -0.9244709 -0.32088113 -73.880226 -0.31745461 -73.860985 -20.282091 -18.971851
11320000000 -21.652458 -0.98107302 -0.32165796 -74.066498 -0.3173421 -74.048889 -20.31423 -19.213928
11350000000 -21.63575 -1.1382562 -0.32201451 -74.258858 -0.31830549 -74.241547 -20.317863 -19.403572
11380000000 -21.630707 -1.3815039 -0.32313535 -74.453224 -0.31950954 -74.424538 -20.26726 -19.664677
11410000000 -21.627634 -1.5847287 -0.32356256 -74.651337 -0.31918576 -74.616158 -20.240202 -19.957905
11440000000 -21.571913 -1.6514485 -0.32375696 -74.825745 -0.31991243 -74.812859 -20.251583 -20.073591
11470000000 -21.575336 -1.7717785 -0.32494995 -75.015076 -0.31966612 -74.999016 -20.262434 -20.164511
11500000000 -21.545261 -1.9148604 -0.32394633 -75.201141 -0.32028612 -75.180771 -20.232277 -20.528763
11530000000 -21.548199 -1.9351993 -0.32412457 -75.394333 -0.32003838 -75.367783 -20.219206 -21.089827
11560000000 -21.557749 -1.9627644 -0.32338047 -75.579857 -0.32039982 -75.557396 -20.20821 -21.196535
11590000000 -21.514462 -2.1500745 -0.32404479 -75.773239 -0.32080641 -75.750702 -20.201353 -21.12047
11620000000 -21.524178 -2.2584736 -0.32404786 -75.960052 -0.32001665 -75.938499 -20.180191 -21.266565
11650000000 -21.504232 -2.325598 -0.32368892 -76.150551 -0.32041347 -76.12999 -20.191971 -21.57338
11680000000 -21.487497 -2.417552 -0.32393965 -76.340553 -0.31921697 -76.319725 -20.181793 -21.857944
11710000000 -21.465715 -2.2977324 -0.32344851 -76.531258 -0.31901249 -76.504478 -20.170614 -21.854317
11740000000 -21.473312 -2.5536354 -0.32281077 -76.719917 -0.31782445 -76.693069 -20.154686 -21.922523
11770000000 -21.450151 -2.6299121 -0.32254505 -76.900581 -0.31874812 -76.887695 -20.181738 -22.236633
11800000000 -21.460119 -2.5734928 -0.32226849 -77.099022 -0.31794089 -77.069504 -20.18483 -22.457653
11830000000 -21.457563 -2.7036722 -0.32126185 -77.286392 -0.31703746 -77.266472 -20.158781 -22.596502
11860000000 -21.423998 -2.6232562 -0.31985697 -77.481766 -0.31763813 -77.459328 -20.11598 -22.66592
11890000000 -21.404779 -2.6749895 -0.32002333 -77.670769 -0.31627899 -77.648682 -20.123512 -22.797867
11920000000 -21.395374 -2.8760531 -0.31993526 -77.87014 -0.31474993 -77.836266 -20.151518 -22.882673
11950000000 -21.405642 -2.8280437 -0.31864226 -78.062202 -0.31544271 -78.031853 -20.141521 -23.051933
11980000000 -21.388376 -2.7201583 -0.3182013 -78.248329 -0.31421196 -78.226891 -20.085243 -23.270124
12010000000 -21.345982 -2.8742688 -0.31817624 -78.449394 -0.3137314 -78.425674 -20.07522 -23.25173
12040000000 -21.334873 -2.9410124 -0.31810856 -78.641113 -0.31368271 -78.620003 -20.10318 -23.262522
12070000000 -21.350262 -2.9997704 -0.31657049 -78.845917 -0.31317076 -78.815765 -20.097219 -23.536842
12100000000 -21.323708 -3.128665 -0.31643322 -79.036743 -0.31292009 -79.01973 -20.044647 -23.805374
12130000000 -21.251745 -3.1610055 -0.3159655 -79.237411 -0.31308869 -79.210327 -20.024607 -23.944384
12160000000 -21.256712 -3.2710528 -0.31778464 -79.423721 -0.31295878 -79.408371 -20.020727 -23.822052
12190000000 -21.272512 -3.5427668 -0.31719479 -79.620018 -0.31277934 -79.597755 -20.010923 -23.956446
12220000000 -21.22736 -3.3989744 -0.31635723 -79.821106 -0.31305447 -79.791794 -20.006159 -24.389359
12250000000 -21.21397 -3.4475536 -0.31713772 -80.014412 -0.31279519 -79.98967 -19.956575 -24.537477
12280000000 -21.193182 -3.9212198 -0.31777182 -80.203842 -0.31388223 -80.176926 -19.942451 -24.428007
12310000000 -21.175457 -3.6815228 -0.3183651 -80.395973 -0.31305838 -80.37117 -19.928034 -24.53203
12340000000 -21.178877 -3.7049952 -0.31689292 -80.595718 -0.3125757 -80.565567 -19.919039 -24.978918
12370000000 -21.124237 -4.0489631 -0.3176139 -80.784065 -0.31313878 -80.763016 -19.903358 -25.158157
12400000000 -21.118019 -4.1175475 -0.31796652 -80.979332 -0.31427431 -80.955238 -19.885593 -25.178488
12430000000 -21.15292 -4.2246375 -0.31825757 -81.170151 -0.31532606 -81.143753 -19.85084 -25.347645
12460000000 -21.123426 -4.6047745 -0.31974441 -81.358856 -0.31570494 -81.332985 -19.857536 -25.675388
12490000000 -21.080818 -4.4737077 -0.31975499 -81.541687 -0.31511062 -81.520218 -19.888893 -25.80797
12520000000 -21.142845 -4.7105894 -0.31743652 -81.726219 -0.31495422 -81.702599 -19.862772 -25.961826
12550000000 -21.131716 -4.7259054 -0.31808016 -81.918365 -0.31415686 -81.899536 -19.832176 -25.847078
12580000000 -21.092478 -4.6017375 -0.31601533 -82.110107 -0.31192982 -82.084351 -19.857986 -26.316074
12610000000 -21.090643 -4.8080177 -0.31575447 -82.310127 -0.31138054 -82.277138 -19.869541 -26.399437
12640000000 -21.080484 -5.0709138 -0.31526846 -82.496239 -0.31118032 -82.473297 -19.832138 -26.279785
12670000000 -21.070036 -4.8008738 -0.31291592 -82.693733 -0.30966777 -82.672081 -19.794809 -26.565775
12700000000 -21.032276 -4.813787 -0.31335494 -82.894051 -0.30956882 -82.870575 -19.778376 -26.74337
12730000000 -20.994804 -5.2445736 -0.31317717 -83.09269 -0.30815631 -83.067001 -19.798851 -26.811436
12760000000 -21.011477 -5.2784505 -0.31320694 -83.294731 -0.30895868 -83.264565 -19.781744 -26.867887
12790000000 -21.019951 -5.2478285 -0.31468508 -83.486679 -0.309623 -83.45752 -19.708027 -27.085123
12820000000 -20.9485 -5.6035061 -0.3150444 -83.673538 -0.31012899 -83.646286 -19.685064 -27.396832
12850000000 -20.913099 -5.7271209 -0.31538814 -83.86058 -0.31068757 -83.835861 -19.713392 -27.49172
12880000000 -20.991497 -5.8670921 -0.31428573 -84.052322 -0.31074819 -84.022217 -19.69257 -27.46195
12910000000 -20.952484 -5.9623818 -0.31330988 -84.235809 -0.30994967 -84.209167 -19.661243 -27.691816
12940000000 -20.92025 -5.7336583 -0.31302664 -84.419365 -0.30802265 -84.396667 -19.683001 -28.171402
12970000000 -20.922983 -5.9538989 -0.31146201 -84.610786 -0.30769533 -84.58728 -19.69635 -28.055714
13000000000 -20.91535 -6.185854 -0.31021324 -84.802879 -0.30585486 -84.784187 -19.665079 -27.886246
13030000000 -20.932951 -5.8937969 -0.30896479 -84.994942 -0.30483231 -84.979935 -19.644468 -28.341976
13060000000 -20.900745 -5.916811 -0.30720824 -85.202034 -0.30413067 -85.167633 -19.639097 -28.525871
13090000000 -20.855108 -6.3229852 -0.30631065 -85.394264 -0.30270579 -85.370438 -19.653986 -28.272348
13120000000 -20.88522 -6.2020473 -0.30527467 -85.59938 -0.30102694 -85.569374 -19.624546 -28.499296
13150000000 -20.890345 -6.1407175 -0.30469957 -85.795074 -0.29993981 -85.768295 -19.581793 -28.67975
13180000000 -20.797276 -6.1612449 -0.30369034 -85.985153 -0.30056643 -85.963074 -19.592987 -28.854849
13210000000 -20.770342 -6.3545957 -0.30441302 -86.187073 -0.30009818 -86.167839 -19.581133 -28.827564
13240000000 -20.790379 -6.7124834 -0.3029317 -86.380486 -0.3002086 -86.361168 -19.51523 -28.856918
13270000000 -20.744007 -6.61796 -0.30415952 -86.587364 -0.29918045 -86.559242 -19.513855 -29.133673
13300000000 -20.699986 -6.4996185 -0.30291754 -86.780495 -0.2984958 -86.753632 -19.518974 -29.557621
13330000000 -20.698509 -6.8837619 -0.30279294 -86.972313 -0.29789773 -86.946602 -19.490129 -29.43202
13360000000 -20.677658 -7.1939387 -0.30167288 -87.164017 -0.2986652 -87.135582 -19.454176 -29.329222
13390000000 -20.66881 -6.7587409 -0.30142203 -87.356041 -0.2972011 -87.337997 -19.436529 -29.862526
13420000000 -20.657341 -6.9000597 -0.30123392 -87.55957 -0.29657605 -87.533852 -19.449936 -30.044373
13450000000 -20.594006 -7.3392663 -0.30116707 -87.75589 -0.29572749 -87.731735 -19.440306 -29.694149
13480000000 -20.617565 -7.237289 -0.29894888 -87.952415 -0.29541799 -87.929192 -19.41313 -29.951794
13510000000 -20.607044 -7.2311249 -0.29847583 -88.148232 -0.29484892 -88.121872 -19.371786 -30.240404
13540000000 -20.502953 -7.2643995 -0.29878804 -88.345764 -0.29369849 -88.319115 -19.407269 -30.38921
13570000000 -20.508347 -7.4046297 -0.29772919 -88.546509 -0.29379183 -88.515991 -19.387167 -30.553831
13600000000 -20.542339 -7.5331278 -0.29713041 -88.744202 -0.29299116 -88.716263 -19.327688 -30.363647
13630000000 -20.459894 -7.4919329 -0.29755175 -88.942924 -0.29334399 -88.916374 -19.29113 -30.671385
13660000000 -20.438465 -7.6187429 -0.29709437 -89.144348 -0.29253787 -89.111511 -19.315378 -31.000347
13690000000 -20.407457 -7.941421 -0.29618862 -89.343704 -0.29274887 -89.311409 -19.293701 -30.714634
13720000000 -20.389288 -8.0414505 -0.29690894 -89.537926 -0.29218817 -89.509895 -19.257015 -30.855835
13750000000 -20.384098 -7.6431279 -0.29641947 -89.740211 -0.29197025 -89.708893 -19.216991 -31.308693
13780000000 -20.331553 -7.9975286 -0.29584223 -89.942604 -0.29318336 -89.908913 -19.230034 -31.425779
13810000000 -20.274515 -8.3904619 -0.29543018 -90.13028 -0.29221612 -90.113647 -19.233486 -31.277567
13840000000 -20.299227 -8.3127422 -0.29516503 -90.336655 -0.29228562 -90.303452 -19.170387 -31.605625
13870000000 -20.270956 -8.2599878 -0.29631916 -90.542847 -0.29201704 -90.504189 -19.139515 -31.876581
13900000000 -20.182737 -8.2956409 -0.29625237 -90.732719 -0.29259351 -90.701904 -19.175594 -32.089481
13930000000 -20.207094 -8.5471029 -0.29639122 -90.932068 -0.29154226 -90.898491 -19.145548 -32.11198
13960000000 -20.1964 -8.8323498 -0.29649571 -91.129112 -0.29178089 -91.103027 -19.092188 -32.111294
13990000000 -20.144516 -8.6462994 -0.29600656 -91.326019 -0.29209486 -91.292389 -19.087475 -32.51487
14020000000 -20.136827 -8.6834736 -0.29674292 -91.520782 -0.29304266 -91.494255 -19.098692 -32.661045
14050000000 -20.113613 -9.2763805 -0.29619694 -91.720558 -0.29233241 -91.688675 -19.067135 -32.448807
14080000000 -20.070415 -9.1682673 -0.29741925 -91.91024 -0.29206219 -91.884857 -19.041143 -32.676167
14110000000 -20.077728 -9.0556746 -0.29613376 -92.117294 -0.29199851 -92.077507 -19.02269 -33.209736
14140000000 -20.023289 -9.4184551 -0.29631582 -92.308952 -0.29246226 -92.271416 -19.024168 -33.233639
14170000000 -19.989531 -9.5428181 -0.29668331 -92.505859 -0.29248995 -92.477905 -19.020678 -33.095818
14200000000 -20.018509 -9.5872126 -0.2966024 -92.699982 -0.29227149 -92.67231 -18.968269 -33.34922
14230000000 -19.963589 -9.7568054 -0.29670218 -92.902435 -0.29231939 -92.870102 -18.939817 -33.528763
14260000000 -19.89871 -9.7730646 -0.29552799 -93.101105 -0.29263783 -93.059433 -18.977491 -33.641136
14290000000 -19.929134 -9.9665604 -0.29573497 -93.296379 -0.29181024 -93.271561 -18.942833 -33.797726
14320000000 -19.878139 -10.162335 -0.29615149 -93.495094 -0.29208905 -93.459297 -18.871635 -33.8577
14350000000 -19.836941 -10.038699 -0.2958051 -93.683952 -0.29234737 -93.657524 -18.899372 -34.232094
14380000000 -19.831785 -10.188717 -0.2967712 -93.886993 -0.29236287 -93.858902 -18.910172 -34.454159
14410000000 -19.787676 -10.601416 -0.29564494 -94.079788 -0.29227066 -94.050888 -18.862411 -34.330441
14440000000 -19.775337 -10.402409 -0.296583 -94.272552 -0.29237589 -94.243759 -18.847925 -34.441589
14470000000 -19.771898 -10.399096 -0.29638788 -94.473099 -0.29169756 -94.450447 -18.814625 -34.900631
14500000000 -19.739014 -10.8087 -0.29567984 -94.663712 -0.29182491 -94.644547 -18.821377 -34.881813
14530000000 -19.696218 -10.871263 -0.29721355 -94.86911 -0.29285991 -94.832039 -18.815929 -34.846485
14560000000 -19.698648 -10.913818 -0.29714844 -95.067703 -0.29269293 -95.034332 -18.759193 -35.191647
14590000000 -19.658981 -11.038522 -0.29622826 -95.266197 -0.29393891 -95.227928 -18.751482 -35.365608
14620000000 -19.623955 -11.125458 -0.29695025 -95.45256 -0.29235899 -95.431053 -18.778097 -35.39864
14650000000 -19.636908 -11.334806 -0.29684436 -95.661079 -0.29243734 -95.623924 -18.75119 -35.538063
14680000000 -19.591486 -11.417881 -0.29719529 -95.86071 -0.29255059 -95.828613 -18.713717 -35.669106
14710000000 -19.549616 -11.506841 -0.296731 -96.047234 -0.29237726 -96.021286 -18.708202 -36.006931
14740000000 -19.550924 -11.52522 -0.29707968 -96.250465 -0.29359019 -96.223152 -18.700302 -36.163898
14770000000 -19.514168 -11.859437 -0.2971426 -96.447487 -0.29285908 -96.415649 -18.672583 -36.077049
14800000000 -19.490891 -11.825005 -0.2983222 -96.644485 -0.29419652 -96.612198 -18.654753 -36.33987
14830000000 -19.492758 -11.960376 -0.2972995 -96.844383 -0.29562303 -96.807236 -18.625477 -36.808128
14860000000 -19.459587 -12.085299 -0.29785672 -97.0336 -0.29352704 -96.99601 -18.639469 -36.765549
14890000000 -19.430498 -12.238712 -0.29779959 -97.229485 -0.2944943 -97.195259 -18.627031 -36.821758
14920000000 -19.440889 -12.44087 -0.29953599 -97.419724 -0.29469708 -97.399986 -18.583086 -37.091373
14950000000 -19.38969 -12.572008 -0.299016 -97.617485 -0.29391012 -97.58638 -18.58251 -37.14603
14980000000 -19.369701 -12.465405 -0.29832333 -97.811409 -0.29386994 -97.777725 -18.60051 -37.331371
15010000000 -19.361643 -12.643699 -0.29773584 -98.007889 -0.29459903 -97.984192 -18.551065 -37.483414
15040000000 -19.301105 -12.882586 -0.29928637 -98.211853 -0.29461011 -98.176575 -18.518669 -37.511681
15070000000 -19.313738 -12.887184 -0.29896578 -98.408646 -0.29418793 -98.373383 -18.544498 -37.80827
15100000000 -19.325151 -13.05378 -0.2980189 -98.5989 -0.29434279 -98.570816 -18.531345 -38.10677
15130000000 -19.25083 -13.163137 -0.29871345 -98.808929 -0.29396051 -98.772102 -18.504681 -37.906841
15160000000 -19.241415 -13.366111 -0.29916462 -99.000999 -0.29429817 -98.962326 -18.485519 -38.303215
15190000000 -19.237831 -13.40993 -0.29933769 -99.19767 -0.29456854 -99.161224 -18.469816 -38.555405
15220000000 -19.190845 -13.533038 -0.29918626 -99.394669 -0.29442257 -99.357399 -18.449263 -38.471531
15250000000 -19.172417 -13.536408 -0.29946497 -99.59214 -0.29443723 -99.557457 -18.454535 -38.650993
15280000000 -19.166279 -13.803476 -0.299171 -99.791313 -0.29446521 -99.752151 -18.420063 -39.051281
15310000000 -19.14115 -13.88524 -0.29951045 -99.978798 -0.29457879 -99.950134 -18.411243 -39.034653
15340000000 -19.120766 -13.88452 -0.29850689 -100.17027 -0.29491818 -100.14975 -18.411221 -39.233002
15370000000 -19.093803 -14.014231 -0.29799506 -100.37724 -0.29461592 -100.34944 -18.366661 -39.353962
15400000000 -19.068647 -14.307175 -0.30003244 -100.57902 -0.29494393 -100.54888 -18.360374 -39.436443
15430000000 -19.06646 -14.440355 -0.30016005 -100.77274 -0.29496694 -100.74918 -18.360325 -39.760372
15460000000 -19.059994 -14.523515 -0.30005381 -100.97097 -0.29494449 -100.94003 -18.336832 -40.000027
15490000000 -18.972984 -14.536053 -0.30061969 -101.16808 -0.29523927 -101.14011 -18.305922 -39.856487
15520000000 -18.97851 -14.84843 -0.3006652 -101.37145 -0.29601792 -101.33915 -18.309961 -40.282253
15550000000 -18.994499 -14.889382 -0.30187932 -101.56702 -0.29704031 -101.53262 -18.293901 -40.465668
15580000000 -18.966236 -15.065545 -0.30153108 -101.76511 -0.29646659 -101.73331 -18.27593 -40.454689
15610000000 -18.921974 -15.130242 -0.30178553 -101.9717 -0.29729089 -101.92924 -18.259871 -40.785084
15640000000 -18.913805 -15.375198 -0.30215073 -102.16147 -0.29834163 -102.12215 -18.220974 -40.982613
15670000000 -18.914877 -15.4684 -0.30260807 -102.35542 -0.29842842 -102.32307 -18.240961 -41.018639
15700000000 -18.885269 -15.53064 -0.3028945 -102.54945 -0.2983042 -102.52802 -18.223816 -41.27372
15730000000 -18.863365 -15.664138 -0.30257338 -102.75187 -0.29807213 -102.72872 -18.191425 -41.57338
15760000000 -18.815226 -16.027906 -0.30355489 -102.94621 -0.29880828 -102.92422 -18.17292 -41.67622
15790000000 -18.824257 -16.123949 -0.30451354 -103.1469 -0.30019805 -103.11456 -18.17605 -41.751816
15820000000 -18.834711 -16.302034 -0.30485064 -103.34083 -0.29974288 -103.31471 -18.161629 -42.019436
15850000000 -18.787634 -16.340067 -0.30540103 -103.54113 -0.30156827 -103.51508 -18.142136 -42.185966
15880000000 -18.763273 -16.663673 -0.30719048 -103.73905 -0.30212158 -103.71832 -18.128235 -42.497917
15910000000 -18.775219 -16.912371 -0.30742553 -103.93352 -0.30477566 -103.8998 -18.110905 -42.650581
15940000000 -18.758793 -17.023533 -0.30840921 -104.12176 -0.30450994 -104.09361 -18.095036 -42.626076
15970000000 -18.7208 -17.172453 -0.30893728 -104.32402 -0.30474234 -104.29269 -18.086416 -43.031567
16000000000 -18.717049 -17.513561 -0.31068367 -104.5135 -0.30653012 -104.47984 -18.080181 -43.431564
16030000000 -18.707628 -17.65324 -0.31169423 -104.70191 -0.30661955 -104.67325 -18.067543 -43.247902
16060000000 -18.738482 -17.521517 -0.31089416 -104.89346 -0.3079693 -104.87028 -18.084875 -43.527813
16090000000 -18.711004 -17.799305 -0.31115723 -105.08205 -0.30648065 -105.04597 -18.042788 -43.946804
16120000000 -18.686792 -18.20426 -0.31125596 -105.27891 -0.30892837 -105.24676 -18.058706 -43.937168
16150000000 -18.684813 -18.295696 -0.31166339 -105.46566 -0.30737606 -105.42366 -18.059374 -44.059551
16180000000 -18.705492 -18.299086 -0.31013122 -105.65517 -0.30570266 -105.62558 -18.030981 -44.342091
16210000000 -18.658709 -18.22435 -0.31053993 -105.84639 -0.3057318 -105.81827 -18.03339 -44.336243
16240000000 -18.631855 -18.578945 -0.31044009 -106.04777 -0.30731854 -106.01361 -18.040606 -44.619324
16270000000 -18.649067 -18.717934 -0.31050181 -106.22896 -0.30725658 -106.20685 -18.03529 -44.692238
16300000000 -18.652803 -18.686039 -0.31033418 -106.44299 -0.30614704 -106.39812 -17.998913 -44.716404
16330000000 -18.596884 -18.709988 -0.30994189 -106.63119 -0.30682847 -106.60019 -18.00716 -44.9888
16360000000 -18.5991 -19.155258 -0.31031749 -106.82194 -0.30607149 -106.79741 -18.014967 -45.236019
16390000000 -18.606754 -19.47142 -0.31073484 -107.01271 -0.30646566 -106.98225 -17.99428 -44.933136
16420000000 -18.594408 -19.35154 -0.3095538 -107.20849 -0.30673429 -107.17905 -17.981108 -45.275833
16450000000 -18.556572 -19.334785 -0.30805907 -107.40295 -0.30580515 -107.37543 -17.974943 -45.671932
16480000000 -18.517485 -19.766455 -0.3098771 -107.60007 -0.30549574 -107.56759 -17.975971 -45.473827
16510000000 -18.539038 -19.852329 -0.30995384 -107.79868 -0.30418506 -107.76325 -17.986855 -45.447388
16540000000 -18.562407 -19.874418 -0.30737078 -107.99522 -0.30321705 -107.96131 -17.947639 -45.779633
16570000000 -18.491062 -19.918583 -0.30679819 -108.19125 -0.30400127 -108.16277 -17.932714 -45.84343
16600000000 -18.466681 -20.27631 -0.30731022 -108.39043 -0.30332142 -108.35296 -17.96139 -46.056084
16630000000 -18.50774 -20.472069 -0.30839419 -108.58598 -0.30373725 -108.55834 -17.933292 -46.01371
16660000000 -18.480312 -20.598173 -0.30759084 -108.78558 -0.30321482 -108.75343 -17.875172 -46.073627
16690000000 -18.411558 -20.506613 -0.30831334 -108.99538 -0.30417535 -108.95415 -17.894749 -46.446518
16720000000 -18.415279 -20.944689 -0.30807489 -109.1814 -0.30316848 -109.15406 -17.909435 -46.545078
16750000000 -18.411217 -21.25482 -0.3078526 -109.38013 -0.30326146 -109.3437 -17.857914 -46.216591
16780000000 -18.399282 -21.144205 -0.30905762 -109.57901 -0.30238274 -109.55308 -17.837387 -46.564022
16810000000 -18.36875 -21.252476 -0.30745581 -109.78425 -0.30490229 -109.75239 -17.859455 -46.928665
16840000000 -18.315104 -21.779037 -0.30878496 -109.97321 -0.30491143 -109.9479 -17.844967 -46.851627
16870000000 -18.335964 -21.819574 -0.30902371 -110.17812 -0.30427948 -110.13969 -17.817226 -46.983849
16900000000 -18.35404 -21.795242 -0.30868408 -110.37988 -0.30620623 -110.339 -17.783136 -47.137154
16930000000 -18.28018 -22.058342 -0.31093839 -110.57748 -0.30541965 -110.55145 -17.768736 -47.26107
16960000000 -18.253775 -22.3221 -0.31096062 -110.77198 -0.30574292 -110.74652 -17.810194 -47.473412
16990000000 -18.30382 -22.635916 -0.31118336 -110.95996 -0.30585486 -110.94236 -17.769682 -47.37759
17020000000 -18.260048 -22.697613 -0.31075403 -111.16415 -0.30659512 -111.15638 -17.706335 -47.56596
17050000000 -18.192064 -22.600796 -0.31129879 -111.36382 -0.30799431 -111.33096 -17.733459 -47.9716
17080000000 -18.196505 -23.189154 -0.31288755 -111.55773 -0.30692181 -111.53519 -17.73871 -48.059826
17110000000 -18.202625 -23.454557 -0.31270701 -111.74752 -0.30718631 -111.72689 -17.696909 -47.940605
17140000000 -18.194933 -23.182257 -0.31242132 -111.95924 -0.30882442 -111.92651 -17.679129 -48.207088
17170000000 -18.157421 -23.60795 -0.31238014 -112.1488 -0.30990991 -112.12254 -17.670853 -48.719376
17200000000 -18.089628 -23.983866 -0.31392172 -112.35052 -0.31006503 -112.31757 -17.664486 -48.38369
17230000000 -18.114939 -24.050047 -0.31322306 -112.54644 -0.30995494 -112.51534 -17.656511 -48.533718
17260000000 -18.14006 -24.0378 -0.31639147 -112.74157 -0.31063864 -112.72 -17.615131 -48.843323
17290000000 -18.036886 -24.228455 -0.3149325 -112.94583 -0.31209087 -112.91347 -17.603338 -49.133614
17320000000 -18.019938 -24.558205 -0.3155894 -113.14306 -0.3102324 -113.11147 -17.653734 -49.23893
17350000000 -18.079609 -24.974068 -0.31654209 -113.3458 -0.31249169 -113.31689 -17.586748 -49.179287
17380000000 -18.02099 -24.903688 -0.31652707 -113.53667 -0.31234592 -113.50528 -17.539816 -49.363869
17410000000 -17.966249 -24.905766 -0.31894842 -113.73936 -0.31475604 -113.70685 -17.590439 -49.922318
17440000000 -17.95752 -25.610052 -0.31966555 -113.93536 -0.31393397 -113.90261 -17.580183 -49.917904
17470000000 -17.929461 -25.779263 -0.31861886 -114.13582 -0.31684169 -114.10668 -17.499338 -49.892189
17500000000 -17.938713 -25.490526 -0.32163733 -114.33902 -0.31774926 -114.30901 -17.504824 -50.301437
17530000000 -17.912251 -25.943331 -0.32451367 -114.53532 -0.31796205 -114.5004 -17.517897 -50.826267
17560000000 -17.842451 -26.380648 -0.32442275 -114.73681 -0.3200849 -114.69345 -17.508091 -50.672749
17590000000 -17.864859 -26.596296 -0.3268711 -114.92199 -0.32370284 -114.89198 -17.4685 -50.75256
17620000000 -17.870008 -26.811211 -0.33095199 -115.11508 -0.32547557 -115.09142 -17.416397 -51.350758
17650000000 -17.77021 -27.05233 -0.33269998 -115.30849 -0.32689902 -115.27025 -17.426001 -51.698307
17680000000 -17.778812 -27.250998 -0.33435616 -115.48764 -0.32847786 -115.46891 -17.50219 -51.797997
17710000000 -17.84502 -27.901609 -0.33792168 -115.67867 -0.33245462 -115.64625 -17.42465 -52.208199
17740000000 -17.823223 -27.956678 -0.33912554 -115.84205 -0.33650777 -115.81784 -17.400124 -52.573883
17770000000 -17.819029 -27.974943 -0.34141785 -116.01419 -0.33675 -115.98704 -17.49461 -53.027119
17800000000 -17.849945 -28.694164 -0.33926633 -116.17287 -0.33707058 -116.1586 -17.487095 -53.136417
17830000000 -17.851883 -28.658197 -0.34039277 -116.34908 -0.33504874 -116.32663 -17.474413 -53.102669
17860000000 -17.909729 -28.242035 -0.33794433 -116.5146 -0.33117184 -116.48489 -17.502939 -53.574711
17890000000 -17.868093 -28.328991 -0.33310831 -116.70478 -0.32898045 -116.6683 -17.544312 -53.70126
17920000000 -17.826471 -28.348484 -0.32754657 -116.8947 -0.32338718 -116.87201 -17.580051 -53.401657
17950000000 -17.889593 -28.279478 -0.32721579 -117.09388 -0.3216666 -117.07549 -17.58979 -53.629494
17980000000 -17.851828 -28.368137 -0.32372323 -117.28927 -0.3195647 -117.27064 -17.538462 -53.964153
18010000000 -17.765791 -28.038988 -0.32220799 -117.49923 -0.31795955 -117.46023 -17.577682 -53.865444
18040000000 -17.775347 -28.201996 -0.32028276 -117.69681 -0.31743318 -117.66974 -17.612505 -53.91415
18070000000 -17.777874 -28.67417 -0.32004145 -117.91415 -0.31674537 -117.87587 -17.537809 -53.932129
18100000000 -17.730797 -28.376722 -0.32056284 -118.11308 -0.31681886 -118.07777 -17.501724 -54.146099
18130000000 -17.7029 -28.286156 -0.31960621 -118.30682 -0.3155652 -118.27182 -17.569122 -54.445957
18160000000 -17.655115 -28.99803 -0.32034406 -118.52686 -0.31413683 -118.47729 -17.525755 -54.327679
18190000000 -17.634563 -28.772615 -0.31996703 -118.71371 -0.31509784 -118.68596 -17.501652 -54.2183
18220000000 -17.659212 -28.799538 -0.31991327 -118.89365 -0.3151446 -118.86692 -17.522329 -54.887474
18250000000 -17.591866 -29.101025 -0.31864366 -119.11508 -0.31473044 -119.07282 -17.503286 -55.092724
18280000000 -17.529322 -29.074144 -0.31906459 -119.30499 -0.31352606 -119.2751 -17.493216 -54.687809
18310000000 -17.577168 -29.390102 -0.31937438 -119.49991 -0.31555432 -119.47336 -17.497272 -54.986301
18340000000 -17.569529 -29.487095 -0.31946802 -119.70166 -0.31513125 -119.67397 -17.443712 -55.686626
18370000000 -17.503017 -29.32206 -0.31913981 -119.89455 -0.31476134 -119.86832 -17.466166 -55.599255
18400000000 -17.493126 -29.609669 -0.31943429 -120.0879 -0.31667519 -120.07123 -17.503569 -55.659786
18430000000 -17.478575 -30.090771 -0.32117209 -120.30474 -0.31501266 -120.26675 -17.418453 -55.883053
18460000000 -17.446943 -29.744347 -0.31945047 -120.49089 -0.31674507 -120.45387 -17.422428 -56.073299
18490000000 -17.477243 -29.8134 -0.31973019 -120.68819 -0.31340003 -120.65305 -17.509203 -56.390701
18520000000 -17.415751 -30.305065 -0.32003057 -120.89569 -0.31678295 -120.8616 -17.444056 -56.405151
18550000000 -17.39192 -30.273394 -0.31915429 -121.08094 -0.31690907 -121.05379 -17.402704 -56.23642
18580000000 -17.457338 -30.394724 -0.32123899 -121.28054 -0.31703299 -121.24503 -17.45573 -56.916954
18610000000 -17.402077 -30.667986 -0.31986395 -121.4768 -0.31707618 -121.44533 -17.438461 -57.059303
18640000000 -17.334251 -30.503479 -0.3200891 -121.67079 -0.31550923 -121.64739 -17.423122 -56.713116
18670000000 -17.397482 -30.960039 -0.32166883 -121.87205 -0.31818962 -121.83793 -17.399855 -57.068195
18700000000 -17.375902 -31.250418 -0.32166687 -122.06955 -0.31698036 -122.03909 -17.363605 -57.40802
18730000000 -17.32073 -30.866953 -0.32022786 -122.25758 -0.31608716 -122.23009 -17.411125 -57.371159
18760000000 -17.362152 -31.289282 -0.32293597 -122.47719 -0.31825814 -122.43346 -17.425005 -57.59169
18790000000 -17.305777 -31.827223 -0.3224366 -122.67061 -0.31732568 -122.63255 -17.330252 -57.78133
18820000000 -17.284508 -31.449623 -0.32359186 -122.85401 -0.31917882 -122.82403 -17.363459 -57.759842
18850000000 -17.3493 -31.647705 -0.32394242 -123.05129 -0.31871384 -123.01936 -17.428343 -58.225861
18880000000 -17.263662 -32.117779 -0.32301071 -123.26161 -0.31826982 -123.22451 -17.343634 -58.173683
18910000000 -17.235544 -32.125748 -0.32513744 -123.45687 -0.31963882 -123.41669 -17.314241 -57.988094
18940000000 -17.315998 -32.332291 -0.32603809 -123.63535 -0.32151747 -123.6145 -17.355013 -58.470184
18970000000 -17.232193 -32.564743 -0.32744357 -123.84911 -0.32217732 -123.82077 -17.328573 -58.710571
19000000000 -17.186296 -32.199711 -0.32682002 -124.05102 -0.3221277 -124.02613 -17.335157 -58.443199
19030000000 -17.243156 -32.938148 -0.32759541 -124.24021 -0.32338801 -124.21657 -17.335363 -58.919342
19060000000 -17.225752 -33.057343 -0.32951662 -124.44557 -0.32388917 -124.40936 -17.310141 -59.290367
19090000000 -17.217546 -32.627331 -0.32702154 -124.62583 -0.3233456 -124.60168 -17.334764 -59.066692
19120000000 -17.187834 -33.293461 -0.33228445 -124.83726 -0.32671118 -124.79897 -17.317226 -59.098049
19150000000 -17.162891 -33.860439 -0.33373863 -125.04415 -0.32849211 -125.00659 -17.273466 -59.504528
19180000000 -17.19663 -33.660812 -0.3336626 -125.21823 -0.33000284 -125.19016 -17.287645 -59.535316
19210000000 -17.223515 -33.717556 -0.33477443 -125.416 -0.33058995 -125.3744 -17.3305 -59.766914
19240000000 -17.112555 -34.059181 -0.33680287 -125.61526 -0.33389908 -125.57688 -17.262548 -59.994095
19270000000 -17.161289 -34.29285 -0.33937606 -125.80238 -0.33475682 -125.76035 -17.273685 -59.865795
19300000000 -17.238741 -34.889362 -0.34037653 -125.96461 -0.33624959 -125.93418 -17.329145 -60.243996
19330000000 -17.166977 -34.705471 -0.34237763 -126.16199 -0.33657518 -126.12772 -17.279158 -60.309834
19360000000 -17.169888 -34.691555 -0.34211713 -126.34283 -0.33617884 -126.2977 -17.296564 -60.208595
19390000000 -17.225668 -35.430668 -0.34156543 -126.49695 -0.33639279 -126.47288 -17.338585 -60.607334
19420000000 -17.258907 -35.331604 -0.34087825 -126.68835 -0.3346791 -126.65147 -17.315857 -60.748066
19450000000 -17.270395 -34.915615 -0.33619422 -126.87856 -0.32969451 -126.83764 -17.336454 -60.359161
19480000000 -17.22217 -35.364468 -0.33558676 -127.07108 -0.33035308 -127.0369 -17.321415 -60.408627
19510000000 -17.180298 -35.697536 -0.33430555 -127.26976 -0.3308059 -127.24842 -17.282917 -60.638462
19540000000 -17.24929 -35.369732 -0.33303034 -127.4761 -0.32846531 -127.4381 -17.296633 -60.392368
19570000000 -17.241394 -35.572041 -0.33222437 -127.68072 -0.32764956 -127.63629 -17.301516 -60.581833
19600000000 -17.118561 -35.745167 -0.33318323 -127.88259 -0.32846865 -127.85132 -17.212717 -60.808971
19630000000 -17.153116 -36.072777 -0.3331072 -128.07129 -0.32842371 -128.04231 -17.231928 -60.77824
19660000000 -17.202597 -36.468597 -0.33223498 -128.27045 -0.32715133 -128.23103 -17.257677 -60.946987
19690000000 -17.122438 -36.215572 -0.33403775 -128.47382 -0.32912147 -128.44324 -17.197681 -60.861134
19720000000 -17.093704 -36.502228 -0.33363855 -128.65874 -0.32909411 -128.63788 -17.172823 -60.973461
19750000000 -17.119164 -37.118046 -0.33470649 -128.84911 -0.33087489 -128.82309 -17.203838 -61.300312
19780000000 -17.091131 -37.162922 -0.3346855 -129.0582 -0.3293094 -129.0239 -17.148386 -61.382137
19810000000 -17.105778 -36.808628 -0.33379957 -129.26158 -0.32893774 -129.23297 -17.143616 -61.251373
19840000000 -17.077442 -37.460754 -0.33597046 -129.45515 -0.33127102 -129.41679 -17.15604 -61.605274
19870000000 -17.033562 -37.792789 -0.33577916 -129.65627 -0.33220369 -129.61292 -17.124596 -61.822227
19900000000 -17.113714 -37.813736 -0.33419207 -129.83389 -0.33061174 -129.81703 -17.123037 -61.711246
19930000000 -17.081942 -38.011787 -0.33526906 -130.04272 -0.33219585 -130.00427 -17.114595 -62.032845
19960000000 -16.990482 -38.208916 -0.33670831 -130.22966 -0.33218467 -130.20923 -17.075632 -62.392365
19990000000 -17.038074 -38.656723 -0.33672929 -130.44853 -0.33239257 -130.40889 -17.122778 -62.331345
20020000000 -17.075275 -39.019451 -0.33625069 -130.63412 -0.33133194 -130.59882 -17.119091 -62.575886
20050000000 -16.991863 -38.639004 -0.33880958 -130.8407 -0.33485636 -130.80391 -17.056648 -62.724899
20080000000 -17.004646 -39.013268 -0.33852413 -131.03226 -0.33437881 -131.00577 -17.069353 -62.802101
20110000000 -17.002804 -39.730629 -0.33878663 -131.22069 -0.33539549 -131.18213 -17.112198 -63.094589
20140000000 -17.010437 -39.67868 -0.3404972 -131.42169 -0.33531803 -131.38104 -17.066765 -63.170181
20170000000 -17.015596 -39.644173 -0.34208354 -131.62024 -0.33647224 -131.58856 -17.051962 -63.060726
20200000000 -16.960228 -40.134983 -0.34360123 -131.80049 -0.33771881 -131.77254 -17.065907 -63.647903
20230000000 -16.913221 -40.461407 -0.34371331 -131.98639 -0.3406302 -131.95445 -17.045645 -63.659714
20260000000 -17.006268 -40.5425 -0.34405011 -132.19745 -0.33942196 -132.16553 -17.050055 -63.558044
20290000000 -16.955713 -40.681858 -0.34520075 -132.39433 -0.34047928 -132.35965 -17.036713 -63.892746
20320000000 -16.872499 -40.92741 -0.34770209 -132.57806 -0.34171411 -132.53862 -16.997749 -64.319618
20350000000 -16.927769 -41.419765 -0.34664664 -132.77032 -0.34273839 -132.74576 -17.033049 -64.243523
20380000000 -16.937685 -41.890823 -0.34768918 -132.97224 -0.34255576 -132.93741 -17.071367 -64.444389
20410000000 -16.8808 -41.455402 -0.35249963 -133.16084 -0.34802741 -133.11906 -17.010862 -64.868614
20440000000 -16.88332 -41.848186 -0.35310104 -133.3324 -0.34768218 -133.30161 -17.023354 -65.009781
20470000000 -16.898819 -42.491062 -0.35293987 -133.51118 -0.34887221 -133.4874 -17.086739 -65.411293
20500000000 -16.922148 -42.443218 -0.35375139 -133.68684 -0.3477492 -133.66171 -17.038065 -65.507324
20530000000 -16.957821 -42.315674 -0.3541339 -133.87099 -0.34851822 -133.83253 -17.042494 -65.533752
20560000000 -16.914013 -42.699577 -0.35011983 -134.05345 -0.34567836 -134.00926 -17.083191 -65.889893
20590000000 -16.89687 -42.725246 -0.347471 -134.22754 -0.34385508 -134.2028 -17.081451 -66.030922
20620000000 -16.956697 -42.688515 -0.34727752 -134.42873 -0.3413806 -134.39748 -17.081631 -65.834511
20650000000 -16.901115 -42.902515 -0.3428244 -134.62843 -0.3392294 -134.5984 -17.058245 -66.125092
20680000000 -16.837984 -42.770061 -0.34198943 -134.81119 -0.33906063 -134.79057 -17.051386 -66.482101
20710000000 -16.869709 -43.139896 -0.34373936 -135.0312 -0.33773279 -134.99391 -17.083651 -66.459892
20740000000 -16.859346 -43.668339 -0.34221292 -135.23058 -0.33691701 -135.19392 -17.076786 -66.422592
20770000000 -16.801847 -43.305878 -0.34142989 -135.41159 -0.33807138 -135.38513 -17.009243 -66.819038
20800000000 -16.807932 -43.556572 -0.34264988 -135.61725 -0.33797511 -135.57675 -17.046112 -66.975677
20830000000 -16.74213 -43.969669 -0.34141868 -135.81459 -0.33589718 -135.78394 -17.103451 -67.276337
20860000000 -16.762249 -43.882683 -0.34190091 -135.99323 -0.33879754 -135.9727 -17.039711 -67.25621
20890000000 -16.786835 -43.976254 -0.34303924 -136.19763 -0.33669657 -136.15941 -17.007265 -67.357216
20920000000 -16.703758 -44.390724 -0.34112075 -136.39548 -0.33550847 -136.35258 -17.043699 -68.012978
20950000000 -16.695681 -44.409107 -0.33937103 -136.57668 -0.3357814 -136.55075 -17.049477 -68.110916
20980000000 -16.724134 -44.82151 -0.34072539 -136.7822 -0.33622217 -136.74803 -17.051085 -67.999252
21010000000 -16.696781 -45.019356 -0.33765864 -136.98166 -0.33445597 -136.93959 -17.03582 -68.43869
21040000000 -16.653532 -44.743427 -0.33761388 -137.173 -0.33195472 -137.12723 -17.024666 -69.021202
21070000000 -16.664413 -45.24799 -0.33701324 -137.37202 -0.33115619 -137.33043 -17.068645 -68.931946
21100000000 -16.655909 -45.618149 -0.33753332 -137.57573 -0.33279836 -137.53386 -17.100903 -68.884117
21130000000 -16.675478 -45.517479 -0.33732769 -137.76994 -0.33165574 -137.73405 -17.067768 -69.482567
21160000000 -16.656651 -45.536171 -0.33850062 -137.9711 -0.33278552 -137.92921 -17.098438 -69.600426
21190000000 -16.616079 -45.941708 -0.33785927 -138.17816 -0.33249152 -138.13649 -17.149881 -69.800705
21220000000 -16.639538 -46.024277 -0.33852357 -138.37268 -0.33376268 -138.34145 -17.115295 -69.969421
21250000000 -16.683044 -46.141972 -0.34068897 -138.56253 -0.33470201 -138.53194 -17.105091 -70.074448
21280000000 -16.6315 -46.178864 -0.33998543 -138.76942 -0.33591369 -138.73657 -17.174696 -70.51181
21310000000 -16.600166 -46.350731 -0.34036759 -138.95326 -0.33553615 -138.91998 -17.171551 -70.523979
21340000000 -16.63442 -46.928516 -0.34312385 -139.14716 -0.33737245 -139.1165 -17.203297 -70.331398
21370000000 -16.632454 -47.015556 -0.34467274 -139.34081 -0.33958712 -139.30423 -17.210154 -70.852524
21400000000 -16.60433 -46.736408 -0.34322694 -139.49718 -0.33865061 -139.47232 -17.214203 -71.141273
21430000000 -16.582993 -47.194328 -0.34146377 -139.69168 -0.33799356 -139.6487 -17.251101 -70.815361
21460000000 -16.566713 -47.557671 -0.34041405 -139.87704 -0.33531326 -139.84102 -17.294418 -70.698975
21490000000 -16.635702 -47.315037 -0.33903629 -140.06071 -0.33286321 -140.03011 -17.251036 -71.273415
21520000000 -16.605412 -47.190224 -0.33522826 -140.26268 -0.33065197 -140.22655 -17.264702 -71.135002
21550000000 -16.546797 -47.54192 -0.33553252 -140.47745 -0.32959089 -140.43588 -17.31518 -71.078506
21580000000 -16.565088 -48.047512 -0.33581719 -140.68625 -0.32930884 -140.65373 -17.258694 -71.355118
21610000000 -16.629126 -48.032001 -0.33517119 -140.89363 -0.32948953 -140.85852 -17.276449 -71.297836
21640000000 -16.582216 -47.771309 -0.33386219 -141.08968 -0.3290807 -141.0507 -17.331583 -71.488815
21670000000 -16.536839 -48.008469 -0.33598387 -141.30544 -0.33093551 -141.26659 -17.307617 -71.668121
21700000000 -16.582476 -48.710602 -0.33894503 -141.495 -0.33486167 -141.46553 -17.262707 -71.28318
21730000000 -16.612085 -48.496857 -0.34141392 -141.68398 -0.33567289 -141.65431 -17.321312 -71.509399
21760000000 -16.547993 -48.028316 -0.33989167 -141.87018 -0.33347756 -141.84181 -17.314304 -71.955399
21790000000 -16.52599 -48.616154 -0.34054562 -142.08018 -0.33767405 -142.03358 -17.30238 -71.650124
21820000000 -16.54097 -49.055096 -0.34476101 -142.2677 -0.33925346 -142.23947 -17.316597 -71.518158
21850000000 -16.603354 -48.836559 -0.34472263 -142.44144 -0.33939117 -142.39969 -17.283989 -72.139168
21880000000 -16.553085 -48.586449 -0.34357071 -142.63629 -0.33821967 -142.60399 -17.281832 -71.746872
21910000000 -16.480043 -49.163704 -0.34544179 -142.83382 -0.34184605 -142.79349 -17.325191 -71.78775
21940000000 -16.517763 -49.536945 -0.3495256 -143.01521 -0.34383267 -142.97169 -17.262249 -72.21492
21970000000 -16.571007 -49.437336 -0.34742838 -143.1716 -0.34186733 -143.1412 -17.249334 -72.177673
22000000000 -16.49654 -49.248074 -0.34603268 -143.37157 -0.34078753 -143.34502 -17.291115 -72.275146
22030000000 -16.422913 -49.631622 -0.34653732 -143.57161 -0.34223309 -143.53429 -17.247009 -72.631927
22060000000 -16.481127 -50.422348 -0.34836733 -143.73463 -0.3434253 -143.70872 -17.233894 -72.469261
22090000000 -16.514349 -50.159454 -0.34561446 -143.91093 -0.33978754 -143.87729 -17.299187 -72.833527
22120000000 -16.461597 -49.856415 -0.34043282 -144.10303 -0.33575174 -144.06767 -17.265766 -73.095192
22150000000 -16.402699 -50.699944 -0.340166 -144.3082 -0.33489272 -144.28372 -17.259438 -72.70134
22180000000 -16.443356 -51.272003 -0.3408035 -144.49649 -0.33562478 -144.46019 -17.297888 -72.833679
22210000000 -16.528168 -50.98391 -0.33734614 -144.6917 -0.33140483 -144.65605 -17.274029 -73.191414
22240000000 -16.443607 -50.766491 -0.33561864 -144.90762 -0.33132353 -144.87518 -17.235445 -73.033173
22270000000 -16.3664 -51.421402 -0.33751848 -145.12532 -0.33185691 -145.0972 -17.294771 -73.122757
22300000000 -16.436525 -51.897396 -0.3401632 -145.31087 -0.33517903 -145.26183 -17.249094 -73.436462
22330000000 -16.516739 -51.622089 -0.33496484 -145.47922 -0.33163702 -145.4603 -17.224087 -73.171066
22360000000 -16.407507 -51.563766 -0.33691701 -145.71246 -0.33028883 -145.6783 -17.283892 -73.266609
22390000000 -16.368814 -52.257721 -0.33993253 -145.90581 -0.33444142 -145.8687 -17.235128 -73.78685
22420000000 -16.42853 -52.882 -0.34189504 -146.07361 -0.33562478 -146.04916 -17.186934 -73.303085
22450000000 -16.507837 -52.474426 -0.33947766 -146.26277 -0.33334172 -146.23764 -17.247829 -73.604843
22480000000 -16.376211 -52.419804 -0.33796448 -146.47768 -0.33433267 -146.43814 -17.226934 -73.929314
22510000000 -16.349274 -53.046547 -0.3415083 -146.66473 -0.33750504 -146.63115 -17.163734 -73.941704
22540000000 -16.424652 -53.605854 -0.34050757 -146.83299 -0.33596066 -146.80995 -17.204556 -74.24437
22570000000 -16.485323 -53.136429 -0.33605435 -147.0314 -0.3325488 -146.98991 -17.202168 -74.493828
22600000000 -16.431335 -53.068325 -0.3380028 -147.25067 -0.33248538 -147.21497 -17.173574 -74.188728
22630000000 -16.369995 -53.949257 -0.33987933 -147.44162 -0.33562675 -147.3927 -17.223452 -74.35025
22660000000 -16.447592 -54.262058 -0.33938277 -147.60565 -0.33564353 -147.58295 -17.201122 -74.918037
22690000000 -16.48526 -53.90202 -0.33706051 -147.81427 -0.33298227 -147.7854 -17.163191 -74.444244
22720000000 -16.384937 -53.906528 -0.33962181 -148.01276 -0.33392817 -147.98201 -17.191038 -74.505104
22750000000 -16.351665 -54.578037 -0.34128204 -148.20622 -0.33542624 -148.16216 -17.150534 -75.06353
22780000000 -16.439051 -55.096802 -0.34052491 -148.38022 -0.33466342 -148.34268 -17.139936 -74.941444
22810000000 -16.441132 -54.910946 -0.33779716 -148.575 -0.33141547 -148.5499 -17.175766 -75.052193
22840000000 -16.361897 -54.743313 -0.34135315 -148.78979 -0.33387673 -148.76009 -17.133467 -75.3591
22870000000 -16.347805 -55.432507 -0.34088835 -148.96652 -0.33709073 -148.94141 -17.060431 -75.483986
22900000000 -16.389111 -55.924919 -0.33864194 -149.15239 -0.33437547 -149.11278 -17.155809 -75.660309
22930000000 -16.438736 -55.50584 -0.33773279 -149.3558 -0.33294734 -149.31856 -17.13549 -75.998924
22960000000 -16.359131 -55.466179 -0.34182978 -149.55049 -0.33449456 -149.52135 -17.064611 -75.689095
22990000000 -16.33247 -56.357098 -0.34042355 -149.7148 -0.33567765 -149.68907 -17.092524 -76.051567
23020000000 -16.404568 -56.681206 -0.33794686 -149.91522 -0.33352199 -149.87015 -17.127911 -76.495667
23050000000 -16.440847 -56.39143 -0.33630273 -150.12099 -0.33148056 -150.07956 -17.095236 -76.389435
23080000000 -16.353825 -56.333878 -0.33762816 -150.32077 -0.3334032 -150.28731 -17.111782 -76.6185
23110000000 -16.310947 -57.087917 -0.33737609 -150.48975 -0.33257815 -150.46896 -17.060511 -77.30352
23140000000 -16.391693 -57.582642 -0.33495086 -150.67632 -0.32945433 -150.6602 -17.074604 -77.025276
23170000000 -16.41783 -57.332767 -0.33496737 -150.89893 -0.32881263 -150.86192 -17.149269 -77.024513
23200000000 -16.321169 -57.195812 -0.33677936 -151.08304 -0.33148167 -151.05634 -17.101118 -77.708458
23230000000 -16.323879 -58.112759 -0.3364177 -151.26927 -0.33044636 -151.23175 -17.059183 -77.57933
23260000000 -16.368324 -58.439442 -0.33229142 -151.45456 -0.32566082 -151.42239 -17.134254 -78.060127
23290000000 -16.382452 -58.031185 -0.33200976 -151.67163 -0.32624289 -151.61646 -17.107786 -78.307594
23320000000 -16.3529 -58.081963 -0.331525 -151.86765 -0.32694033 -151.81799 -17.081104 -78.237991
23350000000 -16.309177 -58.736267 -0.33261111 -152.04066 -0.32416332 -152.00764 -17.131493 -78.532188
23380000000 -16.394342 -58.973499 -0.32798678 -152.24806 -0.3226496 -152.20825 -17.154169 -79.150848
23410000000 -16.43066 -59.00774 -0.32791474 -152.46271 -0.32144135 -152.43045 -17.141783 -79.027794
23440000000 -16.34967 -59.077 -0.32703465 -152.65042 -0.32370201 -152.61803 -17.16951 -79.116592
23470000000 -16.310732 -59.571095 -0.32695428 -152.82713 -0.3209717 -152.79385 -17.138384 -79.759094
23500000000 -16.413904 -59.895576 -0.32565415 -153.05261 -0.31994727 -153.01718 -17.167017 -79.782829
23530000000 -16.415054 -59.773075 -0.32552439 -153.24464 -0.32071111 -153.21861 -17.262371 -79.738258
23560000000 -16.400434 -59.580418 -0.32614887 -153.4463 -0.32195151 -153.41214 -17.191868 -80.242737
23590000000 -16.365614 -60.351601 -0.32425565 -153.6555 -0.31928858 -153.6073 -17.206171 -80.251961
23620000000 -16.422489 -60.46093 -0.32435718 -153.85144 -0.32027078 -153.81813 -17.324461 -80.627502
23650000000 -16.455147 -60.327579 -0.32679352 -154.04666 -0.32120749 -154.02217 -17.286194 -80.57515
23680000000 -16.438208 -60.353924 -0.32598674 -154.25929 -0.3225565 -154.22218 -17.251825 -80.397835
23710000000 -16.37192 -60.725948 -0.32842538 -154.4505 -0.3226842 -154.41655 -17.347612 -80.875961
23740000000 -16.453899 -60.823334 -0.32865405 -154.65027 -0.32323211 -154.61014 -17.376005 -81.175331
23770000000 -16.461847 -60.993282 -0.3284491 -154.85223 -0.32391927 -154.82161 -17.372032 -80.702675
23800000000 -16.420145 -60.801247 -0.32936218 -155.04007 -0.32478425 -155.00452 -17.397501 -80.99987
23830000000 -16.403585 -61.180313 -0.32904914 -155.22485 -0.32515556 -155.1888 -17.373247 -81.592728
23860000000 -16.432014 -61.471001 -0.3279022 -155.42139 -0.3222498 -155.38506 -17.40439 -81.444023
23890000000 -16.424936 -61.532711 -0.32911003 -155.6255 -0.32394996 -155.57126 -17.485546 -81.187065
23920000000 -16.426683 -61.35305 -0.3297931 -155.81982 -0.3245382 -155.76657 -17.42802 -81.84491
23950000000 -16.397137 -61.684212 -0.32836396 -156.01228 -0.32488969 -155.9633 -17.42412 -81.731125
23980000000 -16.400499 -62.041656 -0.32857978 -156.20528 -0.32377928 -156.15009 -17.527277 -81.889282
24010000000 -16.439741 -62.020046 -0.32927254 -156.39186 -0.32360998 -156.35687 -17.495077 -82.151253
24040000000 -16.432112 -62.267277 -0.32834971 -156.58063 -0.32396224 -156.54526 -17.445923 -81.884995
24070000000 -16.37093 -62.31226 -0.32613742 -156.7567 -0.32272378 -156.72113 -17.512264 -82.127533
24100000000 -16.392612 -62.704853 -0.3279449 -156.97009 -0.32100794 -156.91531 -17.553717 -82.671539
24130000000 -16.423759 -63.091099 -0.32673994 -157.14969 -0.31989488 -157.12578 -17.525763 -82.388611
24160000000 -16.419695 -62.742481 -0.32606068 -157.35733 -0.3216705 -157.32375 -17.56632 -82.28952
24190000000 -16.390305 -62.978722 -0.32246837 -157.55174 -0.32014009 -157.50392 -17.563599 -83.081383
24220000000 -16.390877 -63.501827 -0.32285929 -157.75034 -0.31831384 -157.71884 -17.551577 -82.770561
24250000000 -16.459217 -63.64925 -0.32471201 -157.95227 -0.31889325 -157.92052 -17.659729 -82.556732
24280000000 -16.466251 -63.338169 -0.32286876 -158.14204 -0.31959617 -158.10008 -17.600695 -83.148285
24310000000 -16.412298 -63.668526 -0.32101408 -158.35541 -0.31728864 -158.30281 -17.596663 -83.174385
24340000000 -16.387562 -64.086349 -0.32306841 -158.53014 -0.31727138 -158.50763 -17.713232 -83.125175
24370000000 -16.461174 -64.42923 -0.32288802 -158.73654 -0.31707922 -158.69946 -17.711567 -83.437729
24400000000 -16.467615 -64.321014 -0.32327953 -158.92041 -0.31964216 -158.89694 -17.688557 -83.107635
24430000000 -16.395836 -64.152687 -0.31930447 -159.12482 -0.31753036 -159.09058 -17.730299 -83.406853
24460000000 -16.424324 -64.551254 -0.32047254 -159.32811 -0.31759915 -159.29643 -17.748085 -83.877937
24490000000 -16.474678 -65.18264 -0.32091567 -159.52512 -0.31730369 -159.48935 -17.731838 -83.367798
24520000000 -16.487688 -64.804115 -0.32155117 -159.70547 -0.3166298 -159.67992 -17.817116 -83.227325
24550000000 -16.414999 -64.867355 -0.31906208 -159.91434 -0.31333408 -159.86781 -17.796347 -84.385445
24580000000 -16.41004 -65.734581 -0.31819212 -160.12256 -0.31413656 -160.09119 -17.783644 -83.736443
24610000000 -16.468075 -65.789322 -0.31977868 -160.31587 -0.31379595 -160.26447 -17.888655 -83.604683
24640000000 -16.519039 -65.522507 -0.31857848 -160.49097 -0.31383854 -160.46159 -17.855602 -84.098
24670000000 -16.450819 -65.817421 -0.31436196 -160.70439 -0.31166005 -160.66566 -17.829557 -83.985161
24700000000 -16.419186 -66.434052 -0.31645438 -160.90062 -0.31045094 -160.87434 -17.923765 -84.015266
24730000000 -16.527966 -66.605957 -0.31796622 -161.09804 -0.31009257 -161.05518 -17.920706 -84.523254
24760000000 -16.54147 -66.55529 -0.31518301 -161.2988 -0.3114228 -161.26469 -17.888971 -84.09433
24790000000 -16.480333 -66.357231 -0.31396541 -161.50282 -0.30811712 -161.47357 -17.95125 -84.08931
24820000000 -16.501715 -67.206482 -0.31461078 -161.71179 -0.30960661 -161.69081 -17.967505 -84.924271
24850000000 -16.571898 -67.515221 -0.31844783 -161.90764 -0.31260046 -161.87906 -17.96443 -84.307983
24880000000 -16.59502 -67.099876 -0.317038 -162.10974 -0.31315297 -162.06931 -18.014511 -83.974472
24910000000 -16.553743 -67.044815 -0.31681553 -162.31297 -0.31304306 -162.29407 -18.021753 -84.64003
24940000000 -16.521646 -67.728592 -0.31944767 -162.53172 -0.31407312 -162.49846 -18.013002 -84.430763
24970000000 -16.608253 -68.011292 -0.32201505 -162.71089 -0.3164942 -162.67104 -18.076557 -84.134178
25000000000 -16.641155 -67.601013 -0.32186675 -162.88715 -0.31689849 -162.86348 -18.022169 -84.353844
25030000000 -16.55682 -67.72892 -0.32115901 -163.09979 -0.31664121 -163.05466 -18.007463 -84.023994
25060000000 -16.530811 -68.398682 -0.32415634 -163.29677 -0.31946912 -163.25206 -18.091675 -83.978271
25090000000 -16.634264 -68.837921 -0.32574651 -163.46013 -0.32217509 -163.43855 -18.072693 -84.52227
25120000000 -16.638998 -68.337395 -0.32414827 -163.65855 -0.31863612 -163.61794 -18.002886 -84.093605
25150000000 -16.551344 -68.23484 -0.32308125 -163.85181 -0.3203491 -163.82848 -18.031067 -84.042114
25180000000 -16.540281 -69.125664 -0.3278285 -164.04488 -0.32100654 -164.01576 -18.036299 -84.785439
25210000000 -16.59823 -69.442482 -0.32562038 -164.21527 -0.32139954 -164.18182 -18.003328 -84.45356
25240000000 -16.645479 -69.075607 -0.32243603 -164.39784 -0.31858182 -164.36339 -18.062967 -84.205383
25270000000 -16.548822 -69.093254 -0.32272768 -164.59923 -0.31790271 -164.5775 -18.00008 -84.953468
25300000000 -16.523216 -69.913223 -0.32315376 -164.79134 -0.31864867 -164.76247 -17.993555 -85.050468
25330000000 -16.614565 -70.276382 -0.32103273 -164.96469 -0.31635806 -164.92326 -18.057657 -84.886703
25360000000 -16.665209 -70.163689 -0.31718057 -165.16638 -0.31330848 -165.12318 -18.005798 -85.240295
25390000000 -16.52335 -70.384949 -0.31798992 -165.36145 -0.31010592 -165.33784 -17.956041 -85.389755
25420000000 -16.53463 -71.077736 -0.3175582 -165.56984 -0.31170592 -165.5253 -18.032576 -85.353409
25450000000 -16.635582 -71.467583 -0.31518245 -165.74609 -0.31068841 -165.71489 -18.098719 -86.031372
25480000000 -16.655651 -70.982018 -0.31190756 -165.94789 -0.30745775 -165.93399 -17.990765 -85.721779
25510000000 -16.612934 -71.132896 -0.31110606 -166.17462 -0.30451575 -166.14372 -18.056206 -85.812775
25540000000 -16.592201 -72.022552 -0.31288728 -166.38002 -0.30853817 -166.3441 -18.067257 -86.556099
25570000000 -16.662283 -72.311508 -0.31336942 -166.56694 -0.30609956 -166.53389 -18.064827 -86.113091
25600000000 -16.772095 -72.047737 -0.31033418 -166.7677 -0.30463433 -166.73866 -18.120287 -86.146172
25630000000 -16.653444 -72.100815 -0.31252119 -166.99388 -0.30670485 -166.94928 -18.110575 -86.56118
25660000000 -16.639029 -72.843658 -0.31400493 -167.19289 -0.30848619 -167.14934 -18.099703 -86.683899
25690000000 -16.732485 -73.081482 -0.31298825 -167.36044 -0.3097851 -167.32954 -18.130602 -86.498123
25720000000 -16.776735 -72.702446 -0.3134551 -167.57892 -0.30684012 -167.55176 -18.174335 -86.943375
25750000000 -16.669632 -72.598358 -0.31351548 -167.80013 -0.30971503 -167.74567 -18.132248 -86.789154
25780000000 -16.66773 -73.298958 -0.31630209 -167.97737 -0.30896229 -167.93697 -18.161013 -86.943466
25810000000 -16.734137 -73.575157 -0.31728864 -168.15845 -0.31187418 -168.11368 -18.236258 -87.777939
25840000000 -16.782768 -73.390244 -0.3156679 -168.3709 -0.30885333 -168.31274 -18.163549 -86.9645
25870000000 -16.710606 -73.329445 -0.31489521 -168.56345 -0.31103015 -168.52461 -18.23262 -87.042824
25900000000 -16.668091 -74.286514 -0.31666878 -168.74672 -0.31370106 -168.71526 -18.20785 -87.772499
25930000000 -16.749746 -74.523705 -0.31509477 -168.94127 -0.31125957 -168.90175 -18.219139 -87.500191
25960000000 -16.78299 -74.318298 -0.31553039 -169.14537 -0.31028441 -169.10242 -18.30912 -87.414749
25990000000 -16.719509 -74.324516 -0.31881496 -169.3504 -0.311165 -169.30896 -18.267221 -87.652725
26020000000 -16.693605 -74.869072 -0.31675205 -169.52397 -0.31271228 -169.4995 -18.257971 -88.208298
26050000000 -16.768314 -75.157425 -0.31673646 -169.73424 -0.31331766 -169.68968 -18.353598 -87.838737
26080000000 -16.858662 -75.04821 -0.31813753 -169.95477 -0.30946568 -169.90446 -18.344593 -88.02774
26110000000 -16.770308 -74.859978 -0.31882361 -170.14912 -0.31491747 -170.10803 -18.278542 -87.576897
26140000000 -16.723421 -75.458015 -0.31918773 -170.33809 -0.31532162 -170.29489 -18.372532 -88.134697
26170000000 -16.82762 -75.87532 -0.31792641 -170.51631 -0.31237903 -170.48985 -18.360878 -88.606621
26200000000 -16.844448 -75.631607 -0.31899187 -170.73051 -0.31455761 -170.68985 -18.339222 -88.234688
26230000000 -16.7862 -75.257645 -0.32000551 -170.92029 -0.31742984 -170.88658 -18.357193 -87.84613
26260000000 -16.724678 -76.243439 -0.32245919 -171.10649 -0.32064757 -171.05031 -18.382719 -88.467949
26290000000 -16.826431 -76.57618 -0.32361752 -171.29123 -0.31612086 -171.24013 -18.335012 -88.505074
26320000000 -16.898268 -76.316879 -0.32177392 -171.48944 -0.31582242 -171.44009 -18.423979 -88.237808
26350000000 -16.772278 -75.976883 -0.32454714 -171.68877 -0.31994531 -171.63757 -18.403679 -88.473106
26380000000 -16.736589 -76.764053 -0.32244051 -171.85252 -0.32097363 -171.812 -18.324938 -88.880928
26410000000 -16.823837 -77.442345 -0.32200363 -172.04321 -0.31622776 -171.99338 -18.449049 -88.874802
26440000000 -16.882015 -76.857155 -0.32249069 -172.2531 -0.31719729 -172.20686 -18.487064 -88.939865
26470000000 -16.796062 -76.74926 -0.32425648 -172.45197 -0.31816539 -172.40752 -18.356409 -88.61544
26500000000 -16.708397 -77.396904 -0.32253027 -172.6078 -0.31939223 -172.56133 -18.426151 -89.205605
26530000000 -16.867853 -78.25293 -0.31894952 -172.79808 -0.31654015 -172.75249 -18.502836 -89.772331
26560000000 -16.960354 -77.882599 -0.31908324 -172.98488 -0.31639424 -172.96729 -18.376179 -89.155151
26590000000 -16.806995 -77.276131 -0.31849071 -173.18842 -0.31786263 -173.1442 -18.428646 -89.232109
26620000000 -16.731571 -78.469276 -0.32270539 -173.37941 -0.31448692 -173.33829 -18.5154 -89.847023
26650000000 -16.817511 -78.768425 -0.31704831 -173.53976 -0.31124178 -173.54491 -18.51169 -90.481842
26680000000 -16.903851 -78.551933 -0.31827846 -173.76706 -0.30798262 -173.7608 -18.545757 -89.774681
26710000000 -16.800579 -78.141678 -0.31591624 -173.96434 -0.30908263 -173.92313 -18.593161 -89.841087
26740000000 -16.717619 -79.258598 -0.31626925 -174.14369 -0.31224442 -174.10295 -18.54907 -90.301414
26770000000 -16.848328 -79.761917 -0.3114993 -174.3511 -0.30920994 -174.28409 -18.596968 -90.498154
26800000000 -16.947285 -79.050072 -0.32007042 -174.54161 -0.30504 -174.52724 -18.632221 -90.599548
26830000000 -16.81452 -79.087364 -0.31718197 -174.74403 -0.30804431 -174.7195 -18.54814 -90.138908
26860000000 -16.730211 -79.988754 -0.31396013 -174.93018 -0.30673847 -174.87463 -18.649738 -90.602409
26890000000 -16.879583 -80.44352 -0.31320694 -175.13887 -0.3069832 -175.07767 -18.71582 -91.18174
26920000000 -16.941723 -80.270531 -0.31080657 -175.34236 -0.30265445 -175.25392 -18.766766 -90.628456
26950000000 -16.85915 -79.757347 -0.31247082 -175.52263 -0.30013481 -175.46791 -18.731152 -90.737549
26980000000 -16.820505 -80.612083 -0.30870074 -175.74098 -0.30001053 -175.70067 -18.764082 -91.772194
27010000000 -16.953516 -81.381203 -0.30617815 -175.95851 -0.29914051 -175.92136 -18.80282 -91.749496
27040000000 -17.006226 -80.841461 -0.30486423 -176.16499 -0.29806879 -176.13142 -18.936947 -90.686737
27070000000 -17.019833 -80.179893 -0.30610454 -176.33618 -0.30554405 -176.29994 -18.75223 -90.956459
27100000000 -16.890579 -81.256142 -0.30376643 -176.50027 -0.29706582 -176.46846 -18.827917 -92.004906
27130000000 -16.99474 -81.690079 -0.30173504 -176.73698 -0.29592645 -176.71951 -18.982578 -91.706741
27160000000 -17.186733 -81.696045 -0.30952489 -176.97057 -0.29720443 -176.92737 -19.045801 -90.975174
27190000000 -17.009726 -80.961288 -0.31008366 -177.15965 -0.29951322 -177.12306 -18.961727 -91.419952
27220000000 -16.934944 -81.658379 -0.30413148 -177.36816 -0.29861113 -177.33334 -19.038662 -91.934341
27250000000 -17.068508 -82.249413 -0.30475122 -177.60516 -0.30309269 -177.54962 -19.088232 -91.824982
27280000000 -17.156221 -82.130775 -0.30906457 -177.72684 -0.29641199 -177.7301 -19.154251 -91.016846
27310000000 -17.053135 -81.126762 -0.31018543 -177.96483 -0.30229586 -177.88077 -19.030497 -90.881493
27340000000 -17.045673 -81.89843 -0.3076956 -178.17058 -0.30521831 -178.1214 -19.106802 -92.287804
27370000000 -17.180162 -83.184174 -0.31013066 -178.38989 -0.30153885 -178.33119 -19.174078 -91.225693
27400000000 -17.210123 -81.850357 -0.31516659 -178.58954 -0.30920243 -178.53036 -19.277094 -90.524384
27430000000 -17.112528 -81.515373 -0.31694335 -178.74197 -0.30763364 -178.68886 -19.160151 -91.290657
27460000000 -17.07057 -82.470261 -0.31285861 -178.93143 -0.3048484 -178.93054 -19.163527 -91.967438
27490000000 -17.158201 -82.577484 -0.31755209 -179.14676 -0.30547881 -179.12753 -19.310785 -91.554451
27520000000 -17.283648 -82.355927 -0.31379068 -179.35425 -0.31136495 -179.29181 -19.245546 -90.965569
27550000000 -17.140968 -82.339211 -0.31952819 -179.46886 -0.31171009 -179.46996 -19.162809 -90.745743
27580000000 -17.148129 -83.252518 -0.31161526 -179.70406 -0.30662179 -179.69936 -19.254148 -91.470413
27610000000 -17.253622 -83.841644 -0.31381071 -179.9115 -0.30149445 -179.89583 -19.357986 -91.604294
27640000000 -17.309277 -83.311554 -0.31089833 179.88976 -0.30475706 179.95955 -19.253252 -91.398682
27670000000 -17.216133 -82.545303 -0.30277324 179.68027 -0.29934904 179.78798 -19.280788 -91.336128
27700000000 -17.189426 -84.238708 -0.30947262 179.49194 -0.30109298 179.53412 -19.412409 -91.630142
27730000000 -17.299061 -84.93969 -0.31020656 179.27083 -0.3039763 179.36008 -19.451998 -91.466408
27760000000 -17.421389 -83.639626 -0.30696461 179.09982 -0.30354932 179.15669 -19.415537 -90.939835
27790000000 -17.322622 -83.766014 -0.31177574 178.87932 -0.30439165 178.94174 -19.354225 -91.211128
27820000000 -17.285799 -84.445313 -0.31299132 178.68105 -0.30286843 178.73724 -19.361734 -92.328697
27850000000 -17.345604 -84.938164 -0.30997413 178.4827 -0.30353794 178.56398 -19.651192 -90.825928
27880000000 -17.490471 -84.294044 -0.31107017 178.29555 -0.30869657 178.34351 -19.523829 -90.976913
27910000000 -17.38913 -84.536827 -0.30968222 178.12151 -0.30331922 178.1474 -19.38249 -91.013214
27940000000 -17.457041 -84.955017 -0.31103766 177.91278 -0.30473262 177.97211 -19.441341 -91.432831
27970000000 -17.550894 -85.046417 -0.31608799 177.71492 -0.31195986 177.79124 -19.588722 -91.363029
28000000000 -17.559172 -84.887962 -0.31067756 177.5576 -0.30634427 177.55612 -19.494659 -91.319122
28030000000 -17.53385 -84.180229 -0.31079462 177.33951 -0.30955657 177.36687 -19.44445 -91.384048
28060000000 -17.471718 -85.56871 -0.30627677 177.13947 -0.31137246 177.14679 -19.592466 -91.713623
28090000000 -17.499817 -86.66861 -0.31363097 176.96074 -0.30801237 177.01515 -19.669785 -91.290619
28120000000 -17.608843 -85.442696 -0.30775228 176.75891 -0.30570433 176.82585 -19.520136 -90.479202
28150000000 -17.635933 -85.639877 -0.31048152 176.51949 -0.30236968 176.60126 -19.546968 -91.264671
28180000000 -17.487375 -86.529861 -0.31185889 176.36403 -0.29784089 176.38229 -19.567032 -91.634315
28210000000 -17.592909 -86.369659 -0.30976284 176.16341 -0.30550852 176.22354 -19.616302 -91.908348
28240000000 -17.700573 -86.185631 -0.30467874 175.99385 -0.29952294 176.02647 -19.671129 -91.086319
28270000000 -17.664572 -86.493073 -0.3096889 175.81328 -0.30344272 175.83031 -19.58968 -91.940559
28300000000 -17.732641 -86.571465 -0.31039146 175.63875 -0.29677257 175.61801 -19.651752 -91.97496
28330000000 -17.770277 -87.953148 -0.30270329 175.40282 -0.30056143 175.45575 -19.747414 -91.050034
28360000000 -17.736523 -86.974518 -0.30784592 175.15587 -0.29687124 175.27621 -19.658993 -91.737183
28390000000 -17.78948 -87.487801 -0.30339304 175.05786 -0.29978558 175.04956 -19.769978 -90.777557
28420000000 -17.824192 -88.203239 -0.31256068 174.79167 -0.3046121 174.81001 -19.711359 -91.098717
28450000000 -17.721123 -88.865242 -0.31143197 174.62206 -0.29881716 174.63521 -19.85231 -91.599304
28480000000 -17.82609 -88.076614 -0.30433056 174.3918 -0.30037308 174.46913 -19.772779 -91.65921
28510000000 -17.892239 -88.737946 -0.30874604 174.24718 -0.29951322 174.29187 -19.805025 -91.232658
28540000000 -17.801771 -88.783058 -0.30806878 174.01607 -0.29832914 174.07635 -19.734127 -91.309601
28570000000 -17.855568 -88.934731 -0.30967918 173.84282 -0.29956898 173.85095 -19.89842 -91.476501
28600000000 -17.971886 -90.109131 -0.30957493 173.6326 -0.30031067 173.65085 -19.773127 -91.04705
28630000000 -17.896751 -89.192467 -0.30759972 173.40442 -0.29265305 173.46111 -19.804396 -91.710159
28660000000 -17.978422 -89.389282 -0.30770782 173.23705 -0.29826066 173.26515 -19.823437 -91.243828
28690000000 -17.992895 -90.260544 -0.30615622 173.0587 -0.29436162 173.08102 -19.849714 -91.40303
28720000000 -17.99733 -90.510941 -0.30374059 172.81104 -0.30181772 172.92349 -19.844084 -91.980011
28750000000 -18.087349 -90.158257 -0.30744857 172.67258 -0.29985797 172.72862 -19.823595 -91.094727
28780000000 -17.973166 -90.668694 -0.30930334 172.44812 -0.29494062 172.54361 -19.868027 -91.682846
28810000000 -18.006998 -90.096817 -0.29869404 172.278 -0.29994118 172.28044 -19.840229 -92.566833
28840000000 -18.055321 -91.417503 -0.29897967 172.09737 -0.29559809 172.10933 -19.880352 -92.566818
28870000000 -18.13612 -92.003571 -0.30381027 171.88857 -0.29948494 171.96169 -20.038456 -91.737305
28900000000 -18.042053 -91.032814 -0.29855263 171.66306 -0.29864219 171.76527 -19.854778 -92.372002
28930000000 -18.12096 -92.471306 -0.29635409 171.45709 -0.29475498 171.54568 -19.908468 -92.05323
28960000000 -18.077881 -93.189178 -0.29695052 171.26332 -0.29360738 171.31009 -20.038355 -92.076149
28990000000 -18.20458 -91.853889 -0.2909435 171.09523 -0.29580122 171.14391 -20.108799 -92.559738
29020000000 -18.245934 -92.058067 -0.30005714 170.84454 -0.29101077 170.95078 -19.933897 -91.95446
29050000000 -18.16186 -92.91716 -0.30425978 170.69847 -0.29533294 170.73903 -20.05962 -92.585403
29080000000 -18.20516 -93.774765 -0.2968258 170.53758 -0.29614651 170.52866 -20.138695 -92.743172
29110000000 -18.466127 -94.193398 -0.29168898 170.31973 -0.28142112 170.38794 -20.17683 -91.746353
29140000000 -18.292665 -93.839745 -0.29872176 170.11127 -0.28879666 170.13959 -20.106834 -91.953644
29170000000 -18.172771 -94.170631 -0.29317033 169.86014 -0.29559699 169.91695 -20.181452 -92.893349
29200000000 -18.355352 -94.683769 -0.29370347 169.67592 -0.28828597 169.72626 -20.160324 -93.636711
29230000000 -18.459837 -95.079933 -0.28985056 169.5027 -0.29288897 169.54378 -20.375242 -92.780174
29260000000 -18.293797 -93.518684 -0.29535705 169.20235 -0.29347414 169.31944 -20.352894 -92.97995
29290000000 -18.362259 -95.305573 -0.30160823 169.08844 -0.29625928 169.07533 -20.258207 -92.488251
29320000000 -18.421671 -95.969246 -0.29876477 168.86945 -0.29345062 168.91852 -20.543306 -92.359428
29350000000 -18.541807 -95.324631 -0.29516557 168.64566 -0.28856039 168.71156 -20.572893 -91.991463
29380000000 -18.56566 -94.034691 -0.30190125 168.43579 -0.2935636 168.45668 -20.319744 -92.270432
29410000000 -18.400831 -95.717659 -0.30676264 168.22659 -0.2954784 168.31923 -20.502575 -92.241516
29440000000 -18.484461 -95.38755 -0.308763 168.07547 -0.29674071 168.1129 -20.518787 -93.287071
29470000000 -18.689901 -95.735222 -0.30854678 167.88237 -0.295937 167.90175 -20.464098 -91.264648
29500000000 -18.510559 -94.662964 -0.31354442 167.7247 -0.30595735 167.73384 -20.506216 -91.41729
29530000000 -18.353439 -95.768921 -0.30875579 167.5258 -0.30742523 167.58633 -20.492493 -92.822189
29560000000 -18.650852 -96.924065 -0.30530745 167.33765 -0.30123198 167.38708 -20.482502 -92.923866
29590000000 -18.556068 -96.490303 -0.31033611 167.19835 -0.29979336 167.17592 -20.672142 -91.481857
29620000000 -18.462381 -94.917938 -0.31362316 166.96831 -0.30551907 167.00945 -20.558538 -92.285461
29650000000 -18.424643 -96.779839 -0.29883215 166.82742 -0.30554879 166.86436 -20.438963 -93.203377
29680000000 -18.489185 -97.700623 -0.29693279 166.62866 -0.29778269 166.65837 -20.716934 -93.322784
29710000000 -18.535612 -95.913231 -0.30594262 166.36765 -0.29555044 166.43788 -20.719837 -93.119019
29740000000 -18.552067 -97.087181 -0.30451131 166.17523 -0.30017725 166.22249 -20.564632 -92.338303
29770000000 -18.321424 -97.523132 -0.30356655 166.03218 -0.29267356 166.10512 -20.715622 -93.623871
29800000000 -18.55949 -97.772209 -0.29453197 165.80733 -0.29127789 165.90298 -20.921312 -94.898407
29830000000 -18.777128 -97.673531 -0.29197249 165.59955 -0.28948283 165.61021 -20.752581 -92.759193
29860000000 -18.538937 -97.069878 -0.30243963 165.42416 -0.28755659 165.43793 -20.757833 -92.535759
29890000000 -18.493464 -97.999168 -0.29216516 165.17508 -0.28860134 165.27608 -20.809006 -94.616814
29920000000 -18.683472 -99.523415 -0.29271203 165.01381 -0.28799886 165.06371 -21.02762 -93.235695
29950000000 -18.734165 -98.176224 -0.295001 164.80469 -0.29502261 164.85144 -21.132416 -91.500221
29980000000 -18.635649 -96.060188 -0.30648565 164.58682 -0.2914426 164.6794 -20.92816 -92.94622
30010000000 -18.62007 -99.332268 -0.29512015 164.40865 -0.28344882 164.45561 -20.904413 -94.00605
30040000000 -18.730982 -99.871544 -0.30014172 164.21124 -0.29282668 164.27647 -21.341906 -93.21463
30070000000 -18.770468 -98.050705 -0.29282224 164.00117 -0.28656265 164.06868 -21.22718 -92.362984
30100000000 -18.792997 -98.089745 -0.29612765 163.77319 -0.29391369 163.89003 -20.950573 -92.621796
30130000000 -18.517057 -99.62088 -0.28142884 163.63565 -0.28385836 163.69582 -21.242279 -94.080322
30160000000 -18.915403 -99.714241 -0.29514924 163.39838 -0.29293412 163.48216 -21.368254 -94.168053
30190000000 -18.940895 -99.08667 -0.29477882 163.21474 -0.29219839 163.26485 -21.397879 -92.000595
30220000000 -18.686409 -98.657997 -0.28882572 163.09117 -0.28736877 163.07793 -21.279242 -92.065521
30250000000 -18.626261 -99.57074 -0.28569725 162.86951 -0.28733754 162.88055 -21.452972 -93.804588
30280000000 -19.032763 -101.86367 -0.28804201 162.59441 -0.27935958 162.60957 -21.488417 -92.583809
30310000000 -18.965349 -99.109032 -0.28574646 162.44841 -0.27773723 162.45215 -21.515053 -91.763878
30340000000 -18.919153 -99.026787 -0.28320789 162.22559 -0.27468181 162.31349 -21.417501 -92.464447
30370000000 -18.923512 -100.77144 -0.28475878 162.05414 -0.27441269 162.07803 -21.460066 -93.035736
30400000000 -19.026121 -101.01264 -0.27716574 161.78606 -0.28135207 161.86183 -21.767828 -91.939041
30430000000 -19.275948 -99.974091 -0.28812608 161.63503 -0.27853259 161.67822 -21.715427 -90.809189
30460000000 -18.986593 -100.46395 -0.28036538 161.36443 -0.27009007 161.43251 -21.488256 -91.056068
30490000000 -18.967012 -100.87906 -0.28582692 161.16965 -0.26912299 161.24272 -21.670961 -92.477829
30520000000 -19.461504 -101.82022 -0.27651849 160.99237 -0.28527567 161.03603 -21.917009 -90.809799
30550000000 -19.523151 -100.77593 -0.28270587 160.80006 -0.27959231 160.83348 -21.719774 -89.727417
30580000000 -19.218863 -99.473289 -0.28570166 160.58122 -0.27548766 160.67171 -21.780931 -90.552536
30610000000 -19.33176 -100.95573 -0.2815733 160.3717 -0.28073788 160.43092 -21.80138 -91.740524
30640000000 -19.538946 -102.4976 -0.28956473 160.16277 -0.28068542 160.20807 -21.98102 -89.621071
30670000000 -19.451166 -100.14348 -0.28544953 159.94876 -0.28054678 160.00644 -22.049343 -88.79335
30700000000 -19.599804 -99.465729 -0.2826564 159.78413 -0.27530095 159.79218 -21.565863 -88.986031
30730000000 -19.395206 -102.33655 -0.29607278 159.53499 -0.27993244 159.51677 -21.706858 -90.229218
30760000000 -19.645857 -100.70454 -0.2955147 159.34308 -0.27914703 159.40121 -21.9431 -88.128731
30790000000 -19.858486 -100.05065 -0.29339188 159.15488 -0.28564167 159.31009 -21.822609 -88.25222
30820000000 -19.715265 -101.79875 -0.2856898 159.00494 -0.29036227 159.02301 -21.759497 -87.799324
30850000000 -19.348137 -101.32314 -0.29417297 158.73154 -0.28304791 158.78148 -22.027925 -88.064995
30880000000 -19.965576 -101.89065 -0.30269331 158.60812 -0.28933811 158.6274 -21.910425 -88.28801
30910000000 -19.87398 -102.21404 -0.29614955 158.39679 -0.2999104 158.3869 -21.756891 -86.7892
30940000000 -19.755888 -100.03095 -0.29004264 158.18069 -0.28410539 158.19209 -21.844044 -87.999825
30970000000 -19.855593 -101.28496 -0.29717004 157.97459 -0.29146585 158.05569 -21.904345 -87.851799
31000000000 -20.10161 -102.85321 -0.30621177 157.83545 -0.29005951 157.94559 -21.942045 -86.772362
31030000000 -20.120003 -100.72151 -0.29602984 157.70456 -0.28579649 157.67227 -21.807415 -84.914978
31060000000 -20.106789 -101.73915 -0.29322821 157.46306 -0.29445967 157.48427 -21.86721 -86.234612
31090000000 -19.967876 -102.42888 -0.30889335 157.23306 -0.29249161 157.25674 -21.753841 -86.587715
31120000000 -19.995153 -102.56243 -0.30429918 157.04459 -0.30059001 157.05534 -21.80784 -86.140198
31150000000 -20.484797 -102.62065 -0.29810235 156.93726 -0.2953274 156.95927 -21.724728 -85.053711
31180000000 -20.039703 -102.40642 -0.29493257 156.65228 -0.29280174 156.68188 -21.634209 -86.192802
31210000000 -20.127495 -103.65732 -0.29830557 156.49965 -0.29112509 156.50372 -21.863335 -86.219818
31240000000 -20.4911 -102.74129 -0.2932415 156.34955 -0.2878896 156.34444 -21.992514 -86.785606
31270000000 -20.34285 -104.33408 -0.29499131 156.13547 -0.28252712 156.15271 -21.73996 -85.212639
31300000000 -20.366125 -102.30807 -0.29446661 155.92223 -0.28736022 155.93259 -21.888712 -86.697739
31330000000 -20.597622 -104.49297 -0.29438683 155.74649 -0.28960595 155.78613 -21.809689 -86.620247
31360000000 -20.486019 -105.72294 -0.30752414 155.54321 -0.29563826 155.56595 -21.989069 -85.658157
31390000000 -20.698 -104.12038 -0.29440981 155.29369 -0.28611001 155.37213 -21.799398 -85.41626
31420000000 -20.691942 -105.31071 -0.29780349 155.10881 -0.28979909 155.21211 -21.923101 -85.957069
31450000000 -20.547251 -105.73921 -0.29253677 154.87575 -0.29036754 154.97226 -21.886265 -86.344261
31480000000 -20.534405 -105.58283 -0.29670244 154.76489 -0.28771451 154.77769 -21.924669 -85.097282
31510000000 -20.885223 -105.51539 -0.29137561 154.54968 -0.28326508 154.60603 -22.081024 -86.034035
31540000000 -20.611292 -106.81882 -0.29458737 154.34602 -0.28448707 154.36569 -21.827265 -85.233131
31570000000 -20.855284 -106.11442 -0.28172687 154.21239 -0.29279843 154.18906 -21.970869 -85.170776
31600000000 -20.823206 -107.8035 -0.29358494 153.97168 -0.29440925 154.0217 -22.192928 -86.031036
31630000000 -20.947132 -107.37646 -0.28723603 153.74994 -0.28600249 153.78828 -22.004013 -85.719337
31660000000 -20.956245 -105.92792 -0.277022 153.54277 -0.28381801 153.54066 -22.020931 -86.091393
31690000000 -20.960085 -108.46868 -0.29282004 153.35266 -0.27300936 153.48547 -22.269035 -84.59877
31720000000 -20.820845 -109.23649 -0.28826579 153.1467 -0.27541706 153.25037 -22.075066 -85.112785
31750000000 -21.157862 -109.26514 -0.27876222 152.95917 -0.28010005 153.06888 -22.261431 -83.755882
31780000000 -21.141735 -109.00424 -0.28413746 152.75919 -0.27692708 152.82747 -22.275166 -83.9002
31810000000 -20.924568 -110.63082 -0.28334355 152.5215 -0.28756073 152.63138 -22.162441 -84.510078
31840000000 -21.185785 -110.55202 -0.28701672 152.36084 -0.28093395 152.35751 -22.104082 -84.535095
31870000000 -21.442749 -110.72581 -0.27281091 152.19962 -0.27625367 152.23657 -22.436825 -85.286469
31900000000 -21.360285 -109.88618 -0.28251028 151.95198 -0.27931568 152.04164 -22.301641 -84.67366
31930000000 -21.418983 -110.85994 -0.27813378 151.73416 -0.27827895 151.77937 -22.354853 -84.089951
31960000000 -21.314413 -112.12452 -0.28491354 151.62247 -0.27834851 151.597 -22.384972 -84.429657
31990000000 -21.585524 -112.65759 -0.29030249 151.30843 -0.27864575 151.40575 -22.440329 -84.783928
32020000000 -21.695396 -111.07457 -0.28756902 151.13637 -0.28064978 151.18381 -22.49711 -82.94928
32050000000 -21.529821 -113.68372 -0.28431544 150.97264 -0.28080472 151.01711 -22.603012 -84.569534
32080000000 -21.441578 -113.39426 -0.28342894 150.75845 -0.28257713 150.79692 -22.485952 -83.86451
32110000000 -21.764532 -113.43874 -0.28884038 150.55562 -0.27714589 150.59157 -22.659054 -83.434502
32140000000 -21.823318 -112.59577 -0.28323385 150.33215 -0.27332309 150.43907 -22.908236 -83.975479
32170000000 -21.567335 -112.89876 -0.29188249 150.12808 -0.28144956 150.17848 -22.584518 -84.11351
32200000000 -21.680035 -113.46239 -0.28619215 149.92366 -0.28086573 149.99985 -23.027369 -83.052635
32230000000 -21.8804 -115.42873 -0.28028366 149.75298 -0.27572265 149.79195 -22.825788 -83.824364
32260000000 -22.093826 -113.69039 -0.2888647 149.52234 -0.28656793 149.61531 -22.765347 -82.174484
32290000000 -21.731564 -111.35129 -0.28822789 149.30756 -0.27911499 149.43016 -23.065182 -81.964096
32320000000 -21.75565 -116.46824 -0.28297108 149.16388 -0.27452299 149.21605 -22.84572 -82.057144
32350000000 -21.94294 -114.94762 -0.28163657 148.98389 -0.27576596 148.98219 -23.110048 -81.867226
32380000000 -22.312473 -114.34774 -0.28348199 148.79172 -0.27889749 148.73589 -22.884922 -79.270859
32410000000 -22.009165 -113.77962 -0.28832582 148.54573 -0.28678057 148.59682 -23.097769 -79.889481
32440000000 -21.821714 -115.28046 -0.29098725 148.38625 -0.28521818 148.41463 -23.192024 -82.350548
32470000000 -22.295527 -115.79557 -0.28734279 148.14107 -0.27205241 148.17177 -23.339207 -80.205734
32500000000 -22.376942 -115.16978 -0.29036447 147.93449 -0.27400184 147.94391 -23.426476 -80.431839
32530000000 -22.052729 -113.10241 -0.28796509 147.72179 -0.2823796 147.7793 -23.028749 -82.315536
32560000000 -22.123899 -116.22166 -0.27951363 147.5889 -0.2836732 147.60629 -23.340376 -79.726784
32590000000 -22.411028 -116.48385 -0.28504238 147.29602 -0.27810287 147.36378 -23.513157 -78.848282
32620000000 -22.583073 -115.01733 -0.29498106 147.0694 -0.28748384 147.15056 -23.152279 -78.465622
32650000000 -22.299904 -113.06219 -0.29295626 146.97816 -0.29201594 147.01353 -23.289747 -79.343826
32680000000 -22.095234 -116.71204 -0.29369518 146.70833 -0.27625036 146.80557 -23.773649 -80.09124
32710000000 -22.574829 -115.25432 -0.29838404 146.5343 -0.28245199 146.49242 -23.453119 -80.192215
32740000000 -22.594635 -114.34621 -0.29508245 146.32419 -0.29219756 146.3528 -23.309057 -76.804642
32770000000 -22.383411 -113.4772 -0.2909435 146.10556 -0.29824707 146.17018 -23.340773 -77.998314
32800000000 -22.460281 -116.20843 -0.28728056 145.93307 -0.29086018 145.96323 -23.322681 -79.805786
32830000000 -22.910734 -115.57178 -0.30570459 145.72372 -0.296343 145.77669 -23.490358 -76.293953
32860000000 -22.850945 -115.14894 -0.3000491 145.50674 -0.30156273 145.57755 -23.609325 -76.84153
32890000000 -22.789717 -112.11035 -0.3064076 145.35901 -0.28755575 145.47302 -23.364655 -77.745979
32920000000 -22.60194 -115.03395 -0.30385303 145.1329 -0.29883656 145.22083 -23.444775 -76.225456
32950000000 -23.187527 -115.61199 -0.29232827 144.93588 -0.2912336 144.98923 -23.726938 -75.641937
32980000000 -22.899776 -112.75899 -0.31050766 144.79044 -0.30716351 144.86438 -23.567076 -75.365364
33010000000 -22.875805 -111.11903 -0.30231389 144.61121 -0.30214435 144.69109 -23.567028 -75.62429
33040000000 -22.851543 -114.48127 -0.29039824 144.38905 -0.29934517 144.42381 -23.654305 -76.881302
33070000000 -23.02808 -113.44069 -0.29744613 144.19125 -0.29224354 144.19756 -23.558619 -74.955086
33100000000 -23.147545 -111.29646 -0.30629399 144.01028 -0.31463692 144.09306 -23.605549 -74.277618
33130000000 -23.097616 -112.46497 -0.31014401 143.83124 -0.3095994 143.88225 -23.612244 -76.432732
33160000000 -22.648571 -113.5092 -0.29699904 143.60107 -0.30108437 143.68263 -23.415819 -77.606171
33190000000 -23.469524 -112.19422 -0.31273565 143.43079 -0.30917436 143.50137 -23.531349 -72.927322
33220000000 -23.290571 -112.9276 -0.30934227 143.26086 -0.30520302 143.27577 -23.549322 -73.296661
33250000000 -22.915483 -110.95786 -0.29696909 143.09073 -0.29496139 143.12589 -23.210485 -75.939728
33280000000 -22.972733 -113.37848 -0.30467376 142.89238 -0.29218593 142.92574 -23.429733 -72.465187
33310000000 -23.385365 -113.58663 -0.30033925 142.65663 -0.29862526 142.68559 -23.768154 -74.293358
33340000000 -23.353109 -112.25191 -0.3038919 142.4566 -0.29942283 142.54062 -23.655468 -73.39624
33370000000 -23.296776 -110.54882 -0.29417601 142.37231 -0.28646892 142.37294 -23.274624 -70.766495
33400000000 -23.330214 -114.24589 -0.2900418 142.03586 -0.29323348 142.12941 -23.694117 -74.165054
33430000000 -23.625109 -113.92834 -0.30052009 141.85443 -0.28540865 141.9565 -23.51326 -71.984024
33460000000 -23.905863 -112.58011 -0.30465043 141.70828 -0.29488659 141.7365 -23.288605 -69.778114
33490000000 -23.618874 -110.46975 -0.29196721 141.51865 -0.29369405 141.58455 -23.661674 -70.663528
33520000000 -23.4527 -112.53195 -0.29032657 141.28458 -0.28552336 141.34215 -23.451448 -72.973442
33550000000 -24.076864 -112.35826 -0.29298174 141.14587 -0.28496635 141.22905 -23.429153 -68.680748
33580000000 -24.003778 -113.53794 -0.29118073 140.92479 -0.2897529 140.97902 -23.756025 -70.109879
33610000000 -23.972044 -112.44852 -0.27449706 140.74077 -0.28507608 140.78719 -23.296787 -70.476181
33640000000 -24.011158 -112.64043 -0.28127006 140.47615 -0.28561625 140.56152 -23.220245 -68.879242
33670000000 -24.388262 -115.92279 -0.30041248 140.27696 -0.29331353 140.33987 -23.522289 -69.141197
33700000000 -24.584206 -111.63039 -0.28865999 140.14867 -0.27852955 140.15672 -23.147266 -68.931808
33730000000 -24.78199 -112.23592 -0.29082227 139.96222 -0.27870288 139.92386 -23.158882 -66.854851
33760000000 -24.535564 -112.51542 -0.28766418 139.74554 -0.27890658 139.74976 -23.665409 -68.92997
33790000000 -24.842323 -115.59653 -0.29794875 139.47087 -0.27801374 139.53731 -23.221182 -69.257896
33820000000 -25.243147 -112.16678 -0.28960595 139.34145 -0.2916289 139.43109 -23.151203 -66.264038
33850000000 -24.84597 -113.16859 -0.28166914 139.11249 -0.27786583 139.16014 -23.260481 -67.639168
33880000000 -25.11499 -111.9659 -0.28263846 138.8923 -0.27553952 138.94351 -22.832155 -69.475845
33910000000 -25.278868 -114.56252 -0.2848956 138.68832 -0.28673965 138.81857 -23.000391 -65.184746
33940000000 -25.997658 -113.02061 -0.29207435 138.51886 -0.29609218 138.63239 -23.466537 -67.413177
33970000000 -25.529884 -113.56173 -0.28662294 138.33604 -0.26949811 138.36884 -22.941944 -67.080009
34000000000 -25.688993 -112.82502 -0.28638598 138.177 -0.27584073 138.18985 -22.982922 -65.908569
34030000000 -25.789314 -117.3035 -0.29784673 137.92546 -0.28994161 137.97766 -23.253248 -66.69445
34060000000 -26.37182 -114.21552 -0.2858164 137.70309 -0.27582857 137.78056 -22.810936 -66.016312
34090000000 -26.172417 -111.26678 -0.28310731 137.54735 -0.28081852 137.62154 -22.962511 -63.453976
34120000000 -26.213276 -112.21202 -0.28580645 137.29509 -0.27999264 137.39795 -22.791336 -65.502769
34150000000 -26.486876 -115.54063 -0.28640476 137.06573 -0.28295755 137.20268 -22.570793 -65.242577
34180000000 -26.934923 -113.62297 -0.27651766 137.00615 -0.27274337 136.99438 -22.712748 -62.054195
34210000000 -27.298346 -114.41245 -0.28057027 136.71819 -0.27744472 136.78233 -23.017265 -65.019981
34240000000 -26.253696 -116.26919 -0.27578804 136.49586 -0.28444698 136.52132 -22.320091 -65.742653
34270000000 -27.394611 -116.55305 -0.28946012 136.34023 -0.27968314 136.47177 -22.865141 -62.109734
34300000000 -27.333433 -117.73116 -0.28378373 136.11156 -0.28042832 136.19362 -22.830359 -63.734818
34330000000 -27.551754 -113.71185 -0.28060976 135.9837 -0.26728669 135.97737 -22.373005 -64.086082
34360000000 -27.502748 -115.13873 -0.2816523 135.74638 -0.27712077 135.7646 -22.542305 -63.483227
34390000000 -27.977106 -120.87081 -0.28802237 135.61652 -0.28235197 135.6662 -22.741428 -62.548763
34420000000 -28.29821 -116.75538 -0.28041783 135.40065 -0.27225992 135.39526 -22.184614 -63.866352
34450000000 -28.135073 -114.59055 -0.26803693 135.09921 -0.27117941 135.19333 -22.435875 -61.260044
34480000000 -27.697735 -118.63567 -0.28884369 134.91312 -0.28795126 134.98485 -22.803549 -63.56683
34510000000 -27.987415 -124.81559 -0.28842428 134.70032 -0.28202271 134.78706 -22.582376 -63.773708
34540000000 -29.071688 -121.66339 -0.2724421 134.58191 -0.26971847 134.67397 -22.502645 -59.966206
34570000000 -29.276653 -116.68589 -0.28552058 134.29756 -0.27953157 134.45825 -22.657152 -64.073517
34600000000 -28.840845 -118.96205 -0.2834571 134.07787 -0.28369835 134.22884 -22.405184 -62.060131
34630000000 -29.024303 -120.32693 -0.28004813 133.94556 -0.28255007 134.01239 -22.617739 -60.604305
34660000000 -30.019764 -123.11621 -0.28364307 133.76053 -0.28424054 133.86577 -22.829216 -61.107094
34690000000 -29.550659 -119.19666 -0.29484224 133.54091 -0.27921936 133.53511 -22.270079 -62.17321
34720000000 -29.380461 -118.32579 -0.28828764 133.34224 -0.27762407 133.3221 -22.514015 -61.323448
34750000000 -29.084452 -123.0915 -0.29339108 133.1761 -0.29290366 133.21346 -22.711983 -61.212135
34780000000 -29.97419 -127.02924 -0.28622726 132.9519 -0.27904433 132.97156 -22.280094 -60.025436
34810000000 -30.47431 -115.3763 -0.29527473 132.70953 -0.28015414 132.79637 -22.646589 -59.397976
34840000000 -29.550262 -123.50336 -0.29481152 132.54442 -0.28683504 132.62004 -22.804834 -60.846516
34870000000 -30.357885 -126.00548 -0.29943419 132.31252 -0.29307202 132.43697 -22.554216 -61.322247
34900000000 -31.046867 -123.05343 -0.28766224 132.07422 -0.28161392 132.26431 -22.712191 -59.972702
34930000000 -31.288647 -126.50156 -0.29497883 131.9534 -0.29556125 131.99884 -22.666603 -59.219578
34960000000 -30.196609 -120.37464 -0.2918908 131.66843 -0.29450622 131.8197 -22.345354 -59.201977
34990000000 -30.347595 -128.80438 -0.30076894 131.58279 -0.28880551 131.61108 -22.704979 -56.743744
35020000000 -32.061237 -131.66127 -0.29733554 131.39679 -0.29013422 131.50793 -23.019979 -60.116108
35050000000 -31.323456 -124.81738 -0.28606856 131.20601 -0.29732832 131.1091 -22.313549 -58.244064
35080000000 -31.062725 -123.5397 -0.29969406 130.91008 -0.29609495 130.97475 -22.527391 -56.758835
35110000000 -31.120975 -135.4875 -0.30632454 130.89655 -0.29443198 130.92119 -23.017717 -57.152473
35140000000 -32.656185 -126.6435 -0.30237773 130.54486 -0.2952002 130.63098 -22.464289 -57.474396
35170000000 -32.621807 -124.48489 -0.30150279 130.34772 -0.29730755 130.37766 -22.783478 -54.505947
35200000000 -31.703819 -124.97633 -0.29845336 130.24792 -0.2958824 130.30472 -22.579954 -56.733917
35230000000 -31.296703 -128.80495 -0.30432168 129.95998 -0.3033514 130.0955 -22.514772 -56.359959
35260000000 -33.729877 -129.17776 -0.29621467 129.7715 -0.29483089 129.81792 -22.638529 -53.436169
35290000000 -32.958923 -120.8548 -0.31093505 129.60481 -0.3006638 129.63914 -22.697554 -55.37236
35320000000 -31.812798 -119.44718 -0.30979204 129.36374 -0.31320581 129.47035 -22.289574 -54.625317
35350000000 -32.132484 -127.90069 -0.2980175 129.29846 -0.3067618 129.35699 -22.730408 -53.248726
35380000000 -33.843243 -133.69601 -0.30809656 129.00197 -0.30571708 129.05701 -22.82406 -54.3466
35410000000 -33.26606 -117.09623 -0.3068907 128.93332 -0.29634437 128.85277 -22.159489 -53.34446
35440000000 -32.781715 -119.75069 -0.30611843 128.60632 -0.29862112 128.74725 -22.362202 -52.68927
35470000000 -32.155609 -134.78546 -0.30279848 128.53851 -0.2960628 128.4854 -22.710274 -54.139061
35500000000 -34.356499 -126.72225 -0.29468462 128.27527 -0.29159236 128.33911 -22.645689 -51.834644
35530000000 -35.326427 -118.52117 -0.30340442 128.06232 -0.30300859 128.05208 -22.730171 -52.796978
35560000000 -32.734615 -118.76552 -0.3139568 127.8649 -0.30496198 127.91843 -22.502867 -54.118465
35590000000 -33.325634 -128.50708 -0.30664372 127.69805 -0.29734689 127.78625 -22.510023 -53.923672
35620000000 -35.699757 -123.12335 -0.30616677 127.42619 -0.29247779 127.52977 -22.763172 -50.95599
35650000000 -36.256367 -114.96258 -0.31165892 127.28215 -0.29502261 127.31366 -22.474968 -52.545345
35680000000 -33.300041 -114.31712 -0.30395049 127.13679 -0.30862626 127.18538 -22.481482 -52.593887
35710000000 -34.193211 -132.46146 -0.29806298 126.94654 -0.29752126 126.99184 -22.738485 -50.35535
35740000000 -35.998146 -127.03267 -0.31135246 126.74711 -0.28986412 126.75471 -22.698244 -51.143097
35770000000 -34.014908 -105.54872 -0.3167153 126.5036 -0.29469267 126.57401 -22.400507 -50.242958
35800000000 -34.300179 -104.31026 -0.3045055 126.32819 -0.29690424 126.42846 -22.576199 -51.377605
35830000000 -33.503246 -125.44501 -0.29274803 126.11719 -0.29549032 126.14103 -22.631821 -49.825363
35860000000 -36.848915 -117.51365 -0.30637676 125.90993 -0.29010433 125.95891 -22.396519 -49.157509
35890000000 -35.354774 -92.84993 -0.30811381 125.61739 -0.30022246 125.78256 -22.404972 -47.590206
35920000000 -33.22197 -103.8543 -0.29503536 125.58881 -0.27559468 125.75093 -22.839031 -49.125603
35950000000 -34.660275 -115.1068 -0.29393724 125.32987 -0.28833604 125.40646 -22.273695 -48.824955
35980000000 -36.762707 -112.65952 -0.2933149 125.09072 -0.29154751 125.08688 -22.449417 -49.029442
36010000000 -36.64769 -93.404587 -0.30926332 124.96127 -0.29382536 124.96943 -22.267096 -47.824829
36040000000 -33.21537 -104.62445 -0.30213046 124.79513 -0.28225252 124.82937 -21.985359 -46.710571
36070000000 -36.364815 -110.41491 -0.28697911 124.54767 -0.28180891 124.59232 -22.176062 -47.138531
36100000000 -39.911781 -96.719093 -0.28727973 124.41269 -0.28913862 124.43268 -22.416147 -45.483013
36130000000 -36.411602 -88.531654 -0.2993829 124.19754 -0.28861129 124.25852 -21.974945 -44.825199
36160000000 -34.362556 -92.609161 -0.27802092 123.974 -0.28854269 124.07466 -22.136393 -46.171654
36190000000 -35.465679 -108.97456 -0.26790696 123.66538 -0.27104163 123.7266 -21.944706 -45.414738
36220000000 -37.888519 -93.054657 -0.28604919 123.49459 -0.28980768 123.58098 -21.927782 -44.844246
36250000000 -36.342159 -62.616943 -0.30847952 123.44282 -0.2907038 123.39319 -21.791674 -44.486977
36280000000 -35.245331 -84.623528 -0.26973942 123.21638 -0.27110943 123.1877 -21.673025 -45.107334
36310000000 -37.184601 -91.675201 -0.27718064 122.95393 -0.27778357 122.91964 -21.642185 -45.365471
36340000000 -40.279652 -67.602448 -0.29703894 122.63912 -0.28443098 122.68098 -21.913469 -47.061546
36370000000 -35.941387 -64.490196 -0.28154403 122.54619 -0.2890119 122.68603 -21.648474 -45.661404
36400000000 -34.778812 -74.987602 -0.27365997 122.37521 -0.27319628 122.50216 -21.293198 -44.830441
36430000000 -41.350471 -89.925011 -0.29708689 122.05073 -0.29200432 122.05324 -21.597635 -45.954296
36460000000 -37.00713 -53.283356 -0.28339136 121.93562 -0.27448988 121.94611 -21.438873 -45.393826
36490000000 -35.146767 -46.781197 -0.28824365 121.73826 -0.26632383 121.8324 -21.177038 -44.208408
36520000000 -36.041576 -62.382221 -0.28327861 121.51553 -0.27510238 121.61861 -21.432417 -44.8508
36550000000 -37.501133 -71.177208 -0.27926353 121.27067 -0.27658692 121.38016 -21.124863 -45.100712
36580000000 -35.798618 -31.085787 -0.28931072 121.18176 -0.28324932 121.2306 -21.010801 -43.024094
36610000000 -33.523262 -33.725075 -0.2909078 121.00648 -0.27289194 121.0043 -21.21114 -45.357246
36640000000 -34.134663 -57.631886 -0.26164606 120.61501 -0.2556577 120.75283 -20.893133 -45.16943
36670000000 -37.849499 -39.921116 -0.26773545 120.54799 -0.27866563 120.45337 -21.078581 -44.993786
36700000000 -35.276615 -20.73217 -0.29342985 120.40979 -0.28409657 120.37486 -20.705696 -44.622364
36730000000 -34.533596 -31.470844 -0.27972564 120.16582 -0.28229257 120.16428 -20.983711 -45.219894
36760000000 -32.950157 -40.142166 -0.27354804 119.92796 -0.25979698 120.06772 -20.507851 -43.927227
36790000000 -36.364212 -20.580425 -0.28116649 119.66739 -0.28491604 119.74237 -20.804693 -45.395309
36820000000 -34.85944 -17.151739 -0.30152276 119.55907 -0.27536216 119.50618 -20.833622 -45.529865
36850000000 -31.354288 -22.554745 -0.26793423 119.42523 -0.25010344 119.41051 -20.413719 -43.174717
36880000000 -33.658417 -21.49317 -0.27867362 119.11753 -0.27483845 119.15978 -20.404638 -44.05621
36910000000 -35.145187 -29.657833 -0.27191517 118.87633 -0.26403645 118.8451 -20.510735 -47.799961
36940000000 -31.916428 -5.4695663 -0.27398446 118.74408 -0.27657449 118.91284 -20.591509 -43.824081
36970000000 -31.449644 -15.048597 -0.25869757 118.53709 -0.27129239 118.57742 -20.29344 -45.216049
37000000000 -32.838146 -22.864643 -0.27812964 118.17446 -0.25877091 118.32731 -20.214878 -47.657925
37030000000 -32.478752 -11.658543 -0.27129045 118.09583 -0.27685618 118.14838 -20.445244 -45.660744
37060000000 -31.640867 -1.4056443 -0.28925595 117.88943 -0.26622832 117.97767 -20.462318 -46.042171
37090000000 -31.182211 -13.666937 -0.26579598 117.62614 -0.27445292 117.70196 -20.294245 -46.43145
37120000000 -31.003611 -12.916188 -0.26427165 117.37671 -0.27127722 117.58792 -20.325798 -47.77359
37150000000 -32.168213 -3.7072287 -0.30440915 117.29839 -0.29372287 117.32806 -20.349743 -45.236286
37180000000 -30.858585 0.86522675 -0.27826872 117.09644 -0.25949576 117.16919 -20.247713 -46.642609
37210000000 -29.793957 -6.0985866 -0.26926044 116.98255 -0.26088345 116.87926 -20.060579 -46.584606
37240000000 -30.430296 0.24387708 -0.27738705 116.70087 -0.27148664 116.73594 -20.140614 -46.084972
37270000000 -31.058189 -4.851644 -0.28269869 116.38026 -0.26057476 116.47529 -20.202248 -48.383759
37300000000 -29.582842 3.069834 -0.28259924 116.38512 -0.26915908 116.4155 -20.099951 -45.894367
37330000000 -29.422892 -2.6047413 -0.26885888 116.05852 -0.25987005 116.13782 -19.93092 -46.855042
37360000000 -30.0261 1.8793004 -0.27645478 115.85287 -0.28399432 115.85059 -19.945244 -47.997784
37390000000 -29.648771 1.9681047 -0.27998516 115.65938 -0.2802113 115.78829 -20.067619 -47.065525
37420000000 -29.882801 9.8052654 -0.29638234 115.58942 -0.2754609 115.52077 -20.300304 -45.260792
37450000000 -28.932833 -0.04951695 -0.27874154 115.3154 -0.26534963 115.32941 -19.987492 -46.62624
37480000000 -28.552629 2.5982933 -0.28169566 115.12566 -0.26660678 115.11016 -19.813915 -47.57946
37510000000 -28.688326 3.1963656 -0.28266913 114.79394 -0.2807169 114.98039 -20.005831 -47.229267
37540000000 -29.169264 6.4024997 -0.2722387 114.65038 -0.26622283 114.70169 -20.180769 -48.325031
37570000000 -27.902143 6.8405309 -0.26576018 114.41033 -0.25928858 114.53339 -19.797129 -46.814762
37600000000 -28.287109 10.297954 -0.28786996 114.30837 -0.28437319 114.38296 -19.922306 -46.704823
37630000000 -27.741276 4.2988663 -0.28921774 114.11177 -0.27968535 114.13213 -20.040939 -46.221767
37660000000 -28.014069 8.9517908 -0.27543858 113.92986 -0.26876801 114.01358 -19.54084 -47.358337
37690000000 -28.093403 12.824209 -0.29220754 113.71696 -0.28334382 113.72888 -19.898083 -46.513222
37720000000 -27.669901 7.1376362 -0.29106197 113.48452 -0.26173183 113.51926 -19.836258 -47.960308
37750000000 -27.549356 7.6445508 -0.29776135 113.21671 -0.28484336 113.34638 -19.702839 -45.787746
37780000000 -28.474508 13.898685 -0.2876744 113.10152 -0.28447354 113.23174 -19.763632 -47.564743
37810000000 -26.949043 13.927387 -0.29081368 112.90348 -0.27729377 112.96472 -19.541985 -44.799187
37840000000 -26.768299 13.318395 -0.29037777 112.60283 -0.28739864 112.79321 -19.753267 -46.248028
37870000000 -27.422171 11.191294 -0.29284579 112.44921 -0.28431794 112.55904 -19.864016 -45.232121
37900000000 -27.790745 13.199492 -0.31594518 112.40456 -0.29776022 112.42398 -19.576036 -45.345943
37930000000 -25.880993 16.574097 -0.28428337 112.16477 -0.27028731 112.16428 -19.579922 -45.631985
37960000000 -26.782015 15.485703 -0.3013449 111.93177 -0.2889621 112.07025 -19.547428 -45.169262
37990000000 -27.164268 13.50861 -0.29261485 111.62457 -0.31352773 111.83772 -19.592644 -45.321667
38020000000 -27.669533 16.337339 -0.28447464 111.58081 -0.28996128 111.63454 -19.43203 -46.650024
38050000000 -26.734068 19.175365 -0.29886541 111.35947 -0.29111624 111.41857 -19.622847 -45.353386
38080000000 -26.453224 11.159571 -0.29378602 111.07393 -0.30129302 111.26355 -19.570284 -47.034729
38110000000 -26.30821 13.727103 -0.30140513 110.90311 -0.31282246 110.98174 -19.598989 -43.546986
38140000000 -27.216959 17.823278 -0.29978782 110.86067 -0.2887131 110.95934 -19.571289 -45.041756
38170000000 -26.150642 17.770376 -0.30310407 110.61964 -0.29486775 110.71552 -19.322958 -45.054207
38200000000 -25.552248 14.212791 -0.29122391 110.32721 -0.28014585 110.39456 -19.552656 -44.816502
38230000000 -26.250574 11.052818 -0.29840899 110.21703 -0.28095219 110.24463 -19.40304 -43.814587
38260000000 -27.359083 17.64167 -0.28260392 110.17751 -0.30491868 110.07029 -19.44985 -46.756123
38290000000 -25.926004 25.11894 -0.26790065 109.85456 -0.25619397 109.83506 -19.276369 -44.46603
38320000000 -25.887815 10.060598 -0.28263432 109.43132 -0.2751261 109.5751 -19.516115 -44.59692
38350000000 -26.93396 14.186521 -0.31805229 109.43915 -0.30890587 109.5331 -19.400236 -44.64045
38380000000 -26.955055 21.189541 -0.28820133 109.33661 -0.28625131 109.32214 -19.090647 -44.169415
38410000000 -25.488949 27.579519 -0.26890048 109.0394 -0.26459077 109.13058 -19.572662 -42.5914
38440000000 -25.10511 11.602369 -0.29496333 108.78731 -0.28398961 108.71873 -19.409065 -42.693775
38470000000 -25.879402 11.991902 -0.30951905 108.67668 -0.29928777 108.73917 -19.032495 -42.086254
38500000000 -26.764555 22.345821 -0.28279787 108.56042 -0.28182548 108.61604 -19.049263 -43.395264
38530000000 -25.247766 23.604303 -0.26177609 108.24118 -0.24070457 108.27171 -19.441277 -43.120716
38560000000 -25.065889 12.740282 -0.3039974 107.9543 -0.3030369 107.9159 -19.27965 -41.348083
38590000000 -26.807838 14.379355 -0.28888103 107.87939 -0.28962174 107.97169 -19.002493 -40.360611
38620000000 -26.774233 19.778055 -0.28657731 107.63264 -0.26281825 107.75408 -18.991932 -41.281338
38650000000 -24.334143 24.190166 -0.27400541 107.21125 -0.26317716 107.17184 -19.038277 -40.612278
38680000000 -24.806007 12.15523 -0.30657011 107.21226 -0.28494009 107.31178 -19.072418 -38.489334
38710000000 -26.426939 10.675486 -0.30248514 107.08268 -0.28462112 107.16737 -19.058212 -40.100304
38740000000 -26.507784 21.910652 -0.27414688 106.81866 -0.25327933 106.88314 -18.731911 -41.307919
38770000000 -25.011364 23.072107 -0.26871982 106.49833 -0.26929432 106.55307 -18.808863 -39.481228
38800000000 -24.482504 9.0990257 -0.31544966 106.54501 -0.29844448 106.38242 -18.898903 -37.984707
38830000000 -26.356804 8.3222094 -0.288416 106.33153 -0.27672735 106.29457 -18.457298 -38.549656
38860000000 -25.699366 22.730118 -0.27739173 105.94749 -0.25172648 106.12424 -18.248455 -38.420284
38890000000 -24.71377 15.918714 -0.28065532 105.57671 -0.28223318 105.75437 -18.590473 -39.925426
38920000000 -24.328558 4.4761477 -0.30868518 105.57809 -0.28515074 105.70417 -18.23299 -39.029873
38950000000 -25.994961 4.3506536 -0.27043882 105.56597 -0.28399292 105.57943 -18.095692 -38.803963
38980000000 -26.697374 16.245358 -0.25649133 105.25663 -0.26013884 105.25761 -18.483194 -39.727688
39010000000 -24.073988 19.954374 -0.30603984 104.74561 -0.28824502 104.76649 -18.138351 -40.129498
39040000000 -24.397322 4.9846425 -0.27494904 104.88033 -0.27262402 104.92294 -18.08614 -36.454849
39070000000 -25.833448 4.9601774 -0.28747997 104.67117 -0.27236164 104.72953 -18.203268 -37.421314
39100000000 -26.045103 15.427851 -0.26901478 104.24464 -0.25606874 104.33573 -17.868793 -40.361816
39130000000 -24.706165 13.110628 -0.28586948 103.87781 -0.28442544 104.06455 -17.991991 -40.92252
39160000000 -24.29789 -2.6486764 -0.29223716 103.92693 -0.30116677 103.99839 -18.027103 -40.451202
39190000000 -26.058653 0.76476961 -0.25929189 103.7755 -0.24893658 103.90703 -17.669104 -38.100151
39220000000 -26.342808 12.619491 -0.26577175 103.28822 -0.25021064 103.36131 -17.638409 -40.928375
39250000000 -23.561146 7.7785602 -0.29923591 103.2908 -0.2891176 103.40536 -17.997118 -40.857807
39280000000 -24.091496 -2.5478787 -0.29124993 103.1829 -0.26214564 103.10966 -17.634645 -39.690601
39310000000 -25.110416 -5.8467512 -0.23980118 102.96523 -0.25130489 103.07974 -17.271643 -38.780815
39340000000 -25.15439 7.7268233 -0.28685549 102.66914 -0.25562119 102.63651 -17.679596 -41.475418
39370000000 -23.400406 5.3054795 -0.29420149 102.48446 -0.29977229 102.50153 -17.772572 -40.897751
39400000000 -23.564907 -6.0448556 -0.2701 102.31413 -0.26355946 102.33199 -17.505663 -39.810272
39430000000 -24.808334 -7.4045382 -0.27109236 102.09458 -0.25628898 102.18594 -17.383341 -40.145485
39460000000 -25.034788 4.9316716 -0.28427535 101.60455 -0.2542879 101.72959 -17.312313 -42.764336
39490000000 -23.101965 1.3387059 -0.29308504 101.67124 -0.27715388 101.804 -17.760406 -40.519978
39520000000 -23.259472 -10.054262 -0.26339197 101.55582 -0.26174751 101.57951 -17.589613 -41.774849
39550000000 -25.144264 -9.7372704 -0.24812195 101.1513 -0.25837556 101.17207 -17.252266 -42.332642
39580000000 -24.660189 -0.39894944 -0.24955013 100.79348 -0.26742077 100.92319 -17.324841 -43.945564
39610000000 -22.588135 -1.5581154 -0.29887927 100.84361 -0.28100353 100.85355 -17.783461 -43.258007
39640000000 -22.611406 -8.819458 -0.25327495 100.67974 -0.27266592 100.7877 -17.37224 -41.178474
39670000000 -24.182867 -15.156989 -0.22345971 100.1789 -0.23039699 100.29027 -17.378786 -42.931057
39700000000 -23.478142 -0.49208087 -0.28661105 100.08002 -0.27231699 100.06468 -17.370234 -45.307224
39730000000 -21.966087 -6.018939 -0.28662571 100.01768 -0.26380593 99.944031 -17.417053 -44.520023
39760000000 -22.674683 -13.931303 -0.23414665 99.696335 -0.24085149 99.764885 -17.58333 -43.751019
39790000000 -22.756229 -11.687705 -0.25050709 99.410622 -0.25220215 99.430656 -17.363968 -44.38903
39820000000 -22.991812 -5.4341588 -0.27899408 99.144066 -0.26535952 99.075111 -17.364639 -46.542942
39850000000 -21.64238 -8.6943607 -0.2583566 99.12529 -0.25857449 99.098404 -17.631405 -45.185177
39880000000 -21.625275 -15.904407 -0.24891382 98.812378 -0.23851703 98.8591 -17.533924 -44.7127
39910000000 -22.27729 -15.521033 -0.24183692 98.396912 -0.23985043 98.500076 -17.353638 -46.655453
39940000000 -22.283371 -8.5943022 -0.26319668 98.246407 -0.27068073 98.339279 -17.694695 -47.126297
39970000000 -20.604046 -9.5654745 -0.28042999 98.226509 -0.24371533 98.320625 -17.574738 -46.215889
40000000000 -20.759346 -16.168844 -0.24031058 97.946541 -0.23606631 97.960175 -17.503479 -46.089535
40030000000 -21.984077 -19.61138 -0.25709277 97.452721 -0.24383225 97.496643 -17.523851 -47.099701
40060000000 -21.301649 -10.199665 -0.26584193 97.411636 -0.26583973 97.522469 -17.701508 -47.926922
40090000000 -20.31642 -12.085932 -0.25853491 97.402008 -0.24855474 97.285622 -17.880806 -45.718189
40120000000 -20.252117 -17.754061 -0.23092984 96.973396 -0.2513282 96.934555 -17.580421 -45.242157
40150000000 -20.675196 -18.006519 -0.24979414 96.536392 -0.26080126 96.806892 -17.754366 -46.446846
40180000000 -20.570316 -10.894888 -0.30931169 96.529533 -0.27805266 96.651978 -17.789946 -45.441708
40210000000 -19.688751 -14.555722 -0.25906712 96.287086 -0.25989205 96.24585 -18.081429 -44.906158
40240000000 -19.675623 -18.332506 -0.25872174 95.945488 -0.24479233 96.031082 -17.967278 -45.538639
40270000000 -20.080034 -14.999902 -0.27774549 95.694283 -0.28739229 95.840759 -17.835382 -44.947174
40300000000 -19.995131 -13.778959 -0.30443886 95.539742 -0.27926904 95.641212 -17.945566 -44.604866
40330000000 -19.051224 -10.746157 -0.27270231 95.436073 -0.27468237 95.545334 -18.127695 -44.065548
40360000000 -18.987747 -18.011833 -0.25032419 95.009254 -0.2595892 95.176208 -17.841169 -43.959278
40390000000 -19.541693 -19.341021 -0.30096453 94.852615 -0.3042767 94.994286 -17.749348 -44.449986
40420000000 -18.916382 -12.610514 -0.30033675 94.760574 -0.28088287 94.869225 -18.055969 -43.42696
40450000000 -19.027121 -13.83737 -0.29263479 94.559677 -0.28995904 94.703148 -17.78421 -43.520821
40480000000 -18.672617 -15.773887 -0.30216378 94.25325 -0.29343289 94.331924 -18.105331 -42.359295
40510000000 -18.872829 -18.180609 -0.31975305 94.037926 -0.31735909 94.183113 -17.562492 -42.845249
40540000000 -18.742533 -12.736063 -0.32426095 93.817863 -0.30881053 93.960876 -17.80641 -41.422077
40570000000 -18.629185 -14.644858 -0.32382613 93.551506 -0.29594502 93.512978 -18.084976 -42.302322
40600000000 -18.159399 -14.544179 -0.29823101 93.399498 -0.31517687 93.410065 -17.824133 -40.092304
40630000000 -18.551105 -14.445913 -0.35001856 93.20034 -0.32558635 93.207115 -17.536497 -40.418797
40660000000 -18.142464 -15.013562 -0.32771796 93.001602 -0.32912594 93.075333 -17.548532 -40.535446
40690000000 -18.178316 -15.38175 -0.33351555 92.871887 -0.31679744 92.968338 -17.431625 -42.442799
40720000000 -17.833433 -16.090725 -0.30632454 92.570992 -0.30082637 92.675072 -17.30509 -42.214962
40750000000 -17.830769 -16.088289 -0.33084109 92.427231 -0.33628288 92.431587 -17.278772 -39.638103
40780000000 -17.934738 -13.869241 -0.3492181 92.059654 -0.31407952 92.295746 -17.413958 -40.12479
40810000000 -18.10157 -12.112865 -0.35224697 92.035408 -0.34453458 92.129723 -17.322319 -40.625935
40840000000 -17.239746 -13.854386 -0.36014071 91.744148 -0.34860995 91.800491 -17.123556 -38.989761
40870000000 -17.515789 -13.642776 -0.35280848 91.683128 -0.35913146 91.609718 -16.992113 -39.670662
40900000000 -17.539505 -12.932226 -0.36579874 91.405785 -0.37526965 91.703552 -16.721863 -40.062099
40930000000 -17.580215 -11.175767 -0.3597782 91.386345 -0.3557786 91.404953 -16.621367 -42.327431
40960000000 -16.690962 -11.766525 -0.36299595 90.908722 -0.34311852 90.917992 -16.870535 -40.027641
40990000000 -17.280106 -14.859597 -0.39243302 90.835358 -0.36656195 90.888519 -16.334673 -40.259773
41020000000 -17.223867 -11.804187 -0.40887997 90.765411 -0.37948528 90.740768 -16.403419 -40.258312
41050000000 -17.263397 -8.7259712 -0.34616444 90.728218 -0.37839499 90.631805 -16.352045 -42.499985
41080000000 -16.452602 -12.572017 -0.38220206 90.119316 -0.3633759 90.176865 -16.415854 -41.671196
41110000000 -17.432323 -14.502229 -0.41335556 89.85569 -0.40583041 89.967735 -16.637804 -41.899658
41140000000 -17.184788 -9.4315176 -0.41247988 89.957054 -0.41469303 90.100838 -16.104746 -41.603809
41170000000 -17.135487 -7.9622726 -0.40563601 89.942665 -0.3905189 90.040771 -16.016109 -43.24651
41200000000 -16.602823 -9.3635778 -0.39141026 89.291084 -0.41470984 89.408028 -16.326572 -42.94239
41230000000 -16.756929 -11.227748 -0.44556502 89.36245 -0.42694771 89.389755 -15.928349 -42.394344
41260000000 -17.338409 -9.8316822 -0.42405725 89.409805 -0.43408987 89.457581 -15.889785 -44.132896
41290000000 -16.629028 -5.4345684 -0.43905118 88.98925 -0.40272903 88.93602 -15.897241 -44.387146
41320000000 -16.072613 -8.4494448 -0.45000681 88.596565 -0.43056265 88.680138 -16.058544 -43.021278
41350000000 -16.623085 -10.612927 -0.44405255 88.751495 -0.45073617 88.98127 -15.710959 -45.220078
41380000000 -16.918795 -7.4138417 -0.46374056 88.612656 -0.42113364 88.621078 -15.59577 -45.516502
41410000000 -16.389669 -5.6726246 -0.42337203 88.410622 -0.41260344 88.334831 -15.806335 -46.771496
41440000000 -16.158022 -8.0043268 -0.44834411 88.128136 -0.45862612 88.221031 -15.56987 -47.015476
41470000000 -16.368557 -9.5626812 -0.48839581 87.914078 -0.46459609 87.885368 -15.654565 -45.993427
41500000000 -16.90325 -7.9611945 -0.46440047 87.971115 -0.45271549 87.826653 -15.584202 -48.188156
41530000000 -16.853907 -1.5670428 -0.42293915 87.657356 -0.39006296 87.850212 -15.757936 -48.938076
41560000000 -15.595386 -5.9956908 -0.45804214 87.308716 -0.45184994 87.179733 -15.814692 -48.015022
41590000000 -16.849669 -9.3172674 -0.48944137 87.276817 -0.48638105 87.488594 -15.697638 -46.742588
41620000000 -16.759338 -5.2915721 -0.49050802 87.366089 -0.45116666 87.411125 -15.422588 -48.723015
41650000000 -16.452843 -0.99933416 -0.44179028 86.901611 -0.47016692 86.843941 -15.675331 -49.844112
41680000000 -15.794809 -5.7590561 -0.50109786 86.453865 -0.48453334 86.706062 -15.897249 -48.175156
41710000000 -16.254696 -6.3285437 -0.5034436 86.905815 -0.52443129 86.880211 -15.358966 -47.070721
41740000000 -16.675713 -1.4644641 -0.47533369 86.278069 -0.45010212 86.533554 -15.615495 -49.11935
41770000000 -16.384001 -0.96852499 -0.47317225 86.181831 -0.44429168 86.242126 -15.758791 -50.018803
41800000000 -15.963807 -4.9382815 -0.51033163 85.994438 -0.51599765 86.083992 -15.821708 -49.913677
41830000000 -16.783089 -6.9444652 -0.50960827 85.995544 -0.50627774 86.057732 -15.740564 -47.658386
41860000000 -16.855898 -1.7146039 -0.46552441 85.695335 -0.45724082 85.797905 -15.637737 -48.710972
41890000000 -16.451868 1.1096077 -0.49846658 85.541412 -0.48471016 85.365158 -16.048954 -50.889484
41920000000 -15.948994 -4.8510618 -0.53031874 85.43354 -0.5173173 85.433357 -15.951837 -49.787239
41950000000 -17.06979 -4.9604797 -0.49882343 85.326645 -0.4875153 85.181953 -15.9009 -49.680389
41980000000 -16.80357 0.2991761 -0.49743569 84.834396 -0.50699013 85.17144 -15.827643 -48.826027
42010000000 -16.258604 -0.46561474 -0.51186532 84.767868 -0.51496935 84.725342 -16.00386 -50.08427
42040000000 -15.894538 -4.248477 -0.56959718 84.682838 -0.55078137 84.668686 -16.108164 -49.03418
42070000000 -16.833843 -4.8550344 -0.51189858 84.572037 -0.49643958 84.656586 -15.733338 -48.14016
42100000000 -16.727573 1.3435543 -0.53336686 84.297028 -0.53449064 84.14122 -15.854328 -48.26152
42130000000 -16.488739 -0.57956427 -0.54152375 83.95266 -0.51264596 84.016098 -15.980951 -50.26543
42160000000 -16.099897 -3.1520813 -0.54696167 83.87233 -0.54470825 83.99646 -15.920888 -48.778042
42190000000 -16.800486 -4.3500533 -0.51580322 83.658653 -0.5368017 83.953545 -16.142315 -46.543541
42220000000 -16.816301 2.5904629 -0.53693849 83.491356 -0.52617127 83.51651 -15.599191 -47.038719
42250000000 -16.406197 2.5984302 -0.56608969 83.426483 -0.57554263 83.38768 -16.207779 -48.630299
42280000000 -16.343273 -3.2783618 -0.55382508 83.133316 -0.5308069 83.440964 -15.925031 -46.222221
42310000000 -16.942801 -4.1330438 -0.54808956 83.01062 -0.52612334 83.239212 -15.752391 -46.821964
42340000000 -16.934027 0.92601019 -0.56500196 82.936752 -0.546772 82.795906 -15.780273 -46.252735
42370000000 -16.663094 2.637043 -0.57913291 82.613594 -0.54846197 82.500549 -15.993377 -47.426926
42400000000 -16.540827 -2.0209005 -0.56894821 82.612274 -0.55914658 82.544525 -15.839409 -44.658356
42430000000 -16.939856 -4.0579062 -0.55219746 82.465172 -0.54948914 82.541817 -15.527789 -43.913429
42460000000 -17.162663 0.94691759 -0.57273358 82.107155 -0.55949783 82.171509 -15.492297 -46.287052
42490000000 -16.639618 -0.80775243 -0.58275867 81.996574 -0.59478867 82.194336 -15.64927 -45.306118
42520000000 -16.381659 -1.778354 -0.57681072 81.936699 -0.58459687 81.940529 -15.540586 -44.557274
42550000000 -17.175102 -5.078793 -0.5500071 81.730415 -0.55145496 81.803429 -15.226074 -43.617577
42580000000 -17.449579 0.70872408 -0.57335204 81.40683 -0.57896638 81.583839 -15.357389 -45.41737
42610000000 -16.562262 -0.045540769 -0.58609742 81.408981 -0.6168862 81.547035 -15.352151 -44.831635
42640000000 -16.694216 -1.3508855 -0.62313497 81.202377 -0.56357378 81.461555 -15.204998 -41.100529
42670000000 -17.329973 -3.9457548 -0.584508 80.877686 -0.57770151 81.079956 -15.392067 -42.75668
42700000000 -17.5679 0.06073916 -0.61977983 80.894966 -0.59291917 80.754433 -15.264566 -43.828278
42730000000 -16.737789 -0.4220764 -0.61939442 80.608025 -0.61249733 80.85054 -15.059827 -42.819824
42760000000 -16.969538 -2.8016856 -0.60738373 80.467911 -0.59962469 80.67527 -15.112743 -43.825317
42790000000 -17.555975 -2.787313 -0.59044576 80.20536 -0.59191132 80.397926 -14.968428 -43.90704
42820000000 -17.570919 -1.3828552 -0.62005782 80.164459 -0.60885412 80.019974 -14.923802 -42.952778
42850000000 -16.977377 1.3854678 -0.64955902 79.948265 -0.58486545 80.179771 -14.929955 -43.194412
42880000000 -16.837313 -4.8885713 -0.58845723 79.956345 -0.58264232 80.056107 -14.723849 -43.41116
42910000000 -17.138231 -3.9219863 -0.60727984 79.734627 -0.59075034 79.732796 -14.603687 -40.721813
42940000000 -17.495249 -1.4153945 -0.62412137 79.69001 -0.62620407 79.423836 -14.351951 -42.605984
42970000000 -17.149603 -2.3724248 -0.56740105 79.498016 -0.64143002 79.45137 -14.44773 -45.956764
43000000000 -17.082384 -6.5863676 -0.58809853 79.068123 -0.58654362 79.354691 -14.692555 -43.109341
43030000000 -17.503315 -7.0292263 -0.6235016 78.952026 -0.59773237 78.996468 -14.277914 -43.982075
43060000000 -17.945692 -5.5405426 -0.58554375 78.802589 -0.58450502 78.812752 -14.594672 -45.439949
43090000000 -16.939285 -3.5686648 -0.59670287 78.792542 -0.62514901 78.895424 -14.38569 -45.467575
43120000000 -17.536892 -8.2126637 -0.55371159 78.353157 -0.56804472 78.631363 -14.581621 -46.49781
43150000000 -17.444658 -8.1126366 -0.60066766 78.267624 -0.57290989 78.463104 -14.336617 -46.692482
43180000000 -17.47221 -8.976347 -0.600061 78.096107 -0.58584207 78.08535 -14.066222 -47.049416
43210000000 -17.833765 -8.63764 -0.58477807 78.17054 -0.59364533 77.999657 -14.321878 -47.472
43240000000 -16.969391 -7.9493122 -0.63658255 77.754379 -0.5790903 77.91214 -14.22092 -46.011604
43270000000 -17.27928 -9.0221767 -0.59822404 77.607391 -0.60698062 77.844482 -14.120852 -45.833607
43300000000 -16.961411 -9.2940331 -0.58662987 77.553406 -0.58898842 77.59343 -13.953681 -46.682774
43330000000 -17.404346 -9.4768877 -0.5754655 77.486229 -0.57600194 77.377205 -14.046592 -49.336956
43360000000 -17.217722 -7.5602903 -0.57292378 77.149162 -0.58915472 77.364182 -14.490973 -48.263771
43390000000 -16.939581 -9.9190121 -0.61174834 76.95311 -0.60105562 76.965454 -13.933305 -48.292984
43420000000 -17.552454 -10.390221 -0.6461525 76.400017 -0.58792222 76.849182 -14.060539 -48.147049
43450000000 -17.712877 -10.081091 -0.5979504 76.348251 -0.56687629 76.88279 -14.176497 -50.885113
43480000000 -17.085588 -8.430686 -0.61070037 76.508316 -0.55849034 76.595963 -14.417194 -50.298222
43510000000 -16.949045 -14.999398 -0.58157027 76.335571 -0.56234288 76.500664 -13.823847 -49.749874
43540000000 -17.389927 -14.312778 -0.58509028 76.090698 -0.56174272 76.200989 -14.077993 -52.120258
43570000000 -17.352249 -11.476007 -0.56709307 75.900368 -0.53364259 75.969414 -14.087582 -52.461727
43600000000 -16.754665 -10.947901 -0.57612109 75.816902 -0.55827457 76.021851 -14.184372 -52.054165
43630000000 -16.961031 -17.746572 -0.54085112 75.708649 -0.53936136 75.608932 -14.030631 -52.684982
43660000000 -17.318388 -18.177956 -0.56493622 75.618423 -0.56283969 75.403992 -13.886591 -52.849571
43690000000 -17.113283 -12.610052 -0.56271029 75.215027 -0.56180578 75.374458 -14.098385 -53.331177
43720000000 -16.560837 -13.384844 -0.5686301 74.975235 -0.55609208 75.281708 -14.361897 -51.718456
43750000000 -16.25017 -19.907631 -0.53654367 74.690117 -0.54255956 74.781776 -14.345684 -51.568096
43780000000 -17.065145 -18.834265 -0.57347584 74.564278 -0.56529355 74.888344 -13.989464 -53.423706
43810000000 -16.800383 -16.753403 -0.53609669 74.448418 -0.50088757 74.629745 -14.159459 -55.27203
43840000000 -16.4088 -16.71801 -0.45884535 74.323616 -0.4995282 74.220772 -14.637431 -56.2234
43870000000 -16.51045 -22.058462 -0.53433895 73.700012 -0.50813502 73.918213 -14.660576 -55.279781
43900000000 -17.102331 -22.994886 -0.53219366 73.841782 -0.50193816 74.145172 -14.210218 -55.734253
43930000000 -16.167004 -13.994573 -0.50927174 73.882378 -0.46652725 73.985191 -14.353385 -56.39991
43960000000 -16.267118 -19.290031 -0.50551569 73.399963 -0.46750328 73.259819 -15.021319 -56.346317
43990000000 -15.920628 -20.790215 -0.52823621 73.350471 -0.51100016 73.32074 -14.803545 -53.65686
44020000000 -16.485569 -21.526066 -0.54314858 72.835045 -0.48983109 73.174225 -14.431476 -53.631783
44050000000 -16.576475 -17.12591 -0.46647972 73.038857 -0.46012697 72.922897 -14.754663 -55.712189
44080000000 -15.475782 -18.142443 -0.46205646 72.637154 -0.46987331 72.721764 -14.911434 -57.910873
44110000000 -15.764191 -26.009781 -0.47372159 72.344566 -0.48696625 72.33567 -14.880058 -54.089931
44140000000 -16.20075 -23.184534 -0.46311212 72.534782 -0.49262998 72.436859 -14.511395 -57.298164
44170000000 -16.109076 -21.05846 -0.46245238 72.254715 -0.46396062 72.140465 -14.607335 -57.529938
44200000000 -15.400404 -21.813698 -0.44978717 71.647438 -0.44308782 71.865837 -15.064847 -57.169601
44230000000 -15.284705 -26.844028 -0.48459381 71.441216 -0.4752323 71.77668 -14.849344 -54.325279
44260000000 -16.126524 -24.243586 -0.44182381 71.343842 -0.44070229 71.799904 -14.663415 -54.450745
44290000000 -15.65448 -20.452694 -0.43493071 71.15638 -0.42770776 71.19574 -14.909903 -56.460358
44320000000 -15.296149 -21.96143 -0.42175946 70.693199 -0.4066911 70.708778 -15.587015 -55.453793
44350000000 -14.811829 -29.161278 -0.47180596 71.024368 -0.47385615 71.016159 -14.542817 -54.065849
44380000000 -15.735879 -25.173359 -0.43409619 70.956932 -0.42327985 70.751671 -14.679985 -55.753136
44410000000 -15.285649 -21.711355 -0.44004938 70.417603 -0.44420224 70.657646 -15.144398 -55.635361
44440000000 -14.845795 -24.041945 -0.42115843 69.871956 -0.43127614 70.221085 -15.08782 -54.813572
44470000000 -14.952879 -28.144407 -0.44683355 69.632782 -0.43697613 69.887558 -15.096328 -53.665428
44500000000 -15.269141 -27.323061 -0.43609542 70.065826 -0.42375928 70.008728 -14.480106 -54.350319
44530000000 -14.910622 -21.756453 -0.44734257 69.505386 -0.41335016 69.713928 -14.860357 -54.842846
44560000000 -14.22587 -24.742813 -0.46359107 69.275864 -0.44918859 69.364624 -15.110358 -52.526466
44590000000 -14.514821 -29.030643 -0.42525157 69.094498 -0.45669585 69.313797 -14.745534 -53.707439
44620000000 -15.051707 -27.469946 -0.41733304 69.150101 -0.41822225 68.930855 -14.584374 -54.711494
44650000000 -14.777127 -21.572334 -0.39795202 68.633377 -0.40017879 68.608253 -14.852346 -53.76923
44680000000 -14.342926 -26.204319 -0.39784506 68.305016 -0.4016397 68.468079 -14.977216 -53.639511
44710000000 -14.147531 -30.891806 -0.46105722 68.313118 -0.45643359 68.444366 -14.587486 -51.524429
44740000000 -15.067182 -26.942379 -0.41765592 68.285866 -0.40527537 68.301956 -14.407997 -53.130371
44770000000 -14.424867 -25.876551 -0.39848539 67.811378 -0.42234769 67.933861 -14.676004 -52.967522
44800000000 -13.908857 -25.990379 -0.42845964 67.719002 -0.4130629 67.516426 -14.722622 -53.571815
44830000000 -14.146302 -32.189667 -0.42086098 67.737816 -0.45934397 67.573784 -14.291199 -51.223839
44860000000 -14.713227 -27.5303 -0.41292939 67.388802 -0.40242344 67.419044 -14.370547 -53.122074
44890000000 -14.19166 -26.705318 -0.39929157 66.880966 -0.4075892 66.975815 -14.497052 -55.791916
44920000000 -13.7532 -28.806324 -0.45033759 66.850494 -0.41272214 66.907402 -14.531531 -53.301743
44950000000 -13.998684 -31.098019 -0.43753266 66.547691 -0.38307899 66.762085 -14.247645 -52.822094
44980000000 -14.44758 -30.409191 -0.43379724 66.528847 -0.3916896 66.662209 -13.972147 -53.908283
