!Keysight Technologies,N5247B,MY61255062,A.19.80.06
!Date: Thursday, May 21, 2026 11:43:20
!Correction: S11(Cdelta 2-Port  ) 
!S21(Cdelta 2-Port  ) 
!S12(Cdelta 2-Port  ) 
!S22(Cdelta 2-Port  ) 
!S2P File: Measurements: S11, S21, S12, S22:
# Hz S  dB   R 50
1000000000 -25.341707 -21.539299 -0.49902233 -21.676056 -0.49758488 -21.681395 -25.586336 -21.765671
1027500000 -25.334402 -22.571308 -0.50324386 -22.263987 -0.50165719 -22.264463 -25.604639 -22.555796
1055000000 -25.322559 -23.198774 -0.50751728 -22.844866 -0.5063228 -22.851318 -25.622654 -23.824955
1082500000 -25.29665 -23.624014 -0.51172817 -23.409445 -0.51107526 -23.409109 -25.685802 -24.329016
1110000000 -25.309832 -24.438696 -0.51516402 -23.978765 -0.51612306 -23.992567 -25.725677 -25.037401
1137500000 -25.339287 -24.783386 -0.51899201 -24.533342 -0.51906931 -24.542168 -25.775562 -25.115744
1165000000 -25.26298 -25.205898 -0.52118629 -25.102671 -0.52117258 -25.113913 -25.73477 -25.836927
1192500000 -25.168106 -26.023146 -0.52099425 -25.669802 -0.52058101 -25.671337 -25.713181 -25.957216
1220000000 -25.081566 -26.978893 -0.52029383 -26.254419 -0.52053142 -26.25256 -25.686296 -26.896179
1247500000 -25.096478 -28.199966 -0.52339542 -26.849121 -0.52426249 -26.851372 -25.647314 -27.879906
1275000000 -25.114733 -28.919479 -0.5263586 -27.426077 -0.52621102 -27.434652 -25.641123 -28.616585
1302500000 -25.178324 -29.543236 -0.53595877 -28.004471 -0.53449088 -28.02252 -25.74638 -30.090641
1330000000 -25.110056 -29.746935 -0.53532362 -28.545458 -0.5342415 -28.554203 -25.700069 -30.007616
1357500000 -25.036203 -30.310413 -0.53405297 -29.114658 -0.5340234 -29.126167 -25.638121 -30.610712
1385000000 -24.98583 -31.311829 -0.53419083 -29.702259 -0.53448039 -29.710073 -25.612734 -31.19289
1412500000 -24.97949 -32.335453 -0.53748924 -30.27886 -0.53736562 -30.288597 -25.626078 -31.866873
1440000000 -24.971024 -32.922455 -0.53959233 -30.846466 -0.53897947 -30.858068 -25.565643 -32.484863
1467500000 -24.942528 -33.635689 -0.53982478 -31.419861 -0.5393734 -31.429884 -25.514927 -33.085541
1495000000 -24.931421 -34.39706 -0.54158974 -31.996841 -0.54172987 -32.005569 -25.493149 -33.870983
1522500000 -24.911829 -34.930412 -0.54246277 -32.563847 -0.54162318 -32.57571 -25.443516 -34.591434
1550000000 -24.84927 -35.485939 -0.54050428 -33.14159 -0.54071742 -33.151821 -25.390112 -35.309856
1577500000 -24.853096 -36.566109 -0.54473937 -33.745823 -0.54488873 -33.759285 -25.39971 -36.871101
1605000000 -24.820206 -36.977871 -0.54763055 -34.305893 -0.5477069 -34.318718 -25.415976 -37.272263
1632500000 -24.869583 -37.664211 -0.55102885 -34.882339 -0.55194521 -34.894897 -25.43626 -38.091984
1660000000 -24.790222 -38.105522 -0.55052865 -35.419735 -0.55132973 -35.44611 -25.399603 -38.212101
1687500000 -24.740618 -38.892956 -0.54947215 -36.005573 -0.55043495 -36.024799 -25.345293 -39.131348
1715000000 -24.714539 -39.742817 -0.55188411 -36.589275 -0.55200016 -36.598049 -25.312643 -40.060982
1742500000 -24.671156 -40.564194 -0.55192584 -37.164932 -0.55237293 -37.178604 -25.313568 -40.782452
1770000000 -24.639488 -41.332321 -0.55215806 -37.745846 -0.55344808 -37.755367 -25.288544 -41.670738
1797500000 -24.62376 -42.063492 -0.5554269 -38.329304 -0.55498385 -38.337391 -25.290209 -42.559658
1825000000 -24.601051 -42.776218 -0.55586696 -38.902775 -0.5559411 -38.918594 -25.273964 -43.15942
1852500000 -24.577698 -43.938004 -0.55623537 -39.485771 -0.55685329 -39.498329 -25.235336 -43.906681
1880000000 -24.557741 -44.722012 -0.55795103 -40.06419 -0.55898225 -40.075199 -25.260826 -44.872398
1907500000 -24.536259 -45.351616 -0.55956846 -40.65012 -0.56131792 -40.649075 -25.219612 -45.861149
1935000000 -24.49264 -46.094875 -0.56011653 -41.231693 -0.56405538 -41.242317 -25.21347 -46.433544
1962500000 -24.490168 -47.13987 -0.56187469 -41.815666 -0.56441265 -41.812023 -25.215481 -47.498402
1990000000 -24.529417 -47.919853 -0.56615549 -42.393673 -0.56785887 -42.402351 -25.25 -48.401546
2017500000 -24.476038 -48.546169 -0.56839705 -42.949673 -0.56917489 -42.965637 -25.268675 -49.188309
2045000000 -24.46467 -49.364613 -0.57021379 -43.525852 -0.57034248 -43.538204 -25.247509 -49.714119
2072500000 -24.474506 -50.087578 -0.57157212 -44.102573 -0.5711419 -44.121967 -25.226446 -50.50629
2100000000 -24.423426 -50.85096 -0.57114458 -44.679104 -0.57443893 -44.685299 -25.207758 -51.189693
2127500000 -24.427286 -51.587074 -0.57104743 -45.259296 -0.57452965 -45.267365 -25.19533 -52.054703
2155000000 -24.422161 -52.464455 -0.57472378 -45.83876 -0.57551485 -45.846493 -25.194962 -52.796814
2182500000 -24.397949 -53.18177 -0.57553673 -46.414253 -0.57805341 -46.42812 -25.178064 -53.538906
2210000000 -24.368738 -54.03056 -0.57646012 -46.990337 -0.57826221 -47.004002 -25.15312 -54.255924
2237500000 -24.378094 -54.813595 -0.57822347 -47.575031 -0.57889068 -47.584984 -25.166067 -55.204342
2265000000 -24.354799 -55.555931 -0.57916868 -48.150616 -0.58288985 -48.15654 -25.169685 -55.960312
2292500000 -24.317148 -56.337589 -0.58133322 -48.733128 -0.58444637 -48.732498 -25.130335 -56.674564
2320000000 -24.358816 -57.378555 -0.5834778 -49.309082 -0.58536869 -49.327145 -25.128628 -57.636169
2347500000 -24.32464 -58.049061 -0.58561873 -49.884148 -0.58771622 -49.888134 -25.158501 -58.521137
2375000000 -24.284906 -58.737926 -0.58627611 -50.455196 -0.58999741 -50.465916 -25.154707 -59.075134
2402500000 -24.310459 -59.502609 -0.58817208 -51.032177 -0.59194779 -51.040173 -25.136723 -60.048313
2430000000 -24.321695 -60.397594 -0.58897007 -51.60503 -0.59395188 -51.621696 -25.124737 -60.700985
2457500000 -24.313341 -61.120453 -0.59202284 -52.183109 -0.59408784 -52.193176 -25.090471 -61.738632
2485000000 -24.288723 -61.910507 -0.59651756 -52.756588 -0.59565496 -52.773777 -25.087793 -62.439331
2512500000 -24.336233 -62.748875 -0.59773445 -53.332806 -0.59967315 -53.348473 -25.114056 -63.440319
2540000000 -24.314323 -63.47187 -0.59888685 -53.91045 -0.60184497 -53.925541 -25.119736 -64.50293
2567500000 -24.307169 -64.455704 -0.60069412 -54.480286 -0.60302734 -54.487141 -25.12851 -65.124451
2595000000 -24.311394 -65.200699 -0.60258329 -55.058064 -0.60467327 -55.059967 -25.127726 -65.775612
2622500000 -24.293451 -65.944336 -0.60425496 -55.617676 -0.60736078 -55.62635 -25.109854 -66.723808
2650000000 -24.27096 -66.771202 -0.60512823 -56.198353 -0.60870218 -56.214706 -25.120399 -67.659935
2677500000 -24.266323 -67.40593 -0.60812211 -56.768974 -0.61024719 -56.782143 -25.080471 -68.3797
2705000000 -24.285583 -67.892738 -0.60969371 -57.342896 -0.61113387 -57.351677 -25.093855 -69.205925
2732500000 -24.263262 -68.99221 -0.61116964 -57.91708 -0.61343336 -57.927757 -25.135225 -70.148956
2760000000 -24.252724 -69.794716 -0.61240494 -58.491745 -0.61484373 -58.505405 -25.145685 -70.748871
2787500000 -24.27212 -70.406227 -0.6137476 -59.070004 -0.61585367 -59.065025 -25.132792 -71.807388
2815000000 -24.294893 -71.21302 -0.61556435 -59.64135 -0.61782944 -59.655216 -25.159159 -72.522766
2842500000 -24.240906 -72.198051 -0.61936635 -60.21727 -0.62027341 -60.218925 -25.139744 -73.226036
2870000000 -24.270926 -72.652779 -0.62111437 -60.778404 -0.6232031 -60.792263 -25.149605 -74.110992
2897500000 -24.320461 -73.186691 -0.62195337 -61.346924 -0.62441909 -61.361217 -25.146477 -75.055153
2925000000 -24.256826 -74.283012 -0.62393492 -61.916622 -0.62522256 -61.932823 -25.18968 -75.910324
2952500000 -24.253927 -74.962563 -0.62551492 -62.496231 -0.62574273 -62.503437 -25.21994 -76.568657
2980000000 -24.280851 -75.579575 -0.62574661 -63.071362 -0.62784326 -63.083458 -25.167692 -77.628143
3007500000 -24.2803 -76.529594 -0.62808794 -63.639839 -0.62990922 -63.649456 -25.217419 -78.294846
3035000000 -24.262701 -77.209785 -0.6302405 -64.201462 -0.63097382 -64.211342 -25.234335 -79.043762
3062500000 -24.311262 -77.716293 -0.63083971 -64.78183 -0.63228393 -64.790268 -25.208393 -79.90435
3090000000 -24.308678 -78.710541 -0.63233155 -65.356636 -0.63430256 -65.366287 -25.234585 -80.599884
3117500000 -24.274511 -79.604958 -0.63422346 -65.921753 -0.63477081 -65.937775 -25.312363 -81.283073
3145000000 -24.253418 -80.142982 -0.63560557 -66.504784 -0.63683403 -66.504715 -25.259918 -82.452408
3172500000 -24.264891 -80.695557 -0.63708639 -67.065674 -0.6385321 -67.077957 -25.259672 -83.151993
3200000000 -24.235361 -81.878242 -0.6384685 -67.638809 -0.6409142 -67.644814 -25.346395 -83.891312
3227500000 -24.249098 -82.440208 -0.63958472 -68.211403 -0.64232218 -68.211472 -25.3498 -84.679924
3255000000 -24.251247 -83.055099 -0.64153832 -68.770958 -0.64325565 -68.78804 -25.29814 -85.543625
3282500000 -24.241457 -83.977188 -0.64140332 -69.344574 -0.64335263 -69.357956 -25.388044 -86.284302
3310000000 -24.225651 -84.551018 -0.64151043 -69.912415 -0.64590168 -69.919495 -25.408251 -87.109642
3337500000 -24.222038 -85.389854 -0.64474964 -70.485878 -0.6468789 -70.491165 -25.334045 -88.254646
3365000000 -24.258987 -86.450462 -0.64549321 -71.056686 -0.64719707 -71.064209 -25.406515 -88.664566
3392500000 -24.219471 -86.710899 -0.64648682 -71.624756 -0.64930677 -71.633484 -25.515228 -89.166847
3420000000 -24.238075 -87.649124 -0.64774215 -72.185013 -0.64673018 -72.203171 -25.444239 -90.752251
3447500000 -24.28824 -88.727547 -0.65003133 -72.763161 -0.64995104 -72.772408 -25.455545 -91.027275
3475000000 -24.224251 -89.385849 -0.64859802 -73.33345 -0.65105128 -73.33284 -25.534451 -91.524124
3502500000 -24.246386 -90.066849 -0.64948809 -73.89431 -0.65175682 -73.923866 -25.545082 -92.721519
3530000000 -24.302479 -90.747665 -0.64981031 -74.480179 -0.65352935 -74.495689 -25.468206 -93.728279
3557500000 -24.240894 -91.377617 -0.65077519 -75.05349 -0.65451038 -75.062485 -25.54763 -93.818748
3585000000 -24.26894 -92.289658 -0.65212017 -75.620316 -0.65372705 -75.641853 -25.609537 -94.640465
3612500000 -24.333534 -92.892921 -0.65273201 -76.200897 -0.65478426 -76.217072 -25.568819 -96.239227
3640000000 -24.302998 -93.568253 -0.65321189 -76.773911 -0.65598989 -76.789185 -25.56049 -96.234406
3667500000 -24.255182 -94.486824 -0.65495551 -77.347191 -0.65575957 -77.363129 -25.606705 -96.851379
3695000000 -24.337921 -94.996376 -0.65517312 -77.930939 -0.65804422 -77.934807 -25.593788 -98.475975
3722500000 -24.327311 -95.766792 -0.65898019 -78.499931 -0.65822375 -78.502861 -25.583059 -98.957611
3750000000 -24.29882 -96.653557 -0.65828186 -79.075249 -0.66033822 -79.074806 -25.673113 -99.364815
3777500000 -24.337391 -97.206833 -0.65989584 -79.648277 -0.66160446 -79.644196 -25.683668 -100.79822
3805000000 -24.360725 -97.823578 -0.65919894 -80.206093 -0.6634323 -80.225273 -25.658226 -101.58607
3832500000 -24.320866 -98.875778 -0.66222674 -80.792229 -0.66258103 -80.801811 -25.749954 -101.96387
3860000000 -24.342131 -99.47628 -0.66262776 -81.364128 -0.66616911 -81.372665 -25.761293 -103.09599
3887500000 -24.386965 -99.85675 -0.66496795 -81.938652 -0.66681075 -81.948837 -25.770891 -103.89125
3915000000 -24.36768 -100.89265 -0.66699064 -82.509987 -0.6668669 -82.507317 -25.778162 -104.3767
3942500000 -24.301607 -101.57567 -0.66672593 -83.081497 -0.6694594 -83.083443 -25.803499 -105.38895
3970000000 -24.362381 -101.91752 -0.66909069 -83.639267 -0.67060202 -83.655464 -25.868643 -106.56596
3997500000 -24.425507 -102.76276 -0.66906619 -84.215675 -0.6703347 -84.225418 -25.836363 -107.01696
4025000000 -24.3596 -103.85612 -0.67097992 -84.787743 -0.67209244 -84.806854 -25.83703 -107.85319
4052500000 -24.360737 -104.22317 -0.67129266 -85.360565 -0.67362481 -85.366737 -25.950565 -108.86805
4080000000 -24.433426 -104.76784 -0.67219824 -85.93087 -0.67298216 -85.940086 -25.916697 -109.71712
4107500000 -24.421789 -105.98255 -0.6732657 -86.513031 -0.67545617 -86.506676 -25.94313 -110.39663
4135000000 -24.37994 -106.53078 -0.67511052 -87.076759 -0.67646366 -87.089676 -25.988663 -111.01007
4162500000 -24.439926 -106.75759 -0.67611188 -87.657486 -0.67774153 -87.661438 -25.985777 -111.93896
4190000000 -24.503721 -107.90044 -0.67589378 -88.225662 -0.67756331 -88.240646 -25.991417 -112.84103
4217500000 -24.422371 -108.69633 -0.67674589 -88.7985 -0.6805613 -88.802147 -26.066433 -113.11342
4245000000 -24.461922 -109.02022 -0.67855859 -89.367538 -0.68095702 -89.383652 -26.072195 -114.0631
4272500000 -24.550608 -109.8324 -0.68020314 -89.936737 -0.68118775 -89.952202 -26.08893 -115.25555
4300000000 -24.512068 -110.82584 -0.68174714 -90.515167 -0.68356407 -90.525169 -26.155598 -115.30885
4327500000 -24.48398 -111.24639 -0.68209267 -91.091621 -0.68441463 -91.100182 -26.154682 -116.21997
4355000000 -24.550787 -111.8567 -0.68221807 -91.664925 -0.68521744 -91.680542 -26.18294 -117.65742
4382500000 -24.57745 -112.77629 -0.68467766 -92.2313 -0.68833506 -92.244225 -26.226534 -118.05671
4410000000 -24.56068 -113.61025 -0.68723959 -92.801491 -0.68886405 -92.808784 -26.231367 -118.64908
4437500000 -24.603434 -113.95683 -0.68854827 -93.377922 -0.6899839 -93.389145 -26.270966 -119.63869
4465000000 -24.645779 -114.87776 -0.68739426 -93.95903 -0.69210112 -93.965813 -26.304499 -120.29564
4492500000 -24.628603 -115.74395 -0.68882859 -94.513481 -0.69196606 -94.53421 -26.349068 -121.15083
4520000000 -24.682323 -116.38319 -0.6901353 -95.091423 -0.69421822 -95.097244 -26.37388 -122.24842
4547500000 -24.681547 -116.81465 -0.69168407 -95.667015 -0.6944536 -95.680077 -26.352276 -122.62534
4575000000 -24.692797 -117.86874 -0.69266462 -96.240967 -0.69619018 -96.251701 -26.43816 -123.38011
4602500000 -24.714449 -118.48273 -0.69412529 -96.811531 -0.69753593 -96.824059 -26.460648 -124.4234
4630000000 -24.764175 -118.93544 -0.69463646 -97.375481 -0.69816488 -97.381256 -26.463562 -125.07859
4657500000 -24.777617 -119.93063 -0.69726235 -97.948517 -0.69941998 -97.960861 -26.477478 -125.75433
4685000000 -24.8048 -120.70554 -0.6984008 -98.516121 -0.70031047 -98.519257 -26.529974 -126.48497
4712500000 -24.835785 -121.18246 -0.69860476 -99.09404 -0.70054919 -99.101791 -26.528927 -127.5072
4740000000 -24.861244 -121.88499 -0.69953978 -99.65535 -0.70449001 -99.669426 -26.574652 -127.93343
4767500000 -24.861767 -122.88038 -0.70252955 -100.22721 -0.70297962 -100.24346 -26.646238 -129.15903
4795000000 -24.93166 -123.44641 -0.70181447 -100.80158 -0.70473635 -100.81544 -26.630434 -129.84175
4822500000 -24.964485 -124.08924 -0.70507246 -101.37236 -0.70603418 -101.38029 -26.664656 -130.4158
4850000000 -24.9727 -125.00475 -0.7047683 -101.93274 -0.70745516 -101.9511 -26.709551 -131.34651
4877500000 -25.008354 -125.64262 -0.70587885 -102.51704 -0.70814282 -102.52163 -26.730978 -132.13426
4905000000 -25.051392 -126.29166 -0.70576918 -103.08521 -0.70862001 -103.09584 -26.732107 -132.67688
4932500000 -25.074598 -126.87766 -0.70928562 -103.65562 -0.7099818 -103.6608 -26.804325 -133.40051
4960000000 -25.086086 -127.92056 -0.70972759 -104.22039 -0.71225768 -104.23152 -26.852732 -134.55325
4987500000 -25.137169 -128.33339 -0.71009761 -104.80667 -0.71322519 -104.80974 -26.842352 -134.90227
5015000000 -25.153173 -129.20021 -0.71231836 -105.35262 -0.71488476 -105.37577 -26.911932 -135.75745
5042500000 -25.206051 -130.02794 -0.71170139 -105.9399 -0.71653515 -105.94833 -26.996695 -136.84937
5070000000 -25.254425 -130.61131 -0.71203381 -106.51033 -0.71568167 -106.52819 -26.947424 -137.46663
5097500000 -25.287933 -131.22366 -0.71602839 -107.08064 -0.71694642 -107.08328 -27.003483 -138.1165
5125000000 -25.301142 -132.09593 -0.71704078 -107.65195 -0.71981007 -107.6633 -27.076292 -139.2406
5152500000 -25.366299 -132.67822 -0.71878362 -108.22205 -0.71932918 -108.22982 -27.01951 -140.01323
5180000000 -25.405008 -133.44963 -0.71746886 -108.79199 -0.72074658 -108.79602 -27.075308 -140.33699
5207500000 -25.431284 -134.22601 -0.71948379 -109.35722 -0.72218007 -109.36846 -27.151213 -141.54614
5235000000 -25.447126 -134.97845 -0.72103631 -109.92262 -0.72296911 -109.94257 -27.156116 -142.1429
5262500000 -25.488461 -135.67155 -0.72182548 -110.50356 -0.72440422 -110.50124 -27.160551 -142.52248
5290000000 -25.528761 -136.5237 -0.72394395 -111.05977 -0.72447515 -111.06921 -27.261854 -143.77237
5317500000 -25.580393 -137.21605 -0.72456205 -111.63052 -0.72653252 -111.63433 -27.309578 -144.67601
5345000000 -25.622213 -137.96863 -0.72364575 -112.20158 -0.72741848 -112.21809 -27.263996 -145.14552
5372500000 -25.648415 -138.69731 -0.72593981 -112.76244 -0.72868758 -112.7756 -27.33474 -145.9561
5400000000 -25.690538 -139.5192 -0.72707844 -113.34457 -0.72989029 -113.34684 -27.402969 -147.31567
5427500000 -25.768188 -140.19888 -0.7284953 -113.91277 -0.73036712 -113.90979 -27.356398 -147.6382
5455000000 -25.826612 -141.00055 -0.7289809 -114.48235 -0.73185587 -114.47775 -27.400974 -148.39464
5482500000 -25.843073 -141.78371 -0.73050034 -115.04433 -0.73232555 -115.05956 -27.506594 -149.55545
5510000000 -25.883648 -142.53331 -0.72978896 -115.60963 -0.73295313 -115.62143 -27.507099 -150.25958
5537500000 -25.969418 -143.20827 -0.73067218 -116.17749 -0.73498106 -116.19211 -27.532883 -150.75107
5565000000 -25.996883 -144.03162 -0.73200381 -116.74554 -0.73521346 -116.75832 -27.636635 -152.13507
5592500000 -26.020462 -144.72737 -0.732916 -117.31445 -0.73425293 -117.329 -27.622814 -153.22458
5620000000 -26.108681 -145.7222 -0.73351151 -117.89842 -0.73520517 -117.88871 -27.603983 -153.62369
5647500000 -26.131514 -146.25072 -0.73462355 -118.4447 -0.73658574 -118.47211 -27.711691 -154.51224
5675000000 -26.182692 -146.91394 -0.73570406 -119.02917 -0.73797011 -119.03612 -27.785435 -155.89684
5702500000 -26.288172 -147.88145 -0.73491359 -119.60336 -0.73818243 -119.60291 -27.790636 -156.29984
5730000000 -26.288399 -148.49008 -0.73655415 -120.16965 -0.73916775 -120.18251 -27.871609 -156.83154
5757500000 -26.352064 -149.19461 -0.73676455 -120.73228 -0.73867214 -120.74268 -27.936987 -158.43413
5785000000 -26.467323 -150.24718 -0.7380085 -121.29974 -0.74049401 -121.32578 -27.965319 -159.05463
5812500000 -26.501747 -150.75446 -0.73844695 -121.86546 -0.74168098 -121.87963 -28.024601 -159.69856
5840000000 -26.522129 -151.46117 -0.73885292 -122.44537 -0.74130303 -122.45344 -28.057674 -160.71983
5867500000 -26.656845 -152.38782 -0.73930401 -123.00354 -0.74270177 -123.02374 -28.133566 -161.8304
5895000000 -26.70587 -153.16362 -0.74204487 -123.58974 -0.74185449 -123.59143 -28.201029 -162.44319
5922500000 -26.744076 -153.77481 -0.74115163 -124.15398 -0.74154466 -124.16086 -28.265194 -163.62981
5950000000 -26.864113 -154.76706 -0.74147493 -124.72471 -0.74330384 -124.73437 -28.333862 -164.63396
5977500000 -26.946163 -155.41391 -0.74288821 -125.30455 -0.74467623 -125.30695 -28.430513 -164.7542
6005000000 -26.964132 -156.13283 -0.74185109 -125.86739 -0.74488115 -125.87931 -28.458801 -166.11104
6032500000 -27.03573 -156.70908 -0.74386233 -126.44476 -0.74399471 -126.44801 -28.524544 -167.17747
6060000000 -27.152824 -157.61305 -0.74417323 -127.01696 -0.74545062 -127.0254 -28.661072 -167.69614
6087500000 -27.184956 -158.20779 -0.74397939 -127.57994 -0.74607766 -127.59535 -28.647423 -168.20204
6115000000 -27.243849 -158.58574 -0.74570298 -128.15326 -0.74698359 -128.16734 -28.70192 -169.58405
6142500000 -27.391636 -159.80673 -0.74718344 -128.73123 -0.74851739 -128.73392 -28.833599 -169.99196
6170000000 -27.432104 -160.72676 -0.7466116 -129.304 -0.75052339 -129.30939 -28.870886 -170.74669
6197500000 -27.431591 -160.78026 -0.74878681 -129.8719 -0.75065351 -129.88733 -28.88912 -172.26544
6225000000 -27.613239 -161.47014 -0.74832362 -130.42993 -0.74972987 -130.44928 -29.1488 -172.74826
6252500000 -27.764277 -162.94351 -0.75022674 -131.01164 -0.75212735 -131.01965 -29.135689 -173.24352
6280000000 -27.656488 -162.92854 -0.75046521 -131.58015 -0.75156718 -131.5921 -29.038195 -174.57518
6307500000 -27.792871 -163.52585 -0.75227416 -132.15189 -0.75228649 -132.16325 -29.223652 -175.26143
6335000000 -28.005713 -164.90283 -0.75125849 -132.7267 -0.75448239 -132.72662 -29.429155 -175.34749
6362500000 -27.956316 -165.31767 -0.75371194 -133.29439 -0.75567132 -133.30278 -29.25618 -176.98082
6390000000 -27.982525 -165.17143 -0.75362754 -133.86606 -0.75559556 -133.87473 -29.432407 -177.21941
6417500000 -28.307217 -166.69994 -0.7550599 -134.43279 -0.75688648 -134.44458 -29.658949 -177.48032
6445000000 -28.252644 -167.76295 -0.75624561 -135.01045 -0.75934619 -135.0079 -29.51144 -179.25587
6472500000 -28.156775 -167.3087 -0.75595689 -135.5777 -0.75860995 -135.59309 -29.518463 -179.4268
6500000000 -28.45722 -168.28285 -0.75834119 -136.14331 -0.76113296 -136.1597 -29.786407 -179.66422
6527500000 -28.585457 -169.75259 -0.7587018 -136.70343 -0.75951821 -136.72299 -29.762733 178.08772
6555000000 -28.374271 -170.51527 -0.75850976 -137.27435 -0.76015586 -137.29379 -29.629175 177.03999
6582500000 -28.581766 -170.66194 -0.76024562 -137.85159 -0.7601676 -137.85886 -29.869122 177.79549
6610000000 -28.811954 -171.798 -0.76105982 -138.41148 -0.76328766 -138.43259 -30.001638 175.81961
6637500000 -28.72835 -173.04807 -0.76256806 -138.97719 -0.7641024 -138.99246 -29.853222 174.29155
6665000000 -28.742487 -173.55385 -0.76173568 -139.54437 -0.76317716 -139.55626 -30.029694 175.48746
6692500000 -29.037279 -174.03619 -0.76154011 -140.11835 -0.76400149 -140.12578 -30.395012 173.61794
6720000000 -29.078093 -175.96565 -0.76097685 -140.69168 -0.76431847 -140.69484 -30.185362 170.80075
6747500000 -29.130615 -176.40343 -0.76048028 -141.25243 -0.76302409 -141.27246 -30.129374 171.43019
6775000000 -29.318439 -176.86411 -0.75793737 -141.83553 -0.76291549 -141.84412 -30.446899 171.69426
6802500000 -29.47876 -178.35129 -0.76076466 -142.41147 -0.76369935 -142.41383 -30.630102 168.2549
6830000000 -29.563774 -178.78391 -0.76124489 -142.98671 -0.76184922 -142.99692 -30.437 167.50928
6857500000 -29.690523 -179.26794 -0.75982159 -143.56964 -0.76249647 -143.58179 -30.575365 168.6427
6885000000 -29.941757 179.45285 -0.76186031 -144.14427 -0.76479512 -144.14256 -30.934122 166.93628
6912500000 -30.000002 178.97684 -0.7627362 -144.70789 -0.76614249 -144.71461 -30.838936 165.27501
6940000000 -30.031494 178.46106 -0.764525 -145.29527 -0.76797652 -145.30826 -30.921114 165.62773
6967500000 -30.316427 177.46692 -0.76476669 -145.87263 -0.76840508 -145.8894 -31.203474 165.15202
6995000000 -30.451508 176.9574 -0.76558977 -146.45146 -0.76878911 -146.45924 -31.285284 163.30098
7022500000 -30.409307 176.51167 -0.76718855 -147.01378 -0.77101809 -147.03954 -31.173052 163.12376
7050000000 -30.626896 175.1302 -0.7698797 -147.60341 -0.77270919 -147.60217 -31.364244 163.31805
7077500000 -30.81032 174.75882 -0.77110249 -148.16559 -0.7748028 -148.1772 -31.588764 161.50208
7105000000 -30.767616 174.32576 -0.77107811 -148.73926 -0.77459115 -148.76073 -31.571875 160.17336
7132500000 -30.943336 172.7756 -0.77361107 -149.30283 -0.77593511 -149.31741 -31.573488 160.48926
7160000000 -31.290831 172.47739 -0.77494979 -149.89404 -0.7789011 -149.89607 -31.835876 159.40263
7187500000 -31.285225 171.84627 -0.7751466 -150.44894 -0.78016335 -150.46123 -31.883587 157.16922
7215000000 -31.414864 170.56885 -0.78057605 -151.01505 -0.78145885 -151.03275 -31.906782 157.1357
7242500000 -31.634443 169.79521 -0.77779126 -151.5817 -0.78190261 -151.60161 -32.053741 157.41585
7270000000 -31.728851 169.573 -0.78120041 -152.15482 -0.78272396 -152.16318 -32.178673 155.11559
7297500000 -31.723478 168.13855 -0.78075761 -152.72977 -0.78256619 -152.74921 -32.151909 155.26888
7325000000 -32.117004 166.87106 -0.78178328 -153.30974 -0.78508544 -153.31435 -32.348698 155.09871
7352500000 -32.168644 167.05453 -0.78273112 -153.88136 -0.78671932 -153.88474 -32.560524 153.24507
7380000000 -32.182308 165.76611 -0.78454208 -154.4472 -0.78753042 -154.46347 -32.422916 151.91786
7407500000 -32.408222 164.3871 -0.78478616 -155.00946 -0.78728932 -155.02769 -32.504025 152.57414
7435000000 -32.607224 163.41783 -0.78636408 -155.58385 -0.78863287 -155.59541 -32.807571 151.3479
7462500000 -32.544689 163.31299 -0.78829545 -156.16768 -0.79061401 -156.16652 -32.748821 149.49591
7490000000 -32.843639 162.1752 -0.79008889 -156.71989 -0.79320532 -156.73839 -32.811314 149.95995
7517500000 -33.168972 161.32504 -0.78921086 -157.29317 -0.79487491 -157.30717 -33.035332 148.52289
7545000000 -33.102863 159.85225 -0.79160941 -157.85931 -0.79657251 -157.87956 -33.068352 146.34807
7572500000 -33.21793 158.99672 -0.79338682 -158.43195 -0.79583806 -158.43712 -33.002979 146.98331
7600000000 -33.583382 157.91364 -0.79523212 -159.00427 -0.79898071 -159.01564 -33.235435 146.10968
7627500000 -33.583115 156.7805 -0.79756337 -159.55626 -0.7982561 -159.56715 -33.369862 143.5359
7655000000 -33.689365 155.86635 -0.79833454 -160.12361 -0.79897231 -160.12871 -33.256401 143.28439
7682500000 -34.029907 152.92561 -0.798729 -160.68661 -0.79976207 -160.70203 -33.521812 142.95648
7710000000 -34.210155 152.14458 -0.79807198 -161.24464 -0.79988343 -161.27176 -33.642807 140.09853
7737500000 -34.373558 151.49837 -0.79851061 -161.82663 -0.80040222 -161.83023 -33.581177 139.77762
7765000000 -34.593845 149.81322 -0.79971385 -162.39331 -0.80046731 -162.418 -33.903122 140.31799
7792500000 -34.962318 148.75839 -0.79996061 -162.97156 -0.80121595 -162.99014 -34.167873 136.8685
7820000000 -34.998737 148.06421 -0.79900312 -163.55237 -0.80099553 -163.5569 -34.028759 136.19041
7847500000 -35.313377 146.4888 -0.80134761 -164.12042 -0.80304432 -164.11992 -34.26545 137.74026
7875000000 -35.5322 144.01721 -0.80228972 -164.6886 -0.80476189 -164.70988 -34.47488 134.65038
7902500000 -35.656387 143.84236 -0.80311066 -165.25845 -0.80503106 -165.27756 -34.40596 132.27676
7930000000 -36.042442 143.32423 -0.80417371 -165.83124 -0.80556327 -165.83998 -34.592899 134.42369
7957500000 -36.21402 139.94543 -0.80576897 -166.39828 -0.80816543 -166.4118 -34.777889 131.83109
7985000000 -36.317566 138.56882 -0.80753785 -166.97853 -0.80859548 -166.98598 -34.670753 129.19586
8012500000 -36.535004 138.82497 -0.80711544 -167.53232 -0.81016862 -167.54347 -34.938202 130.74725
8040000000 -36.778275 135.14249 -0.81143314 -168.10242 -0.81059068 -168.11008 -35.222454 129.15994
8067500000 -36.947918 133.31792 -0.81010783 -168.68541 -0.81246549 -168.67233 -35.143948 126.55341
8095000000 -37.240517 134.09111 -0.81210035 -169.24149 -0.81382996 -169.24837 -35.340733 127.33829
8122500000 -37.441692 130.90364 -0.81441069 -169.80739 -0.81536943 -169.81972 -35.770355 126.07606
8150000000 -37.732224 127.57465 -0.81198299 -170.36981 -0.81696534 -170.3804 -35.360764 122.61236
8177500000 -38.020561 126.99632 -0.81521171 -170.95052 -0.81695849 -170.94995 -35.600239 125.17308
8205000000 -38.198574 124.5148 -0.81643736 -171.50551 -0.81832528 -171.52928 -36.303284 123.68473
8232500000 -38.319706 120.35986 -0.81907701 -172.08702 -0.81852466 -172.09372 -35.803619 117.46872
8260000000 -38.939217 119.89075 -0.81792182 -172.66811 -0.8213923 -172.66647 -35.579689 122.10096
8287500000 -39.014614 118.453 -0.81903636 -173.23885 -0.82231379 -173.24422 -37.245251 121.62778
8315000000 -39.018696 112.29869 -0.8229714 -173.7952 -0.82376617 -173.81113 -36.383244 111.0405
8342500000 -39.624359 112.6126 -0.82448876 -174.36494 -0.82556522 -174.39014 -35.438881 117.99628
8370000000 -39.798981 111.98867 -0.82783455 -174.94867 -0.82925993 -174.95845 -38.047359 123.10874
8397500000 -39.557423 102.17296 -0.83086783 -175.50882 -0.83257771 -175.53383 -37.559437 101.69016
8425000000 -40.669132 102.40009 -0.83781981 -176.0703 -0.838579 -176.10422 -34.724861 109.71581
8452500000 -40.569942 104.12429 -0.83827567 -176.63582 -0.84096789 -176.64438 -37.432018 132.9437
8480000000 -40.034893 90.370621 -0.84811163 -177.17087 -0.84686911 -177.17982 -41.936802 87.548798
8507500000 -41.673561 91.544525 -0.85509479 -177.6732 -0.85581505 -177.69131 -33.714905 88.831322
8535000000 -40.544346 96.59584 -0.85337257 -178.1823 -0.85624224 -178.20709 -32.843815 128.32756
8562500000 -42.017994 78.20443 -0.84154063 -178.61209 -0.8431651 -178.63661 -41.233978 -178.40109
8590000000 -41.767429 92.009697 -0.82824922 -179.08031 -0.83004767 -179.10976 -37.861008 31.001303
8617500000 -39.360649 80.848984 -0.81203949 -179.72934 -0.81155014 -179.73164 -31.536371 82.72718
8645000000 -42.842884 75.602005 -0.79469341 179.59863 -0.79877383 179.59523 -32.9198 133.18115
8672500000 -40.983841 79.521179 -0.79198277 178.96735 -0.78989947 178.94698 -46.32663 166.43922
8700000000 -39.803452 61.754261 -0.79733413 178.34995 -0.79725575 178.31938 -37.486546 48.440125
8727500000 -41.306786 66.609093 -0.80589521 177.69473 -0.80958062 177.68214 -34.274246 95.391098
8755000000 -40.784428 65.32653 -0.80851936 177.09981 -0.8087467 177.06999 -38.278347 125.9887
8782500000 -40.551811 49.073116 -0.81204665 176.53325 -0.81409532 176.51498 -43.398506 63.399975
8810000000 -41.15316 51.411854 -0.8189882 175.95471 -0.82069117 175.94469 -36.845825 77.905128
8837500000 -40.490696 50.99884 -0.82156593 175.37372 -0.8244772 175.3528 -37.809254 105.54521
8865000000 -40.279957 40.35577 -0.82135326 174.82445 -0.82428002 174.80936 -43.206417 84.790894
8892500000 -40.337158 38.887054 -0.82754415 174.26108 -0.83028585 174.24831 -38.85783 69.80378
8920000000 -40.208248 38.511406 -0.82782954 173.69029 -0.82983989 173.66089 -38.171391 92.289635
8947500000 -39.907181 31.98348 -0.82715774 173.11536 -0.83065724 173.10693 -41.870193 89.603477
8975000000 -39.524513 27.016935 -0.83195752 172.57437 -0.83141357 172.54993 -40.483875 67.182854
9002500000 -39.31778 28.879168 -0.82997274 171.98404 -0.83282602 171.98428 -38.985226 80.814804
9030000000 -39.315464 24.124792 -0.83084714 171.4135 -0.8357687 171.41101 -41.589687 87.127548
9057500000 -38.617805 19.515362 -0.83169669 170.86322 -0.8331396 170.84543 -41.614056 59.619656
9085000000 -38.619579 21.165569 -0.83482522 170.29317 -0.83499902 170.28299 -39.705463 72.374817
9112500000 -38.593857 17.54447 -0.83496451 169.71336 -0.83858716 169.69484 -41.433807 79.255875
9140000000 -37.899254 13.335449 -0.83452159 169.16035 -0.83493096 169.14561 -42.171223 60.832535
9167500000 -37.692535 12.324924 -0.83642364 168.60971 -0.83785307 168.57275 -40.55513 61.185402
9195000000 -37.72794 10.448887 -0.8369723 168.02869 -0.83844966 168.00209 -41.295345 71.488335
9222500000 -37.243114 7.1478329 -0.83745033 167.44525 -0.83780038 167.433 -43.07412 56.56258
9250000000 -36.86755 5.7141504 -0.83703661 166.88725 -0.83933264 166.88264 -41.538776 49.291859
9277500000 -36.861065 4.8929248 -0.83877558 166.30836 -0.84166163 166.2977 -41.315544 60.65855
9305000000 -36.460098 1.4189128 -0.83837426 165.74773 -0.84222603 165.74243 -43.078899 55.839321
9332500000 -36.048016 0.092366807 -0.84112626 165.19458 -0.84301424 165.16225 -42.45771 44.006165
9360000000 -36.157299 -0.96968699 -0.84218073 164.60768 -0.84329838 164.58838 -41.949409 49.920883
9387500000 -35.835663 -3.5259624 -0.8412739 164.04414 -0.84277785 164.02434 -43.116547 48.581261
9415000000 -35.289814 -4.2419486 -0.84095597 163.47691 -0.84515494 163.45778 -42.812199 36.097473
9442500000 -35.279137 -5.9191861 -0.84156483 162.90511 -0.84503388 162.88847 -42.207848 38.991959
9470000000 -35.1465 -7.6376319 -0.84289604 162.33795 -0.84636831 162.31787 -42.868267 42.315155
9497500000 -34.60471 -8.8285723 -0.84300447 161.77377 -0.84464961 161.74947 -43.117371 30.27746
9525000000 -34.555042 -10.259696 -0.84468108 161.20865 -0.84718627 161.18684 -42.2822 27.989141
9552500000 -34.548603 -11.448563 -0.84573579 160.6351 -0.84718907 160.6235 -42.80254 33.828384
9580000000 -34.216377 -12.608229 -0.84584183 160.06592 -0.84835714 160.05145 -43.303356 26.523008
9607500000 -33.854233 -13.927729 -0.84551096 159.50175 -0.84808367 159.4753 -42.504799 17.855804
9635000000 -33.924393 -15.782858 -0.84730047 158.93083 -0.84878606 158.91483 -42.521908 20.153299
9662500000 -33.570751 -16.55934 -0.84716862 158.36548 -0.84832501 158.3455 -43.111553 20.257563
9690000000 -33.225121 -17.573904 -0.84723282 157.7972 -0.84927016 157.77873 -42.851311 9.3936815
9717500000 -33.197369 -20.051245 -0.84708053 157.22423 -0.85070544 157.19757 -42.181194 10.979239
9745000000 -33.168324 -20.041653 -0.84860104 156.65042 -0.85065943 156.63513 -42.811779 12.604483
9772500000 -32.729496 -20.50984 -0.84931141 156.07939 -0.85076809 156.06155 -42.884388 1.7084516
9800000000 -32.53286 -22.89551 -0.85124546 155.51059 -0.85235727 155.49748 -42.115902 0.69221121
9827500000 -32.625713 -24.18009 -0.8513239 154.94475 -0.85366213 154.93077 -42.424824 3.8802159
9855000000 -32.184643 -23.782648 -0.85294157 154.38799 -0.8545413 154.35748 -42.74955 -2.3399074
9882500000 -32.103088 -25.845551 -0.85037041 153.81427 -0.85435098 153.79102 -41.764305 -8.9119072
9910000000 -32.074112 -27.474787 -0.85291797 153.24734 -0.85416692 153.21722 -41.933258 -3.7750361
9937500000 -31.840578 -27.174484 -0.85391831 152.67517 -0.85564733 152.65289 -42.245796 -8.0965252
9965000000 -31.570236 -28.514706 -0.8513245 152.09084 -0.8549788 152.07689 -41.457451 -17.158501
9992500000 -31.576105 -29.702103 -0.85140043 151.52512 -0.85566467 151.5139 -41.161388 -12.229256
10020000000 -31.380909 -29.572535 -0.85333037 150.96053 -0.85493279 150.94705 -42.10947 -11.070824
10047500000 -31.115032 -30.981264 -0.85414743 150.39626 -0.85822856 150.37433 -41.639576 -24.967831
10075000000 -31.04686 -32.617012 -0.85569966 149.82472 -0.85953969 149.80186 -40.723522 -21.686037
10102500000 -30.946938 -32.868752 -0.85710996 149.26549 -0.86058921 149.24733 -41.385376 -17.427721
10130000000 -30.665146 -33.318729 -0.85657388 148.68573 -0.8609755 148.66327 -41.407379 -26.609034
10157500000 -30.563028 -35.461987 -0.85638851 148.13419 -0.85948664 148.09937 -40.167473 -28.435173
10185000000 -30.532419 -36.016792 -0.8581267 147.56595 -0.85738778 147.53087 -41.15773 -19.815058
10212500000 -30.243866 -35.901737 -0.85813522 146.97885 -0.86079055 146.95963 -41.179989 -30.829586
10240000000 -30.235043 -37.862888 -0.85780215 146.40938 -0.86198306 146.37996 -39.927265 -36.180141
10267500000 -30.133177 -38.657562 -0.85812545 145.83896 -0.86102217 145.8175 -40.109715 -27.906214
10295000000 -29.887589 -38.521294 -0.85973215 145.26845 -0.86281532 145.24832 -40.77108 -34.098068
10322500000 -29.806173 -40.109772 -0.86027992 144.69438 -0.86083692 144.66867 -39.579132 -41.558029
10350000000 -29.749073 -41.459919 -0.8575716 144.12297 -0.86288792 144.10817 -39.484264 -33.355576
10377500000 -29.523853 -41.258343 -0.86176586 143.56752 -0.86367804 143.53246 -40.388058 -37.679684
10405000000 -29.409857 -42.215912 -0.86372852 142.99022 -0.86285949 142.95099 -39.294907 -48.09417
10432500000 -29.347429 -43.725483 -0.86307925 142.40649 -0.86261827 142.38223 -38.570366 -42.287781
10460000000 -29.210646 -43.487324 -0.86173177 141.84567 -0.86583048 141.82854 -39.865341 -39.665489
10487500000 -29.145855 -44.880646 -0.86544061 141.2825 -0.86656487 141.25327 -39.112267 -51.401443
10515000000 -29.07547 -46.105614 -0.86550319 140.69255 -0.8666957 140.66982 -37.967037 -49.670296
10542500000 -28.926043 -46.328983 -0.8650381 140.13896 -0.86818987 140.11771 -38.91938 -44.044724
10570000000 -28.821377 -46.876328 -0.86489123 139.54793 -0.86802423 139.55252 -38.735855 -52.867985
10597500000 -28.762897 -48.408009 -0.8659367 138.99428 -0.87042779 138.9848 -37.67506 -55.432121
10625000000 -28.586012 -49.092869 -0.86786395 138.43192 -0.87134171 138.38654 -38.38372 -48.054577
10652500000 -28.505219 -49.476223 -0.86859739 137.84348 -0.86962003 137.83406 -38.594784 -55.633049
10680000000 -28.467264 -50.092426 -0.87092096 137.27373 -0.87415105 137.25136 -37.483192 -60.096409
10707500000 -28.293211 -51.324936 -0.86942077 136.71028 -0.87406683 136.70036 -37.615589 -53.593842
10735000000 -28.15736 -51.697803 -0.87240708 136.14413 -0.87421787 136.12067 -38.350624 -56.770233
10762500000 -28.213234 -52.311211 -0.87221783 135.57309 -0.87707466 135.55063 -37.375893 -64.305176
10790000000 -27.944578 -53.605755 -0.87263936 135.02252 -0.87309885 134.97179 -36.839325 -59.862396
10817500000 -27.87742 -54.404278 -0.87391549 134.44267 -0.87555277 134.431 -37.838093 -59.290047
10845000000 -27.882622 -54.936302 -0.87589639 133.87019 -0.87999648 133.8398 -37.203697 -66.599022
10872500000 -27.745615 -55.540554 -0.87535703 133.30168 -0.87638605 133.28226 -36.647381 -65.152428
10900000000 -27.573956 -56.635284 -0.87535328 132.73828 -0.87687892 132.72539 -37.524971 -62.321674
10927500000 -27.681236 -57.34597 -0.87739784 132.16302 -0.88075668 132.15686 -36.95166 -69.666389
10955000000 -27.532097 -57.885757 -0.87706643 131.59929 -0.87996316 131.58426 -36.007645 -69.423775
10982500000 -27.37204 -58.761539 -0.878034 131.04012 -0.88060009 131.01031 -36.577312 -65.797012
11010000000 -27.403465 -59.394375 -0.88040352 130.45872 -0.87976378 130.44801 -36.96833 -71.20726
11037500000 -27.342482 -60.075806 -0.87898725 129.88808 -0.88330913 129.86398 -35.834087 -75.33403
11065000000 -27.112572 -60.83569 -0.88076431 129.32306 -0.88386625 129.31659 -35.857643 -70.497749
11092500000 -27.13941 -61.923 -0.88192934 128.77615 -0.88759977 128.75377 -36.436859 -72.676552
11120000000 -27.157431 -62.014778 -0.88435364 128.18713 -0.88764995 128.18077 -35.770741 -78.765785
11147500000 -26.936159 -62.975964 -0.88125831 127.61391 -0.88621259 127.60278 -35.519054 -76.21331
11175000000 -26.908012 -63.886959 -0.88400525 127.06419 -0.88571292 127.03528 -36.109444 -75.78775
11202500000 -26.925711 -64.433029 -0.88245267 126.47643 -0.88784242 126.46743 -35.523098 -81.519791
11230000000 -26.734484 -64.832077 -0.88442343 125.9099 -0.8907721 125.90388 -35.012371 -80.536232
11257500000 -26.67387 -65.961411 -0.88550377 125.35714 -0.88819051 125.33475 -35.555561 -78.456268
11285000000 -26.758825 -66.447166 -0.88607579 124.79693 -0.88944644 124.76043 -35.473637 -83.299866
11312500000 -26.566504 -67.109016 -0.88570374 124.22214 -0.8899675 124.18928 -34.692535 -85.042511
11340000000 -26.430683 -68.057632 -0.88715619 123.65351 -0.89040095 123.6336 -35.085945 -81.633865
11367500000 -26.503098 -68.946365 -0.88847792 123.08652 -0.89268559 123.06378 -35.463276 -84.81913
11395000000 -26.345322 -68.76741 -0.88893312 122.52357 -0.89447337 122.49775 -34.705311 -87.627357
11422500000 -26.198746 -70.121376 -0.88907921 121.94475 -0.89455259 121.93083 -34.884872 -84.993866
11450000000 -26.211094 -71.130257 -0.8897807 121.38244 -0.89341563 121.38116 -35.198029 -87.267494
11477500000 -26.202684 -71.445534 -0.89239502 120.81199 -0.89468396 120.81019 -34.437508 -92.555489
11505000000 -26.046795 -72.397491 -0.89200306 120.24442 -0.89653236 120.22413 -34.425545 -91.362961
11532500000 -26.033768 -73.463326 -0.89258099 119.66895 -0.89589632 119.65835 -34.731186 -91.312599
11560000000 -26.06213 -74.033516 -0.89350247 119.11156 -0.89707655 119.09087 -34.221676 -94.868935
11587500000 -25.895956 -73.956818 -0.89307731 118.54896 -0.89705044 118.52447 -34.051746 -94.456108
11615000000 -25.887066 -75.579857 -0.8938182 117.97913 -0.89894575 117.95289 -34.447285 -94.047676
11642500000 -25.898701 -76.080475 -0.89592654 117.40512 -0.89862925 117.38538 -34.288193 -97.518501
11670000000 -25.777765 -76.562027 -0.89707243 116.84595 -0.89885211 116.82835 -33.754539 -98.61039
11697500000 -25.696362 -77.32029 -0.89645344 116.27288 -0.90014684 116.26237 -34.095539 -96.619041
11725000000 -25.754398 -78.220268 -0.8971017 115.71857 -0.9013958 115.70298 -34.030216 -99.594154
11752500000 -25.649874 -78.376984 -0.89858913 115.14648 -0.90105969 115.13055 -33.620834 -101.08015
11780000000 -25.569366 -79.287659 -0.89987874 114.58292 -0.90165162 114.56298 -33.91811 -100.3743
11807500000 -25.57395 -80.589256 -0.90005994 114.00718 -0.90368438 113.98923 -33.81884 -102.48069
11835000000 -25.534588 -80.849884 -0.89905238 113.45148 -0.90381855 113.41319 -33.51894 -104.31249
11862500000 -25.442776 -81.589058 -0.89873844 112.89144 -0.90407896 112.85767 -33.434669 -104.4342
11890000000 -25.393293 -82.579163 -0.90076154 112.31433 -0.90508097 112.30194 -33.729797 -105.51736
11917500000 -25.422707 -83.249214 -0.89963067 111.7503 -0.90258294 111.74525 -33.340366 -108.26234
11945000000 -25.377512 -83.520721 -0.8997733 111.18422 -0.90416664 111.17175 -33.208843 -107.22073
11972500000 -25.272547 -84.641441 -0.90055388 110.63001 -0.9047516 110.60491 -33.544216 -108.66129
12000000000 -25.275053 -85.24353 -0.90196514 110.06084 -0.90592217 110.03526 -33.197254 -111.114
12027500000 -25.227299 -85.621651 -0.90163857 109.49382 -0.90554458 109.46883 -33.075855 -111.68781
12055000000 -25.116392 -86.664421 -0.90218848 108.93249 -0.90647674 108.89639 -33.507668 -111.90462
12082500000 -25.089983 -87.633064 -0.90118587 108.35641 -0.90628701 108.3472 -33.26902 -114.82003
12110000000 -25.128597 -88.014244 -0.90279675 107.80062 -0.90560329 107.78042 -33.037472 -115.7104
12137500000 -24.994381 -88.8536 -0.89968002 107.24857 -0.90532553 107.21092 -33.306549 -116.46912
12165000000 -24.942492 -89.749786 -0.90040517 106.67023 -0.90510523 106.63883 -33.0811 -118.60182
12192500000 -25.018835 -90.141556 -0.90147036 106.10566 -0.90420681 106.08721 -32.645046 -119.20022
12220000000 -24.989729 -90.870255 -0.90181762 105.53891 -0.90497637 105.50362 -32.998665 -120.11153
12247500000 -24.891811 -91.921234 -0.89951378 104.96568 -0.90542185 104.9492 -33.025169 -121.13493
12275000000 -24.950317 -92.554077 -0.90314859 104.40251 -0.90700752 104.38434 -32.481365 -121.72232
12302500000 -24.962185 -93.076294 -0.90132791 103.82922 -0.90494579 103.81472 -32.705101 -121.95326
12330000000 -24.866608 -94.069626 -0.90074247 103.24828 -0.90381789 103.24081 -32.918724 -123.61794
12357500000 -24.874603 -94.73468 -0.90148687 102.69084 -0.90354443 102.6653 -32.325195 -124.44291
12385000000 -24.90192 -94.929016 -0.90203649 102.11765 -0.90426415 102.10493 -32.53701 -124.64671
12412500000 -24.773088 -95.528549 -0.90289521 101.55796 -0.90640914 101.52101 -32.982449 -126.60644
12440000000 -24.75984 -96.523056 -0.9000169 100.98101 -0.90353012 100.96214 -32.551323 -128.32765
12467500000 -24.86451 -97.195168 -0.9005211 100.41547 -0.90370953 100.39496 -32.393742 -127.73332
12495000000 -24.748684 -97.70546 -0.90080869 99.843079 -0.90574741 99.816978 -32.87624 -129.79254
12522500000 -24.660046 -98.44957 -0.89868814 99.270287 -0.9031387 99.246124 -32.58189 -131.3026
12550000000 -24.760559 -99.491768 -0.90043926 98.703316 -0.90347111 98.672798 -32.27433 -131.61102
12577500000 -24.694611 -99.652321 -0.90066731 98.132332 -0.90303385 98.11232 -32.780785 -132.51913
12605000000 -24.602812 -100.34677 -0.89991629 97.557434 -0.90527195 97.567017 -32.684647 -135.22252
12632500000 -24.666698 -101.47472 -0.89960992 96.998543 -0.90359288 96.973045 -32.122856 -135.32446
12660000000 -24.689762 -101.87202 -0.90086794 96.418953 -0.90490115 96.402916 -32.412457 -136.27219
12687500000 -24.601379 -102.266 -0.89737606 95.84687 -0.90405285 95.82766 -32.552177 -138.77454
12715000000 -24.599985 -103.46119 -0.90149552 95.272285 -0.90228468 95.267906 -32.125156 -137.85359
12742500000 -24.66399 -104.2244 -0.90144199 94.722084 -0.90446949 94.690819 -32.154976 -139.49777
12770000000 -24.61566 -104.36807 -0.90059596 94.144699 -0.90577608 94.123344 -32.543976 -141.70401
12797500000 -24.574301 -105.23 -0.90261674 93.565437 -0.90331209 93.546722 -32.16465 -141.58646
12825000000 -24.678349 -106.09737 -0.90095621 93.002831 -0.90238535 92.988724 -32.038395 -141.19096
12852500000 -24.607937 -106.34641 -0.9015882 92.436714 -0.90585136 92.41021 -32.420513 -143.73456
12880000000 -24.621132 -107.03819 -0.90007073 91.869286 -0.9053995 91.838516 -32.156879 -144.00371
12907500000 -24.680323 -108.33833 -0.90128779 91.28627 -0.90542692 91.254005 -32.002487 -144.52417
12935000000 -24.675291 -108.40055 -0.90066826 90.713226 -0.90361392 90.682732 -32.240433 -146.77524
12962500000 -24.621868 -108.49193 -0.90218276 90.147507 -0.90422243 90.127945 -32.336124 -147.04312
12990000000 -24.659172 -109.93105 -0.90137541 89.573524 -0.90461802 89.549316 -31.968887 -146.51262
13017500000 -24.708054 -110.30339 -0.90348357 88.999817 -0.90437573 88.968781 -32.237934 -149.13298
13045000000 -24.642225 -110.56338 -0.90082657 88.439476 -0.90632784 88.405022 -32.376366 -149.71309
13072500000 -24.616312 -111.61973 -0.90235096 87.850487 -0.90271932 87.827377 -32.027855 -149.07533
13100000000 -24.720762 -112.4498 -0.90256381 87.285675 -0.90218753 87.254005 -32.014179 -151.77101
13127500000 -24.686796 -112.38198 -0.90268552 86.707985 -0.90645474 86.690674 -32.410133 -153.31956
13155000000 -24.655458 -113.40138 -0.90271807 86.138374 -0.90462762 86.122032 -32.148926 -152.64476
13182500000 -24.766035 -114.07327 -0.90240228 85.570564 -0.9062615 85.558777 -32.042366 -153.75452
13210000000 -24.708675 -114.29277 -0.90391994 84.998009 -0.90516484 84.969101 -32.244141 -156.58177
13237500000 -24.687233 -114.69644 -0.9031505 84.432724 -0.90540206 84.403175 -32.335522 -154.55128
13265000000 -24.725073 -116.10038 -0.90242171 83.856628 -0.90703624 83.832413 -32.045269 -155.89944
13292500000 -24.805555 -116.11479 -0.90236974 83.279839 -0.90741456 83.255058 -32.075806 -159.25476
13320000000 -24.736265 -116.58845 -0.90437353 82.704269 -0.90574646 82.686241 -32.288059 -158.48711
13347500000 -24.726803 -117.79701 -0.90239364 82.142624 -0.9042275 82.114906 -32.063614 -157.85614
13375000000 -24.860781 -117.86515 -0.90370125 81.565231 -0.90518171 81.540237 -32.003132 -160.68317
13402500000 -24.833302 -118.20694 -0.90383893 80.98555 -0.90657151 80.966545 -32.286999 -160.69093
13430000000 -24.808681 -119.44404 -0.90476024 80.407784 -0.90577292 80.391014 -32.20734 -160.41931
13457500000 -24.891027 -119.73225 -0.90526432 79.840904 -0.90792024 79.807709 -32.065495 -162.23006
13485000000 -24.876307 -119.97446 -0.90685314 79.262352 -0.90733892 79.246101 -32.318642 -163.02296
13512500000 -24.856972 -120.66059 -0.90545052 78.694908 -0.9064315 78.67308 -32.342274 -162.05246
13540000000 -24.947142 -121.69253 -0.9076184 78.119492 -0.90944105 78.075989 -32.065258 -164.33989
13567500000 -25.000999 -121.67195 -0.90680689 77.54377 -0.90998816 77.509094 -32.183784 -164.64401
13595000000 -24.95475 -122.24628 -0.90756196 76.962196 -0.9099431 76.935371 -32.473522 -164.03534
13622500000 -24.984888 -123.16605 -0.90685916 76.390244 -0.90970504 76.371376 -32.221355 -165.89468
13650000000 -25.051231 -123.57733 -0.90870833 75.824837 -0.91265237 75.804672 -32.259407 -167.69443
13677500000 -25.05098 -123.65328 -0.90854686 75.246529 -0.91172045 75.207916 -32.471878 -167.10095
13705000000 -25.004116 -124.80903 -0.90977204 74.67524 -0.91294366 74.655365 -32.328342 -167.74062
13732500000 -25.13699 -125.30091 -0.91061765 74.101715 -0.91429371 74.077286 -32.135906 -169.33246
13760000000 -25.139555 -125.35949 -0.90994662 73.522987 -0.91296411 73.498917 -32.501453 -169.4852
13787500000 -25.060513 -126.0102 -0.91067988 72.954613 -0.91377968 72.93335 -32.447906 -169.75371
13815000000 -25.167532 -126.8881 -0.91299862 72.372467 -0.91548377 72.358528 -32.221123 -171.76964
13842500000 -25.199177 -126.99282 -0.91330558 71.810509 -0.91623139 71.79071 -32.324005 -172.18744
13870000000 -25.153893 -127.80049 -0.91422886 71.216125 -0.91655588 71.21048 -32.458656 -171.40112
13897500000 -25.226765 -128.55135 -0.91607445 70.654556 -0.91716844 70.634613 -32.334618 -173.33279
13925000000 -25.299957 -129.01958 -0.91589862 70.069038 -0.92005301 70.056564 -32.229568 -173.89052
13952500000 -25.251602 -129.05791 -0.917265 69.499352 -0.91919148 69.481728 -32.49889 -173.73767
13980000000 -25.250353 -130.2765 -0.91864675 68.942818 -0.92348254 68.918114 -32.210388 -174.32465
14007500000 -25.338221 -130.74146 -0.92143887 68.373207 -0.9243471 68.337585 -32.160294 -174.97322
14035000000 -25.342073 -130.48206 -0.92132109 67.800301 -0.92520905 67.760612 -32.623928 -175.86938
14062500000 -25.307014 -131.71004 -0.924775 67.220009 -0.92748553 67.207283 -32.332783 -176.18683
14090000000 -25.370823 -132.37088 -0.92505687 66.656044 -0.92755663 66.637161 -32.133057 -177.23428
14117500000 -25.400278 -132.40501 -0.92669111 66.082413 -0.93039459 66.052299 -32.458477 -177.97516
14145000000 -25.356314 -133.29778 -0.92957205 65.522591 -0.9329738 65.487228 -32.351078 -178.34795
14172500000 -25.415522 -134.39366 -0.93118197 64.950844 -0.93570709 64.927094 -32.043873 -179.98607
14200000000 -25.484455 -134.47406 -0.93150789 64.385384 -0.93455613 64.355156 -32.251648 -179.91197
14227500000 -25.449486 -134.92484 -0.93495417 63.818474 -0.93610203 63.786667 -32.302349 179.56003
14255000000 -25.450329 -136.65199 -0.93473172 63.249485 -0.93908572 63.231903 -32.090481 177.48523
14282500000 -25.525393 -136.95444 -0.93622571 62.694565 -0.9392004 62.66637 -32.072102 176.92847
14310000000 -25.542076 -137.22995 -0.93588722 62.138485 -0.93901181 62.099972 -32.150963 174.98241
14337500000 -25.538834 -138.80804 -0.93684167 61.57074 -0.94272196 61.540661 -31.91374 174.86076
14365000000 -25.629597 -139.80414 -0.9390465 61.009285 -0.94104701 60.984486 -32.043591 173.50833
14392500000 -25.69548 -139.62483 -0.937841 60.440796 -0.93874025 60.394775 -32.166954 172.6747
14420000000 -25.68775 -140.50815 -0.9352926 59.863106 -0.94150579 59.837265 -32.10651 172.04089
14447500000 -25.729198 -141.74879 -0.93830198 59.300858 -0.94095343 59.279938 -32.162037 170.54768
14475000000 -25.816349 -141.78687 -0.93897164 58.719494 -0.9404822 58.707073 -32.318939 169.29967
14502500000 -25.796944 -142.7296 -0.93703115 58.164886 -0.94185466 58.152954 -32.067009 168.45088
14530000000 -25.824003 -143.82802 -0.94196141 57.603527 -0.94333434 57.578995 -32.130199 168.2388
14557500000 -26.002934 -144.37752 -0.93916219 57.02586 -0.94370878 57.008026 -32.228283 166.59087
14585000000 -25.939022 -144.55095 -0.9406988 56.461632 -0.94396776 56.445717 -32.204178 166.48543
14612500000 -25.978666 -145.95998 -0.94094509 55.909729 -0.94469392 55.860752 -32.167274 165.07387
14640000000 -26.15024 -146.89223 -0.94158745 55.338604 -0.94501764 55.304352 -32.301609 163.4742
14667500000 -26.136908 -147.063 -0.94158423 54.757626 -0.94397902 54.715954 -32.129475 163.34489
14695000000 -26.132603 -147.72911 -0.94169164 54.187717 -0.94396484 54.156929 -32.114826 162.92697
14722500000 -26.309814 -149.01964 -0.94282103 53.616119 -0.94729841 53.583542 -32.370586 160.62645
14750000000 -26.361233 -149.3195 -0.94164145 53.026676 -0.94536257 53.023056 -32.089417 160.14139
14777500000 -26.355684 -149.47795 -0.94224727 52.472912 -0.94856769 52.452293 -32.160023 160.61736
14805000000 -26.443731 -151.22037 -0.94379532 51.91489 -0.94712454 51.878349 -32.410343 157.49002
14832500000 -26.630054 -151.2197 -0.94343889 51.340702 -0.94745034 51.296928 -32.198357 157.60773
14860000000 -26.626652 -151.79059 -0.94491595 50.757088 -0.94851166 50.735508 -32.302391 157.65544
14887500000 -26.642923 -153.0939 -0.94673049 50.180794 -0.95080203 50.155975 -32.408394 155.08064
14915000000 -26.774973 -153.73386 -0.94449633 49.603981 -0.94965637 49.581734 -32.310921 153.8199
14942500000 -26.779791 -153.41428 -0.94881541 49.037766 -0.95031005 49.011402 -32.260849 155.79803
14970000000 -26.810286 -154.48846 -0.94878286 48.471661 -0.94996947 48.434296 -32.400082 153.35474
14997500000 -26.881054 -156.03064 -0.94971758 47.881496 -0.95249331 47.849388 -32.380722 151.21388
15025000000 -26.966293 -154.92484 -0.94950724 47.312214 -0.95664191 47.297985 -32.309952 153.52255
15052500000 -26.976595 -156.34583 -0.95308453 46.762688 -0.95956123 46.731636 -32.375504 152.11299
15080000000 -26.999678 -158.0368 -0.95462191 46.200642 -0.95962548 46.1703 -32.488331 148.47089
15107500000 -27.180761 -157.2334 -0.95743048 45.616299 -0.95940852 45.590092 -32.281116 150.45232
15135000000 -27.195791 -157.98239 -0.95703036 45.044552 -0.95974654 45.019779 -32.36478 150.09764
15162500000 -27.184105 -159.65909 -0.95796561 44.473354 -0.95991802 44.460434 -32.378475 146.04852
15190000000 -27.351805 -159.98093 -0.95662963 43.914211 -0.96096814 43.87719 -32.321709 146.90363
15217500000 -27.473324 -160.09622 -0.95993185 43.343948 -0.96184254 43.319084 -32.357132 147.92909
15245000000 -27.42659 -161.85417 -0.96235263 42.779678 -0.96443987 42.746277 -32.327305 143.67702
15272500000 -27.530077 -162.25104 -0.95976627 42.188156 -0.96485555 42.168034 -32.336231 143.82681
15300000000 -27.78816 -162.20343 -0.96331745 41.63092 -0.96565795 41.604263 -32.385052 146.38593
15327500000 -27.619059 -163.37506 -0.96310222 41.074226 -0.96685147 41.036743 -32.415264 141.96182
15355000000 -27.689045 -165.13383 -0.96407235 40.509537 -0.96901172 40.473988 -32.375561 140.58391
15382500000 -27.987787 -164.29959 -0.96507925 39.954132 -0.9701162 39.896732 -32.350426 143.70911
15410000000 -27.862667 -165.64592 -0.96638578 39.381725 -0.96996087 39.34108 -32.428967 140.5195
15437500000 -27.878887 -166.91034 -0.96824205 38.803276 -0.97369885 38.790436 -32.323189 136.75583
15465000000 -28.133564 -166.87848 -0.97173119 38.232758 -0.97332054 38.208309 -32.407806 140.3828
15492500000 -28.194107 -167.68483 -0.96889883 37.671356 -0.97440183 37.650623 -32.401665 139.57523
15520000000 -28.017654 -169.41949 -0.96885705 37.116917 -0.97500575 37.075493 -32.381073 135.51823
15547500000 -28.333261 -169.67453 -0.97114325 36.543018 -0.97652888 36.503254 -32.512524 137.24231
15575000000 -28.459248 -169.61281 -0.97262168 35.97821 -0.97682387 35.941586 -32.444405 137.95137
15602500000 -28.338169 -171.82475 -0.97668123 35.420544 -0.97938085 35.388775 -32.416561 132.51488
15630000000 -28.494141 -172.57893 -0.97522676 34.84182 -0.97992837 34.810509 -32.360455 133.83842
15657500000 -28.838572 -172.71451 -0.97552747 34.28688 -0.97948986 34.25457 -32.458908 136.18709
15685000000 -28.646927 -173.76453 -0.97841573 33.721474 -0.9803021 33.686279 -32.421822 131.75177
15712500000 -28.758492 -175.08232 -0.97411156 33.1502 -0.98352498 33.12043 -32.377029 130.22313
15740000000 -29.092442 -175.08391 -0.97925341 32.58234 -0.98271376 32.564938 -32.666538 132.50996
15767500000 -29.016615 -176.13896 -0.9785198 32.027966 -0.9831059 31.989372 -32.462688 130.56328
15795000000 -28.98978 -177.30244 -0.97922194 31.454828 -0.98243916 31.418547 -32.331326 126.93703
15822500000 -29.468416 -178.55675 -0.9785769 30.886112 -0.98282933 30.855568 -32.579773 129.2861
15850000000 -29.519781 -179.14377 -0.98102236 30.336693 -0.98323381 30.299316 -32.574104 128.43666
15877500000 -29.30611 -179.33714 -0.98152399 29.753284 -0.9866454 29.74346 -32.481533 124.83351
15905000000 -29.670559 178.76598 -0.98124361 29.191757 -0.9845413 29.164761 -32.583294 125.32127
15932500000 -29.899105 177.95551 -0.98422796 28.626808 -0.98399252 28.596516 -32.69738 126.89449
15960000000 -29.756693 176.961 -0.98438543 28.065014 -0.98816222 28.030252 -32.495731 122.58344
15987500000 -30.00811 176.2652 -0.9839893 27.48583 -0.98667037 27.457123 -32.664356 122.18144
16015000000 -30.346888 174.83452 -0.98426819 26.914049 -0.98863769 26.897755 -32.856857 124.00854
16042500000 -30.291304 174.66095 -0.98517907 26.361128 -0.98667884 26.339582 -32.687263 121.60635
16070000000 -30.350916 173.2415 -0.98386431 25.794949 -0.98781121 25.768164 -32.813457 119.25009
16097500000 -30.845741 171.90352 -0.98506182 25.231432 -0.98774004 25.188953 -32.945263 120.5408
16125000000 -30.705055 172.1956 -0.98115927 24.671722 -0.98954916 24.626387 -32.781841 119.0257
16152500000 -30.745523 170.66 -0.98698974 24.105598 -0.98773807 24.06996 -32.82243 116.36095
16180000000 -31.159494 168.36543 -0.98727989 23.510962 -0.99072039 23.501112 -33.115643 117.41013
16207500000 -31.302942 168.53191 -0.98556882 22.944475 -0.99164009 22.93037 -32.947067 117.09232
16235000000 -31.192152 167.73798 -0.98914313 22.399981 -0.99259126 22.359114 -33.033318 114.2651
16262500000 -31.554722 166.18117 -0.98759967 21.814991 -0.99211693 21.80748 -33.159351 113.53454
16290000000 -31.81461 164.84933 -0.98807347 21.238821 -0.99111062 21.221737 -33.093948 114.63183
16317500000 -31.761759 164.72481 -0.99166417 20.690096 -0.99255383 20.664042 -32.941109 112.95479
16345000000 -31.941061 162.7307 -0.98895431 20.123053 -0.99330312 20.092505 -33.242943 110.27796
16372500000 -32.308544 161.27657 -0.9905324 19.56296 -0.99551725 19.526495 -33.343994 111.28548
16400000000 -32.424755 161.43318 -0.99286973 19.008047 -0.99466473 18.957289 -33.240723 110.32323
16427500000 -32.452343 159.70921 -0.99216837 18.419519 -0.99698412 18.391663 -33.353661 108.319
16455000000 -32.69326 157.97029 -0.99223733 17.849068 -0.99616683 17.812103 -33.460518 107.75175
16482500000 -33.027115 157.09169 -0.9918915 17.292328 -0.99844462 17.265188 -33.347866 107.12627
16510000000 -32.918221 156.0186 -0.9964937 16.726084 -0.99597079 16.705406 -33.454803 105.45444
16537500000 -33.220272 154.45955 -0.99672884 16.155321 -0.99912941 16.113016 -33.620945 104.52365
16565000000 -33.740406 152.03908 -0.99563253 15.593614 -0.99860197 15.578077 -33.558456 105.24496
16592500000 -33.629169 152.63185 -0.99580151 15.03387 -0.99877107 14.990594 -33.628853 103.53217
16620000000 -33.799751 150.23192 -0.99877071 14.459671 -1.0013958 14.425539 -33.747856 102.30633
16647500000 -34.280022 147.194 -0.99569732 13.896391 -1.0021909 13.858918 -33.664387 101.60727
16675000000 -34.221783 147.71844 -0.9988727 13.340001 -1.0035055 13.29077 -33.797394 101.01814
16702500000 -34.180111 146.68335 -0.99948168 12.781638 -1.0020671 12.740149 -33.830276 98.163063
16730000000 -34.836025 141.75348 -0.99857724 12.210114 -1.0039184 12.180619 -33.837536 98.373764
16757500000 -34.802937 142.86305 -0.99969089 11.650366 -1.0042824 11.592765 -33.902573 98.570129
16785000000 -34.97086 142.89948 -0.99837327 11.079452 -1.0036548 11.055379 -33.880211 96.229202
16812500000 -35.273251 137.49318 -1.0008299 10.527981 -1.0037484 10.485726 -33.832134 96.231346
16840000000 -35.680752 135.0601 -0.9991653 9.9642811 -1.0061395 9.9189949 -33.908138 96.77993
16867500000 -35.620037 137.24133 -0.99906689 9.3835564 -1.0051211 9.3481426 -34.167542 92.974724
16895000000 -35.958908 131.04329 -1.0011038 8.8355093 -1.0055255 8.7996197 -33.764202 92.984138
16922500000 -36.119774 128.32335 -1.0019715 8.2650852 -1.0024766 8.2392397 -33.919277 94.175209
16950000000 -36.211807 131.3382 -1.0030218 7.7137418 -1.0089278 7.6714935 -34.396271 93.018326
16977500000 -36.514172 126.44073 -1.0028043 7.1182499 -1.007311 7.0939207 -34.075977 90.996307
17005000000 -36.789215 121.05938 -1.001991 6.5581498 -1.0079496 6.5449691 -33.952095 90.224556
17032500000 -36.8936 123.40055 -1.0028086 5.9953184 -1.0085738 5.9696736 -34.268234 90.349022
17060000000 -37.139606 120.40295 -1.0021117 5.4134221 -1.008934 5.4035964 -34.106518 88.457291
17087500000 -37.227047 112.49637 -1.0027851 4.8892422 -1.0069859 4.8534827 -33.805233 88.53183
17115000000 -37.262009 114.10088 -1.007071 4.2906833 -1.0098844 4.2703795 -34.291763 87.259079
17142500000 -37.709278 113.89919 -1.0022591 3.7570362 -1.0090604 3.6966701 -34.30891 85.13752
17170000000 -37.11433 105.46793 -1.0039194 3.1831844 -1.0082133 3.1326072 -33.893929 86.848007
17197500000 -37.463669 103.20688 -1.0027449 2.6177011 -1.007766 2.5798237 -34.161919 85.258461
17225000000 -38.221153 104.38623 -1.0040338 2.0570421 -1.0080788 2.013139 -34.100185 82.908005
17252500000 -37.510544 98.099487 -1.0057992 1.4893827 -1.0065521 1.4411846 -33.823502 82.283806
17280000000 -37.424812 93.718613 -1.00507 0.92425042 -1.0075523 0.89313734 -33.996868 81.471321
17307500000 -38.537476 94.497803 -1.0038309 0.36016446 -1.0080433 0.30484459 -34.278629 80.488846
17335000000 -37.870846 88.236008 -1.0065925 -0.21641806 -1.0102757 -0.23912907 -34.047714 80.170235
17362500000 -37.496799 82.997261 -1.0015656 -0.76132137 -1.009324 -0.81582254 -34.01144 79.640633
17390000000 -38.317898 83.286682 -1.0086241 -1.3323966 -1.0073038 -1.3755707 -34.358227 76.766396
17417500000 -37.990726 79.32032 -1.0056175 -1.9289296 -1.0087502 -1.9393029 -33.881935 75.572243
17445000000 -36.99313 75.519913 -1.0029702 -2.4709432 -1.0098755 -2.4976103 -33.899246 77.286392
17472500000 -37.923492 70.318069 -1.0033133 -3.0281775 -1.0080178 -3.0759611 -34.388435 74.834579
17500000000 -38.063332 67.435043 -1.004898 -3.6094365 -1.0048115 -3.674077 -34.239796 73.300194
17527500000 -37.134789 66.120918 -1.0056341 -4.160531 -1.0085663 -4.207181 -33.697056 73.181854
17555000000 -37.698524 60.42691 -1.0083257 -4.7489791 -1.0099206 -4.7669387 -34.152485 72.716866
17582500000 -37.874653 57.627529 -1.0059026 -5.320869 -1.0115241 -5.3443952 -34.343513 70.107628
17610000000 -36.788048 58.161507 -1.0059832 -5.8647423 -1.0065198 -5.8944511 -33.825233 71.822433
17637500000 -36.773281 54.106922 -1.0050454 -6.4423985 -1.0089271 -6.4696631 -33.864605 70.884041
17665000000 -37.181416 47.805927 -1.0024749 -6.9943399 -1.008321 -7.0337014 -34.414093 67.141922
17692500000 -36.225418 50.950535 -1.0081556 -7.5593958 -1.0117073 -7.5877905 -34.0979 67.568291
17720000000 -36.331974 46.187576 -1.0050129 -8.1328335 -1.0101248 -8.1621838 -33.760612 67.939995
17747500000 -36.553528 40.286652 -1.0076469 -8.695159 -1.0076185 -8.731534 -34.165764 62.557404
17775000000 -36.091812 40.22496 -1.006091 -9.2725573 -1.0085212 -9.3041592 -34.181438 64.544319
17802500000 -35.643032 40.938786 -1.0063472 -9.8313961 -1.0111277 -9.8657398 -33.77943 66.584076
17830000000 -35.699959 32.172413 -1.0063279 -10.400501 -1.0084498 -10.431208 -34.193653 63.144028
17857500000 -35.216942 33.964798 -1.0045375 -10.982614 -1.0089641 -11.008122 -34.29285 59.651512
17885000000 -35.054928 33.039242 -1.0041914 -11.539073 -1.0088272 -11.554662 -33.915211 63.870918
17912500000 -34.922482 26.591166 -1.0071619 -12.089873 -1.010583 -12.13519 -34.211498 61.41523
17940000000 -34.627689 24.01685 -1.0044732 -12.672443 -1.0043623 -12.721006 -34.156494 57.184788
17967500000 -34.414272 27.394608 -1.0026011 -13.231513 -1.0091081 -13.271624 -33.910931 61.540798
17995000000 -34.151314 20.716812 -1.0068543 -13.805532 -1.0067159 -13.834564 -34.070713 61.099258
18022500000 -34.06826 18.331474 -1.0026823 -14.400108 -1.0080795 -14.402234 -34.327324 54.844116
18050000000 -33.840759 20.347763 -1.005653 -14.934611 -1.0107732 -14.972389 -34.130478 56.471306
18077500000 -33.699764 17.148104 -1.0075825 -15.506502 -1.0108308 -15.546496 -34.012867 58.386295
18105000000 -33.222958 13.828318 -1.0047777 -16.076296 -1.0103728 -16.095469 -34.306545 52.424648
18132500000 -33.309269 15.750376 -1.0058687 -16.634459 -1.01209 -16.680912 -34.20256 51.887836
18160000000 -32.933491 13.139533 -1.0086904 -17.227354 -1.007754 -17.230999 -34.133259 58.670452
18187500000 -32.611771 8.3411608 -1.0045042 -17.777714 -1.0085225 -17.819563 -34.394146 50.878296
18215000000 -32.591106 8.6715832 -1.0051632 -18.353571 -1.0101528 -18.372723 -34.335102 49.424187
18242500000 -32.458202 9.6363249 -1.0057704 -18.895458 -1.0122266 -18.936703 -34.314091 54.595726
18270000000 -31.942381 5.5657697 -1.0064186 -19.468147 -1.0084735 -19.505058 -34.486279 50.449326
18297500000 -31.930477 4.9460588 -1.006585 -20.037376 -1.0085647 -20.093367 -34.586727 44.899776
18325000000 -31.959782 5.3435502 -1.0057101 -20.595263 -1.0092239 -20.651361 -34.565018 50.635128
18352500000 -31.372587 2.1452003 -1.0073664 -21.183607 -1.0118306 -21.205601 -34.601215 48.759258
18380000000 -31.30353 -0.042177606 -1.001861 -21.746807 -1.0093706 -21.78631 -34.7006 42.75872
18407500000 -31.372423 0.02390483 -1.0027103 -22.302538 -1.0057796 -22.358744 -34.702644 45.284271
18435000000 -31.062567 -1.8381501 -1.0040584 -22.89035 -1.0082757 -22.918762 -34.832985 48.157166
18462500000 -30.699375 -3.488071 -1.0030906 -23.445557 -1.0080324 -23.478521 -34.886192 40.539352
18490000000 -30.826895 -3.4264202 -1.0068103 -23.99334 -1.0068537 -24.055597 -34.807587 40.989399
18517500000 -30.545288 -3.8099546 -1.0053185 -24.571518 -1.0122724 -24.632256 -34.944557 45.424202
18545000000 -30.232849 -6.878458 -1.0025946 -25.186197 -1.0081993 -25.174839 -34.934193 39.792732
18572500000 -30.302818 -7.9743261 -1.0030574 -25.715565 -1.0066102 -25.764835 -34.973137 36.135349
18600000000 -30.233887 -6.8556314 -1.0046996 -26.266945 -1.0104011 -26.313631 -34.87442 41.384483
18627500000 -29.743977 -9.1165409 -1.0033824 -26.843142 -1.0074824 -26.896353 -35.145218 38.431271
18655000000 -29.701317 -11.112619 -1.0029165 -27.411585 -1.0067101 -27.441603 -35.172901 33.373478
18682500000 -29.76449 -10.88914 -1.0045596 -27.974773 -1.0056335 -28.028187 -35.241177 37.74374
18710000000 -29.445076 -11.474126 -1.0043133 -28.57095 -1.0080974 -28.590876 -35.412128 37.247707
18737500000 -29.217043 -13.637179 -1.0014176 -29.122103 -1.0046207 -29.15332 -35.322063 30.979952
18765000000 -29.356556 -14.374407 -1.0038038 -29.682592 -1.0089947 -29.720512 -35.332428 33.755661
18792500000 -29.095499 -14.301934 -1.0047084 -30.245853 -1.0062352 -30.281637 -35.647526 34.44162
18820000000 -28.80332 -16.779394 -1.0003788 -30.811987 -1.0051793 -30.868599 -35.591839 27.507648
18847500000 -28.872766 -16.972382 -1.004195 -31.387028 -1.0057669 -31.415209 -35.362629 28.484028
18875000000 -28.829178 -17.895187 -1.0033861 -31.971357 -1.010178 -31.999832 -35.678455 33.770802
18902500000 -28.431005 -18.053059 -0.99976027 -32.534874 -1.0039644 -32.572987 -35.706543 26.433039
18930000000 -28.354349 -20.12521 -1.0032413 -33.081264 -1.0038176 -33.129494 -35.656498 25.818516
18957500000 -28.41036 -19.684057 -1.0054919 -33.682732 -1.0061233 -33.699001 -35.892284 29.010962
18985000000 -28.132919 -20.580944 -1.0007305 -34.232727 -1.0040319 -34.283188 -36.091373 24.790501
19012500000 -28.039597 -21.614891 -1.0026412 -34.795235 -1.0055336 -34.837429 -35.707531 22.176815
19040000000 -28.11121 -22.494968 -0.99763811 -35.375355 -1.0045666 -35.410648 -36.013336 25.322416
19067500000 -27.886183 -22.528967 -1.0035893 -35.942646 -1.0033548 -35.991238 -36.25132 23.335747
19095000000 -27.661392 -23.984482 -1.0027583 -36.506184 -1.0025147 -36.554424 -35.872578 19.915142
19122500000 -27.798899 -24.85545 -1.0045609 -37.067535 -1.0050839 -37.110191 -35.814182 22.997654
19150000000 -27.670149 -25.265829 -1.0023041 -37.645454 -1.0066049 -37.665569 -36.396084 22.912045
19177500000 -27.29496 -26.309441 -0.99869287 -38.230251 -0.99919295 -38.261387 -36.077583 17.190044
19205000000 -27.423431 -27.145649 -1.0001494 -38.771343 -1.0039386 -38.833923 -36.28524 17.824278
19232500000 -27.372198 -27.954515 -0.99812537 -39.375557 -1.0010228 -39.394436 -36.498398 19.223785
19260000000 -27.080339 -27.729588 -1.0029621 -39.948601 -1.0008833 -39.975754 -36.276695 15.25665
19287500000 -26.989109 -29.350986 -1.0014936 -40.485085 -1.0004238 -40.528461 -36.154579 14.6134
19315000000 -27.113083 -30.770849 -1.0004208 -41.048016 -1.0021329 -41.101341 -36.486591 16.044292
19342500000 -26.817804 -30.088671 -0.99675226 -41.639069 -1.0017583 -41.680237 -36.531094 12.887576
19370000000 -26.630066 -31.363949 -0.99382442 -42.188419 -1.0016605 -42.246094 -36.255219 10.689471
19397500000 -26.841423 -32.87854 -0.99709028 -42.777103 -1.0019403 -42.802979 -36.437401 14.996819
19425000000 -26.614321 -32.391106 -0.99671578 -43.340679 -0.99794984 -43.379772 -36.637814 13.646984
19452500000 -26.464046 -32.888256 -0.99802411 -43.926483 -0.99831337 -43.958519 -36.531212 8.7822351
19480000000 -26.621124 -34.866898 -0.99901021 -44.457081 -1.0014389 -44.50975 -36.449753 10.672425
19507500000 -26.460102 -35.039478 -0.99782377 -45.061436 -1.0011914 -45.083122 -36.894821 11.450317
19535000000 -26.193504 -34.300808 -0.99495184 -45.633419 -1.000268 -45.661285 -36.48962 5.221539
19562500000 -26.265696 -36.99123 -1.0009818 -46.179237 -1.0021541 -46.22934 -36.620049 8.3216772
19590000000 -26.210938 -37.721149 -0.99644452 -46.753933 -1.0023386 -46.803127 -36.865932 10.574359
19617500000 -26.003286 -36.235012 -0.99367666 -47.336712 -0.99751562 -47.398979 -36.908131 5.1774621
19645000000 -26.0231 -38.625854 -0.99583369 -47.908985 -1.0009974 -47.942024 -36.710068 2.4795923
19672500000 -25.929756 -39.896595 -0.99546158 -48.479805 -0.99805826 -48.50985 -36.592915 6.4509687
19700000000 -25.890139 -38.26442 -0.99308646 -49.06789 -0.99785924 -49.108723 -36.910221 4.1238847
19727500000 -25.854662 -39.873535 -0.99642795 -49.629978 -1.0016533 -49.677391 -36.956631 -0.54315734
19755000000 -25.699787 -42.339191 -0.9969734 -50.19088 -1.0006298 -50.236626 -36.795586 4.758316
19782500000 -25.695446 -40.551128 -0.99377954 -50.787441 -0.99446231 -50.795162 -36.781937 3.487169
19810000000 -25.634632 -41.29995 -0.99428821 -51.325794 -0.99668777 -51.392891 -36.856209 -2.0296416
19837500000 -25.47508 -43.898781 -0.99647224 -51.923729 -0.99928749 -51.937515 -36.979694 2.1467905
19865000000 -25.440704 -43.063217 -0.99433279 -52.498085 -0.99772471 -52.527481 -37.028103 1.3820552
19892500000 -25.449421 -42.400986 -0.99555278 -53.068073 -0.99590307 -53.101639 -37.112823 -2.0136523
19920000000 -25.228861 -45.908241 -0.9979459 -53.656258 -1.0014434 -53.681179 -36.923553 -1.6125153
19947500000 -25.174278 -45.691639 -0.99633092 -54.219872 -0.99952763 -54.263165 -37.035896 0.1444017
19975000000 -25.2651 -44.749557 -0.99313265 -54.794476 -0.99577218 -54.825424 -37.093204 -5.3672843
20002500000 -25.050274 -47.313457 -0.99896687 -55.373459 -1.0008318 -55.408543 -37.164883 -4.728622
20030000000 -24.904579 -47.761028 -0.99922329 -55.924873 -1.00091 -55.973263 -36.990067 -2.0719175
20057500000 -25.052927 -46.426983 -0.99450004 -56.513252 -0.99982673 -56.526936 -37.300995 -4.7267714
20085000000 -24.886576 -49.051144 -0.99869221 -57.10392 -1.0006813 -57.12846 -37.175907 -10.455501
20112500000 -24.685696 -50.41396 -0.9990747 -57.652153 -1.0007608 -57.679829 -37.141796 -2.081243
20140000000 -24.887957 -48.7911 -0.99733227 -58.210228 -0.99986261 -58.252689 -37.210846 -7.269074
20167500000 -24.771095 -50.57402 -0.99476922 -58.815311 -1.0026115 -58.83252 -37.126762 -12.554043
20195000000 -24.490858 -52.340546 -1.0002676 -59.354179 -1.0042205 -59.425312 -37.25845 -6.3914886
20222500000 -24.53672 -51.327419 -0.9992311 -59.961399 -1.0030404 -59.989246 -37.500778 -6.6096025
20250000000 -24.67063 -52.229744 -1.001106 -60.52124 -1.0015751 -60.542374 -37.609882 -16.240511
20277500000 -24.267656 -54.254356 -1.0012143 -61.095074 -1.0037364 -61.128178 -37.372059 -11.989812
20305000000 -24.307579 -53.543072 -1.0022197 -61.660805 -1.0055633 -61.700466 -37.243126 -6.0285764
20332500000 -24.564077 -54.001133 -0.99894506 -62.221424 -1.003135 -62.282391 -37.571152 -15.580319
20360000000 -24.090298 -55.668663 -1.0031252 -62.799965 -1.0064509 -62.849323 -37.464981 -16.724993
20387500000 -24.022022 -56.166229 -1.0004877 -63.38353 -1.0083492 -63.415802 -37.422344 -8.7033443
20415000000 -24.309597 -55.97237 -1.000767 -63.954449 -1.0073812 -63.980145 -37.829075 -15.102062
20442500000 -24.018162 -57.592579 -1.0040039 -64.524277 -1.0108927 -64.566185 -37.765362 -21.764311
20470000000 -23.811728 -57.730988 -1.0095551 -65.103256 -1.012393 -65.130913 -37.808731 -12.281137
20497500000 -24.10037 -58.204422 -1.0080756 -65.658791 -1.012192 -65.697632 -38.094337 -17.426767
20525000000 -23.946161 -59.223404 -1.0089128 -66.271942 -1.0098864 -66.291061 -37.819515 -25.929653
20552500000 -23.646988 -60.331329 -1.0091558 -66.811195 -1.0135429 -66.826675 -38.183071 -15.628252
20580000000 -23.774454 -60.567039 -1.011956 -67.390961 -1.0146378 -67.418221 -37.946175 -18.486586
20607500000 -23.771786 -61.836319 -1.0116253 -67.957352 -1.0150446 -67.982704 -38.075527 -30.378752
20635000000 -23.524288 -62.450058 -1.0153421 -68.513046 -1.0177957 -68.556427 -38.364117 -25.319532
20662500000 -23.557299 -63.043564 -1.0174396 -69.066574 -1.0177959 -69.107529 -38.410397 -21.432808
20690000000 -23.705551 -64.056831 -1.0142248 -69.64772 -1.0165906 -69.66774 -38.319351 -34.062954
20717500000 -23.388594 -64.098404 -1.01767 -70.201546 -1.0188606 -70.22303 -38.454098 -31.793547
20745000000 -23.326521 -65.422623 -1.0175028 -70.764816 -1.0191921 -70.820999 -38.93375 -24.284927
20772500000 -23.600554 -66.197098 -1.0163008 -71.319908 -1.0190845 -71.355042 -38.89011 -34.610596
20800000000 -23.328047 -66.764801 -1.0154936 -71.893196 -1.0207453 -71.895874 -39.041435 -39.91769
20827500000 -23.227703 -67.446526 -1.0196226 -72.477585 -1.0188396 -72.48999 -39.70747 -30.935125
20855000000 -23.487804 -68.768852 -1.0155152 -73.01696 -1.0174557 -73.05175 -40.12524 -36.071686
20882500000 -23.363598 -68.642952 -1.0155914 -73.588394 -1.0148892 -73.647057 -39.088459 -44.17136
20910000000 -23.116686 -69.725601 -1.0120087 -74.161659 -1.0149919 -74.185921 -40.088837 -36.188824
20937500000 -23.310474 -70.85186 -1.0120854 -74.735138 -1.0148677 -74.772141 -40.246563 -39.043106
20965000000 -23.332867 -70.958031 -1.0112404 -75.316208 -1.0134641 -75.336082 -39.514606 -45.415966
20992500000 -23.085785 -70.975143 -1.0107758 -75.88623 -1.0172976 -75.900085 -40.408363 -41.851337
21020000000 -23.178791 -72.103294 -1.0143955 -76.461708 -1.0169181 -76.476212 -40.904812 -36.251549
21047500000 -23.298681 -73.154388 -1.008711 -77.024742 -1.0171369 -77.06588 -40.302925 -44.577843
21075000000 -23.005602 -72.563408 -1.0130956 -77.59906 -1.0177721 -77.63662 -40.839958 -46.532757
21102500000 -23.065907 -74.000328 -1.0149134 -78.16098 -1.0164317 -78.195145 -41.173527 -39.209621
21130000000 -23.227787 -74.857346 -1.0134994 -78.713921 -1.0153487 -78.778313 -40.677307 -43.908409
21157500000 -23.100224 -74.463829 -1.0146561 -79.304283 -1.0197045 -79.364685 -40.944782 -52.524292
21185000000 -22.851576 -75.486115 -1.010653 -79.895882 -1.0148973 -79.911942 -41.542442 -44.177784
21212500000 -23.127291 -76.520798 -1.015685 -80.440788 -1.0170804 -80.487274 -41.774803 -46.135967
21240000000 -23.09429 -76.557213 -1.0120057 -81.044807 -1.0169514 -81.063568 -41.188057 -55.069263
21267500000 -22.853008 -77.097252 -1.013672 -81.591331 -1.0162657 -81.637589 -41.565338 -50.643108
21295000000 -22.964876 -78.338821 -1.0172626 -82.169464 -1.0191385 -82.207527 -41.612995 -48.108673
21322500000 -23.073631 -78.539963 -1.0180048 -82.76564 -1.0207145 -82.78334 -41.457561 -56.831406
21350000000 -22.848379 -78.590401 -1.014269 -83.279312 -1.017274 -83.357361 -42.441578 -57.345749
21377500000 -22.829842 -80.323097 -1.0178961 -83.888504 -1.0190665 -83.922096 -42.232948 -53.164879
21405000000 -23.030518 -80.517952 -1.0195669 -84.46489 -1.0211974 -84.503418 -41.026169 -60.15871
21432500000 -22.893953 -79.866486 -1.0195627 -85.020226 -1.019214 -85.064163 -42.452812 -56.657227
21460000000 -22.73699 -81.67025 -1.016396 -85.583206 -1.020629 -85.620926 -42.49852 -52.887207
21487500000 -22.920586 -82.446701 -1.0166587 -86.17392 -1.0187575 -86.230591 -41.728653 -59.301205
21515000000 -22.918674 -81.987915 -1.0193539 -86.741455 -1.020408 -86.783432 -42.70068 -62.866238
21542500000 -22.652102 -82.971672 -1.0162252 -87.294029 -1.0221421 -87.339378 -43.028961 -58.210835
21570000000 -22.900763 -84.090775 -1.0192755 -87.882652 -1.0226672 -87.910622 -43.060833 -60.562462
21597500000 -22.941294 -83.699615 -1.0210574 -88.458885 -1.0245574 -88.504211 -42.480984 -69.445808
21625000000 -22.660532 -84.259445 -1.018186 -88.988464 -1.0225027 -89.05349 -43.997959 -60.825943
21652500000 -22.671726 -86.055244 -1.0163924 -89.599319 -1.0208431 -89.61882 -42.51833 -63.998291
21680000000 -22.938765 -85.718285 -1.0194985 -90.176979 -1.0247763 -90.220024 -42.477909 -66.848412
21707500000 -22.709444 -86.046158 -1.0220163 -90.707329 -1.0223805 -90.776337 -44.384739 -70.756737
21735000000 -22.688591 -87.18988 -1.0205472 -91.271179 -1.0241078 -91.334045 -43.506924 -61.910652
21762500000 -22.872864 -87.657463 -1.0212227 -91.871185 -1.0238879 -91.902214 -43.682774 -64.333412
21790000000 -22.841885 -87.392014 -1.0209965 -92.447746 -1.0244912 -92.462883 -45.266083 -69.159973
21817500000 -22.636799 -88.851372 -1.0190963 -92.983383 -1.0225515 -93.027237 -43.782398 -65.347664
21845000000 -22.838392 -89.762161 -1.0196406 -93.58268 -1.0259111 -93.616608 -43.768505 -69.747185
21872500000 -22.883127 -89.445061 -1.0256407 -94.164482 -1.0231642 -94.191544 -44.738358 -78.167389
21900000000 -22.682814 -90.242882 -1.0191656 -94.723328 -1.0233581 -94.745079 -44.389797 -66.686638
21927500000 -22.746042 -91.391747 -1.0195742 -95.289413 -1.0219327 -95.324326 -43.944168 -72.221535
21955000000 -22.981209 -91.147469 -1.0219681 -95.874054 -1.0250484 -95.901901 -45.6161 -82.98658
21982500000 -22.76343 -91.369057 -1.0178394 -96.406647 -1.0245492 -96.459534 -45.309429 -75.370651
22010000000 -22.697498 -93.050102 -1.017597 -96.988976 -1.0250477 -97.04483 -44.134502 -74.067253
22037500000 -22.977373 -93.057823 -1.0222092 -97.601517 -1.0259976 -97.627487 -45.203552 -84.444618
22065000000 -22.864122 -92.666885 -1.0204712 -98.132568 -1.0218849 -98.188538 -46.21299 -79.510712
22092500000 -22.701565 -93.919456 -1.0231156 -98.729431 -1.0257155 -98.751556 -43.915962 -72.267212
22120000000 -22.883862 -94.751373 -1.0242375 -99.303368 -1.0254896 -99.3423 -44.442928 -84.46711
22147500000 -23.002516 -94.484261 -1.023265 -99.879066 -1.0249025 -99.908775 -46.929497 -91.162636
22175000000 -22.74486 -95.455658 -1.0244575 -100.43941 -1.0286075 -100.44878 -45.233753 -67.641655
22202500000 -22.805042 -96.543823 -1.0247262 -101.03315 -1.0270621 -101.06585 -45.034142 -89.768097
22230000000 -22.988699 -96.160995 -1.0259109 -101.59918 -1.0298961 -101.61576 -46.731968 -103.02166
22257500000 -22.825771 -96.926399 -1.0277815 -102.15089 -1.0286613 -102.15351 -46.874157 -84.146347
22285000000 -22.746498 -98.467224 -1.023267 -102.73621 -1.0293531 -102.77194 -45.473976 -89.158432
22312500000 -22.975866 -98.420822 -1.0213714 -103.29723 -1.0285343 -103.34259 -46.385975 -108.48316
22340000000 -22.90122 -98.225929 -1.0269409 -103.85783 -1.0303763 -103.88174 -48.770885 -88.283241
22367500000 -22.68576 -99.472412 -1.0290654 -104.45293 -1.0284028 -104.47762 -46.45557 -87.273819
22395000000 -23.016033 -100.48287 -1.02596 -105.01586 -1.0296288 -105.08447 -46.476734 -111.10706
22422500000 -22.957533 -99.775703 -1.0288525 -105.58345 -1.0284805 -105.61775 -49.250496 -98.122177
22450000000 -22.748001 -100.63541 -1.0262183 -106.13972 -1.0355589 -106.18671 -46.687958 -85.34362
22477500000 -22.912209 -102.2583 -1.028865 -106.74893 -1.0350385 -106.78289 -45.478504 -107.05898
22505000000 -23.133995 -102.21215 -1.0327995 -107.31113 -1.0373296 -107.34068 -49.632229 -116.66927
22532500000 -22.808546 -102.37584 -1.0327289 -107.87318 -1.0413688 -107.88548 -47.456432 -90.805519
22560000000 -22.885633 -103.56246 -1.0360899 -108.4546 -1.0401254 -108.50754 -44.773037 -108.28303
22587500000 -23.187737 -104.71621 -1.0325516 -109.01792 -1.0407454 -109.05072 -47.37376 -136.28001
22615000000 -22.933956 -103.85923 -1.0429747 -109.58287 -1.0412714 -109.60184 -49.302952 -106.71799
22642500000 -22.850813 -105.25355 -1.0386508 -110.15594 -1.0415988 -110.20916 -45.97361 -112.79539
22670000000 -23.180273 -107.17522 -1.0383217 -110.71542 -1.0443385 -110.73397 -45.403049 -140.14531
22697500000 -23.025822 -106.46509 -1.0405526 -111.26002 -1.0454817 -111.29254 -50.772228 -138.74634
22725000000 -22.917906 -106.64971 -1.0412869 -111.84302 -1.047232 -111.90293 -46.853821 -123.06824
22752500000 -23.094437 -109.02098 -1.040681 -112.4313 -1.0477631 -112.45329 -44.916939 -147.17319
22780000000 -23.124088 -108.96809 -1.0461737 -112.95518 -1.0482241 -113.02378 -48.522232 -164.82977
22807500000 -22.930777 -108.35271 -1.0451014 -113.54933 -1.0481714 -113.58246 -47.711361 -128.81474
22835000000 -23.062492 -110.67957 -1.0449295 -114.13242 -1.0466034 -114.14808 -46.198166 -145.25957
22862500000 -23.229153 -111.59062 -1.0452173 -114.70776 -1.0473338 -114.7177 -46.101498 -178.17055
22890000000 -23.073818 -110.46532 -1.0459833 -115.25898 -1.0499103 -115.28619 -49.473305 -152.90155
22917500000 -23.100565 -112.05621 -1.0453984 -115.83559 -1.051116 -115.85985 -45.948013 -148.24681
22945000000 -23.267626 -114.20421 -1.044405 -116.36121 -1.0476316 -116.40936 -44.449642 178.50754
22972500000 -23.164682 -112.42297 -1.0455768 -116.94324 -1.0526162 -116.96851 -48.588963 178.69353
23000000000 -23.167854 -113.397 -1.0471635 -117.5591 -1.0495628 -117.53597 -46.31876 -160.0994
23027500000 -23.28171 -116.18067 -1.0467349 -118.07249 -1.0486462 -118.13632 -43.97435 -178.41052
23055000000 -23.360653 -114.97211 -1.0502476 -118.6469 -1.0547466 -118.70092 -46.176083 157.33406
23082500000 -23.290562 -115.37744 -1.0503988 -119.20825 -1.0505422 -119.25972 -47.520401 -168.36775
23110000000 -23.398817 -118.62148 -1.0489194 -119.75016 -1.0492089 -119.80156 -43.854988 179.88649
23137500000 -23.452015 -118.06444 -1.0561213 -120.35679 -1.0508238 -120.39801 -44.01899 159.25812
23165000000 -23.418966 -117.03949 -1.046904 -120.94813 -1.0553331 -120.97688 -47.38765 171.29143
23192500000 -23.374081 -120.55104 -1.0528274 -121.50004 -1.0581377 -121.53767 -44.299217 178.0329
23220000000 -23.483004 -120.8335 -1.0514157 -122.0947 -1.0545384 -122.10122 -42.160828 157.00385
23247500000 -23.604567 -119.43201 -1.0507048 -122.63274 -1.0571575 -122.68108 -46.181011 157.55243
23275000000 -23.486498 -122.11967 -1.0569779 -123.21931 -1.0569609 -123.23984 -45.246166 168.79129
23302500000 -23.511242 -123.23843 -1.057954 -123.78703 -1.0530523 -123.79552 -41.726261 151.76189
23330000000 -23.69002 -121.26497 -1.0565816 -124.3521 -1.0601805 -124.38746 -44.24577 142.38274
23357500000 -23.617414 -123.8024 -1.0582651 -124.948 -1.0592151 -124.97346 -44.468533 164.00034
23385000000 -23.514723 -125.90181 -1.0561914 -125.46179 -1.0577579 -125.48396 -41.748005 153.6333
23412500000 -23.845264 -124.49199 -1.0574613 -126.05798 -1.0615424 -126.09123 -42.018627 138.04791
23440000000 -23.834599 -125.71943 -1.057271 -126.61663 -1.0596809 -126.65875 -43.980434 156.78133
23467500000 -23.639231 -128.23032 -1.0610979 -127.20071 -1.0625226 -127.19016 -41.38784 153.45895
23495000000 -23.917376 -127.15891 -1.0609597 -127.77203 -1.0629015 -127.81395 -41.380451 139.82884
23522500000 -24.039059 -127.66494 -1.0604264 -128.34512 -1.0603057 -128.36089 -43.874329 143.29237
23550000000 -23.743244 -129.9599 -1.0654409 -128.89278 -1.0647045 -128.93642 -41.455528 144.32063
23577500000 -23.982191 -130.26553 -1.064598 -129.47044 -1.0641105 -129.50656 -39.782597 137.74159
23605000000 -24.255077 -129.92946 -1.0629524 -130.06764 -1.0629511 -130.06691 -42.726967 134.51706
23632500000 -23.945469 -132.20863 -1.0687624 -130.58949 -1.0720394 -130.63844 -41.836014 139.44965
23660000000 -24.081196 -133.06006 -1.0664103 -131.17538 -1.0670775 -131.19841 -39.747223 140.19292
23687500000 -24.560703 -131.94525 -1.0638151 -131.74034 -1.0710025 -131.75911 -41.095417 127.33844
23715000000 -24.273567 -133.98735 -1.0681857 -132.29021 -1.0656586 -132.34981 -41.537628 131.58186
23742500000 -24.292486 -135.1687 -1.0655434 -132.85887 -1.0691236 -132.84911 -39.657211 137.31046
23770000000 -24.625166 -134.763 -1.0696627 -133.45778 -1.0728195 -133.47435 -40.522858 130.23599
23797500000 -24.605566 -135.56903 -1.0752187 -134.01974 -1.0715232 -134.04025 -41.939606 129.39948
23825000000 -24.415712 -137.28795 -1.0697796 -134.56375 -1.0713682 -134.58751 -39.270145 132.80075
23852500000 -24.894112 -137.54245 -1.0745549 -135.12527 -1.0768796 -135.18912 -38.885174 131.15514
23880000000 -24.976162 -137.9222 -1.0720479 -135.70615 -1.0772631 -135.73618 -41.20377 128.05223
23907500000 -24.648899 -139.33224 -1.0744548 -136.24527 -1.0738887 -136.30916 -39.092983 130.4518
23935000000 -25.059757 -140.26884 -1.0702559 -136.82654 -1.0771244 -136.85614 -38.37632 130.71117
23962500000 -25.246704 -140.15196 -1.0673164 -137.40645 -1.0718333 -137.44838 -40.43198 121.33354
23990000000 -24.922073 -141.10735 -1.071925 -137.95038 -1.0740238 -137.97609 -38.652103 125.25716
24017500000 -25.242397 -142.70529 -1.0753156 -138.52754 -1.0784336 -138.54877 -37.964611 129.08324
24045000000 -25.523581 -142.75528 -1.0745112 -139.10353 -1.0750132 -139.13287 -39.428684 121.40176
24072500000 -25.330431 -142.57669 -1.0771191 -139.67911 -1.0779634 -139.72113 -38.494686 124.58743
24100000000 -25.287125 -144.58057 -1.0745931 -140.20622 -1.078115 -140.24207 -37.575901 121.90764
24127500000 -25.849052 -145.25883 -1.0718999 -140.80048 -1.0788683 -140.80797 -38.260075 123.45835
24155000000 -25.712486 -144.53143 -1.0770925 -141.38002 -1.0775719 -141.41595 -38.566673 120.34839
24182500000 -25.570692 -146.40414 -1.07762 -141.89705 -1.0819257 -141.93884 -36.9128 123.79763
24210000000 -26.059525 -147.8078 -1.0792924 -142.47365 -1.0804957 -142.48938 -37.956482 122.18668
24237500000 -26.11042 -146.86694 -1.0717777 -143.06029 -1.0784551 -143.11923 -38.220097 113.53671
24265000000 -25.879198 -147.28198 -1.0822649 -143.5948 -1.0785524 -143.6319 -36.692932 117.47972
24292500000 -26.207378 -149.8287 -1.0803134 -144.19853 -1.0823529 -144.22011 -36.901817 119.17947
24320000000 -26.49229 -149.40405 -1.0727353 -144.75046 -1.0798905 -144.80609 -37.921597 116.82884
24347500000 -26.265459 -149.13763 -1.0763863 -145.30992 -1.0753123 -145.3463 -36.559597 116.18764
24375000000 -26.441982 -151.34479 -1.0834111 -145.8868 -1.0802855 -145.9646 -36.133881 117.0815
24402500000 -26.854258 -152.43312 -1.0774999 -146.48114 -1.0796595 -146.47847 -37.846249 111.70757
24430000000 -26.676579 -149.79179 -1.0749435 -147.01016 -1.0814822 -147.05522 -36.493172 112.20379
24457500000 -26.659025 -154.13715 -1.0770458 -147.59016 -1.0801079 -147.64249 -35.644123 113.5863
24485000000 -27.130754 -154.74287 -1.0763094 -148.15849 -1.0804422 -148.21851 -36.934975 109.63414
24512500000 -27.180389 -153.25066 -1.0759828 -148.72115 -1.0801551 -148.74199 -36.145561 110.63582
24540000000 -27.065096 -155.0408 -1.0811073 -149.3096 -1.0808854 -149.3412 -34.737083 114.16096
24567500000 -27.362057 -158.02098 -1.080425 -149.8483 -1.080755 -149.92601 -36.397293 106.71398
24595000000 -27.727314 -155.9364 -1.0759008 -150.41835 -1.0813386 -150.48436 -35.942348 105.82471
24622500000 -27.394789 -156.22841 -1.0794963 -150.957 -1.0796518 -151.03601 -34.745155 108.91089
24650000000 -27.650368 -159.85472 -1.0861517 -151.56487 -1.0831121 -151.60364 -35.611397 107.02513
24677500000 -28.11112 -159.50117 -1.0771151 -152.13319 -1.0787621 -152.16064 -36.17931 102.3607
24705000000 -27.890682 -157.7755 -1.0811288 -152.70091 -1.0816687 -152.70795 -34.439724 105.92298
24732500000 -27.922192 -161.69299 -1.0862055 -153.26495 -1.082502 -153.31026 -34.643764 105.70818
24760000000 -28.436962 -162.84537 -1.0777839 -153.8243 -1.0792805 -153.87592 -35.937862 97.108978
24787500000 -28.512194 -160.01181 -1.0776671 -154.37552 -1.0834823 -154.44583 -34.549892 104.29484
24815000000 -28.249559 -163.02896 -1.0834171 -154.97198 -1.081421 -155.03993 -34.169102 105.16146
24842500000 -28.718988 -166.47583 -1.0769582 -155.55399 -1.0807978 -155.57082 -35.618931 94.501747
24870000000 -29.119755 -163.54732 -1.0810568 -156.10393 -1.0797744 -156.11845 -34.849968 103.11921
24897500000 -28.648771 -164.01292 -1.0800565 -156.68796 -1.0823429 -156.73576 -33.650902 103.85292
24925000000 -29.021488 -168.92125 -1.0756806 -157.22504 -1.078125 -157.29727 -35.029133 91.315613
24952500000 -29.612637 -167.84109 -1.0770285 -157.79927 -1.0831776 -157.83762 -34.68412 97.072678
24980000000 -29.371567 -166.38811 -1.082756 -158.37303 -1.0860975 -158.44006 -33.498711 102.00149
25007500000 -29.324871 -171.03618 -1.0809931 -158.96593 -1.0778991 -159.00464 -34.011692 94.209167
25035000000 -29.941616 -172.06276 -1.072322 -159.51122 -1.0802822 -159.52153 -34.788952 91.735954
25062500000 -30.047192 -168.46489 -1.0822755 -160.09413 -1.0802995 -160.12885 -33.154495 100.73606
25090000000 -29.969 -173.40526 -1.0782932 -160.675 -1.0823077 -160.71538 -33.678375 94.346146
25117500000 -30.225393 -178.38005 -1.0766726 -161.21243 -1.0809116 -161.28119 -34.575676 86.930298
25145000000 -30.885319 -174.4993 -1.075345 -161.78778 -1.0809851 -161.82146 -33.570908 98.258446
25172500000 -30.53706 -175.94543 -1.0820955 -162.38965 -1.082518 -162.41681 -33.17086 94.357712
25200000000 -30.601456 178.3858 -1.082574 -162.92555 -1.080344 -162.99138 -33.770859 84.810974
25227500000 -31.556608 179.62338 -1.0718943 -163.49417 -1.0800077 -163.53349 -33.754669 93.62149
25255000000 -31.256441 -178.41618 -1.0797703 -164.08408 -1.0824704 -164.1315 -32.786247 93.479599
25282500000 -31.04777 174.00934 -1.0736725 -164.64883 -1.0835859 -164.69183 -33.338791 82.701408
25310000000 -31.977661 173.28619 -1.0744661 -165.19237 -1.0817342 -165.24789 -33.863045 86.98761
25337500000 -32.348373 177.34244 -1.085427 -165.76268 -1.0791441 -165.85669 -32.761719 93.231438
25365000000 -31.742743 171.47165 -1.0810667 -166.34612 -1.081755 -166.39961 -32.701828 83.447067
25392500000 -32.393673 167.03773 -1.0824319 -166.90836 -1.0811547 -166.94917 -33.561295 83.6987
25420000000 -33.28075 169.70599 -1.0839527 -167.48209 -1.0870334 -167.52994 -32.722363 93.718529
25447500000 -32.218407 167.82706 -1.0794199 -168.06447 -1.0824518 -168.09204 -32.486778 84.274261
25475000000 -32.803726 160.35602 -1.0786625 -168.66592 -1.0807301 -168.67621 -32.82069 79.002464
25502500000 -33.823906 161.94257 -1.0859858 -169.21225 -1.0839696 -169.23984 -32.898354 91.581978
25530000000 -33.286243 163.56175 -1.0868355 -169.80534 -1.0833317 -169.79463 -32.354206 84.23378
25557500000 -33.172157 156.97321 -1.0840254 -170.34401 -1.0800614 -170.37311 -32.517235 77.207039
25585000000 -34.663261 152.00983 -1.0845295 -170.92238 -1.0895123 -170.97911 -32.925507 84.790726
25612500000 -34.409313 156.44353 -1.0802398 -171.46423 -1.0888045 -171.53116 -31.824905 85.529793
25640000000 -33.664108 151.86026 -1.0764358 -172.05038 -1.0828112 -172.09026 -32.168179 75.646622
25667500000 -34.576141 145.15834 -1.0888162 -172.5986 -1.089577 -172.6805 -32.733719 78.738739
25695000000 -35.538574 144.38425 -1.089888 -173.14813 -1.0874925 -173.23662 -31.860298 85.392982
25722500000 -34.662968 145.59416 -1.0807487 -173.74805 -1.0851051 -173.78804 -31.552155 76.596725
25750000000 -34.894611 138.17358 -1.0765078 -174.33217 -1.0904403 -174.36505 -32.110325 76.258072
25777500000 -35.887466 131.46141 -1.0834875 -174.89761 -1.0896215 -174.94734 -32.120285 83.711548
25805000000 -35.740425 139.44489 -1.0828919 -175.51364 -1.0898174 -175.48463 -31.380308 75.776588
25832500000 -35.503029 127.54123 -1.082311 -176.021 -1.0863485 -176.08836 -31.733192 72.551376
25860000000 -36.110241 120.10258 -1.0845584 -176.61443 -1.089692 -176.65211 -32.191513 80.011101
25887500000 -36.518188 124.1191 -1.0898107 -177.13065 -1.0874051 -177.22742 -31.106728 74.241928
25915000000 -36.076069 122.33884 -1.0850937 -177.70726 -1.087432 -177.81749 -30.997488 70.009178
25942500000 -35.379349 110.20778 -1.0919099 -178.34227 -1.0951488 -178.37732 -32.076984 73.973694
25970000000 -36.864098 112.09982 -1.0911638 -178.89471 -1.0934623 -178.92192 -31.035603 75.926834
25997500000 -36.448353 110.32207 -1.0887443 -179.44821 -1.088276 -179.492 -30.867567 68.818565
26025000000 -35.560406 102.17945 -1.0915282 179.98367 -1.0926902 179.92949 -31.658661 71.155121
26052500000 -36.346981 95.608459 -1.0907611 179.40782 -1.0869977 179.37636 -31.383888 73.904694
26080000000 -36.662895 101.5416 -1.0877182 178.86412 -1.0915052 178.81645 -30.391493 67.438919
26107500000 -35.562401 90.838371 -1.0861896 178.27223 -1.090976 178.24329 -31.108088 68.852577
26135000000 -35.385189 87.020897 -1.0917366 177.72131 -1.0935705 177.68611 -31.104923 73.125694
26162500000 -36.589207 84.911942 -1.0930338 177.14381 -1.0956029 177.1416 -30.372021 67.857613
26190000000 -35.366528 87.159981 -1.0881679 176.6105 -1.0900646 176.55847 -30.372742 63.816685
26217500000 -34.506512 77.38636 -1.0798905 176.02054 -1.0954003 175.96071 -31.017582 68.317314
26245000000 -36.144848 75.180435 -1.092875 175.43523 -1.0931809 175.38799 -30.151239 66.328026
26272500000 -35.511642 74.145142 -1.0885977 174.86871 -1.0930821 174.86192 -30.10199 63.166313
26300000000 -34.175854 70.494606 -1.0926416 174.31566 -1.0998538 174.25246 -30.559185 64.487366
26327500000 -35.291786 64.491081 -1.09083 173.69466 -1.0952691 173.66183 -30.431664 64.442299
26355000000 -35.18187 65.629967 -1.092862 173.18446 -1.0945669 173.11879 -30.005091 61.448311
26382500000 -33.490009 63.566883 -1.0943984 172.63351 -1.0950443 172.60132 -30.376116 62.973572
26410000000 -33.926735 56.312859 -1.0921333 171.99713 -1.0936111 171.99403 -30.384043 64.237511
26437500000 -34.211746 55.835804 -1.094455 171.44144 -1.0896674 171.44009 -29.838924 61.170506
26465000000 -33.079609 58.002636 -1.0930105 170.88808 -1.0913135 170.82324 -30.283178 60.058949
26492500000 -33.107578 52.189621 -1.0925703 170.32173 -1.1016922 170.27988 -30.174942 60.706566
26520000000 -33.117809 50.166767 -1.1017506 169.75308 -1.1022698 169.77646 -29.786873 58.205467
26547500000 -32.866779 48.958412 -1.1144035 169.10159 -1.092842 169.19849 -29.426203 58.590755
26575000000 -32.165485 50.174614 -1.0867656 168.58945 -1.0981461 168.55876 -29.988308 58.911346
26602500000 -31.975235 38.986385 -1.088276 168.03291 -1.103458 167.98502 -29.604183 58.836418
26630000000 -31.914206 43.015129 -1.0997277 167.49379 -1.0984558 167.48068 -29.439806 56.736073
26657500000 -31.876076 39.820377 -1.0988102 166.97983 -1.0977918 166.92311 -29.915934 59.413822
26685000000 -31.938112 35.807205 -1.0875963 166.40845 -1.0871241 166.14136 -29.439362 54.938393
26712500000 -31.761892 33.903717 -1.0901815 165.75447 -1.0907863 165.82645 -29.281942 54.666065
26740000000 -30.882816 35.470737 -1.0975415 165.19244 -1.096639 165.17361 -29.046585 56.639
26767500000 -30.453932 31.349052 -1.0861869 164.57809 -1.0884858 164.58301 -29.457508 55.337669
26795000000 -30.505463 30.799761 -1.1087447 164.13634 -1.1079338 163.9702 -28.905449 55.355003
26822500000 -30.50638 32.341686 -1.1023421 163.4543 -1.0973009 163.444 -29.141203 54.450348
26850000000 -30.089266 31.665745 -1.0897436 162.95959 -1.1013052 162.86053 -28.824594 54.411316
26877500000 -29.794279 24.409832 -1.0959101 162.35872 -1.1065997 162.31181 -29.533501 53.556602
26905000000 -29.928139 29.377771 -1.0876065 161.82253 -1.1103806 161.73592 -29.201584 50.507698
26932500000 -29.420319 25.366772 -1.095366 161.20564 -1.1015165 161.13283 -29.056087 52.608288
26960000000 -28.973606 21.441689 -1.0984821 160.74799 -1.0918134 160.57156 -29.162642 52.406303
26987500000 -29.269842 20.898321 -1.103424 160.06128 -1.099635 160.04613 -29.201218 52.457348
27015000000 -28.948 23.235044 -1.1016141 159.58749 -1.090965 159.4874 -28.922474 50.684361
27042500000 -28.598732 17.484882 -1.0895073 158.93353 -1.0949169 158.86952 -28.713743 50.780052
27070000000 -28.610291 16.737301 -1.1085272 158.45424 -1.1000699 158.28267 -28.533335 50.796307
27097500000 -28.384268 19.781446 -1.0962609 157.80981 -1.0976309 157.81889 -28.541122 50.245575
27125000000 -28.112909 17.931044 -1.0939162 157.15956 -1.1089499 157.19984 -28.410286 50.280472
27152500000 -28.040728 14.781875 -1.0954709 156.7392 -1.0978371 156.53824 -28.673592 48.273495
27180000000 -28.008368 15.985317 -1.100975 156.07121 -1.0879914 156.05067 -28.669886 49.868961
27207500000 -27.610855 13.544961 -1.1020012 155.48842 -1.1000392 155.45764 -28.174212 49.059837
27235000000 -27.569845 12.079632 -1.1100528 154.96548 -1.095808 154.90167 -28.647667 45.946365
27262500000 -27.668707 12.084223 -1.1026942 154.38982 -1.1105987 154.33609 -28.638828 48.465794
27290000000 -27.013334 12.081908 -1.1220508 153.79662 -1.1015115 153.80719 -28.460762 47.1194
27317500000 -26.758795 10.758458 -1.111616 153.20508 -1.1024259 153.17459 -27.944427 44.003056
27345000000 -26.911728 8.151269 -1.0944204 152.80048 -1.111488 152.59389 -28.400887 45.970039
27372500000 -26.911613 7.8846354 -1.0937723 152.14836 -1.1116177 152.06516 -27.98675 47.729923
27400000000 -26.677734 8.3205099 -1.0957824 151.57555 -1.0978721 151.49231 -27.901983 41.805256
27427500000 -26.652447 5.0610657 -1.1073145 150.93669 -1.1062156 150.90132 -28.487448 42.184784
27455000000 -25.997316 5.0451288 -1.111282 150.40459 -1.1209552 150.43047 -28.260422 46.028824
27482500000 -26.150633 4.4345222 -1.1092416 149.87959 -1.1069593 149.7928 -28.234728 41.168266
27510000000 -25.939037 1.3519558 -1.1235137 149.25035 -1.0976721 149.16425 -28.413397 40.789719
27537500000 -26.055639 1.4613839 -1.1153013 148.74423 -1.1179672 148.70259 -28.159679 42.795204
27565000000 -25.741333 3.4720569 -1.0905135 148.12305 -1.0996073 148.10431 -27.72682 41.246685
27592500000 -25.701265 -1.4163365 -1.102272 147.67754 -1.0987848 147.5556 -27.971189 37.622036
27620000000 -25.511158 -1.3465149 -1.0978938 147.06073 -1.102892 147.01262 -28.112238 43.159885
27647500000 -25.526091 -0.46588165 -1.113784 146.50481 -1.0968586 146.42096 -28.079195 42.355267
27675000000 -25.419113 -3.5092971 -1.116207 145.87662 -1.1073238 145.90059 -28.048136 35.325764
27702500000 -25.504105 -5.4703593 -1.1188253 145.33052 -1.0956395 145.28357 -28.240602 39.872143
27730000000 -25.296919 -3.3772507 -1.1090785 144.74986 -1.110638 144.69069 -27.541485 39.740498
27757500000 -25.170946 -5.3837628 -1.0967244 144.22435 -1.1008583 144.25502 -27.845078 36.159321
27785000000 -24.88175 -6.5573382 -1.1123774 143.68257 -1.1045505 143.53894 -28.081295 38.460972
27812500000 -24.930765 -5.7590547 -1.1124771 143.04427 -1.1127928 143.02516 -28.004644 38.736961
27840000000 -24.514673 -6.3156743 -1.0852419 142.47136 -1.1126637 142.47751 -27.58493 35.223419
27867500000 -24.540123 -9.1581249 -1.090063 141.94261 -1.1142339 141.85817 -27.976151 35.748238
27895000000 -24.582846 -8.0711784 -1.1102126 141.23705 -1.10367 141.22769 -27.891005 36.112015
27922500000 -24.081842 -8.5654545 -1.1022604 140.74503 -1.1189291 140.71454 -27.541464 38.401546
27950000000 -24.148483 -11.021388 -1.1012245 140.1899 -1.0943844 140.12497 -27.625257 34.870258
27977500000 -24.179016 -10.973091 -1.0955919 139.56648 -1.1055899 139.5583 -28.332413 37.967514
28005000000 -23.940403 -10.699492 -1.1054837 139.02403 -1.1007962 138.97018 -27.36405 37.210926
28032500000 -23.732183 -13.006643 -1.1075028 138.44447 -1.102864 138.41956 -27.48173 32.263969
28060000000 -23.719482 -14.405545 -1.1202506 137.78081 -1.1111797 137.86588 -28.343893 34.000984
28087500000 -23.8771 -12.654922 -1.0988475 137.25049 -1.1064073 137.22093 -27.504889 32.495659
28115000000 -23.522554 -14.317201 -1.1089542 136.7919 -1.0985258 136.75081 -27.167747 32.857365
28142500000 -23.49658 -16.07667 -1.1110085 136.26433 -1.1054022 136.16008 -27.591619 29.381496
28170000000 -23.826593 -16.738752 -1.1223153 135.62421 -1.105706 135.48604 -27.580999 35.627064
28197500000 -23.266769 -15.455554 -1.1138555 135.02592 -1.1042377 134.99402 -27.075768 32.7584
28225000000 -22.9554 -18.410303 -1.0975028 134.36838 -1.1085613 134.35666 -27.959028 31.380096
28252500000 -23.308662 -18.826508 -1.1043215 133.91176 -1.1292425 133.76741 -27.793564 31.225973
28280000000 -23.203499 -17.355795 -1.1120069 133.24883 -1.1125352 133.37999 -27.359594 31.24552
28307500000 -22.539047 -19.882359 -1.1037017 132.77425 -1.1171825 132.62624 -27.259207 26.594816
28335000000 -23.13011 -19.733807 -1.1164647 132.12228 -1.1065085 132.10231 -27.819771 28.152111
28362500000 -22.806082 -19.154791 -1.1213433 131.51123 -1.1118143 131.61589 -27.416887 30.753525
28390000000 -22.497677 -21.75424 -1.1112425 131.02956 -1.1129781 131.04021 -27.314367 26.305454
28417500000 -22.62604 -23.031677 -1.1196728 130.45662 -1.1289891 130.31673 -27.462837 24.346663
28445000000 -22.61832 -21.32016 -1.1257738 129.91774 -1.1121299 129.78441 -27.541399 26.96978
28472500000 -22.429909 -23.733995 -1.1291499 129.39909 -1.119254 129.32474 -27.094955 26.265764
28500000000 -22.416506 -24.928688 -1.1217428 128.73718 -1.1327819 128.79707 -27.263315 24.102682
28527500000 -22.584696 -25.742081 -1.1284181 128.14418 -1.124941 128.10747 -27.405987 23.498846
28555000000 -22.068005 -25.291323 -1.1238664 127.6343 -1.1311103 127.5864 -26.900129 22.41493
28582500000 -21.764418 -27.248474 -1.1161239 127.14269 -1.1108466 127.08617 -27.124996 20.896849
28610000000 -22.379606 -29.382357 -1.1087588 126.50751 -1.1303251 126.45876 -27.642759 23.734701
28637500000 -22.01333 -28.596252 -1.1239493 125.95894 -1.1262952 126.01964 -27.047562 20.685738
28665000000 -21.807491 -28.334322 -1.0983211 125.39806 -1.1205864 125.45403 -27.485212 17.238552
28692500000 -21.910006 -31.100887 -1.1261529 124.75233 -1.1163409 124.74089 -27.874697 21.262346
28720000000 -22.102118 -31.221935 -1.1224313 124.24718 -1.1189525 124.25832 -27.341618 19.207396
28747500000 -21.62587 -30.334278 -1.1275052 123.58891 -1.096719 123.60477 -27.40004 18.494879
28775000000 -21.855705 -31.54723 -1.1169434 123.14127 -1.1138957 123.08131 -27.772247 15.576762
28802500000 -21.792694 -32.84288 -1.1202633 122.5546 -1.1267081 122.60674 -27.924374 18.378073
28830000000 -21.691809 -31.015036 -1.1357343 122.05949 -1.1245167 121.9021 -27.286676 16.159142
28857500000 -21.684578 -34.75124 -1.1112192 121.43806 -1.1209247 121.41563 -27.886501 12.299735
28885000000 -21.802366 -33.711445 -1.1137023 120.86773 -1.13245 120.79918 -28.023623 17.403713
28912500000 -21.53997 -34.302879 -1.1102593 120.20584 -1.1345372 120.20512 -27.44721 18.487322
28940000000 -21.383945 -35.162804 -1.1165297 119.71043 -1.1150731 119.63537 -27.602921 16.830816
28967500000 -21.405138 -36.363117 -1.1167392 119.14729 -1.121027 119.06778 -27.353298 14.513987
28995000000 -21.457706 -35.480881 -1.1241997 118.6651 -1.1302854 118.53384 -27.218437 14.260847
29022500000 -21.063192 -36.668819 -1.1141938 117.92709 -1.1108553 117.90718 -27.569479 11.938245
29050000000 -21.330381 -37.381496 -1.1093926 117.37939 -1.1131068 117.34647 -27.092028 11.023357
29077500000 -21.291103 -38.931366 -1.123165 116.88801 -1.1117541 116.87213 -27.344614 14.15849
29105000000 -20.992907 -37.049572 -1.1102663 116.20588 -1.1094619 116.21936 -27.63439 13.820823
29132500000 -21.134108 -39.994473 -1.1110754 115.64558 -1.124673 115.67345 -27.516609 13.649777
29160000000 -21.117575 -39.755402 -1.1151762 115.09276 -1.1151226 115.11643 -27.331291 15.834497
29187500000 -20.994499 -38.623039 -1.1203146 114.47205 -1.1208366 114.53566 -27.270721 12.66853
29215000000 -20.920416 -39.917332 -1.099427 113.90715 -1.1318654 113.90002 -27.319197 11.005176
29242500000 -20.851683 -42.784874 -1.1169384 113.44781 -1.1203223 113.42957 -26.95385 8.7927771
29270000000 -20.816193 -41.639503 -1.114967 112.89128 -1.1125276 112.74906 -27.257704 8.0130615
29297500000 -20.906612 -43.652409 -1.1037023 112.19074 -1.1231909 112.12595 -27.168303 8.9901934
29325000000 -20.589453 -43.133072 -1.1278592 111.74876 -1.1272551 111.60729 -27.23826 10.378575
29352500000 -20.771791 -44.238216 -1.1133845 111.10648 -1.1234846 111.05012 -27.606173 7.7076221
29380000000 -20.66626 -44.1021 -1.1159937 110.54826 -1.1075028 110.40829 -27.149693 9.0042553
29407500000 -20.566444 -44.960724 -1.132116 109.97284 -1.116237 109.98996 -27.246563 7.4606276
29435000000 -20.517227 -45.614117 -1.127087 109.39022 -1.1258261 109.36094 -26.958548 7.7064233
29462500000 -20.642349 -45.711205 -1.1217324 108.78522 -1.1209482 108.68224 -27.351063 5.2263474
29490000000 -20.41601 -47.032825 -1.1138027 108.2784 -1.1364872 108.29546 -27.313574 7.4469461
29517500000 -20.425987 -47.970329 -1.1094809 107.67369 -1.1301578 107.60962 -27.052246 7.9066167
29545000000 -20.390137 -47.432297 -1.1063185 107.10205 -1.1097275 107.03938 -27.597963 4.7439981
29572500000 -20.450527 -49.079319 -1.1155185 106.68109 -1.1242343 106.4945 -27.436951 4.3505263
29600000000 -20.206863 -49.417072 -1.1255193 106.03098 -1.1198068 105.96458 -26.998756 6.5731568
29627500000 -20.338947 -48.730556 -1.1098535 105.3977 -1.1196741 105.44429 -27.074921 5.2673826
29655000000 -20.281069 -50.420052 -1.1189984 104.88554 -1.1397091 104.73537 -27.236727 1.9704057
29682500000 -20.188116 -51.651939 -1.1355208 104.22869 -1.1232871 104.2167 -27.123985 4.4755974
29710000000 -20.208181 -51.043358 -1.1310538 103.71014 -1.1073178 103.67736 -26.814192 1.7404948
29737500000 -20.285778 -52.4249 -1.1198161 103.03868 -1.1331558 102.99946 -27.58275 -0.85580099
29765000000 -20.073479 -52.172035 -1.1335763 102.50449 -1.1232187 102.44061 -26.87537 4.3886418
29792500000 -20.073746 -53.710072 -1.1251419 101.96739 -1.1187221 101.92421 -26.850546 3.7461834
29820000000 -20.059526 -54.466869 -1.1250573 101.36897 -1.1267821 101.3728 -27.215399 0.2690275
29847500000 -19.848419 -55.157444 -1.1084636 100.83956 -1.1383729 100.83842 -27.32025 0.61072445
29875000000 -20.141115 -55.990044 -1.1356819 100.32989 -1.1338798 100.26067 -26.980417 5.1621051
29902500000 -20.104527 -54.961269 -1.1090655 99.72451 -1.1100892 99.559456 -27.275301 -1.3797984
29930000000 -19.914293 -56.493855 -1.1275917 99.212151 -1.1288226 99.121574 -27.446278 1.5714186
29957500000 -19.919649 -56.773926 -1.1447142 98.6269 -1.1496595 98.539642 -27.180929 1.3132625
29985000000 -20.044533 -58.25713 -1.1260003 97.945778 -1.1281968 98.070709 -27.033689 -3.3891425
30012500000 -19.912432 -59.214283 -1.1255084 97.406967 -1.1209828 97.37928 -27.557768 -4.0338621
30040000000 -19.636396 -58.495716 -1.1418369 96.859085 -1.1458229 96.942795 -27.036678 1.9198544
30067500000 -19.909153 -59.59864 -1.1269729 96.287125 -1.1177551 96.188904 -27.267702 -1.7998003
30095000000 -19.967863 -60.412609 -1.1313689 95.683517 -1.117087 95.661346 -27.58046 -2.9916971
30122500000 -19.763712 -61.059883 -1.1317508 95.126137 -1.1339308 95.124542 -27.564341 1.657024
30150000000 -19.724489 -61.980698 -1.1322665 94.732178 -1.1341388 94.592033 -27.516872 -1.7179018
30177500000 -19.770521 -61.969986 -1.1322843 94.049194 -1.1397202 93.942696 -27.493191 -8.0465555
30205000000 -19.580624 -63.548653 -1.1378736 93.462563 -1.1382521 93.379288 -27.146252 -2.573113
30232500000 -19.561571 -62.009075 -1.1317743 92.989861 -1.1321788 92.834953 -27.427612 -3.5816791
30260000000 -19.918859 -62.702427 -1.1269478 92.289246 -1.1116608 92.313332 -28.114515 -7.0701842
30287500000 -19.47772 -65.169479 -1.1292143 91.648743 -1.1427201 91.713982 -27.851717 -3.2697401
30315000000 -19.553789 -65.478691 -1.1412103 91.07518 -1.1533604 91.193054 -27.794689 -4.381649
30342500000 -19.583088 -66.018219 -1.1319971 90.621124 -1.1357249 90.59893 -27.773512 -11.070848
30370000000 -19.523077 -68.383865 -1.1447541 90.052711 -1.1304537 89.997726 -27.66246 -7.8507724
30397500000 -19.634315 -67.488708 -1.1375335 89.398903 -1.157629 89.310272 -27.875372 -2.9915633
30425000000 -19.63843 -66.905914 -1.1386033 88.804482 -1.131032 89.020836 -27.634993 -8.6475468
30452500000 -19.395927 -68.584282 -1.1101183 88.256592 -1.1279206 88.381607 -27.706799 -9.8955717
30480000000 -19.334181 -68.449684 -1.1380314 87.84333 -1.1230488 87.729546 -28.06872 -3.6665263
30507500000 -19.674276 -69.575348 -1.1416739 87.086945 -1.1626099 87.184616 -27.754332 -6.4919701
30535000000 -19.694281 -71.47332 -1.1255014 86.717125 -1.1237652 86.496956 -27.702938 -9.6954784
30562500000 -19.399252 -70.914734 -1.1384543 86.164291 -1.1478701 85.947075 -28.15646 -4.9205608
30590000000 -19.559551 -70.804543 -1.1390475 85.451668 -1.1511284 85.373833 -28.080137 -6.1739902
30617500000 -19.729006 -72.356155 -1.1190236 84.947586 -1.1311623 84.94635 -28.082138 -11.653607
30645000000 -19.441729 -72.898453 -1.1199954 84.294586 -1.1388015 84.284607 -28.658789 -8.1145458
30672500000 -19.398094 -72.834816 -1.1360726 83.742661 -1.1505848 83.678513 -28.46102 -9.8583822
30700000000 -19.633623 -74.943626 -1.1474463 83.185104 -1.1501833 83.172905 -27.975885 -12.750555
30727500000 -19.660269 -74.090218 -1.1376628 82.637657 -1.143205 82.506233 -28.976324 -9.03512
30755000000 -19.233423 -74.92524 -1.1432914 82.007935 -1.1322349 82.003174 -28.24877 -8.3169641
30782500000 -19.850353 -76.4244 -1.1450465 81.510536 -1.1464545 81.456223 -28.103544 -12.663721
30810000000 -19.36643 -76.067253 -1.134434 80.90757 -1.1563041 80.972359 -28.208008 -15.56302
30837500000 -19.420942 -76.978935 -1.1632107 80.347954 -1.1266303 80.301346 -28.953182 -12.639653
30865000000 -19.577444 -78.488396 -1.1535075 79.814041 -1.1570359 79.781326 -28.472492 -13.10568
30892500000 -19.765779 -78.07589 -1.1407949 79.15258 -1.13984 79.1875 -28.419701 -16.433144
30920000000 -19.498653 -79.71402 -1.1551976 78.648575 -1.1391428 78.627213 -29.079199 -11.275716
30947500000 -19.730145 -79.903152 -1.1591479 78.002541 -1.1453346 77.98851 -29.091759 -8.1036968
30975000000 -19.698267 -80.0392 -1.1651342 77.516609 -1.1477166 77.550117 -28.006197 -19.292801
31002500000 -19.443621 -80.228333 -1.1454927 76.833824 -1.1639001 76.866783 -29.601543 -13.358659
31030000000 -19.569263 -80.804207 -1.144346 76.326797 -1.1384028 76.233139 -29.436249 -10.372483
31057500000 -19.850996 -83.749298 -1.1425959 75.718674 -1.136611 75.847404 -29.035099 -17.218649
31085000000 -19.394688 -81.680794 -1.1294477 75.310982 -1.1516659 75.154427 -29.057529 -17.864412
31112500000 -19.644541 -81.777359 -1.1390276 74.712372 -1.1490878 74.664925 -29.259922 -11.772338
31140000000 -19.770491 -83.543205 -1.1539418 74.016479 -1.1463851 74.148453 -28.492613 -18.93717
31167500000 -19.603903 -84.313622 -1.1536446 73.408287 -1.1394742 73.591354 -28.763868 -20.193951
31195000000 -19.603149 -83.226662 -1.1310048 72.816589 -1.1339073 72.922234 -29.899179 -17.423931
31222500000 -19.88105 -85.840279 -1.1472858 72.407753 -1.136796 72.337654 -29.288368 -15.663682
31250000000 -19.749029 -86.535774 -1.1429878 71.895729 -1.1452059 71.744759 -29.472141 -23.730566
31277500000 -19.744122 -83.881401 -1.1347358 71.203331 -1.1490284 71.223183 -30.613018 -18.464596
31305000000 -19.817184 -86.724304 -1.1343668 70.613655 -1.1535757 70.61319 -29.049423 -21.24004
31332500000 -19.90177 -88.884064 -1.1372235 69.978638 -1.1405121 70.079834 -28.993877 -20.021851
31360000000 -19.926256 -87.610146 -1.1464795 69.516815 -1.1593568 69.637009 -29.554647 -13.946241
31387500000 -19.808268 -88.343079 -1.1250265 68.99379 -1.1524013 68.941391 -29.63282 -19.321472
31415000000 -20.16534 -90.643295 -1.1497462 68.3284 -1.1476567 68.240028 -28.925449 -16.867186
31442500000 -19.830149 -88.512848 -1.1349409 67.87764 -1.1387689 67.87571 -30.05505 -21.498505
31470000000 -19.959131 -89.371483 -1.1191766 67.270828 -1.1370445 67.164101 -30.142948 -16.853075
31497500000 -20.061098 -92.351334 -1.1439209 66.723946 -1.1326472 66.613022 -29.973356 -20.855434
31525000000 -19.935575 -91.849823 -1.1584411 66.260292 -1.1378349 66.060593 -29.563572 -18.784172
31552500000 -20.007038 -90.137001 -1.1277716 65.628357 -1.1455176 65.452927 -30.691381 -20.931673
31580000000 -20.042402 -94.257492 -1.1561123 65.025475 -1.1501418 64.976486 -29.673862 -19.571878
31607500000 -19.976004 -93.533524 -1.1450771 64.38372 -1.136375 64.336426 -30.307461 -20.483063
31635000000 -20.050978 -93.368126 -1.1580271 63.867664 -1.1595874 63.808128 -30.750349 -21.363695
31662500000 -20.151812 -95.584969 -1.1367573 63.134129 -1.1418864 63.190746 -30.271282 -22.409828
31690000000 -20.156582 -97.866203 -1.1378373 62.689484 -1.1564937 62.683285 -30.330648 -22.043608
31717500000 -20.316181 -93.886688 -1.142814 62.16304 -1.1537284 62.135624 -31.146704 -23.450998
31745000000 -20.384808 -97.140282 -1.1317784 61.539185 -1.150385 61.366642 -30.920372 -23.427067
31772500000 -20.245451 -99.184853 -1.1376809 60.897968 -1.1269095 60.91209 -30.441578 -23.257017
31800000000 -20.658417 -97.220154 -1.1505092 60.427544 -1.1335894 60.388744 -31.278252 -23.665447
31827500000 -20.77277 -97.373962 -1.1472443 59.882885 -1.164342 59.736557 -31.7764 -23.726332
31855000000 -20.125175 -101.13815 -1.1411769 59.307674 -1.1557059 59.185726 -30.759941 -23.442446
31882500000 -20.534225 -100.04205 -1.154586 58.679516 -1.1487262 58.701679 -31.738882 -21.468887
31910000000 -20.807714 -98.569313 -1.1324903 58.112034 -1.159798 58.088341 -32.158867 -24.3074
31937500000 -20.580326 -102.27093 -1.156135 57.536167 -1.1517863 57.592121 -31.213671 -21.479513
31965000000 -20.985207 -102.10165 -1.1356422 57.027985 -1.1376231 56.861416 -31.331091 -21.917974
31992500000 -20.899836 -101.77901 -1.1479709 56.301182 -1.185524 56.366352 -31.616751 -21.502495
32020000000 -20.615932 -103.41777 -1.1433597 55.827366 -1.1724743 55.861553 -31.561346 -21.640945
32047500000 -20.672857 -104.324 -1.1549456 55.334263 -1.1572052 55.1605 -31.029633 -20.279434
32075000000 -21.378918 -105.00598 -1.1588904 54.635426 -1.1347325 54.732128 -33.192768 -20.083717
32102500000 -20.826027 -104.76809 -1.1430849 54.157646 -1.1538377 54.067062 -31.716475 -18.047384
32130000000 -20.620277 -105.33397 -1.150964 53.546085 -1.1818714 53.480659 -31.795116 -22.569643
32157500000 -21.236067 -107.92313 -1.15843 52.943142 -1.1795918 52.881683 -32.302296 -19.151636
32185000000 -21.048109 -109.17294 -1.1488409 52.390553 -1.1521286 52.308331 -32.474323 -12.229058
32212500000 -20.967659 -107.94711 -1.1628988 51.984631 -1.1641746 51.895157 -32.8573 -18.54888
32240000000 -21.280643 -108.29846 -1.1800772 51.14402 -1.1618092 51.199268 -33.934025 -24.613007
32267500000 -21.414759 -110.20377 -1.1757921 50.684933 -1.1591784 50.696339 -32.750889 -18.336372
32295000000 -21.056286 -109.298 -1.1468229 50.149685 -1.1661749 50.167648 -32.768253 -16.764175
32322500000 -21.37937 -109.48389 -1.1550932 49.446411 -1.1673527 49.508282 -33.8974 -15.378497
32350000000 -21.603161 -111.54543 -1.1467632 49.098732 -1.1403744 49.018955 -33.745941 -14.702298
32377500000 -21.447975 -111.06997 -1.1583709 48.280003 -1.1527743 48.361042 -32.681103 -16.631165
32405000000 -21.461115 -112.27477 -1.1487384 47.909065 -1.1569715 47.806164 -33.85421 -15.093612
32432500000 -21.852518 -112.86385 -1.1594075 47.268658 -1.155533 47.126743 -35.037514 -8.8831482
32460000000 -21.848051 -114.15182 -1.1558021 46.676483 -1.1719965 46.697849 -34.030407 -9.0071077
32487500000 -21.763697 -113.02827 -1.1477864 46.139202 -1.1614994 46.148682 -34.79253 -18.656382
32515000000 -22.033951 -116.14689 -1.1468071 45.491371 -1.1789112 45.481083 -35.53688 -6.6716514
32542500000 -21.909113 -114.79705 -1.1577865 44.926853 -1.1712259 44.852753 -34.701836 -12.000747
32570000000 -22.108543 -114.56892 -1.1704521 44.581615 -1.1804644 44.412457 -34.370197 -7.430994
32597500000 -22.059669 -118.392 -1.1661505 43.737293 -1.1696947 43.974541 -35.182423 -5.9937263
32625000000 -22.089924 -119.48509 -1.160127 43.261436 -1.1674871 43.23671 -34.00835 -3.5109949
32652500000 -22.255402 -116.90623 -1.1483728 42.721294 -1.1768117 42.667999 -35.086857 -20.557152
32680000000 -22.324059 -119.44813 -1.1532604 42.263809 -1.1720284 42.103626 -35.939392 -13.067933
32707500000 -22.577562 -121.42281 -1.1641587 41.651188 -1.1554215 41.42667 -35.353661 -6.2304444
32735000000 -22.456545 -117.80054 -1.1759367 41.099499 -1.182322 40.993107 -33.495491 -10.091597
32762500000 -22.215355 -121.53013 -1.160995 40.391975 -1.1780382 40.356895 -34.382614 -8.7414293
32790000000 -22.561142 -122.74492 -1.1550239 39.876236 -1.1709036 39.79319 -37.402813 -0.6889025
32817500000 -22.602322 -121.09908 -1.1518204 39.26968 -1.1729609 39.210003 -34.719719 -3.3836777
32845000000 -22.817604 -122.05218 -1.1673615 38.68848 -1.1679623 38.662403 -34.763119 -5.1765099
32872500000 -22.90469 -123.40014 -1.145771 38.138462 -1.1755359 38.267742 -36.515915 2.0699732
32900000000 -23.14456 -123.25992 -1.1714134 37.547874 -1.1559802 37.526562 -34.711143 -7.5408783
32927500000 -23.374935 -123.71556 -1.180475 37.091663 -1.1800714 37.090069 -34.671154 -2.753531
32955000000 -23.011309 -127.65704 -1.1587247 36.462269 -1.164776 36.38694 -36.526829 -8.744935
32982500000 -23.44132 -125.70486 -1.1770252 35.847183 -1.1564811 35.697845 -35.766262 6.029736
33010000000 -23.333113 -124.04381 -1.1859995 35.335148 -1.160823 35.205063 -35.322021 6.870822
33037500000 -23.284063 -126.5961 -1.1722509 34.688774 -1.1700963 34.791668 -36.683056 13.113643
33065000000 -23.44162 -127.46402 -1.1619719 34.193466 -1.1962091 34.102886 -36.423634 5.5449595
33092500000 -23.8738 -124.63895 -1.1503533 33.65625 -1.1943297 33.475525 -36.266975 -4.3404369
33120000000 -23.864151 -128.83832 -1.1701905 33.010105 -1.1925161 32.978634 -36.203854 3.6924989
33147500000 -23.615818 -133.22185 -1.1660459 32.517654 -1.1624025 32.443321 -37.103466 13.897081
33175000000 -24.367456 -128.02159 -1.1920921 31.867273 -1.1711595 31.957342 -36.365421 2.1459849
33202500000 -24.376701 -132.0256 -1.1808826 31.36495 -1.1755133 31.30751 -36.526142 9.2379742
33230000000 -24.184471 -132.08685 -1.1539609 30.770611 -1.1764247 30.698378 -37.573006 16.351248
33257500000 -24.625864 -129.08008 -1.1761243 30.165384 -1.1619716 30.137766 -37.161484 6.7469792
33285000000 -24.743805 -131.52765 -1.1691661 29.562244 -1.1799634 29.532181 -37.16608 3.6626582
33312500000 -24.554352 -133.82732 -1.1909827 28.830008 -1.1771908 29.099947 -38.234703 12.836129
33340000000 -24.937531 -134.31517 -1.1372322 28.437279 -1.1792521 28.309319 -36.506611 8.635005
33367500000 -25.190266 -135.77827 -1.1880323 27.892355 -1.17906 27.870705 -35.855564 12.623745
33395000000 -24.819689 -136.31894 -1.1810892 27.284597 -1.1674001 27.221106 -37.063831 11.891697
33422500000 -25.59656 -138.12971 -1.1724288 26.816994 -1.1728026 26.73695 -35.706558 21.058018
33450000000 -25.533602 -137.24644 -1.157876 26.152212 -1.1909627 26.196636 -36.357883 37.932259
33477500000 -25.540035 -137.56166 -1.1579652 25.69346 -1.1936598 25.524683 -37.903343 22.658798
33505000000 -25.953497 -138.73341 -1.1637207 25.093227 -1.1953301 25.129602 -36.771194 25.712433
33532500000 -26.186842 -137.47702 -1.1897706 24.471312 -1.1813542 24.410398 -36.863266 27.061029
33560000000 -26.017578 -135.67242 -1.1738153 23.858982 -1.171648 23.879965 -37.022034 26.50292
33587500000 -26.634811 -139.94579 -1.1797001 23.50543 -1.1890312 23.405407 -37.357189 25.063841
33615000000 -26.633873 -142.70302 -1.1708561 22.771481 -1.1770296 22.755028 -35.854778 30.50465
33642500000 -26.688515 -140.94804 -1.186821 22.266249 -1.1649259 22.082212 -38.18494 22.889233
33670000000 -26.640236 -140.00281 -1.1847636 21.703556 -1.1824179 21.561043 -37.827488 34.834404
33697500000 -28.162073 -146.657 -1.1866975 20.937654 -1.1724123 20.904226 -35.276855 28.809704
33725000000 -27.020731 -140.55725 -1.1669432 20.460081 -1.1924429 20.471022 -36.578293 34.18372
33752500000 -27.495007 -142.98288 -1.1857009 19.872169 -1.2011467 19.848778 -35.585934 29.78665
33780000000 -27.166313 -148.06601 -1.1667827 19.177366 -1.1942061 19.378349 -35.917831 35.686031
33807500000 -28.386213 -144.78815 -1.1987457 18.800928 -1.1823519 18.651133 -35.851479 42.790062
33835000000 -27.964998 -142.49266 -1.1846775 18.139685 -1.195112 18.078991 -35.950481 27.711275
33862500000 -27.661421 -148.54375 -1.1853904 17.63781 -1.1916622 17.687584 -34.71011 31.837059
33890000000 -28.526749 -148.09126 -1.1837238 17.154154 -1.1846119 17.124975 -34.668587 28.138903
33917500000 -28.798794 -144.92078 -1.1626674 16.518883 -1.1960256 16.470434 -35.853699 29.828041
33945000000 -28.670885 -151.3484 -1.1812805 15.809528 -1.1544756 15.820709 -34.753807 32.43972
33972500000 -29.365377 -150.47665 -1.1613816 15.474397 -1.2033491 15.309294 -34.00716 35.483223
34000000000 -29.344292 -147.14017 -1.1916178 14.937549 -1.1573837 14.749814 -34.844566 28.154276
34027500000 -28.74144 -149.38667 -1.208271 14.195557 -1.1996355 14.067605 -34.436714 33.556385
34055000000 -29.793732 -154.91119 -1.1792277 13.597886 -1.1595458 13.574422 -33.654987 44.314732
34082500000 -29.970879 -149.52084 -1.1728907 13.087229 -1.1816916 12.966676 -34.522617 33.939205
34110000000 -30.279144 -151.26743 -1.1774892 12.603189 -1.160965 12.523056 -32.986794 54.025826
34137500000 -31.297834 -163.63937 -1.188664 11.988305 -1.1709734 11.900079 -34.347233 39.361755
34165000000 -32.167873 -155.64229 -1.1765805 11.291005 -1.1640341 11.430933 -34.230034 40.697578
34192500000 -30.955988 -158.50348 -1.1592878 10.673525 -1.1793476 10.740989 -34.103168 46.639057
34220000000 -30.632057 -161.5177 -1.1807828 10.357312 -1.1963618 10.102472 -32.295723 52.025597
34247500000 -31.955956 -161.55249 -1.1805052 9.5817556 -1.1947221 9.4587402 -34.109032 45.699539
34275000000 -32.617493 -152.11916 -1.1764315 9.069603 -1.1653346 9.1022682 -33.811359 38.688782
34302500000 -31.866184 -170.10448 -1.1590323 8.5110264 -1.1840781 8.4134474 -31.875961 49.549442
34330000000 -33.075832 -169.64923 -1.1941427 8.0023756 -1.1916666 7.6083374 -32.499706 46.046078
34357500000 -34.133911 -162.62589 -1.1947402 7.370615 -1.1664884 7.3678942 -31.878361 45.15324
34385000000 -33.290855 -174.7505 -1.1908754 6.7325745 -1.1684004 6.700171 -31.041039 50.315685
34412500000 -32.640717 178.10405 -1.1959748 6.1890316 -1.2068257 6.2488432 -31.675762 46.752708
34440000000 -35.703415 172.24942 -1.1762112 5.6532369 -1.1810344 5.567534 -32.521702 41.220352
34467500000 -34.929104 177.74936 -1.1934993 5.0012441 -1.1964613 5.0469604 -31.420382 50.226856
34495000000 -35.241634 171.50298 -1.1939201 4.4503541 -1.188308 4.4552345 -30.899424 45.687706
34522500000 -36.393333 164.381 -1.1937007 3.8347499 -1.184176 3.8437984 -31.221281 43.745144
34550000000 -38.89756 173.63881 -1.1715103 3.5809391 -1.1861124 3.2182078 -31.234005 54.708282
34577500000 -35.535908 156.74586 -1.1909803 2.7986813 -1.179854 2.6660948 -30.162775 48.85704
34605000000 -35.015232 147.36197 -1.1915201 2.1464026 -1.1816849 2.1303084 -31.174427 40.16555
34632500000 -39.187511 166.86678 -1.1922177 1.421571 -1.182618 1.4448631 -30.267624 51.383049
34660000000 -37.785503 147.5457 -1.2092117 1.0990821 -1.17792 0.98841101 -29.411245 51.344887
34687500000 -37.668575 140.09166 -1.2006681 0.45772994 -1.1821311 0.31651497 -30.150263 39.948532
34715000000 -38.272602 126.41287 -1.1651725 -0.012337041 -1.1867373 -0.07969325 -29.958912 48.441593
34742500000 -39.260593 136.41986 -1.1921227 -0.70165724 -1.2145268 -0.82057786 -29.505655 50.449467
34770000000 -37.118027 118.71623 -1.1864094 -1.3565027 -1.1960918 -1.3293482 -29.131479 48.650826
34797500000 -38.608154 97.949562 -1.2004662 -1.6968504 -1.1914258 -1.8760133 -29.825354 50.028133
34825000000 -38.764908 95.879494 -1.1917504 -2.484333 -1.1925519 -2.419714 -28.978222 57.919731
34852500000 -36.964424 118.98464 -1.2066368 -2.9444013 -1.2022121 -3.0401144 -28.790495 47.658043
34880000000 -36.544067 90.401711 -1.2090787 -3.6416409 -1.1906208 -3.6374617 -29.791449 44.832279
34907500000 -37.080494 72.189697 -1.1985642 -4.0498729 -1.1921812 -4.2312679 -28.218916 50.836552
34935000000 -37.956184 82.083015 -1.2046273 -4.7462754 -1.196996 -4.7614946 -28.344599 51.580574
34962500000 -36.592434 90.433022 -1.1891292 -5.2252083 -1.2295316 -5.299098 -29.290375 41.416504
34990000000 -34.790936 70.807999 -1.1981167 -5.7627921 -1.1912794 -5.9054852 -28.322121 51.993649
35017500000 -36.338772 68.897545 -1.2207544 -6.3074574 -1.1932197 -6.3519373 -27.445833 53.96587
35045000000 -33.983753 69.853508 -1.1904372 -6.9205294 -1.2102665 -7.0292745 -28.405914 40.694813
35072500000 -34.196682 51.930279 -1.2059031 -7.4828882 -1.183287 -7.5086884 -28.625521 50.382378
35100000000 -34.411873 63.353161 -1.2082793 -7.9454074 -1.1849689 -8.1358881 -27.291821 47.979885
35127500000 -34.689739 59.994789 -1.1988106 -8.6455631 -1.2114525 -8.7750044 -27.367966 44.766869
35155000000 -33.057045 58.976273 -1.2256631 -9.1517878 -1.1969568 -9.2822371 -27.852987 43.564247
35182500000 -31.834965 47.428593 -1.2201692 -9.6077394 -1.1930383 -9.7318277 -27.434969 51.210682
35210000000 -34.600903 51.158997 -1.223941 -10.376413 -1.2202902 -10.3016 -27.006968 48.305851
35237500000 -31.747099 57.331757 -1.1821586 -10.827712 -1.2117546 -11.049935 -27.519459 43.592346
35265000000 -31.027151 47.629372 -1.2282737 -11.214879 -1.2147037 -11.540788 -27.144651 46.836739
35292500000 -32.302589 39.086567 -1.1997757 -11.994942 -1.2064085 -12.061144 -26.750994 46.766548
35320000000 -31.014486 49.385704 -1.212478 -12.690169 -1.2268519 -12.809185 -27.420395 40.473827
35347500000 -30.675716 45.044888 -1.2106017 -13.230757 -1.2285354 -13.142902 -27.216621 47.196964
35375000000 -31.533546 34.081879 -1.2493318 -13.507085 -1.193377 -13.989589 -26.607084 51.704483
35402500000 -31.367535 45.935532 -1.2005944 -14.446345 -1.1896763 -14.460606 -26.689131 42.518543
35430000000 -28.929533 43.679581 -1.2227364 -14.896098 -1.2273945 -14.948197 -26.923647 46.778896
35457500000 -29.950527 33.711517 -1.2015157 -15.381169 -1.2567445 -15.402464 -26.477488 48.793026
35485000000 -30.076555 33.630676 -1.2099818 -15.660285 -1.1980805 -16.023445 -25.653475 47.422955
35512500000 -28.774324 40.708702 -1.1911547 -16.532644 -1.2332734 -16.69482 -26.6471 42.58411
35540000000 -28.400257 28.166327 -1.2071576 -17.158178 -1.2484617 -17.094275 -26.57642 52.057377
35567500000 -29.29162 33.758629 -1.2040107 -17.545509 -1.2132539 -17.823866 -26.215397 42.882687
35595000000 -28.144535 27.7201 -1.202812 -18.198318 -1.2336324 -18.376583 -26.247629 41.328773
35622500000 -28.24404 28.584158 -1.2360834 -18.971752 -1.2127056 -18.892378 -26.516666 50.458214
35650000000 -27.85812 22.628878 -1.2380042 -19.290461 -1.2010702 -19.27223 -25.804829 46.545494
35677500000 -27.763962 29.011311 -1.2078878 -20.051123 -1.2246983 -19.852707 -26.036106 41.107513
35705000000 -26.705414 30.130884 -1.2125547 -20.567442 -1.2140244 -20.705944 -26.464569 41.398701
35732500000 -27.208797 21.165113 -1.225104 -21.054014 -1.2416451 -21.058598 -25.872868 48.115799
35760000000 -27.085741 19.131723 -1.2298045 -21.437717 -1.1927787 -21.792135 -25.386244 41.765823
35787500000 -26.551687 25.311007 -1.2299159 -22.148369 -1.2535404 -22.358019 -25.937578 43.08654
35815000000 -26.833651 17.153605 -1.2160071 -22.858408 -1.2246945 -22.811939 -25.614119 45.469795
35842500000 -27.13743 17.523022 -1.2475013 -23.314812 -1.2324121 -23.553057 -24.943369 44.172775
35870000000 -26.320711 23.770733 -1.2136852 -23.94713 -1.2102709 -23.83346 -25.140022 37.414349
35897500000 -25.549446 21.244986 -1.2267792 -24.587612 -1.2392226 -24.664591 -25.51791 48.732494
35925000000 -26.194372 15.644847 -1.1883785 -25.072844 -1.2033669 -25.171034 -25.747196 44.472507
35952500000 -25.834572 17.875916 -1.21875 -25.699087 -1.2164907 -25.709473 -25.059868 41.842972
35980000000 -25.606096 21.285709 -1.2051889 -26.244663 -1.2198068 -26.248964 -25.846573 45.115864
36007500000 -25.128157 16.746696 -1.225325 -26.709669 -1.2226726 -26.894136 -24.856535 44.586418
36035000000 -25.031797 15.230908 -1.1802868 -27.442682 -1.2030541 -27.407358 -24.732218 41.147003
36062500000 -24.600266 14.934963 -1.2039291 -28.066174 -1.2079513 -28.06781 -25.296658 44.818829
36090000000 -24.875919 12.831788 -1.2344613 -28.443733 -1.2285509 -28.458485 -25.178902 42.170315
36117500000 -24.570314 9.9101791 -1.2133118 -29.195238 -1.2415438 -29.173193 -24.200144 43.258011
36145000000 -24.683573 12.066816 -1.1992342 -29.671251 -1.2202741 -29.970449 -24.787325 39.735172
36172500000 -24.555685 9.9327297 -1.1875801 -30.058424 -1.2551061 -30.367281 -24.792524 44.533527
36200000000 -24.325537 10.671474 -1.2185489 -30.74789 -1.2037514 -30.892153 -24.28116 43.336296
36227500000 -24.235764 9.5278654 -1.1668319 -31.362597 -1.2312523 -31.347334 -24.925945 38.340488
36255000000 -23.814417 10.481771 -1.2199172 -32.123821 -1.2454466 -32.039509 -25.055792 43.3046
36282500000 -23.688038 6.936501 -1.2206275 -32.42416 -1.2020833 -32.600422 -24.168295 40.004948
36310000000 -23.971504 3.0461044 -1.2274045 -33.139351 -1.2461179 -33.31649 -23.839777 41.003048
36337500000 -23.633579 6.5807405 -1.2325813 -33.872223 -1.2214406 -33.747257 -24.267908 37.019016
36365000000 -23.262085 5.8255343 -1.2283366 -34.266373 -1.2191921 -34.248234 -24.1206 41.080399
36392500000 -22.739679 4.5586996 -1.1890742 -34.732693 -1.205097 -34.63155 -23.398521 37.928226
36420000000 -22.54335 4.0427599 -1.2310402 -35.620937 -1.2287532 -35.385822 -23.960987 34.535248
36447500000 -23.193844 2.2562613 -1.2276968 -35.827171 -1.2275964 -35.86552 -23.762352 38.492928
36475000000 -22.789682 0.95957446 -1.2286499 -36.502399 -1.2138382 -36.607292 -23.473938 40.700024
36502500000 -23.181479 2.7470713 -1.1947916 -37.062069 -1.2393603 -37.331177 -23.590309 34.491531
36530000000 -22.621922 3.6794891 -1.2282277 -37.840694 -1.2318724 -37.791775 -24.094145 35.534267
36557500000 -22.179737 -1.5741134 -1.2473747 -38.252441 -1.2024801 -38.31081 -23.325418 39.227848
36585000000 -22.269457 -0.21556579 -1.221577 -38.585701 -1.2525328 -38.819744 -23.697229 33.056404
36612500000 -22.165222 2.4007206 -1.2168771 -39.457539 -1.2233082 -39.439053 -23.826754 30.580803
36640000000 -22.025444 -0.32428148 -1.2556735 -39.851547 -1.2350825 -40.125816 -23.206911 35.403423
36667500000 -21.436686 -0.96868634 -1.2436879 -40.660526 -1.2569845 -40.58963 -23.168268 35.038345
36695000000 -22.060349 -0.71858394 -1.1910872 -41.059181 -1.2456893 -41.232727 -23.47127 32.054241
36722500000 -21.9958 -4.8272429 -1.2259092 -41.77771 -1.1923931 -41.836117 -23.266872 32.756912
36750000000 -21.415966 -6.2459636 -1.2495517 -42.136589 -1.2856058 -42.412563 -23.327423 33.631599
36777500000 -21.687271 -3.9349067 -1.2540622 -42.780106 -1.2196076 -43.011868 -23.175179 27.817833
36805000000 -21.786896 -6.0404735 -1.2615057 -43.348743 -1.2560635 -43.519451 -22.98341 30.610037
36832500000 -20.842516 -7.7456079 -1.2075555 -43.937847 -1.2615057 -43.861938 -23.227766 32.269436
36860000000 -20.934261 -3.2711651 -1.223981 -44.320526 -1.2394406 -44.438099 -22.383413 25.996305
36887500000 -20.957544 -7.6572943 -1.1994096 -45.214176 -1.2366639 -45.044277 -22.756683 27.552719
36915000000 -20.503418 -10.557982 -1.2688097 -45.689369 -1.2368139 -45.547131 -23.002752 28.261038
36942500000 -20.745014 -5.0888872 -1.2517215 -46.08503 -1.2731202 -46.152264 -22.973318 27.650133
36970000000 -20.994032 -8.6394129 -1.2524617 -46.960648 -1.2333443 -46.868046 -22.951668 26.355776
36997500000 -20.448868 -11.257143 -1.2586063 -47.392479 -1.2459235 -47.122158 -22.704807 27.650164
37025000000 -20.347933 -9.6088715 -1.2411172 -47.847122 -1.2477503 -47.805813 -22.898161 28.568113
37052500000 -20.653528 -8.2331972 -1.2343203 -48.401814 -1.2130208 -48.549259 -22.595686 26.063124
37080000000 -20.476404 -13.356271 -1.2549325 -48.895893 -1.2356819 -49.205814 -22.512842 26.210987
37107500000 -20.201683 -10.788795 -1.2441295 -49.53178 -1.2733454 -49.739113 -22.79414 26.67651
37135000000 -20.761202 -11.525904 -1.2586392 -50.182686 -1.2242364 -50.292183 -21.975433 23.009726
37162500000 -19.991394 -14.30385 -1.2440016 -50.599121 -1.216893 -50.878448 -21.993906 24.947535
37190000000 -19.928478 -13.25176 -1.2388945 -51.411057 -1.2131714 -51.475784 -22.487116 25.806595
37217500000 -20.001261 -11.599411 -1.2543361 -51.83828 -1.2805406 -51.980885 -22.220951 24.918783
37245000000 -20.013165 -16.928967 -1.2765068 -52.505714 -1.2372895 -52.614353 -21.629658 25.353018
37272500000 -19.367847 -15.301528 -1.2500694 -52.948357 -1.2484034 -53.261757 -22.449789 23.593227
37300000000 -19.899567 -12.74719 -1.2918586 -53.684601 -1.268699 -53.704582 -22.00971 21.734768
37327500000 -19.465609 -16.294455 -1.258183 -54.038147 -1.2384349 -54.152737 -21.607975 21.472416
37355000000 -19.377951 -19.201162 -1.2112803 -54.755226 -1.2258636 -54.718735 -22.162901 21.330635
37382500000 -19.603498 -13.654226 -1.2529908 -55.362625 -1.2734495 -55.139179 -22.217796 22.76557
37410000000 -19.528288 -18.522913 -1.2409712 -55.8237 -1.2579689 -55.657078 -21.927187 20.831621
37437500000 -18.949516 -19.667456 -1.2366931 -56.607937 -1.212515 -56.56707 -22.045715 19.576277
37465000000 -19.216387 -19.050135 -1.2307051 -56.862434 -1.2516062 -57.04491 -21.866962 18.372972
37492500000 -19.321478 -18.687706 -1.2409384 -57.661926 -1.2483701 -57.49736 -21.470917 17.874634
37520000000 -18.777304 -23.025839 -1.2146133 -58.015301 -1.2431554 -58.01054 -21.334932 19.977468
37547500000 -18.965542 -21.81164 -1.2099404 -58.913628 -1.2437341 -58.845585 -21.908413 15.470515
37575000000 -19.491138 -20.282833 -1.2500956 -59.225498 -1.2905232 -59.139153 -21.851913 16.533224
37602500000 -18.592005 -22.730047 -1.2392106 -59.815449 -1.2480925 -59.767818 -21.445271 19.039656
37630000000 -18.44805 -23.859425 -1.220451 -60.229408 -1.2568897 -60.392357 -21.73798 14.520822
37657500000 -18.94529 -23.034765 -1.2232039 -61.086002 -1.2742624 -61.038158 -21.740482 16.153006
37685000000 -18.759422 -23.214956 -1.2356241 -61.407764 -1.2589394 -61.696983 -21.252808 19.633215
37712500000 -18.203787 -24.679089 -1.2592106 -62.048862 -1.2657068 -62.057705 -21.414366 16.242029
37740000000 -18.624474 -23.183201 -1.253006 -62.789337 -1.256868 -62.698174 -21.33849 13.241701
37767500000 -18.550072 -28.010393 -1.2363123 -63.195908 -1.252805 -63.198601 -21.368114 15.408092
37795000000 -18.124928 -26.233757 -1.2559425 -63.544018 -1.258764 -63.921875 -21.000744 15.413246
37822500000 -18.386944 -27.054905 -1.2784668 -64.320679 -1.2225394 -64.514824 -21.44928 11.955066
37850000000 -18.47876 -27.046915 -1.2435142 -64.919113 -1.2344015 -65.010384 -21.484339 15.539799
37877500000 -17.911943 -27.168209 -1.2473936 -65.466026 -1.2293702 -65.430771 -20.954918 12.075547
37905000000 -18.115982 -29.201283 -1.2597389 -66.016792 -1.2424055 -66.224625 -21.428839 7.7459936
37932500000 -18.51181 -29.112726 -1.2338746 -66.677803 -1.260489 -66.733894 -21.629837 14.055175
37960000000 -17.869392 -28.533058 -1.2577624 -66.986084 -1.2572649 -67.128815 -20.749092 13.846326
37987500000 -17.980808 -32.220371 -1.2472062 -67.851585 -1.2671164 -67.690239 -21.42227 8.9158354
38015000000 -17.951933 -31.467184 -1.2501653 -68.267242 -1.2505693 -68.588921 -21.520067 8.9465628
38042500000 -17.994688 -31.244953 -1.2490512 -69.06694 -1.2791319 -68.967575 -20.542496 11.997498
38070000000 -17.724403 -31.317131 -1.2441278 -69.376144 -1.2783511 -69.389206 -20.390268 10.403109
38097500000 -17.892918 -33.698364 -1.2600503 -69.897339 -1.257241 -70.149673 -21.293819 11.025603
38125000000 -18.067026 -33.157513 -1.2424183 -70.83065 -1.2442657 -70.624931 -21.131159 13.494081
38152500000 -17.619164 -34.027042 -1.3034675 -70.954758 -1.3030121 -70.988899 -21.059765 10.516683
38180000000 -17.886925 -35.588207 -1.2296176 -71.790527 -1.2487406 -71.799263 -21.341295 7.520216
38207500000 -17.886337 -35.433788 -1.2501875 -72.457932 -1.2611853 -72.351166 -21.586992 10.623951
38235000000 -17.67779 -35.060078 -1.2847632 -72.980789 -1.2754831 -72.927498 -20.681246 10.170269
38262500000 -17.516014 -37.301853 -1.2858484 -73.580635 -1.3062271 -73.677635 -21.183725 7.0321741
38290000000 -17.927151 -38.623844 -1.2579966 -73.771675 -1.240471 -74.040527 -21.367748 9.1287565
38317500000 -17.688791 -37.216904 -1.246158 -74.61573 -1.2808135 -74.648773 -20.953876 11.186621
38345000000 -17.144524 -35.538494 -1.2440726 -75.113716 -1.2891568 -75.185448 -21.089405 7.7269425
38372500000 -17.71677 -41.31852 -1.2941204 -75.501602 -1.2426419 -75.779922 -21.504936 4.9636989
38400000000 -17.487003 -38.956646 -1.2439058 -76.548309 -1.2495751 -76.384018 -21.261385 5.049859
38427500000 -17.656578 -38.949978 -1.2549481 -76.923241 -1.2981769 -77.01989 -20.752771 3.9557178
38455000000 -17.254564 -39.972622 -1.2644532 -77.360207 -1.2447052 -77.388092 -21.088888 0.55505234
38482500000 -17.464636 -41.917164 -1.284106 -78.12236 -1.2739291 -77.741837 -21.214216 5.8460064
38510000000 -17.164804 -40.028496 -1.2861675 -78.549263 -1.2781471 -78.688759 -20.942434 4.1422992
38537500000 -17.168667 -42.507412 -1.2518051 -79.070297 -1.2810249 -79.215569 -21.087759 2.0690832
38565000000 -17.371254 -43.801701 -1.2411772 -79.628769 -1.2655766 -79.692719 -21.747982 4.5475168
38592500000 -17.636658 -42.352287 -1.2336345 -80.303726 -1.2715865 -80.467995 -21.118326 4.9770875
38620000000 -16.931845 -42.498386 -1.2731847 -81.052971 -1.254859 -80.932205 -20.846613 1.7627029
38647500000 -17.205528 -44.232521 -1.2603222 -81.27462 -1.2458893 -81.161865 -21.365318 2.0144668
38675000000 -17.291294 -43.727993 -1.2422894 -82.115265 -1.3009608 -81.925125 -20.892092 3.1931741
38702500000 -17.214987 -43.589691 -1.2903033 -82.488426 -1.2827903 -82.588577 -20.683748 3.9550989
38730000000 -17.154066 -46.425251 -1.25117 -82.868309 -1.2735876 -83.218399 -21.490204 2.2610314
38757500000 -17.286978 -49.884529 -1.2842219 -83.755356 -1.2873359 -83.713936 -21.263987 2.3038428
38785000000 -16.945547 -45.793808 -1.3022522 -83.939163 -1.2800095 -84.272552 -20.779961 0.17836143
38812500000 -16.862375 -47.735771 -1.2317266 -84.898445 -1.2830141 -84.685051 -20.950302 -2.7085507
38840000000 -17.271753 -48.333897 -1.2403129 -85.337708 -1.2431357 -85.379234 -21.556122 1.5069176
38867500000 -16.986366 -46.970699 -1.2764543 -85.953064 -1.308957 -85.911522 -20.789726 1.1920427
38895000000 -16.938576 -48.574806 -1.2471204 -86.13903 -1.314473 -86.723686 -20.715467 -1.4689893
38922500000 -16.883448 -51.562737 -1.2305557 -87.019363 -1.283071 -87.034218 -21.50116 -1.5645283
38950000000 -17.392162 -49.098213 -1.2607427 -87.923698 -1.2698617 -87.895592 -20.847994 1.8314295
38977500000 -17.193054 -49.754826 -1.2996861 -88.019409 -1.2664174 -88.474525 -20.561979 0.25327563
39005000000 -16.877047 -53.088875 -1.2569191 -88.903114 -1.2848858 -88.79731 -21.91017 -0.26654133
39032500000 -17.024271 -52.215092 -1.2637269 -89.31649 -1.2583355 -89.370605 -20.964729 -1.1255385
39060000000 -17.238218 -51.771442 -1.2755178 -89.817276 -1.3081316 -89.796432 -21.01977 -1.179317
39087500000 -16.593019 -53.701851 -1.2505093 -90.423477 -1.2831563 -90.486061 -21.455313 -3.3444598
39115000000 -17.042383 -55.136139 -1.2557898 -91.300392 -1.2594618 -91.29306 -21.776346 -3.6752105
39142500000 -17.693817 -52.512253 -1.266807 -91.748154 -1.2966661 -91.780838 -20.85821 -0.36719322
39170000000 -16.445534 -55.114544 -1.2960043 -92.029793 -1.269225 -92.28434 -21.158684 -4.8532467
39197500000 -16.755276 -58.348682 -1.2532796 -92.982498 -1.2735124 -93.007675 -21.944452 -6.5478888
39225000000 -17.081558 -55.583897 -1.2799431 -93.640816 -1.2611098 -93.506958 -21.179083 -3.7469282
39252500000 -16.743734 -56.451324 -1.2863582 -93.929329 -1.2723716 -93.868561 -21.042797 -5.3021636
39280000000 -16.426434 -58.532551 -1.2620872 -94.458267 -1.2853148 -94.470131 -21.540329 -6.1551948
39307500000 -17.230816 -59.438473 -1.2947747 -95.182022 -1.2490263 -95.172485 -21.190102 -7.310133
39335000000 -17.020437 -58.781189 -1.3050148 -95.686569 -1.2756928 -95.345284 -20.459661 -1.8869883
39362500000 -16.495077 -57.631199 -1.2760773 -96.155121 -1.3311785 -96.176498 -21.41618 -9.0223484
39390000000 -17.358095 -59.657986 -1.2584919 -96.671913 -1.2648519 -96.866028 -21.195259 -8.1863098
39417500000 -17.169401 -59.962189 -1.2922528 -97.312149 -1.3057735 -97.466476 -21.031693 -4.22262
39445000000 -16.577841 -60.615265 -1.2922863 -97.783966 -1.2736338 -97.889786 -21.61305 -11.186934
39472500000 -17.269632 -60.02037 -1.2588077 -98.653717 -1.2607759 -98.669159 -21.706966 -9.5512609
39500000000 -17.189543 -62.175983 -1.3057138 -99.246254 -1.3003869 -99.142876 -21.186552 -5.4246149
39527500000 -16.485849 -60.744324 -1.2775065 -99.623535 -1.3026466 -99.396729 -21.216913 -8.9569397
39555000000 -17.043171 -62.44846 -1.291486 -100.08022 -1.2979578 -100.42606 -21.144152 -13.873527
39582500000 -16.992683 -63.83049 -1.249579 -100.68137 -1.2587911 -100.97026 -21.494331 -9.3717957
39610000000 -16.625751 -62.955078 -1.2577255 -101.48356 -1.2971393 -101.41087 -21.186127 -9.577899
39637500000 -16.478386 -60.232159 -1.3016132 -101.85395 -1.2817519 -101.86196 -20.780533 -10.918522
39665000000 -17.317608 -65.326103 -1.2594355 -102.90733 -1.2671143 -102.54288 -21.274069 -7.9713182
39692500000 -16.685825 -65.382042 -1.3070182 -103.15638 -1.2798114 -103.03747 -21.651253 -9.4764833
39720000000 -17.127922 -64.0103 -1.2870653 -103.75365 -1.3214402 -103.53972 -21.784712 -13.245534
39747500000 -17.093454 -68.04982 -1.228361 -104.09449 -1.2430103 -104.33601 -21.716402 -13.641113
39775000000 -17.057537 -68.218056 -1.2591331 -104.82139 -1.2987835 -104.63618 -21.400585 -8.1052265
39802500000 -16.832287 -64.066475 -1.3147094 -105.29817 -1.3068786 -105.19151 -21.534801 -13.384452
39830000000 -16.928326 -68.094627 -1.2872311 -105.68079 -1.2497836 -105.71867 -21.445053 -11.431644
39857500000 -17.012203 -69.739502 -1.2360011 -106.41144 -1.2412058 -106.52164 -21.980288 -10.811509
39885000000 -16.919106 -67.141266 -1.2995684 -107.18348 -1.280925 -107.12871 -21.669336 -10.786456
39912500000 -17.048578 -69.501823 -1.2706608 -107.45329 -1.2534955 -107.57072 -21.243189 -16.298183
39940000000 -16.822758 -71.392174 -1.2471251 -107.91619 -1.2478304 -108.09017 -21.626968 -14.07992
39967500000 -17.082865 -67.639313 -1.302155 -108.7617 -1.315377 -108.62672 -21.553658 -9.9933367
39995000000 -17.180677 -70.395897 -1.2886626 -109.25613 -1.2897702 -109.23882 -21.933365 -17.023367
40022500000 -17.262043 -73.04303 -1.2421178 -109.62476 -1.2588077 -109.6722 -21.736006 -18.524462
40050000000 -16.876301 -71.487633 -1.2537287 -110.30215 -1.2743155 -110.30376 -21.778055 -12.316068
40077500000 -17.444107 -71.483665 -1.310192 -110.82352 -1.3187642 -110.78889 -21.750021 -16.136641
40105000000 -17.12558 -74.178734 -1.2613597 -111.61256 -1.2536172 -111.25665 -21.335615 -19.287928
40132500000 -17.240007 -73.553207 -1.2853621 -112.11433 -1.3095441 -112.291 -21.957449 -12.242457
40160000000 -17.303211 -72.405861 -1.2754459 -112.53056 -1.2835239 -112.74901 -21.940277 -16.494911
40187500000 -17.157778 -77.20932 -1.2482889 -113.18401 -1.2813622 -113.23281 -21.315075 -20.946922
40215000000 -16.925331 -75.111938 -1.2297812 -113.3926 -1.2852859 -113.71788 -21.594795 -17.491714
40242500000 -17.63274 -73.335068 -1.2924281 -114.33244 -1.3029237 -114.42181 -21.911579 -14.747561
40270000000 -17.324038 -78.049942 -1.2399764 -114.85134 -1.2959911 -114.80704 -21.5977 -22.379734
40297500000 -17.01037 -79.854622 -1.2107002 -115.49723 -1.2590339 -115.44753 -21.904591 -19.278219
40325000000 -17.291943 -76.021523 -1.2675662 -116.14635 -1.2574513 -115.98363 -21.787405 -18.471169
40352500000 -17.220816 -79.230263 -1.2560438 -116.48087 -1.2774936 -116.7577 -22.258801 -19.709698
40380000000 -17.457769 -79.868958 -1.2856611 -117.22419 -1.291226 -117.30375 -22.022484 -22.795774
40407500000 -17.206787 -78.180435 -1.2341008 -117.61909 -1.2533902 -118.04759 -22.726349 -18.648264
40435000000 -17.656958 -81.115883 -1.2756703 -118.4528 -1.2813103 -118.34368 -22.542421 -18.378857
40462500000 -17.403423 -81.749428 -1.2619979 -119.0752 -1.255151 -119.112 -22.004713 -22.411121
40490000000 -17.498503 -79.833191 -1.2922984 -119.53051 -1.2648443 -119.31114 -22.436625 -20.930325
40517500000 -17.624474 -80.041046 -1.258563 -120.0416 -1.2801728 -120.19644 -22.449923 -19.027794
40545000000 -17.257759 -83.193596 -1.2733929 -120.64742 -1.2958114 -120.73477 -21.977812 -25.189222
40572500000 -17.41239 -83.241074 -1.2375277 -121.32443 -1.2497615 -121.10925 -22.124132 -24.67333
40600000000 -17.61412 -83.359451 -1.3076835 -121.66127 -1.2688974 -121.90929 -23.097845 -15.853959
40627500000 -17.321518 -84.492409 -1.2457204 -122.30148 -1.2411041 -122.62794 -22.216795 -23.970171
40655000000 -17.488775 -84.222252 -1.2402458 -123.05006 -1.2562896 -122.97359 -22.504118 -25.190895
40682500000 -17.785692 -85.053543 -1.2874963 -123.8029 -1.2739888 -123.41643 -22.773947 -23.080269
40710000000 -17.416328 -87.506592 -1.2226551 -123.80114 -1.2280666 -124.172 -22.534023 -19.427471
40737500000 -17.868586 -87.453125 -1.2822819 -124.4886 -1.2874463 -124.64778 -22.55196 -23.042168
40765000000 -17.860714 -85.796692 -1.2259889 -125.27245 -1.2540904 -125.2459 -22.734859 -22.030056
40792500000 -17.701426 -89.237328 -1.2737275 -126.13545 -1.2595576 -125.84299 -22.717628 -25.563021
40820000000 -17.96454 -88.637451 -1.2553179 -126.14642 -1.2634544 -126.37327 -22.58444 -24.611698
40847500000 -18.225842 -88.937767 -1.2542291 -127.0179 -1.2536319 -126.81637 -23.166689 -27.627092
40875000000 -17.595432 -86.985306 -1.2672384 -127.62865 -1.253225 -127.8907 -23.482342 -24.686251
40902500000 -18.273226 -90.530487 -1.2601233 -128.09402 -1.2583182 -128.31143 -22.982002 -22.239859
40930000000 -18.410381 -87.678291 -1.2406425 -128.44032 -1.2830279 -128.67372 -23.160297 -29.770517
40957500000 -18.492678 -90.186012 -1.2448497 -129.23878 -1.2887622 -129.37779 -23.7019 -25.953749
40985000000 -18.052153 -91.902214 -1.2382417 -129.93643 -1.2387148 -129.87872 -22.485567 -27.068253
41012500000 -18.613737 -92.280014 -1.2642292 -130.49825 -1.2674661 -130.59265 -23.600103 -29.39971
41040000000 -18.213936 -89.644592 -1.2600358 -130.75269 -1.2723491 -130.85002 -23.711386 -25.998207
41067500000 -17.93577 -93.832893 -1.2405634 -131.66174 -1.2470465 -131.45175 -22.819241 -22.577562
41095000000 -18.480217 -94.01371 -1.2891874 -132.18445 -1.2577258 -132.13322 -23.413933 -26.1115
41122500000 -19.179958 -91.149498 -1.265447 -132.78334 -1.2594752 -132.7426 -23.720396 -30.680082
41150000000 -17.944748 -94.414314 -1.2251341 -133.37328 -1.2523082 -132.95721 -23.108276 -29.915197
41177500000 -18.992746 -96.556061 -1.2753605 -133.72655 -1.2659241 -134.00499 -24.316881 -26.285553
41205000000 -19.351761 -95.19603 -1.2985909 -134.1059 -1.2695409 -134.24991 -23.950516 -29.346338
41232500000 -18.484829 -94.720802 -1.1977879 -135.03088 -1.2407645 -134.77411 -24.403418 -24.089533
41260000000 -18.368843 -98.920227 -1.2320769 -135.46091 -1.25354 -135.85585 -23.819754 -26.71974
41287500000 -18.795019 -98.004509 -1.2633759 -136.32405 -1.2886069 -136.34143 -23.81628 -27.839993
41315000000 -18.89052 -95.480865 -1.2574557 -136.95547 -1.2706419 -136.42978 -24.201334 -24.501684
41342500000 -18.543413 -96.272224 -1.2614148 -137.42412 -1.2737123 -137.71091 -24.153362 -25.992308
41370000000 -19.482193 -102.65027 -1.2830154 -137.5694 -1.2908866 -137.92592 -23.491993 -30.080498
41397500000 -19.344807 -96.220451 -1.2989072 -138.3965 -1.276022 -138.431 -23.86771 -33.053444
41425000000 -18.964792 -99.079849 -1.2386363 -139.08575 -1.215103 -139.04694 -24.973177 -21.188894
41452500000 -19.257915 -104.22054 -1.2629846 -139.45372 -1.287246 -139.84976 -24.582952 -24.79624
41480000000 -20.096479 -96.796974 -1.2813622 -140.12096 -1.2691178 -140.38408 -25.089394 -29.860123
41507500000 -18.780668 -97.158287 -1.2606299 -140.66154 -1.2582301 -140.77684 -24.836563 -27.481417
41535000000 -19.161875 -102.26665 -1.2633371 -141.71912 -1.2566293 -141.29062 -25.461315 -25.078434
41562500000 -20.244797 -106.2057 -1.2607728 -141.79962 -1.244688 -141.99239 -24.137138 -29.410515
41590000000 -20.20644 -97.788635 -1.2483838 -142.52797 -1.2736883 -142.44556 -24.815878 -24.221619
41617500000 -19.365553 -105.15412 -1.2729896 -142.89389 -1.2536112 -142.92892 -24.890097 -28.724936
41645000000 -19.487577 -104.14034 -1.2625058 -143.38503 -1.2719703 -143.68562 -25.185879 -28.062548
41672500000 -20.280155 -99.308533 -1.2446986 -144.01109 -1.2662272 -144.14252 -25.28158 -31.181255
41700000000 -19.569469 -102.88061 -1.2078362 -144.70627 -1.2468969 -144.78044 -25.17444 -27.655699
41727500000 -19.324833 -109.32594 -1.2721368 -145.25075 -1.2825358 -145.6339 -25.833624 -25.485769
41755000000 -20.979324 -108.8231 -1.3009202 -145.73125 -1.2821192 -145.88179 -24.450188 -23.502001
41782500000 -20.359795 -106.7972 -1.2926236 -146.40967 -1.2660207 -145.99376 -25.27594 -24.959866
41810000000 -20.188818 -108.40157 -1.2813047 -147.16364 -1.237376 -146.94016 -25.832045 -31.209246
41837500000 -20.895014 -109.68395 -1.2321374 -147.45605 -1.3069181 -147.64969 -25.817514 -27.162169
41865000000 -20.23344 -105.16154 -1.2582625 -148.08479 -1.2652156 -148.40637 -25.042564 -28.211262
41892500000 -19.930956 -112.23854 -1.2892992 -148.64183 -1.2784104 -148.88512 -26.333769 -25.174316
41920000000 -20.885069 -112.20834 -1.3170184 -149.3465 -1.2801075 -149.56046 -26.224619 -25.332594
41947500000 -20.751394 -106.66409 -1.2715251 -149.63257 -1.2590387 -150.0556 -25.938696 -22.042715
41975000000 -20.714785 -110.24781 -1.2323279 -150.73291 -1.2247436 -150.46887 -25.985123 -26.106234
42002500000 -20.637531 -113.97674 -1.3072466 -151.20805 -1.2909207 -151.25519 -25.436102 -22.182823
42030000000 -21.81176 -109.41171 -1.2971253 -151.41904 -1.2454072 -151.64294 -26.082766 -23.683277
42057500000 -20.566105 -106.8145 -1.2586576 -152.01181 -1.2707158 -152.31779 -26.991179 -18.972773
42085000000 -21.19882 -114.95335 -1.2285551 -152.70624 -1.2570422 -152.86765 -28.34244 -18.456535
42112500000 -22.047115 -114.45562 -1.282341 -153.05931 -1.2866322 -153.61452 -26.542934 -20.078508
42140000000 -21.323088 -104.89777 -1.2493191 -153.87248 -1.2950611 -154.00598 -26.272905 -23.807405
42167500000 -21.565172 -116.38969 -1.267055 -154.73297 -1.2252008 -154.29034 -27.0763 -24.139347
42195000000 -22.633852 -115.3044 -1.2582829 -154.91333 -1.292599 -155.2132 -26.739655 -21.633715
42222500000 -22.729939 -112.74402 -1.2693485 -155.44299 -1.2871046 -155.71428 -26.593307 -20.327513
42250000000 -22.410992 -116.99683 -1.2394688 -156.21994 -1.2522827 -156.31149 -27.865891 -26.09049
42277500000 -22.35088 -122.54515 -1.2473794 -157.14308 -1.2582138 -156.75647 -26.74931 -21.489618
42305000000 -22.688475 -117.18737 -1.3106768 -157.10889 -1.2832509 -157.62837 -25.804564 -18.933453
42332500000 -22.833546 -110.99789 -1.2732177 -157.78606 -1.2333446 -157.89191 -26.847858 -25.251705
42360000000 -22.791836 -121.20869 -1.2396772 -158.35315 -1.2871757 -158.7252 -28.508074 -20.813553
42387500000 -22.529827 -124.66985 -1.26533 -159.32104 -1.2769622 -159.30467 -26.784563 -14.819605
42415000000 -23.139793 -113.93501 -1.2652655 -159.67116 -1.2587585 -159.68469 -27.011608 -20.560835
42442500000 -23.665241 -130.97688 -1.2462476 -160.16251 -1.2521353 -160.00208 -28.674368 -19.261627
42470000000 -23.789223 -120.00217 -1.214565 -160.72534 -1.3014152 -160.8199 -27.323257 -15.295611
42497500000 -24.854153 -114.80956 -1.2740667 -161.2393 -1.2883348 -161.35403 -26.939301 -20.194384
42525000000 -23.335783 -130.28152 -1.3058299 -162.1387 -1.2884637 -161.76495 -29.241966 -10.374971
42552500000 -24.368168 -130.05492 -1.2576816 -162.46336 -1.348215 -162.83426 -28.423765 -10.030193
42580000000 -24.247631 -122.42935 -1.3120663 -163.06659 -1.2369268 -162.89507 -25.689934 -9.8884802
42607500000 -24.158716 -129.2554 -1.2378603 -163.47366 -1.2751949 -163.61108 -27.875818 -16.22065
42635000000 -24.351311 -132.90297 -1.2955148 -164.11964 -1.2952135 -163.8707 -29.328115 -7.5885963
42662500000 -26.129078 -121.9149 -1.2708983 -164.66631 -1.317349 -164.68179 -27.132843 -11.163994
42690000000 -23.995108 -128.69868 -1.2486367 -165.59454 -1.3198133 -165.12581 -27.063757 -9.4635134
42717500000 -24.103231 -135.48297 -1.3047802 -165.74377 -1.261753 -166.1778 -28.494879 -9.9327507
42745000000 -25.117458 -130.56323 -1.278618 -166.48209 -1.2933428 -166.20575 -26.673174 -3.8141937
42772500000 -26.44627 -125.55493 -1.2950283 -166.76266 -1.2907772 -166.92889 -30.210764 -8.5136929
42800000000 -24.57095 -125.48462 -1.2511635 -167.8322 -1.3209419 -167.26741 -29.013317 -1.518424
42827500000 -27.116549 -131.51694 -1.2688249 -168.26668 -1.3042766 -168.24362 -27.33827 4.7328658
42855000000 -28.548941 -125.74414 -1.2972901 -168.68428 -1.3115691 -169.00772 -28.526419 -12.666015
42882500000 -25.812178 -134.20374 -1.2518247 -169.10016 -1.2818103 -169.41058 -29.966431 -7.1274376
42910000000 -25.810658 -135.25388 -1.2914027 -170.0088 -1.2460128 -170.15273 -28.889296 -3.2423589
42937500000 -27.373072 -122.7672 -1.3095934 -170.62206 -1.2916926 -170.61072 -28.299942 5.9254584
42965000000 -28.61142 -128.46896 -1.3019199 -171.30646 -1.2949494 -171.1259 -29.183304 0.0051977858
42992500000 -27.447937 -129.5885 -1.2710555 -171.74503 -1.3063107 -171.6459 -28.226212 8.3760147
43020000000 -29.617277 -134.2263 -1.3604257 -172.05103 -1.2927896 -172.25206 -26.498762 -0.18372491
43047500000 -30.032665 -134.19366 -1.3421876 -172.53906 -1.2857676 -172.96048 -29.277838 8.5142517
43075000000 -29.159883 -127.60494 -1.2627208 -173.28271 -1.3165718 -173.49886 -30.471277 6.2712235
43102500000 -31.156597 -126.47298 -1.2328581 -174.06705 -1.3004606 -174.23645 -28.044556 -3.6090345
43130000000 -30.290867 -145.9534 -1.286666 -174.46092 -1.3029112 -174.179 -27.576559 -1.2520819
43157500000 -28.630159 -141.56148 -1.2998757 -175.12524 -1.3353951 -175.04947 -29.685745 -4.4321899
43185000000 -32.245945 -123.04 -1.2983682 -176.15869 -1.2713506 -175.80312 -28.537806 15.991642
43212500000 -32.59304 -130.59279 -1.2791927 -176.23007 -1.328757 -176.36989 -28.753403 3.8560717
43240000000 -29.208864 -132.66243 -1.2996913 -176.70219 -1.2852316 -176.77512 -28.068075 20.02355
43267500000 -32.960842 -128.92781 -1.2832912 -176.86272 -1.23623 -177.32915 -28.941856 12.941106
43295000000 -36.064598 -131.5183 -1.2790551 -177.71754 -1.3137951 -177.9776 -27.131046 9.233077
43322500000 -32.243565 -152.48581 -1.2769556 -178.23688 -1.2829646 -178.76949 -28.81291 10.031859
43350000000 -31.987803 -142.9857 -1.3231095 -179.08673 -1.3174846 -179.21136 -29.20146 17.297592
43377500000 -37.226543 -144.08585 -1.3278404 -179.83293 -1.3172774 -179.5089 -26.749517 16.710941
43405000000 -37.33736 -147.79379 -1.3048873 179.75261 -1.284503 179.57486 -27.976864 21.980831
43432500000 -36.588848 -138.1109 -1.2986199 179.63591 -1.2637858 179.06067 -29.190128 11.061974
43460000000 -35.29882 -172.3866 -1.2958316 178.60486 -1.2737306 178.71046 -25.669731 16.92
43487500000 -36.694935 -177.20462 -1.2862208 178.0034 -1.2656358 178.31937 -26.283371 11.912496
43515000000 -36.262192 -154.22362 -1.2576573 177.86462 -1.2825222 177.33415 -28.206127 15.708883
43542500000 -44.435909 164.02931 -1.2963054 177.08414 -1.2766405 176.83691 -26.972776 24.604462
43570000000 -44.902966 -136.91672 -1.2772905 176.48396 -1.2900633 176.13348 -26.93697 19.691738
43597500000 -39.82674 -100.66154 -1.2577639 175.77457 -1.2521919 175.37634 -27.95122 22.071043
43625000000 -45.971611 135.17679 -1.2658416 175.46796 -1.2894609 175.28178 -26.792788 21.228811
43652500000 -42.134972 141.92052 -1.2631199 174.38864 -1.3141005 174.64661 -26.759327 20.703274
43680000000 -45.022575 -157.17899 -1.2847949 173.93968 -1.3332267 174.05428 -28.086885 23.153175
43707500000 -42.743195 47.701992 -1.2392915 173.02287 -1.317472 173.29196 -27.835371 19.251726
43735000000 -41.339066 32.58551 -1.3234472 172.5062 -1.2783211 172.67708 -26.02174 27.353931
43762500000 -42.761143 -48.644875 -1.3269159 172.42964 -1.2880758 172.31134 -26.786579 28.474436
43790000000 -42.857861 -71.343056 -1.2988936 171.8992 -1.2897003 171.5851 -26.043064 28.852119
43817500000 -33.918007 52.882187 -1.3204595 171.25371 -1.3003219 171.30139 -25.850554 34.713097
43845000000 -48.955299 11.033777 -1.3024465 170.42574 -1.2949916 170.492 -26.678408 28.332813
43872500000 -37.673195 27.663982 -1.3045132 169.76662 -1.2764294 169.90697 -24.699984 29.365391
43900000000 -36.667877 64.802849 -1.358438 169.60043 -1.3451296 169.66341 -25.292839 28.119965
43927500000 -42.021408 26.746983 -1.2914842 168.62808 -1.2951419 168.96071 -25.872719 27.399096
43955000000 -41.482285 45.740421 -1.2613009 168.1149 -1.313292 168.46518 -24.994984 31.20512
43982500000 -31.8472 40.84409 -1.3240135 167.64243 -1.3619117 167.60826 -25.407238 25.829929
44010000000 -31.913628 44.97147 -1.315833 167.32368 -1.2744867 166.815 -25.782688 27.100473
44037500000 -33.177914 5.7899828 -1.2794995 166.49422 -1.2758564 166.63995 -24.481232 39.226433
44065000000 -33.22176 28.653679 -1.2464546 166.08698 -1.3386856 166.08682 -25.05715 32.717449
44092500000 -30.447285 46.739304 -1.3821065 165.55235 -1.3530129 165.27722 -25.348206 35.247784
44120000000 -32.789673 23.354143 -1.2526647 165.16656 -1.3426404 164.73679 -24.963387 33.228577
44147500000 -32.101608 35.798065 -1.2660193 163.82639 -1.3126553 163.80865 -23.746189 32.992477
44175000000 -30.832823 49.239197 -1.3048425 163.81194 -1.3173535 163.51944 -24.593744 26.531799
44202500000 -30.59623 35.356884 -1.2954458 163.18408 -1.3368722 163.38708 -24.96401 33.500099
44230000000 -28.669455 25.960833 -1.2976384 162.37764 -1.3853314 162.51105 -24.659937 24.154593
44257500000 -28.719368 49.646687 -1.2938576 161.96581 -1.3168831 161.5161 -23.847925 19.88623
44285000000 -28.352369 21.500624 -1.3013072 161.78546 -1.3424077 161.17607 -24.017078 30.61902
44312500000 -30.369156 22.41193 -1.3033822 160.65359 -1.2962886 160.81917 -23.594435 36.92411
44340000000 -27.947998 20.611225 -1.3157929 160.10588 -1.3093866 159.9115 -22.745003 32.666767
44367500000 -26.318859 32.420734 -1.3564342 159.87254 -1.2991861 159.65736 -23.819 34.021282
44395000000 -26.366663 20.849852 -1.3689842 159.22842 -1.2655475 158.97681 -23.46986 30.710518
44422500000 -29.084402 34.598385 -1.3089308 159.03201 -1.3115646 158.31078 -22.475819 31.783346
44450000000 -25.948685 26.162518 -1.2771981 157.99583 -1.300703 157.95082 -23.964266 26.47122
44477500000 -26.434681 15.92703 -1.3671628 157.21446 -1.3442692 157.53767 -23.794235 32.489059
44505000000 -26.059866 25.64736 -1.3310981 156.32661 -1.3054376 156.64598 -22.39031 30.274323
44532500000 -26.677568 25.258133 -1.3276386 156.12192 -1.3441739 155.9855 -23.334208 30.206512
44560000000 -25.046209 21.444639 -1.355505 155.06322 -1.3376436 155.31184 -23.458097 38.996403
44587500000 -25.4692 21.385515 -1.3221203 155.23772 -1.3458248 155.18425 -20.782736 30.850521
44615000000 -24.972925 34.489426 -1.3691871 154.46555 -1.3679129 154.29445 -22.292303 32.341671
44642500000 -24.64459 21.987974 -1.2818193 154.07863 -1.3232572 153.9648 -23.094833 31.799046
44670000000 -23.963072 17.822868 -1.3031033 153.2478 -1.3422314 153.16312 -21.760448 34.075016
44697500000 -24.5849 24.058638 -1.3201946 152.27798 -1.3061026 152.72411 -22.175667 28.350119
44725000000 -23.186316 26.623178 -1.376924 152.20944 -1.3188101 152.48291 -22.963646 31.70709
44752500000 -22.993547 19.537884 -1.3702335 151.74008 -1.3270476 151.57312 -22.103544 35.566837
44780000000 -25.023603 17.305771 -1.3752176 151.10364 -1.3920723 150.88774 -21.140589 31.999601
44807500000 -22.721348 20.59581 -1.3551664 150.07094 -1.3568021 150.11623 -22.899147 29.044744
44835000000 -22.07089 13.114556 -1.2854098 149.88646 -1.2904454 149.84232 -22.069744 33.119301
44862500000 -23.011122 14.278621 -1.3693067 149.58446 -1.3189143 149.20091 -20.947847 32.764973
44890000000 -23.144529 15.820769 -1.4088202 148.79582 -1.3382868 148.53969 -22.481153 29.814615
44917500000 -22.064419 19.72727 -1.3501369 148.46675 -1.3236473 148.18404 -22.282885 35.242321
44945000000 -21.715622 12.865422 -1.3253688 147.57945 -1.3358796 147.54263 -20.772308 33.569878
44972500000 -22.437721 15.656467 -1.3020279 147.33978 -1.3232913 146.58044 -21.238943 22.925486
45000000000 -21.829529 13.049463 -1.4103192 146.44727 -1.3474195 146.44244 -21.77338 31.197805
