! Quiescent point : V1=-1.65691E-02 I1=+1.29242E-03 V2=-2.22638E-02 I2=-1.31894E-03
! Pulsed point : V1=-1.63289E-02 I1=+1.31774E-03 V2=-2.24770E-02 I2=-1.33197E-03
! Period : +2.00000E-04
! Input Supply timing : delay=+1.60000E-06 width=+2.20000E-06
! Output Supply timing : delay=+1.70000E-06 width=+2.00000E-06
! VNA timing : delay=+2.40000E-06 width=+1.10000E-06
# Hz S RI R 50
+2.70000E+10 -6.65013E-03 -8.10930E-02 -9.98270E-01 -8.12950E-03 -9.50028E-01 +2.70169E-02 +3.62488E-02 -1.39854E-01
+2.71000E+10 -3.44605E-03 -3.06796E-02 -9.93183E-01 +3.22521E-02 -9.48938E-01 +1.77787E-03 +3.12456E-03 -7.14179E-02
+2.72000E+10 -3.78623E-03 -2.35710E-02 -1.07114E+00 +6.09456E-02 -9.45638E-01 +4.89747E-02 -2.49016E-02 -1.01484E-01
+2.73000E+10 +5.34777E-02 -5.30396E-02 -1.01278E+00 +7.08281E-02 -9.19011E-01 +1.69169E-02 -3.55272E-02 -1.04365E-01
+2.74000E+10 +2.39406E-02 -1.10001E-01 -9.97826E-01 +4.39010E-02 -1.01765E+00 +6.51359E-02 -3.70398E-02 -1.66543E-01
+2.75000E+10 -4.14576E-02 -1.42675E-01 -9.40038E-01 +4.76917E-02 -9.58826E-01 +3.32403E-02 +5.14593E-02 -8.13442E-02
+2.76000E+10 -5.40540E-02 -1.51096E-01 -1.03968E+00 +2.37605E-02 -1.04437E+00 +5.79417E-02 -6.81749E-02 -1.13832E-01
+2.77000E+10 -3.49101E-02 -1.20773E-01 -9.65361E-01 +1.20474E-01 -1.04624E+00 +1.52819E-01 -5.54532E-02 -1.16404E-01
+2.78000E+10 +3.84466E-02 -5.72336E-02 -9.98726E-01 +1.25748E-01 -9.14663E-01 +6.03683E-02 -7.45821E-02 -1.13238E-01
+2.79000E+10 -5.71466E-02 -2.84381E-02 -9.58911E-01 +9.62023E-02 -1.01837E+00 +1.37736E-01 +2.25568E-03 -1.18441E-01
+2.80000E+10 +1.30887E-02 -1.24816E-01 -9.93721E-01 +1.15123E-01 -9.45394E-01 +4.36488E-02 +2.02768E-02 -1.18894E-01
+2.81000E+10 -3.36672E-02 -5.91377E-02 -9.26944E-01 +1.32806E-01 -9.69804E-01 +8.29278E-02 -4.16592E-03 -1.30890E-01
+2.82000E+10 -1.19060E-02 -1.50032E-01 -9.46420E-01 +1.60535E-01 -9.51949E-01 +9.75070E-02 -6.14870E-02 -1.31226E-01
+2.83000E+10 -3.25326E-02 -2.07807E-01 -9.54783E-01 +1.62888E-01 -8.77715E-01 +1.12361E-01 -4.64509E-02 -9.33811E-02
+2.84000E+10 +6.92881E-02 -1.03418E-01 -8.49748E-01 +1.99227E-01 -9.95656E-01 +2.13274E-01 -1.78085E-02 -1.56935E-01
+2.85000E+10 -1.37976E-02 -1.60753E-01 -9.72181E-01 +1.80379E-01 -1.03725E+00 +9.57672E-02 +3.74692E-02 -7.57033E-02
+2.86000E+10 -2.09180E-02 -1.42430E-01 -8.87653E-01 +2.53702E-01 -8.95611E-01 +1.93421E-01 -2.88268E-02 -1.46976E-01
+2.87000E+10 +5.52366E-03 -2.76865E-02 -8.70280E-01 +1.47638E-01 -8.86761E-01 +1.32827E-01 -8.63964E-03 -7.59002E-02
+2.88000E+10 +1.07821E-02 -9.85524E-02 -1.01282E+00 +2.20700E-01 -1.00577E+00 +2.06203E-01 +3.24988E-03 -1.71414E-01
+2.89000E+10 +6.17499E-02 -1.78378E-01 -9.81650E-01 +1.42355E-01 -9.73456E-01 +1.92296E-01 -2.31475E-02 -1.35593E-01
+2.90000E+10 +4.39392E-02 -1.24689E-01 -8.98688E-01 +1.82139E-01 -9.51939E-01 +1.20078E-01 -5.47034E-02 -1.16067E-01
+2.91000E+10 -5.16810E-02 -1.26683E-01 -9.10962E-01 +1.96303E-01 -9.13152E-01 +2.66236E-01 -1.20441E-01 -1.26772E-01
+2.92000E+10 -2.57589E-02 -1.80475E-01 -9.91852E-01 +2.32278E-01 -1.03126E+00 +2.27507E-01 +6.69248E-04 -8.60947E-02
+2.93000E+10 -2.44011E-03 -1.25112E-01 -1.00272E+00 +3.09272E-01 -1.03170E+00 +2.80066E-01 +3.30038E-02 -7.02821E-02
+2.94000E+10 +5.12772E-02 -1.37863E-01 -8.83123E-01 +3.70496E-01 -8.97874E-01 +3.22870E-01 -4.35515E-02 -1.84530E-01
+2.95000E+10 -1.11660E-01 -6.10533E-02 -9.67797E-01 +2.45966E-01 -9.02583E-01 +2.60484E-01 -4.07858E-02 -1.32323E-01
+2.96000E+10 +2.90967E-03 -9.97545E-02 -9.89361E-01 +3.06051E-01 -9.36502E-01 +2.35683E-01 -4.52988E-02 -1.35302E-01
+2.97000E+10 +9.98758E-03 -1.49925E-01 -9.95425E-01 +1.81020E-01 -9.16017E-01 +3.85633E-01 -4.41109E-02 -3.21524E-02
+2.98000E+10 -7.16812E-03 -1.25807E-01 -8.22364E-01 +2.87195E-01 -9.25790E-01 +3.13249E-01 -8.21956E-02 -8.21344E-02
+2.99000E+10 -1.09397E-02 -1.28526E-01 -9.07423E-01 +2.84222E-01 -8.81626E-01 +2.43701E-01 -1.41270E-02 -1.33467E-01
+3.00000E+10 -8.81988E-02 -1.60185E-01 -9.12435E-01 +3.38340E-01 -9.47017E-01 +3.34673E-01 -2.52696E-02 -8.18576E-02
+3.01000E+10 -1.11894E-02 -1.18357E-01 -9.63382E-01 +3.87732E-01 -9.03752E-01 +3.32574E-01 -1.08364E-01 -2.60493E-02
+3.02000E+10 -1.85535E-02 -9.77359E-02 -9.08355E-01 +3.93454E-01 -7.91016E-01 +4.09973E-01 +3.29107E-02 -9.14264E-02
+3.03000E+10 -3.44065E-02 -5.56404E-02 -9.28565E-01 +4.21158E-01 -8.83512E-01 +4.30642E-01 -4.59994E-02 -9.98659E-02
+3.04000E+10 -4.80926E-02 -1.54971E-01 -9.40411E-01 +3.36601E-01 -8.59052E-01 +3.18812E-01 +5.72610E-04 -1.96655E-02
+3.05000E+10 +8.64979E-02 -1.63181E-01 -9.37309E-01 +3.19471E-01 -8.58890E-01 +3.64374E-01 +1.65329E-02 -1.38499E-01
+3.06000E+10 +3.72047E-02 -8.88520E-02 -9.67580E-01 +3.40939E-01 -9.53180E-01 +3.01305E-01 -3.14861E-02 -1.48363E-01
+3.07000E+10 -4.45708E-02 -1.36644E-01 -8.64601E-01 +3.11594E-01 -8.91052E-01 +4.10756E-01 -1.30611E-01 -9.22118E-02
+3.08000E+10 -1.07747E-02 -1.89494E-01 -8.96894E-01 +4.68080E-01 -8.67111E-01 +3.85870E-01 -5.87839E-02 -9.86245E-02
+3.09000E+10 +3.28477E-03 -1.79539E-01 -9.67000E-01 +4.17455E-01 -8.86216E-01 +4.78049E-01 -1.21113E-02 -1.19592E-01
+3.10000E+10 -6.35368E-02 -1.64524E-01 -9.39155E-01 +3.89444E-01 -8.64824E-01 +4.26745E-01 +5.21725E-02 -1.46077E-01
+3.11000E+10 -8.25029E-02 -1.20556E-01 -8.98389E-01 +5.73032E-01 -8.85848E-01 +3.62138E-01 -5.53502E-02 -1.33773E-01
+3.12000E+10 +7.06378E-02 -2.08316E-01 -8.83316E-01 +4.52999E-01 -7.54104E-01 +4.56484E-01 -5.40237E-02 -8.81225E-02
+3.13000E+10 -1.05795E-01 -8.67481E-02 -7.73923E-01 +5.06275E-01 -8.55452E-01 +4.72731E-01 -2.42907E-02 -1.49434E-01
+3.14000E+10 -8.48032E-02 +5.25341E-02 -7.90804E-01 +4.86079E-01 -7.27697E-01 +5.55006E-01 -6.83991E-02 -1.62442E-01
+3.15000E+10 -3.95970E-02 +2.82497E-02 -8.90339E-01 +4.65567E-01 -8.49463E-01 +3.54578E-01 -4.28983E-02 -1.42308E-01
+3.16000E+10 +9.70587E-03 -1.43220E-01 -8.42766E-01 +5.40016E-01 -8.59316E-01 +4.88981E-01 -2.19039E-02 -8.28759E-02
+3.17000E+10 -5.33118E-02 -1.72357E-01 -8.31368E-01 +4.64821E-01 -8.59528E-01 +5.21218E-01 -6.04541E-02 -1.18838E-01
+3.18000E+10 -2.62920E-02 -1.15987E-01 -8.58595E-01 +5.05591E-01 -7.36611E-01 +4.44655E-01 -9.97602E-02 -2.05265E-01
+3.19000E+10 -7.34918E-02 -1.67397E-01 -8.45826E-01 +6.10670E-01 -7.73365E-01 +5.26012E-01 -1.21592E-02 -9.28560E-02
+3.20000E+10 -3.49177E-02 -2.00600E-01 -8.01929E-01 +6.05499E-01 -8.59796E-01 +5.51598E-01 -8.12328E-02 -1.47949E-01
+3.21000E+10 -8.17483E-02 -9.90568E-02 -8.58218E-01 +5.55239E-01 -8.44524E-01 +5.11165E-01 -1.48159E-01 -1.31105E-01
+3.22000E+10 -4.78641E-02 -2.25733E-01 -8.39810E-01 +5.69292E-01 -8.18232E-01 +5.28525E-01 -1.43361E-01 -1.53032E-01
+3.23000E+10 -1.93432E-01 +2.94149E-02 -8.90440E-01 +5.35260E-01 -6.86589E-01 +6.43513E-01 -6.71085E-02 -1.08253E-01
+3.24000E+10 -1.40216E-02 -1.18957E-01 -7.50141E-01 +5.34719E-01 -7.79896E-01 +5.09052E-01 -5.31026E-02 -1.35756E-01
+3.25000E+10 -5.36433E-02 -2.13918E-01 -7.90351E-01 +4.97095E-01 -8.12149E-01 +6.00259E-01 -1.49928E-01 -1.57715E-01
+3.26000E+10 -8.92042E-02 -1.82075E-01 -8.76768E-01 +5.35897E-01 -8.22139E-01 +5.12302E-01 -4.39096E-02 -6.44034E-02
+3.27000E+10 +3.02697E-03 +5.56713E-02 -5.91355E-01 +6.36931E-01 -8.59564E-01 +6.44918E-01 -9.56766E-02 -1.27232E-01
+3.28000E+10 -4.55972E-02 -3.36926E-01 -7.30740E-01 +6.69443E-01 -7.80816E-01 +7.14744E-01 -9.08965E-02 -3.25727E-02
+3.29000E+10 -1.03299E-01 -1.46399E-01 -6.94337E-01 +5.41729E-01 -7.95543E-01 +6.96895E-01 -2.60950E-03 -6.59161E-02
+3.30000E+10 -8.18551E-02 -9.02738E-02 -7.45817E-01 +7.13994E-01 -6.27075E-01 +6.29142E-01 -1.96222E-01 -1.03080E-01
+3.31000E+10 -1.33429E-01 -2.23400E-01 -6.99632E-01 +4.77219E-01 -7.87095E-01 +6.24853E-01 -2.13910E-02 -4.26745E-02
+3.32000E+10 -6.90527E-02 -7.64516E-02 -6.38929E-01 +4.95284E-01 -6.72547E-01 +5.85742E-01 -1.19694E-01 -9.46082E-02
+3.33000E+10 +2.11392E-03 -1.04267E-01 -7.90543E-01 +6.78793E-01 -7.42535E-01 +6.70358E-01 -1.61004E-01 -2.29658E-02
+3.34000E+10 +9.16182E-02 -7.02763E-02 -7.52862E-01 +7.55848E-01 -7.39065E-01 +6.67786E-01 -1.24766E-01 -4.95455E-02
+3.35000E+10 -4.30482E-02 -1.87707E-01 -6.33057E-01 +7.09450E-01 -7.85732E-01 +6.62250E-01 -2.08619E-01 -7.70267E-02
+3.36000E+10 -9.30908E-02 -5.91707E-02 -6.62118E-01 +7.32288E-01 -7.21255E-01 +6.08051E-01 +8.57679E-03 +1.19032E-02
+3.37000E+10 -3.96966E-02 -1.69367E-01 -7.03449E-01 +6.30250E-01 -6.87181E-01 +6.95775E-01 -1.05727E-01 -1.86154E-01
+3.38000E+10 +3.60555E-02 -1.86478E-01 -6.86593E-01 +7.14369E-01 -5.48449E-01 +7.34295E-01 +3.62478E-02 -4.73613E-02
+3.39000E+10 -5.43113E-02 -2.24674E-01 -7.06733E-01 +8.00463E-01 -6.16869E-01 +7.56306E-01 +6.69105E-03 -1.34506E-01
+3.40000E+10 +2.69398E-02 +3.39597E-02 -7.37165E-01 +6.08239E-01 -6.62446E-01 +7.34829E-01 -6.93798E-02 -2.15617E-01
+3.41000E+10 +1.00860E-01 -2.45045E-01 -6.27672E-01 +7.67124E-01 -6.03986E-01 +7.46818E-01 -1.12034E-01 +6.78009E-02
+3.42000E+10 +1.01641E-01 -1.15508E-01 -5.70788E-01 +7.63927E-01 -6.46160E-01 +7.78357E-01 -1.90067E-01 -1.32517E-01
+3.43000E+10 +2.87173E-02 -7.56957E-02 -5.91173E-01 +6.46790E-01 -6.98030E-01 +6.44330E-01 -2.23355E-01 -3.75213E-02
+3.44000E+10 -8.38256E-02 -5.79719E-02 -6.22361E-01 +7.63998E-01 -4.33876E-01 +7.74782E-01 -7.20374E-02 -2.41674E-02
+3.45000E+10 -1.52780E-01 -1.33139E-01 -6.58336E-01 +6.60613E-01 -5.87894E-01 +7.90198E-01 -1.82482E-02 -1.07547E-01
+3.46000E+10 -7.74372E-02 -1.16998E-01 -6.57641E-01 +7.86278E-01 -6.69373E-01 +7.75231E-01 +1.25119E-02 -1.24924E-01
+3.47000E+10 +4.24525E-02 -4.60057E-02 -5.18097E-01 +6.91502E-01 -5.29261E-01 +7.23651E-01 -1.27971E-01 -3.99524E-02
+3.48000E+10 -1.68043E-01 -4.39552E-02 -7.57454E-01 +6.44537E-01 -5.12891E-01 +6.86545E-01 -8.08489E-02 -1.22514E-01
+3.49000E+10 -7.64943E-02 -1.06655E-01 -5.83275E-01 +7.28755E-01 -5.87008E-01 +6.50788E-01 -6.50543E-02 -2.08691E-02
+3.50000E+10 -7.10346E-02 -1.18065E-01 -5.23655E-01 +8.28454E-01 -5.71480E-01 +7.88565E-01 +2.54759E-02 -7.02916E-02
+3.51000E+10 -1.79554E-01 -1.59863E-01 -6.08471E-01 +6.86280E-01 -6.49340E-01 +6.99268E-01 -5.68125E-02 -4.38272E-02
+3.52000E+10 -1.79499E-01 -1.48717E-01 -6.18994E-01 +7.80456E-01 -4.97273E-01 +8.50379E-01 -6.72181E-02 -2.29701E-01
+3.53000E+10 -1.75590E-03 -1.14620E-01 -5.64112E-01 +7.97768E-01 -4.81172E-01 +7.52635E-01 -2.17868E-03 -1.60961E-01
+3.54000E+10 -1.16815E-01 -1.87639E-02 -5.76076E-01 +7.34289E-01 -4.97375E-01 +8.30191E-01 -7.52711E-03 -6.03137E-02
+3.55000E+10 -1.50843E-01 -2.12317E-01 -4.95369E-01 +9.63171E-01 -6.38736E-01 +7.67192E-01 -1.01782E-01 -6.75665E-02
+3.56000E+10 -6.30661E-02 +1.61257E-02 -4.55048E-01 +7.12406E-01 -3.91123E-01 +7.61798E-01 -4.79663E-02 -1.17381E-01
+3.57000E+10 -1.62074E-01 -1.23135E-01 -6.37742E-01 +8.27216E-01 -6.04251E-01 +7.95102E-01 -9.06926E-02 -2.04032E-01
+3.58000E+10 +1.75189E-03 -1.04647E-01 -5.91346E-01 +7.10798E-01 -5.34047E-01 +8.00641E-01 +9.62194E-02 +1.30204E-01
+3.59000E+10 -1.36636E-01 -2.32263E-01 -5.59070E-01 +7.31790E-01 -3.79900E-01 +9.09156E-01 -9.17175E-02 +1.60256E-01
+3.60000E+10 -1.54609E-01 -1.88876E-01 -4.08794E-01 +8.86360E-01 -5.05755E-01 +1.13108E+00 -2.83952E-01 -4.70323E-02
+3.61000E+10 -1.45073E-01 -1.77872E-01 -6.23813E-01 +8.52629E-01 -3.95690E-01 +9.86377E-01 -1.46122E-01 -2.04520E-02
+3.62000E+10 -9.41788E-02 -1.12883E-01 -3.66960E-01 +8.65071E-01 -4.09701E-01 +8.40885E-01 +6.15380E-02 -8.82050E-02
+3.63000E+10 -1.69894E-01 -6.16286E-02 -3.16081E-01 +9.73343E-01 -2.94627E-01 +8.58927E-01 +8.15448E-02 -2.33196E-01
+3.64000E+10 +1.86511E-01 -1.76563E-01 -5.57118E-01 +9.38802E-01 -4.64397E-01 +7.33046E-01 -6.65050E-02 -4.69351E-06
+3.65000E+10 -2.08830E-01 -1.88131E-01 -3.83829E-01 +9.16062E-01 -3.03617E-01 +9.28360E-01 +5.26627E-02 +4.47999E-02
+3.66000E+10 +1.14351E-02 -1.19531E-01 -4.12011E-01 +8.97294E-01 -4.44688E-01 +1.02996E+00 -8.33896E-02 -7.83710E-02
+3.67000E+10 -5.10077E-02 -1.72429E-01 -4.51279E-01 +9.38096E-01 -4.03198E-01 +1.00901E+00 -2.75021E-01 -6.38498E-02
+3.68000E+10 -1.90824E-01 +5.78987E-02 -4.50987E-01 +8.80823E-01 -3.49669E-01 +8.28208E-01 +2.07474E-02 -3.38163E-02
+3.69000E+10 -8.39108E-02 +1.00986E-01 -2.98587E-01 +8.84369E-01 -4.58793E-01 +8.85651E-01 -2.51336E-01 -1.68232E-01
+3.70000E+10 -6.92255E-02 -5.84967E-02 -4.09560E-01 +9.29157E-01 -4.10619E-01 +9.89277E-01 -1.46656E-01 -5.09973E-02
+3.71000E+10 +5.92945E-02 -2.79382E-01 -3.37214E-01 +9.71633E-01 -3.36092E-01 +9.64210E-01 -1.01066E-01 -1.22636E-01
+3.72000E+10 -1.48835E-01 -3.07868E-01 -2.92832E-01 +9.20215E-01 -4.43275E-01 +9.49050E-01 +7.43736E-03 +5.42532E-03
+3.73000E+10 -1.65595E-01 -1.96680E-01 -2.89425E-01 +1.00157E+00 -3.11689E-01 +9.25499E-01 -7.88111E-02 -1.19455E-01
+3.74000E+10 -7.34926E-02 -2.02593E-01 -3.00334E-01 +8.95521E-01 -3.41481E-01 +8.26458E-01 -1.00322E-02 -8.59835E-02
+3.75000E+10 -1.82460E-01 -6.60640E-02 -1.57474E-01 +8.32170E-01 -3.38155E-01 +6.97762E-01 +4.54880E-02 -6.18990E-02
+3.76000E+10 -1.08438E-01 -4.56005E-02 -2.14834E-01 +8.13341E-01 -2.26921E-01 +9.85346E-01 -2.92039E-01 -4.01662E-02
+3.77000E+10 -2.44131E-03 -1.50379E-01 -4.02827E-01 +9.24863E-01 -3.35784E-01 +7.77115E-01 -1.38072E-01 +8.07351E-03
+3.78000E+10 -1.02806E-01 -5.82487E-02 -2.39345E-01 +9.03028E-01 -2.14094E-01 +1.10550E+00 +6.90358E-02 -4.19218E-01
+3.79000E+10 +2.24695E-03 -1.39005E-01 -3.24234E-01 +8.84388E-01 -2.65934E-01 +9.31964E-01 -2.96508E-01 -2.40850E-01
+3.80000E+10 +8.17034E-03 -9.49705E-02 -2.26936E-01 +8.55617E-01 -2.27880E-01 +9.62457E-01 -2.56698E-01 -9.42654E-03
+3.81000E+10 -1.20526E-01 -9.36534E-02 -3.99517E-01 +1.01775E+00 -2.13685E-01 +8.95566E-01 -7.50967E-02 -1.60808E-01
+3.82000E+10 -5.07256E-02 -5.69357E-02 -2.47248E-01 +9.56815E-01 -4.18081E-01 +9.97907E-01 +4.65218E-02 +2.10592E-02
+3.83000E+10 -6.72315E-02 -2.23663E-01 -2.75274E-01 +1.02551E+00 -3.74088E-01 +1.00512E+00 -8.49559E-02 -2.94316E-02
+3.84000E+10 -2.91491E-01 -1.04578E-02 -3.50701E-01 +1.02910E+00 -8.84916E-02 +8.14274E-01 -9.87545E-02 -3.28305E-02
+3.85000E+10 -3.70102E-02 +1.61295E-02 -1.93932E-01 +9.81212E-01 -1.06879E-01 +8.26437E-01 +1.05304E-01 -9.44011E-02
+3.86000E+10 +7.01816E-02 -1.78128E-01 -2.49586E-01 +9.38141E-01 -2.57985E-01 +8.11967E-01 -1.37122E-01 +5.26896E-02
+3.87000E+10 -2.38935E-01 -8.62830E-02 -2.67340E-01 +9.94790E-01 -1.62411E-01 +1.00281E+00 -8.52349E-02 -4.24090E-02
+3.88000E+10 +1.04644E-01 -5.96753E-02 -2.39253E-01 +9.29684E-01 -1.78609E-01 +6.89529E-01 +4.20753E-02 +7.74011E-02
+3.89000E+10 +1.30026E-01 -7.31853E-02 -1.44970E-01 +7.77992E-01 -2.36209E-01 +1.06913E+00 -1.70456E-01 -2.49564E-02
+3.90000E+10 +1.21636E-01 -1.56750E-01 -7.18132E-02 +8.15441E-01 -3.39593E-01 +9.86581E-01 -1.64550E-01 -2.30234E-01
+3.91000E+10 +5.57380E-02 -1.37738E-02 -1.49326E-01 +1.03411E+00 -1.45005E-01 +8.57388E-01 -9.20581E-02 +5.71309E-02
+3.92000E+10 -1.45245E-01 -3.69905E-02 -1.07478E-01 +1.10254E+00 -1.48930E-03 +9.07533E-01 -1.03135E-02 -1.97943E-01
+3.93000E+10 -1.14473E-01 -1.01523E-01 -1.67281E-01 +1.11317E+00 -4.42083E-01 +9.23489E-01 -1.78331E-01 +2.36657E-01
+3.94000E+10 +9.73949E-02 -3.08925E-01 -3.16930E-01 +1.10622E+00 -8.55957E-02 +9.01948E-01 -2.06723E-01 -2.25357E-01
+3.95000E+10 -1.28634E-01 -3.14643E-01 +5.64432E-02 +9.83014E-01 -8.08511E-02 +1.00459E+00 -3.18325E-01 +7.01632E-02
+3.96000E+10 -3.93771E-02 -5.72472E-02 -1.04158E-01 +8.56205E-01 -1.43976E-01 +8.97434E-01 -2.63413E-01 -1.76463E-01
+3.97000E+10 +1.74651E-02 -1.22455E-01 -7.85990E-02 +1.24429E+00 -1.16041E-02 +9.67806E-01 -3.19168E-01 -9.99675E-03
+3.98000E+10 -1.80721E-01 -7.10335E-02 -6.19794E-02 +1.08617E+00 -1.32507E-01 +1.21854E+00 -3.17687E-02 -1.26179E-01
+3.99000E+10 +5.84520E-02 +1.89377E-02 -1.26544E-01 +1.09236E+00 -1.87678E-02 +8.27571E-01 -1.73913E-01 -2.07772E-02
+4.00000E+10 +1.70387E-03 -7.67357E-02 +7.07666E-02 +1.05262E+00 -1.00366E-01 +8.43292E-01 +2.83733E-02 -1.96617E-01
