!Keysight Technologies,N5247B,MY61255062,A.19.80.06
!Date: Monday, May 18, 2026 12:50:28
!Correction: S11(Cdelta 2-Port  ) 
!S21(Cdelta 2-Port  ) 
!S12(Cdelta 2-Port  ) 
!S22(Cdelta 2-Port  ) 
!S2P File: Measurements: S11, S21, S12, S22:
# Hz S  dB   R 50
1000000000 -24.488174 21.522875 -0.39543775 -18.48394 -0.39067948 -18.477114 -24.865513 22.489971
1100000000 -24.143295 21.427214 -0.4055033 -20.294294 -0.40015069 -20.285416 -24.540253 22.702744
1200000000 -23.824797 21.529875 -0.41641524 -22.061775 -0.41135994 -22.05505 -24.233612 23.356192
1300000000 -23.476473 21.395969 -0.42048907 -23.875387 -0.41582125 -23.865788 -23.836821 23.036667
1400000000 -23.161263 21.294016 -0.4320564 -25.629206 -0.42529383 -25.610798 -23.53344 23.576199
1500000000 -22.871729 20.829048 -0.43398374 -27.405743 -0.42768976 -27.385124 -23.132038 23.040464
1600000000 -22.587713 20.239544 -0.43928373 -29.190218 -0.43308389 -29.176857 -22.901283 22.133232
1700000000 -22.301231 19.460064 -0.44301558 -30.967461 -0.43588707 -30.944426 -22.583422 21.880085
1800000000 -21.972008 18.502804 -0.44750327 -32.759052 -0.43990758 -32.729748 -22.263668 20.930445
1900000000 -21.720945 17.459368 -0.44865814 -34.543076 -0.44267935 -34.529182 -21.992861 20.036787
2000000000 -21.487009 16.621805 -0.45450604 -36.326923 -0.44718388 -36.329369 -21.773138 18.863571
2100000000 -21.25639 15.312069 -0.45847133 -38.124752 -0.45256439 -38.103542 -21.525837 18.26804
2200000000 -21.088377 14.453247 -0.46232855 -39.904922 -0.45670304 -39.89624 -21.33181 17.10825
2300000000 -20.891788 13.344366 -0.46572408 -41.708961 -0.4602887 -41.697571 -21.11062 16.286346
2400000000 -20.695347 12.295515 -0.47127879 -43.485634 -0.46553189 -43.482456 -20.910799 15.300969
2500000000 -20.475769 11.03681 -0.47582841 -45.287781 -0.47047329 -45.268745 -20.705454 13.866915
2600000000 -20.323404 9.777998 -0.48163989 -47.072483 -0.47646677 -47.056843 -20.564924 12.864817
2700000000 -20.183489 8.762991 -0.4894124 -48.851429 -0.48314553 -48.824661 -20.467073 11.86629
2800000000 -20.071486 7.5842304 -0.49541876 -50.632935 -0.48984325 -50.593952 -20.316309 10.684843
2900000000 -19.921177 6.655942 -0.5016377 -52.397163 -0.49206808 -52.376034 -20.158419 9.3129406
3000000000 -19.759386 5.3976727 -0.50314039 -54.142178 -0.49737385 -54.133423 -20.010088 8.4781866
3100000000 -19.638304 4.4894543 -0.50686878 -55.93425 -0.50190562 -55.908894 -19.850378 7.4469261
3200000000 -19.451815 3.0061495 -0.50995201 -57.697697 -0.50378656 -57.680592 -19.709385 6.3660722
3300000000 -19.384829 1.5768498 -0.51231652 -59.456184 -0.50612271 -59.446629 -19.602661 5.0097427
3400000000 -19.294834 0.5599218 -0.51605511 -61.252174 -0.5109489 -61.241108 -19.528069 3.7426956
3500000000 -19.191118 -0.86397499 -0.5246647 -63.029778 -0.51706392 -62.995102 -19.39114 2.4608066
3600000000 -19.050398 -2.2239764 -0.52497637 -64.765945 -0.52105755 -64.74855 -19.253529 1.3840909
3700000000 -18.962809 -3.8358641 -0.52730137 -66.521812 -0.52107978 -66.507309 -19.096172 -0.22370514
3800000000 -18.848137 -5.0700283 -0.52772814 -68.300507 -0.52072078 -68.301125 -18.989401 -1.6353573
3900000000 -18.728828 -6.6117167 -0.52909225 -70.097198 -0.52246863 -70.082893 -18.899729 -2.8836293
4000000000 -18.651596 -7.9421663 -0.5313133 -71.895111 -0.52753872 -71.877541 -18.837444 -3.9743826
4100000000 -18.541634 -9.5390501 -0.53632194 -73.664207 -0.53231007 -73.644264 -18.750359 -5.1029968
4200000000 -18.48826 -10.788133 -0.54192811 -75.390266 -0.53730762 -75.398109 -18.652115 -6.6119232
4300000000 -18.41972 -12.133949 -0.54350883 -77.15136 -0.53650588 -77.147461 -18.604946 -8.0496492
4400000000 -18.366644 -13.328843 -0.5464623 -78.930473 -0.53789765 -78.910362 -18.521585 -9.4346724
4500000000 -18.289507 -14.49337 -0.54600054 -80.69548 -0.53886491 -80.674866 -18.448582 -10.834261
4600000000 -18.248489 -15.998216 -0.54719776 -82.458549 -0.54213107 -82.454842 -18.378199 -12.120765
4700000000 -18.224789 -17.572115 -0.54839325 -84.234665 -0.5418328 -84.22332 -18.331135 -13.695187
4800000000 -18.211061 -18.950541 -0.54819262 -86.005455 -0.54278076 -85.994453 -18.295481 -15.011192
4900000000 -18.152851 -20.502737 -0.54874128 -87.78212 -0.54411262 -87.775047 -18.258862 -16.872185
5000000000 -18.09767 -21.757845 -0.55278248 -89.56852 -0.54536361 -89.550568 -18.188454 -18.064356
5100000000 -18.03442 -23.111204 -0.55277008 -91.330544 -0.55010349 -91.320267 -18.119017 -19.42907
5200000000 -18.018194 -24.491106 -0.55509567 -93.109528 -0.55082017 -93.089958 -18.105593 -20.580452
5300000000 -18.004372 -26.04339 -0.55349809 -94.877541 -0.55087483 -94.873619 -18.132187 -22.055153
5400000000 -18.076321 -27.495932 -0.557275 -96.662048 -0.55221242 -96.661102 -18.189751 -23.507971
5500000000 -18.054541 -29.056646 -0.55808616 -98.433853 -0.55032212 -98.420784 -18.165222 -25.461779
5600000000 -18.097 -30.55257 -0.56214368 -100.21665 -0.55619359 -100.2014 -18.15884 -27.196524
5700000000 -17.990051 -31.806883 -0.56399935 -101.9839 -0.55660081 -101.9682 -18.016211 -28.926985
5800000000 -18.047043 -33.477905 -0.56351513 -103.73999 -0.55931318 -103.72491 -18.009829 -29.984549
5900000000 -18.064001 -34.465969 -0.56672674 -105.51201 -0.55923283 -105.48488 -18.035435 -30.886013
6000000000 -18.103516 -36.540058 -0.56426144 -107.25954 -0.56141335 -107.25835 -18.174265 -32.116524
6100000000 -18.177155 -37.690937 -0.56552947 -109.02996 -0.55863988 -109.02051 -18.259863 -33.789768
6200000000 -18.195488 -39.430698 -0.56209451 -110.8045 -0.55884922 -110.80026 -18.330025 -35.772583
6300000000 -18.273939 -40.261505 -0.56400383 -112.61163 -0.55910271 -112.60645 -18.201183 -37.590656
6400000000 -18.303251 -41.590992 -0.56946468 -114.35966 -0.56445599 -114.32142 -18.233791 -39.691971
6500000000 -18.448328 -42.82629 -0.5660944 -116.14226 -0.56229985 -116.11922 -18.33177 -39.928425
6600000000 -18.519058 -44.485073 -0.56650025 -117.91009 -0.56118745 -117.90125 -18.42145 -40.742142
6700000000 -18.675158 -45.689045 -0.5689317 -119.67866 -0.5643065 -119.65791 -18.550892 -42.157349
6800000000 -18.59877 -46.987541 -0.5691849 -121.45485 -0.56368226 -121.41782 -18.677921 -44.177536
6900000000 -18.640949 -48.606522 -0.5659346 -123.22534 -0.55999899 -123.19781 -18.670815 -45.811218
7000000000 -18.621267 -49.195599 -0.56340635 -125.0192 -0.55869108 -124.99742 -18.625353 -47.445126
7100000000 -18.681164 -50.619453 -0.56621593 -126.81245 -0.5611279 -126.78917 -18.616282 -47.985561
7200000000 -18.771315 -51.98262 -0.57431871 -128.55209 -0.56814563 -128.52867 -18.685854 -49.473778
7300000000 -18.939743 -53.546162 -0.5619716 -130.29953 -0.55488443 -130.27818 -18.972225 -50.760765
7400000000 -19.074316 -54.531231 -0.55836695 -132.13208 -0.55108082 -132.11252 -19.088154 -52.66618
7500000000 -19.128057 -55.97823 -0.55946958 -133.94888 -0.55479383 -133.92914 -19.10117 -54.644299
7600000000 -19.19681 -56.807701 -0.56203616 -135.7482 -0.55740064 -135.72221 -19.038042 -56.452923
7700000000 -19.338266 -58.680363 -0.57033831 -137.47661 -0.56416506 -137.44859 -19.120386 -57.490829
7800000000 -19.416632 -59.628651 -0.56106842 -139.28726 -0.55713814 -139.27789 -19.289431 -57.330894
7900000000 -19.584198 -61.375595 -0.56041604 -141.08083 -0.55551809 -141.04065 -19.614748 -58.596207
8000000000 -19.78022 -62.369129 -0.55956846 -142.8779 -0.55587167 -142.85199 -19.828983 -61.120022
8100000000 -19.89765 -63.586658 -0.56489021 -144.68878 -0.56174833 -144.67198 -19.884789 -63.677341
8200000000 -20.058821 -64.766823 -0.5730741 -146.48425 -0.56893581 -146.45918 -19.749228 -66.464203
8300000000 -20.344101 -66.703728 -0.57694405 -148.16502 -0.57198346 -148.13428 -19.942091 -66.504517
8400000000 -20.670471 -67.494431 -0.56291658 -149.96564 -0.55614209 -149.94115 -20.357235 -65.090981
8500000000 -20.926142 -68.632683 -0.56290948 -151.88327 -0.55405682 -151.86272 -21.327953 -66.343918
8600000000 -21.129343 -68.326965 -0.61154598 -153.8033 -0.606574 -153.78055 -23.073729 -75.465576
8700000000 -21.565969 -73.53643 -0.66474771 -154.70093 -0.66277909 -154.68919 -28.089525 -83.172218
8800000000 -21.921368 -69.086548 -0.52369207 -156.58365 -0.51531094 -156.56609 -26.328978 -72.213791
8900000000 -21.607872 -71.173676 -0.52728999 -158.80779 -0.52267182 -158.78439 -23.597456 -80.89798
9000000000 -21.842781 -73.273941 -0.54560518 -160.69354 -0.54024893 -160.65356 -22.035955 -85.390938
9100000000 -22.040436 -72.898201 -0.55395889 -162.49515 -0.55391157 -162.476 -21.28385 -83.061043
9200000000 -22.240967 -73.97216 -0.56489468 -164.30313 -0.561804 -164.27342 -21.259207 -80.024406
9300000000 -22.628662 -73.619881 -0.57004815 -166.04997 -0.56458217 -166.00508 -21.951754 -76.323578
9400000000 -22.891983 -75.640831 -0.5691489 -167.80272 -0.56399465 -167.79486 -22.588173 -76.930435
9500000000 -23.319836 -76.278351 -0.56605345 -169.61578 -0.5636943 -169.60371 -23.433783 -80.326126
9600000000 -23.49478 -76.665443 -0.57073092 -171.42407 -0.5631308 -171.38278 -23.575239 -85.166771
9700000000 -23.916313 -76.622307 -0.57052344 -173.2193 -0.56613511 -173.19847 -23.687231 -87.624245
9800000000 -24.119476 -76.077408 -0.57265055 -175.01605 -0.56587857 -174.9989 -23.711313 -87.231209
9900000000 -24.675781 -77.31707 -0.57563251 -176.79922 -0.56580013 -176.80074 -24.239492 -85.962036
10000000000 -25.07267 -76.588203 -0.57820511 -178.60713 -0.57268482 -178.58752 -24.829681 -85.378876
10100000000 -25.614904 -77.088921 -0.57934648 179.59618 -0.57437009 179.61092 -25.90922 -87.871597
10200000000 -25.977179 -74.416016 -0.58304673 177.79402 -0.57727724 177.82533 -26.39941 -92.13932
10300000000 -26.391882 -73.860657 -0.58644825 175.99384 -0.581707 176.02477 -26.774233 -96.518036
10400000000 -26.688898 -71.880203 -0.59176594 174.18565 -0.58472449 174.22108 -26.713207 -96.780396
10500000000 -27.187605 -72.64402 -0.59519237 172.42015 -0.59109497 172.44691 -27.03998 -94.576569
10600000000 -27.658497 -70.688644 -0.59541267 170.6274 -0.59234768 170.67223 -27.653898 -90.236687
10700000000 -28.041536 -68.245895 -0.60186994 168.83356 -0.59472007 168.87772 -28.99637 -88.339302
10800000000 -28.661503 -63.019829 -0.60405982 167.07678 -0.6010443 167.10629 -30.352716 -86.219803
10900000000 -28.838673 -57.600967 -0.60709494 165.29898 -0.60009402 165.33919 -32.215271 -90.006538
11000000000 -29.285696 -54.058132 -0.6066038 163.51262 -0.60163891 163.55113 -33.316811 -91.644592
11100000000 -29.578875 -52.177994 -0.61425567 161.73192 -0.60800034 161.76231 -34.220291 -94.936607
11200000000 -29.878124 -49.835136 -0.61204249 159.95203 -0.61029786 159.996 -34.653557 -88.79319
11300000000 -29.836493 -44.319084 -0.61894035 158.16705 -0.61592942 158.22226 -35.850906 -84.955101
11400000000 -29.515358 -38.999619 -0.61767185 156.38066 -0.61462426 156.40953 -36.381687 -71.181351
11500000000 -29.251911 -33.533314 -0.62248361 154.60464 -0.6158101 154.63113 -37.45607 -59.042778
11600000000 -29.139133 -29.058855 -0.62533015 152.84253 -0.6207993 152.86049 -38.13744 -38.995785
11700000000 -28.743914 -25.220919 -0.62958872 151.04747 -0.6222204 151.06635 -38.692989 -18.198246
11800000000 -28.718323 -21.793646 -0.63205665 149.25528 -0.62615657 149.30602 -37.230808 -3.3289118
11900000000 -28.150408 -18.497389 -0.63522977 147.48238 -0.62973833 147.48732 -36.676201 9.8063564
12000000000 -27.873583 -15.632937 -0.64076543 145.68028 -0.6375199 145.70938 -34.973297 13.867666
12100000000 -27.120573 -13.440137 -0.6445061 143.92744 -0.63922185 143.95088 -34.370106 18.329651
12200000000 -26.746748 -13.556337 -0.6493122 142.15718 -0.64480937 142.17636 -33.292942 15.903986
12300000000 -26.091101 -11.609035 -0.65473849 140.38716 -0.6468305 140.40434 -31.815838 17.118395
12400000000 -25.763262 -11.044066 -0.65671188 138.61732 -0.65312737 138.62981 -30.521797 17.113197
12500000000 -25.16012 -8.1010685 -0.66103268 136.84953 -0.6549561 136.87534 -29.503071 19.549961
12600000000 -24.914312 -8.9800081 -0.66474891 135.09419 -0.65921909 135.12552 -28.631887 19.222235
12700000000 -24.444715 -7.6262555 -0.66657412 133.32225 -0.66278636 133.35843 -27.962458 21.176916
12800000000 -24.2117 -9.3400087 -0.66731119 131.58946 -0.66108572 131.61389 -27.331194 19.141548
12900000000 -23.789845 -8.8651838 -0.66903633 129.80164 -0.66171241 129.82852 -26.926374 20.167109
13000000000 -23.302479 -10.014331 -0.67025858 128.05075 -0.66106248 128.07904 -26.278917 18.189611
13100000000 -23.09466 -8.1951332 -0.6678443 126.28441 -0.66404337 126.29923 -25.908129 17.859823
13200000000 -22.601091 -9.5492153 -0.66821414 124.5214 -0.66262174 124.55135 -25.202169 16.478453
13300000000 -22.541742 -8.6843157 -0.66676277 122.72637 -0.66168886 122.76942 -24.689287 14.915198
13400000000 -21.929564 -9.5720587 -0.66844267 120.94462 -0.66100222 120.99698 -23.996208 14.606528
13500000000 -21.828255 -9.2159252 -0.66902483 119.17824 -0.65845537 119.21986 -23.5245 14.348199
13600000000 -21.383232 -9.5126295 -0.6663692 117.40495 -0.66190052 117.43505 -22.967489 13.809148
13700000000 -21.259644 -10.043444 -0.66729307 115.60282 -0.66194695 115.64449 -22.724916 13.347016
13800000000 -20.826368 -9.8302031 -0.66790438 113.81776 -0.66457754 113.8447 -22.199841 12.45812
13900000000 -20.612215 -11.95007 -0.66879022 111.99638 -0.66603214 112.02707 -22.021547 10.759923
14000000000 -20.074968 -11.080016 -0.67193955 110.1931 -0.66647184 110.22671 -21.397242 9.7592506
14100000000 -19.915764 -12.108229 -0.67891151 108.37907 -0.67567694 108.41132 -21.166878 7.9096031
14200000000 -19.601507 -12.643348 -0.69350028 106.62582 -0.69030249 106.65901 -20.598967 6.1620841
14300000000 -19.631374 -14.842314 -0.68939584 104.94475 -0.68762141 104.98447 -20.644854 4.2217746
14400000000 -19.423737 -14.422035 -0.68357921 103.13887 -0.67826658 103.18263 -20.170807 3.6578083
14500000000 -19.101694 -16.147696 -0.68332684 101.31815 -0.6813392 101.37355 -19.939653 2.0955482
14600000000 -18.769323 -15.754035 -0.68628299 99.521446 -0.68108392 99.564445 -19.500446 1.8052226
14700000000 -18.492065 -17.128479 -0.69245058 97.739807 -0.68611926 97.785957 -19.26288 0.5667367
14800000000 -18.377478 -17.67955 -0.69440472 95.947258 -0.68968958 95.974075 -19.011078 0.40392721
14900000000 -18.103628 -19.93503 -0.69699854 94.143181 -0.69239044 94.163681 -18.982718 -1.1688536
15000000000 -17.936546 -21.243521 -0.70805293 92.299431 -0.70333177 92.352776 -18.764277 -4.2850695
15100000000 -17.616293 -23.662497 -0.73626769 90.583 -0.72951335 90.61026 -18.549574 -8.4401922
15200000000 -17.85092 -24.112923 -0.72592086 89.007767 -0.71942967 89.052544 -18.391005 -10.456569
15300000000 -17.487129 -24.512722 -0.71210396 87.169373 -0.70720166 87.213882 -17.985197 -10.634074
15400000000 -17.439699 -25.971466 -0.71003485 85.304832 -0.70892721 85.363052 -17.715294 -10.405362
15500000000 -17.021729 -27.971395 -0.72206539 83.48069 -0.72036797 83.545265 -17.623945 -11.284747
15600000000 -17.133198 -30.115101 -0.72507745 81.773018 -0.72224849 81.792946 -17.716213 -12.148086
15700000000 -16.770369 -30.46084 -0.73013067 79.961281 -0.7267828 80.004715 -17.670729 -15.45636
15800000000 -16.797276 -31.850132 -0.74114335 78.199318 -0.73554736 78.247917 -17.455362 -18.706604
15900000000 -16.590786 -31.816845 -0.74088669 76.407707 -0.73550016 76.460548 -17.124252 -21.60392
16000000000 -16.627926 -34.73122 -0.75214672 74.650963 -0.74837959 74.687813 -16.868948 -22.770739
16100000000 -16.51503 -35.820049 -0.76570958 72.937065 -0.76195222 72.970932 -16.713257 -24.144369
16200000000 -16.446045 -39.247177 -0.77175212 71.222336 -0.77176845 71.259682 -16.694113 -24.124023
16300000000 -16.446611 -39.499229 -0.77550614 69.552391 -0.77296311 69.589867 -16.720079 -26.867388
16400000000 -16.273964 -41.047989 -0.77611893 67.849625 -0.7684347 67.897186 -16.786327 -27.645767
16500000000 -16.363867 -40.005405 -0.76206762 66.115074 -0.75849438 66.176872 -16.771078 -30.568171
16600000000 -16.255171 -40.76302 -0.75477654 64.361435 -0.75375134 64.404015 -16.583714 -31.058916
16700000000 -16.436914 -41.429634 -0.75031263 62.545837 -0.7483021 62.598282 -16.441124 -33.195244
16800000000 -16.262772 -43.794003 -0.74914604 60.759937 -0.74644315 60.817215 -16.373158 -32.940269
16900000000 -16.288406 -45.732841 -0.7489 58.984867 -0.74444544 59.019855 -16.216316 -35.153603
17000000000 -15.890747 -46.564816 -0.74551243 57.188705 -0.74602169 57.229874 -16.306803 -36.056393
17100000000 -15.853835 -47.001301 -0.75101167 55.39333 -0.74598175 55.463089 -16.146461 -38.543144
17200000000 -15.768018 -46.084137 -0.75353396 53.62458 -0.75145918 53.653763 -16.22278 -40.374584
17300000000 -15.982669 -47.628677 -0.75718415 51.848293 -0.75385231 51.868549 -15.94073 -42.178764
17400000000 -16.14002 -49.585381 -0.76038563 50.077606 -0.7506603 50.115314 -15.970259 -42.774643
17500000000 -16.108179 -53.329544 -0.7650674 48.307026 -0.7586112 48.338242 -15.857487 -43.678589
17600000000 -15.868632 -54.44836 -0.76221198 46.564041 -0.75559801 46.626736 -16.111536 -45.256409
17700000000 -15.699045 -55.718433 -0.76927918 44.797623 -0.76447099 44.817402 -16.154648 -47.057903
17800000000 -15.739423 -54.333855 -0.76583618 43.023952 -0.76591522 43.023636 -16.265564 -50.739368
17900000000 -15.993055 -55.365181 -0.77278554 41.249748 -0.76401043 41.25462 -16.097763 -53.245182
18000000000 -16.288105 -57.030838 -0.7742604 39.43367 -0.77068114 39.484467 -15.942342 -55.469532
18100000000 -16.224436 -60.944817 -0.77605146 37.707195 -0.77106512 37.714989 -15.710408 -55.121189
18200000000 -16.148592 -62.715973 -0.78142536 35.966805 -0.77195001 35.993217 -15.810744 -55.402576
18300000000 -15.887457 -64.007286 -0.78290504 34.239559 -0.78059429 34.27874 -16.085173 -55.650597
18400000000 -16.150068 -62.987583 -0.77382606 32.489307 -0.7710107 32.539757 -16.511065 -57.993511
18500000000 -16.19315 -62.971455 -0.77353007 30.70402 -0.76739085 30.76754 -16.662899 -62.619305
18600000000 -16.518795 -64.257866 -0.77203035 28.926849 -0.77028424 28.93906 -16.469828 -66.809677
18700000000 -16.371256 -66.545845 -0.77098536 27.143055 -0.76342744 27.162663 -16.093534 -68.395729
18800000000 -16.458298 -68.539513 -0.77201182 25.372429 -0.76581085 25.402977 -15.808016 -67.769615
18900000000 -16.269171 -69.251785 -0.7667194 23.660452 -0.75781226 23.676146 -15.899833 -66.248779
19000000000 -16.410915 -71.14872 -0.76840782 21.90398 -0.76570523 21.981033 -16.453577 -65.954483
19100000000 -16.535896 -69.836357 -0.76685649 20.153046 -0.75910598 20.205866 -16.793509 -68.727859
19200000000 -16.656088 -71.369377 -0.77039492 18.381485 -0.76671875 18.409168 -17.304167 -73.817123
19300000000 -16.856302 -71.309868 -0.76896155 16.58514 -0.76423699 16.622295 -16.89303 -77.479012
19400000000 -16.914412 -73.214027 -0.76891488 14.828877 -0.7670489 14.8817 -16.875742 -78.829193
19500000000 -17.271309 -74.368927 -0.76695627 13.064136 -0.75916857 13.093987 -16.632364 -78.44133
19600000000 -17.102606 -76.795944 -0.76678425 11.282716 -0.76277542 11.326549 -16.960781 -78.289139
19700000000 -17.271795 -77.452751 -0.76418543 9.5602045 -0.7574048 9.5813589 -17.268209 -78.924568
19800000000 -17.122223 -76.849625 -0.76299077 7.7862868 -0.75868517 7.8065367 -17.81402 -82.964653
19900000000 -17.524874 -76.09993 -0.75813955 6.035006 -0.75242376 6.0727344 -17.875862 -85.323914
20000000000 -17.948971 -76.222572 -0.7570942 4.221045 -0.75177801 4.2914672 -17.919977 -89.049706
20100000000 -18.536795 -78.887825 -0.75141174 2.4797208 -0.74860626 2.5289567 -17.951427 -88.170456
20200000000 -18.525827 -82.307846 -0.75478512 0.68952233 -0.74371672 0.74732125 -18.247538 -88.771729
20300000000 -18.492439 -84.966125 -0.74760711 -1.0764489 -0.73990959 -1.026536 -18.812595 -89.443916
20400000000 -18.408436 -83.086754 -0.7376523 -2.8602405 -0.73099107 -2.8224072 -19.200487 -94.433983
20500000000 -18.675724 -80.720467 -0.74054343 -4.6471839 -0.73217052 -4.6028166 -19.38619 -98.267021
20600000000 -19.177092 -79.025322 -0.73707867 -6.457593 -0.72734994 -6.4227414 -19.161753 -101.34694
20700000000 -19.894352 -82.313202 -0.72880423 -8.2766943 -0.72341275 -8.2507229 -19.352528 -100.20348
20800000000 -20.321489 -84.51786 -0.72563881 -10.069614 -0.72016418 -10.027938 -19.442347 -98.866966
20900000000 -20.267803 -87.427025 -0.71957392 -11.873878 -0.71638066 -11.844734 -20.420927 -96.535728
21000000000 -20.251616 -85.798058 -0.72462809 -13.671099 -0.71523422 -13.633811 -21.386314 -99.878632
21100000000 -20.216141 -82.225266 -0.72924143 -15.469786 -0.72367883 -15.453096 -22.093201 -104.0129
21200000000 -20.64316 -78.394661 -0.74005413 -17.240831 -0.73274839 -17.205402 -22.272726 -111.03275
21300000000 -21.000792 -79.67981 -0.72827917 -19.012981 -0.72215587 -18.972599 -21.769211 -113.87935
21400000000 -21.958652 -81.497635 -0.72362465 -20.84379 -0.72172886 -20.786552 -21.961514 -111.35303
21500000000 -21.702131 -85.62796 -0.71581596 -22.688589 -0.71062201 -22.650328 -21.753731 -109.20343
21600000000 -22.265869 -85.066772 -0.70976961 -24.480555 -0.70685989 -24.462786 -22.893568 -104.499
21700000000 -21.74579 -81.139557 -0.70594585 -26.295929 -0.70041567 -26.248625 -24.407223 -102.81562
21800000000 -22.27389 -75.7248 -0.70545769 -28.070433 -0.70552373 -27.972149 -26.631639 -110.3174
21900000000 -22.375435 -69.76577 -0.71303183 -29.83647 -0.70911002 -29.802635 -28.075237 -116.89754
22000000000 -23.5114 -66.149895 -0.72522765 -31.679022 -0.7173565 -31.669771 -27.564371 -131.10924
22100000000 -23.60474 -65.11174 -0.73393017 -33.511631 -0.72502112 -33.487659 -27.109858 -123.25623
22200000000 -24.055206 -70.115868 -0.74560398 -35.323494 -0.7422092 -35.313499 -27.440748 -119.05038
22300000000 -23.549772 -68.197159 -0.74650401 -37.063255 -0.74230069 -37.022018 -28.1602 -100.02272
22400000000 -23.257769 -66.171577 -0.72853208 -38.756828 -0.72031939 -38.719631 -31.359653 -100.07542
22500000000 -23.044048 -55.40152 -0.70956939 -40.651123 -0.70831591 -40.584126 -38.331459 -83.035057
22600000000 -23.233141 -48.479908 -0.7194615 -42.447018 -0.71198928 -42.419247 -44.889954 -151.51732
22700000000 -24.055416 -39.398243 -0.72201496 -44.29509 -0.72320849 -44.248451 -52.966454 -175.05785
22800000000 -24.721722 -43.76202 -0.74360365 -46.120228 -0.73609352 -46.087551 -43.19878 -127.5935
22900000000 -24.59696 -46.2188 -0.7482664 -47.929737 -0.74603152 -47.892288 -37.741123 -32.306812
23000000000 -23.131571 -49.218769 -0.74835128 -49.66824 -0.7406435 -49.651093 -36.232574 -19.977448
23100000000 -22.058205 -40.492908 -0.74954933 -51.56443 -0.746773 -51.528889 -30.185648 16.337032
23200000000 -21.018238 -33.396431 -0.7616598 -53.406517 -0.75187093 -53.343292 -30.126625 31.120884
23300000000 -21.403452 -25.125063 -0.76972604 -55.138405 -0.76282972 -55.107208 -28.848316 41.621662
23400000000 -22.033882 -24.657291 -0.77245498 -56.933674 -0.7670576 -56.893032 -31.472927 26.916691
23500000000 -23.003349 -28.621191 -0.77356595 -58.697758 -0.77330083 -58.683319 -29.889021 13.199471
23600000000 -22.036486 -33.667267 -0.78569275 -60.487267 -0.78093082 -60.434711 -27.075188 -5.2880702
23700000000 -20.839628 -35.151314 -0.79163861 -62.194687 -0.78784049 -62.185772 -24.071379 7.4605527
23800000000 -19.701706 -33.100731 -0.79862571 -63.943726 -0.80094165 -63.915192 -23.13015 14.903743
23900000000 -19.513123 -27.23558 -0.79986852 -65.723358 -0.79537451 -65.697769 -22.461353 25.125952
24000000000 -19.43815 -23.800919 -0.79878467 -67.547707 -0.79181224 -67.51268 -24.198809 27.092482
24100000000 -20.232216 -24.384466 -0.79438972 -69.316841 -0.79106838 -69.302643 -25.135511 17.230087
24200000000 -20.231047 -27.150806 -0.78533453 -71.098503 -0.77932763 -71.082382 -24.083498 2.0353425
24300000000 -19.728079 -31.712835 -0.78293139 -72.908531 -0.77697235 -72.865395 -22.031664 -4.3969097
24400000000 -18.45714 -30.589897 -0.78430641 -74.64315 -0.77751446 -74.561874 -19.979548 1.0129106
24500000000 -17.886112 -29.833563 -0.79042393 -76.38855 -0.79060221 -76.391327 -19.307549 7.3167439
24600000000 -17.524719 -25.09573 -0.80303746 -78.2342 -0.79888457 -78.161949 -19.052538 12.252922
24700000000 -17.732136 -25.500542 -0.80204564 -80.012634 -0.79711205 -79.963005 -19.735346 11.806516
24800000000 -18.07546 -25.419817 -0.8073265 -81.920891 -0.80334079 -81.887444 -20.418085 6.4677439
24900000000 -17.747227 -30.938517 -0.80065346 -83.705551 -0.79214591 -83.673103 -19.729782 -2.1790819
25000000000 -17.284246 -31.543747 -0.80016232 -85.491379 -0.80261111 -85.466217 -18.732595 -7.8787379
25100000000 -16.247318 -33.655251 -0.80735922 -87.249878 -0.80473477 -87.216179 -17.397152 -5.6403289
25200000000 -16.092487 -30.723967 -0.81335539 -88.959152 -0.81565922 -88.896133 -17.035858 -5.263907
25300000000 -15.685817 -29.815746 -0.82963181 -90.70369 -0.82833445 -90.672569 -16.898825 -2.006321
25400000000 -16.252735 -29.627094 -0.8396979 -92.591499 -0.83080423 -92.554764 -17.228857 -6.4740868
25500000000 -15.927515 -31.113285 -0.84062356 -94.289185 -0.84000224 -94.283447 -16.882542 -6.5420237
25600000000 -15.8916 -36.219887 -0.85055333 -96.185081 -0.84470654 -96.127281 -16.940502 -12.68666
25700000000 -15.367118 -36.416672 -0.85776871 -97.953667 -0.85050893 -97.900223 -16.099066 -13.535783
25800000000 -15.074636 -37.385757 -0.8580488 -99.736298 -0.85391706 -99.628731 -15.893424 -15.066573
25900000000 -14.703186 -35.584515 -0.86570662 -101.44814 -0.8584134 -101.46474 -15.394808 -15.979071
26000000000 -14.682372 -37.884792 -0.87193114 -103.1743 -0.86692739 -103.16966 -15.292213 -16.605835
26100000000 -14.768781 -37.117878 -0.88148791 -105.03536 -0.87459493 -104.92572 -15.265875 -18.863733
26200000000 -14.584738 -37.891499 -0.89109623 -106.70802 -0.88152343 -106.69838 -14.941779 -19.124149
26300000000 -14.527136 -39.406685 -0.89980322 -108.48875 -0.89679778 -108.44392 -15.230715 -22.906666
26400000000 -14.283314 -42.342216 -0.91244411 -110.26927 -0.90111512 -110.21143 -14.554068 -23.752626
26500000000 -14.248314 -43.418663 -0.90580004 -111.98682 -0.91055572 -111.87215 -14.665576 -26.476913
26600000000 -13.846703 -43.662682 -0.92499632 -113.71115 -0.91797292 -113.5888 -14.057991 -27.38962
26700000000 -13.842066 -43.567398 -0.92452425 -115.54724 -0.92996615 -115.46754 -14.087425 -29.242144
26800000000 -13.795861 -44.571228 -0.91266066 -117.20259 -0.9125604 -117.22785 -13.989656 -28.96113
26900000000 -13.856711 -45.804996 -0.9393248 -118.96403 -0.92081898 -118.8776 -14.08567 -32.467461
27000000000 -13.678799 -47.639011 -0.93236256 -120.69067 -0.91713262 -120.66197 -14.357099 -31.197573
27100000000 -13.506726 -50.636139 -0.92336851 -122.38792 -0.9272567 -122.31274 -14.026014 -37.641747
27200000000 -13.490998 -49.623119 -0.94185114 -124.24538 -0.91367644 -124.23956 -13.749334 -38.543728
27300000000 -13.455701 -51.425606 -0.93369716 -125.91013 -0.9170987 -125.9053 -13.268272 -39.620922
27400000000 -13.310338 -51.536823 -0.94027901 -127.77959 -0.93965483 -127.7144 -13.423522 -39.696548
27500000000 -13.407352 -53.903732 -0.94855064 -129.58266 -0.93233079 -129.38132 -13.346043 -40.374767
27600000000 -13.314842 -54.744038 -0.95238757 -131.26691 -0.92253965 -131.21724 -13.934295 -42.510319
27700000000 -13.142003 -56.93391 -0.92670935 -132.99757 -0.94139069 -133.04422 -13.634766 -46.761055
27800000000 -13.18464 -56.249886 -0.93488902 -134.82643 -0.94333792 -134.76237 -13.539696 -50.130558
27900000000 -13.235391 -58.937744 -0.94634134 -136.45522 -0.93082178 -136.37061 -12.780516 -50.438858
28000000000 -13.397933 -58.51783 -0.96180344 -138.20297 -0.94997787 -138.29022 -13.102805 -51.675331
28100000000 -13.167916 -61.69165 -0.94019836 -140.00233 -0.9587009 -140.05679 -12.961432 -50.373241
28200000000 -13.22215 -61.853523 -0.97713959 -141.94443 -0.96085191 -141.71063 -13.461806 -53.065731
28300000000 -12.784153 -63.227676 -0.96107346 -143.51762 -0.93586284 -143.54936 -13.402864 -55.906326
28400000000 -13.037189 -64.134666 -0.94559592 -145.39774 -0.9404918 -145.36064 -13.296969 -60.80278
28500000000 -13.015844 -64.057343 -0.94751573 -147.1113 -0.93114221 -147.04279 -12.641116 -59.197025
28600000000 -13.097949 -65.467583 -0.92369705 -148.80002 -0.931463 -148.83841 -12.541945 -61.280785
28700000000 -13.123158 -66.034752 -0.94192183 -150.44315 -0.94693494 -150.6263 -12.86749 -58.269054
28800000000 -13.473727 -68.248482 -0.9724167 -152.48412 -0.97404093 -152.38556 -13.451823 -61.581226
28900000000 -13.20131 -65.326607 -0.98189718 -154.11525 -0.97286975 -154.01897 -13.325574 -66.263084
29000000000 -13.039245 -71.143364 -0.98731565 -155.95335 -0.98169243 -155.97174 -13.180517 -69.316727
29100000000 -13.073482 -70.590515 -0.96708852 -157.85762 -0.99116069 -157.66328 -12.375975 -71.532883
29200000000 -12.951395 -71.332611 -0.98559648 -159.43019 -0.97351003 -159.21918 -12.3989 -70.062714
29300000000 -13.090304 -68.885078 -0.95394152 -161.11534 -0.9395774 -160.95854 -12.442548 -67.610764
29400000000 -13.002655 -72.383339 -0.95056844 -162.77763 -0.93190604 -162.55426 -13.715848 -68.784409
29500000000 -13.731612 -73.748665 -0.94546944 -164.50809 -0.95963836 -164.46106 -13.636635 -72.92926
29600000000 -13.692556 -76.462723 -0.96494186 -166.33835 -0.96552473 -166.39223 -14.134392 -80.231667
29700000000 -13.781741 -78.23452 -0.98195171 -168.19591 -0.97290862 -168.14499 -13.319889 -80.350464
29800000000 -13.201472 -77.508995 -0.9878577 -169.8732 -0.97943014 -169.90887 -13.307234 -83.408073
29900000000 -13.450065 -78.626823 -0.96618986 -171.63687 -0.96762091 -171.54578 -12.674248 -78.750961
30000000000 -13.846405 -75.789757 -0.97538161 -173.40202 -0.97134238 -173.11537 -13.561748 -80.282738
30100000000 -14.133038 -77.087708 -0.97319973 -175.03854 -0.95670867 -175.06476 -13.844072 -78.831619
30200000000 -14.391612 -76.783073 -0.94207042 -176.85867 -0.9501847 -176.8222 -14.680005 -86.639893
30300000000 -14.335107 -85.298378 -0.98669606 -178.50908 -0.94917095 -178.52055 -14.561239 -87.364578
30400000000 -14.19231 -85.137131 -0.97093385 179.81424 -0.95401472 179.68245 -14.003213 -95.054901
30500000000 -13.951205 -85.201813 -0.96253711 177.91347 -0.95687032 177.94637 -13.805492 -90.571106
30600000000 -14.043116 -83.202286 -0.94401985 176.07336 -0.95107561 176.12723 -13.86675 -93.16713
30700000000 -14.32383 -85.27729 -0.92346138 174.48819 -0.92001879 174.54173 -14.461453 -89.67881
30800000000 -14.827917 -81.968842 -0.95742726 172.72156 -0.96469718 172.80116 -15.225877 -95.913101
30900000000 -15.052035 -85.764053 -0.94853967 170.83943 -0.93525022 171.02362 -15.350093 -93.647713
31000000000 -15.394475 -84.222107 -0.95405406 169.21269 -0.93554205 169.19633 -15.266717 -101.55987
31100000000 -14.815483 -93.172363 -0.93421167 167.17963 -0.93690658 167.11583 -14.948697 -102.15702
31200000000 -14.839694 -92.256279 -0.92355359 165.51135 -0.90538579 165.64906 -14.715521 -99.282532
31300000000 -14.342641 -90.222328 -0.92860419 163.56248 -0.90446532 163.69708 -15.371033 -102.66421
31400000000 -15.161774 -83.650795 -0.88490361 162.12688 -0.88288468 162.11021 -15.773141 -102.62655
31500000000 -15.4394 -84.780853 -0.90364391 160.25821 -0.889395 160.51028 -17.034159 -103.97859
31600000000 -16.972845 -89.379593 -0.89303058 158.48454 -0.91597921 158.54938 -16.744844 -110.70423
31700000000 -16.738707 -94.412781 -0.91154641 156.81377 -0.89673632 156.90514 -16.900352 -112.58093
31800000000 -16.060776 -95.239082 -0.92822397 154.80145 -0.88664401 154.8317 -16.291695 -115.00574
31900000000 -15.117618 -89.41201 -0.85229963 153.04543 -0.90078676 152.82298 -16.722267 -110.87044
32000000000 -15.957821 -87.387459 -0.87275612 151.16083 -0.88724506 151.2868 -17.196648 -113.3338
32100000000 -17.408501 -79.568687 -0.87353981 149.44974 -0.84360015 149.44402 -18.415295 -107.50622
32200000000 -19.336185 -88.643219 -0.82895505 147.87047 -0.87402189 147.83958 -19.465643 -117.30923
32300000000 -19.136814 -90.560318 -0.8723349 145.88931 -0.88086706 146.00902 -20.210644 -117.54736
32400000000 -17.730459 -95.711884 -0.87932509 144.01894 -0.86011267 144.01785 -20.577429 -132.8942
32500000000 -17.49087 -88.200226 -0.89248341 142.10507 -0.86894679 142.28357 -19.83754 -128.41803
32600000000 -17.427214 -86.086731 -0.88916564 140.47453 -0.8588872 140.50955 -19.522072 -127.21267
32700000000 -19.269466 -72.787354 -0.86476296 138.41382 -0.86372161 138.41005 -19.865595 -120.60217
32800000000 -18.875751 -77.046463 -0.84837884 136.70724 -0.84638184 136.80009 -21.108879 -108.28365
32900000000 -20.783861 -82.22126 -0.84545714 134.92416 -0.85750318 134.97113 -24.256592 -107.67863
33000000000 -19.797348 -85.542 -0.86237198 133.11613 -0.83702374 133.22922 -26.273464 -118.23666
33100000000 -19.289291 -83.696266 -0.84044576 131.09308 -0.85035151 131.50891 -27.1523 -141.48041
33200000000 -18.317108 -78.437897 -0.85250688 129.28815 -0.84057081 129.52359 -23.394085 -125.1829
33300000000 -19.566675 -77.047066 -0.8664059 127.55001 -0.88226491 127.74528 -25.247559 -132.21858
33400000000 -19.947607 -70.806404 -0.85519594 125.80251 -0.8638255 125.88607 -23.849831 -106.4093
33500000000 -19.805222 -72.773918 -0.84370863 124.27541 -0.8679496 124.18315 -27.122972 -104.43036
33600000000 -19.400595 -70.104492 -0.85167128 122.20731 -0.83867007 122.17171 -28.414434 -90.183388
33700000000 -19.319227 -70.98687 -0.87470353 120.4988 -0.86753964 120.30452 -33.700085 -94.926514
33800000000 -19.791056 -70.49736 -0.88102019 118.67473 -0.85765517 118.67962 -33.942577 -99.333679
33900000000 -20.09971 -72.384361 -0.88108075 116.63576 -0.89579129 116.73606 -31.572073 -100.28991
34000000000 -19.320765 -62.94878 -0.87219566 115.11569 -0.86237645 114.97334 -30.506594 -52.583996
34100000000 -18.990713 -64.194099 -0.88059312 113.07751 -0.87502396 113.29212 -29.794863 -60.173771
34200000000 -18.533974 -55.692482 -0.89246368 111.70866 -0.82398993 111.58512 -26.786232 -8.5275908
34300000000 -18.740314 -55.582493 -0.88565803 109.83401 -0.88818794 109.77462 -31.909111 -31.88961
34400000000 -18.862516 -52.070496 -0.87802261 107.78917 -0.88224238 107.90393 -29.572487 -8.2538614
34500000000 -18.923607 -57.583221 -0.91405123 105.83752 -0.91269195 105.94399 -29.114178 -36.228043
34600000000 -18.469446 -51.27137 -0.9363519 104.14349 -0.92952269 104.2624 -24.564999 -15.057642
34700000000 -18.145689 -51.145672 -0.92459536 102.19899 -0.90859377 102.52872 -22.763889 -17.820065
34800000000 -18.616356 -45.214062 -0.90971458 100.56165 -0.89924151 100.559 -21.678272 0.18361804
34900000000 -17.952023 -48.432095 -0.91034436 98.762009 -0.89798683 98.548462 -21.937241 7.9666228
35000000000 -18.182186 -46.830101 -0.90544349 96.950241 -0.92404449 96.968781 -22.834047 17.739595
35100000000 -16.618273 -44.974281 -0.92415243 95.067299 -0.90635878 95.185974 -22.547646 -4.727984
35200000000 -16.74081 -42.530087 -0.95073241 93.365349 -0.95684582 93.570587 -22.298927 -17.656363
35300000000 -16.160803 -44.159298 -0.94845337 91.587662 -0.98991168 91.480331 -19.137495 -20.702589
35400000000 -17.225344 -44.577721 -0.93319201 89.927536 -0.95606828 89.894974 -18.679653 -19.960924
35500000000 -16.518581 -39.582008 -0.99628371 88.247353 -0.97903383 88.279396 -18.061104 -11.040338
35600000000 -17.090275 -48.808151 -0.96255034 86.367027 -0.95397633 86.350876 -18.81506 -6.0782013
35700000000 -16.548376 -48.63232 -0.9532941 84.352982 -0.96199918 84.451981 -19.240133 -10.968206
35800000000 -15.74689 -48.144024 -0.96906352 82.814629 -0.9505713 82.886734 -18.452257 -21.278725
35900000000 -15.740232 -43.664948 -0.96996051 80.837158 -0.98290169 80.961166 -18.749586 -28.728661
36000000000 -15.183886 -44.117264 -1.0041134 79.152687 -0.97418189 79.263489 -16.104485 -23.190311
36100000000 -15.334361 -39.247669 -1.0058472 77.464783 -1.0154533 77.322533 -16.983706 -21.389536
36200000000 -15.536907 -46.131554 -1.0244099 75.644539 -0.97560066 75.738258 -16.091652 -23.177076
36300000000 -16.436329 -47.230595 -0.99769151 73.477661 -1.0137514 73.532318 -17.245447 -26.085596
36400000000 -16.22887 -55.661324 -0.94182187 71.752602 -0.95659059 71.250389 -16.360355 -31.836182
36500000000 -14.408721 -54.192982 -0.99069011 69.798859 -0.96978414 69.812576 -16.184124 -38.95166
36600000000 -13.256263 -52.182667 -0.96857071 68.499733 -0.97188336 68.237373 -13.910128 -31.410934
36700000000 -13.641648 -45.565926 -1.0002471 66.571953 -1.0346962 66.992722 -14.549277 -36.271935
36800000000 -13.808992 -39.68655 -1.0214274 65.098007 -1.0570016 64.93573 -13.828783 -24.005026
36900000000 -15.820462 -44.55582 -1.0483494 63.203491 -1.0823293 63.188976 -15.204631 -30.275715
37000000000 -14.903007 -52.886906 -1.072319 61.313545 -1.0473589 61.016655 -15.891619 -31.263641
37100000000 -13.872211 -67.118492 -1.0769576 58.558765 -1.0652741 59.067772 -15.360702 -47.817005
37200000000 -12.810015 -56.271793 -1.0390838 57.393158 -1.0441133 57.09977 -14.26913 -45.301659
37300000000 -12.316659 -50.063869 -1.0350546 55.262363 -1.0099131 55.364578 -12.328539 -45.93718
37400000000 -12.300653 -43.882504 -1.0759873 54.209171 -1.0176389 54.081329 -12.278793 -39.386845
37500000000 -13.754856 -51.637959 -1.0956002 52.4151 -1.0307176 52.68198 -12.575568 -38.772099
37600000000 -14.507744 -56.409077 -1.1155827 50.996155 -1.0634768 51.004471 -13.905306 -34.871227
37700000000 -13.470503 -63.566795 -1.1213005 48.960499 -1.1157045 48.865929 -14.558304 -40.000969
37800000000 -12.353844 -59.677788 -1.1039921 47.255707 -1.1156543 47.364246 -13.712706 -51.844788
37900000000 -11.687454 -57.725815 -1.1243436 45.154224 -1.1005481 45.38699 -13.734978 -58.303158
38000000000 -12.469783 -54.610836 -1.0771108 43.707161 -1.1525954 43.725681 -11.828698 -56.889015
38100000000 -12.737652 -57.646061 -1.1293285 41.993851 -1.1423975 42.061859 -11.998343 -50.313957
38200000000 -13.102315 -60.13504 -1.1081443 40.204575 -1.1209522 40.570595 -11.782923 -47.900269
38300000000 -12.312719 -61.693577 -1.0716312 38.428226 -1.0987642 38.880264 -13.281132 -45.886848
38400000000 -11.917923 -66.340981 -1.1081089 36.713356 -1.0846637 37.180019 -14.095745 -54.801834
38500000000 -11.714071 -65.115173 -1.1691135 34.78767 -1.1233997 34.763054 -13.613892 -63.42918
38600000000 -12.662474 -60.540825 -1.0850722 33.658779 -1.0735095 33.632675 -12.186734 -65.035698
38700000000 -12.176632 -61.94397 -1.0865636 31.917608 -1.1047641 31.875141 -11.590313 -67.698624
38800000000 -12.636034 -66.682877 -1.0715351 29.799498 -1.1028707 30.03237 -11.788328 -58.055141
38900000000 -12.550099 -67.240166 -1.0754459 28.617777 -1.0921346 28.580044 -12.798904 -63.756496
39000000000 -12.747809 -68.977898 -1.1072737 26.383823 -1.0399023 26.510601 -13.273605 -62.714287
39100000000 -12.65066 -70.234314 -1.0845115 24.575788 -1.0862434 24.73876 -13.066427 -79.792343
39200000000 -11.734655 -73.131409 -1.043664 22.951551 -1.0935658 23.458529 -12.512062 -73.053978
39300000000 -11.680704 -68.96019 -1.0626657 21.084465 -1.1417072 20.901176 -11.24114 -78.492058
39400000000 -12.913474 -67.620018 -1.0138992 19.459267 -1.0715394 19.575891 -11.816474 -69.161797
39500000000 -14.614415 -65.669456 -1.0420762 17.40201 -1.107106 16.905363 -12.554078 -75.16114
39600000000 -13.389693 -76.36615 -1.0632592 15.57041 -1.0262436 15.600513 -14.186452 -68.043236
39700000000 -12.969516 -84.465538 -1.0047317 13.384914 -1.0552197 13.606948 -14.157389 -89.063934
39800000000 -11.587282 -82.564178 -1.0177764 11.738919 -1.0033535 12.12981 -13.124019 -87.702744
39900000000 -12.234279 -71.404915 -0.99942106 10.074944 -1.0121001 10.11753 -12.130308 -94.611801
40000000000 -12.392561 -69.581909 -1.0568943 8.5087633 -1.0303251 8.3272314 -11.427954 -82.463913
40100000000 -15.098635 -74.34304 -1.0754701 6.6107116 -1.0842423 6.4008231 -12.283254 -79.109573
40200000000 -15.601001 -83.39193 -1.0688744 4.4765315 -1.0174799 4.8880396 -13.619626 -76.554863
40300000000 -14.292104 -98.418182 -1.0099412 2.2119751 -1.0462075 2.5674493 -14.712097 -80.885094
40400000000 -12.747307 -87.187737 -1.053045 1.1590739 -1.0206103 1.1288489 -15.255606 -98.506294
40500000000 -12.788751 -76.652061 -1.067703 -0.89172202 -1.0334895 -0.68368649 -13.503376 -102.35234
40600000000 -13.089315 -70.161217 -1.041918 -2.2530541 -1.061797 -2.147752 -13.117543 -97.827553
40700000000 -15.299858 -83.220764 -1.0582265 -4.006804 -1.0742898 -4.0395594 -12.723063 -95.21862
40800000000 -15.823108 -79.812927 -1.0773102 -5.6866579 -1.0453701 -5.2631211 -13.756276 -85.062035
40900000000 -13.949571 -92.165184 -1.0637897 -7.6335764 -1.0736874 -7.3909211 -15.704664 -89.299339
41000000000 -12.531786 -89.684875 -1.019766 -9.3474436 -1.0044155 -9.4189615 -15.662218 -88.635292
41100000000 -13.569947 -87.967834 -1.0474097 -11.311271 -1.1091 -11.298985 -15.47945 -110.41987
41200000000 -14.955265 -74.021553 -1.0446466 -12.721068 -1.0473092 -12.629898 -15.501548 -105.65069
41300000000 -14.861385 -85.696312 -1.0679338 -14.707653 -1.0208362 -14.759066 -15.304667 -107.05118
41400000000 -16.040501 -87.292404 -1.0448976 -16.58234 -1.0303172 -16.522476 -15.181715 -96.848129
41500000000 -14.848853 -89.261322 -1.0473131 -18.03961 -0.99596137 -18.127859 -15.533821 -100.86456
41600000000 -15.005761 -80.613472 -1.0179626 -19.722075 -0.99795532 -19.694185 -16.912636 -99.26255
41700000000 -14.709675 -84.185425 -1.0630516 -21.581682 -1.0238502 -21.654661 -16.70196 -112.42835
41800000000 -16.47205 -87.000755 -1.1096604 -23.319639 -1.0373986 -23.527279 -17.908201 -108.40814
41900000000 -15.792585 -88.232697 -1.060199 -25.509115 -1.1034063 -25.373262 -16.403749 -119.66164
42000000000 -15.983561 -81.559746 -1.0596889 -27.055489 -1.0072532 -26.895519 -17.892662 -106.48074
42100000000 -14.951916 -76.604141 -1.0732486 -29.084291 -1.0487388 -29.195387 -17.439325 -112.7383
42200000000 -16.601158 -79.510048 -1.0285369 -30.342327 -1.0628737 -30.410181 -19.816971 -101.95591
42300000000 -18.631083 -74.559425 -0.98001665 -32.443336 -1.0966017 -32.5331 -18.842371 -110.85938
42400000000 -19.106272 -95.974953 -1.1124985 -34.318684 -1.0841351 -33.960133 -22.854746 -120.54057
42500000000 -15.871902 -83.601852 -1.0772836 -36.036644 -1.0366926 -36.179436 -20.915691 -130.05577
42600000000 -14.53734 -83.105003 -0.98794675 -37.477379 -1.0408734 -38.261219 -23.117098 -123.81028
42700000000 -17.239111 -64.333939 -1.0412498 -39.872032 -1.0187434 -39.846165 -19.725809 -113.67406
42800000000 -17.658552 -57.18576 -1.0889904 -41.718307 -1.0477523 -41.286922 -21.032784 -116.23108
42900000000 -22.19042 -37.397034 -1.0621725 -43.590324 -1.0515054 -43.568653 -22.072424 -89.301384
43000000000 -21.754202 -80.203255 -1.0209509 -45.725765 -1.174801 -44.844212 -22.763069 -85.012604
43100000000 -19.330137 -100.59698 -1.0350119 -47.767204 -1.0059565 -47.577621 -42.962151 -100.9635
43200000000 -15.879519 -82.129959 -0.99735636 -48.516361 -1.0568755 -49.178192 -36.03006 -127.3092
43300000000 -16.432129 -60.394447 -1.0024521 -50.719406 -1.0400218 -50.450802 -28.915098 -171.75291
43400000000 -16.975571 -36.101902 -1.0146695 -52.286289 -0.93350303 -52.533295 -26.568073 -107.00484
43500000000 -19.344309 -24.137575 -1.1414146 -53.645878 -0.96401548 -54.005352 -25.789761 -108.38013
43600000000 -23.359571 -33.751522 -1.1103339 -56.281868 -1.0036323 -56.223629 -24.772346 -51.067917
43700000000 -23.525364 -58.470245 -1.1011655 -57.817585 -1.1126784 -58.013775 -25.334984 -12.936463
43800000000 -18.252022 -71.635902 -1.0721729 -59.589947 -0.99400115 -59.717472 -23.163122 -1.3446112
43900000000 -17.788836 -58.978191 -1.0497857 -61.804161 -1.0731405 -61.54715 -27.573788 68.001137
44000000000 -15.998189 -32.799706 -0.96776617 -63.572739 -0.95984566 -63.283432 -28.749073 -6.5179195
44100000000 -17.036106 -25.884109 -1.0218613 -65.380829 -0.97741967 -65.267723 -24.723806 -27.768766
44200000000 -17.042574 -16.270609 -1.0749439 -66.970604 -1.0839291 -67.370438 -23.999033 -28.33827
44300000000 -18.778893 -36.590401 -1.0411217 -69.100746 -1.0409579 -68.770706 -20.865564 -9.1912432
44400000000 -19.189074 -46.538288 -1.0129753 -70.921913 -1.0495368 -70.832901 -19.28916 1.927749
44500000000 -16.487099 -60.123997 -1.0263284 -72.851059 -1.0461414 -72.957634 -21.402151 -5.8619523
44600000000 -15.447531 -41.667137 -1.1142473 -74.655891 -1.0169473 -74.23391 -19.779696 10.026222
44700000000 -13.979958 -33.220348 -1.0614135 -76.027725 -1.0939608 -76.022141 -20.584385 -19.793682
44800000000 -16.846712 -23.888105 -1.0888454 -78.320076 -0.98206365 -78.489929 -16.236547 -10.134132
44900000000 -16.72311 -31.186527 -1.0095065 -80.094498 -1.0816176 -80.229012 -17.016909 -20.575081
45000000000 -16.943546 -32.589375 -1.1441584 -82.253975 -1.0511295 -81.723625 -15.999617 3.1449909
