!Keysight Technologies,N5247B,MY61255062,A.19.80.06
!Date: Monday, May 18, 2026 12:47:03
!Correction: S11(Cdelta 2-Port  ) 
!S21(Cdelta 2-Port  ) 
!S12(Cdelta 2-Port  ) 
!S22(Cdelta 2-Port  ) 
!S2P File: Measurements: S11, S21, S12, S22:
# Hz S  dB   R 50
1000000000 -26.692974 -19.416264 -0.40966845 -21.129427 -0.40365812 -21.120901 -26.937962 -21.392508
1100000000 -26.651983 -22.263773 -0.42058292 -23.193317 -0.41471925 -23.176952 -26.925777 -23.904314
1200000000 -26.565876 -24.460844 -0.43024051 -25.210423 -0.42389515 -25.196842 -26.962093 -25.578831
1300000000 -26.509726 -26.909842 -0.43616438 -27.288202 -0.4301599 -27.276291 -26.789091 -28.178968
1400000000 -26.430294 -28.797737 -0.44129369 -29.293402 -0.43440685 -29.277699 -26.746986 -29.543741
1500000000 -26.339691 -31.911427 -0.4428198 -31.339603 -0.43623996 -31.328112 -26.563353 -32.003273
1600000000 -26.301964 -34.161598 -0.44710326 -33.405418 -0.44114897 -33.381207 -26.454212 -35.55069
1700000000 -26.222208 -36.826286 -0.44918314 -35.435131 -0.44295338 -35.426388 -26.350576 -37.525593
1800000000 -26.113253 -39.375641 -0.45298958 -37.499046 -0.44768405 -37.482082 -26.197222 -40.211494
1900000000 -26.042204 -41.991783 -0.45642757 -39.557018 -0.44982192 -39.551613 -26.064558 -42.863953
2000000000 -26.073349 -44.455006 -0.46250823 -41.628941 -0.45427552 -41.613346 -26.001987 -45.899052
2100000000 -25.974987 -47.541962 -0.4644748 -43.674908 -0.45944208 -43.665627 -25.943525 -48.023914
2200000000 -26.019747 -50.435631 -0.46838203 -45.735142 -0.46371636 -45.728043 -25.877789 -51.159824
2300000000 -25.972925 -53.041126 -0.47208011 -47.804722 -0.46762407 -47.797932 -25.828974 -53.549286
2400000000 -25.970957 -55.594315 -0.47799954 -49.854073 -0.47247174 -49.841293 -25.789057 -55.971394
2500000000 -25.94083 -57.705475 -0.48371553 -51.904385 -0.47738001 -51.89698 -25.694012 -58.60762
2600000000 -25.996492 -60.317505 -0.49122566 -53.973946 -0.48417044 -53.956917 -25.696152 -61.264393
2700000000 -26.066631 -63.146049 -0.49715617 -56.018158 -0.49069583 -55.998112 -25.726116 -64.502014
2800000000 -26.146704 -65.995758 -0.50404793 -58.043392 -0.49702469 -58.036652 -25.659349 -66.882767
2900000000 -26.286974 -68.330399 -0.50751668 -60.089573 -0.50065601 -60.073551 -25.627003 -69.446251
3000000000 -26.246218 -70.505684 -0.51268351 -62.117558 -0.50493121 -62.102814 -25.672239 -71.529747
3100000000 -26.421066 -72.664291 -0.51469272 -64.153786 -0.50909424 -64.150795 -25.692751 -73.378067
3200000000 -26.37405 -74.864326 -0.5183605 -66.191971 -0.51225007 -66.172165 -25.712442 -75.658661
3300000000 -26.452564 -77.952477 -0.52479583 -68.23587 -0.5137862 -68.222923 -25.678337 -78.037476
3400000000 -26.625219 -80.160606 -0.52660608 -70.275658 -0.51971525 -70.273735 -25.709085 -80.749809
3500000000 -26.652868 -82.791336 -0.53298289 -72.315277 -0.52786291 -72.296318 -25.682623 -82.266685
3600000000 -26.719458 -84.461441 -0.53194022 -74.343719 -0.52818239 -74.326424 -25.665068 -83.952072
3700000000 -26.779741 -87.207199 -0.53456235 -76.368515 -0.53016692 -76.360245 -25.62948 -85.439629
3800000000 -26.916182 -88.494469 -0.5360074 -78.409653 -0.52952647 -78.414902 -25.626509 -87.505157
3900000000 -26.981424 -90.546188 -0.53887928 -80.485321 -0.53175473 -80.472336 -25.691868 -89.596016
4000000000 -27.092163 -92.754616 -0.54253614 -82.525505 -0.53688693 -82.525864 -25.748215 -91.923355
4100000000 -27.192739 -94.483597 -0.54916131 -84.568436 -0.54341698 -84.561981 -25.87303 -93.324539
4200000000 -27.37435 -96.324249 -0.55243528 -86.594765 -0.5487175 -86.587212 -25.834984 -95.184013
4300000000 -27.545046 -97.86441 -0.55385715 -88.618752 -0.55042672 -88.613213 -25.818226 -97.287453
4400000000 -27.795803 -99.747276 -0.55693507 -90.644569 -0.54993188 -90.642792 -25.901051 -98.601746
4500000000 -28.013182 -101.10789 -0.55844498 -92.690376 -0.55291152 -92.668091 -25.890911 -100.26627
4600000000 -28.26335 -103.12175 -0.56034708 -94.740509 -0.55600673 -94.722466 -26.008991 -101.8233
4700000000 -28.384235 -105.26901 -0.56284201 -96.783356 -0.55740184 -96.758476 -25.98053 -103.41029
4800000000 -28.650764 -107.13625 -0.56582665 -98.819885 -0.5602178 -98.807518 -26.091795 -105.21012
4900000000 -28.870876 -108.10806 -0.56832975 -100.86803 -0.56439376 -100.84945 -26.042393 -106.72429
5000000000 -29.174925 -109.38316 -0.57099903 -102.90292 -0.56556249 -102.89143 -26.122519 -107.39695
5100000000 -29.445654 -109.36228 -0.57333964 -104.94666 -0.56897801 -104.92638 -26.253241 -108.41266
5200000000 -29.790403 -110.71712 -0.57520634 -106.97562 -0.56919318 -106.9652 -26.4203 -109.99026
5300000000 -30.043112 -111.92057 -0.57796472 -109.02242 -0.57449275 -109.00778 -26.517405 -111.76057
5400000000 -30.444235 -114.45747 -0.58153683 -111.06869 -0.57623369 -111.05556 -26.61623 -114.02899
5500000000 -30.759916 -114.57436 -0.58444315 -113.09813 -0.57825065 -113.08646 -26.506531 -115.01111
5600000000 -30.98797 -115.994 -0.58812374 -115.13665 -0.5823105 -115.12337 -26.483595 -115.93562
5700000000 -31.430912 -114.08297 -0.58979458 -117.1703 -0.58568919 -117.16124 -26.447029 -114.85325
5800000000 -31.643644 -115.17979 -0.59260613 -119.21423 -0.58593541 -119.18408 -26.73008 -115.729
5900000000 -32.28421 -114.75049 -0.59532243 -121.22422 -0.58969611 -121.2162 -26.974888 -116.47614
6000000000 -32.400909 -115.58097 -0.59614164 -123.25199 -0.59094548 -123.24124 -27.198227 -119.32193
6100000000 -33.123013 -115.44865 -0.59767413 -125.28285 -0.58931899 -125.25983 -27.286652 -121.1509
6200000000 -33.442879 -113.62952 -0.59634829 -127.32404 -0.5920285 -127.31424 -27.198009 -122.21659
6300000000 -34.457367 -111.41198 -0.59556675 -129.38458 -0.59029955 -129.36693 -27.166107 -121.32262
6400000000 -35.001804 -107.84404 -0.60157794 -131.40569 -0.5968104 -131.37766 -27.055984 -121.4735
6500000000 -35.695549 -107.58524 -0.59846795 -133.44449 -0.59168261 -133.43478 -27.653748 -121.4315
6600000000 -35.892719 -104.03648 -0.60211676 -135.50584 -0.59636372 -135.48621 -27.901625 -121.9017
6700000000 -36.619984 -102.21157 -0.60485387 -137.53557 -0.60168201 -137.5253 -28.059565 -123.23009
6800000000 -35.934101 -91.931007 -0.60364544 -139.57057 -0.60386705 -139.56219 -27.899786 -124.60735
6900000000 -35.747574 -88.154442 -0.6047408 -141.61435 -0.6008603 -141.6001 -27.821308 -123.26548
7000000000 -35.363102 -78.136238 -0.6064198 -143.67218 -0.5991323 -143.64859 -27.751272 -121.57447
7100000000 -35.060013 -74.047226 -0.60649246 -145.72864 -0.60425943 -145.70963 -28.07906 -119.67435
7200000000 -34.719013 -70.179192 -0.61400789 -147.76767 -0.61017722 -147.7339 -28.079971 -120.02671
7300000000 -34.662212 -70.162315 -0.61001307 -149.75958 -0.60682106 -149.74286 -28.330296 -122.93103
7400000000 -34.24839 -64.18856 -0.6092937 -151.83202 -0.60264009 -151.8204 -28.095375 -123.06886
7500000000 -33.212002 -62.29567 -0.61389965 -153.89876 -0.60841721 -153.89218 -27.81743 -122.26057
7600000000 -32.541962 -59.654163 -0.61694258 -155.9384 -0.61100489 -155.92387 -27.625278 -120.48174
7700000000 -32.042805 -59.422836 -0.61680716 -157.97467 -0.61321455 -157.95297 -27.827188 -118.04102
7800000000 -31.492868 -59.310898 -0.61644137 -160.03468 -0.61130613 -160.01239 -28.146753 -117.55518
7900000000 -31.215565 -59.984894 -0.61952519 -162.0889 -0.61385763 -162.07347 -28.398397 -119.66083
8000000000 -30.780071 -58.412121 -0.62221146 -164.14117 -0.61795509 -164.10638 -27.93902 -121.97498
8100000000 -30.099459 -58.182461 -0.62559265 -166.19493 -0.62095279 -166.17387 -27.562704 -122.08475
8200000000 -29.495152 -57.749516 -0.62866622 -168.23827 -0.62241071 -168.22929 -26.955698 -119.58989
8300000000 -29.045282 -59.134495 -0.62858903 -170.31247 -0.62369823 -170.28569 -27.240774 -116.10155
8400000000 -29.007156 -60.066364 -0.63319159 -172.41565 -0.6259945 -172.36743 -28.13208 -116.13156
8500000000 -28.745268 -59.122234 -0.64577341 -174.51974 -0.64100903 -174.52007 -29.017967 -128.15999
8600000000 -28.249636 -60.221882 -0.70441425 -176.64688 -0.69817972 -176.60292 -28.008024 -152.53191
8700000000 -29.614077 -61.521084 -0.74340272 -177.67532 -0.73752743 -177.67831 -27.017273 169.71948
8800000000 -27.418541 -55.848953 -0.59191281 -179.95007 -0.58768839 -179.91223 -29.570459 -175.85219
8900000000 -26.863928 -63.203896 -0.60573143 177.57828 -0.6046313 177.61281 -27.456541 -148.49825
9000000000 -26.763285 -66.159477 -0.62902528 175.45541 -0.62387127 175.48875 -25.412085 -135.80908
9100000000 -26.352678 -65.744621 -0.6393283 173.39819 -0.63705641 173.4335 -24.966667 -126.53423
9200000000 -25.982193 -68.106468 -0.64570946 171.36501 -0.64307821 171.37421 -25.05768 -119.79275
9300000000 -25.780365 -68.455338 -0.65684646 169.32098 -0.65061826 169.36084 -26.071283 -117.82812
9400000000 -25.561968 -71.37439 -0.65777165 167.30928 -0.65494317 167.33591 -26.465267 -119.96593
9500000000 -25.390812 -72.003349 -0.66091871 165.27625 -0.65706724 165.30165 -26.537996 -125.4218
9600000000 -24.899727 -73.54438 -0.66322362 163.22948 -0.66040695 163.26564 -25.825722 -128.33022
9700000000 -24.739077 -74.775047 -0.66704375 161.18805 -0.66035479 161.20477 -25.440207 -128.5298
9800000000 -24.401184 -75.927994 -0.67046338 159.15332 -0.66372275 159.17046 -25.142546 -126.58741
9900000000 -24.449986 -78.153595 -0.67215317 157.11327 -0.6680221 157.13693 -25.348627 -125.93549
10000000000 -24.179428 -79.16629 -0.67681271 155.05273 -0.67078632 155.07602 -25.516329 -126.54466
10100000000 -24.040422 -81.015579 -0.67749465 153.01111 -0.67445469 153.0443 -25.716209 -131.29175
10200000000 -23.75234 -81.56237 -0.68317652 150.98569 -0.67806166 151.01173 -25.35663 -133.67334
10300000000 -23.511494 -83.722839 -0.68723625 148.92218 -0.68362558 148.96017 -24.90398 -135.26965
10400000000 -23.380453 -85.054108 -0.69158447 146.8954 -0.68587065 146.92015 -24.507601 -134.0407
10500000000 -23.251389 -88.083702 -0.6909492 144.84285 -0.6906867 144.88599 -24.475649 -132.9415
10600000000 -23.192003 -89.324188 -0.70065904 142.80261 -0.69354159 142.85089 -24.577465 -131.91396
10700000000 -22.912886 -90.984268 -0.70124978 140.79916 -0.69661045 140.83806 -24.922588 -133.87383
10800000000 -22.852421 -91.644234 -0.70461303 138.7737 -0.69921261 138.81212 -25.087654 -135.60023
10900000000 -22.627193 -92.482193 -0.70751274 136.71562 -0.70348579 136.76814 -25.009884 -140.08836
11000000000 -22.59853 -94.641838 -0.71263891 134.73347 -0.70921004 134.74429 -24.751833 -141.06842
11100000000 -22.499603 -97.430771 -0.71632665 132.69437 -0.71106654 132.70837 -24.458399 -142.92773
11200000000 -22.412674 -99.682968 -0.7174499 130.66216 -0.71440196 130.67377 -24.326067 -141.79491
11300000000 -22.253113 -100.66614 -0.72114599 128.6414 -0.71762151 128.65981 -24.215809 -143.41817
11400000000 -22.107788 -102.27858 -0.72371 126.60513 -0.71742612 126.63526 -24.273148 -142.71083
11500000000 -22.049212 -103.63752 -0.72618186 124.58336 -0.72209167 124.5945 -24.208347 -143.91454
11600000000 -21.956898 -105.93854 -0.73024434 122.56235 -0.72494316 122.57036 -24.330692 -145.64786
11700000000 -21.913946 -107.53789 -0.73426795 120.51655 -0.7278595 120.54693 -24.2931 -147.944
11800000000 -21.927101 -110.28058 -0.73510766 118.51153 -0.7312597 118.55106 -24.35161 -148.91673
11900000000 -21.843632 -111.35242 -0.73862857 116.48911 -0.73398471 116.51357 -24.185307 -151.67162
12000000000 -21.775057 -113.90493 -0.74033624 114.46105 -0.74136561 114.48699 -24.182831 -152.21306
12100000000 -21.715387 -115.12794 -0.74461722 112.44993 -0.7409361 112.49034 -23.934069 -154.29695
12200000000 -21.557814 -117.66822 -0.74879879 110.44773 -0.74183178 110.46812 -23.842413 -154.43599
12300000000 -21.626451 -118.81128 -0.7487945 108.44109 -0.74539441 108.4575 -23.800894 -155.61147
12400000000 -21.590267 -121.45602 -0.75113541 106.43967 -0.74621904 106.45642 -23.908575 -156.55901
12500000000 -21.802624 -123.28482 -0.74977207 104.4035 -0.7450794 104.44639 -23.924713 -158.84718
12600000000 -21.656315 -125.83296 -0.74925613 102.41602 -0.74384296 102.43657 -24.01354 -159.9173
12700000000 -21.77219 -127.82527 -0.74489224 100.39088 -0.74275309 100.41248 -23.898399 -162.63524
12800000000 -21.586727 -129.88065 -0.74444425 98.397591 -0.73913401 98.408455 -23.954935 -163.98976
12900000000 -21.728203 -132.02368 -0.74047315 96.345703 -0.73749095 96.360992 -23.818319 -166.69156
13000000000 -21.732103 -133.32452 -0.73860127 94.301132 -0.73469132 94.342537 -23.911293 -167.56175
13100000000 -21.982689 -136.94205 -0.73949796 92.27095 -0.73268157 92.321831 -23.835464 -169.21863
13200000000 -22.098108 -137.48418 -0.73743635 90.251747 -0.72947443 90.258743 -24.127335 -170.22119
13300000000 -22.128893 -141.12308 -0.73489612 88.208145 -0.72889179 88.223244 -24.120245 -171.36739
13400000000 -22.336994 -141.13866 -0.73560625 86.150833 -0.72492325 86.185143 -24.474285 -173.67905
13500000000 -22.379694 -144.44124 -0.73078978 84.104759 -0.7268942 84.137169 -24.608974 -175.98335
13600000000 -22.662411 -145.56705 -0.73127931 82.065971 -0.72356564 82.099861 -24.910151 -177.93471
13700000000 -22.658247 -148.18071 -0.72982872 79.998001 -0.72645968 80.03054 -24.783258 179.88591
13800000000 -22.986298 -150.1283 -0.7322275 77.945427 -0.72758621 77.988396 -25.016464 178.27917
13900000000 -22.972904 -151.24062 -0.73150843 75.882477 -0.72769487 75.913452 -24.963978 178.17401
14000000000 -23.525837 -153.55132 -0.73304534 73.862114 -0.72811937 73.884834 -25.491566 175.81773
14100000000 -23.493021 -155.58133 -0.73721117 71.783134 -0.73280144 71.819885 -25.544582 175.81749
14200000000 -23.880882 -158.07524 -0.73915607 69.722923 -0.7355305 69.766273 -26.063282 173.43777
14300000000 -23.708811 -158.26721 -0.75542796 67.67849 -0.7504372 67.725647 -25.917717 173.91389
14400000000 -23.854727 -162.69995 -0.75577545 65.790749 -0.75232249 65.809395 -25.971069 171.76938
14500000000 -24.152983 -163.71118 -0.74759269 63.741383 -0.74126399 63.762615 -26.040359 169.58701
14600000000 -24.788223 -166.98952 -0.74205315 61.660866 -0.73912907 61.718964 -26.58123 165.14621
14700000000 -24.998411 -167.43773 -0.74518108 59.622124 -0.73845398 59.646118 -26.772057 164.74721
14800000000 -25.177036 -171.14478 -0.74248064 57.576973 -0.74110281 57.594944 -26.910589 160.35719
14900000000 -25.38896 -170.92419 -0.74386907 55.508793 -0.74260932 55.540272 -26.760345 160.5527
15000000000 -25.612206 -173.59184 -0.75174171 53.448067 -0.74385864 53.47998 -27.029974 162.39049
15100000000 -25.978029 -173.7836 -0.76226509 51.489716 -0.75692898 51.520672 -27.075188 165.55818
15200000000 -26.350142 -179.32469 -0.75008065 49.448338 -0.74394804 49.475609 -27.850975 163.85556
15300000000 -27.071466 -178.87041 -0.74900335 47.378529 -0.74571711 47.418839 -28.641085 160.71539
15400000000 -26.749435 178.8335 -0.75261092 45.285885 -0.74672502 45.347736 -29.137402 154.51077
15500000000 -27.652294 179.17656 -0.75517201 43.264519 -0.74895841 43.303974 -28.984596 152.14182
15600000000 -27.401188 176.75841 -0.75873542 41.202019 -0.7551415 41.246849 -28.640366 150.81889
15700000000 -28.855103 174.15486 -0.76100832 39.191582 -0.75737524 39.200558 -28.612782 156.31509
15800000000 -28.926542 170.84035 -0.76131552 37.157375 -0.755826 37.18552 -29.112566 159.26389
15900000000 -30.082245 165.38799 -0.76327252 35.111214 -0.75818455 35.144161 -29.920927 163.32016
16000000000 -29.741066 167.58752 -0.76360768 33.097378 -0.76031715 33.123016 -31.018568 158.92436
16100000000 -30.567924 161.57233 -0.77090621 31.057775 -0.76405275 31.099945 -31.808828 157.05453
16200000000 -30.99519 166.11093 -0.76838589 29.004784 -0.76720089 29.036674 -31.847408 149.34666
16300000000 -32.217018 158.58823 -0.77466667 26.984907 -0.76789808 27.031282 -31.933945 154.45511
16400000000 -34.06451 161.57437 -0.77337074 24.945465 -0.7718628 24.975496 -31.809635 151.79985
16500000000 -34.822681 146.68011 -0.77624649 22.894781 -0.77500612 22.950937 -31.902149 159.99065
16600000000 -36.367016 142.95619 -0.77878529 20.875933 -0.77806592 20.938618 -33.109104 157.43335
16700000000 -35.277306 136.61717 -0.78120816 18.850935 -0.77913219 18.886196 -33.822208 163.19914
16800000000 -37.286259 139.61108 -0.7844165 16.817337 -0.78057575 16.864117 -34.620327 154.57874
16900000000 -37.772324 142.34398 -0.78441185 14.780178 -0.78215957 14.825459 -35.287464 163.2765
17000000000 -45.564487 124.03572 -0.78648788 12.751125 -0.78142476 12.799364 -34.374767 156.76851
17100000000 -46.853886 92.627121 -0.78680217 10.723728 -0.78334242 10.771622 -34.986965 167.03366
17200000000 -41.567013 44.466488 -0.78754723 8.6972227 -0.78857762 8.7135611 -34.211761 166.13367
17300000000 -42.924507 63.098011 -0.78873593 6.6532001 -0.78809434 6.6963787 -35.992962 179.58302
17400000000 -43.184719 69.145378 -0.7923761 4.6558533 -0.79104757 4.707459 -36.366596 172.49559
17500000000 -55.275242 89.197105 -0.79436952 2.6010947 -0.78999078 2.6354461 -38.296791 174.68085
17600000000 -44.691513 -15.699378 -0.79408044 0.60253525 -0.79108542 0.62748915 -36.332489 165.33208
17700000000 -39.581936 -31.450577 -0.79993075 -1.4641541 -0.79121399 -1.3931905 -36.159943 167.97728
17800000000 -35.787437 -14.417324 -0.80481672 -3.4777448 -0.7955085 -3.468843 -33.948433 174.27284
17900000000 -36.395092 -16.588072 -0.79838586 -5.4983768 -0.79201913 -5.5023761 -33.89566 -173.95638
18000000000 -37.902161 -11.191897 -0.80000138 -7.5523009 -0.80052739 -7.5175505 -34.018322 -160.84416
18100000000 -37.966061 -43.670685 -0.79885191 -9.5746737 -0.79208964 -9.5546551 -36.361923 -146.35336
18200000000 -36.140671 -47.156685 -0.80304867 -11.585343 -0.79526007 -11.585451 -37.907864 -151.29178
18300000000 -32.593647 -49.949951 -0.79784894 -13.642487 -0.79434806 -13.609617 -39.079121 -170.5882
18400000000 -32.376545 -40.781826 -0.79974681 -15.662592 -0.79523706 -15.638789 -35.723167 174.84808
18500000000 -30.973452 -39.7607 -0.80037421 -17.714945 -0.79610479 -17.668835 -33.058941 -179.43188
18600000000 -31.499722 -42.539257 -0.79943782 -19.732431 -0.79765761 -19.756899 -31.239969 -164.81273
18700000000 -30.27387 -53.251217 -0.79454917 -21.819204 -0.79468471 -21.751362 -31.388796 -148.78622
18800000000 -30.236156 -59.212059 -0.79774815 -23.852859 -0.79456753 -23.784212 -32.241566 -134.70024
18900000000 -29.040939 -57.749542 -0.79459327 -25.833925 -0.79232138 -25.788284 -34.457939 -127.18993
19000000000 -28.648102 -61.853722 -0.79618627 -27.841639 -0.79428154 -27.826931 -37.649387 -150.59602
19100000000 -28.114754 -55.280354 -0.80119103 -29.891644 -0.79446524 -29.845253 -35.383041 -162.80345
19200000000 -27.59437 -61.632847 -0.80177009 -31.914948 -0.79874176 -31.87026 -32.265564 -175.86935
19300000000 -27.501377 -61.324589 -0.79905349 -33.965191 -0.79892004 -33.901432 -30.554056 -158.62166
19400000000 -27.207569 -67.198814 -0.80163372 -35.990685 -0.79739481 -35.968876 -30.422602 -155.60451
19500000000 -27.740694 -68.393364 -0.80081499 -38.022808 -0.79168922 -38.000118 -30.806028 -143.68665
19600000000 -26.665543 -73.633301 -0.79819703 -40.056927 -0.79305249 -40.047157 -32.141609 -149.01323
19700000000 -26.529299 -75.204735 -0.79499364 -42.092453 -0.79042208 -42.038326 -32.761089 -151.61426
19800000000 -25.540289 -73.616318 -0.79814565 -44.149521 -0.79443449 -44.098831 -31.427687 -167.77936
19900000000 -25.942869 -73.608971 -0.79889232 -46.146992 -0.7937212 -46.130032 -31.095184 -165.46159
20000000000 -26.24493 -74.407364 -0.79867768 -48.226845 -0.79044753 -48.192593 -29.823593 -164.866
20100000000 -27.001812 -79.659531 -0.7948308 -50.278069 -0.79141682 -50.232788 -30.772038 -158.30605
20200000000 -26.365662 -84.596344 -0.7972517 -52.321106 -0.78832835 -52.257854 -30.738899 -161.02977
20300000000 -25.5287 -90.467003 -0.79338807 -54.393013 -0.79298037 -54.330055 -31.695124 -168.14157
20400000000 -24.82913 -87.252083 -0.79140532 -56.414837 -0.78315365 -56.374565 -29.916285 -175.12495
20500000000 -24.636465 -86.92009 -0.79190701 -58.487629 -0.79484445 -58.409893 -29.439411 -176.44719
20600000000 -25.176308 -86.039642 -0.79365343 -60.533871 -0.78694803 -60.503586 -28.39529 -168.7187
20700000000 -25.557409 -93.824516 -0.79089844 -62.616135 -0.78534722 -62.552719 -29.448463 -164.35045
20800000000 -25.712219 -96.4832 -0.7975077 -64.672829 -0.78965485 -64.630478 -29.76223 -158.17398
20900000000 -24.817932 -101.78442 -0.79380667 -66.720268 -0.78947133 -66.667953 -31.931549 -165.97594
21000000000 -24.2484 -99.451935 -0.79713166 -68.764206 -0.79300153 -68.721642 -31.114033 -177.51852
21100000000 -23.574041 -98.006416 -0.80364603 -70.840843 -0.79831272 -70.796906 -30.388964 174.98514
21200000000 -24.054953 -98.557411 -0.81686038 -72.90094 -0.81330699 -72.867477 -28.68441 177.073
21300000000 -23.842951 -103.62243 -0.8258996 -74.900291 -0.8215099 -74.866096 -27.751541 -174.43585
21400000000 -24.483646 -111.15724 -0.82372171 -76.899689 -0.82130629 -76.875114 -27.811331 -168.76259
21500000000 -23.466795 -115.23059 -0.81271672 -78.951347 -0.80948114 -78.938744 -27.773836 -163.5656
21600000000 -23.833153 -117.8106 -0.81085467 -80.988029 -0.80543149 -80.945198 -29.748835 -167.59117
21700000000 -23.221691 -113.93703 -0.80580825 -83.020836 -0.79969984 -82.978096 -31.155836 -177.95653
21800000000 -23.602121 -114.5779 -0.81065059 -85.061226 -0.80514729 -85.013443 -29.995537 165.95898
21900000000 -23.920246 -113.49183 -0.80930459 -87.076797 -0.80597717 -87.052589 -29.294142 161.14957
22000000000 -24.59494 -121.56593 -0.82377493 -89.219887 -0.82060426 -89.135414 -27.143669 167.05144
22100000000 -24.557653 -123.08696 -0.83147782 -91.254501 -0.82768792 -91.214005 -27.634279 178.08107
22200000000 -23.682358 -132.12047 -0.84419656 -93.248009 -0.8414728 -93.169174 -27.239809 -179.51076
22300000000 -23.876909 -131.07527 -0.83010721 -95.293518 -0.82373488 -95.23011 -29.746553 -177.48108
22400000000 -23.680393 -129.48618 -0.82660908 -97.323059 -0.82181579 -97.285606 -30.04561 170.92258
22500000000 -24.507792 -125.52836 -0.83061302 -99.370255 -0.81991541 -99.312439 -30.418098 154.48769
22600000000 -24.76409 -130.61191 -0.83407646 -101.31509 -0.82897824 -101.31316 -27.905907 156.85342
22700000000 -25.744305 -140.68718 -0.83650935 -103.34988 -0.82771647 -103.33351 -27.694069 155.8293
22800000000 -24.505404 -147.20448 -0.84175277 -105.4067 -0.83093745 -105.36993 -26.913746 167.3371
22900000000 -24.063168 -150.16249 -0.82909101 -107.47853 -0.82478768 -107.41135 -28.706242 163.35742
23000000000 -23.650068 -142.50009 -0.83875704 -109.55746 -0.83052933 -109.52259 -29.105896 165.12408
23100000000 -24.432993 -142.46725 -0.83391523 -111.60246 -0.82764751 -111.58848 -30.304857 143.94363
23200000000 -25.645742 -141.48544 -0.83553714 -113.69914 -0.82941717 -113.62406 -28.491671 147.33037
23300000000 -26.532921 -157.9315 -0.83568931 -115.7447 -0.83317441 -115.68134 -26.896082 145.10327
23400000000 -25.984669 -166.07002 -0.84027743 -117.7665 -0.8407706 -117.72953 -26.433271 159.30928
23500000000 -24.24148 -170.90417 -0.8419463 -119.82021 -0.83711195 -119.75831 -26.774824 160.70749
23600000000 -24.201332 -165.15517 -0.84901738 -121.87989 -0.84574527 -121.81509 -29.066078 169.535
23700000000 -24.252443 -160.55254 -0.84555149 -123.88521 -0.84520304 -123.82049 -30.630268 146.14632
23800000000 -25.333216 -158.90794 -0.85843676 -125.91823 -0.85067707 -125.88481 -29.482607 134.24716
23900000000 -25.943371 -170.99052 -0.86042696 -127.97926 -0.85622108 -127.9482 -26.757292 128.91605
24000000000 -26.387768 176.85242 -0.86124122 -130.06566 -0.8576678 -130.02789 -25.026711 142.67542
24100000000 -24.932875 171.49391 -0.86067092 -132.07195 -0.85985267 -132.05652 -24.880791 152.17134
24200000000 -24.681311 170.49548 -0.85970753 -134.14568 -0.85520101 -134.05347 -26.366295 158.94919
24300000000 -24.439579 176.84923 -0.8534832 -136.14006 -0.85434878 -136.11385 -28.519682 160.59564
24400000000 -25.851952 177.80981 -0.85646701 -138.15775 -0.85120356 -138.11076 -30.521328 138.40756
24500000000 -26.160307 174.3802 -0.86817312 -140.14027 -0.86206895 -140.084 -28.348261 124.76285
24600000000 -26.653168 156.15587 -0.87804604 -142.22816 -0.86922854 -142.15216 -25.918364 120.86127
24700000000 -25.722267 152.13329 -0.87822443 -144.26118 -0.8726064 -144.19859 -24.57346 129.41084
24800000000 -24.58164 145.2354 -0.87903416 -146.29509 -0.87732303 -146.31223 -24.340258 137.46373
24900000000 -25.167826 152.14459 -0.87165052 -148.35973 -0.87016118 -148.2971 -25.434738 141.94063
25000000000 -25.431803 148.44417 -0.86907613 -150.39598 -0.86794674 -150.36719 -27.049305 143.46167
25100000000 -27.282251 149.44609 -0.86928356 -152.38484 -0.86457062 -152.32414 -27.961092 124.86671
25200000000 -26.564348 134.30978 -0.87741774 -154.38525 -0.87672937 -154.34598 -27.065479 120.06385
25300000000 -27.044886 122.51657 -0.88119489 -156.37099 -0.87933207 -156.37456 -24.935152 114.27895
25400000000 -24.755508 121.65299 -0.885499 -158.48343 -0.88107187 -158.4052 -24.914227 122.00545
25500000000 -25.199673 117.11562 -0.88961482 -160.45844 -0.88762802 -160.44458 -24.346701 117.7263
25600000000 -25.345251 124.16933 -0.88989919 -162.56667 -0.88581735 -162.53459 -25.044413 123.69814
25700000000 -25.98103 115.11916 -0.88363749 -164.60234 -0.87942559 -164.59332 -25.707922 115.22331
25800000000 -26.146975 112.61672 -0.89517605 -166.59984 -0.88634562 -166.56029 -25.330782 114.24812
25900000000 -25.623955 97.524307 -0.88745975 -168.63806 -0.88820475 -168.62231 -25.144169 106.8794
26000000000 -25.788157 96.01329 -0.89541334 -170.69202 -0.88528097 -170.63965 -24.422602 104.07361
26100000000 -24.590828 91.663513 -0.89031768 -172.76096 -0.8886866 -172.65227 -24.399303 103.81973
26200000000 -24.830904 88.824921 -0.8911652 -174.75412 -0.88974702 -174.69022 -24.067366 99.894951
26300000000 -24.241137 87.799049 -0.90025514 -176.74072 -0.90348482 -176.75331 -23.93914 105.12008
26400000000 -24.800697 84.526886 -0.89319366 -178.89026 -0.89510953 -178.82431 -24.23057 96.708893
26500000000 -24.189554 83.299576 -0.90367031 179.15906 -0.89949465 179.16537 -23.926186 99.835075
26600000000 -24.264477 72.100731 -0.90849578 177.09834 -0.89184445 177.11029 -24.07255 92.150482
26700000000 -23.589697 70.486206 -0.9043209 175.0175 -0.91022182 175.17921 -23.75713 88.880875
26800000000 -23.588037 66.328278 -0.90870929 173.03513 -0.8880263 173.05402 -23.058413 85.282768
26900000000 -23.127048 67.801422 -0.91945601 171.01022 -0.91618854 171.0809 -23.055559 87.993355
27000000000 -23.179619 63.588406 -0.91854376 168.95274 -0.9028669 169.09242 -22.124491 89.491745
27100000000 -23.574362 62.381519 -0.91678381 166.93658 -0.91131496 167.0401 -23.331059 90.571472
27200000000 -22.586773 57.122303 -0.91334647 164.82515 -0.90154266 164.86028 -23.075558 84.151176
27300000000 -22.530916 55.084778 -0.91055954 162.87247 -0.92318445 162.91747 -23.472816 76.193108
27400000000 -22.018061 48.481602 -0.91906196 160.729 -0.92449224 160.79251 -21.994251 73.970085
27500000000 -22.461336 47.320087 -0.92774415 158.76093 -0.9136011 158.79059 -22.06674 70.392204
27600000000 -21.967443 45.837898 -0.92973465 156.59978 -0.90534019 156.68846 -21.384003 77.78418
27700000000 -21.987152 39.380234 -0.93322158 154.61275 -0.91710353 154.65317 -22.403355 75.092369
27800000000 -21.177652 37.105686 -0.92987859 152.68173 -0.93861914 152.53036 -22.358404 76.236565
27900000000 -21.472752 34.668102 -0.9220736 150.58536 -0.9100951 150.6217 -22.990126 61.174091
28000000000 -20.997887 33.979221 -0.92673945 148.63362 -0.94046962 148.61879 -22.273783 61.633373
28100000000 -21.635578 28.760777 -0.92947042 146.58014 -0.94355953 146.52763 -21.670584 56.824764
28200000000 -21.041414 27.370842 -0.96173626 144.55193 -0.95371389 144.57188 -21.294659 60.487877
28300000000 -20.721018 17.621254 -0.9514758 142.42494 -0.92788422 142.37259 -21.899788 60.207012
28400000000 -20.969965 19.461847 -0.95450324 140.4857 -0.92711121 140.43634 -22.525141 60.024399
28500000000 -20.456257 14.993677 -0.95067573 138.4362 -0.94698417 138.38759 -21.875174 45.784458
28600000000 -20.434805 15.396529 -0.95902044 136.34158 -0.92370093 136.30685 -22.131952 44.721775
28700000000 -20.038139 12.051252 -0.95557666 134.44156 -0.94002092 134.31792 -20.39221 40.938412
28800000000 -20.700615 13.528585 -0.98172712 132.25986 -0.96268314 132.19136 -20.744978 48.910919
28900000000 -19.549866 9.0589533 -0.96196496 130.31873 -0.9597404 130.38754 -21.160105 44.880062
29000000000 -20.761559 0.32351875 -0.967053 128.2392 -0.96380669 128.14856 -22.374744 44.210182
29100000000 -20.322578 2.0607667 -0.94532138 126.06854 -0.95100182 126.22852 -23.0534 26.815006
29200000000 -20.026909 -2.1488993 -0.9547658 124.13255 -0.93882924 124.26267 -21.284052 26.926128
29300000000 -19.272335 1.7555504 -0.93596107 122.09737 -0.94012827 122.17613 -19.83172 24.176567
29400000000 -19.195049 -2.7927079 -0.93501389 120.03815 -0.94152862 120.22131 -19.250694 35.237518
29500000000 -19.7388 1.5909239 -0.93878651 118.11475 -0.95843136 118.18364 -19.965433 32.603172
29600000000 -20.200142 -5.6996245 -0.98923159 115.98694 -0.95982438 116.09667 -21.324165 40.165997
29700000000 -20.352669 -6.4252477 -0.97110313 113.95438 -0.95205885 113.89715 -21.930546 21.952557
29800000000 -19.557825 -13.39277 -0.97524619 111.99117 -0.97321236 112.00708 -22.645117 22.0198
29900000000 -19.726889 -12.978352 -0.97045863 109.83356 -0.95607698 109.88456 -20.168549 6.5796313
30000000000 -18.983736 -10.538692 -0.95805663 107.95335 -0.94136655 107.96857 -20.128403 16.490294
30100000000 -19.287792 -11.789794 -0.96532303 105.82851 -0.95968002 105.72122 -19.030731 15.313126
30200000000 -19.184507 -14.087931 -0.98491246 103.81585 -0.95053136 103.69271 -20.393879 23.408569
30300000000 -20.738302 -22.57469 -0.98246419 101.80462 -0.96683335 101.78777 -20.612791 15.67493
30400000000 -20.416733 -24.582035 -0.95381123 99.846054 -0.94528538 99.818367 -23.257807 12.078637
30500000000 -19.82 -28.261553 -0.97869265 97.861275 -0.97200447 97.744324 -20.833782 2.1645463
30600000000 -19.48572 -28.534546 -0.96724927 95.694817 -0.97632146 95.760185 -21.923187 -1.6432062
30700000000 -19.721678 -30.16592 -0.96290386 93.82679 -0.9671241 93.819969 -20.122248 1.6612859
30800000000 -19.584919 -25.754761 -0.97308803 91.720001 -0.96741843 91.731285 -21.402283 5.1031251
30900000000 -19.913641 -30.886433 -0.97102869 89.544617 -0.97557831 89.674606 -20.522615 1.1595539
31000000000 -20.12093 -29.774479 -0.95909148 87.742554 -0.99434614 87.48188 -22.03031 -1.9935021
31100000000 -21.077354 -43.5023 -0.95726269 85.430084 -0.97682065 85.497307 -22.647356 -7.6377926
31200000000 -20.415962 -44.821739 -0.9590143 83.394653 -0.94286895 83.610748 -21.351534 -16.253059
31300000000 -19.586243 -47.960529 -0.94839317 81.319595 -0.96428502 81.520325 -21.754414 -15.247766
31400000000 -19.457905 -38.023796 -0.9579004 79.419174 -0.97842026 79.414879 -21.171049 -14.930266
31500000000 -19.913887 -39.033497 -0.94485897 77.421387 -0.96444505 77.463966 -21.123463 -6.6549644
31600000000 -22.073252 -34.20435 -0.95949471 75.273682 -0.955836 75.526085 -22.866476 -12.710113
31700000000 -22.455845 -46.953098 -0.99008858 73.234573 -0.95799983 73.337151 -23.299435 -14.525567
31800000000 -21.836815 -53.254219 -0.96330678 71.19416 -0.95893651 71.062912 -23.828325 -28.564617
31900000000 -19.38139 -57.525089 -0.93804884 68.902039 -0.93243891 69.081085 -22.113058 -31.240774
32000000000 -20.618458 -51.714909 -0.94641405 67.180748 -0.93671608 67.080887 -22.444405 -33.64423
32100000000 -20.880524 -43.962444 -0.94767058 65.085358 -0.94528568 65.054733 -21.244621 -26.128143
32200000000 -23.917303 -42.846985 -0.92775345 62.933727 -0.94932652 63.182045 -23.189928 -25.055265
32300000000 -24.614594 -48.324818 -0.956779 61.004246 -0.97058457 61.024837 -23.373312 -24.212837
32400000000 -23.848148 -70.639618 -0.97411317 58.930489 -0.96495932 58.820072 -27.381084 -27.215302
32500000000 -22.904886 -63.062618 -0.9513756 56.827511 -0.94029123 56.877735 -25.724554 -48.02879
32600000000 -22.572639 -68.716225 -0.95532888 54.718796 -0.94849491 54.857597 -25.198158 -62.071407
32700000000 -24.480984 -40.97847 -0.96929646 52.807873 -0.96577436 52.55389 -23.797428 -57.432903
32800000000 -24.560703 -56.283066 -0.94519007 50.604977 -0.9391728 50.760139 -22.914949 -49.09536
32900000000 -29.271276 -54.550026 -0.93061459 48.50021 -0.96465641 48.679436 -25.165648 -37.231968
33000000000 -27.208612 -77.526154 -0.9220528 46.485134 -0.93160319 46.649601 -28.383476 -35.766441
33100000000 -28.476351 -78.478409 -0.97325385 44.539669 -0.94593674 44.490883 -32.951847 -43.085163
33200000000 -26.849373 -69.345749 -0.94693589 42.413025 -0.95107591 42.463043 -27.698883 -83.531792
33300000000 -30.489777 -66.079575 -0.96786809 40.154606 -0.95940304 40.206924 -30.451838 -84.522255
33400000000 -30.524977 -63.219036 -0.9585498 38.368935 -0.94142765 38.238655 -26.626219 -81.193527
33500000000 -32.992287 -64.534698 -0.94566572 36.228336 -0.95281309 36.263992 -29.284143 -70.979988
33600000000 -32.711571 -48.388577 -0.93857992 33.955688 -0.92572701 34.161125 -30.52626 -71.246674
33700000000 -34.004276 -67.696297 -0.94267887 32.16996 -0.95689517 31.839806 -36.631882 -63.830715
33800000000 -36.58025 -62.289639 -0.97603494 29.94031 -0.98496962 29.987465 -38.673775 -116.73109
33900000000 -43.555798 -111.36403 -1.0003932 27.849287 -0.94863343 27.812164 -36.686012 -123.73598
34000000000 -38.047352 -2.4233594 -0.99443954 25.861315 -0.95301491 26.005085 -45.35162 -89.843826
34100000000 -40.125751 -7.9336467 -0.97300059 23.532354 -0.96605372 23.752964 -38.216141 -125.44312
34200000000 -31.058811 19.760941 -0.96771348 21.753395 -0.93215626 21.901194 -37.647518 40.448109
34300000000 -33.213573 33.104008 -0.9925831 19.625757 -0.98623246 19.654507 -35.981728 154.4787
34400000000 -30.695332 38.653095 -0.98339969 17.705185 -0.97125691 17.734251 -33.694218 116.8971
34500000000 -33.97081 47.74258 -1.0328287 15.481896 -1.0309108 15.409457 -34.406948 159.15646
34600000000 -30.267048 50.852093 -1.0099086 13.519428 -1.0159351 13.312824 -36.555805 96.70369
34700000000 -29.326317 44.996391 -1.0216311 11.286083 -1.00659 11.317061 -35.262863 86.74424
34800000000 -25.723055 56.630268 -1.0283408 9.4359732 -1.0021094 9.3847713 -27.153551 81.457901
34900000000 -25.687117 51.426506 -0.998227 7.2685447 -1.0238249 7.2814736 -25.28199 88.809471
35000000000 -24.118141 59.7006 -1.0000399 5.2435651 -0.99995875 5.2752576 -22.899748 105.48827
35100000000 -23.610695 42.265205 -1.0121962 2.8929722 -1.0187715 2.97492 -25.032789 111.70192
35200000000 -22.801765 46.445515 -1.0149419 0.99320596 -0.97439182 1.0920143 -25.074936 114.39293
35300000000 -22.252382 43.685837 -1.072724 -1.2623197 -1.0372816 -1.0799649 -26.841431 86.796082
35400000000 -21.507 55.836369 -1.0501391 -3.4321308 -1.0394574 -3.0447519 -25.418995 80.434502
35500000000 -20.021055 47.958439 -1.0696468 -5.3867345 -1.0621744 -5.1518955 -22.506166 81.491714
35600000000 -21.003986 54.963638 -1.034075 -7.387188 -1.059374 -7.354754 -20.44805 87.142349
35700000000 -19.99826 47.656147 -1.073873 -9.3750849 -1.0509775 -9.4444818 -20.873657 86.697495
35800000000 -19.869545 41.988838 -1.0702757 -11.359241 -1.0744737 -11.096684 -21.079594 86.458649
35900000000 -18.342531 43.440296 -1.0691653 -13.603487 -1.048239 -13.293316 -21.602779 89.969421
36000000000 -18.18898 37.167141 -1.1032624 -15.705463 -1.1113318 -15.535372 -20.255089 72.232597
36100000000 -16.904015 42.399864 -1.0697767 -17.616901 -1.1038703 -17.611649 -19.45331 76.048088
36200000000 -17.757973 40.114475 -1.1155349 -19.630672 -1.1375533 -19.542402 -19.006676 71.735466
36300000000 -17.282 43.334625 -1.1311979 -21.856926 -1.096603 -21.784061 -18.621799 74.703484
36400000000 -17.681696 39.673466 -1.1311455 -24.103039 -1.0937283 -23.823086 -19.301151 69.343483
36500000000 -17.820431 30.640127 -1.1145658 -25.701073 -1.1375066 -26.018093 -19.181328 68.842491
36600000000 -16.675253 20.407463 -1.075802 -27.604095 -1.1115825 -27.510908 -17.68655 51.591518
36700000000 -15.541096 27.390684 -1.1288584 -29.828581 -1.212643 -29.596464 -17.707724 55.755211
36800000000 -14.711462 28.839479 -1.1704972 -31.59263 -1.1586915 -31.553762 -15.28721 52.687309
36900000000 -15.036344 37.357151 -1.2383009 -33.793087 -1.1882253 -33.904301 -15.940334 60.592384
37000000000 -15.382799 29.121044 -1.2140121 -36.014694 -1.2059197 -36.229397 -15.912884 59.812519
37100000000 -17.265974 20.959391 -1.2170786 -38.747189 -1.1688286 -38.518723 -17.594706 54.788464
37200000000 -15.156061 15.825403 -1.1689763 -40.587688 -1.1449205 -40.479347 -17.372061 45.197868
37300000000 -14.005033 15.432524 -1.1792732 -42.545467 -1.1476547 -42.060635 -16.021578 32.9296
37400000000 -12.954837 17.87536 -1.1439333 -44.2136 -1.1716903 -44.042297 -14.297719 35.80724
37500000000 -13.934088 21.112207 -1.1819754 -46.313637 -1.1642829 -46.175014 -13.832743 37.124512
37600000000 -14.146969 23.078703 -1.2266288 -47.987812 -1.2168707 -47.959873 -13.452514 43.43737
37700000000 -14.601604 14.107188 -1.2546886 -50.376034 -1.2313702 -50.171192 -14.042814 44.416981
37800000000 -13.538073 9.1899529 -1.2502251 -52.474705 -1.2185835 -52.339985 -15.063403 40.847328
37900000000 -12.939645 3.4617391 -1.2796445 -54.537754 -1.1901246 -54.618389 -15.453558 35.481758
38000000000 -12.549684 10.724394 -1.2554106 -56.541378 -1.2212856 -56.365181 -14.330882 22.608522
38100000000 -12.699617 9.8938761 -1.2735404 -58.363811 -1.295802 -58.267033 -13.206731 25.035021
38200000000 -12.803701 8.4301014 -1.2994225 -60.535385 -1.3116399 -60.358418 -12.486727 23.870733
38300000000 -12.382309 1.8611621 -1.3059889 -62.410862 -1.2704009 -62.169621 -12.162663 30.831129
38400000000 -12.569225 -2.149343 -1.3272767 -64.308266 -1.3452299 -64.339699 -13.052156 31.301453
38500000000 -12.285292 -4.0668445 -1.2985665 -66.275963 -1.2774373 -66.18232 -13.767286 27.93511
38600000000 -11.911914 2.6258132 -1.3414204 -68.329002 -1.3009946 -67.858795 -13.434134 16.674274
38700000000 -11.466711 -1.7605978 -1.2835817 -70.107826 -1.357774 -70.233765 -13.259807 13.214251
38800000000 -12.137669 -2.4587579 -1.3066342 -71.76107 -1.2960246 -71.853523 -11.536155 12.45256
38900000000 -11.794884 -1.9680853 -1.2941124 -73.955368 -1.3352145 -73.966202 -12.280847 16.623177
39000000000 -12.138327 -5.4634924 -1.3990502 -75.643707 -1.3326919 -75.910057 -11.692026 16.775826
39100000000 -11.873859 -9.4348173 -1.3037338 -78.207726 -1.3289742 -78.474945 -13.890322 12.974886
39200000000 -12.037852 -14.100955 -1.31864 -79.97728 -1.2888023 -79.981186 -12.202309 5.1859903
39300000000 -11.173848 -12.683298 -1.3181993 -82.556763 -1.3122102 -81.922806 -12.613764 -1.5152627
39400000000 -11.494193 -9.6183319 -1.3283145 -84.017448 -1.3664964 -83.920647 -10.981452 2.0202086
39500000000 -11.613525 -5.697835 -1.3647476 -85.850311 -1.3418509 -86.248657 -11.746709 1.8042257
39600000000 -11.980911 -15.722044 -1.3482181 -88.162956 -1.3516996 -88.298874 -11.125616 7.9899931
39700000000 -12.688877 -21.355358 -1.2861633 -90.409386 -1.3661193 -90.072365 -13.281338 0.91235077
39800000000 -11.757893 -28.271624 -1.3055851 -92.15152 -1.359964 -92.05838 -12.524153 -2.4956372
39900000000 -10.925058 -19.510105 -1.3695558 -94.5149 -1.3486665 -94.213585 -13.026153 -15.705109
40000000000 -10.879561 -20.039207 -1.3643135 -95.973366 -1.3108157 -96.017174 -11.159646 -16.20109
40100000000 -11.998934 -13.897901 -1.3065376 -98.168152 -1.3600851 -97.919731 -10.621606 -13.455317
40200000000 -12.485362 -17.597504 -1.3511183 -100.23919 -1.3569447 -99.970512 -10.909394 -8.0671663
40300000000 -13.543066 -28.381075 -1.3529415 -102.37842 -1.3624703 -102.28082 -11.459763 -8.8428259
40400000000 -11.748933 -33.108135 -1.357987 -103.97486 -1.3488134 -104.00514 -13.00689 -10.85025
40500000000 -11.178486 -28.837414 -1.3750848 -105.64722 -1.3584468 -105.90829 -12.793775 -22.059298
40600000000 -10.483507 -26.047541 -1.3260667 -107.88531 -1.3248205 -107.82383 -11.984672 -26.447948
40700000000 -12.24822 -24.454052 -1.3341814 -110.17197 -1.3527892 -110.3063 -11.426503 -30.141933
40800000000 -12.008754 -25.352318 -1.3740637 -112.16034 -1.3283377 -111.64227 -10.873346 -23.852108
40900000000 -12.255896 -37.439178 -1.3551955 -114.22578 -1.3566507 -113.91777 -11.595106 -19.892447
41000000000 -11.206447 -43.30761 -1.2974921 -116.25758 -1.2993425 -116.33282 -11.568667 -22.458174
41100000000 -11.755889 -41.048729 -1.3735296 -118.1656 -1.3160877 -118.43523 -13.221192 -27.491543
41200000000 -11.54303 -30.077719 -1.3335057 -119.7454 -1.3107439 -119.4296 -12.229423 -30.924168
41300000000 -12.182699 -38.142147 -1.3553441 -121.95333 -1.3159643 -121.96487 -12.504217 -36.776592
41400000000 -12.675668 -36.336304 -1.2730896 -124.08397 -1.296007 -124.16196 -11.459738 -34.299679
41500000000 -12.235425 -43.685986 -1.2762454 -125.80699 -1.3047831 -125.93288 -11.593554 -40.177212
41600000000 -11.889753 -40.514545 -1.2472742 -128.37672 -1.1907607 -128.00108 -11.887218 -33.543259
41700000000 -11.987963 -44.341969 -1.302218 -129.94203 -1.2975948 -129.95352 -12.722639 -43.033276
41800000000 -13.124736 -43.893959 -1.3267426 -132.1476 -1.3344567 -131.78418 -12.725195 -39.482468
41900000000 -12.458385 -46.593029 -1.2964083 -134.33356 -1.2293808 -134.203 -13.228552 -51.15062
42000000000 -12.641688 -46.20488 -1.2197266 -135.97273 -1.219503 -136.16035 -12.687016 -47.024467
42100000000 -11.887905 -44.993683 -1.2642637 -138.10025 -1.2285798 -138.67242 -12.464102 -55.992538
42200000000 -12.849976 -45.755444 -1.2610018 -140.65834 -1.2368553 -140.2601 -12.814137 -45.324741
42300000000 -13.624501 -42.470463 -1.2482051 -142.42424 -1.2615757 -142.23814 -12.843783 -56.292133
42400000000 -14.774163 -54.951965 -1.1953309 -144.41023 -1.2393476 -143.51031 -14.209496 -51.318356
42500000000 -13.166438 -57.396957 -1.2228204 -146.74719 -1.2959757 -146.1994 -14.861498 -61.436153
42600000000 -12.554502 -59.128532 -1.2204965 -148.15651 -1.2296183 -147.99274 -15.365121 -58.96611
42700000000 -13.588465 -47.125702 -1.2351162 -151.24161 -1.232365 -150.12871 -13.413849 -69.400719
42800000000 -13.821251 -40.626923 -1.2584344 -152.66194 -1.2241575 -152.46092 -14.55587 -70.404175
42900000000 -16.009111 -36.379658 -1.1836171 -155.05745 -1.1622056 -154.19301 -13.812226 -63.722263
43000000000 -16.903128 -52.004845 -1.2650455 -157.03593 -1.2368057 -156.91074 -14.532663 -63.724648
43100000000 -16.740973 -68.218307 -1.1702307 -159.39632 -1.2458293 -158.99138 -16.945076 -57.509251
43200000000 -14.276501 -64.292107 -1.1072474 -160.68037 -1.1580714 -161.19728 -17.744894 -70.269882
43300000000 -14.574948 -52.387604 -1.1621816 -163.00519 -1.2306845 -163.08664 -17.992544 -85.762245
43400000000 -15.716492 -36.482845 -1.0437597 -164.85777 -1.0621705 -165.57545 -16.796566 -86.804085
43500000000 -16.533077 -24.8528 -1.0883459 -167.01306 -1.1422958 -166.82503 -16.982241 -94.239922
43600000000 -19.723999 -41.914059 -1.1492598 -169.32182 -1.1580379 -169.38155 -16.306301 -78.845154
43700000000 -20.651325 -56.602234 -1.1302079 -171.80717 -1.1987392 -171.63869 -18.52714 -71.496071
43800000000 -18.049578 -64.453499 -1.130092 -173.60246 -1.1100053 -174.12708 -20.920204 -64.166504
43900000000 -18.213474 -52.371616 -1.1261318 -176.43521 -1.1547288 -176.0712 -26.080557 -102.10695
44000000000 -16.832458 -31.699818 -1.1045225 -177.96574 -1.1664323 -177.60188 -23.570868 -99.636673
44100000000 -18.141211 -27.293335 -1.1350034 179.38689 -1.1142768 179.79337 -21.845789 -97.740578
44200000000 -17.949076 -10.795306 -1.072108 177.65089 -1.1104833 178.20041 -21.587013 -91.08213
44300000000 -21.008312 -29.525126 -1.1559082 175.83336 -1.1414866 175.83469 -24.878983 -75.4254
44400000000 -21.889912 -37.997593 -1.1107728 173.26448 -1.1147261 173.87241 -28.018175 -59.599911
44500000000 -20.088049 -50.432781 -1.2344049 171.84349 -1.1062453 171.33124 -31.590626 -117.17915
44600000000 -19.058292 -22.860987 -1.1021459 169.14569 -1.0856531 168.99803 -35.737488 103.7596
44700000000 -16.698538 -16.991989 -1.1921537 166.63373 -1.182804 167.20531 -30.454704 -129.69456
44800000000 -20.057741 0.069040023 -1.1798724 164.78017 -1.0534762 164.69102 -29.171051 -4.7117176
44900000000 -20.239054 -5.5872011 -1.1673391 162.15849 -1.1904482 162.60994 -31.212568 -43.662991
45000000000 -19.614042 7.3262882 -1.279429 160.39397 -1.1832972 160.26704 -24.011265 55.002357
