!Keysight Technologies,N5247B,MY61255062,A.19.80.06
!Date: Monday, May 18, 2026 12:48:02
!Correction: S11(Cdelta 2-Port  ) 
!S21(Cdelta 2-Port  ) 
!S12(Cdelta 2-Port  ) 
!S22(Cdelta 2-Port  ) 
!S2P File: Measurements: S11, S21, S12, S22:
# Hz S  dB   R 50
1000000000 -26.647604 -15.983712 -0.41267288 -20.916422 -0.40484232 -20.897081 -26.990351 -17.727825
1100000000 -26.555937 -18.245729 -0.42286098 -22.945827 -0.41776478 -22.930353 -27.006084 -19.760757
1200000000 -26.490746 -20.158104 -0.43207699 -24.94697 -0.42696199 -24.926218 -27.018951 -21.037596
1300000000 -26.460651 -22.305077 -0.43731797 -26.999456 -0.43211016 -26.982826 -26.856663 -23.436239
1400000000 -26.362034 -24.116982 -0.44474533 -28.970394 -0.43698931 -28.958691 -26.846823 -24.592598
1500000000 -26.283676 -26.761778 -0.4467079 -31.004507 -0.43842342 -30.997309 -26.666166 -26.82342
1600000000 -26.227652 -28.891584 -0.45029682 -33.037014 -0.4425796 -33.026344 -26.618801 -30.086044
1700000000 -26.142191 -31.29121 -0.45202976 -35.059185 -0.4444477 -35.048187 -26.496534 -31.645306
1800000000 -26.0376 -33.481396 -0.4546026 -37.084969 -0.44748721 -37.073925 -26.354424 -34.077274
1900000000 -25.930429 -35.881458 -0.45616043 -39.127468 -0.44996431 -39.117447 -26.271935 -36.694237
2000000000 -25.925112 -38.414177 -0.46184081 -41.175976 -0.45872912 -41.164295 -26.206942 -39.326664
2100000000 -25.82604 -40.69046 -0.46364695 -43.197491 -0.46071237 -43.186192 -26.184166 -41.378555
2200000000 -25.880482 -43.433125 -0.47012916 -45.238705 -0.46390042 -45.226933 -26.118071 -43.962677
2300000000 -25.882244 -45.728081 -0.47264519 -47.27869 -0.46801934 -47.271477 -26.093052 -46.291328
2400000000 -25.866247 -48.056278 -0.47886974 -49.299793 -0.4735432 -49.299885 -26.099945 -48.485111
2500000000 -25.829115 -50.00341 -0.48215038 -51.346443 -0.47842234 -51.33987 -26.009657 -51.084213
2600000000 -25.825623 -52.596813 -0.4891693 -53.387562 -0.4861775 -53.360825 -26.042601 -53.603138
2700000000 -25.92981 -54.553738 -0.49730855 -55.398808 -0.49103609 -55.38517 -26.106236 -56.428436
2800000000 -25.971485 -57.302399 -0.5035392 -57.423397 -0.49703628 -57.393246 -26.072779 -58.741035
2900000000 -26.112764 -59.444263 -0.50649208 -59.443096 -0.50054449 -59.420822 -26.056913 -61.157612
3000000000 -26.097782 -61.333664 -0.51285654 -61.445522 -0.50461197 -61.429951 -26.128729 -62.792923
3100000000 -26.20714 -63.163521 -0.51468545 -63.463516 -0.50756526 -63.454548 -26.134914 -64.45224
3200000000 -26.151087 -64.79509 -0.51823217 -65.487358 -0.51070261 -65.472366 -26.22916 -66.560379
3300000000 -26.227362 -67.848808 -0.52353293 -67.491531 -0.51486295 -67.489075 -26.161961 -68.753517
3400000000 -26.387192 -69.934441 -0.52509612 -69.519859 -0.51906258 -69.514183 -26.244799 -71.35659
3500000000 -26.424084 -72.281448 -0.53179598 -71.538208 -0.52406973 -71.516388 -26.229532 -72.77494
3600000000 -26.456736 -73.72171 -0.5330894 -73.532875 -0.52699304 -73.520203 -26.228695 -74.524887
3700000000 -26.501238 -76.073112 -0.53398389 -75.54599 -0.52802217 -75.528496 -26.160286 -75.805008
3800000000 -26.593887 -77.381126 -0.53584075 -77.569183 -0.52892995 -77.557007 -26.207161 -77.970177
3900000000 -26.638807 -78.92392 -0.53677183 -79.600197 -0.53031665 -79.595528 -26.257692 -79.760185
4000000000 -26.720278 -80.699722 -0.54136246 -81.644135 -0.5366441 -81.624092 -26.42234 -81.606659
4100000000 -26.76593 -82.0168 -0.54618782 -83.67038 -0.54104519 -83.649857 -26.497961 -83.132675
4200000000 -26.937088 -83.731056 -0.55079639 -85.652298 -0.54620159 -85.64563 -26.481621 -84.709167
4300000000 -27.104454 -85.224113 -0.55315322 -87.658463 -0.54798704 -87.654793 -26.471865 -86.932091
4400000000 -27.293129 -86.63195 -0.55527276 -89.676842 -0.55026215 -89.664505 -26.560993 -87.872017
4500000000 -27.443933 -87.683861 -0.55785924 -91.682091 -0.55092859 -91.678795 -26.564096 -89.604263
4600000000 -27.63088 -89.412628 -0.55811411 -93.700798 -0.55530685 -93.696793 -26.658907 -90.915123
4700000000 -27.784101 -91.293457 -0.561216 -95.718414 -0.55425328 -95.710625 -26.638281 -92.502617
4800000000 -27.990492 -92.87381 -0.56222588 -97.755951 -0.55776942 -97.73243 -26.761629 -93.868858
4900000000 -28.114721 -93.713692 -0.56468004 -99.768837 -0.55892575 -99.774147 -26.704857 -95.62561
5000000000 -28.323767 -94.591583 -0.56814533 -101.79178 -0.564614 -101.77046 -26.835028 -96.200485
5100000000 -28.471163 -94.296623 -0.57001364 -103.82276 -0.56797719 -103.80587 -26.855675 -96.744423
5200000000 -28.748875 -95.526688 -0.57092905 -105.82874 -0.56630027 -105.81927 -27.088825 -98.23278
5300000000 -28.969984 -96.441872 -0.57764477 -107.85334 -0.57213312 -107.83237 -27.181276 -99.914688
5400000000 -29.238195 -98.302048 -0.57585418 -109.87898 -0.57121575 -109.86401 -27.326998 -102.48168
5500000000 -29.491741 -98.779823 -0.58204883 -111.89442 -0.57397187 -111.87877 -27.194046 -103.84954
5600000000 -29.690092 -99.928886 -0.58518237 -113.89722 -0.57866204 -113.88725 -27.173666 -104.56602
5700000000 -29.85574 -98.463745 -0.58787358 -115.91259 -0.58016914 -115.91048 -27.019012 -103.74534
5800000000 -30.001635 -99.466354 -0.58872962 -117.92406 -0.58233333 -117.92461 -27.276503 -104.37481
5900000000 -30.458649 -99.015533 -0.5912922 -119.93194 -0.58466321 -119.92155 -27.554506 -104.59508
6000000000 -30.544161 -100.53301 -0.59108102 -121.92769 -0.58515751 -121.93192 -27.838089 -107.72789
6100000000 -31.139475 -100.25036 -0.59327972 -123.93818 -0.5862906 -123.92806 -27.890448 -109.88268
6200000000 -31.301592 -98.754898 -0.59148562 -125.95841 -0.58673358 -125.95122 -27.812096 -111.22142
6300000000 -31.970182 -97.596352 -0.5943321 -128.00903 -0.58661711 -127.99011 -27.665142 -109.87386
6400000000 -32.169895 -95.367683 -0.60056901 -129.99516 -0.59363908 -129.9823 -27.516977 -110.99256
6500000000 -32.698418 -95.520348 -0.5954783 -132.0365 -0.59054363 -132.02586 -28.101898 -110.6266
6600000000 -32.838646 -94.276642 -0.59810221 -134.06743 -0.59249812 -134.04196 -28.458082 -111.17295
6700000000 -33.324173 -93.265373 -0.60278404 -136.06674 -0.59654963 -136.04935 -28.58922 -112.6273
6800000000 -32.872555 -87.036186 -0.60408211 -138.08105 -0.59727907 -138.06831 -28.466724 -114.57262
6900000000 -32.814007 -85.521835 -0.60444266 -140.11594 -0.59723395 -140.08421 -28.348349 -113.74149
7000000000 -32.674564 -79.132584 -0.60493481 -142.15494 -0.59746915 -142.13127 -28.146599 -112.30367
7100000000 -32.545769 -77.28717 -0.60761476 -144.16655 -0.60101843 -144.16626 -28.376247 -109.97903
7200000000 -32.532864 -73.70134 -0.61131477 -146.18823 -0.60472828 -146.16525 -28.435917 -110.43539
7300000000 -32.567726 -75.396599 -0.6142354 -148.17592 -0.61045545 -148.1525 -28.658268 -114.14067
7400000000 -32.673256 -70.169991 -0.6096583 -150.237 -0.601897 -150.21437 -28.648939 -115.36773
7500000000 -32.21463 -67.86026 -0.61742061 -152.27147 -0.61185473 -152.26221 -28.360004 -113.66734
7600000000 -31.559383 -63.954216 -0.61771661 -154.27505 -0.61212921 -154.24437 -27.883095 -112.99958
7700000000 -31.184711 -63.90575 -0.61554974 -156.27179 -0.61023974 -156.23854 -28.147701 -111.31622
7800000000 -30.955765 -62.736977 -0.61491621 -158.29721 -0.61124146 -158.2858 -28.442669 -111.38431
7900000000 -30.803333 -64.001747 -0.61877108 -160.34297 -0.61132222 -160.32892 -28.793648 -113.58564
8000000000 -30.665743 -61.746742 -0.62128788 -162.37985 -0.61544234 -162.34639 -28.497877 -117.38318
8100000000 -30.119793 -60.609516 -0.62146854 -164.40541 -0.61919111 -164.38895 -28.121809 -117.79944
8200000000 -29.786114 -59.794128 -0.62477297 -166.42752 -0.61775452 -166.42531 -27.552299 -115.92638
8300000000 -29.346607 -60.350731 -0.62503153 -168.48192 -0.61878544 -168.44785 -27.959215 -112.29721
8400000000 -29.487444 -60.259521 -0.62957734 -170.54436 -0.6237843 -170.50743 -28.775751 -112.84789
8500000000 -29.309414 -58.984837 -0.64101201 -172.64871 -0.63611978 -172.63687 -30.085342 -125.51714
8600000000 -28.90848 -58.580799 -0.69629228 -174.74541 -0.69141054 -174.75697 -28.858391 -153.774
8700000000 -30.407314 -60.105099 -0.74012506 -175.83499 -0.7346049 -175.82166 -27.261925 167.17174
8800000000 -28.267723 -52.372589 -0.60100269 -177.97533 -0.59390944 -177.98402 -30.098412 179.20378
8900000000 -27.683411 -59.800903 -0.60835201 179.57254 -0.6031127 179.60294 -28.417366 -151.99434
9000000000 -27.682432 -62.174366 -0.62827075 177.4417 -0.62422687 177.48276 -26.408028 -137.33707
9100000000 -27.308836 -60.505718 -0.63788897 175.41382 -0.63678515 175.44226 -26.066082 -126.90116
9200000000 -27.00094 -62.434765 -0.64469618 173.41084 -0.63949025 173.42642 -26.386021 -119.59837
9300000000 -26.841177 -61.853565 -0.65438879 171.3905 -0.64830321 171.40932 -27.66843 -117.08475
9400000000 -26.693207 -64.445183 -0.65978795 169.41275 -0.65458411 169.42409 -28.255112 -120.41048
9500000000 -26.541061 -64.051819 -0.65722197 167.38338 -0.65386122 167.40549 -28.552305 -127.51704
9600000000 -26.099422 -65.193802 -0.66062635 165.36473 -0.65705395 165.38924 -27.765577 -130.45593
9700000000 -25.927742 -65.623367 -0.66242123 163.33788 -0.65829664 163.37366 -27.41251 -131.19948
9800000000 -25.599928 -66.457596 -0.66751885 161.30733 -0.66289127 161.34084 -27.242271 -128.57104
9900000000 -25.726093 -67.530174 -0.66654968 159.2982 -0.66152942 159.32558 -27.739801 -127.37464
10000000000 -25.415123 -67.926521 -0.67154098 157.27789 -0.66686749 157.29547 -28.115417 -128.47601
10100000000 -25.348465 -68.997498 -0.6772269 155.25548 -0.66798258 155.28998 -28.534498 -134.59424
10200000000 -25.037878 -68.686882 -0.68039054 153.24297 -0.67277664 153.24953 -28.135796 -137.78561
10300000000 -24.855103 -70.406181 -0.68278122 151.22314 -0.67772251 151.25996 -27.695002 -139.47771
10400000000 -24.713257 -71.179169 -0.6891641 149.18544 -0.68172681 149.22876 -27.293507 -136.90648
10500000000 -24.642178 -73.797096 -0.68895352 147.16533 -0.68843299 147.22054 -27.489407 -135.50018
10600000000 -24.582302 -74.218391 -0.69338852 145.16777 -0.68954486 145.20375 -27.916176 -132.99745
10700000000 -24.331709 -75.455338 -0.6984579 143.17552 -0.69152015 143.19379 -28.646786 -135.36256
10800000000 -24.222025 -75.120483 -0.69823873 141.16524 -0.69619566 141.19481 -29.085611 -138.04747
10900000000 -24.049534 -75.619041 -0.70576859 139.17879 -0.6984269 139.1891 -29.190701 -144.90182
11000000000 -23.995314 -77.111145 -0.7087236 137.15836 -0.70390707 137.18759 -28.924473 -145.77731
11100000000 -23.939377 -79.226494 -0.70993483 135.17192 -0.70502287 135.17317 -28.550688 -147.51239
11200000000 -23.950235 -80.634224 -0.71322703 133.14299 -0.70989949 133.1658 -28.561573 -145.53757
11300000000 -23.73452 -81.561844 -0.71843541 131.13602 -0.70885283 131.17273 -28.657091 -147.10437
11400000000 -23.560669 -82.201996 -0.71760231 129.14294 -0.7118426 129.14877 -29.007072 -144.25034
11500000000 -23.48287 -83.172523 -0.71985006 127.1466 -0.71494061 127.15384 -29.177809 -145.17343
11600000000 -23.445024 -84.621597 -0.72303176 125.11485 -0.71737021 125.16468 -29.62813 -146.43086
11700000000 -23.369877 -85.570999 -0.72454059 123.12986 -0.72031665 123.16099 -29.824915 -150.49051
11800000000 -23.446543 -87.554588 -0.72630823 121.14869 -0.72311008 121.14842 -30.176336 -151.07173
11900000000 -23.323984 -88.321815 -0.73008168 119.15206 -0.72373015 119.14129 -30.055569 -154.82231
12000000000 -23.32214 -90.123558 -0.73184848 117.1166 -0.72904271 117.15277 -30.334299 -154.38188
12100000000 -23.210024 -90.564018 -0.73598927 115.14146 -0.73038614 115.16829 -30.102636 -156.88132
12200000000 -23.100414 -93.043007 -0.73693848 113.15475 -0.73149008 113.17218 -30.107775 -155.06032
12300000000 -23.185242 -93.192307 -0.739703 111.1595 -0.73373586 111.19009 -30.303238 -155.4919
12400000000 -23.188568 -95.137512 -0.74172121 109.18033 -0.73329729 109.20524 -30.761515 -155.65793
12500000000 -23.430244 -95.283356 -0.73633116 107.19405 -0.73182368 107.21997 -31.100962 -158.18321
12600000000 -23.342085 -97.799271 -0.73662716 105.2048 -0.73148823 105.22829 -31.524055 -158.89043
12700000000 -23.495499 -98.646324 -0.73256177 103.18886 -0.72949004 103.23015 -31.584324 -162.49745
12800000000 -23.255781 -100.87751 -0.7314018 101.22016 -0.7230128 101.22951 -31.963486 -162.67146
12900000000 -23.517904 -101.56007 -0.72523403 99.192352 -0.7224521 99.213341 -31.923376 -166.55472
13000000000 -23.418396 -101.8908 -0.72493368 97.17186 -0.71912086 97.196304 -32.416664 -164.72333
13100000000 -23.83984 -103.42957 -0.72062832 95.14904 -0.71693116 95.167786 -32.648651 -166.86012
13200000000 -23.803905 -103.54396 -0.71751404 93.153603 -0.71482491 93.151794 -33.777222 -166.327
13300000000 -24.058506 -106.0423 -0.71749818 91.111214 -0.71137172 91.127548 -34.169075 -165.49603
13400000000 -24.055058 -104.23257 -0.71804237 89.072342 -0.70920116 89.112846 -35.605385 -166.39117
13500000000 -24.237768 -106.6312 -0.71378899 87.067696 -0.71040279 87.080879 -36.403645 -170.68413
13600000000 -24.392559 -105.80389 -0.71435165 85.026031 -0.70941329 85.056053 -38.193169 -170.77278
13700000000 -24.459841 -107.4151 -0.71357024 82.997101 -0.71159619 83.028618 -38.051971 -173.52754
13800000000 -24.752768 -106.55778 -0.71354795 80.962074 -0.7097733 80.985817 -40.030872 -173.5463
13900000000 -24.632317 -108.01705 -0.71571916 78.908676 -0.7128756 78.944328 -39.742031 -164.15765
14000000000 -25.1075 -106.13663 -0.71814281 76.904877 -0.71228391 76.919998 -43.834454 -157.29784
14100000000 -25.121374 -107.95189 -0.7193616 74.849365 -0.71674335 74.876732 -43.800816 -144.08757
14200000000 -25.514635 -107.2936 -0.7215507 72.806694 -0.71774 72.844818 -48.009418 -114.74899
14300000000 -25.200409 -107.48574 -0.72918814 70.73748 -0.72626507 70.78862 -44.793774 -106.66099
14400000000 -25.387487 -108.85524 -0.74908513 68.770012 -0.74241924 68.805168 -42.506634 -91.993538
14500000000 -25.394464 -110.87762 -0.74302214 66.886032 -0.74016523 66.918983 -42.480724 -102.93064
14600000000 -26.101305 -109.57357 -0.73090464 64.859863 -0.72666377 64.892815 -45.488647 -72.789047
14700000000 -26.102015 -108.03253 -0.73009425 62.828773 -0.72483242 62.839127 -43.268734 -63.324379
14800000000 -26.387735 -109.53865 -0.73205435 60.760139 -0.72672802 60.792194 -43.869396 -44.628441
14900000000 -26.271679 -108.41131 -0.73226547 58.74971 -0.73013407 58.765499 -43.267952 -57.55735
15000000000 -26.545662 -108.94611 -0.73671734 56.692242 -0.73427719 56.729046 -39.994411 -64.766823
15100000000 -26.420359 -105.71316 -0.74943703 54.691547 -0.74388444 54.728283 -36.614471 -73.110237
15200000000 -26.974066 -108.25234 -0.74590707 52.763401 -0.74427587 52.804417 -35.200073 -70.353928
15300000000 -27.030596 -103.51669 -0.73660046 50.724998 -0.73129427 50.752087 -34.449741 -60.317463
15400000000 -26.913622 -107.11461 -0.73839909 48.668301 -0.73084342 48.694244 -34.393284 -51.276043
15500000000 -26.765114 -103.54411 -0.74226785 46.634155 -0.73540753 46.665783 -34.621986 -52.993958
15600000000 -26.76647 -105.97592 -0.74554622 44.571758 -0.73881149 44.60511 -35.180077 -58.403358
15700000000 -27.168123 -100.47271 -0.74361348 42.583916 -0.74107242 42.592304 -33.855045 -72.024117
15800000000 -27.282873 -101.5361 -0.74808866 40.562119 -0.74500346 40.591991 -32.224995 -75.042366
15900000000 -27.742121 -97.24485 -0.74815387 38.526184 -0.74319047 38.571991 -30.951557 -74.580154
16000000000 -27.406677 -101.55768 -0.75212121 36.529343 -0.7447859 36.55637 -30.475906 -70.139458
16100000000 -27.787155 -98.932755 -0.75526381 34.524593 -0.75365156 34.540295 -29.997036 -68.791306
16200000000 -27.087172 -100.16671 -0.75742269 32.476139 -0.75292742 32.534515 -30.501402 -65.93737
16300000000 -27.558838 -95.430931 -0.76317781 30.502455 -0.75637132 30.530762 -29.883753 -72.729149
16400000000 -27.031229 -92.965973 -0.766909 28.473825 -0.76088744 28.505335 -30.113716 -74.642654
16500000000 -27.938055 -90.066154 -0.76539278 26.463503 -0.76205343 26.487446 -29.181932 -81.352882
16600000000 -27.634651 -88.389359 -0.76567501 24.440157 -0.76271063 24.483852 -28.905693 -78.701332
16700000000 -28.293879 -91.026558 -0.77021688 22.433218 -0.7673921 22.434774 -28.108301 -80.713531
16800000000 -27.54052 -90.007011 -0.770841 20.426548 -0.76758301 20.468624 -28.536509 -78.912003
16900000000 -27.511984 -91.988564 -0.77816004 18.409664 -0.77180278 18.450396 -27.897459 -81.142975
17000000000 -26.806864 -85.179039 -0.78069317 16.395603 -0.77456361 16.443451 -28.296202 -85.494514
17100000000 -26.967926 -83.227898 -0.78432071 14.407947 -0.77578038 14.442479 -27.607765 -87.656891
17200000000 -27.164001 -76.7854 -0.78433555 12.349298 -0.77805537 12.40687 -27.782307 -91.70771
17300000000 -27.513603 -81.684959 -0.78609514 10.365226 -0.78424752 10.388112 -26.913168 -90.675011
17400000000 -27.791536 -83.157654 -0.78878123 8.3736534 -0.7810154 8.4206276 -27.312803 -91.25708
17500000000 -27.014647 -89.451042 -0.78837895 6.3584113 -0.7857756 6.4053197 -27.158016 -89.453354
17600000000 -26.530161 -83.7892 -0.78772503 4.388587 -0.78290969 4.4024568 -27.82543 -96.234077
17700000000 -25.929813 -81.854317 -0.79300553 2.3341236 -0.78859252 2.3896797 -27.678482 -98.696426
17800000000 -26.325285 -75.085045 -0.79605478 0.36123863 -0.79081154 0.36888546 -27.32613 -107.14778
17900000000 -26.522583 -76.786575 -0.80049098 -1.648998 -0.79418176 -1.5964705 -26.576752 -107.21797
18000000000 -27.240154 -80.044212 -0.80137157 -3.6794417 -0.79377747 -3.6422431 -26.00872 -106.54987
18100000000 -26.349321 -85.54213 -0.79743737 -5.6858521 -0.78935212 -5.64186 -25.932539 -100.95417
18200000000 -26.052996 -85.740959 -0.7969889 -7.6656246 -0.79119384 -7.6494899 -26.642765 -101.76412
18300000000 -25.274485 -82.163063 -0.80011654 -9.7053823 -0.79460388 -9.6621923 -27.645945 -104.25741
18400000000 -25.74246 -78.384239 -0.79640549 -11.686316 -0.79832053 -11.670466 -28.045721 -115.78382
18500000000 -25.513639 -75.638947 -0.80268586 -13.71426 -0.79706508 -13.679876 -27.161982 -123.39521
18600000000 -25.857927 -77.641869 -0.79968643 -15.770292 -0.79998833 -15.717519 -25.948975 -124.62753
18700000000 -25.118393 -79.992172 -0.80010754 -17.757053 -0.79206079 -17.71615 -25.225803 -119.60741
18800000000 -25.056313 -82.956825 -0.7983619 -19.746168 -0.79444164 -19.739595 -25.318434 -113.63296
18900000000 -24.664022 -80.613602 -0.80058682 -21.744213 -0.79142737 -21.698233 -26.276918 -110.21639
19000000000 -24.617226 -81.224327 -0.79957318 -23.729006 -0.79294962 -23.697739 -28.017424 -115.72539
19100000000 -24.627731 -76.610664 -0.80188406 -25.72611 -0.79385543 -25.683477 -28.15456 -124.20777
19200000000 -24.357409 -78.299812 -0.79994041 -27.742474 -0.79604107 -27.712418 -27.68672 -139.11714
19300000000 -24.387501 -77.419495 -0.79987878 -29.75588 -0.79797024 -29.728689 -26.247892 -134.35262
19400000000 -24.286222 -80.597252 -0.80297142 -31.767214 -0.79672116 -31.718012 -26.223028 -134.11452
19500000000 -24.70183 -81.060188 -0.80481738 -33.793751 -0.79335201 -33.749126 -26.271027 -128.20601
19600000000 -24.064182 -83.002502 -0.79709494 -35.811703 -0.79380137 -35.757149 -27.501604 -130.80817
19700000000 -24.140236 -82.189819 -0.79685861 -37.763916 -0.79268181 -37.749546 -28.445608 -133.39522
19800000000 -23.553463 -80.286072 -0.80066621 -39.796516 -0.79381627 -39.765411 -28.449301 -146.70271
19900000000 -23.952383 -78.013199 -0.79836965 -41.81012 -0.79216111 -41.775326 -28.371708 -147.14966
20000000000 -24.321276 -78.15583 -0.79672676 -43.833202 -0.79305559 -43.804482 -27.776907 -150.64111
20100000000 -25.076097 -81.105247 -0.79730487 -45.853046 -0.78977185 -45.852112 -28.731665 -145.23599
20200000000 -24.641485 -84.13073 -0.79267001 -47.886448 -0.78721923 -47.839981 -29.272055 -148.07193
20300000000 -24.104593 -87.17659 -0.79631937 -49.900612 -0.78961354 -49.884048 -30.650917 -153.51805
20400000000 -23.49213 -82.646721 -0.79357702 -51.924488 -0.78762013 -51.916241 -29.630243 -164.44777
20500000000 -23.51615 -80.890831 -0.79343963 -53.952663 -0.79298347 -53.927185 -29.544888 -168.17343
20600000000 -23.927845 -77.770584 -0.79674041 -56.026867 -0.79003084 -55.976837 -28.811962 -162.4523
20700000000 -24.468668 -82.930634 -0.79322678 -58.040939 -0.78407449 -58.023216 -30.349863 -157.22246
20800000000 -24.716965 -83.908249 -0.79361117 -60.08239 -0.78738028 -60.062763 -31.086826 -148.62344
20900000000 -24.089878 -87.386627 -0.78876603 -62.121532 -0.78623873 -62.097538 -34.894478 -154.98865
21000000000 -23.520397 -85.027336 -0.7976377 -64.127762 -0.78947508 -64.11113 -34.97171 -176.27441
21100000000 -22.896509 -82.367043 -0.80175513 -66.15403 -0.7969569 -66.151825 -34.805241 170.15187
21200000000 -23.266665 -80.75045 -0.81058604 -68.229713 -0.80939883 -68.188477 -32.720684 170.54639
21300000000 -23.231913 -82.958824 -0.81441289 -70.269508 -0.81387019 -70.248756 -32.293701 -176.39941
21400000000 -23.883238 -86.024139 -0.8277393 -72.255913 -0.82202727 -72.215134 -33.471237 -162.37408
21500000000 -23.148481 -90.847572 -0.82287192 -74.22699 -0.81738245 -74.209015 -33.602844 -147.31691
21600000000 -23.410305 -91.654678 -0.81317967 -76.198593 -0.81169307 -76.148239 -39.112961 -142.60294
21700000000 -22.617254 -88.747025 -0.80514699 -78.180664 -0.80077016 -78.127251 -52.595757 -177.62064
21800000000 -22.894138 -86.050613 -0.80103254 -80.181396 -0.79786539 -80.130814 -40.852383 110.23418
21900000000 -22.904766 -83.241852 -0.80492079 -82.193115 -0.80000854 -82.137566 -38.759029 106.0114
22000000000 -23.825876 -85.014488 -0.81632364 -84.28196 -0.80927187 -84.263039 -36.513752 139.14632
22100000000 -23.750854 -85.895988 -0.82052296 -86.336433 -0.81509179 -86.327385 -42.113441 171.56609
22200000000 -23.777706 -92.214767 -0.83680844 -88.388443 -0.83199763 -88.361694 -43.393944 -155.87222
22300000000 -23.084593 -91.389511 -0.83619517 -90.363983 -0.83128381 -90.332405 -41.350574 -39.889477
22400000000 -22.991791 -90.267334 -0.82646346 -92.276291 -0.82063895 -92.251511 -40.333637 -2.6281664
22500000000 -22.969032 -84.688499 -0.81521511 -94.341347 -0.81154484 -94.311066 -34.76049 24.256018
22600000000 -23.639565 -84.161957 -0.82399082 -96.344704 -0.81554961 -96.342705 -37.608299 42.19701
22700000000 -24.708578 -84.136658 -0.83579379 -98.396866 -0.83214748 -98.357727 -37.680687 35.618366
22800000000 -24.871096 -93.074272 -0.84742159 -100.28413 -0.841941 -100.31549 -43.399532 -16.184793
22900000000 -24.533274 -93.427055 -0.83674002 -102.28279 -0.83205658 -102.25843 -35.209984 -18.596195
23000000000 -23.082502 -90.532997 -0.83185059 -104.35872 -0.82201505 -104.30367 -33.529755 -24.33849
23100000000 -23.047211 -84.756165 -0.8286944 -106.3846 -0.82005584 -106.35612 -30.524662 -5.1236072
23200000000 -23.127247 -79.568718 -0.82685083 -108.46988 -0.82094449 -108.4132 -32.226017 -4.8976846
23300000000 -24.749802 -78.516823 -0.82674122 -110.48336 -0.81886256 -110.42962 -33.869839 1.9996603
23400000000 -25.244331 -84.252167 -0.82511508 -112.50079 -0.82192719 -112.44834 -35.178741 -40.604141
23500000000 -25.243307 -95.441574 -0.83050305 -114.52628 -0.82258844 -114.49371 -33.155254 -45.432064
23600000000 -23.841846 -93.272423 -0.83425868 -116.5879 -0.82894534 -116.54061 -28.514204 -49.538422
23700000000 -22.956905 -91.312195 -0.83516628 -118.5385 -0.82927591 -118.53866 -27.815571 -29.647724
23800000000 -22.670341 -86.58107 -0.84193408 -120.5522 -0.83763427 -120.53052 -27.906731 -23.381268
23900000000 -23.72418 -85.405235 -0.84309787 -122.5791 -0.84302241 -122.56931 -29.680136 -12.854453
24000000000 -24.880882 -83.157646 -0.84424746 -124.66196 -0.84001923 -124.63947 -33.928398 -37.83865
24100000000 -25.414289 -93.275375 -0.83700681 -126.66564 -0.83895421 -126.68333 -32.005116 -68.222664
24200000000 -25.132189 -95.533058 -0.83999157 -128.69954 -0.83356863 -128.66246 -28.289509 -67.904099
24300000000 -23.637194 -97.232384 -0.83873099 -130.70285 -0.83206284 -130.65877 -25.906204 -61.96022
24400000000 -23.216122 -90.182243 -0.83335662 -132.64848 -0.83718884 -132.62383 -25.377605 -47.478058
24500000000 -23.202682 -89.494743 -0.84692198 -134.66104 -0.84277475 -134.60803 -26.477156 -40.40361
24600000000 -24.666494 -85.342308 -0.85082257 -136.62624 -0.84949774 -136.62845 -28.330273 -36.1908
24700000000 -25.264975 -89.610123 -0.85191721 -138.71198 -0.85268706 -138.66699 -30.577343 -52.632114
24800000000 -26.274216 -96.265236 -0.85420066 -140.76816 -0.84901679 -140.74695 -29.755583 -75.802544
24900000000 -24.656816 -97.3041 -0.84754586 -142.78644 -0.83970577 -142.75175 -27.136656 -77.018318
25000000000 -24.517057 -95.655281 -0.84418052 -144.79799 -0.84276813 -144.74934 -25.308487 -74.306801
25100000000 -23.443144 -89.591629 -0.84592986 -146.72914 -0.83578378 -146.69818 -25.363562 -62.515759
25200000000 -24.681303 -86.974503 -0.84606355 -148.69247 -0.84591508 -148.66618 -25.771215 -62.874161
25300000000 -25.024925 -81.508507 -0.85646194 -150.68031 -0.84941685 -150.63153 -27.753963 -60.4501
25400000000 -26.708313 -88.317665 -0.86110991 -152.75818 -0.84632742 -152.72189 -27.491678 -76.41304
25500000000 -26.428196 -88.053375 -0.85189581 -154.7289 -0.85560858 -154.73145 -28.017067 -74.993088
25600000000 -25.524055 -95.159828 -0.85637528 -156.79494 -0.85016733 -156.82619 -26.509369 -85.614761
25700000000 -25.390648 -89.213219 -0.85047996 -158.80569 -0.84927833 -158.79861 -26.035963 -79.353424
25800000000 -25.249729 -89.135353 -0.85974824 -160.81374 -0.85014087 -160.79918 -26.064352 -83.792404
25900000000 -25.73197 -78.79081 -0.84710038 -162.85146 -0.85196102 -162.83911 -26.097891 -79.215477
26000000000 -25.726576 -81.02552 -0.85395741 -164.84123 -0.84701383 -164.81839 -26.981066 -81.814606
26100000000 -26.715212 -79.654747 -0.86282194 -166.90538 -0.85005748 -166.83539 -27.053074 -85.503059
26200000000 -26.67898 -79.138351 -0.8568148 -168.8878 -0.85023659 -168.86084 -27.381739 -85.401726
26300000000 -27.208391 -80.791321 -0.86583775 -170.87946 -0.86171883 -170.83929 -27.141396 -99.427116
26400000000 -26.426104 -83.64846 -0.86286706 -172.98944 -0.85245776 -172.90227 -26.889336 -91.100533
26500000000 -27.185844 -81.672333 -0.8591677 -174.90967 -0.85366815 -174.91693 -27.111992 -100.73592
26600000000 -26.342058 -72.958725 -0.87904745 -176.94229 -0.86240518 -176.90031 -26.989668 -94.041435
26700000000 -26.984642 -70.56443 -0.85437775 -178.99681 -0.84693617 -178.90434 -27.498983 -98.116035
26800000000 -27.040892 -69.241913 -0.84940082 179.04001 -0.83898252 179.04321 -29.121134 -95.958221
26900000000 -28.133133 -74.763809 -0.86778682 176.94511 -0.8570106 176.99777 -28.643368 -107.94041
27000000000 -27.056774 -69.106087 -0.86347967 174.98019 -0.86096162 175.03476 -30.458378 -118.94321
27100000000 -27.272234 -74.43586 -0.85514426 172.9176 -0.86092341 172.95352 -27.631918 -122.24637
27200000000 -27.792728 -64.858536 -0.856013 170.90959 -0.86032885 170.8828 -28.548183 -120.4371
27300000000 -27.783676 -66.47216 -0.87181503 168.9117 -0.84949052 169.01007 -28.491831 -107.2068
27400000000 -27.327398 -56.038448 -0.87480766 166.84477 -0.85722566 166.9117 -32.027542 -113.35052
27500000000 -27.792269 -64.871208 -0.8861469 164.82256 -0.84826016 164.897 -32.414764 -111.18184
27600000000 -27.627733 -57.26004 -0.86744922 162.83315 -0.86651844 162.86838 -32.277061 -148.12709
27700000000 -26.70244 -58.011032 -0.85653698 160.7605 -0.85217047 160.81166 -30.847448 -140.15802
27800000000 -26.628969 -49.301674 -0.86628681 158.76376 -0.86425346 158.82535 -29.930758 -148.91701
27900000000 -26.615925 -51.289097 -0.87332076 156.85788 -0.8661471 156.69452 -30.56838 -121.126
28000000000 -27.368063 -45.090519 -0.8756091 154.66702 -0.8716467 154.67746 -33.091068 -133.08249
28100000000 -26.077478 -53.160587 -0.87298429 152.74913 -0.88299382 152.71616 -36.66489 -125.84363
28200000000 -25.904814 -48.345119 -0.90309983 150.72485 -0.9009527 150.62146 -36.779274 -172.42195
28300000000 -23.956814 -50.003796 -0.88969934 148.60133 -0.87720358 148.60165 -34.811554 -163.64867
28400000000 -24.949541 -49.448185 -0.88923264 146.66269 -0.87481529 146.53673 -32.811668 -166.75174
28500000000 -24.221134 -43.501801 -0.86161751 144.58879 -0.87615985 144.58931 -36.210926 -122.82024
28600000000 -24.404009 -46.084843 -0.90338063 142.59807 -0.87165141 142.70534 -38.700733 -116.42547
28700000000 -23.888067 -41.721256 -0.89560902 140.68146 -0.88588023 140.5144 -42.151051 -1.3953207
28800000000 -25.160883 -46.156204 -0.90998942 138.50432 -0.91269708 138.47627 -37.702038 101.16677
28900000000 -23.230412 -37.370705 -0.93582493 136.46533 -0.90527004 136.48457 -39.403267 130.32996
29000000000 -23.162424 -52.303501 -0.93221337 134.38326 -0.94042176 134.40771 -37.545631 154.38908
29100000000 -22.654295 -47.114388 -0.91613454 132.32079 -0.92447078 132.38844 -36.127789 -99.070686
29200000000 -22.731777 -48.028267 -0.91536617 130.53893 -0.90473408 130.5135 -38.65456 -18.40251
29300000000 -22.198109 -36.657043 -0.88924503 128.47853 -0.88449836 128.55208 -32.630791 8.0494318
29400000000 -22.064264 -41.514927 -0.90675586 126.46113 -0.90894097 126.57791 -28.472523 55.754677
29500000000 -23.513489 -36.189098 -0.90128464 124.4819 -0.90327227 124.54836 -30.028246 52.275234
29600000000 -22.655317 -45.235836 -0.92591923 122.42866 -0.90022582 122.2999 -31.252373 86.231247
29700000000 -23.070618 -44.11161 -0.9344871 120.32355 -0.93085611 120.39598 -38.627705 33.675415
29800000000 -21.302303 -47.418591 -0.92990589 118.23066 -0.93989104 118.23104 -39.205975 35.650703
29900000000 -21.791138 -44.171902 -0.90455431 116.16256 -0.90872079 116.29765 -28.532846 -9.8100557
30000000000 -20.967823 -37.362251 -0.92085934 114.25368 -0.92562932 114.47806 -27.874983 19.099916
30100000000 -21.354467 -36.323532 -0.92352927 112.35975 -0.91494781 112.16155 -24.82057 18.38159
30200000000 -20.764654 -36.288906 -0.92668372 110.16888 -0.92519397 110.19945 -26.808374 41.11393
30300000000 -22.035717 -47.870655 -0.90054369 108.15485 -0.9236961 108.27015 -26.727221 30.526253
30400000000 -21.565845 -46.627457 -0.93850023 106.18457 -0.93815452 106.13181 -31.882616 29.812744
30500000000 -20.677776 -51.836338 -0.92594361 104.03139 -0.9309594 104.17789 -26.582191 5.5102654
30600000000 -20.07708 -45.417698 -0.94519395 102.18829 -0.94904017 102.10252 -27.223951 -1.2238086
30700000000 -20.297791 -48.749985 -0.94103539 100.20559 -0.93149638 100.36119 -23.479418 4.3464799
30800000000 -20.249582 -40.271114 -0.95331055 98.353096 -0.94426441 98.242996 -25.337852 12.988415
30900000000 -20.269903 -46.030685 -0.94792885 96.119072 -0.95893461 96.188461 -23.661322 10.31198
31000000000 -20.414873 -43.110237 -0.96426535 94.155571 -0.95243919 94.252823 -25.286564 3.4635844
31100000000 -20.234377 -58.540268 -0.94623929 91.947166 -0.95185614 92.0606 -25.041533 -2.7040625
31200000000 -19.580578 -56.088375 -0.95018888 90.06768 -0.94550967 90.098831 -23.315336 -14.622373
31300000000 -18.583261 -56.916332 -0.96757793 88.00354 -0.94517851 88.205132 -23.143099 -11.321249
31400000000 -18.560356 -48.519958 -0.96584386 86.013901 -0.96586359 86.15892 -21.878094 -9.9484291
31500000000 -18.606544 -46.976894 -0.94229329 84.290016 -0.973225 84.260056 -21.754478 -1.0808598
31600000000 -20.457651 -46.378742 -0.96063781 82.124199 -0.97087526 82.122864 -23.162155 -5.8869052
31700000000 -20.499727 -53.922424 -0.98492056 80.183044 -0.9676882 80.142349 -22.527767 -10.931022
31800000000 -19.568743 -59.259254 -0.97991085 77.875465 -0.98919028 78.131218 -23.322815 -22.683664
31900000000 -17.595217 -60.134811 -0.95870149 75.96521 -0.99576831 76.031532 -21.129555 -24.391268
32000000000 -18.197865 -55.584934 -0.94151866 74.028221 -0.95552665 74.096458 -21.171612 -26.39575
32100000000 -18.108337 -47.149532 -0.97142851 72.234993 -0.97458553 72.116501 -19.662487 -22.586941
32200000000 -20.003971 -50.913937 -0.96929455 70.182022 -0.98604959 70.173172 -20.639366 -20.711081
32300000000 -20.214739 -54.40509 -0.9692651 68.148514 -0.9643057 68.151711 -20.547972 -20.180063
32400000000 -19.52589 -65.909203 -0.95736212 65.955551 -0.98688906 66.044556 -22.456484 -21.849245
32500000000 -18.65682 -61.651379 -0.97016317 64.021126 -0.95387125 64.128975 -21.950319 -35.264027
32600000000 -18.222788 -64.688972 -0.95552731 62.167564 -0.94892293 62.023624 -21.28146 -46.905289
32700000000 -19.003614 -49.613266 -0.96797156 59.870831 -0.96524054 59.924782 -19.783482 -45.956879
32800000000 -18.800362 -57.023933 -0.95970589 57.96645 -0.96009201 58.117451 -18.800621 -44.86916
32900000000 -20.414942 -57.55489 -0.9520337 55.983795 -0.96699929 55.948895 -19.378807 -36.637119
33000000000 -19.366659 -67.93821 -0.9576351 53.879711 -0.97169495 53.932476 -20.282505 -36.208897
33100000000 -19.497011 -68.281586 -0.96814758 52.098373 -0.95255297 51.968254 -22.291996 -38.713238
33200000000 -18.644279 -65.35434 -0.97495329 49.906654 -0.94725108 49.824596 -20.836494 -56.606827
33300000000 -19.559275 -65.462181 -0.96211392 47.765209 -0.97078198 47.841354 -21.074516 -56.918976
33400000000 -19.507647 -62.335476 -0.96066523 45.874378 -0.96024573 45.978149 -19.086193 -60.302757
33500000000 -20.070724 -68.184158 -0.93305337 43.953922 -0.93205875 43.99155 -19.615524 -56.170166
33600000000 -19.727676 -65.166656 -0.9184795 41.772545 -0.94459546 41.855019 -19.438581 -55.859722
33700000000 -19.616989 -69.069374 -0.9681071 39.838337 -0.92335474 39.786087 -20.779331 -54.280689
33800000000 -19.630333 -69.664978 -0.9437654 37.754292 -0.96501815 37.834831 -20.937096 -61.939293
33900000000 -20.264397 -75.871483 -0.96237588 35.745358 -0.99034315 35.70528 -20.635626 -68.106522
34000000000 -19.950115 -66.835747 -0.93928587 33.634174 -0.93977213 33.724014 -20.456295 -60.184143
34100000000 -19.777931 -71.399567 -0.98341882 31.645605 -0.94649392 31.521255 -20.046103 -69.664139
34200000000 -20.050653 -64.833076 -0.9667244 29.670656 -0.95508343 29.46183 -20.237844 -55.190819
34300000000 -20.547775 -67.496323 -0.97949344 27.693558 -0.97218257 27.632671 -20.740307 -73.644264
34400000000 -20.664089 -64.903229 -0.97241795 25.807629 -1.0016119 25.712015 -21.581774 -70.205063
34500000000 -20.416349 -71.814362 -1.0101427 23.586926 -1.0322022 23.816282 -20.875546 -81.176575
34600000000 -20.665211 -69.831169 -1.010801 21.726744 -0.97266573 21.434454 -20.534296 -72.568039
34700000000 -20.454998 -67.210243 -1.0062306 19.431293 -1.0171425 19.545851 -19.946835 -73.475029
34800000000 -21.732563 -64.002373 -0.99421984 17.357689 -0.95868891 17.625416 -22.002352 -71.651161
34900000000 -21.304787 -66.515495 -0.97659534 15.547464 -0.99347204 15.476907 -23.718803 -73.898399
35000000000 -21.71476 -67.483192 -0.996243 13.577641 -0.98762077 13.517328 -25.694986 -96.583572
35100000000 -21.075977 -61.701363 -0.99911541 11.455965 -0.98853338 11.420523 -22.744707 -99.335648
35200000000 -21.599943 -61.547661 -0.96229547 9.6101894 -0.95149708 9.6314583 -22.176914 -102.09734
35300000000 -21.194464 -61.281208 -0.98685718 7.4982305 -0.97964358 7.2210674 -21.174967 -89.99852
35400000000 -23.738661 -62.911549 -0.98265469 5.4203987 -0.99556935 5.3976135 -22.083427 -88.838913
35500000000 -22.791023 -52.068882 -0.99668616 3.4400434 -0.98993868 3.4591823 -24.30953 -91.580826
35600000000 -23.704443 -67.144173 -0.97525787 1.2596037 -0.99800843 1.2398019 -28.124174 -97.994972
35700000000 -23.08997 -61.486988 -1.012007 -0.80389518 -0.99245268 -0.88591158 -27.106804 -103.52487
35800000000 -22.534031 -56.569962 -0.97289306 -2.9218104 -0.95396858 -2.8257947 -25.030731 -117.99742
35900000000 -22.59012 -47.338749 -1.0118024 -5.0140748 -1.0045904 -4.7072744 -23.823154 -127.76783
36000000000 -22.767441 -46.017689 -0.99000341 -6.8022327 -1.0142598 -6.5739946 -25.999323 -105.07777
36100000000 -23.343473 -30.018095 -1.0273303 -8.7653017 -1.021919 -8.8442497 -28.423574 -118.22363
36200000000 -23.946602 -46.600521 -1.0063266 -10.854374 -1.0081826 -10.778404 -29.590307 -109.85078
36300000000 -25.826448 -40.372688 -1.0145553 -13.068585 -0.99893951 -13.3568 -30.29899 -142.33313
36400000000 -24.560247 -56.196445 -0.997756 -15.183837 -1.0018036 -15.044495 -27.141033 -131.80035
36500000000 -22.496368 -51.371437 -0.98829937 -17.128664 -0.97199476 -17.240112 -26.677608 -136.72566
36600000000 -20.045038 -48.377594 -0.97667152 -19.1091 -0.98618114 -18.925369 -29.859077 -76.218597
36700000000 -21.203127 -32.159508 -0.96228158 -20.785696 -0.98173815 -21.054174 -32.843948 -119.06476
36800000000 -20.726793 -21.263968 -1.01267 -22.850378 -1.0131941 -23.048479 -36.585369 53.291306
36900000000 -25.588907 -11.643285 -1.0246396 -25.307001 -1.0397093 -25.176086 -33.063148 147.33801
37000000000 -22.855801 -28.864109 -1.0362003 -27.023281 -1.0182469 -27.266756 -30.821836 134.11072
37100000000 -23.023155 -66.121246 -1.0453608 -29.78651 -1.0173595 -29.881578 -29.830484 -172.45209
37200000000 -20.370443 -39.485249 -0.99542546 -31.623793 -0.97382551 -31.561785 -36.201744 -159.3972
37300000000 -19.471996 -30.177046 -0.98718339 -33.566051 -0.94549519 -33.309212 -35.788116 -50.159264
37400000000 -18.812597 -16.588644 -0.97726989 -35.580597 -0.92858106 -35.563824 -28.237799 18.570683
37500000000 -21.542463 -14.91576 -0.99750066 -37.331497 -0.98524827 -37.61771 -27.193333 43.810196
37600000000 -22.557699 -11.459691 -1.0193359 -39.421207 -1.0494046 -39.620068 -24.415182 62.608452
37700000000 -21.755669 -30.226191 -1.0454729 -41.571781 -1.0141662 -41.54842 -25.184401 78.271164
37800000000 -19.496731 -30.506029 -0.99652565 -43.751747 -1.0084844 -43.7052 -30.288219 82.452507
37900000000 -17.528555 -27.501799 -1.0465735 -45.691158 -1.0342416 -45.567547 -30.177803 82.572083
38000000000 -18.373068 -17.176785 -1.0168419 -48.214302 -1.0372753 -48.160427 -28.299538 3.9607742
38100000000 -18.989414 -13.921022 -1.0340507 -49.791744 -1.0320276 -49.867775 -23.276348 28.915501
38200000000 -18.861317 -15.700132 -1.0859406 -51.856792 -1.0329748 -51.839767 -20.765856 25.073278
38300000000 -17.596998 -19.205559 -1.0567391 -54.013729 -1.0217683 -53.639595 -19.382082 48.610207
38400000000 -17.28577 -27.475512 -1.059984 -55.635056 -1.1024029 -55.718906 -20.881716 52.257267
38500000000 -16.97529 -26.081606 -1.0758259 -58.236652 -1.0819829 -57.976837 -22.641504 58.429672
38600000000 -16.612194 -12.500643 -1.0712168 -59.863392 -1.0920215 -59.565937 -22.573317 24.762768
38700000000 -15.755292 -19.991991 -1.0979998 -61.865021 -1.101474 -61.681801 -22.314196 19.006792
38800000000 -16.704819 -18.980499 -1.126889 -63.828167 -1.1041876 -63.872097 -18.044722 19.208391
38900000000 -15.965483 -19.173637 -1.1277548 -65.817818 -1.1103613 -66.054459 -19.299047 28.994307
39000000000 -16.516359 -22.163025 -1.1313081 -67.738876 -1.1457899 -67.967697 -17.294664 30.45215
39100000000 -15.447901 -25.968607 -1.1320548 -70.010864 -1.0885198 -70.152412 -21.403072 33.226322
39200000000 -15.529963 -33.040661 -1.143589 -71.665596 -1.1134671 -71.674507 -18.828657 15.50351
39300000000 -14.260006 -26.729412 -1.0904655 -74.034584 -1.1715988 -73.967567 -19.19845 -0.44207269
39400000000 -15.321297 -22.219975 -1.1243873 -76.012283 -1.1157123 -75.798714 -15.755729 8.3189383
39500000000 -15.222686 -14.31058 -1.1407137 -78.120277 -1.1222271 -77.751221 -17.036736 10.38597
39600000000 -15.761376 -27.999769 -1.1465712 -79.672348 -1.1817855 -79.884514 -15.366005 20.529915
39700000000 -16.48946 -37.152592 -1.106245 -82.25 -1.1129874 -82.250916 -19.52446 18.222807
39800000000 -14.402092 -44.604523 -1.1498784 -84.423111 -1.1363695 -83.888412 -17.674164 8.1024027
39900000000 -13.934443 -28.732336 -1.1946102 -86.204636 -1.1642395 -86.277199 -18.813025 -17.388115
40000000000 -13.42263 -29.91819 -1.1352499 -88.314972 -1.0811989 -88.18811 -15.106819 -14.668602
40100000000 -15.207861 -19.645393 -1.1479139 -90.575439 -1.1564122 -90.382301 -14.310026 -10.187651
40200000000 -15.430124 -27.373503 -1.2036575 -91.95974 -1.202504 -92.270607 -14.198901 1.7328236
40300000000 -16.550444 -43.538528 -1.1716506 -94.32019 -1.2038256 -94.294388 -14.87073 2.8522391
40400000000 -14.209187 -42.258194 -1.1850339 -96.161354 -1.1956973 -96.316246 -17.108677 0.62072021
40500000000 -13.44806 -38.623878 -1.1945728 -98.279808 -1.1845725 -97.968407 -17.071115 -12.77605
40600000000 -12.483193 -30.517105 -1.1843755 -100.02529 -1.2088475 -99.991211 -15.795793 -20.486658
40700000000 -14.754947 -31.965258 -1.2721416 -102.32375 -1.2646791 -101.84632 -14.433681 -23.204159
40800000000 -14.372508 -30.83143 -1.2602212 -104.01543 -1.1776559 -104.0992 -13.134914 -16.797007
40900000000 -14.040137 -45.868935 -1.215643 -105.81268 -1.2341373 -105.86327 -14.084505 -10.16452
41000000000 -12.944055 -49.475281 -1.1077484 -108.09429 -1.1762985 -108.29136 -13.857716 -12.795947
41100000000 -13.504759 -47.55304 -1.2600863 -110.11786 -1.2335485 -110.43806 -16.140148 -17.332668
41200000000 -12.932383 -36.602146 -1.2331741 -111.79214 -1.1910979 -111.73901 -14.398002 -23.081219
41300000000 -13.246197 -44.39867 -1.2294155 -113.67528 -1.2228224 -113.81474 -14.824652 -29.243979
41400000000 -13.655057 -40.867306 -1.2387409 -116.10443 -1.2099426 -115.66866 -12.969398 -27.269794
41500000000 -13.382474 -47.695538 -1.2921576 -117.8103 -1.2326597 -117.6786 -13.252251 -32.961315
41600000000 -12.847132 -45.41655 -1.2335925 -119.80883 -1.2272558 -119.79345 -13.223437 -25.314503
41700000000 -12.574462 -50.450226 -1.2556604 -121.72493 -1.2684085 -121.77868 -13.873162 -34.759426
41800000000 -13.288788 -49.126408 -1.2674844 -123.95545 -1.1922102 -123.7743 -13.730586 -29.864073
41900000000 -13.173928 -52.135651 -1.2716365 -125.98997 -1.3063351 -125.47523 -14.162586 -43.759674
42000000000 -12.928873 -49.680077 -1.225843 -127.67491 -1.2325981 -127.21604 -13.445397 -36.681686
42100000000 -11.832457 -50.534931 -1.2877523 -129.64719 -1.2869971 -130.0713 -13.298088 -46.691116
42200000000 -12.989359 -51.263191 -1.235673 -131.47293 -1.1767108 -131.2903 -12.976698 -37.880646
42300000000 -13.380935 -46.815533 -1.2340623 -134.00699 -1.2565536 -133.60127 -12.717268 -47.593563
42400000000 -14.276508 -60.024494 -1.2089477 -135.66301 -1.2803352 -135.52332 -14.108491 -42.539837
42500000000 -12.373617 -59.531555 -1.1883199 -137.74051 -1.185796 -137.25365 -14.349878 -52.495033
42600000000 -11.896038 -63.241096 -1.2077743 -139.68504 -1.2238075 -139.22644 -14.542272 -49.97971
42700000000 -12.350945 -53.811878 -1.1928084 -141.02597 -1.2832791 -141.47229 -12.798293 -63.241665
42800000000 -13.216845 -51.476101 -1.2476472 -143.91481 -1.2515444 -143.73831 -13.976697 -60.591476
42900000000 -15.068048 -45.073051 -1.2822735 -145.47275 -1.2647196 -145.54568 -13.05972 -56.717239
43000000000 -14.8613 -64.098648 -1.1689579 -147.78548 -1.224331 -147.76144 -13.178416 -56.170452
43100000000 -14.372029 -75.848061 -1.2524271 -150.39694 -1.174971 -149.94675 -15.109591 -52.953438
43200000000 -12.123469 -70.803482 -1.1398605 -151.65456 -1.2062099 -151.92474 -15.323323 -60.116833
43300000000 -13.057038 -61.555046 -1.2063657 -153.63959 -1.1391714 -153.51274 -15.706561 -72.137604
43400000000 -13.303259 -51.811283 -1.1759394 -155.39401 -1.1356342 -155.62393 -14.178775 -74.294365
43500000000 -14.480846 -48.426006 -1.2535939 -157.33304 -1.2255193 -157.8083 -14.178684 -81.710373
43600000000 -16.694942 -61.464298 -1.1717466 -159.70303 -1.1402644 -160.09985 -13.209723 -70.795212
43700000000 -16.022566 -74.539154 -1.1793017 -161.97018 -1.1636189 -161.95032 -14.469362 -65.089928
43800000000 -14.241172 -80.225357 -1.2044026 -163.62425 -1.1300161 -164.21942 -15.265607 -67.80471
43900000000 -14.046858 -72.32444 -1.1342515 -166.13902 -1.1695374 -166.04109 -17.071264 -78.634682
44000000000 -14.255694 -59.033497 -1.1352277 -167.75925 -1.0604713 -167.82642 -16.298613 -84.048065
44100000000 -15.616382 -58.256393 -1.0464717 -170.11157 -1.1209885 -170.30342 -15.513373 -88.994453
44200000000 -16.839018 -50.390556 -1.1478118 -171.9523 -1.1642491 -172.0415 -15.48737 -89.366249
44300000000 -16.236937 -69.905151 -1.1225388 -173.75015 -1.1707144 -174.00166 -16.30611 -85.298096
44400000000 -16.505169 -79.214684 -1.1403061 -176.67892 -1.1087099 -175.9646 -17.228437 -81.207077
44500000000 -14.963267 -80.741318 -1.1363722 -177.80438 -1.0873795 -178.0479 -17.28891 -94.665955
44600000000 -15.589754 -68.86898 -1.1396438 179.73335 -1.0694617 179.4962 -19.959919 -93.889862
44700000000 -15.13612 -57.298397 -1.1298503 178.0681 -1.1384381 178.09843 -16.622339 -101.41386
44800000000 -18.625734 -62.970062 -1.1117898 175.35126 -1.0418644 175.95363 -17.365524 -86.077232
44900000000 -18.710495 -69.545334 -1.0641072 172.98242 -1.1468098 173.58406 -17.515184 -95.514267
45000000000 -19.86635 -67.341034 -1.1342653 171.4644 -1.0929779 171.39836 -22.469761 -86.612854
