!Keysight Technologies,N5247B,MY61255062,A.19.80.06
!Date: Monday, May 18, 2026 12:49:34
!Correction: S11(Cdelta 2-Port  ) 
!S21(Cdelta 2-Port  ) 
!S12(Cdelta 2-Port  ) 
!S22(Cdelta 2-Port  ) 
!S2P File: Measurements: S11, S21, S12, S22:
# Hz S  dB   R 50
1000000000 -26.500494 -12.279655 -0.41088897 -20.934429 -0.40492982 -20.923944 -26.945967 -13.565649
1100000000 -26.433748 -14.362807 -0.42199221 -22.974352 -0.41710195 -22.958702 -26.964991 -15.318677
1200000000 -26.351217 -16.106276 -0.43037426 -24.969912 -0.42583659 -24.958231 -26.971127 -16.152391
1300000000 -26.296082 -18.042959 -0.43587217 -27.037571 -0.43302354 -27.021696 -26.84017 -18.46207
1400000000 -26.182159 -19.675678 -0.44289204 -29.009855 -0.43731225 -28.995413 -26.810188 -19.267847
1500000000 -26.114372 -22.010048 -0.4438659 -31.036711 -0.43928689 -31.03096 -26.648689 -21.242695
1600000000 -26.036596 -24.02846 -0.44845003 -33.090374 -0.44362706 -33.062103 -26.608143 -24.256123
1700000000 -25.945175 -26.249746 -0.45016646 -35.094383 -0.44516808 -35.086288 -26.511539 -25.801937
1800000000 -25.818464 -28.321257 -0.45380077 -37.126099 -0.44762492 -37.119362 -26.405825 -27.941074
1900000000 -25.735476 -30.583132 -0.4558824 -39.179707 -0.4498443 -39.167847 -26.300739 -30.362175
2000000000 -25.739197 -32.798901 -0.4625569 -41.232197 -0.45618603 -41.216839 -26.282398 -32.995464
2100000000 -25.641836 -35.381554 -0.46419939 -43.25164 -0.45828494 -43.245728 -26.265347 -34.675415
2200000000 -25.669571 -37.842644 -0.4677515 -45.294159 -0.46395341 -45.280838 -26.229563 -37.410213
2300000000 -25.640654 -40.041885 -0.47109529 -47.345177 -0.46697372 -47.329422 -26.218531 -39.430748
2400000000 -25.617773 -42.419697 -0.47656211 -49.374191 -0.47130418 -49.368599 -26.199284 -41.556179
2500000000 -25.554167 -44.18523 -0.47995204 -51.409748 -0.4755064 -51.399616 -26.162102 -44.26516
2600000000 -25.583992 -46.975376 -0.48677656 -53.461185 -0.48140764 -53.433876 -26.232512 -46.606251
2700000000 -25.653877 -48.934296 -0.49344885 -55.473415 -0.48962477 -55.468464 -26.341612 -49.255508
2800000000 -25.703684 -51.644302 -0.50114495 -57.498951 -0.49515387 -57.488132 -26.365147 -51.442551
2900000000 -25.800772 -53.635159 -0.50440377 -59.522034 -0.49819365 -59.495232 -26.341675 -54.082211
3000000000 -25.795868 -55.532604 -0.50923157 -61.525867 -0.50275296 -61.504456 -26.454491 -55.848087
3100000000 -25.900084 -57.508705 -0.51176894 -63.559509 -0.50489748 -63.533398 -26.486504 -57.488705
3200000000 -25.831297 -59.480827 -0.51405513 -65.578346 -0.5064761 -65.558624 -26.575991 -59.621704
3300000000 -25.923487 -62.398163 -0.51491863 -67.596924 -0.51115566 -67.575508 -26.569757 -62.308422
3400000000 -26.077936 -64.575378 -0.5212146 -69.625679 -0.51237071 -69.612938 -26.689524 -64.956284
3500000000 -26.092922 -67.330803 -0.52627587 -71.657646 -0.52007878 -71.62413 -26.693966 -66.7024
3600000000 -26.095463 -69.089127 -0.5277828 -73.639145 -0.52062011 -73.627373 -26.738285 -68.353439
3700000000 -26.098196 -71.268745 -0.52978909 -75.659264 -0.52274603 -75.646652 -26.679668 -69.90731
3800000000 -26.248714 -72.87545 -0.52916503 -77.690681 -0.52394819 -77.680222 -26.715599 -72.296722
3900000000 -26.209742 -74.961792 -0.52935892 -79.73394 -0.52469361 -79.713326 -26.820381 -74.237442
4000000000 -26.311073 -77.065605 -0.53466541 -81.765465 -0.52934313 -81.755272 -27.002775 -76.409576
4100000000 -26.316128 -78.925095 -0.540402 -83.816902 -0.53618836 -83.781044 -27.142105 -78.055901
4200000000 -26.466486 -80.890137 -0.54655039 -85.805969 -0.54113084 -85.791962 -27.142607 -80.297264
4300000000 -26.565334 -82.679817 -0.54840618 -87.805733 -0.54398149 -87.784866 -27.211992 -82.920372
4400000000 -26.756012 -84.614861 -0.54950356 -89.815605 -0.54383534 -89.806351 -27.303007 -83.926361
4500000000 -26.940815 -86.117043 -0.54987371 -91.841286 -0.54387057 -91.822662 -27.32592 -86.092339
4600000000 -27.115345 -88.35849 -0.55305058 -93.874046 -0.54704946 -93.850128 -27.485987 -87.921959
4700000000 -27.241199 -91.071404 -0.55506241 -95.892204 -0.54985964 -95.880432 -27.521074 -90.198303
4800000000 -27.40835 -93.264084 -0.5561927 -97.913216 -0.55037528 -97.89463 -27.663746 -91.941765
4900000000 -27.505281 -94.980301 -0.55922312 -99.944832 -0.55398417 -99.925011 -27.620214 -94.444054
5000000000 -27.711771 -96.208229 -0.56013268 -101.96194 -0.55580139 -101.95667 -27.766264 -95.419937
5100000000 -27.83741 -96.845589 -0.56228423 -103.98901 -0.55633187 -103.95865 -27.866047 -96.397224
5200000000 -28.096067 -99.025185 -0.56448102 -106.01991 -0.55838758 -105.98779 -28.176794 -98.45974
5300000000 -28.273632 -100.96682 -0.56609797 -108.04985 -0.56343085 -108.01264 -28.354687 -101.09206
5400000000 -28.54427 -104.23293 -0.57124114 -110.07046 -0.56444329 -110.04821 -28.543808 -104.52222
5500000000 -28.759687 -105.84337 -0.57256401 -112.09544 -0.5675922 -112.08469 -28.445503 -106.51443
5600000000 -28.90571 -107.89056 -0.57658839 -114.10786 -0.57247186 -114.09872 -28.416651 -108.0382
5700000000 -29.210001 -107.78368 -0.57915658 -116.12364 -0.57274717 -116.10546 -28.358122 -107.31842
5800000000 -29.37174 -109.65659 -0.57974136 -118.14662 -0.57534319 -118.12166 -28.674706 -108.72726
5900000000 -29.911127 -111.4408 -0.58410466 -120.14691 -0.57933432 -120.13882 -29.121866 -110.09225
6000000000 -29.902182 -113.95819 -0.58461344 -122.1629 -0.57998216 -122.13631 -29.5478 -114.55307
6100000000 -30.519045 -116.39674 -0.58434808 -124.16708 -0.57966089 -124.1534 -29.731165 -117.87229
6200000000 -30.793411 -117.29019 -0.58427167 -126.20654 -0.57984906 -126.1809 -29.579304 -120.19021
6300000000 -31.578314 -118.81558 -0.58476478 -128.23785 -0.58067632 -128.22343 -29.550507 -119.05831
6400000000 -32.106869 -118.35325 -0.59240913 -130.22284 -0.5858373 -130.20274 -29.421665 -120.12058
6500000000 -32.641624 -121.85174 -0.58841246 -132.29227 -0.58433032 -132.25836 -30.393705 -121.74322
6600000000 -33.091633 -123.19154 -0.59219402 -134.31064 -0.58725363 -134.28813 -30.84914 -123.86776
6700000000 -33.656055 -127.11407 -0.5951618 -136.32176 -0.59277201 -136.30069 -31.177702 -126.84614
6800000000 -33.969345 -121.70252 -0.59665239 -138.34229 -0.59159625 -138.31396 -30.976345 -129.78638
6900000000 -34.364891 -120.9076 -0.59403795 -140.38693 -0.59166658 -140.34573 -31.042747 -128.8324
7000000000 -35.210411 -115.24286 -0.59788859 -142.40933 -0.59007269 -142.37865 -30.995792 -127.38152
7100000000 -35.858932 -115.02589 -0.59892994 -144.44406 -0.59565407 -144.4072 -31.763363 -125.39047
7200000000 -36.659721 -110.95744 -0.60242182 -146.45512 -0.59666604 -146.42345 -32.086967 -126.38096
7300000000 -36.655743 -114.62234 -0.60888743 -148.49818 -0.60393989 -148.46274 -32.167862 -132.34155
7400000000 -38.484325 -114.43267 -0.60488689 -150.47993 -0.59958017 -150.44618 -32.245674 -136.51414
7500000000 -38.701847 -104.79382 -0.60540289 -152.52725 -0.59931117 -152.4922 -32.179993 -134.97882
7600000000 -39.085384 -95.558121 -0.60604745 -154.56688 -0.60060942 -154.5181 -32.125294 -132.00256
7700000000 -39.273666 -89.140976 -0.60583615 -156.56982 -0.59849584 -156.55586 -32.880722 -128.20232
7800000000 -39.291862 -87.67659 -0.60766566 -158.61311 -0.60282332 -158.58365 -33.764343 -129.51733
7900000000 -39.634819 -84.575371 -0.60853601 -160.6465 -0.60518593 -160.62303 -34.65263 -135.75677
8000000000 -40.218071 -76.501442 -0.61152571 -162.69035 -0.60815698 -162.63579 -33.883076 -141.23331
8100000000 -39.404243 -66.502777 -0.61383677 -164.72241 -0.60946822 -164.6718 -33.40097 -140.39775
8200000000 -38.603836 -57.830032 -0.61567467 -166.75984 -0.61120212 -166.70847 -32.783886 -134.01376
8300000000 -38.030598 -57.939568 -0.61657113 -168.79259 -0.61099356 -168.75061 -33.829132 -128.26581
8400000000 -38.593994 -52.183727 -0.61811179 -170.85129 -0.61307234 -170.8259 -36.133064 -130.34683
8500000000 -38.243382 -45.805641 -0.6280691 -172.96736 -0.62527341 -172.93689 -36.853222 -163.88708
8600000000 -37.104824 -40.126686 -0.68398094 -175.11514 -0.67916995 -175.05925 -31.154612 169.40094
8700000000 -40.942135 -31.739967 -0.73584419 -176.2455 -0.73352897 -176.20338 -26.23732 139.92451
8800000000 -34.804901 -26.299763 -0.59410268 -178.31213 -0.59072721 -178.29153 -28.792665 136.35876
8900000000 -34.443676 -39.949608 -0.5988096 179.23195 -0.59620458 179.2594 -31.060244 166.8416
9000000000 -34.411407 -42.300194 -0.62003899 177.11531 -0.61358482 177.1358 -30.628963 -161.92543
9100000000 -33.361145 -38.790878 -0.63002264 175.06772 -0.62951267 175.12369 -31.26627 -141.58725
9200000000 -32.828209 -41.374477 -0.63830751 173.05006 -0.6321767 173.08548 -32.390823 -126.51276
9300000000 -32.356682 -38.840015 -0.64272976 171.04855 -0.64040303 171.06992 -36.06144 -121.68616
9400000000 -32.150002 -41.806297 -0.64667791 169.0327 -0.64278591 169.06554 -37.716972 -129.72716
9500000000 -31.743904 -40.887753 -0.65008634 167.00993 -0.64485443 167.05807 -37.931107 -150.58675
9600000000 -30.847973 -43.210705 -0.6517421 164.98582 -0.64988643 165.03563 -35.404602 -152.21407
9700000000 -30.459749 -42.929066 -0.65280783 162.9545 -0.64991826 163.00658 -34.881668 -147.97505
9800000000 -29.786198 -44.39872 -0.65744817 160.93181 -0.65303499 160.98083 -34.926254 -138.81642
9900000000 -29.90213 -44.58136 -0.65876782 158.91872 -0.65291405 158.95302 -36.620022 -134.93828
10000000000 -29.434805 -44.485165 -0.66232896 156.88414 -0.65601212 156.93051 -37.853489 -135.36404
10100000000 -29.192535 -46.386284 -0.66615582 154.8701 -0.65857321 154.89507 -38.447651 -153.45612
10200000000 -28.508249 -46.006145 -0.67031473 152.8275 -0.6634959 152.8596 -37.053753 -158.35924
10300000000 -28.225056 -48.817722 -0.67404711 150.78946 -0.66829139 150.845 -35.724091 -158.60722
10400000000 -27.898771 -50.092255 -0.67746502 148.77415 -0.67292565 148.81187 -35.158081 -147.28302
10500000000 -27.83181 -53.041786 -0.67992157 146.76411 -0.6756497 146.80818 -35.321159 -139.84636
10600000000 -27.612066 -53.410332 -0.68191278 144.74055 -0.67491305 144.78897 -36.666214 -129.81306
10700000000 -27.128273 -55.098156 -0.68856889 142.74431 -0.68138915 142.77422 -38.746902 -135.7961
10800000000 -26.890114 -54.876244 -0.69060445 140.73296 -0.68361527 140.78979 -40.622635 -141.80612
10900000000 -26.449688 -55.421608 -0.69308424 138.74207 -0.68856102 138.7907 -40.13546 -161.58203
11000000000 -26.385645 -57.535084 -0.69624335 136.72339 -0.69288808 136.76753 -39.02557 -161.52422
11100000000 -26.283361 -60.358704 -0.69904411 134.70367 -0.69582832 134.75409 -37.40287 -161.06497
11200000000 -26.158789 -62.547726 -0.7022447 132.6973 -0.70057052 132.7511 -37.19413 -150.72844
11300000000 -25.866919 -63.5453 -0.70450193 130.68544 -0.70317227 130.75214 -37.166817 -150.62448
11400000000 -25.522219 -65.01976 -0.70857888 128.69444 -0.7035436 128.71381 -37.913979 -142.52399
11500000000 -25.261482 -66.338158 -0.7080791 126.6729 -0.70429552 126.73087 -38.480988 -141.54182
11600000000 -25.195459 -68.633911 -0.71025735 124.66233 -0.70672768 124.70636 -39.325062 -143.71635
11700000000 -25.024445 -70.114601 -0.71350586 122.65617 -0.70757943 122.71141 -39.772301 -153.54128
11800000000 -25.067707 -72.477463 -0.71710855 120.66823 -0.71049732 120.70821 -40.214703 -154.34177
11900000000 -24.786821 -73.916573 -0.71863306 118.65188 -0.7137841 118.70455 -39.177601 -161.74324
12000000000 -24.81513 -75.91256 -0.72008777 116.65327 -0.71610165 116.70033 -39.211792 -158.75201
12100000000 -24.565018 -77.332191 -0.7237944 114.65166 -0.71880716 114.69549 -38.232517 -162.35583
12200000000 -24.351442 -80.735435 -0.72270221 112.66582 -0.72207916 112.70564 -37.576431 -157.17931
12300000000 -24.379608 -80.982613 -0.726367 110.67397 -0.71982992 110.70983 -37.666405 -154.93875
12400000000 -24.282654 -83.943008 -0.72443479 108.70685 -0.72235644 108.73086 -38.442997 -156.55907
12500000000 -24.420658 -84.27066 -0.72617358 106.69165 -0.71980333 106.72019 -38.631268 -162.12001
12600000000 -24.264004 -87.505852 -0.72302538 104.69014 -0.71759069 104.73688 -39.199986 -163.39467
12700000000 -24.385485 -88.902725 -0.72448254 102.65755 -0.7169925 102.72691 -38.44215 -171.31256
12800000000 -24.118437 -91.996239 -0.71886122 100.67923 -0.71150714 100.71165 -38.805882 -171.70895
12900000000 -24.203365 -93.463493 -0.71312606 98.660782 -0.70752066 98.689461 -37.682049 -178.63066
13000000000 -24.019585 -94.384796 -0.71101803 96.648781 -0.70584136 96.681183 -38.349846 -178.70622
13100000000 -24.429247 -96.849022 -0.70813549 94.606606 -0.70548874 94.651031 -38.069736 -179.66512
13200000000 -24.286804 -96.844009 -0.70791215 92.574722 -0.70060611 92.642807 -39.475353 178.99864
13300000000 -24.416519 -100.84508 -0.70543694 90.551079 -0.70139581 90.598053 -39.453903 -179.87585
13400000000 -24.339352 -99.66568 -0.70443982 88.507233 -0.700086 88.584023 -41.013348 168.74153
13500000000 -24.441723 -103.59382 -0.70310259 86.500992 -0.69783652 86.542488 -41.172371 160.44505
13600000000 -24.608816 -103.48475 -0.70423186 84.452217 -0.69974536 84.515343 -42.566277 146.23296
13700000000 -24.508852 -106.28581 -0.70304322 82.421585 -0.69826913 82.46965 -41.145149 149.20438
13800000000 -24.768097 -106.721 -0.70521712 80.381142 -0.69942546 80.445778 -41.533466 137.26157
13900000000 -24.499989 -108.55006 -0.70549023 78.328201 -0.70400387 78.383995 -41.86322 146.51318
14000000000 -24.95792 -108.05711 -0.70804286 76.30835 -0.70022923 76.362137 -43.656643 124.45808
14100000000 -24.897264 -110.61334 -0.71168554 74.256592 -0.70782959 74.314507 -44.569248 132.92268
14200000000 -25.334599 -112.13365 -0.71270877 72.221695 -0.70986903 72.278496 -45.170071 101.1184
14300000000 -25.038549 -113.8615 -0.71808845 70.147247 -0.71460491 70.201294 -47.531578 113.12807
14400000000 -25.026997 -115.36092 -0.73753697 68.12075 -0.73223543 68.171944 -51.081738 99.870743
14500000000 -24.676138 -117.84728 -0.7480979 66.248566 -0.74322951 66.278755 -47.195686 142.26286
14600000000 -25.332067 -119.91064 -0.7349124 64.263512 -0.73021674 64.330101 -43.742535 100.76958
14700000000 -25.416952 -120.97316 -0.73116076 62.263611 -0.72571373 62.333229 -43.193764 93.507202
14800000000 -25.751116 -125.08186 -0.72704571 60.228069 -0.72279209 60.292492 -40.044411 86.790794
14900000000 -25.66378 -126.08366 -0.72536409 58.223381 -0.72161269 58.296669 -39.885098 97.553062
15000000000 -26.000538 -128.75746 -0.72275662 56.190353 -0.7180326 56.245583 -41.773903 98.339539
15100000000 -26.202555 -126.82526 -0.72121602 54.168991 -0.72021121 54.210114 -46.210999 98.344521
15200000000 -26.580338 -130.53528 -0.72530347 52.09565 -0.7181856 52.147732 -49.025192 55.276562
15300000000 -26.796789 -129.06192 -0.72654718 50.058029 -0.72040433 50.129635 -43.731339 33.852932
15400000000 -26.584234 -134.03873 -0.72621155 48.004074 -0.72352988 48.089378 -39.858521 40.603039
15500000000 -26.841003 -131.92747 -0.73166436 45.992882 -0.72226197 46.063335 -39.006718 49.536789
15600000000 -26.627995 -136.24643 -0.7313568 43.954567 -0.72915906 43.999763 -39.345337 63.661877
15700000000 -27.577919 -133.98372 -0.73546612 41.935211 -0.73089427 41.997585 -43.505226 72.264572
15800000000 -27.727755 -137.22893 -0.73848838 39.914959 -0.7341944 39.994534 -49.114906 46.305065
15900000000 -28.785675 -137.76866 -0.73939514 37.917053 -0.73577917 37.970085 -47.955654 1.197763
16000000000 -28.166456 -141.95834 -0.73898453 35.886246 -0.7353695 35.949867 -42.339741 3.7858214
16100000000 -28.985168 -144.01863 -0.74474353 33.874405 -0.74238545 33.912086 -40.211781 3.6774769
16200000000 -28.433458 -142.49881 -0.74486703 31.827084 -0.74270856 31.910391 -38.619617 19.921555
16300000000 -29.461449 -143.90218 -0.74869603 29.842621 -0.74282283 29.897398 -41.093182 10.637728
16400000000 -29.751238 -138.80804 -0.75384063 27.80205 -0.74995142 27.858919 -40.970642 21.921213
16500000000 -31.459393 -144.66261 -0.75299025 25.812305 -0.75073904 25.834145 -44.474628 -1.9923495
16600000000 -31.959423 -143.74611 -0.75766277 23.795277 -0.75168413 23.839979 -40.988388 2.0535524
16700000000 -32.114861 -154.05722 -0.76232338 21.748344 -0.75561219 21.811436 -40.753628 -16.064764
16800000000 -32.145309 -151.20374 -0.76317036 19.746355 -0.75521111 19.808126 -38.685963 0.79539472
16900000000 -31.794771 -152.68887 -0.7659387 17.750195 -0.76002699 17.80447 -38.710403 -10.850524
17000000000 -33.186886 -140.45731 -0.7683695 15.723724 -0.76394194 15.77773 -39.935081 1.2453765
17100000000 -34.489204 -137.74304 -0.76908356 13.715269 -0.76564384 13.767395 -40.172119 -16.030018
17200000000 -38.411652 -133.25441 -0.77186495 11.68686 -0.76754963 11.754018 -43.002289 -9.1099253
17300000000 -38.065395 -155.16376 -0.77214849 9.6945601 -0.76662952 9.735137 -39.227345 -27.111462
17400000000 -37.53397 -168.99355 -0.77714604 7.6791091 -0.76697451 7.7449608 -39.247105 -11.809122
17500000000 -35.196945 -160.92212 -0.77687854 5.65909 -0.77260184 5.7234168 -37.179699 -13.73492
17600000000 -37.224564 -143.83443 -0.78073776 3.6450977 -0.77564138 3.7356086 -40.186462 4.1953263
17700000000 -37.89679 -125.40478 -0.78600204 1.6573911 -0.77988333 1.6993626 -41.006664 4.961421
17800000000 -44.362305 -84.462669 -0.78405833 -0.36470768 -0.77940321 -0.33932754 -47.941669 3.8154023
17900000000 -49.120308 -94.25164 -0.78772843 -2.3579569 -0.77971822 -2.3342419 -45.327488 -39.503689
18000000000 -50.670341 164.98891 -0.78693807 -4.4171724 -0.78338522 -4.3654222 -40.571987 -54.495171
18100000000 -42.409603 -145.16203 -0.78443295 -6.4236951 -0.78128779 -6.3449955 -36.348854 -38.125671
18200000000 -42.677471 -129.8522 -0.78637618 -8.4110374 -0.78216046 -8.3393507 -36.482613 -22.820993
18300000000 -39.388245 -82.34864 -0.78397369 -10.422384 -0.78223675 -10.364859 -36.959663 -0.93150705
18400000000 -41.326496 -45.376648 -0.78732038 -12.418935 -0.78134972 -12.367793 -40.213623 24.208839
18500000000 -38.163319 -31.090406 -0.79098451 -14.455001 -0.78421497 -14.391325 -49.910793 59.591557
18600000000 -39.914162 -27.89941 -0.78638828 -16.493702 -0.78288579 -16.423088 -47.294617 -116.11646
18700000000 -37.951881 -44.585369 -0.78620833 -18.459673 -0.78223735 -18.429226 -38.916939 -83.436935
18800000000 -38.084435 -56.898289 -0.78685027 -20.517778 -0.77690768 -20.429562 -35.429459 -57.717304
18900000000 -35.183983 -47.461174 -0.78539777 -22.521404 -0.77939326 -22.412895 -34.32539 -37.036137
19000000000 -34.575752 -49.041744 -0.78629738 -24.473862 -0.7822603 -24.400393 -35.982643 -5.7255592
19100000000 -32.841808 -33.951065 -0.78423446 -26.483469 -0.77958441 -26.409346 -39.061966 4.7747269
19200000000 -32.101116 -40.051262 -0.78798664 -28.478724 -0.78637588 -28.438185 -45.076233 62.05378
19300000000 -31.859005 -35.739899 -0.78514844 -30.512323 -0.78225034 -30.435753 -47.56847 -93.846916
19400000000 -31.746872 -42.705593 -0.78945118 -32.52116 -0.78379512 -32.458618 -45.017776 -80.76799
19500000000 -32.520679 -38.325027 -0.78458953 -34.536896 -0.7831158 -34.472317 -38.159019 -62.172035
19600000000 -30.998728 -47.936466 -0.78559786 -36.568016 -0.77970272 -36.499035 -39.256374 -32.280693
19700000000 -30.637768 -47.774967 -0.7814737 -38.549522 -0.77681851 -38.508778 -38.87138 -16.091679
19800000000 -28.613659 -46.738155 -0.77997965 -40.559132 -0.77939171 -40.544659 -44.489166 31.578779
19900000000 -28.648087 -41.896961 -0.78098595 -42.588776 -0.77742159 -42.535107 -46.034462 17.820749
20000000000 -28.931673 -36.467999 -0.77868032 -44.620914 -0.78010356 -44.545853 -59.125324 17.60029
20100000000 -30.033262 -36.781338 -0.77688414 -46.636181 -0.77173913 -46.573872 -43.582287 -20.37742
20200000000 -30.117928 -45.923584 -0.77823406 -48.651623 -0.76950198 -48.610329 -42.495289 -7.0297289
20300000000 -29.126629 -56.921364 -0.77940971 -50.668224 -0.77478206 -50.629555 -39.746143 17.369389
20400000000 -27.344107 -54.346935 -0.77351767 -52.719406 -0.770513 -52.652733 -42.978886 57.679733
20500000000 -26.696985 -51.361233 -0.77402407 -54.75351 -0.77196109 -54.684391 -42.54834 70.430229
20600000000 -26.770008 -45.819386 -0.77757883 -56.826805 -0.76923436 -56.772129 -65.268135 79.453735
20700000000 -28.001038 -48.562927 -0.76975298 -58.865803 -0.76715982 -58.815414 -45.151588 -12.743762
20800000000 -28.311024 -50.474628 -0.77177376 -60.897682 -0.77217942 -60.850826 -39.290482 -30.866329
20900000000 -27.661995 -61.085163 -0.77329218 -62.938717 -0.76458704 -62.898113 -35.706207 3.4254754
21000000000 -26.225393 -61.548447 -0.77517688 -64.971588 -0.7733658 -64.909302 -36.410805 25.439457
21100000000 -24.999422 -61.92012 -0.78062713 -67.004616 -0.7754879 -66.973732 -36.165268 37.766277
21200000000 -25.020742 -58.544769 -0.79027241 -69.081108 -0.78534633 -69.02813 -38.682205 60.55077
21300000000 -25.199032 -63.078049 -0.7973932 -71.123772 -0.79341352 -71.052727 -48.118618 43.784779
21400000000 -26.231688 -64.610641 -0.80963022 -73.140999 -0.80710948 -73.088417 -43.476807 -27.479959
21500000000 -25.118513 -75.356293 -0.80741781 -75.136528 -0.80320221 -75.089149 -38.123943 -54.134541
21600000000 -25.385569 -77.024094 -0.80786365 -77.081535 -0.80788046 -77.020912 -35.610683 -23.44622
21700000000 -23.807108 -76.654503 -0.80311716 -79.049873 -0.7935158 -78.97403 -34.106804 -2.4740887
21800000000 -24.101051 -75.604195 -0.80097932 -80.995331 -0.79557967 -80.885925 -34.678207 26.779869
21900000000 -23.934629 -72.822525 -0.79700381 -82.979507 -0.78898674 -82.893585 -34.909706 39.786327
22000000000 -25.249018 -76.374878 -0.79895705 -85.010384 -0.78998083 -84.947922 -38.963165 78.110191
22100000000 -25.298622 -76.592468 -0.79181349 -87.041496 -0.78624028 -87.00412 -47.237232 27.572388
22200000000 -25.339005 -88.223824 -0.79671806 -89.163406 -0.79213345 -89.080482 -47.563351 -2.1074266
22300000000 -24.78521 -85.560204 -0.79306585 -91.202744 -0.78444785 -91.189987 -34.933849 -11.057098
22400000000 -23.831238 -85.665794 -0.79244536 -93.252586 -0.78892028 -93.161377 -33.686367 7.1974034
22500000000 -23.715086 -79.165222 -0.78529572 -95.272278 -0.77686894 -95.204292 -31.024059 21.7826
22600000000 -24.127474 -80.277985 -0.79306799 -97.256264 -0.79085904 -97.197067 -33.895817 37.314903
22700000000 -25.834898 -82.839783 -0.7943002 -99.282951 -0.79030287 -99.215271 -34.679935 36.196987
22800000000 -25.610056 -93.963112 -0.80610555 -101.25047 -0.79376936 -101.18288 -42.260433 21.588795
22900000000 -25.174032 -100.89507 -0.79398507 -103.31782 -0.79542923 -103.259 -35.664101 2.1591618
23000000000 -23.285141 -96.359726 -0.80158734 -105.40691 -0.79438627 -105.33869 -34.501789 -4.7943592
23100000000 -23.275795 -94.0224 -0.80144757 -107.46343 -0.79306865 -107.35972 -30.459324 13.343056
23200000000 -23.826769 -86.754478 -0.80705184 -109.481 -0.79591268 -109.41816 -32.615047 23.189913
23300000000 -25.845789 -90.537956 -0.79772389 -111.51224 -0.79653645 -111.45735 -33.466908 43.700699
23400000000 -26.593864 -101.32742 -0.80110139 -113.54817 -0.7955063 -113.49513 -42.606293 21.117676
23500000000 -25.623608 -117.13254 -0.81476355 -115.56821 -0.80266714 -115.49612 -42.543358 -7.4394727
23600000000 -24.378361 -114.27656 -0.81253225 -117.61273 -0.80928749 -117.55186 -33.436932 -35.972172
23700000000 -23.371977 -110.36223 -0.80939198 -119.58031 -0.80736762 -119.51599 -30.88291 -3.5395398
23800000000 -23.47662 -105.59755 -0.81987196 -121.59211 -0.81523603 -121.58363 -30.401407 12.134245
23900000000 -25.036062 -108.23191 -0.82255465 -123.65285 -0.81614059 -123.59464 -30.871901 35.873657
24000000000 -26.64109 -113.95944 -0.82390696 -125.73917 -0.81635273 -125.65845 -36.353813 71.650375
24100000000 -26.498465 -130.12209 -0.82342321 -127.78224 -0.81435227 -127.73075 -46.85603 117.02509
24200000000 -25.64613 -133.33388 -0.81389147 -129.75038 -0.80667466 -129.69217 -42.477814 -65.52858
24300000000 -24.1854 -131.25388 -0.81900632 -131.79153 -0.80886334 -131.69479 -34.052834 -45.880516
24400000000 -24.30146 -122.80714 -0.81591821 -133.7372 -0.80816793 -133.6904 -30.881294 -14.099661
24500000000 -24.646355 -124.03583 -0.82816374 -135.74704 -0.82456857 -135.65337 -30.890692 9.9658508
24600000000 -27.11216 -128.39442 -0.83153176 -137.77977 -0.83209699 -137.6821 -31.354664 37.293972
24700000000 -26.965363 -140.5405 -0.8357088 -139.81146 -0.83004701 -139.71768 -33.926128 63.062824
24800000000 -27.009197 -156.42174 -0.83845401 -141.87859 -0.83647102 -141.82632 -38.323776 92.603081
24900000000 -25.637926 -148.60349 -0.83292228 -143.94652 -0.82514071 -143.82732 -50.112663 48.238411
25000000000 -25.773293 -149.90909 -0.83010942 -145.91129 -0.82093257 -145.85254 -39.755089 -40.896835
25100000000 -25.982552 -137.20827 -0.83069485 -147.89188 -0.82309967 -147.7874 -33.232914 -1.4267919
25200000000 -27.766279 -150.26755 -0.83463073 -149.85025 -0.8293398 -149.79704 -33.145523 11.517362
25300000000 -29.941044 -150.24228 -0.83771402 -151.8065 -0.83271313 -151.7493 -31.575798 42.974274
25400000000 -28.436335 -176.51636 -0.84065312 -153.8757 -0.84019953 -153.84181 -35.205662 58.045727
25500000000 -29.144602 -177.40828 -0.84874737 -155.88408 -0.8440032 -155.86986 -32.88879 58.808033
25600000000 -26.888546 -170.12064 -0.84616232 -157.98595 -0.83735991 -157.93404 -38.545971 59.763611
25700000000 -28.578829 -172.68251 -0.84710479 -159.96873 -0.83752316 -159.90689 -34.870121 32.77951
25800000000 -29.062103 -172.99615 -0.84496909 -162.04279 -0.84341532 -161.92882 -35.488926 44.102463
25900000000 -31.8305 169.14764 -0.8380214 -164.0005 -0.83208042 -163.94571 -32.234669 36.450287
26000000000 -31.560631 170.18919 -0.84442133 -166.04425 -0.83532375 -165.93759 -31.566242 48.507935
26100000000 -30.582439 150.0878 -0.84103417 -168.07755 -0.84905642 -167.96107 -31.03405 47.58535
26200000000 -31.030243 147.19725 -0.85221076 -170.10526 -0.84953111 -170.04498 -30.069811 50.422932
26300000000 -29.866955 143.70547 -0.8615607 -172.07959 -0.85121804 -172.02121 -31.761753 62.297302
26400000000 -30.3881 141.86115 -0.86385047 -174.17601 -0.84541029 -174.09676 -30.287109 45.349022
26500000000 -29.712151 138.13176 -0.84930855 -176.14432 -0.85842854 -176.05988 -30.734486 55.002266
26600000000 -31.063856 121.29801 -0.86198813 -178.09258 -0.84803897 -178.09781 -29.429453 43.622051
26700000000 -31.126638 109.25735 -0.85508531 179.76117 -0.84956133 179.88852 -28.696892 44.939213
26800000000 -30.164684 103.12275 -0.84500402 177.87912 -0.840617 177.86504 -27.184177 46.748123
26900000000 -28.987152 104.46549 -0.8571465 175.73557 -0.85322326 175.80569 -27.865183 54.290573
27000000000 -28.950251 100.26145 -0.87621719 173.68623 -0.85093182 173.78365 -25.876091 61.658154
27100000000 -29.428144 97.520477 -0.8578375 171.7243 -0.85636771 171.67256 -28.442871 56.776192
27200000000 -27.84664 88.047676 -0.87580419 169.63457 -0.8735531 169.72955 -27.754436 51.662861
27300000000 -27.516197 83.140053 -0.88333613 167.66304 -0.87819374 167.76688 -26.86669 39.847015
27400000000 -27.020861 72.627815 -0.88165218 165.60251 -0.87453347 165.72012 -25.130493 45.662193
27500000000 -26.680099 76.588806 -0.88222241 163.53088 -0.87776089 163.68867 -24.523598 42.809624
27600000000 -26.198439 67.711487 -0.88953477 161.46881 -0.88818985 161.70778 -24.507689 57.147285
27700000000 -26.639805 62.910652 -0.87629098 159.64474 -0.88539457 159.61722 -25.431837 51.598686
27800000000 -24.894644 53.24189 -0.87718332 157.49698 -0.88600278 157.54099 -25.893459 53.14933
27900000000 -25.681789 54.532383 -0.89095134 155.48192 -0.87852389 155.58888 -25.585014 30.608343
28000000000 -24.273537 53.25407 -0.89842135 153.40204 -0.89183652 153.56625 -24.765644 36.961338
28100000000 -25.447563 48.79829 -0.88946491 151.54381 -0.91155696 151.59056 -23.464502 32.694878
28200000000 -24.539003 45.70475 -0.91483855 149.43837 -0.89827842 149.6183 -23.20344 40.856182
28300000000 -24.115316 30.533463 -0.88375711 147.5358 -0.90421891 147.50264 -23.757034 40.69883
28400000000 -24.126986 31.366459 -0.91942501 145.49815 -0.90353072 145.46896 -24.958618 39.477322
28500000000 -23.312622 27.979494 -0.92035693 143.44357 -0.91269642 143.46138 -23.57066 24.492182
28600000000 -23.263601 26.071093 -0.91818786 141.48633 -0.93501103 141.61905 -23.168304 22.177307
28700000000 -22.697624 21.938604 -0.92510653 139.6283 -0.90343416 139.58469 -21.464045 24.383587
28800000000 -23.155962 27.636618 -0.96023506 137.57314 -0.93676007 137.6727 -21.791985 35.298328
28900000000 -21.98773 20.162107 -0.91555566 135.48819 -0.93311083 135.5396 -22.727457 32.270241
29000000000 -23.625006 13.869411 -0.91530287 133.4059 -0.91569024 133.41457 -23.792612 27.975349
29100000000 -22.650768 15.699344 -0.91889656 131.35866 -0.93388206 131.35887 -23.830555 7.9620261
29200000000 -21.854692 9.7556667 -0.90917903 129.32875 -0.89603728 129.39876 -21.769966 13.032221
29300000000 -20.516102 13.333988 -0.89078033 127.19915 -0.88904494 127.37469 -19.736855 12.850491
29400000000 -20.495371 7.5213275 -0.9041698 125.47264 -0.89031446 125.57691 -19.5467 26.63019
29500000000 -20.912567 13.647281 -0.91171885 123.33636 -0.92381716 123.46815 -20.051947 23.068775
29600000000 -21.617563 8.0957632 -0.93713909 121.40228 -0.93989009 121.36983 -21.937429 30.140249
29700000000 -21.89945 5.763083 -0.93628669 119.25801 -0.9304722 119.29678 -21.844698 11.206445
29800000000 -20.586525 -2.7063046 -0.93077946 117.27222 -0.949687 117.43531 -22.458117 11.715895
29900000000 -20.576305 -2.4043133 -0.91161126 115.26887 -0.95218003 115.17271 -19.744034 -0.5351252
30000000000 -19.285406 1.1553358 -0.9284057 113.20934 -0.93399566 113.36276 -19.544201 10.584393
30100000000 -19.262934 0.63724196 -0.93445599 111.10714 -0.9534179 111.27998 -18.440523 9.5490265
30200000000 -19.418673 -1.6236353 -0.93432498 109.23406 -0.93033206 109.35442 -20.104082 18.26495
30300000000 -20.922194 -9.4555664 -0.92901033 106.97335 -0.93284416 107.16222 -19.850477 9.6552219
30400000000 -20.590393 -12.224298 -0.96437615 105.07796 -0.94473737 105.23251 -22.265566 5.0312676
30500000000 -20.08543 -18.107853 -0.9343943 103.02897 -0.92706251 103.1652 -19.571138 -2.4766092
30600000000 -19.4209 -16.95587 -0.94750446 101.11335 -0.91994745 101.22793 -20.476944 -6.2237048
30700000000 -19.201248 -19.359455 -0.96209031 99.135101 -0.93221849 99.212898 -18.759323 -2.4720979
30800000000 -18.98068 -15.172944 -0.94600981 97.230843 -0.96117485 97.203728 -20.068556 1.1672878
30900000000 -19.351658 -19.203701 -0.95887327 95.114151 -0.96452457 95.176834 -19.103184 0.50340027
31000000000 -19.377899 -18.53112 -0.94928271 93.220329 -0.95687711 93.225639 -20.442976 -5.4642515
31100000000 -20.838629 -33.228966 -0.95573211 90.924965 -0.9449423 90.967224 -20.48085 -8.9866571
31200000000 -19.492964 -35.887341 -0.9506973 88.861626 -0.92816758 89.189232 -19.444891 -16.840906
31300000000 -18.717703 -39.645359 -0.97909188 87.009254 -0.94372135 87.176094 -19.656378 -12.084552
31400000000 -17.9907 -31.637072 -0.97508025 85.033516 -0.94613433 85.176239 -18.992533 -12.84513
31500000000 -18.277699 -30.682617 -0.94346112 83.049011 -0.95340693 83.215797 -18.894611 -5.8691621
31600000000 -20.001453 -23.974045 -0.96103019 81.061066 -0.96617627 81.29496 -20.073574 -10.523915
31700000000 -20.558374 -34.373096 -0.98082507 79.061775 -0.96619177 79.107948 -20.146132 -12.412658
31800000000 -19.791969 -44.795254 -1.0086731 76.899086 -0.97821921 77.082924 -20.661018 -21.852732
31900000000 -17.537968 -49.394978 -0.95158827 75.044075 -0.97341871 75.113853 -19.207857 -26.051481
32000000000 -18.071226 -46.228325 -0.94793719 73.003487 -0.93623918 72.973938 -19.280893 -25.133101
32100000000 -18.036922 -36.323429 -0.943299 70.962349 -0.92669779 71.086365 -18.177999 -24.074076
32200000000 -20.492769 -36.634094 -0.9545055 69.111382 -0.94921154 69.14592 -19.295546 -21.690897
32300000000 -21.016039 -40.857121 -0.98752069 67.078972 -0.97544062 67.00869 -19.379038 -19.118719
32400000000 -20.128216 -57.96843 -0.9632321 65.063393 -0.94600719 65.181831 -21.490219 -20.567804
32500000000 -19.480701 -54.92226 -0.93636954 62.959263 -0.94982165 63.123379 -21.139587 -32.850132
32600000000 -18.943247 -59.582542 -0.93205458 60.9207 -0.95196539 60.865932 -20.921621 -43.93219
32700000000 -19.980673 -40.921741 -0.92675549 58.750065 -0.94992858 58.934692 -19.375578 -44.790268
32800000000 -19.628479 -50.529907 -0.94219518 56.884796 -0.9461112 57.057896 -18.506071 -41.373379
32900000000 -22.282751 -53.772194 -0.92150289 54.860008 -0.94101 55.031929 -19.536501 -30.561707
33000000000 -21.251043 -66.849342 -0.96900982 52.75898 -0.92162579 52.840221 -20.598375 -29.236397
33100000000 -21.031225 -68.964294 -0.95708007 50.847645 -0.93480265 50.99118 -23.548571 -28.531502
33200000000 -20.232075 -67.437996 -0.91831481 48.669666 -0.91656798 48.874634 -21.473673 -52.255066
33300000000 -21.16609 -67.485939 -0.94773817 46.684696 -0.91783446 46.822742 -22.860687 -54.325909
33400000000 -22.183641 -65.946579 -0.92704839 44.723602 -0.91306853 44.723267 -20.215824 -55.422577
33500000000 -22.1556 -72.843872 -0.92396861 42.761368 -0.92504537 42.892895 -21.22673 -46.798447
33600000000 -22.727751 -69.963135 -0.92779255 40.53479 -0.90811992 40.605644 -21.262154 -45.396019
33700000000 -21.760422 -74.810493 -0.93018103 38.630783 -0.92690706 38.799957 -23.158136 -40.78574
33800000000 -22.899162 -80.638092 -0.9363789 36.568142 -0.94717121 36.596775 -24.224812 -47.822105
33900000000 -23.631527 -90.848839 -0.962825 34.283291 -0.95335406 34.42709 -22.889713 -55.729435
34000000000 -23.86191 -77.474663 -0.94061846 32.66655 -0.91116965 32.6311 -23.194202 -44.552032
34100000000 -23.770393 -83.118706 -0.92461073 30.364162 -0.96990097 30.531229 -23.454123 -55.493076
34200000000 -24.119598 -69.18663 -0.9713459 28.461601 -0.94496357 28.515415 -23.124794 -34.299213
34300000000 -25.422327 -82.580299 -0.9755469 26.383776 -0.9412238 26.488174 -25.623655 -53.685638
34400000000 -26.129269 -74.658943 -0.95062256 24.395248 -0.95425367 24.347122 -26.063606 -42.30632
34500000000 -25.60989 -91.947533 -0.97887492 22.155899 -0.9698531 22.301842 -24.978605 -61.519543
34600000000 -27.079544 -84.650887 -0.95750117 20.032137 -0.96897644 20.131207 -24.861982 -48.34502
34700000000 -26.546349 -78.320045 -0.97020584 17.918934 -0.98362726 18.211336 -23.859604 -46.069241
34800000000 -31.632822 -83.682938 -0.97725987 16.16819 -0.97111219 16.210957 -26.055752 -20.478142
34900000000 -30.579544 -79.608093 -0.96833003 14.162972 -0.98449093 14.247057 -27.872114 -11.292275
35000000000 -34.335148 -80.643906 -0.98988891 12.224695 -0.96169424 12.164531 -32.864578 15.941025
35100000000 -29.080912 -50.806355 -0.9827745 9.9788914 -0.96217722 10.36045 -34.332199 -52.703957
35200000000 -32.490101 -52.122925 -0.96812069 8.2845612 -0.95785201 8.2949734 -32.978947 -69.737869
35300000000 -31.929695 -54.022041 -0.98611259 6.2498484 -1.0032201 6.0266037 -26.891373 -48.26445
35400000000 -54.251934 11.590293 -0.99463904 3.962579 -0.96486622 4.0947733 -27.698748 -33.436386
35500000000 -33.505016 25.713833 -0.96726191 2.0666034 -0.98350489 2.0579782 -29.605476 -4.334866
35600000000 -42.390457 173.53731 -0.94941121 0.078377634 -0.94947988 0.087229811 -28.853624 28.098108
35700000000 -44.637703 48.217655 -0.94474733 -1.9786687 -0.99591804 -2.0179441 -32.567001 24.435846
35800000000 -37.608299 16.090254 -0.96381158 -4.1362891 -0.94647813 -4.1958079 -35.62883 25.19453
35900000000 -30.001078 47.463097 -0.96560979 -6.613277 -0.97065222 -6.1682062 -48.553219 74.587387
36000000000 -28.830215 21.33198 -1.0081089 -8.214922 -0.95108074 -8.0876665 -28.50177 18.461815
36100000000 -24.578163 50.940086 -0.96111643 -10.400913 -0.98443055 -10.432911 -28.303659 38.00515
36200000000 -26.867678 53.742981 -0.98049319 -12.32317 -0.95981109 -11.980712 -26.899332 29.338539
36300000000 -25.291222 72.731255 -1.012655 -14.799891 -0.99107188 -14.638478 -27.238079 54.140636
36400000000 -27.174564 68.510933 -0.96490115 -16.608604 -0.98646212 -16.668407 -28.234222 32.43779
36500000000 -29.865503 26.115549 -0.9211694 -18.721252 -0.98474199 -18.602482 -28.621435 32.305214
36600000000 -25.501226 4.9835067 -0.99133015 -20.448147 -0.91825336 -20.348595 -22.501051 13.935877
36700000000 -21.856659 26.431709 -0.985829 -22.447088 -1.0086173 -22.553656 -23.688696 22.176575
36800000000 -20.032209 37.388897 -0.99994993 -24.113144 -1.0011292 -24.30369 -19.690643 32.902744
36900000000 -20.742147 58.166672 -1.0552968 -26.95162 -1.0150573 -26.602394 -21.644907 44.521214
37000000000 -21.725075 47.418205 -1.0402082 -28.852293 -1.0504436 -28.926151 -21.970745 49.343086
37100000000 -27.839954 33.969151 -1.0200721 -31.3818 -1.0219074 -31.260704 -25.339565 34.167297
37200000000 -22.30908 16.037924 -1.0262085 -32.96764 -1.0144109 -33.185284 -23.363441 18.786314
37300000000 -19.595671 19.038557 -1.0297632 -35.32515 -0.98850441 -35.216423 -20.053812 5.9116015
37400000000 -17.349716 24.471436 -0.9903487 -37.049637 -0.98777711 -36.847168 -17.868786 18.462421
37500000000 -18.618479 34.865864 -1.0480771 -39.191963 -1.0620968 -39.076756 -17.631449 23.293871
37600000000 -19.389639 41.631786 -1.0810366 -41.102966 -1.0429918 -40.732361 -17.296469 35.632908
37700000000 -21.43405 28.988171 -1.1145622 -43.089252 -1.0830606 -43.104301 -18.042885 38.154545
37800000000 -18.911255 14.155317 -1.0652252 -45.24073 -1.0908802 -45.181034 -20.106796 28.668518
37900000000 -17.421558 7.2493792 -1.1068355 -47.265636 -1.0674284 -47.107243 -20.712017 23.811193
38000000000 -16.816404 20.620684 -1.0711535 -49.426128 -1.0523134 -49.271431 -17.659378 4.604816
38100000000 -16.971819 23.261885 -1.0666652 -51.237476 -1.0817199 -51.062141 -16.485252 14.187836
38200000000 -17.304888 23.249184 -1.1386532 -53.266117 -1.1028433 -53.283672 -15.226599 11.289987
38300000000 -16.486263 13.829686 -1.0944853 -55.211441 -1.0668664 -55.383423 -15.107933 26.939396
38400000000 -17.203661 4.6396332 -1.1175842 -57.170551 -1.1196721 -57.062702 -16.35799 26.31963
38500000000 -15.907774 6.1852913 -1.1560495 -59.0863 -1.1520513 -58.798485 -17.344652 24.009151
38600000000 -15.196836 14.439586 -1.129963 -61.136715 -1.1015551 -61.111404 -16.495714 5.8378439
38700000000 -14.377107 8.2567682 -1.1527743 -63.168739 -1.1828135 -62.877949 -16.44021 1.4585913
38800000000 -15.334408 6.0668883 -1.1504414 -64.869293 -1.1472409 -64.90786 -13.798169 5.1647778
38900000000 -14.682202 8.675211 -1.1504488 -67.053734 -1.1582357 -66.940384 -14.771147 9.9990005
39000000000 -15.164389 2.1648662 -1.1686758 -69.053154 -1.1676226 -68.906685 -14.033355 13.657932
39100000000 -15.036193 0.83918333 -1.14202 -71.042908 -1.1770388 -71.018242 -17.160383 8.0687904
39200000000 -15.414634 -8.8242302 -1.1742769 -73.108566 -1.1814823 -72.834839 -14.833957 0.13086396
39300000000 -13.907862 -5.0160341 -1.1657554 -75.561005 -1.1335249 -75.265541 -14.670021 -12.326747
39400000000 -13.932296 0.82057518 -1.1743672 -77.086868 -1.2315372 -76.638809 -12.829135 -2.3297644
39500000000 -13.917608 8.7134762 -1.1793374 -79.028954 -1.1541054 -79.114914 -13.78677 -4.6463861
39600000000 -14.839473 -2.2438545 -1.1841202 -81.128845 -1.2185369 -80.930099 -13.063042 5.9889016
39700000000 -16.189034 -12.513364 -1.1659429 -83.327492 -1.172338 -83.350815 -16.095823 -1.4547954
39800000000 -14.699884 -20.474607 -1.2280951 -85.149879 -1.1835325 -85.340736 -15.082156 -9.8066702
39900000000 -13.055885 -12.336816 -1.181553 -87.349976 -1.1966072 -87.040672 -15.523436 -26.603054
40000000000 -12.964051 -10.807505 -1.1761458 -89.38147 -1.1422099 -89.00145 -12.534211 -21.595324
40100000000 -13.874261 1.4377028 -1.2468834 -91.309677 -1.254427 -91.322632 -12.151642 -17.712162
40200000000 -14.858367 -3.1843565 -1.2263963 -92.821777 -1.1818017 -93.205872 -12.429049 -10.989628
40300000000 -17.01668 -17.006865 -1.2197807 -95.457581 -1.1862131 -95.210884 -13.491275 -11.184969
40400000000 -14.323359 -28.738636 -1.1987866 -97.195541 -1.1532465 -97.286659 -15.418417 -13.435532
40500000000 -12.977157 -20.963936 -1.2382892 -99.380501 -1.2295901 -99.016304 -14.988737 -25.639774
40600000000 -12.222947 -17.230335 -1.1861542 -101.20778 -1.2087606 -100.76746 -13.892506 -31.085632
40700000000 -14.367828 -13.526234 -1.2055169 -103.06234 -1.2403525 -102.80708 -12.729125 -32.94836
40800000000 -13.836388 -15.023425 -1.2740774 -104.89565 -1.1920347 -104.48445 -11.826225 -25.223949
40900000000 -14.648183 -29.514519 -1.2475626 -106.92757 -1.2069983 -106.99699 -12.858033 -18.739428
41000000000 -13.069526 -38.221306 -1.1670784 -109.18171 -1.266045 -108.88882 -12.774576 -20.69676
41100000000 -13.614188 -34.051811 -1.2572821 -111.2765 -1.2475564 -110.92606 -14.670021 -30.923063
41200000000 -12.778575 -18.815001 -1.2629292 -112.4875 -1.2347943 -112.60599 -13.503781 -31.966656
41300000000 -13.572976 -28.710789 -1.1764508 -114.71203 -1.183303 -114.74496 -13.81871 -37.017017
41400000000 -13.895523 -25.091196 -1.2302052 -116.84891 -1.2118279 -116.64893 -12.113702 -35.131863
41500000000 -13.569146 -34.779461 -1.2544764 -118.85252 -1.206008 -118.83012 -12.501077 -40.604992
41600000000 -12.875648 -33.311993 -1.1620862 -121.02803 -1.1880347 -120.55493 -12.674881 -33.116913
41700000000 -12.82164 -40.069298 -1.2419475 -122.58598 -1.1539782 -122.53145 -13.399022 -44.435421
41800000000 -13.950321 -38.295609 -1.2935667 -124.42036 -1.1946757 -124.60018 -13.006361 -38.923134
41900000000 -13.565981 -40.217632 -1.2216847 -126.72086 -1.2487106 -126.40401 -13.385535 -50.569759
42000000000 -13.092616 -42.609421 -1.1666319 -128.39812 -1.2379539 -128.3894 -12.961238 -44.875492
42100000000 -12.337943 -39.767834 -1.2088554 -130.5092 -1.2370765 -130.65047 -13.082497 -53.720058
42200000000 -13.616921 -41.670925 -1.0923008 -132.53323 -1.1987062 -132.33629 -12.907165 -46.039288
42300000000 -14.132879 -37.170475 -1.1589127 -134.56648 -1.2175257 -134.45984 -12.896058 -55.116299
42400000000 -15.758804 -47.659252 -1.1782089 -136.31775 -1.1508884 -136.17154 -14.706079 -50.991596
42500000000 -13.661443 -51.423431 -1.1990477 -138.50807 -1.1116066 -138.5489 -14.844357 -61.974728
42600000000 -12.367048 -58.844479 -1.0798998 -140.50711 -1.1874974 -140.63261 -15.064592 -57.550301
42700000000 -13.198198 -44.797859 -1.1324385 -142.76366 -1.1275998 -142.55139 -13.220327 -69.256676
42800000000 -13.613379 -34.576572 -1.2684956 -144.19646 -1.1525704 -144.70245 -14.289025 -68.925072
42900000000 -16.071308 -28.598734 -1.2240754 -147.19383 -1.173296 -146.91167 -13.672825 -62.180061
43000000000 -17.233681 -50.880878 -1.2233999 -149.19957 -1.17133 -148.97301 -13.902959 -59.476639
43100000000 -17.058493 -70.894844 -1.1106434 -151.38373 -1.1223514 -151.39642 -15.9093 -54.386753
43200000000 -13.961273 -65.473503 -1.1267954 -152.5338 -1.0955338 -152.70294 -17.325294 -69.994362
43300000000 -14.30193 -51.492752 -1.0773022 -155.0112 -1.0340625 -154.26755 -16.562983 -78.486305
43400000000 -14.323318 -36.806461 -1.0418456 -156.53346 -1.0221348 -156.60611 -15.439673 -81.076256
43500000000 -15.136184 -28.178087 -1.0553923 -159.10477 -1.0573556 -159.18839 -14.807507 -86.96064
43600000000 -20.266726 -40.24564 -1.1009244 -161.24007 -0.99254507 -160.73109 -14.53913 -73.56826
43700000000 -19.918865 -60.870934 -1.068673 -163.52144 -1.0999439 -162.83229 -16.106268 -68.212471
43800000000 -16.853075 -74.353416 -1.1193954 -165.56897 -1.0490645 -164.71472 -17.864115 -65.56813
43900000000 -16.532627 -66.669243 -0.98949003 -167.65709 -1.1296263 -167.45763 -20.27158 -88.973518
44000000000 -15.892482 -42.082726 -1.0170872 -169.32008 -1.048821 -168.86864 -19.051762 -92.322952
44100000000 -17.781998 -40.802216 -1.0759834 -171.88211 -1.111176 -171.30278 -17.102594 -92.986465
44200000000 -18.416616 -26.361977 -1.0266922 -173.5752 -1.120905 -172.86929 -17.573822 -90.007919
44300000000 -20.604597 -61.711769 -0.99634457 -176.05942 -1.0129263 -175.13719 -19.08362 -82.52124
44400000000 -21.32642 -65.175636 -1.0877925 -177.13419 -1.0589032 -177.8147 -20.970314 -71.199631
44500000000 -18.174614 -75.594048 -1.0658833 -179.73177 -1.0492464 -179.67831 -21.624252 -97.383965
44600000000 -18.695763 -47.90712 -1.1159389 178.29881 -0.99655849 178.18463 -24.784801 -110.83983
44700000000 -16.342934 -38.771145 -1.0129267 175.59885 -1.0621123 176.34837 -20.596294 -109.33176
44800000000 -22.558516 -26.529795 -0.9980368 174.21089 -1.0120753 174.19672 -21.573597 -78.099167
44900000000 -23.138611 -36.53923 -1.0623431 172.24893 -1.03939 171.76169 -21.269196 -91.618019
45000000000 -25.268768 -23.224932 -1.1011214 169.74832 -1.0602928 169.84689 -31.331097 -33.493248
