!Keysight Technologies,N5247B,MY61255062,A.19.80.06
!Date: Monday, May 18, 2026 11:36:24
!Correction: S11(C  2-Port  ) 
!S21(C  2-Port  ) 
!S12(C  2-Port  ) 
!S22(C  2-Port  ) 
!S2P File: Measurements: S11, S21, S12, S22:
# Hz S  dB   R 50
1000000000 0.0025272882 0.37737271 -73.626114 85.477448 -73.551605 95.443176 0.0066217571 0.39871666
1100000000 0.0022395942 0.412386 -72.86721 83.977333 -73.904808 83.24572 0.0072099841 0.43420413
1200000000 0.0038221928 0.45397493 -72.418526 95.872742 -72.928459 82.859016 0.0061125509 0.46232414
1300000000 0.0027223504 0.49185601 -71.624687 91.294662 -71.188904 90.612457 0.0078704823 0.50550842
1400000000 0.00273632 0.5253191 -71.965149 89.636391 -71.035431 90.282684 0.0075965789 0.53749532
1500000000 0.0022292451 0.56184077 -70.886154 82.726326 -69.568817 85.768311 0.0082616685 0.5789203
1600000000 0.0024941734 0.59493047 -69.234756 85.995285 -69.287277 84.553505 0.0068176696 0.61269557
1700000000 0.0033912905 0.63475412 -69.336937 87.273819 -69.357529 82.32637 0.0074322289 0.65462607
1800000000 0.003354561 0.67261469 -68.765076 82.455894 -68.98307 84.426605 0.0077495533 0.69327533
1900000000 0.0035625186 0.71055198 -67.793022 81.230553 -68.105995 81.056946 0.0084569901 0.72191066
2000000000 0.0034895793 0.74667746 -68.190971 83.949615 -68.799507 79.876694 0.0090702837 0.76332349
2100000000 0.0041884002 0.78316838 -67.568413 75.482399 -68.181587 81.736305 0.0097594261 0.80143166
2200000000 0.0044945837 0.82556409 -68.904404 82.888268 -67.402916 76.162621 0.0089390557 0.83546257
2300000000 0.0042696032 0.86145586 -68.793274 82.434738 -67.686707 88.713577 0.0089245895 0.87735814
2400000000 0.0045933649 0.89557433 -67.844139 84.321976 -67.738777 84.416733 0.0091260802 0.91446459
2500000000 0.0051580803 0.92505157 -66.882828 91.607773 -66.60775 89.375908 0.0082146451 0.94962585
2600000000 0.005753227 0.94863856 -66.465782 85.381905 -66.575401 80.539719 0.009576044 0.98116738
2700000000 0.0052651195 0.98252678 -65.45076 87.055725 -65.746956 89.538109 0.010099308 1.0244652
2800000000 0.0053856 1.0414306 -65.590294 89.376282 -64.934311 88.056854 0.0094902916 1.0545323
2900000000 0.0043290821 1.0795476 -64.774216 86.022835 -65.326294 81.460297 0.0097878361 1.0977335
3000000000 0.0036070056 1.1147536 -64.589844 83.244614 -65.198524 84.93013 0.0085257124 1.1297476
3100000000 0.0032728238 1.1527859 -65.551155 84.761772 -64.697868 83.240631 0.0085071111 1.1727
3200000000 0.0049258936 1.1874409 -65.217133 80.536903 -65.187622 84.526703 0.0096731605 1.1991197
3300000000 0.0060758442 1.2310922 -64.950966 84.888481 -64.212044 82.771332 0.010676735 1.2206092
3400000000 0.0064728786 1.266718 -63.975018 78.412079 -63.690048 85.575371 0.010486677 1.249495
3500000000 0.0046792147 1.3040787 -63.172997 83.752274 -63.615799 82.309105 0.0087856064 1.2884436
3600000000 0.0043559764 1.3336111 -63.708447 85.680397 -63.460026 83.069672 0.0089163231 1.3482178
3700000000 0.0033664594 1.3691038 -63.149986 82.15258 -63.669895 83.355797 0.0082198121 1.3864074
3800000000 0.0052873543 1.3907531 -63.139858 84.626205 -63.438789 81.185234 0.010433997 1.4311105
3900000000 0.0071862089 1.4136747 -63.380886 80.178635 -62.60387 80.727615 0.0094923573 1.4653664
4000000000 0.0093322117 1.4314495 -62.783291 84.960358 -63.132034 85.9291 0.0097857704 1.5107158
4100000000 0.0048462548 1.4699677 -62.417534 84.539963 -62.891842 84.908646 0.010078646 1.5318789
4200000000 0.0045690578 1.5347865 -63.011932 86.32399 -62.418453 83.758812 0.0097919693 1.5852544
4300000000 0.0050065657 1.5857722 -62.537731 83.430061 -62.228481 82.777481 0.0092733186 1.6093605
4400000000 0.0049057254 1.6333002 -62.250217 83.499947 -62.511055 83.205391 0.010413338 1.6473439
4500000000 0.00433684 1.662455 -61.819817 82.343208 -62.007275 81.387863 0.0097304983 1.6800287
4600000000 0.0050401785 1.7035943 -62.069359 81.971207 -61.860191 82.834755 0.010184015 1.7264515
4700000000 0.0060634362 1.737618 -61.544155 80.874702 -61.197842 79.772278 0.012451921 1.7560705
4800000000 0.0067902734 1.7822983 -61.290272 84.686844 -61.341755 81.605217 0.013500788 1.8078415
4900000000 0.0059615867 1.8090281 -60.960796 82.38105 -61.773594 82.738327 0.013647878 1.8336768
5000000000 0.0050582779 1.8503243 -60.846302 83.32119 -60.921528 84.55722 0.010461887 1.8820589
5100000000 0.0059062662 1.8791486 -60.985569 83.532539 -61.196445 80.047516 0.011780244 1.9034277
5200000000 0.0062810867 1.909844 -61.462063 82.984901 -60.451351 85.373718 0.011182824 1.9486427
5300000000 0.0082771704 1.9530504 -60.721355 81.259926 -60.795193 83.657112 0.012627954 1.9811912
5400000000 0.008068922 1.9932567 -61.272617 83.808762 -61.459412 82.091705 0.012758555 2.0105715
5500000000 0.0088093737 2.0383823 -60.502804 84.798485 -60.78249 83.769028 0.014109242 2.0507667
5600000000 0.0066072829 2.0747864 -60.277245 81.04818 -60.778275 83.376144 0.012448307 2.0815108
5700000000 0.0058400878 2.1068048 -60.530041 84.619911 -60.963821 78.335724 0.012802431 2.1265476
5800000000 0.0063906829 2.1307073 -60.794228 83.794853 -60.64912 84.269379 0.012928382 2.1668789
5900000000 0.0081329988 2.1618884 -60.140297 85.287804 -60.549465 84.228531 0.013516787 2.2018638
6000000000 0.010316239 2.1921115 -60.081734 83.487549 -60.089115 83.758827 0.013332532 2.2388151
6100000000 0.013888371 2.23645 -60.509216 83.746147 -60.143661 83.247185 0.013972489 2.2720079
6200000000 0.012937672 2.2843189 -59.372417 83.376358 -59.62468 82.564758 0.014657758 2.3135111
6300000000 0.010777441 2.3292217 -59.957516 82.427826 -59.877743 83.638451 0.015026664 2.3573966
6400000000 0.0063415719 2.3605573 -59.57785 83.737885 -59.420971 82.594749 0.015203625 2.3875504
6500000000 0.0031088272 2.3927352 -60.052925 83.28688 -59.679379 86.601364 0.013514207 2.4196098
6600000000 -0.0004602769 2.4098425 -59.074715 84.136436 -59.140476 86.896675 0.012569621 2.4521391
6700000000 0.00081584911 2.4679251 -59.273228 85.331932 -59.204529 83.4394 0.011215357 2.4707313
6800000000 0.0035144098 2.4905787 -59.190727 86.808716 -58.86079 86.101547 0.0084709413 2.5182271
6900000000 0.0058587007 2.5384274 -58.931267 84.812531 -59.002323 85.76799 0.011023258 2.5486944
7000000000 0.0078270724 2.5549183 -58.659935 85.156746 -58.901531 82.350746 0.011765271 2.6043978
7100000000 0.0057206536 2.5963528 -58.977753 87.536804 -58.39365 85.499123 0.014008096 2.6300049
7200000000 0.0079490319 2.6343963 -58.224747 86.024658 -58.290565 84.473816 0.01298929 2.6732452
7300000000 0.0047355848 2.6755874 -58.297714 84.98188 -58.183575 83.712273 0.014267148 2.7074637
7400000000 0.008156253 2.7262325 -58.067719 86.373009 -58.102322 83.732346 0.013486337 2.7359807
7500000000 0.0047650626 2.7473545 -58.707344 83.010559 -57.936115 85.544029 0.016642775 2.783519
7600000000 0.0064759804 2.7869909 -57.704678 85.591934 -57.868137 83.2267 0.01494721 2.8144662
7700000000 0.0055810511 2.8085206 -57.595322 81.642708 -57.55859 87.364952 0.017804066 2.8667483
7800000000 0.0076446421 2.8652923 -58.195633 81.625427 -58.005165 83.789604 0.012866955 2.8904653
7900000000 0.0074952822 2.8946936 -57.654533 84.070648 -57.604683 83.750755 0.013001679 2.9271617
8000000000 0.0067091174 2.9568951 -57.796696 88.133957 -57.714016 85.405319 0.010683449 2.9273965
8100000000 0.0088305566 2.9730449 -57.458736 84.459442 -57.498287 84.03672 0.013170463 2.9508188
8200000000 0.0048405658 3.0117242 -57.257668 81.993958 -57.240467 83.998177 0.017627211 2.9582305
8300000000 0.0079490319 3.0332289 -57.328846 86.323227 -57.081989 86.637665 0.023769598 3.0405567
8400000000 0.0065721315 3.0729518 -56.975731 84.459045 -57.052422 83.905449 0.022476507 3.1388083
8500000000 0.0076508438 3.1105015 -56.903439 84.237282 -57.035915 85.094276 -0.0016746273 3.2925301
8600000000 0.0070151235 3.1518586 -56.838696 83.898575 -57.165695 85.723579 -0.080893755 3.749289
8700000000 0.0080926921 3.1998174 -55.966537 84.357925 -56.686619 85.485435 0.01704555 5.3745155
8800000000 0.0072999173 3.2244172 -56.372005 85.570976 -56.742123 90.827843 0.17019683 3.9583743
8900000000 0.0076637641 3.2607751 -56.794842 84.584839 -56.896881 86.010887 0.069465093 3.4752231
9000000000 0.007328344 3.2943263 -56.752018 83.26268 -56.950317 82.716972 0.021169636 3.408083
9100000000 0.0068936544 3.3274083 -56.250317 85.009262 -56.961189 82.202721 0.0092805512 3.3680711
9200000000 0.0081526358 3.3728821 -56.315762 83.597 -56.214787 83.721954 0.012130293 3.3251307
9300000000 0.0083520962 3.4054291 -56.189976 84.443207 -56.517384 83.567085 0.018882053 3.3451934
9400000000 0.0082704527 3.4471636 -56.605198 84.891533 -56.56002 81.926971 0.021632263 3.3870358
9500000000 0.0092454208 3.4835296 -56.600643 85.089676 -56.042168 84.778984 0.022388434 3.4685249
9600000000 0.0076337894 3.5202527 -56.293766 84.603821 -56.436127 85.525688 0.020890389 3.5278728
9700000000 0.0080844248 3.554049 -56.230068 83.550087 -56.36338 83.123695 0.021718293 3.559685
9800000000 0.0074368804 3.5795979 -56.170448 87.057739 -55.921356 84.841652 0.021944432 3.5680907
9900000000 0.0080172457 3.6227674 -56.287262 84.401711 -56.332321 85.009598 0.023608433 3.6117606
10000000000 0.0080498019 3.6391623 -55.844788 83.348328 -56.153328 83.066788 0.021674506 3.6499104
10100000000 0.0086838203 3.6977432 -55.923565 82.194664 -55.956066 83.551041 0.019861858 3.7256587
10200000000 0.0081634875 3.7080057 -55.593727 83.920601 -56.219257 85.413483 0.015394508 3.7552752
10300000000 0.0076219025 3.7720122 -55.828293 83.414803 -55.608612 82.720757 0.012798818 3.7789252
10400000000 0.0092221731 3.7969415 -56.079956 87.441238 -55.984581 81.684914 0.011087292 3.7323544
10500000000 0.0058669727 3.857722 -55.758446 86.624611 -56.199093 84.038918 0.012197925 3.7394807
10600000000 0.0093508102 3.884212 -55.998516 87.765587 -56.505043 82.998131 0.015770573 3.7409148
10700000000 0.0046037082 3.9272816 -55.555309 82.983452 -55.577618 85.890053 0.019368118 3.8445821
10800000000 0.0082823373 3.9564524 -55.76371 85.571182 -55.89814 84.52388 0.022372467 3.9346287
10900000000 0.0052361623 3.9756346 -55.879574 83.424202 -55.266869 85.979599 0.020491064 4.0545826
11000000000 0.0092805512 4.0242705 -55.605659 85.286987 -55.662323 83.717514 0.01382283 4.0799384
11100000000 0.0081355833 4.0420818 -55.605217 87.627556 -55.663593 84.555038 0.0030472623 4.1207004
11200000000 0.0096581792 4.1137791 -55.245094 86.708801 -55.488335 84.792999 3.2098484e-05 4.0973482
11300000000 0.0093911048 4.1308584 -55.295071 86.519081 -55.313976 87.490341 -0.00076085527 4.1280136
11400000000 0.009373541 4.1844459 -55.635643 86.009773 -54.979752 86.471909 0.010189697 4.1331134
11500000000 0.0091116149 4.2056794 -55.240795 86.066475 -55.227856 83.556259 0.016514355 4.2029939
11600000000 0.0082409987 4.2552471 -55.333324 85.482735 -55.391048 86.543549 0.023897804 4.2606616
11700000000 0.010038874 4.2635918 -55.194382 88.486565 -55.427322 85.644028 0.019494908 4.3494968
11800000000 0.010933918 4.3032308 -55.004097 85.080231 -54.979603 87.53492 0.01669538 4.385684
11900000000 0.0097144851 4.3487701 -54.874313 87.640587 -55.294724 86.501999 0.008751506 4.4165592
12000000000 0.008467841 4.3914618 -54.707436 85.638405 -55.013908 87.21611 0.0093885222 4.4258099
12100000000 0.0078560123 4.4145575 -54.444614 87.234398 -54.62204 85.148476 0.0088331401 4.45436
12200000000 0.0090677012 4.4589 -54.835159 85.103592 -54.706383 87.426323 0.013279886 4.4714084
12300000000 0.0096400995 4.4718595 -54.62949 84.3936 -54.881931 87.120918 0.016940864 4.5142984
12400000000 0.010837347 4.5281968 -54.429455 88.135811 -54.57497 86.984177 0.018826898 4.5522919
12500000000 0.011609856 4.5415683 -54.532017 87.715218 -54.590591 85.863678 0.014965784 4.6069345
12600000000 0.0087323887 4.6163845 -54.14785 85.932243 -54.667633 87.036461 0.014392023 4.6475081
12700000000 0.010491842 4.6344724 -54.082336 88.884521 -54.585072 88.923378 0.012205153 4.6866059
12800000000 0.0075950283 4.6682358 -54.162018 89.351852 -53.81871 87.928123 0.015313513 4.7094007
12900000000 0.012523677 4.7052693 -54.022682 88.354065 -54.13953 88.254242 0.015956789 4.7524176
13000000000 0.0075123371 4.729867 -53.874161 89.389709 -54.083374 86.969521 0.019788677 4.7762413
13100000000 0.013469305 4.7857141 -53.944729 85.75396 -53.969864 86.769501 0.017994834 4.8266969
13200000000 0.0069680871 4.8029385 -53.90173 88.687408 -53.58046 86.044289 0.020105615 4.8553772
13300000000 0.010006334 4.8780117 -54.037094 87.498062 -53.74567 88.18293 0.017998958 4.8963575
13400000000 0.0081376499 4.8659487 -53.798817 87.828468 -53.792614 88.15052 0.020528164 4.9285073
13500000000 0.0068879682 4.9388008 -53.657078 89.824722 -53.640862 89.03775 0.017830877 4.9837208
13600000000 0.01223458 4.9135866 -53.248154 87.169701 -53.455566 87.672066 0.022072177 5.0194254
13700000000 0.0087747565 4.9977493 -53.788155 88.752922 -53.205208 88.444824 0.018204669 5.0581279
13800000000 0.017314732 5.0117235 -53.32478 86.516678 -53.314899 88.189598 0.021488536 5.0778351
13900000000 0.0081505692 5.0960898 -53.356998 87.184425 -53.103771 87.444481 0.017788596 5.1051688
14000000000 0.013608138 5.1351576 -53.185455 88.319458 -53.098995 86.628571 0.022561491 5.1425595
14100000000 0.0023575716 5.1310825 -53.400536 89.581139 -53.087669 87.217171 0.019932976 5.1710896
14200000000 0.010061085 5.169065 -53.009834 87.389816 -52.897167 86.474373 0.024924865 5.235414
14300000000 0.0089654047 5.1694121 -53.152809 85.77755 -52.998711 87.14856 0.0208265 5.2622638
14400000000 0.016313206 5.2510586 -53.068916 84.757095 -53.041225 87.843521 0.023401434 5.3242908
14500000000 0.014242378 5.2675385 -52.858864 87.030128 -52.929516 86.591087 0.018812981 5.3325491
14600000000 0.011665104 5.3543077 -52.675377 88.451523 -53.01926 86.91954 0.019303175 5.3614631
14700000000 0.0088997893 5.3617768 -52.569557 87.650078 -52.985374 84.79892 0.01795565 5.3853841
14800000000 0.0048653889 5.4053206 -52.697952 87.085381 -52.888088 86.12114 0.022040756 5.4303346
14900000000 0.0093182633 5.3973932 -52.545452 87.760658 -52.697571 86.153107 0.019921124 5.464623
15000000000 0.0096509475 5.4349184 -52.621887 86.312347 -52.603687 85.697083 0.019472746 5.5220923
15100000000 0.011205029 5.477541 -53.01857 85.880013 -52.520317 83.655609 0.017467365 5.5374188
15200000000 0.010038874 5.5461988 -53.107548 86.906319 -52.808678 83.653717 0.019711887 5.5656924
15300000000 0.0081924256 5.5798516 -52.799091 86.204681 -52.400242 85.882889 0.019626848 5.5879917
15400000000 0.0073691746 5.621491 -52.469963 86.069275 -52.5462 86.563904 0.02098313 5.6262865
15500000000 0.0067235911 5.6329832 -52.686558 86.516472 -52.742325 87.083191 0.019868558 5.6750274
15600000000 0.0083453786 5.6742282 -52.676075 85.437775 -52.604355 83.128044 0.019171741 5.7367411
15700000000 0.011595915 5.676693 -52.301922 86.635498 -52.53474 87.56295 0.017879343 5.7618003
15800000000 0.0081671048 5.7465067 -52.654396 86.597443 -52.380737 87.246109 0.017322982 5.7863636
15900000000 0.012892765 5.7836976 -52.661606 84.894508 -52.359066 84.704498 0.017978335 5.7971835
16000000000 0.0051808325 5.8421321 -52.718613 84.854027 -52.290688 85.493042 0.01997472 5.8363619
16100000000 0.010663307 5.8730464 -52.507706 85.838264 -52.809235 86.85675 0.021277828 5.8761325
16200000000 0.0021883661 5.863039 -52.25563 86.897095 -52.497795 87.041359 0.024083156 5.9517531
16300000000 0.015203625 5.9457994 -52.579788 87.774796 -52.569557 89.355896 0.023809759 5.9999204
16400000000 0.0080828741 5.9327388 -51.860344 85.168121 -51.871777 85.031181 0.020930577 6.0598454
16500000000 0.014470971 6.0544281 -52.394485 86.377632 -52.1595 88.07383 0.018026799 6.0577154
16600000000 0.0096240863 6.0217762 -51.857052 87.536026 -52.23851 85.96418 0.019287197 6.0990186
16700000000 0.0047831628 6.1264963 -52.004505 87.899826 -51.999878 87.305305 0.02117788 6.0947995
16800000000 0.01085439 6.0566053 -52.33493 88.434227 -51.81633 87.287086 0.023146532 6.158917
16900000000 0.0087039713 6.1739702 -51.918095 85.213036 -52.158665 87.783058 0.026716365 6.1862292
17000000000 0.022017578 6.1573496 -51.96077 85.553879 -52.003017 87.427902 0.025547676 6.2740946
17100000000 0.0081231808 6.2668338 -51.56678 84.211746 -52.005859 85.966637 0.025245033 6.2788591
17200000000 0.016903732 6.2870464 -52.172844 88.677567 -52.155628 87.921013 0.021769807 6.3251505
17300000000 -0.00054959388 6.2957196 -51.898338 86.688454 -52.109066 88.920731 0.0218275 6.3221588
17400000000 0.011288683 6.3297334 -51.953133 87.20105 -51.738297 84.563988 0.018243851 6.3787403
17500000000 0.0069024414 6.2975359 -51.642963 85.122353 -51.733509 85.858536 0.023436449 6.3938169
17600000000 0.01600476 6.4240003 -51.512737 87.648254 -51.882114 86.900963 0.020967674 6.4589486
17700000000 0.013516271 6.4103718 -51.817478 87.023834 -51.918343 84.731689 0.023964223 6.4915743
17800000000 0.0097372141 6.5326362 -51.517563 84.511772 -51.80267 85.065773 0.017090414 6.5320263
17900000000 0.0086347349 6.4839091 -51.424179 89.22216 -51.842422 85.388283 0.019487178 6.5520363
18000000000 0.0036416641 6.5436921 -51.812653 83.799179 -51.554497 85.655663 0.014758888 6.5685239
18100000000 0.010286283 6.5608311 -51.986767 86.478119 -51.666397 87.646767 0.022580031 6.5837274
18200000000 0.0076203523 6.6297932 -51.510826 85.024612 -51.312355 85.979561 0.021913011 6.6469316
18300000000 0.011234463 6.6739483 -51.588982 84.481865 -51.336338 85.428932 0.025913086 6.7044449
18400000000 0.0079200929 6.7031336 -51.839104 82.642029 -51.358913 84.283829 0.022328172 6.7641511
18500000000 0.0059982943 6.7327881 -51.996437 87.758148 -52.194881 83.632095 0.020747667 6.79492
18600000000 0.011294363 6.7540812 -51.617199 87.601624 -51.383648 86.75808 0.017846344 6.79953
18700000000 0.010298679 6.7976151 -51.388153 86.071861 -51.345486 86.147095 0.020217955 6.8136163
18800000000 0.012846308 6.8762274 -51.257473 86.60643 -51.337433 85.919151 0.022747414 6.8477764
18900000000 0.011626896 6.8721585 -51.685158 86.599586 -51.509144 85.284897 0.027592544 6.8756361
19000000000 0.012520064 6.9823794 -51.385551 86.947884 -51.57531 85.39801 0.029797904 6.961587
19100000000 0.011007765 6.9153528 -51.318222 84.56105 -51.435745 84.067398 0.028835254 7.0117602
19200000000 0.0056968699 7.0320053 -51.223404 83.988312 -51.220592 83.629997 0.02201088 7.0879006
19300000000 0.014998804 6.9896851 -51.462036 84.546501 -51.37965 84.255493 0.022220522 7.0735745
19400000000 0.0013127379 7.0782576 -51.591885 83.91143 -51.124031 86.980232 0.016657732 7.1023521
19500000000 0.021338621 7.0713511 -51.501724 86.984352 -51.261913 85.315773 0.022940541 7.084291
19600000000 0.0040823687 7.1188512 -50.996929 85.666565 -51.446365 85.051605 0.023243859 7.1526475
19700000000 0.027266378 7.213665 -51.307262 83.234344 -51.280357 87.888351 0.030490449 7.1888862
19800000000 0.0072435802 7.191443 -51.334694 85.046295 -51.382366 84.071815 0.023199573 7.267837
19900000000 0.016937768 7.333313 -51.234035 84.854057 -51.089523 85.836884 0.027085276 7.3031502
20000000000 0.0023037577 7.2218161 -51.221664 85.892845 -51.261681 85.886101 0.019819599 7.3284593
20100000000 0.0058178557 7.352591 -50.845127 84.80452 -51.392887 86.308449 0.025381945 7.3569379
20200000000 0.014884265 7.2763782 -51.04604 87.249756 -51.305489 85.944496 0.016741281 7.3777785
20300000000 0.0091234976 7.4415169 -50.830971 86.556976 -51.164349 88.416046 0.025316577 7.430119
20400000000 0.020537954 7.4065728 -51.10022 85.66468 -51.046837 87.485367 0.019354202 7.451436
20500000000 0.0022426988 7.5016065 -50.876911 87.335968 -50.946972 87.115509 0.022307053 7.5071936
20600000000 0.012898443 7.4910169 -50.811794 85.709335 -51.032543 88.226227 0.018009786 7.4996595
20700000000 0.00096181605 7.4916787 -50.371574 86.828827 -51.364635 86.044319 0.024104781 7.5550694
20800000000 0.011056308 7.5571465 -51.013958 86.040565 -51.334541 87.835182 0.020593604 7.5528183
20900000000 0.012220124 7.5704956 -51.084278 87.237762 -50.844776 86.756439 0.029157704 7.6554041
21000000000 0.014669109 7.6729093 -51.111973 86.471306 -51.406265 87.934311 0.023161465 7.6768799
21100000000 0.01415104 7.6954618 -50.987015 84.050011 -50.947388 86.646164 0.025784424 7.7492194
21200000000 0.0045188912 7.7197728 -50.818882 86.818604 -50.876282 87.679573 0.020661619 7.7721252
21300000000 0.0096504306 7.7575736 -50.85429 87.475403 -50.921406 89.158195 0.021515839 7.8032727
21400000000 0.0077645401 7.7177773 -50.6381 87.396088 -50.665474 85.842346 0.021001164 7.7975931
21500000000 0.011685241 7.809576 -50.717659 86.681976 -50.693035 86.381004 0.02552709 7.8200221
21600000000 0.01949027 7.7708845 -50.703316 89.434158 -50.559174 86.451073 0.030249331 7.8515663
21700000000 0.0098524056 7.9302211 -51.049847 89.723122 -50.798771 89.257973 0.034196537 7.9317555
21800000000 0.02659956 7.9197845 -50.416931 87.004967 -50.070763 86.477425 0.030171184 7.9924793
21900000000 0.0021433469 8.001914 -50.551537 84.89183 -50.447628 85.250328 0.032056622 8.0699158
22000000000 0.022547068 8.0113697 -50.2687 86.151367 -50.267914 86.741714 0.021541597 8.0612936
22100000000 -0.001036339 7.983079 -50.366772 86.262451 -50.545734 84.535851 0.024419345 8.0898266
22200000000 0.021712625 8.1480083 -50.613091 87.153183 -50.473545 87.910393 0.018593894 8.0599823
22300000000 0.0086249178 7.9934411 -50.070648 84.032928 -50.62402 87.987709 0.030330049 8.1181631
22400000000 0.022131413 8.3542347 -50.677017 83.378815 -50.238094 86.343407 0.026379839 8.1507273
22500000000 0.014082924 8.1159678 -49.9631 85.585732 -50.370384 89.242233 0.033785593 8.2451525
22600000000 0.009379223 8.3661251 -50.34193 85.739372 -50.590584 86.372589 0.026846027 8.2490139
22700000000 0.017994834 8.1230059 -50.378323 87.0877 -50.222965 87.625404 0.025938302 8.3446951
22800000000 -0.0030778965 8.2930613 -49.873932 86.145477 -50.199936 86.600105 0.019303175 8.2975893
22900000000 0.035971895 8.2795267 -50.524937 83.342194 -50.369053 86.830978 0.026906226 8.3662624
23000000000 0.0016460356 8.3917627 -49.772404 85.233162 -50.316261 86.096619 0.023235621 8.3455048
23100000000 0.040754601 8.4961128 -50.217651 86.906288 -50.207073 86.895264 0.031945616 8.4753542
23200000000 -0.0032618211 8.4487925 -49.844963 85.91497 -50.117962 86.222366 0.02293333 8.462491
23300000000 0.017496241 8.5257816 -50.127239 87.065414 -50.185524 84.478065 0.021931039 8.5670528
23400000000 -0.00069975411 8.3908424 -50.190262 87.222031 -50.124958 85.745743 0.0182289 8.4972029
23500000000 0.011795734 8.5668192 -49.527714 81.142303 -50.318539 81.656868 0.019538201 8.568902
23600000000 0.021066595 8.4651527 -50.305939 83.014351 -50.2714 83.324043 0.026609851 8.502799
23700000000 0.0088155735 8.728425 -50.228901 84.82869 -50.107895 86.077225 0.028013336 8.6371517
23800000000 0.021219611 8.6643419 -50.072392 85.812363 -49.926739 84.492081 0.030792214 8.6608486
23900000000 -0.0026134569 8.7192678 -50.487038 85.841988 -50.223148 87.243431 0.024871845 8.779706
24000000000 0.006761326 8.7177858 -50.447655 83.910698 -50.206753 83.395561 0.021475142 8.7763262
24100000000 0.002506074 8.6538515 -50.35355 84.661575 -50.267681 86.993683 0.011623798 8.8077497
24200000000 0.014492127 8.7847462 -49.470741 83.93425 -50.009666 85.653603 0.02278192 8.7609148
24300000000 0.021454019 8.789156 -49.808041 84.67598 -49.922012 83.421844 0.01720438 8.7880449
24400000000 0.011739455 8.9662199 -49.858723 83.813522 -49.939316 85.044289 0.033115666 8.8202133
24500000000 0.020523012 8.936183 -50.170086 83.161697 -49.773087 86.533813 0.030819973 8.9373837
24600000000 0.00040173164 8.9586239 -50.221012 84.467033 -49.993916 84.440376 0.031377692 9.0220346
24700000000 0.012484443 8.9876299 -49.942181 81.467049 -49.966675 84.031296 0.020081909 9.0792313
24800000000 0.0028946395 8.9247675 -50.233692 83.605751 -49.921059 80.866127 0.018887209 9.0860996
24900000000 0.011765787 9.0761194 -49.77478 81.426323 -50.480896 83.303993 0.017912855 9.0629921
25000000000 0.020120045 8.9922342 -50.060848 83.136421 -50.320988 84.864906 0.023936421 9.0650234
25100000000 0.011926875 9.1914043 -50.10387 86.597717 -50.202759 82.462875 0.028066833 9.1330948
25200000000 0.026383955 9.125206 -50.44767 82.221214 -50.179741 86.112595 0.029316606 9.1809807
25300000000 0.0038428833 9.247201 -50.241917 85.58252 -50.533817 83.826248 0.026803836 9.2861118
25400000000 0.023402978 9.2555523 -50.308571 85.81929 -50.389961 83.251862 0.028435631 9.2804041
25500000000 -0.0026784705 9.2136421 -49.653717 89.080086 -49.858322 83.569206 0.024938764 9.3711643
25600000000 0.021295344 9.4288712 -49.883064 84.8274 -50.542889 83.521683 0.027801402 9.324542
25700000000 0.0080389492 9.2138386 -49.435875 83.658821 -50.008705 86.612831 0.02615393 9.3855066
25800000000 0.0077821114 9.4552784 -50.552174 85.856476 -50.730198 86.783096 0.02950944 9.4157829
25900000000 0.017325561 9.2784929 -50.126694 84.753601 -50.924606 82.653885 0.022504834 9.4718466
26000000000 0.0019311815 9.5113792 -50.176899 87.249802 -50.484081 84.525665 0.035181623 9.4903946
26100000000 0.037624884 9.4146366 -50.333069 83.417099 -49.895229 83.409073 0.019329462 9.5242014
26200000000 -0.010483517 9.475214 -50.182041 79.542412 -49.724712 86.054558 0.033320662 9.546896
26300000000 0.033899117 9.612442 -50.725243 86.510429 -50.167286 80.610855 0.015718473 9.597105
26400000000 -0.0048879497 9.479188 -50.42189 83.109756 -50.71743 83.154472 0.036895491 9.6552563
26500000000 0.027839983 9.7290306 -50.623005 84.324516 -50.342621 82.152565 0.022713939 9.6952372
26600000000 0.0063912002 9.5368299 -49.228489 87.735962 -49.452335 82.626793 0.037784502 9.7520037
26700000000 0.001309115 9.877965 -50.117718 78.21209 -50.455559 82.77459 0.018745966 9.6940317
26800000000 0.021924343 9.6299934 -50.926235 85.556297 -50.834953 88.390366 0.036369797 9.825182
26900000000 -0.0069162813 9.8565044 -51.126938 81.57756 -51.398617 90.588821 0.018443365 9.7683058
27000000000 0.034098942 9.6970139 -51.083481 86.058846 -50.597912 88.172043 0.029671416 9.8869772
27100000000 -0.0081194714 9.9030886 -50.786884 88.724091 -50.29546 88.022408 0.021485444 9.9001808
27200000000 0.036432944 9.8798399 -50.178722 88.545166 -51.197601 91.601257 0.022748958 9.9470453
27300000000 -0.0066414615 9.8664379 -50.159428 92.784073 -50.355255 89.775681 0.022821575 9.9160824
27400000000 0.02984778 10.099422 -49.689426 88.758812 -50.78347 88.380638 0.023470435 10.012055
27500000000 -0.0015125216 9.8381519 -50.796688 84.640228 -50.324097 82.653351 0.024004897 9.998291
27600000000 0.013534851 10.147115 -49.666397 89.888916 -49.969044 89.567314 0.029726433 10.095881
27700000000 0.021087719 9.9133024 -49.866245 82.583969 -50.762978 84.137993 0.022654196 10.061351
27800000000 0.0048250519 10.228085 -50.525921 97.286484 -49.931149 88.612831 0.026342275 10.174672
27900000000 0.027995333 10.017797 -51.330688 85.111702 -51.835091 97.413734 0.021433927 10.15266
28000000000 -0.0092848605 10.255763 -49.741333 95.342896 -48.834599 87.231583 0.025790086 10.230859
28100000000 0.020070057 10.202003 -49.055599 89.179626 -51.030968 91.557236 0.029292438 10.207811
28200000000 -0.0021604626 10.241954 -51.152832 95.18483 -49.276325 83.370392 0.026401451 10.257943
28300000000 0.022620203 10.258897 -50.390781 85.090469 -50.405994 86.613884 0.033291891 10.29518
28400000000 0.02278089 10.249486 -50.902061 84.343521 -52.591702 82.823341 0.029476017 10.347768
28500000000 0.020015432 10.380445 -54.066509 88.392456 -49.931599 93.386612 0.034297727 10.366355
28600000000 0.018865043 10.387114 -50.399967 94.183319 -51.756172 97.996765 0.032836158 10.410788
28700000000 0.0083257426 10.43826 -50.242741 84.577667 -49.777328 81.96946 0.044424273 10.455209
28800000000 0.0085706655 10.421827 -48.803474 78.978035 -50.740726 94.073418 0.023943113 10.552023
28900000000 0.0094670448 10.422094 -51.269924 82.980431 -50.412781 85.579605 0.027411457 10.479733
29000000000 0.0077960645 10.633205 -52.547798 91.630394 -51.674591 89.766533 0.031780642 10.530058
29100000000 0.025912056 10.43357 -49.241306 98.836433 -48.239769 90.490326 0.03434344 10.515612
29200000000 0.0080844248 10.639523 -49.440445 92.379013 -50.775253 85.696411 0.047389839 10.672577
29300000000 0.032155804 10.661212 -50.261311 80.894203 -49.610485 86.223473 0.04297277 10.630673
29400000000 -0.015316005 10.718526 -51.377258 81.962997 -50.551437 83.570259 0.038008779 10.907136
29500000000 0.036200371 10.791011 -49.423717 90.834923 -51.083813 86.05751 0.03940602 10.771307
29600000000 -0.0063863611 10.556942 -51.141228 89.586746 -52.239239 77.766815 0.024018284 10.871435
29700000000 0.04761669 10.947175 -50.750916 88.612312 -50.121365 76.395927 0.033495851 10.738297
29800000000 0.016708273 10.67822 -51.633553 110.17556 -49.086163 84.914856 0.016655153 10.915062
29900000000 0.034855511 11.139192 -50.118073 73.758247 -50.08279 80.644409 0.041620266 10.83951
30000000000 0.01055072 10.687009 -49.441559 86.288498 -49.738796 98.672813 0.027843069 10.991593
30100000000 -0.023899367 11.125871 -49.089817 97.585129 -51.351032 95.588371 0.040103704 10.940944
30200000000 0.020062327 10.760157 -48.94664 82.439583 -50.915668 91.718109 0.021216005 11.112398
30300000000 -0.016146062 11.015287 -50.630714 82.241264 -51.176258 91.658234 0.036290735 11.025889
30400000000 0.053032592 10.955885 -50.392479 95.771164 -49.353424 100.0557 0.012189148 11.048104
30500000000 -0.0093385596 11.038814 -50.136696 90.025124 -51.199257 100.04021 0.041573089 11.076179
30600000000 0.05145248 11.245254 -50.770744 83.516945 -49.626678 103.88987 0.023975551 11.072299
30700000000 -0.0036250304 11.056855 -49.98122 88.44355 -52.952103 91.218056 0.03530179 11.170359
30800000000 0.0030172556 11.306087 -51.623791 83.145905 -50.963417 82.541641 0.021831106 11.349127
30900000000 0.0046228436 10.989405 -49.797829 92.444939 -53.161575 97.35968 0.035993457 11.271299
31000000000 -0.0050893147 11.365746 -51.730492 87.778404 -51.957462 87.644653 0.027745331 11.294622
31100000000 0.042646732 11.135963 -47.514156 85.88871 -48.351021 78.872513 0.034510884 11.271747
31200000000 0.022570761 11.537283 -49.771667 115.5766 -48.003109 84.718361 0.027757162 11.264523
31300000000 0.034607444 11.386249 -51.90839 98.074249 -50.588341 91.091637 0.035396792 11.404059
31400000000 -0.0022272819 11.529591 -51.628975 99.541542 -50.995853 103.47349 0.033147521 11.440214
31500000000 0.014699551 11.483333 -49.766529 96.905136 -49.967171 84.852264 0.048822969 11.541808
31600000000 -0.0036294346 11.347964 -50.557446 81.459923 -49.424 95.889816 0.031681448 11.58475
31700000000 0.010061085 11.441965 -51.540524 105.9141 -50.174026 84.576347 0.032288391 11.52597
31800000000 0.028974112 11.455109 -51.243324 80.864349 -49.779922 83.806541 0.022536768 11.535366
31900000000 0.035250951 11.700354 -48.621212 85.629128 -50.309021 82.978683 0.037922561 11.606348
32000000000 0.051622335 11.673841 -51.333668 106.36904 -50.247982 89.27169 0.038169414 11.580037
32100000000 0.0079324953 11.695868 -49.065151 97.081108 -48.575043 99.363274 0.040759217 11.675871
32200000000 0.0084750745 11.678473 -51.279587 101.26414 -49.806881 96.378639 0.035522088 11.719297
32300000000 0.013765546 11.559304 -48.434429 104.8183 -52.17728 100.8666 0.027943892 11.817972
32400000000 0.0045307865 11.836982 -50.65554 102.2467 -51.454792 103.72573 0.016703118 11.828218
32500000000 0.03267584 11.664378 -50.560398 99.313469 -50.317009 88.401787 0.024652036 11.78635
32600000000 -0.00074635661 11.953376 -51.106194 94.469048 -50.04641 95.282593 0.019543355 11.816264
32700000000 0.012419914 11.752372 -49.339191 100.95121 -49.855213 93.452576 0.032104414 11.862038
32800000000 -0.016323525 11.956824 -48.570744 99.852913 -48.540081 92.774849 0.037076183 11.863139
32900000000 0.045413703 12.027059 -49.656559 89.626785 -52.34164 104.68598 0.047671482 11.967986
33000000000 -0.0018180932 11.849144 -50.008369 107.29808 -50.291752 101.67654 0.041024372 12.00072
33100000000 0.015230453 12.202703 -52.27845 79.273514 -52.569073 105.97559 0.030294061 12.168562
33200000000 0.0083913673 11.881338 -50.605362 87.803558 -49.076824 92.530083 0.028270524 12.026507
33300000000 0.010977297 12.190115 -49.946835 100.79826 -50.712383 112.70176 0.034349605 12.217394
33400000000 0.038745686 11.94909 -52.194721 103.17209 -50.051994 88.223846 0.036354911 12.104613
33500000000 -0.009738599 12.333249 -50.236473 101.28198 -48.227978 89.938637 0.038713358 12.193114
33600000000 0.032449234 12.102997 -50.987133 117.57059 -50.68652 95.347137 0.047954649 12.113893
33700000000 -0.016682632 12.222492 -50.673073 93.952354 -48.673576 87.69944 0.034192428 12.329247
33800000000 0.039269038 12.402737 -51.571838 93.184517 -50.564175 108.51971 0.031124284 12.324342
33900000000 0.0083794827 12.121402 -49.771362 96.497925 -49.400612 90.344734 0.037308708 12.447418
34000000000 0.026489958 12.454297 -48.180382 108.21364 -50.696587 103.00078 0.049667064 12.383041
34100000000 0.02182853 12.320906 -48.989357 98.642487 -50.064667 101.50012 0.040886924 12.503697
34200000000 -0.00087632844 12.616152 -50.527672 87.978462 -50.117607 105.08732 0.055852756 12.520589
34300000000 0.024512012 12.33351 -46.947395 94.906494 -52.312309 95.633438 0.032474414 12.5649
34400000000 -0.0049796901 12.379841 -50.407234 107.05531 -48.232845 98.315041 0.031025078 12.534892
34500000000 0.035148244 12.51737 -52.233608 94.383636 -52.411335 114.94587 0.014622672 12.559437
34600000000 0.01061631 12.314387 -50.348282 96.266617 -49.221371 105.76572 0.025152382 12.47418
34700000000 0.022673251 12.661741 -49.187626 79.419586 -48.912914 102.06767 0.034333169 12.596318
34800000000 0.022240611 12.477867 -53.132408 100.99111 -48.595772 90.720116 0.058607243 12.625095
34900000000 0.017495209 12.650773 -51.148296 102.05778 -51.947205 96.898041 0.054895867 12.804137
35000000000 0.044251576 12.554418 -48.642445 95.924126 -49.498501 107.4472 0.032128569 12.923011
35100000000 -0.034435064 12.755212 -50.868534 96.915443 -50.32975 102.65885 0.017930901 12.793448
35200000000 0.05249095 12.92121 -50.204716 101.50651 -50.953632 94.033577 0.0092490371 12.750549
35300000000 -0.013431752 12.724929 -52.519268 105.66936 -49.418282 92.135933 0.030240592 12.787803
35400000000 0.04498281 13.051025 -51.867382 92.520493 -49.716686 87.158302 0.041158222 12.774533
35500000000 -0.010043193 12.687794 -48.728409 90.810898 -50.704727 100.07922 0.02822886 12.928285
35600000000 0.0098864976 13.146053 -51.209538 103.87022 -50.905426 95.365189 0.030759314 12.870883
35700000000 0.051378295 12.469234 -48.919514 95.870522 -49.782478 105.95606 0.028873311 13.059101
35800000000 -0.0070466972 13.208966 -52.256313 117.0434 -52.487316 100.03691 0.026651016 13.003787
35900000000 0.056937695 12.810529 -51.291523 81.87159 -53.052326 81.655739 0.014100986 13.072541
36000000000 -0.048358936 13.12422 -52.011959 103.97994 -47.58115 111.17909 0.042318102 13.040219
36100000000 0.058049437 13.171268 -49.476604 108.50682 -49.713951 104.34874 0.026493561 13.083314
36200000000 -0.038221627 12.955987 -47.250656 99.372131 -50.808575 114.8447 0.034155957 13.108272
36300000000 0.051942077 13.335373 -49.653152 112.88721 -53.303738 98.896103 0.032076664 13.24118
36400000000 6.574986e-05 12.751301 -48.250202 94.068146 -49.30476 110.95506 0.017486444 13.225735
36500000000 0.032208737 13.623816 -51.899078 111.11435 -54.18219 99.647003 0.024078524 13.061905
36600000000 0.022678401 12.810685 -48.473103 104.36292 -49.187317 115.75895 0.065855287 13.24093
36700000000 -0.010544497 13.661844 -49.841473 124.21278 -50.796211 97.564445 0.025346946 13.272962
36800000000 0.032505758 13.092535 -48.870293 113.7131 -48.513783 101.87034 0.070778906 13.357425
36900000000 -0.047668997 13.480043 -46.856117 109.42019 -49.483143 112.54771 0.039246462 13.570158
37000000000 0.068387873 13.138952 -47.60828 86.616638 -50.631062 88.299805 0.014457039 13.493983
37100000000 -0.0087318253 13.48761 -49.000473 98.130287 -47.397923 94.455971 0.018122179 13.467498
37200000000 0.085929558 13.561601 -52.877617 127.08975 -49.606461 104.90543 0.020865658 13.477669
37300000000 -0.031952858 13.684796 -51.255493 121.0948 -48.698505 123.95862 0.020367909 13.34419
37400000000 0.0068626404 13.803814 -48.499298 89.408813 -53.905956 91.014183 0.071209289 13.512704
37500000000 0.0052185808 13.496038 -54.226898 91.426941 -52.022858 106.15388 0.059226777 13.632324
37600000000 0.031606924 13.442161 -48.129749 123.97306 -52.836025 101.40504 0.067371547 13.772485
37700000000 0.027973214 13.683342 -54.98349 118.74554 -52.509644 92.375214 0.03259825 13.844977
37800000000 0.018041234 13.642343 -55.473579 94.252594 -47.921394 66.01088 0.045093484 13.804402
37900000000 0.030844133 14.04526 -46.886143 99.745659 -48.605968 123.24231 0.035874851 13.55606
38000000000 0.030482737 13.514986 -51.269218 84.934349 -52.542171 107.01193 0.039584044 13.659721
38100000000 -0.0095769698 13.901443 -56.822796 134.13782 -48.765907 96.680344 0.037550975 13.592217
38200000000 0.065697208 13.670762 -49.448132 103.02254 -49.555374 114.1339 0.074921519 13.76089
38300000000 -0.044068482 13.808507 -50.872902 102.6255 -49.288155 81.9953 0.048296161 14.125748
38400000000 0.088788815 14.235955 -51.576893 86.156059 -46.313065 98.635658 0.039816435 14.099937
38500000000 -0.025181998 13.782955 -51.126141 101.75826 -50.562317 123.26377 0.029033253 13.904119
38600000000 0.05930236 14.2933 -46.531834 100.4401 -49.580284 126.49634 0.031855162 13.991709
38700000000 -0.030602273 13.608249 -53.706009 98.927872 -49.836246 95.032059 0.032914255 13.899978
38800000000 0.049026717 14.615663 -47.84618 89.660492 -52.045097 99.021057 0.059493866 14.157807
38900000000 0.03437734 13.507141 -48.851242 122.07933 -48.666939 107.50225 0.036759451 14.17094
39000000000 -0.022162812 14.787951 -54.43766 144.48604 -48.493637 125.09452 0.046742495 14.336526
39100000000 0.10139272 13.536567 -51.100876 115.11702 -48.804707 86.529877 0.017975241 14.206008
39200000000 -0.056644678 14.696231 -49.090736 133.85457 -50.895123 87.035019 0.039874919 14.179681
39300000000 0.11083635 13.831838 -50.576904 125.01598 -52.395046 80.912476 0.047801036 14.077342
39400000000 -0.066657424 14.517931 -51.043514 119.22388 -51.623863 95.423317 0.079093218 14.236193
39500000000 0.089157559 14.308884 -51.813892 94.798553 -48.192837 126.49173 0.03548871 14.380149
39600000000 -0.056653332 14.119053 -50.816719 133.62379 -46.91338 113.9035 0.05617423 14.680447
39700000000 0.099514388 14.86936 -50.758533 106.32475 -52.275135 111.66016 0.016213659 14.53044
39800000000 -0.0036672598 13.905257 -50.19133 129.76617 -47.632523 92.794815 0.017898934 14.617523
39900000000 0.030394312 15.144529 -51.432011 104.74842 -49.749763 104.39131 0.012219608 14.426748
40000000000 0.026388587 13.960728 -46.876011 88.392395 -51.843582 94.771652 0.081011407 14.465309
40100000000 -0.038900923 14.767352 -52.631672 109.79966 -53.720314 112.57867 0.065958291 14.331062
40200000000 0.039129484 14.220026 -49.962135 88.956841 -51.862358 108.8149 0.061618779 14.769693
40300000000 -0.032164607 14.54711 -51.632545 113.53233 -51.284237 99.273483 0.081623688 14.800011
40400000000 0.076869525 14.678329 -52.456032 83.123749 -49.286087 125.41895 0.030176839 14.819864
40500000000 -0.0792384 14.640111 -49.380901 73.088692 -50.511139 85.303452 0.029787622 14.758352
40600000000 0.022247821 14.906663 -51.089989 60.813881 -49.386578 100.16101 0.029911023 14.628323
40700000000 0.0063462243 14.505635 -57.714409 136.10609 -55.828846 121.12847 0.041976634 14.443053
40800000000 -0.023219548 14.7227 -48.736706 133.33586 -48.030437 85.281296 0.057246312 14.721315
40900000000 0.040974624 14.929146 -50.883686 112.67123 -50.921993 107.08192 0.057938073 14.882139
41000000000 -0.033115271 14.705647 -46.439659 97.396072 -50.623516 83.854561 0.056082748 15.015133
41100000000 0.071738422 14.9842 -52.423019 68.083954 -49.321312 139.79323 0.054937273 15.001302
41200000000 -0.034446545 14.461787 -48.798775 125.67588 -52.047184 105.31107 0.059621535 15.028013
41300000000 0.061950542 15.514785 -49.924713 111.58142 -49.039326 124.10123 0.039143849 14.92829
41400000000 0.013119364 14.707236 -47.244431 115.45007 -56.604137 111.17319 0.064654239 14.925875
41500000000 -0.045606375 15.476343 -48.22723 132.2498 -51.905148 114.91952 0.064598136 14.870575
41600000000 0.095712222 14.446147 -49.048969 84.736855 -52.932304 110.9062 0.057102736 15.105971
41700000000 -0.092841953 15.539951 -48.201012 103.04391 -48.09454 107.72771 0.059555147 15.158249
41800000000 0.14040323 14.704614 -49.449226 113.86213 -54.223312 128.4935 0.047791306 15.265309
41900000000 -0.094933227 15.179009 -51.344013 94.002014 -49.977119 137.52176 0.031785268 15.203522
42000000000 0.13189672 15.364862 -47.184692 115.32947 -53.654465 94.49897 0.034569953 15.367798
42100000000 -0.071871296 15.119263 -52.048313 128.58986 -50.40461 81.004463 0.033185538 15.094331
42200000000 0.094231665 15.695319 -50.633865 93.601379 -49.345982 107.66452 0.064554267 15.345549
42300000000 -0.0033447193 14.597632 -49.708775 92.634377 -48.785038 149.15439 0.044144981 15.310575
42400000000 -0.00076551555 15.716311 -47.269829 135.84906 -53.406769 130.49063 0.035298195 15.611214
42500000000 0.07892698 14.885484 -50.423283 117.46989 -48.397411 145.73358 0.047652025 15.554827
42600000000 0.031493336 16.05998 -48.595989 102.07105 -51.697437 78.510681 0.033114638 15.624818
42700000000 0.034650076 15.230431 -52.810001 92.80117 -50.605968 157.51376 0.043591972 15.269196
42800000000 -0.074616328 15.654249 -48.252281 163.91064 -49.538399 103.86053 0.021069171 15.550254
42900000000 0.069223076 15.566312 -48.681499 93.614876 -53.831741 119.25476 0.04560275 15.326473
43000000000 -0.034033004 15.241916 -49.158283 138.52034 -50.588791 115.03909 0.060370609 15.538477
43100000000 0.072820924 16.005573 -52.770462 153.1424 -46.076393 111.98362 0.10926703 15.590824
43200000000 0.040714085 15.551169 -46.984722 154.35541 -54.612442 96.142029 0.030180437 15.745821
43300000000 -0.0094750151 15.822258 -50.186619 133.9772 -46.855038 141.8179 0.046488445 16.081589
43400000000 0.069851793 15.85048 -54.054634 120.07076 -46.843464 125.37986 0.0389576 15.683064
43500000000 -0.088090748 15.887392 -52.323547 60.621735 -54.494179 80.304367 0.034329575 15.623857
43600000000 0.080252163 15.963971 -48.945839 120.72937 -48.727734 124.45012 0.048253153 15.585988
43700000000 0.035058886 15.351988 -51.385632 106.61217 -50.522404 89.257698 0.07983996 15.778036
43800000000 0.073930137 16.64757 -48.112888 179.47707 -49.615597 128.71323 0.034188319 15.852266
43900000000 0.081792369 15.456713 -43.028381 111.14943 -48.597488 90.287666 0.040768962 16.322218
44000000000 0.0011238233 16.664923 -44.16737 109.08691 -52.579277 78.14283 0.025692815 15.956785
44100000000 0.11839432 15.585156 -49.107613 143.4326 -51.588001 137.55472 0.043882068 15.779858
44200000000 -0.06103421 16.528419 -47.071926 91.756912 -56.447262 62.167141 0.042276062 15.80555
44300000000 0.14751014 15.831344 -46.130398 144.84354 -43.106441 121.82568 0.04610325 16.101557
44400000000 -0.068181776 16.032187 -50.301392 139.9821 -56.187069 117.78392 0.059192557 16.188196
44500000000 0.16999422 16.228806 -50.32547 178.8829 -50.388931 139.48007 0.067837432 16.217657
44600000000 -0.045042157 15.704327 -48.605194 104.19006 -47.284046 118.48196 0.043815441 16.287041
44700000000 0.12040351 16.862391 -45.952473 108.28708 -53.270061 130.14888 0.01049081 16.313169
44800000000 -0.014411825 15.510108 -50.970455 147.88513 -47.014862 86.135612 0.040532004 16.161205
44900000000 0.052724697 16.58145 -49.889782 90.232124 -51.479053 81.545189 0.043357734 15.981055
45000000000 0.028143989 15.626877 -44.410625 124.5672 -48.426159 110.72719 0.028625932 16.566559
