!Keysight Technologies,N5247B,MY61255062,A.19.80.06
!Date: Monday, May 18, 2026 11:34:01
!Correction: S11(C  2-Port  ) 
!S21(C  2-Port  ) 
!S12(C  2-Port  ) 
!S22(C  2-Port  ) 
!S2P File: Measurements: S11, S21, S12, S22:
# Hz S  dB   R 50
1000000000 -57.868378 27.528679 0.0025738555 -0.32393822 0.0038180547 -0.32723936 -60.653557 169.42767
1100000000 -57.339825 28.397373 0.003490614 -0.35718521 0.0031719434 -0.35825321 -60.188805 167.88338
1200000000 -57.357368 27.367685 0.0030162209 -0.38924834 0.0036028672 -0.39123446 -60.49189 162.24501
1300000000 -56.187801 26.20274 0.0028946395 -0.42319953 0.0035133753 -0.42501527 -59.991478 161.96732
1400000000 -56.725544 27.957453 0.0035671743 -0.45802337 0.0033162793 -0.4606483 -59.227352 160.35406
1500000000 -56.169613 32.655434 0.0034963044 -0.49124205 0.0035656223 -0.4912279 -59.356125 164.39357
1600000000 -56.764202 33.873688 0.0025252185 -0.52624309 0.0028656665 -0.52618217 -58.765392 161.45656
1700000000 -55.778957 37.603294 0.0031502149 -0.56085771 0.0035578629 -0.56406093 -59.203392 160.13573
1800000000 -55.687824 39.27354 0.0027849548 -0.59205276 0.0033245564 -0.59108055 -58.113712 159.11017
1900000000 -55.820091 41.408092 0.0031305559 -0.62157643 0.0039442652 -0.62321645 -58.386848 155.85562
2000000000 -55.392826 41.340443 0.0032174692 -0.65518796 0.0039654723 -0.6600883 -58.390415 153.30463
2100000000 -54.670582 41.957096 0.0041604703 -0.68812209 0.0044144196 -0.69314736 -58.374481 148.53209
2200000000 -54.75668 41.799404 0.003778225 -0.72105211 0.0040715067 -0.72305888 -57.781689 145.81674
2300000000 -54.562828 45.981758 0.0045680231 -0.75605232 0.0033809443 -0.75972337 -57.776722 138.90289
2400000000 -54.228737 46.526337 0.0042597759 -0.78815794 0.0039509898 -0.79250962 -57.98727 143.04964
2500000000 -54.203793 45.628853 0.00489952 -0.822142 0.0038149511 -0.82450873 -59.226082 139.3981
2600000000 -54.255104 43.148495 0.0035097541 -0.8668043 0.0039840932 -0.85829383 -59.399155 141.24258
2700000000 -53.063969 45.565609 0.0029303383 -0.89716107 0.0038749534 -0.89369392 -59.527126 143.2968
2800000000 -53.734512 42.64246 0.0031491802 -0.92619234 0.0027564983 -0.92814159 -58.371582 135.83673
2900000000 -52.961788 49.797138 0.0030219117 -0.96298718 0.0036075229 -0.96198851 -58.720005 137.4565
3000000000 -53.536316 50.70351 0.0027989242 -0.99236971 0.0036514923 -0.99101597 -58.09864 140.16629
3100000000 -53.286613 53.301426 0.0034688872 -1.0217104 0.0036007983 -1.0253986 -57.837219 142.02802
3200000000 -53.240097 50.519173 0.0032774797 -1.0599551 0.0043818364 -1.0575757 -58.542618 141.6133
3300000000 -53.182331 48.966351 0.0042975321 -1.0967293 0.0040446105 -1.0997094 -58.417377 126.42593
3400000000 -53.540203 49.428909 0.0042385701 -1.1324817 0.0043130484 -1.1328282 -58.721943 131.96217
3500000000 -53.743996 52.074158 0.0030120818 -1.1693693 0.0035485516 -1.1619819 -57.596813 136.34341
3600000000 -52.663067 57.382721 0.0030255334 -1.1882761 0.0031465935 -1.1971734 -57.844418 135.08018
3700000000 -53.024059 55.865246 0.0031310732 -1.2229722 0.0028961916 -1.2274337 -57.289124 139.83376
3800000000 -52.199844 55.417973 0.0036044193 -1.2561344 0.003781846 -1.2632209 -57.067394 132.69498
3900000000 -52.36908 56.546726 0.0046254294 -1.2932484 0.0040120245 -1.2959483 -58.012043 131.06496
4000000000 -51.892567 54.15387 0.0040782308 -1.3330836 0.0035071676 -1.3327111 -59.093903 128.17329
4100000000 -52.01841 54.803627 0.0022571874 -1.3725264 0.0025143528 -1.3714494 -57.792099 136.42372
4200000000 -51.210735 58.182079 0.0020170838 -1.3935415 0.0013877839 -1.395357 -56.764935 123.77103
4300000000 -51.078953 58.067654 0.0023508449 -1.4255359 0.0017479865 -1.4253856 -57.295204 125.48355
4400000000 -51.093536 61.539841 0.0026142136 -1.4586844 0.0022426988 -1.4523791 -56.18074 122.77023
4500000000 -51.104435 60.515751 0.0031486629 -1.4881135 0.0023146241 -1.4869572 -55.994152 125.89536
4600000000 -50.629982 61.747532 0.0027264897 -1.5207212 0.0019492937 -1.5195731 -55.52364 122.02845
4700000000 -50.214535 57.659939 0.0032593731 -1.5549849 0.0022504607 -1.5564566 -55.564339 121.00498
4800000000 -49.702511 59.280182 0.0031491802 -1.5914171 0.002355502 -1.5897928 -55.291183 120.07546
4900000000 -49.562901 57.276886 0.0029111954 -1.6260335 0.0031274518 -1.6209624 -56.161835 121.05323
5000000000 -49.793667 62.431141 0.0030265681 -1.6585428 0.0030012173 -1.6596644 -55.028522 113.65175
5100000000 -49.536396 60.028114 0.0032283333 -1.6917601 0.0023477403 -1.6870439 -55.753036 113.98919
5200000000 -49.380352 61.740273 0.0042716721 -1.7274619 0.0029981132 -1.7261425 -55.318707 111.77144
5300000000 -49.041698 58.633972 0.0041320226 -1.7564971 0.0031445243 -1.7539303 -54.760784 109.56529
5400000000 -48.987816 59.633167 0.0033266258 -1.7948498 0.0030296722 -1.7908841 -54.742958 105.79421
5500000000 -48.730961 59.350964 0.0036887366 -1.8313464 0.0036028672 -1.8292248 -54.727634 108.19852
5600000000 -48.55444 61.585037 0.003840297 -1.863979 0.0037513271 -1.8641311 -54.796173 111.17288
5700000000 -48.424622 60.335842 0.0034725084 -1.8971478 0.0043125316 -1.8960285 -54.967197 109.60345
5800000000 -48.750908 61.724781 0.0043880427 -1.9319903 0.003884264 -1.9315031 -54.678619 105.62406
5900000000 -48.299465 62.064461 0.0040011625 -1.9654707 0.0056358585 -1.9637389 -54.959896 100.01278
6000000000 -48.296612 61.47802 0.00430167 -2.0032465 0.0050205281 -2.0046203 -54.542892 97.484818
6100000000 -47.813057 59.091553 0.0041387468 -2.0432653 0.0040182313 -2.0386846 -53.818432 95.784157
6200000000 -47.635117 58.368114 0.0054357564 -2.0807338 0.0040689209 -2.078083 -53.410007 99.273956
6300000000 -47.206738 60.594845 0.0050567263 -2.1142938 0.0044082133 -2.1092989 -53.085026 101.45699
6400000000 -47.017265 62.213558 0.004240639 -2.1589253 0.0039530587 -2.157253 -52.361553 100.29933
6500000000 -46.827568 65.731583 0.0030131168 -2.1964545 0.0019161743 -2.1876872 -53.086887 93.505745
6600000000 -47.004883 64.712646 0.0017547142 -2.2231784 0.0016444831 -2.2205601 -53.418354 100.38483
6700000000 -47.192211 65.297722 0.0020025945 -2.2487416 0.0012283743 -2.2562449 -52.820614 102.9287
6800000000 -47.611549 63.116146 0.0010875922 -2.282373 -0.0001747338 -2.2867875 -52.702805 100.55451
6900000000 -47.153908 63.172859 0.0012682272 -2.3206306 0.0011352102 -2.3126779 -53.468292 91.35891
7000000000 -46.800831 60.280758 0.0018494175 -2.3535664 0.0022220006 -2.3438818 -53.762825 96.807205
7100000000 -46.71751 60.934433 0.00093800621 -2.3820767 0.0014980214 -2.3812191 -53.014198 92.119255
7200000000 -46.447823 60.659531 0.002068314 -2.4186664 0.0010063299 -2.413012 -52.994167 89.309235
7300000000 -46.744457 61.126629 0.0017671343 -2.4524312 0.001022893 -2.4458816 -52.090866 90.702988
7400000000 -46.052311 59.527996 0.0010280689 -2.4834881 0.00047472271 -2.481693 -52.805557 91.306793
7500000000 -46.374588 59.61512 0.00043072115 -2.5147729 0.0002474628 -2.5146019 -52.684769 88.568314
7600000000 -46.139339 57.302448 6.7302994e-05 -2.550626 -0.00056693971 -2.5471358 -52.875385 89.294319
7700000000 -45.87146 57.818283 -0.00061820092 -2.5798872 -0.00024281717 -2.5830557 -53.108829 82.300514
7800000000 -45.625359 61.366848 -0.00070570881 -2.6143584 -0.0013278943 -2.6203258 -52.575188 82.613754
7900000000 -46.060623 60.353287 -0.00081211876 -2.6518025 -0.0007813088 -2.6487443 -51.299374 80.75695
8000000000 -46.121532 60.71912 -0.00079943228 -2.6875546 -0.0011593284 -2.6775467 -51.709064 85.521965
8100000000 -46.092091 57.263332 -0.0011567391 -2.7237875 -0.001682396 -2.7220683 -52.331562 82.478569
8200000000 -45.891834 56.236794 -0.002033819 -2.7653077 -0.0016867984 -2.7635601 -53.300621 77.514107
8300000000 -45.004288 55.546921 -0.0019045894 -2.7970881 -0.0022252102 -2.7889099 -52.434765 64.68541
8400000000 -44.248264 57.114124 -0.0044287578 -2.8339672 -0.0043865209 -2.8296912 -49.406872 63.103031
8500000000 -44.031666 62.781349 -0.011395444 -2.8718338 -0.011191451 -2.8651297 -45.880554 76.76902
8600000000 -42.909191 84.656647 -0.031570584 -2.8195648 -0.03085541 -2.8053601 -41.661953 93.907318
8700000000 -36.256798 74.240685 -0.0037626019 -2.4667685 -0.0044233166 -2.4781346 -37.407455 82.712662
8800000000 -39.652103 38.976936 0.037142914 -2.8326476 0.036046855 -2.8422947 -40.174789 67.567078
8900000000 -43.600117 52.105259 0.014826994 -2.9993162 0.014700067 -2.9911699 -43.906311 79.051979
9000000000 -43.805637 63.146397 0.0051456694 -3.0315063 0.0038702982 -3.0296342 -46.978851 94.509865
9100000000 -44.101746 62.003036 0.00093541812 -3.0600562 -0.00074687443 -3.0574496 -50.682659 98.432465
9200000000 -44.710854 61.12212 -1.03544e-05 -3.0919738 -0.00058066106 -3.0891447 -53.924583 88.474754
9300000000 -44.914024 56.102554 -2.5627185e-05 -3.1221404 -0.0012577225 -3.121767 -52.872787 70.768082
9400000000 -44.698933 57.634045 0.00035669398 -3.1558695 -0.0017626744 -3.1457651 -51.533146 67.144012
9500000000 -44.28825 58.373043 -0.00044293152 -3.1792843 -0.00099853659 -3.1742373 -49.609043 67.334793
9600000000 -44.278435 58.578197 -0.0018784332 -3.2139144 -0.0023829392 -3.2053294 -49.743317 72.761009
9700000000 -43.929604 57.874645 -0.0016184334 -3.2421982 -0.0013962548 -3.2422981 -49.842957 75.563797
9800000000 -44.201694 56.702648 -0.0022161454 -3.279598 -0.00097678741 -3.2780859 -50.580429 76.485924
9900000000 -43.922901 58.137177 -0.0019408457 -3.3114278 -0.0017209812 -3.3106089 -50.451405 69.800835
10000000000 -43.79615 59.156658 -0.0017665589 -3.347085 -0.0015824386 -3.3436196 -50.769642 65.281441
10100000000 -43.432903 59.816399 -0.00089704146 -3.3856313 -0.0013789056 -3.3758276 -49.211132 70.227097
10200000000 -43.551086 59.025772 -0.0019905693 -3.4148176 -0.0026002473 -3.4195423 -49.1003 73.064285
10300000000 -43.390026 61.356075 -0.0023938173 -3.4588318 -0.0036325436 -3.451479 -48.981781 75.279732
10400000000 -43.779377 57.098625 -0.0035118156 -3.4960144 -0.003265966 -3.4888902 -49.544884 76.534889
10500000000 -43.606823 60.218582 -0.0031198617 -3.5367413 -0.005130522 -3.5233495 -50.041451 72.382393
10600000000 -43.620937 55.97887 -0.0028346619 -3.5779262 -0.0042605898 -3.5603805 -49.883476 64.643135
10700000000 -43.210026 58.350319 -0.0040538218 -3.6024961 -0.0039608055 -3.5966351 -48.784306 65.280907
10800000000 -42.692291 57.614491 -0.0046943678 -3.6251032 -0.0052624391 -3.6256182 -47.632286 60.080498
10900000000 -42.189774 58.027596 -0.0047938786 -3.6649458 -0.0053948788 -3.6552236 -47.527546 65.173363
11000000000 -42.208462 57.847221 -0.0056333323 -3.6935325 -0.0063083302 -3.6977301 -47.037712 67.030281
11100000000 -42.478455 59.37183 -0.0064799478 -3.7257597 -0.0081394408 -3.7332227 -47.657284 72.333076
11200000000 -42.467388 58.480232 -0.0061286837 -3.7609699 -0.0074797166 -3.7609806 -47.790611 69.275269
11300000000 -42.459114 58.420235 -0.007869211 -3.8028052 -0.0086514186 -3.7961471 -48.368744 66.514946
11400000000 -42.207218 56.470997 -0.0078087882 -3.8414316 -0.0076301163 -3.8337562 -47.709167 58.478195
11500000000 -41.983406 55.378765 -0.0081679691 -3.8681309 -0.0077312505 -3.8631692 -47.327389 57.498917
11600000000 -41.688679 54.192253 -0.0079244487 -3.9025297 -0.0088669648 -3.902806 -46.541531 56.242027
11700000000 -41.470753 54.893108 -0.0089087272 -3.9407942 -0.0091107972 -3.9358573 -46.496563 57.783443
11800000000 -41.419495 54.630547 -0.0093681328 -3.9746959 -0.010974491 -3.9678512 -46.288227 57.916458
11900000000 -41.578423 54.645897 -0.011663297 -4.0028248 -0.011288775 -3.999939 -46.254795 61.391857
12000000000 -41.468189 54.818329 -0.011796192 -4.0342641 -0.012292247 -4.0391798 -46.368862 57.649624
12100000000 -41.209488 53.399685 -0.012347281 -4.0760694 -0.014227947 -4.074388 -46.137241 57.033012
12200000000 -41.290581 52.997643 -0.013506794 -4.1066742 -0.014535453 -4.1067309 -46.040886 53.417675
12300000000 -41.14991 49.934883 -0.015528246 -4.1433353 -0.015374195 -4.1494484 -45.860126 52.521832
12400000000 -40.973392 49.776215 -0.016622085 -4.175262 -0.015897159 -4.1817241 -45.788452 49.843887
12500000000 -40.703289 48.505322 -0.017924661 -4.2145972 -0.017251235 -4.2036948 -45.59013 51.587139
12600000000 -40.699001 49.522564 -0.017967809 -4.2440591 -0.01845989 -4.2377553 -45.545872 48.749226
12700000000 -40.460972 47.96273 -0.01989278 -4.2706609 -0.02054763 -4.2627349 -45.406803 49.697655
12800000000 -40.631855 48.438152 -0.021042084 -4.3019171 -0.021464275 -4.2940946 -45.247822 44.783302
12900000000 -40.243519 46.749249 -0.022255439 -4.3366323 -0.022490917 -4.3337746 -44.777729 45.157448
13000000000 -40.563934 44.99995 -0.023989169 -4.3669124 -0.023518583 -4.3631153 -44.492519 40.887218
13100000000 -40.057072 43.381168 -0.025146848 -4.3892975 -0.025905611 -4.3890305 -44.777737 41.555515
13200000000 -40.217949 39.549824 -0.02818843 -4.4145317 -0.027634546 -4.42349 -44.778133 39.265934
13300000000 -39.924042 41.001488 -0.0288388 -4.4394846 -0.0279318 -4.4454618 -44.956043 38.120266
13400000000 -40.081787 38.986145 -0.030757384 -4.4769697 -0.028869549 -4.465055 -44.255005 32.275272
13500000000 -40.039875 40.842216 -0.031132026 -4.4854441 -0.030725319 -4.4843144 -44.301754 30.604719
13600000000 -40.09174 35.626289 -0.031525474 -4.5152249 -0.031805784 -4.4999261 -43.973507 27.059614
13700000000 -40.449764 37.152199 -0.032956161 -4.5333505 -0.034268342 -4.5249152 -44.158203 26.625549
13800000000 -40.220482 32.585037 -0.032290049 -4.5503306 -0.033502113 -4.5503607 -43.819382 26.542835
13900000000 -40.373951 33.25222 -0.033644289 -4.5726213 -0.03440845 -4.5717034 -44.499081 25.696848
14000000000 -40.060123 31.702057 -0.033391509 -4.5908499 -0.033332035 -4.5877404 -44.576874 24.463146
14100000000 -40.577293 32.587204 -0.033130139 -4.6198263 -0.034104753 -4.6038551 -45.17971 17.567415
14200000000 -40.448574 31.387529 -0.033086315 -4.6310854 -0.034259468 -4.634912 -44.319603 17.956774
14300000000 -41.038486 29.679792 -0.033600722 -4.6584167 -0.033605419 -4.6537671 -44.340473 16.280251
14400000000 -40.88681 29.953064 -0.03223215 -4.664341 -0.033052146 -4.674767 -43.923969 16.257118
14500000000 -41.210251 27.712597 -0.033196393 -4.698185 -0.033062581 -4.6969342 -44.554054 14.056774
14600000000 -41.262341 28.861853 -0.032929033 -4.72157 -0.031441513 -4.7134662 -44.631058 15.336097
14700000000 -41.345287 28.038292 -0.032147657 -4.7404666 -0.032184951 -4.7375808 -45.430836 12.159062
14800000000 -41.936878 29.932348 -0.030712023 -4.7652831 -0.031231102 -4.7608256 -45.04911 13.295651
14900000000 -42.181023 28.858812 -0.02949005 -4.7865248 -0.029541913 -4.7792296 -45.332111 8.516799
15000000000 -42.221413 29.207436 -0.027311523 -4.8139515 -0.027330019 -4.8090129 -45.663456 11.45551
15100000000 -42.319427 27.682646 -0.026810104 -4.8445983 -0.026284782 -4.8385496 -46.264168 8.7684574
15200000000 -42.192394 31.048592 -0.025642868 -4.8706398 -0.025203347 -4.8738399 -46.353214 11.330426
15300000000 -42.441826 30.665268 -0.024423359 -4.9075184 -0.024499634 -4.9031959 -46.159466 7.8651781
15400000000 -42.971043 35.632736 -0.021666929 -4.9333391 -0.023881149 -4.9271603 -45.812405 9.1252537
15500000000 -42.94434 33.973183 -0.020900583 -4.9692454 -0.022327771 -4.9590931 -45.868279 9.8560715
15600000000 -43.01754 36.02166 -0.020745302 -4.9996548 -0.022237485 -4.9959927 -45.939049 15.428808
15700000000 -42.504704 31.564146 -0.021723904 -5.0351882 -0.021408604 -5.0283499 -46.687859 12.027816
15800000000 -42.342876 33.261604 -0.021533212 -5.0716891 -0.021056131 -5.0608974 -47.318954 15.819201
15900000000 -42.074673 34.228279 -0.019831408 -5.1096907 -0.020766109 -5.1025243 -47.031696 13.51774
16000000000 -42.324497 37.007458 -0.020465963 -5.1401105 -0.019369073 -5.1382637 -46.490089 11.951401
16100000000 -41.987465 38.218529 -0.019661603 -5.168179 -0.020607451 -5.1710563 -45.854511 8.9506006
16200000000 -42.152184 36.945927 -0.018468469 -5.1991987 -0.020942461 -5.2011065 -45.743717 10.745084
16300000000 -41.502159 34.195255 -0.020927634 -5.23241 -0.020730214 -5.2240305 -45.345615 12.947422
16400000000 -41.729893 32.254436 -0.021929953 -5.264358 -0.02176683 -5.2641525 -45.329346 16.346388
16500000000 -41.116245 34.227314 -0.021001766 -5.2922411 -0.022503406 -5.2881885 -45.748394 13.018248
16600000000 -41.051811 32.672096 -0.020768451 -5.3178892 -0.022316063 -5.3142548 -45.931652 9.0005293
16700000000 -41.308228 36.789108 -0.023119355 -5.3466697 -0.022459172 -5.3471203 -45.803028 7.6671443
16800000000 -41.388081 33.99078 -0.021573015 -5.3744502 -0.022308258 -5.3755684 -45.149513 3.5032914
16900000000 -41.714508 34.955597 -0.020072216 -5.4029694 -0.021422131 -5.410655 -44.799255 3.01579
17000000000 -41.278225 29.871002 -0.019414058 -5.4339671 -0.021450747 -5.4255404 -45.06831 5.3152113
17100000000 -41.425266 30.121841 -0.019599715 -5.4553099 -0.0211209 -5.4485855 -45.345596 8.5402098
17200000000 -40.694256 29.583258 -0.019158985 -5.4838605 -0.020436835 -5.4814649 -46.269882 8.827322
17300000000 -41.761837 32.95607 -0.019936727 -5.4991927 -0.020923993 -5.5057125 -46.00135 2.8263943
17400000000 -41.607746 35.215851 -0.021010609 -5.5293341 -0.020708887 -5.5276527 -45.446198 -3.6383061
17500000000 -42.778 31.818157 -0.018136509 -5.5663342 -0.020566616 -5.5516558 -45.134777 -1.9553088
17600000000 -42.051197 29.08283 -0.018145608 -5.5947242 -0.016676916 -5.5746021 -45.318256 5.9488354
17700000000 -42.867241 27.193899 -0.018542299 -5.6234264 -0.017813412 -5.6089311 -44.859318 7.0564423
17800000000 -41.973896 30.022572 -0.016468257 -5.6324749 -0.016355745 -5.6359673 -46.491413 10.607401
17900000000 -42.084114 28.282686 -0.016475791 -5.6754417 -0.015126893 -5.6662364 -47.584408 1.6622703
18000000000 -42.965137 35.505642 -0.015753226 -5.7037215 -0.015222747 -5.7010531 -46.480053 -4.3880453
18100000000 -43.246128 33.582336 -0.014158086 -5.7388744 -0.014498053 -5.7286515 -45.412064 -8.6747131
18200000000 -43.447994 35.324627 -0.01361196 -5.7637525 -0.011716506 -5.7546301 -44.930809 -2.1570637
18300000000 -43.311058 32.795887 -0.011597631 -5.7916989 -0.012097037 -5.7964272 -45.249714 2.2264748
18400000000 -42.919132 33.470516 -0.0097165462 -5.8249831 -0.01093764 -5.8217955 -46.302391 10.921805
18500000000 -42.567539 33.468536 -0.011300973 -5.8660264 -0.011068176 -5.8523808 -46.990643 6.4303021
18600000000 -42.113438 34.047031 -0.010727181 -5.8999925 -0.010560066 -5.8969789 -48.362007 1.383922
18700000000 -42.38847 33.666794 -0.0090962704 -5.9426756 -0.0094262436 -5.9282098 -47.16217 -7.3195477
18800000000 -42.546227 36.289265 -0.009758316 -5.9633832 -0.010786087 -5.9607811 -46.046101 -5.9493508
18900000000 -42.580929 33.742874 -0.0079659419 -6.0114284 -0.0090290857 -5.9948411 -44.515797 -5.9838362
19000000000 -42.684975 35.180077 -0.0087390887 -6.0285788 -0.0093242917 -6.0044637 -44.807964 3.7484953
19100000000 -42.124706 32.877785 -0.0091338847 -6.0570884 -0.0093289614 -6.0465999 -44.829025 4.2399583
19200000000 -41.966145 32.329697 -0.0099962307 -6.090724 -0.010836172 -6.0771909 -46.399963 8.8646879
19300000000 -41.697571 31.024414 -0.0091844685 -6.1283674 -0.010110653 -6.1133032 -46.083961 -2.887044
19400000000 -42.539177 33.88245 -0.0099111302 -6.1484466 -0.0096854139 -6.1381378 -46.808594 -5.9270449
19500000000 -42.02874 34.026299 -0.0086737247 -6.1846638 -0.0088942014 -6.1809134 -44.60918 -10.58892
19600000000 -42.84856 33.229221 -0.0084602628 -6.2096572 -0.0095458385 -6.1966085 -45.068832 -11.043674
19700000000 -42.150982 30.167683 -0.0084485915 -6.2296805 -0.0071613006 -6.2199306 -43.937595 -3.4321587
19800000000 -42.802464 27.908224 -0.0076285605 -6.2611732 -0.0086521963 -6.2587075 -45.805958 -4.9032731
19900000000 -42.214115 33.370804 -0.0067840545 -6.2695704 -0.0068579456 -6.2734785 -45.381634 -0.42262113
20000000000 -42.65295 31.082138 -0.0069486904 -6.3081064 -0.0065050949 -6.2994089 -46.391422 -14.951092
20100000000 -42.738338 37.240665 -0.0063249213 -6.3324122 -0.0054721157 -6.323514 -45.782677 -13.477887
20200000000 -43.591732 33.549988 -0.0062549282 -6.3583779 -0.0058878702 -6.3442988 -44.789871 -19.190607
20300000000 -44.19363 34.093563 -0.0040178071 -6.3759065 -0.0052341893 -6.3742919 -44.971806 -8.6231537
20400000000 -43.993977 29.161848 -0.00077742519 -6.4152875 -0.0013620744 -6.396841 -45.497787 -11.745171
20500000000 -44.004917 29.428154 0.00095715764 -6.4334683 -0.0019618229 -6.4297996 -47.842529 -8.1361532
20600000000 -43.433525 29.754904 0.0023622287 -6.4720941 0.0019922447 -6.4622698 -48.310585 -30.061558
20700000000 -44.267109 32.896156 0.0039152992 -6.4899559 0.0037487408 -6.5011215 -47.564655 -29.741062
20800000000 -44.135521 37.879704 0.0031605619 -6.5238199 0.003645285 -6.5206685 -46.222443 -29.607811
20900000000 -44.931255 37.339062 0.0058240602 -6.5541601 0.0053452682 -6.5539031 -45.359112 -20.667875
21000000000 -45.471165 37.185688 0.0074446327 -6.5859623 0.0053928392 -6.5983281 -45.557922 -9.8449469
21100000000 -44.187412 36.497223 0.0075262915 -6.6199536 0.0081965588 -6.6242242 -46.914379 -10.963412
21200000000 -44.272217 37.227417 0.0078839185 -6.6595659 0.0075066523 -6.6576662 -49.184811 -12.184767
21300000000 -43.795662 39.469578 0.0098601533 -6.6824474 0.0096122045 -6.6838446 -49.316586 -27.257774
21400000000 -45.168781 40.872902 0.010784671 -6.7199788 0.0093880054 -6.7276568 -47.277031 -33.792393
21500000000 -45.026554 42.991119 0.01469594 -6.7585382 0.012045623 -6.7540493 -45.737541 -33.508404
21600000000 -45.284603 40.477806 0.016478768 -6.7854414 0.014006549 -6.7856684 -45.203918 -31.430691
21700000000 -45.309425 42.982475 0.016964585 -6.8050895 0.015563199 -6.8121786 -45.839928 -18.696102
21800000000 -44.816109 39.452839 0.019027416 -6.8376656 0.017453957 -6.8401804 -47.204578 -17.310923
21900000000 -44.696068 45.055168 0.021816682 -6.868134 0.020590512 -6.8648124 -48.720306 -8.3213387
22000000000 -43.713642 48.406109 0.022747928 -6.9193592 0.021758988 -6.9143596 -50.745743 -35.222378
22100000000 -44.907558 48.36932 0.022749474 -6.9513822 0.020695625 -6.9449134 -52.247471 -27.52014
22200000000 -44.321011 58.95422 0.022621749 -6.9998798 0.023157347 -6.998138 -49.410599 -40.619888
22300000000 -45.25705 54.622559 0.026805893 -7.0421438 0.025792144 -7.0343275 -48.304119 -25.486471
22400000000 -44.304691 60.994156 0.02741506 -7.0654254 0.027445925 -7.0624123 -48.606461 -10.577568
22500000000 -44.495907 54.070339 0.030581445 -7.1065741 0.029040452 -7.1077261 -49.028217 0.83738542
22600000000 -43.767147 60.43716 0.029703809 -7.1388526 0.030134166 -7.1338992 -52.134464 -3.4344044
22700000000 -43.094402 55.240791 0.029207587 -7.1765423 0.028722109 -7.1671233 -53.249397 -10.297927
22800000000 -43.992023 68.401581 0.029047139 -7.2151628 0.031204985 -7.2134218 -52.393959 -44.437435
22900000000 -43.561367 61.990387 0.03456533 -7.2523341 0.032349542 -7.2540383 -50.620659 -16.837278
23000000000 -45.153938 69.843712 0.033624284 -7.3063107 0.034424596 -7.3034215 -49.421314 -13.727876
23100000000 -42.394333 61.287685 0.039531715 -7.3200946 0.039879534 -7.3268404 -49.628269 11.312892
23200000000 -43.740643 65.554558 0.036951955 -7.3549347 0.03903405 -7.3622909 -53.61956 21.944702
23300000000 -41.652878 68.365227 0.041650519 -7.3941274 0.039232612 -7.3902326 -55.214828 63.924152
23400000000 -42.204445 69.442619 0.038139649 -7.4664683 0.038102183 -7.4484921 -61.647411 -4.9738188
23500000000 -41.423161 76.378571 0.039513245 -7.5052919 0.040364794 -7.5018153 -58.717751 -9.974287
23600000000 -42.36253 71.313278 0.042275038 -7.5820608 0.042356554 -7.5570374 -50.209846 -18.505106
23700000000 -41.84853 77.341393 0.042942014 -7.5846152 0.041446939 -7.5892973 -48.891315 22.55335
23800000000 -41.962128 67.282204 0.043591972 -7.6473608 0.042788222 -7.6368518 -47.45924 28.568865
23900000000 -41.011688 71.328987 0.042507797 -7.6736794 0.0418346 -7.6697903 -48.605457 53.81834
24000000000 -40.387402 65.05191 0.039593279 -7.720274 0.040303756 -7.7070813 -51.935852 59.250286
24100000000 -40.866745 68.526169 0.039248001 -7.7495003 0.037536602 -7.7498136 -57.913368 62.138649
24200000000 -40.895523 66.045471 0.039390631 -7.775074 0.041220278 -7.7753673 -54.242096 -2.8616285
24300000000 -41.29884 67.8955 0.042160701 -7.8313079 0.042529844 -7.8097229 -51.744904 -8.1291895
24400000000 -40.402473 67.564468 0.046711762 -7.8604455 0.043757524 -7.849606 -47.912106 16.40506
24500000000 -40.521057 64.973907 0.04713634 -7.9072309 0.045920882 -7.8976059 -47.469154 42.102261
24600000000 -39.872829 66.021225 0.047018036 -7.9388666 0.045852751 -7.934176 -46.596642 51.558422
24700000000 -39.798405 68.142838 0.044957191 -7.9791126 0.044384815 -7.9791322 -48.167645 62.885075
24800000000 -39.482342 68.661949 0.045314308 -8.0310612 0.04289639 -8.0263901 -50.241039 51.934483
24900000000 -40.008881 65.365265 0.043255728 -8.0885181 0.043645278 -8.0673828 -50.591621 47.604385
25000000000 -39.654659 64.205116 0.045817915 -8.1427584 0.04447142 -8.1273298 -48.812836 16.325121
25100000000 -39.726292 61.504585 0.044348944 -8.1650229 0.044588257 -8.1636705 -46.594723 32.668419
25200000000 -39.235149 60.852261 0.044492431 -8.2008162 0.042799503 -8.1854963 -45.126244 26.97345
25300000000 -39.081478 61.165936 0.040867947 -8.2355585 0.039101776 -8.2215357 -45.585636 45.09856
25400000000 -38.384781 61.506184 0.042849742 -8.2676878 0.040623814 -8.2522211 -45.573208 38.591179
25500000000 -38.79673 62.63084 0.040609967 -8.297143 0.039756417 -8.2936926 -47.099594 41.097309
25600000000 -39.063778 63.587742 0.039412692 -8.3375702 0.041112579 -8.3324003 -45.443165 33.188942
25700000000 -39.493584 61.551662 0.040319141 -8.3761244 0.039974436 -8.3847971 -46.932293 27.405682
25800000000 -39.30312 61.47496 0.041647956 -8.427309 0.040503282 -8.4067774 -45.239655 41.552574
25900000000 -38.974777 57.115936 0.043513041 -8.4508142 0.04241449 -8.4609718 -45.857719 30.643597
26000000000 -38.629551 60.535324 0.043862078 -8.5003233 0.043837991 -8.488637 -44.780754 35.832817
26100000000 -38.534142 57.472244 0.044821918 -8.5441236 0.041411556 -8.5097818 -44.52108 24.501383
26200000000 -38.926441 59.981522 0.041673079 -8.5798616 0.039404996 -8.5653181 -45.495365 35.36755
26300000000 -38.466572 59.795597 0.037483737 -8.6060877 0.038390592 -8.5946703 -44.139313 32.208748
26400000000 -38.800774 56.19648 0.036875982 -8.6538725 0.035112809 -8.6437416 -45.348949 30.495087
26500000000 -38.069916 61.983585 0.04104745 -8.6710415 0.038001597 -8.6838369 -43.797676 29.128422
26600000000 -38.801159 56.768036 0.039609697 -8.731039 0.036045317 -8.6852379 -44.781303 19.822008
26700000000 -37.847652 61.554916 0.032956902 -8.7532454 0.037187058 -8.7395802 -44.323307 35.194096
26800000000 -38.61174 51.416351 0.040086262 -8.7626038 0.038642034 -8.7483673 -43.207287 28.287773
26900000000 -37.979218 63.152744 0.033314496 -8.7935143 0.030151132 -8.7999744 -45.234093 21.473209
27000000000 -38.470009 51.689995 0.034559164 -8.8321171 0.033750661 -8.8108511 -43.750507 29.644196
27100000000 -39.33744 60.02985 0.034834456 -8.8180943 0.029912051 -8.8173418 -43.65139 27.308395
27200000000 -37.748524 58.788067 0.041736152 -8.9121437 0.03369261 -8.9139709 -42.883907 23.934767
27300000000 -38.80788 60.891083 0.036177266 -8.9095459 0.039737947 -8.9143066 -44.554543 24.573965
27400000000 -37.554504 58.887241 0.042256579 -8.9745693 0.036093067 -8.9528084 -42.840317 32.325993
27500000000 -39.125229 64.498047 0.024304025 -9.0139961 0.040093958 -8.9381876 -44.626362 18.700211
27600000000 -37.965183 61.626987 0.03627225 -9.0480499 0.035323873 -9.0378847 -43.231182 29.322451
27700000000 -38.964634 56.447582 0.043923579 -9.0972052 0.039982643 -9.093111 -44.429268 30.626186
27800000000 -37.298531 53.915413 0.042048927 -9.1295815 0.033332478 -9.0845556 -45.026947 42.549576
27900000000 -38.214146 55.641918 0.034632612 -9.1088047 0.037144966 -9.1271563 -45.561695 15.536146
28000000000 -37.128601 60.538139 0.028794626 -9.2021713 0.029926447 -9.1422987 -43.421764 23.887413
28100000000 -39.035519 58.417694 0.040716648 -9.1623402 0.032972831 -9.2118187 -43.474171 13.526056
28200000000 -38.177078 58.513119 0.031758029 -9.2181997 0.039761547 -9.2513409 -43.58477 24.894747
28300000000 -38.043339 47.312023 0.034106646 -9.3174028 0.03807909 -9.2889318 -44.886589 7.6913419
28400000000 -38.087379 48.866062 0.044703037 -9.2904139 0.036329754 -9.2966719 -44.683685 33.931503
28500000000 -37.63652 47.981903 0.037372354 -9.3546915 0.044690229 -9.3386841 -44.514271 10.566739
28600000000 -36.730988 55.553337 0.038499892 -9.3607445 0.040807944 -9.3977184 -44.392502 15.986703
28700000000 -37.916714 54.110638 0.042700559 -9.4132576 0.046531472 -9.4559984 -42.955414 27.340387
28800000000 -37.838459 59.663998 0.045274347 -9.4466486 0.033394642 -9.5109091 -43.474049 19.921387
28900000000 -37.085361 48.436241 0.040161155 -9.4791737 0.04231913 -9.5238123 -44.185692 27.336445
29000000000 -37.88504 55.378738 0.045717508 -9.5054789 0.038728241 -9.5677538 -43.956043 15.52049
29100000000 -37.641808 49.753716 0.046499204 -9.6132097 0.037156258 -9.6276789 -43.352066 2.5769963
29200000000 -37.319653 51.308437 0.040586375 -9.6066771 0.043994818 -9.6220484 -42.328789 21.032347
29300000000 -36.700809 50.447968 0.041998681 -9.6441021 0.039666642 -9.5939865 -42.175312 22.080929
29400000000 -37.547646 57.667793 0.042541124 -9.6214771 0.038261272 -9.6371489 -41.365532 40.073833
29500000000 -36.867767 55.559711 0.043632977 -9.7613592 0.041565396 -9.6516123 -41.536484 28.164249
29600000000 -38.232533 51.616955 0.032544296 -9.7254906 0.037750628 -9.7478952 -44.834587 27.280058
29700000000 -37.441315 55.44516 0.035446603 -9.775547 0.041910488 -9.7777719 -41.705502 15.354479
29800000000 -38.117825 51.730366 0.033442423 -9.7913055 0.044057857 -9.8497152 -42.808914 17.707045
29900000000 -36.501152 59.315338 0.046046391 -9.8724947 0.039692804 -9.8791761 -41.925663 12.861587
30000000000 -37.475582 55.228485 0.044920299 -9.9227791 0.036734812 -9.8841581 -42.501888 26.181826
30100000000 -36.767967 59.908028 0.03930803 -9.9031277 0.043508429 -9.9437904 -41.109604 39.600819
30200000000 -36.573261 52.751255 0.047432855 -9.954051 0.041381303 -9.9585447 -43.100521 31.007854
30300000000 -37.915874 63.15641 0.043132193 -9.9550381 0.038402393 -10.00849 -41.189236 29.686533
30400000000 -37.062717 52.825306 0.039677411 -10.002358 0.040234506 -10.058314 -43.752716 19.978605
30500000000 -38.225723 47.407768 0.040928468 -10.121423 0.04117566 -10.089581 -42.104065 24.846344
30600000000 -36.640686 52.895702 0.051689867 -10.130429 0.042784635 -10.15263 -41.261658 15.990221
30700000000 -37.202309 56.991535 0.050826211 -10.136898 0.044948991 -10.185882 -40.598175 22.67255
30800000000 -36.903637 53.781544 0.034126166 -10.140481 0.032354165 -10.190084 -40.357254 35.162663
30900000000 -38.039547 55.137539 0.036878549 -10.200375 0.034249958 -10.176893 -41.402313 24.207872
31000000000 -36.216518 54.23167 0.050756618 -10.25176 0.0263397 -10.255116 -40.437916 41.11792
31100000000 -37.258583 46.247116 0.038792379 -10.236264 0.033417761 -10.282484 -41.769547 17.857738
31200000000 -37.112808 51.955154 0.036658835 -10.39425 0.041232582 -10.343292 -39.007015 18.954653
31300000000 -36.356209 49.633598 0.045884512 -10.413577 0.047003184 -10.361732 -41.231525 18.210495
31400000000 -36.061604 46.969139 0.047893204 -10.405644 0.041803837 -10.416272 -40.793137 38.250214
31500000000 -36.481495 51.860645 0.054179594 -10.384079 0.035858419 -10.454703 -39.833927 29.184546
31600000000 -36.256111 53.890106 0.034721978 -10.445246 0.036229637 -10.477902 -41.836014 26.989504
31700000000 -36.532005 52.651039 0.031590477 -10.484971 0.035833258 -10.49008 -41.114643 22.810272
31800000000 -36.991528 55.785606 0.034282319 -10.54265 0.03571054 -10.666535 -40.559372 14.472657
31900000000 -36.312222 43.300217 0.043466397 -10.576255 0.043887191 -10.632071 -39.033703 23.360266
32000000000 -36.130497 45.648624 0.040963855 -10.567313 0.041426428 -10.614141 -40.247028 18.224699
32100000000 -35.175106 50.713989 0.043577109 -10.648621 0.039917495 -10.624848 -38.915604 17.818768
32200000000 -36.173206 54.014183 0.038454738 -10.619686 0.030066298 -10.674719 -39.498119 27.045115
32300000000 -36.539124 52.681549 0.027190747 -10.702608 0.016202828 -10.729938 -40.631767 27.36397
32400000000 -36.707485 55.877472 0.038346972 -10.733125 0.022899341 -10.74954 -40.585327 30.110903
32500000000 -36.547546 46.531467 0.032489315 -10.842397 0.033634558 -10.782281 -39.89201 24.720688
32600000000 -36.605709 52.665768 0.033625826 -10.827276 0.028009221 -10.778903 -40.811012 28.02442
32700000000 -34.97274 47.160492 0.032302264 -10.821755 0.028796168 -10.799735 -41.238071 10.313228
32800000000 -35.79829 47.504887 0.046758883 -10.869019 0.027392937 -10.886147 -41.138157 13.815445
32900000000 -35.477623 51.14798 0.047307901 -10.969152 0.032309458 -10.894959 -39.233242 23.459841
33000000000 -36.713165 54.950653 0.040742293 -10.922846 0.040226813 -10.932247 -38.856365 21.565256
33100000000 -35.001358 53.581772 0.04069921 -10.918078 0.030990638 -10.956836 -39.192059 24.975225
33200000000 -36.901649 42.238842 0.03806318 -11.013659 0.037063349 -11.026282 -41.640129 26.673504
33300000000 -34.975224 45.475536 0.039338298 -11.044108 0.032596711 -11.035116 -41.434956 21.435719
33400000000 -35.710014 49.501415 0.042153522 -11.051617 0.033964872 -11.13294 -38.990307 1.7677255
33500000000 -35.91647 50.531235 0.042194542 -11.13812 0.033806652 -11.101396 -39.311306 24.377819
33600000000 -35.1991 45.837048 0.047101002 -11.159741 0.034719925 -11.145313 -39.565189 11.325111
33700000000 -36.174297 50.529274 0.036614172 -11.132341 0.031701494 -11.254667 -39.087322 26.436562
33800000000 -36.286995 43.816166 0.038699504 -11.226544 0.027184574 -11.208366 -39.389175 18.23123
33900000000 -36.467297 50.435719 0.040425319 -11.289313 0.037233256 -11.277472 -38.91711 5.7657962
34000000000 -35.407921 41.912216 0.038240232 -11.266001 0.03317064 -11.280786 -38.277481 16.019388
34100000000 -34.613235 48.459358 0.036361583 -11.346822 0.03976411 -11.26283 -37.973789 10.048999
34200000000 -34.312538 43.521534 0.020998588 -11.347784 0.044185977 -11.355201 -38.229553 18.505325
34300000000 -34.991058 55.319721 0.035548791 -11.333025 0.030795813 -11.435258 -38.450504 13.716653
34400000000 -36.011429 51.709343 0.026894907 -11.463451 0.018874321 -11.437685 -39.153336 6.0730991
34500000000 -35.722244 55.626102 0.014607708 -11.483791 0.024744183 -11.4423 -38.529152 9.7996492
34600000000 -35.678299 47.307697 0.031310871 -11.546824 0.019092876 -11.528359 -38.468815 0.074828789
34700000000 -35.646973 43.77375 0.027130552 -11.490983 0.014696456 -11.55968 -37.592701 8.0435438
34800000000 -35.700199 40.959442 0.021890344 -11.558798 0.029969124 -11.49363 -37.803841 13.256247
34900000000 -35.976749 44.052422 0.02652855 -11.658086 0.017364752 -11.664524 -37.091938 17.788725
35000000000 -35.556599 40.037304 0.030573733 -11.555698 0.036143895 -11.625274 -38.193432 25.714771
35100000000 -34.836983 42.354149 0.018598018 -11.715492 0.014239798 -11.657891 -41.284622 19.20677
35200000000 -35.749653 45.881283 0.026928864 -11.708521 0.023430269 -11.631463 -38.163715 12.042684
35300000000 -35.801266 43.956375 0.022552218 -11.625528 0.012952126 -11.78222 -39.022541 9.6246881
35400000000 -34.775307 48.611778 0.024032187 -11.73688 0.02478279 -11.676775 -35.772663 1.8219863
35500000000 -35.088924 46.687424 0.027856445 -11.735227 0.024761684 -11.707329 -39.845337 11.785649
35600000000 -37.222637 50.532944 0.029893542 -11.770994 0.032599792 -11.808039 -38.158726 20.728558
35700000000 -36.982964 46.107239 0.020224655 -11.841008 0.030074526 -11.893881 -37.793438 -1.2739611
35800000000 -36.348358 38.875679 0.024364775 -11.844983 0.033474788 -11.895741 -40.123119 30.958799
35900000000 -34.670101 38.431099 0.036616739 -11.852628 0.024146484 -11.982617 -40.837254 5.0575333
36000000000 -35.498425 43.568298 0.028487064 -11.984548 0.025649583 -11.888972 -40.626953 28.391562
36100000000 -34.049809 50.795807 0.037186544 -12.035043 0.018984117 -12.006352 -38.178604 3.4971013
36200000000 -36.206726 47.384403 0.034568924 -12.013453 0.028898513 -11.969305 -39.532715 10.833363
36300000000 -35.040001 47.192081 0.035041939 -11.962379 0.047204453 -12.085595 -36.969845 14.721706
36400000000 -36.536743 54.383755 0.041881263 -12.078578 0.024359111 -12.134943 -38.962967 -12.281699
36500000000 -36.550449 42.086113 0.035180084 -12.184174 0.045005865 -12.096447 -37.178429 13.659716
36600000000 -35.88792 29.314274 0.045256928 -12.175965 0.040440194 -12.089701 -37.055416 1.8555547
36700000000 -34.928642 46.309868 0.034507804 -12.095369 0.037115708 -12.237847 -37.613247 13.697656
36800000000 -34.959698 34.578465 0.05646655 -12.147724 0.023849405 -12.218474 -39.221615 15.105402
36900000000 -34.339592 55.120453 0.038279746 -12.23478 0.040488921 -12.32754 -38.988544 18.614256
37000000000 -35.297119 42.321491 0.02666954 -12.169718 0.030246761 -12.308027 -39.709526 5.3545561
37100000000 -36.445995 46.309971 0.019907724 -12.356034 0.029613825 -12.271276 -38.595524 2.9319818
37200000000 -36.233261 36.201477 0.040649459 -12.324332 0.039618418 -12.425928 -36.894943 -5.1891346
37300000000 -36.327171 48.56815 0.027913542 -12.383973 0.031911697 -12.378901 -37.797356 -4.6571245
37400000000 -33.527756 41.912064 0.042023804 -12.465098 0.050903477 -12.465963 -36.753845 -0.35745457
37500000000 -35.100582 51.072315 0.020449325 -12.33364 0.050414786 -12.467044 -35.888126 15.255257
37600000000 -34.813717 50.169605 0.039284941 -12.399125 0.058149051 -12.430713 -36.326633 4.0711784
37700000000 -37.677013 43.05439 0.032776553 -12.497277 0.022154592 -12.539889 -37.48661 11.975327
37800000000 -34.383175 38.190262 0.027649647 -12.558701 0.036831833 -12.556104 -38.121334 1.5435814
37900000000 -35.007034 33.228477 0.021678627 -12.599185 0.043544307 -12.581547 -38.543922 1.7838368
38000000000 -34.73077 39.905991 0.041256689 -12.637635 0.024292184 -12.563092 -37.747147 -8.0544901
38100000000 -35.260441 48.104881 0.058927491 -12.754442 0.038224835 -12.562267 -37.325592 -4.0470042
38200000000 -34.429588 41.129665 0.036298435 -12.67675 0.04688539 -12.771852 -35.820229 4.8770714
38300000000 -35.989456 34.905949 0.024927439 -12.802092 0.035432737 -12.620457 -37.907146 12.68746
38400000000 -36.463215 36.244701 0.045763101 -12.785418 0.040865898 -12.663623 -35.010349 28.554613
38500000000 -37.728153 38.060581 0.051786046 -12.885587 0.049132679 -12.780541 -38.808437 7.9734964
38600000000 -33.938061 47.04007 0.027052863 -12.810904 0.04541729 -12.776192 -38.617073 -0.45808554
38700000000 -33.97625 41.645493 0.043604277 -12.862551 0.037161905 -12.908019 -39.569294 -20.43453
38800000000 -33.452953 55.021191 0.044152156 -12.856708 0.050159931 -12.88711 -36.271149 6.4096022
38900000000 -36.439655 41.631271 0.057437912 -12.907711 0.045208253 -12.890616 -35.961914 -2.7496567
39000000000 -33.887238 47.084217 0.031082135 -12.84075 0.032527339 -12.968295 -37.811779 40.317074
39100000000 -33.211014 41.875923 0.061830599 -13.097843 0.042220689 -13.157063 -37.008793 -8.707571
39200000000 -36.697788 42.881451 0.050786808 -13.044477 0.042082258 -12.998895 -37.545559 19.063395
39300000000 -33.18058 42.571762 0.078845128 -13.21188 0.042317078 -13.098032 -34.024368 -19.050737
39400000000 -33.740761 44.874836 0.046953507 -13.022191 0.023587836 -13.016972 -38.406582 -15.695274
39500000000 -32.960903 48.526089 0.061477389 -13.063752 0.029664217 -13.223634 -34.65303 1.3143804
39600000000 -35.152992 51.704613 0.042120196 -13.131186 0.03305966 -13.287969 -37.598511 6.4926696
39700000000 -35.471405 50.177505 0.041449506 -13.186916 0.048532184 -13.185614 -35.454975 5.0808034
39800000000 -35.755981 29.933455 0.050675258 -13.32688 0.040069848 -13.333643 -38.803474 -5.2891374
39900000000 -35.678772 44.173054 0.045462374 -13.386672 0.046547864 -13.234471 -36.38961 12.350988
40000000000 -34.137394 26.554716 0.038974017 -13.369711 0.070124343 -13.374947 -37.651039 -28.893486
40100000000 -34.537148 54.505383 0.048488155 -13.29369 0.038803153 -13.367354 -35.314167 -1.6343008
40200000000 -34.826488 37.61129 0.065329522 -13.331291 0.055196449 -13.336913 -37.069881 -14.021545
40300000000 -36.755795 47.571304 0.068974413 -13.438748 0.044621564 -13.474615 -35.838776 8.5208883
40400000000 -34.511562 27.21755 0.023734584 -13.374304 0.06399212 -13.515108 -38.428806 15.33533
40500000000 -34.622974 29.833286 0.022614539 -13.543984 0.031256385 -13.554193 -41.200756 9.9022999
40600000000 -33.823273 36.507469 0.046235923 -13.503188 0.043543793 -13.54939 -36.895195 -5.5799479
40700000000 -34.282063 34.036171 0.063824281 -13.528184 0.050406598 -13.708781 -36.941124 -15.177418
40800000000 -35.166519 56.837891 0.040731523 -13.631248 0.063820705 -13.622149 -34.561916 -6.3430171
40900000000 -35.544518 39.687538 0.056470126 -13.587099 0.068278298 -13.602969 -34.547802 10.748222
41000000000 -36.415718 38.284321 0.053777691 -13.544446 0.044752743 -13.63865 -35.662743 15.780741
41100000000 -34.941692 38.739361 0.055283349 -13.679527 0.051395688 -13.704349 -35.791695 4.223165
41200000000 -34.99892 21.658653 0.040673565 -13.670325 0.044459634 -13.745843 -40.052681 8.6264896
41300000000 -33.950733 45.163517 0.044096295 -13.517133 0.052507829 -13.80683 -35.216156 1.8377292
41400000000 -36.464245 42.252014 0.043012757 -13.80213 0.020250419 -13.821027 -38.089569 2.2854066
41500000000 -34.804779 46.203377 0.026035568 -13.821393 0.068271168 -13.883781 -35.729736 8.8717623
41600000000 -34.591095 22.042936 0.036935017 -13.971742 0.0700031 -13.904787 -35.479458 -1.9291577
41700000000 -35.30867 44.732037 0.042080719 -13.78727 0.031518523 -13.849432 -35.148174 16.97753
41800000000 -34.632233 36.911655 0.041432068 -14.020758 0.052651044 -13.93062 -35.961319 -6.6846647
41900000000 -37.088947 47.790115 0.04732224 -14.058553 0.031685047 -14.054731 -35.50098 3.3041673
42000000000 -32.957699 38.145439 0.059262015 -13.948436 0.04440685 -14.02903 -35.539978 -3.6891415
42100000000 -37.253025 30.147343 0.057593226 -13.880803 0.05014253 -14.101963 -35.772385 16.622301
42200000000 -33.535271 39.319057 0.074280806 -13.910069 0.035052724 -14.208669 -33.982666 3.3322566
42300000000 -35.119137 43.855499 0.042572394 -14.168753 0.03482521 -14.207406 -36.461998 -2.3863726
42400000000 -33.07291 47.841877 0.04505403 -14.132531 0.020787342 -14.09974 -36.741016 3.3791757
42500000000 -34.207451 36.660023 0.071370222 -14.260127 0.033536434 -14.104511 -35.497036 1.1692628
42600000000 -34.842972 39.933784 0.064247698 -14.209369 0.04855727 -14.200408 -35.664131 7.0206723
42700000000 -32.503571 50.180927 0.066182651 -14.256567 0.053996544 -14.363292 -34.663544 -15.586741
42800000000 -34.998482 40.441853 0.036139276 -14.230947 0.059545957 -14.311137 -36.682022 4.5574832
42900000000 -31.919239 44.733963 0.061162435 -14.41498 0.068072908 -14.377678 -34.848984 -8.8672476
43000000000 -37.581829 39.453918 0.091775954 -14.722029 0.055859402 -14.386055 -34.43116 -1.8579502
43100000000 -34.25621 52.464558 0.071025431 -14.565727 0.0507208 -14.609138 -34.917747 -10.546328
43200000000 -34.671894 29.787245 0.048737478 -14.276091 0.060775474 -14.68972 -36.547096 14.0183
43300000000 -31.817209 49.538738 0.058372792 -14.369061 0.039128456 -14.517724 -38.509319 2.2065387
43400000000 -32.080128 39.997364 0.06105268 -14.46424 0.055405006 -14.567643 -35.711269 -11.120133
43500000000 -36.019337 29.688961 0.098761909 -14.472392 0.027660964 -14.586554 -38.558968 4.8581409
43600000000 -31.175489 44.70298 0.0674266 -14.588342 0.064578243 -14.763908 -35.664604 -37.020027
43700000000 -34.055511 49.025009 0.042250939 -14.679319 0.055052806 -14.927716 -33.631096 -14.165979
43800000000 -33.055141 41.343731 0.05841672 -14.649637 0.064496115 -14.747915 -33.106682 -2.5732505
43900000000 -33.623962 26.502846 0.065401427 -14.95549 0.07219518 -14.794869 -35.623821 3.0871584
44000000000 -32.716297 45.972084 0.040166285 -14.755294 0.067184977 -14.686361 -38.011803 -9.2075396
44100000000 -31.52631 35.523407 0.08345899 -14.716782 0.060829591 -14.934926 -33.972321 -21.710484
44200000000 -32.122978 45.054249 0.039480925 -14.843068 0.034589469 -15.02817 -38.029503 -44.845715
44300000000 -33.289452 32.787857 0.06568446 -15.071052 0.04835299 -14.862753 -33.106045 -9.6949253
44400000000 -35.03194 50.612202 0.049387082 -14.854654 0.024718443 -15.042831 -37.618797 -17.99234
44500000000 -30.836412 33.417702 0.068149865 -14.703992 0.060158204 -14.856319 -32.87846 -10.532257
44600000000 -33.807018 28.305279 0.045902442 -15.01121 0.073926575 -15.079907 -35.649925 -6.7644138
44700000000 -30.906038 34.020847 0.035237085 -14.950458 0.063829891 -14.797859 -35.100052 6.0747728
44800000000 -34.918877 14.339964 0.068695165 -15.000125 0.062323108 -15.237739 -35.758461 -5.9257712
44900000000 -33.308807 33.432373 0.070942916 -15.067589 0.05001663 -15.194542 -34.071075 -8.1691647
45000000000 -34.480976 33.061138 0.025671713 -15.057203 0.050160442 -15.285707 -34.728607 -14.864599
