!Keysight Technologies,N5247B,MY61255062,A.19.80.06
!Date: Monday, May 18, 2026 12:27:11
!Correction: S11(Cdelta 2-Port  ) 
!S21(Cdelta 2-Port  ) 
!S12(Cdelta 2-Port  ) 
!S22(Cdelta 2-Port  ) 
!S2P File: Measurements: S11, S21, S12, S22:
# Hz S  dB   R 50
1000000000 -23.894445 25.628828 -0.402403 -18.417574 -0.39974707 -18.424326 -24.274738 26.551065
1100000000 -23.570694 25.335558 -0.41265181 -20.216249 -0.41013017 -20.222433 -23.969225 27.029587
1200000000 -23.178886 25.392597 -0.42281619 -21.982382 -0.42066333 -21.986752 -23.567755 27.692232
1300000000 -22.80628 25.178946 -0.42875278 -23.78252 -0.42791286 -23.789228 -23.178482 27.347271
1400000000 -22.444016 25.213991 -0.43968961 -25.525953 -0.43800336 -25.52742 -22.795431 27.873468
1500000000 -22.107853 24.658073 -0.44372368 -27.290794 -0.4412722 -27.300564 -22.389263 27.424936
1600000000 -21.75832 24.287088 -0.44930428 -29.075056 -0.44537887 -29.076424 -22.076929 26.675644
1700000000 -21.447374 23.44183 -0.45256236 -30.829538 -0.44977024 -30.836905 -21.742899 26.271414
1800000000 -21.133055 22.475849 -0.45507172 -32.613083 -0.45314559 -32.608925 -21.437489 25.373663
1900000000 -20.86109 21.512966 -0.45798463 -34.388836 -0.4558686 -34.391125 -21.164396 24.340811
2000000000 -20.608913 20.523401 -0.46510574 -36.183784 -0.463884 -36.186245 -20.913506 23.479866
2100000000 -20.338644 19.364994 -0.46854958 -37.950245 -0.46860263 -37.95454 -20.642393 22.728102
2200000000 -20.129877 18.3936 -0.47351319 -39.722031 -0.47275659 -39.730782 -20.402327 21.703297
2300000000 -19.889944 17.276218 -0.47776288 -41.505878 -0.47671235 -41.52174 -20.187445 20.761349
2400000000 -19.69137 16.171101 -0.48484185 -43.282955 -0.4850271 -43.279922 -19.981733 19.685522
2500000000 -19.491133 14.999692 -0.48960999 -45.076641 -0.48857746 -45.070927 -19.771526 18.44902
2600000000 -19.303623 13.897735 -0.49711901 -46.831635 -0.49432477 -46.832439 -19.611036 17.367727
2700000000 -19.122515 12.667563 -0.50053197 -48.588326 -0.5016278 -48.590034 -19.445517 16.446194
2800000000 -18.983921 11.547871 -0.50923187 -50.362679 -0.50729966 -50.368389 -19.267977 15.189287
2900000000 -18.80176 10.500283 -0.51198798 -52.125668 -0.51143461 -52.127979 -19.118706 14.06516
3000000000 -18.661345 9.2071314 -0.51709276 -53.885078 -0.51631981 -53.886963 -18.947035 13.157762
3100000000 -18.511419 8.0094013 -0.5217858 -55.647526 -0.52314603 -55.640312 -18.810068 12.209574
3200000000 -18.360115 6.5537519 -0.52710849 -57.410507 -0.52500933 -57.408581 -18.650934 11.00773
3300000000 -18.224102 5.3086834 -0.53055418 -59.159534 -0.52973467 -59.159294 -18.513786 9.776803
3400000000 -18.082699 4.0005183 -0.53549546 -60.906368 -0.53344822 -60.919182 -18.401241 8.5874863
3500000000 -17.971367 2.6668544 -0.53913689 -62.663605 -0.53669423 -62.666222 -18.237133 7.3448124
3600000000 -17.837563 1.3309685 -0.53818625 -64.409355 -0.53893727 -64.41803 -18.092058 6.1618948
3700000000 -17.73954 -0.02426653 -0.54259974 -66.179237 -0.54248774 -66.173393 -17.971043 4.6270866
3800000000 -17.607517 -1.411665 -0.54362679 -67.933548 -0.54369539 -67.954498 -17.863523 3.4272375
3900000000 -17.526937 -2.8185761 -0.54620278 -69.699371 -0.54607803 -69.709663 -17.766743 1.9868643
4000000000 -17.393665 -4.2563276 -0.55015665 -71.455994 -0.54988664 -71.463356 -17.651093 0.63574219
4100000000 -17.324368 -5.7225175 -0.55326551 -73.227394 -0.55493182 -73.223473 -17.575321 -0.73221707
4200000000 -17.223177 -7.0039034 -0.55512244 -74.975128 -0.55643308 -74.978447 -17.486471 -1.9888479
4300000000 -17.151436 -8.5948763 -0.55787307 -76.72184 -0.55717784 -76.728798 -17.397278 -3.4516931
4400000000 -17.081789 -9.8210058 -0.55988681 -78.481049 -0.55968863 -78.481194 -17.300144 -4.6580315
4500000000 -16.99736 -11.345149 -0.56150794 -80.240273 -0.56187677 -80.241989 -17.23193 -6.263886
4600000000 -16.946251 -12.725859 -0.56213337 -81.993385 -0.56304091 -82.011963 -17.202707 -7.5001693
4700000000 -16.88485 -14.340068 -0.56500345 -83.762802 -0.56331646 -83.756744 -17.122793 -9.2238636
4800000000 -16.850748 -15.726399 -0.56583726 -85.509109 -0.565548 -85.516853 -17.074579 -10.535935
4900000000 -16.779261 -17.119152 -0.56955761 -87.274223 -0.56779307 -87.285385 -17.018925 -12.021989
5000000000 -16.763126 -18.641869 -0.5694567 -89.036118 -0.57056206 -89.046478 -16.978096 -13.38733
5100000000 -16.705158 -20.097626 -0.5747084 -90.796387 -0.57293177 -90.804611 -16.922663 -14.81862
5200000000 -16.691227 -21.556177 -0.5739556 -92.552185 -0.57504886 -92.558624 -16.906765 -16.080078
5300000000 -16.650925 -23.036156 -0.57485944 -94.321678 -0.5763827 -94.324493 -16.894663 -17.546703
5400000000 -16.662771 -24.537172 -0.57870287 -96.076218 -0.57780147 -96.071655 -16.907366 -19.078369
5500000000 -16.632408 -25.969021 -0.57762671 -97.837967 -0.57642496 -97.835716 -16.870529 -20.692659
5600000000 -16.654984 -27.487738 -0.5797689 -99.592537 -0.57986623 -99.588402 -16.885447 -22.23918
5700000000 -16.636133 -28.908882 -0.58268321 -101.35217 -0.58142346 -101.34559 -16.826178 -23.792545
5800000000 -16.663853 -30.533962 -0.58251655 -103.09536 -0.58430189 -103.10154 -16.841805 -25.099777
5900000000 -16.668901 -31.948986 -0.58375436 -104.85695 -0.58482373 -104.85128 -16.838913 -26.56885
6000000000 -16.682661 -33.573326 -0.58708972 -106.59549 -0.58472538 -106.59241 -16.895912 -27.932314
6100000000 -16.713758 -34.861164 -0.5884335 -108.35728 -0.58669651 -108.35239 -16.935099 -29.564846
6200000000 -16.733751 -36.395344 -0.58429152 -110.10064 -0.5858382 -110.09746 -16.988232 -31.201841
6300000000 -16.790146 -37.572674 -0.58391541 -111.83227 -0.58371174 -111.8527 -16.971081 -32.657356
6400000000 -16.827845 -38.970825 -0.58251446 -113.58844 -0.58325607 -113.60021 -17.017986 -34.035408
6500000000 -16.893312 -40.062756 -0.58285016 -115.34261 -0.58240819 -115.35339 -17.016123 -35.160961
6600000000 -16.922598 -41.544407 -0.57814896 -117.10197 -0.57938933 -117.1045 -17.096188 -36.488785
6700000000 -17.016571 -42.795143 -0.57550603 -118.86663 -0.5749315 -118.89641 -17.117775 -37.805943
6800000000 -17.02527 -44.209568 -0.57523203 -120.66416 -0.57217008 -120.66888 -17.196285 -39.336838
6900000000 -17.09631 -45.557312 -0.57232779 -122.45741 -0.57217038 -122.45522 -17.206226 -40.627937
7000000000 -17.089539 -47.222435 -0.5787605 -124.23557 -0.57877356 -124.24007 -17.251842 -42.63168
7100000000 -17.252432 -48.520985 -0.57326758 -125.95379 -0.57428324 -125.95927 -17.369049 -43.815479
7200000000 -17.29388 -49.617985 -0.5695042 -127.73605 -0.56890929 -127.7341 -17.454432 -45.223026
7300000000 -17.367508 -51.047287 -0.56762761 -129.53456 -0.5693661 -129.53957 -17.512403 -46.709511
7400000000 -17.443827 -52.143829 -0.56791461 -131.3168 -0.56953371 -131.33965 -17.596239 -48.636059
7500000000 -17.544008 -54.114887 -0.5786292 -133.09286 -0.57789642 -133.11259 -17.619291 -50.284733
7600000000 -17.674356 -54.662483 -0.56914032 -134.84503 -0.56941688 -134.86314 -17.72167 -51.558285
7700000000 -17.730556 -56.152695 -0.57006973 -136.64885 -0.56793529 -136.65683 -17.780874 -52.569164
7800000000 -17.876022 -57.511681 -0.57494217 -138.41788 -0.57291311 -138.42648 -17.960804 -54.261948
7900000000 -17.957539 -58.938747 -0.57096386 -140.20667 -0.57149887 -140.20941 -18.146755 -55.705124
8000000000 -18.101925 -60.15612 -0.57320583 -142.00636 -0.57413077 -141.99367 -18.259686 -58.235142
8100000000 -18.188908 -61.493622 -0.57721871 -143.79517 -0.57879186 -143.78886 -18.292538 -59.880985
8200000000 -18.37504 -62.767952 -0.58293927 -145.58481 -0.58324182 -145.58693 -18.240089 -61.335987
8300000000 -18.566267 -64.349457 -0.59072244 -147.36726 -0.59114629 -147.37326 -18.432234 -61.492405
8400000000 -18.883007 -65.990288 -0.60452121 -149.13739 -0.60464621 -149.15118 -18.913176 -61.621155
8500000000 -19.112024 -66.730721 -0.63279116 -150.89905 -0.63363153 -150.9066 -20.24439 -62.287659
8600000000 -19.088108 -68.829773 -0.70629793 -152.34181 -0.70042175 -152.3222 -22.804146 -63.544926
8700000000 -20.369797 -73.390076 -0.59680653 -152.70148 -0.59426653 -152.71732 -24.843451 -34.387714
8800000000 -19.944235 -65.552246 -0.43628287 -155.78296 -0.43701249 -155.77448 -21.525864 -49.074989
8900000000 -19.855627 -69.692383 -0.51271063 -157.92477 -0.51265264 -157.9151 -21.481632 -65.318588
9000000000 -20.179493 -71.805382 -0.5360809 -159.73026 -0.53823549 -159.74283 -21.066246 -74.817253
9100000000 -20.450045 -71.777077 -0.55259049 -161.52667 -0.55495977 -161.52469 -20.617142 -77.474724
9200000000 -20.645687 -72.263443 -0.56245893 -163.29951 -0.56608057 -163.31271 -20.368044 -78.146248
9300000000 -20.808582 -72.009361 -0.5696494 -165.01201 -0.5717206 -165.02838 -20.464979 -77.306564
9400000000 -21.006203 -73.379868 -0.56848758 -166.78421 -0.5671621 -166.78491 -20.796997 -78.282883
9500000000 -21.360216 -74.024803 -0.56742936 -168.5629 -0.56962967 -168.56955 -21.358091 -79.113037
9600000000 -21.652466 -74.779648 -0.56969368 -170.34309 -0.56858879 -170.34103 -21.755995 -81.560318
9700000000 -22.023211 -75.008392 -0.57117617 -172.12001 -0.57045609 -172.13008 -22.093603 -83.786835
9800000000 -22.231762 -75.514557 -0.57062912 -173.90749 -0.57063174 -173.92075 -22.305006 -85.429665
9900000000 -22.672516 -75.908829 -0.57399428 -175.67963 -0.57351363 -175.68375 -22.662506 -86.053352
10000000000 -22.978992 -75.787849 -0.57462925 -177.47435 -0.57539457 -177.46382 -23.052017 -87.143753
10100000000 -23.475788 -75.994507 -0.57550186 -179.24252 -0.5765689 -179.2435 -23.751623 -88.42424
10200000000 -23.738583 -74.699013 -0.57878184 178.99094 -0.57867801 178.9664 -24.243355 -90.770447
10300000000 -24.265451 -74.607758 -0.5795905 177.18619 -0.58239549 177.18042 -24.786613 -92.792427
10400000000 -24.473873 -73.099098 -0.58387429 175.40109 -0.58186918 175.39902 -25.00107 -94.711464
10500000000 -24.967123 -73.805565 -0.58552718 173.60516 -0.58439904 173.61238 -25.652351 -95.151695
10600000000 -25.29015 -70.925552 -0.5860275 171.83081 -0.58507901 171.82204 -26.127815 -94.954872
10700000000 -25.775669 -70.401909 -0.5887056 170.04599 -0.58700055 170.0378 -27.050167 -94.800583
10800000000 -26.171587 -66.224854 -0.59037966 168.27737 -0.59266192 168.27049 -27.830082 -95.226311
10900000000 -26.529161 -64.68219 -0.59407777 166.49875 -0.59298593 166.48955 -29.121683 -97.486946
11000000000 -26.927555 -60.33535 -0.59277672 164.70952 -0.5937646 164.71405 -29.986151 -98.839287
11100000000 -27.14572 -58.800621 -0.5985862 162.94472 -0.60023785 162.93571 -31.195713 -101.34367
11200000000 -27.561945 -54.690445 -0.60204118 161.15994 -0.60427368 161.16077 -31.977505 -98.944221
11300000000 -27.580336 -51.051395 -0.60475361 159.39355 -0.60519964 159.37079 -33.504097 -99.467438
11400000000 -27.728867 -46.536949 -0.60705447 157.60378 -0.60775173 157.59561 -34.551456 -93.604637
11500000000 -27.499475 -42.789211 -0.61128467 155.82626 -0.61042088 155.83072 -36.678997 -88.017715
11600000000 -27.608042 -38.808914 -0.61218613 154.06038 -0.61397123 154.0463 -38.770641 -77.171539
11700000000 -27.186066 -34.848892 -0.61484671 152.27766 -0.61693335 152.27484 -42.396214 -60.650879
11800000000 -27.161953 -31.076223 -0.6216439 150.50816 -0.62463814 150.4902 -43.043396 -33.211384
11900000000 -26.627779 -27.723017 -0.62926227 148.72768 -0.62740898 148.72421 -43.349995 -2.235343
12000000000 -26.610508 -24.757576 -0.62999749 146.95744 -0.63150519 146.93997 -39.280697 8.4579344
12100000000 -26.026424 -21.879602 -0.63364595 145.20506 -0.63483757 145.18962 -37.677971 20.317093
12200000000 -25.748774 -20.748575 -0.63996863 143.44638 -0.63965338 143.42505 -35.507957 23.582102
12300000000 -25.270643 -19.022783 -0.64282399 141.66089 -0.64033639 141.65712 -33.853027 27.174963
12400000000 -25.002247 -18.158627 -0.64823741 139.91853 -0.64670372 139.9129 -32.205456 27.791143
12500000000 -24.465317 -15.706178 -0.64883006 138.15718 -0.64856678 138.14783 -31.173527 31.072607
12600000000 -24.171978 -15.699735 -0.65289205 136.4017 -0.65548861 136.38889 -30.107973 29.325005
12700000000 -23.726967 -13.843907 -0.65429729 134.63747 -0.65590948 134.63512 -29.239605 29.997955
12800000000 -23.508196 -14.192976 -0.65214902 132.89273 -0.65503651 132.90594 -28.231207 28.694807
12900000000 -23.120363 -13.27685 -0.65399873 131.14084 -0.65648907 131.11987 -27.545834 29.136528
13000000000 -22.769787 -13.959142 -0.65352631 129.39581 -0.65709645 129.37956 -26.685062 27.9044
13100000000 -22.427742 -12.628394 -0.65367675 127.62241 -0.65722769 127.61225 -26.18029 28.357191
13200000000 -22.03874 -13.065097 -0.65700549 125.86278 -0.65595526 125.84555 -25.447071 26.991957
13300000000 -21.80765 -11.932634 -0.6550976 124.08036 -0.65530109 124.06624 -24.909681 25.884449
13400000000 -21.37969 -12.2227 -0.65452784 122.30023 -0.6559661 122.30479 -24.17403 24.236662
13500000000 -21.169502 -12.045785 -0.65302444 120.53294 -0.65530229 120.51363 -23.609928 23.869799
13600000000 -20.698832 -12.695954 -0.65356576 118.74071 -0.65337735 118.73704 -22.969122 22.95269
13700000000 -20.472521 -12.798575 -0.65831172 116.93198 -0.65749818 116.92874 -22.58099 22.602821
13800000000 -19.971472 -12.989645 -0.66259515 115.13686 -0.66254544 115.11035 -22.064178 21.094521
13900000000 -19.705503 -14.382484 -0.67900681 113.3351 -0.68366253 113.31447 -21.782864 17.97784
14000000000 -19.510044 -15.132617 -0.68096155 111.70991 -0.68253767 111.71259 -21.469427 16.064796
14100000000 -19.48621 -15.701541 -0.67171383 109.93578 -0.67240041 109.92168 -21.178078 15.161799
14200000000 -19.120516 -15.528852 -0.66839647 108.15117 -0.66998011 108.12644 -20.583063 14.50307
14300000000 -18.890564 -17.163227 -0.66854233 106.3346 -0.6707117 106.32529 -20.329916 13.623633
14400000000 -18.594318 -17.077438 -0.66969347 104.56038 -0.67286974 104.52983 -19.906363 12.676819
14500000000 -18.284229 -18.273464 -0.67395884 102.74747 -0.67818457 102.7313 -19.73366 10.468165
14600000000 -18.074379 -18.00728 -0.68258309 100.93298 -0.68115383 100.92628 -19.324047 8.7989311
14700000000 -17.783218 -19.759409 -0.69369829 99.133789 -0.69438106 99.092247 -19.015728 6.1520834
14800000000 -17.724022 -21.636686 -0.71729177 97.458908 -0.72154242 97.431549 -18.772799 3.710479
14900000000 -17.650717 -22.78146 -0.69730276 95.77536 -0.69921261 95.767204 -18.772747 3.4727151
15000000000 -17.456654 -23.267195 -0.69317597 93.957069 -0.69712257 93.944649 -18.445969 2.6041577
15100000000 -17.108368 -24.307981 -0.69798517 92.153389 -0.69826394 92.136925 -18.250448 0.36998054
15200000000 -16.991783 -24.921576 -0.69960666 90.359818 -0.70583683 90.335571 -17.949686 -1.6441921
15300000000 -16.710941 -25.814034 -0.71151936 88.571022 -0.71599483 88.553291 -17.678562 -4.1196127
15400000000 -16.683876 -27.550177 -0.72106993 86.795387 -0.72715831 86.787827 -17.431082 -5.650672
15500000000 -16.458347 -28.592289 -0.72265452 85.042763 -0.72575319 85.063873 -17.290663 -7.1507168
15600000000 -16.408907 -30.901508 -0.73541796 83.326622 -0.73875713 83.302048 -17.134483 -8.5246239
15700000000 -16.181238 -31.518881 -0.73022288 81.522827 -0.73251581 81.520325 -17.053514 -10.326409
15800000000 -16.083872 -32.863201 -0.7382248 79.763512 -0.74196655 79.767075 -16.864889 -12.327971
15900000000 -15.915586 -33.469326 -0.74751735 78.012276 -0.74966162 78.006371 -16.667391 -14.953685
16000000000 -15.892694 -35.495564 -0.75775737 76.270721 -0.75784492 76.254562 -16.51602 -16.635633
16100000000 -15.851002 -36.320518 -0.76345921 74.550232 -0.76262295 74.538452 -16.388561 -18.623676
16200000000 -15.749578 -38.786415 -0.76454103 72.805946 -0.76845694 72.801384 -16.306118 -19.492584
16300000000 -15.699007 -39.375565 -0.77320802 71.10437 -0.77339798 71.075371 -16.22891 -21.703773
16400000000 -15.566496 -41.205009 -0.77831578 69.376823 -0.77960914 69.349724 -16.244011 -23.197485
16500000000 -15.627021 -41.381329 -0.78083658 67.65641 -0.78173745 67.631165 -16.154686 -25.700819
16600000000 -15.563278 -43.071594 -0.78452069 65.963531 -0.78702062 65.934502 -16.093115 -27.174856
16700000000 -15.713532 -44.081852 -0.78172874 64.247246 -0.78465343 64.216881 -15.968788 -29.183746
16800000000 -15.548873 -45.590946 -0.77744138 62.526024 -0.78108293 62.524078 -16.000439 -29.738815
16900000000 -15.647165 -46.654076 -0.77237487 60.799183 -0.77323711 60.776268 -15.954201 -31.628496
17000000000 -15.43441 -46.953686 -0.76360089 59.074909 -0.76781929 59.039677 -16.032612 -32.757427
17100000000 -15.532168 -47.818924 -0.75917196 57.280842 -0.75923115 57.268036 -15.905908 -34.684559
17200000000 -15.420278 -47.930168 -0.75602686 55.451279 -0.75824004 55.452591 -15.867882 -36.1423
17300000000 -15.457853 -50.690575 -0.77652073 53.674347 -0.77766615 53.666981 -15.61639 -38.537239
17400000000 -15.484781 -51.287155 -0.77220601 52.030636 -0.770275 52.05275 -15.739632 -39.824825
17500000000 -15.438804 -53.193886 -0.76201952 50.263451 -0.7643339 50.270916 -15.634519 -40.927418
17600000000 -15.383359 -53.231377 -0.75711977 48.502136 -0.75964832 48.492962 -15.769385 -42.304798
17700000000 -15.333996 -54.965427 -0.76047504 46.717308 -0.76072454 46.727913 -15.691968 -44.017239
17800000000 -15.406417 -55.124222 -0.76131308 44.964573 -0.75650841 44.963097 -15.762895 -46.484901
17900000000 -15.344587 -56.699291 -0.76099879 43.212967 -0.76045442 43.208145 -15.599763 -48.407398
18000000000 -15.482981 -57.688515 -0.76365119 41.416367 -0.76428825 41.411987 -15.585273 -50.234661
18100000000 -15.357695 -59.497936 -0.75817716 39.664707 -0.76101941 39.665379 -15.460083 -51.388241
18200000000 -15.447014 -60.50806 -0.76407713 37.912708 -0.76336724 37.892136 -15.556298 -53.133835
18300000000 -15.336741 -61.631584 -0.76360953 36.17741 -0.76352406 36.152168 -15.567362 -54.246422
18400000000 -15.496947 -62.678085 -0.76719099 34.4268 -0.7617628 34.404209 -15.740147 -56.607243
18500000000 -15.491427 -63.308163 -0.76497108 32.660679 -0.76136982 32.660397 -15.793454 -58.825386
18600000000 -15.660007 -64.621742 -0.76520258 30.906429 -0.76473832 30.840517 -15.803917 -61.552483
18700000000 -15.617835 -65.325523 -0.76038468 29.138479 -0.76277632 29.137491 -15.716762 -63.141403
18800000000 -15.739371 -67.10083 -0.76303458 27.365543 -0.76221758 27.342457 -15.731233 -64.629967
18900000000 -15.710842 -67.487061 -0.76027554 25.632444 -0.75951326 25.64044 -15.760662 -65.152901
19000000000 -15.847653 -68.94809 -0.75978464 23.88871 -0.76117301 23.881781 -16.028831 -67.01416
19100000000 -15.940639 -68.961456 -0.75801629 22.158497 -0.76184797 22.152765 -16.13402 -68.665276
19200000000 -16.073477 -70.533142 -0.75840807 20.37409 -0.76677126 20.360086 -16.340885 -71.787361
19300000000 -16.190397 -70.820992 -0.75395578 18.599485 -0.75993419 18.608749 -16.306185 -73.597748
19400000000 -16.247219 -72.820137 -0.75853842 16.859426 -0.7609883 16.852322 -16.388668 -75.978195
19500000000 -16.404984 -72.893738 -0.75372422 15.112936 -0.75615871 15.075039 -16.39884 -76.667992
19600000000 -16.395418 -74.167587 -0.75222647 13.340813 -0.75486338 13.335283 -16.584953 -78.82576
19700000000 -16.70295 -74.119469 -0.74650371 11.607122 -0.74665737 11.594371 -16.767666 -79.76516
19800000000 -16.694206 -75.440826 -0.74488425 9.8027945 -0.74873543 9.8284626 -16.970003 -83.01326
19900000000 -17.059923 -76.155739 -0.74342853 8.0901375 -0.7447902 8.0531387 -17.087296 -84.441719
20000000000 -17.024565 -77.468781 -0.74451089 6.3244677 -0.7442522 6.3085384 -17.174559 -87.288292
20100000000 -17.393887 -78.659271 -0.7366029 4.5273805 -0.74093425 4.5398607 -17.363117 -87.978233
20200000000 -17.319883 -78.605965 -0.73755139 2.7718055 -0.73896033 2.7763598 -17.561401 -90.511818
20300000000 -17.676401 -80.011612 -0.7311396 0.99484462 -0.73492986 0.97111994 -18.01355 -91.688965
20400000000 -17.777931 -78.900055 -0.73034602 -0.81096143 -0.72876567 -0.81554973 -18.136862 -95.30941
20500000000 -18.107576 -80.519157 -0.73092365 -2.5772548 -0.72987098 -2.607012 -18.405107 -97.552528
20600000000 -18.310236 -79.06057 -0.7314533 -4.4062252 -0.73001277 -4.4261289 -18.367777 -100.34666
20700000000 -18.442213 -81.312599 -0.73182124 -6.0843549 -0.72896129 -6.1276736 -18.720942 -100.24994
20800000000 -18.647078 -80.227364 -0.73351485 -7.8307896 -0.7311843 -7.8475442 -18.833429 -101.54465
20900000000 -18.728336 -82.005638 -0.71616608 -9.6128559 -0.71632481 -9.6294537 -19.524862 -102.59751
21000000000 -19.186205 -80.540642 -0.71522748 -11.40653 -0.71873385 -11.439619 -19.86833 -106.30129
21100000000 -19.298033 -80.154068 -0.71128118 -13.223762 -0.71199811 -13.234716 -20.449669 -109.3773
21200000000 -19.782854 -78.8293 -0.71277255 -15.023949 -0.71135342 -15.085979 -20.60989 -113.54608
21300000000 -19.889713 -78.299805 -0.71115249 -16.831213 -0.70923376 -16.860418 -20.920452 -115.38942
21400000000 -20.344913 -78.339386 -0.71070337 -18.673845 -0.71290493 -18.710125 -21.127708 -116.00918
21500000000 -20.291876 -77.496178 -0.71310806 -20.472139 -0.71047628 -20.465631 -21.751135 -117.12116
21600000000 -20.718014 -76.468758 -0.71556503 -22.269787 -0.72027785 -22.291208 -22.36429 -117.54835
21700000000 -20.56143 -73.881302 -0.72031939 -24.019451 -0.7172789 -24.022623 -23.483633 -119.94383
21800000000 -20.775822 -72.54834 -0.72494256 -25.716259 -0.72694075 -25.743792 -23.895157 -123.37117
21900000000 -20.92034 -71.45295 -0.71338874 -27.417387 -0.71227962 -27.429153 -24.641632 -129.44333
22000000000 -21.553387 -70.33049 -0.70162457 -29.310095 -0.70441633 -29.325939 -24.749468 -134.38824
22100000000 -21.543308 -67.822388 -0.70546681 -31.128 -0.7088967 -31.145325 -25.562948 -137.58359
22200000000 -21.898832 -66.973038 -0.70925575 -32.967258 -0.70948708 -33.005829 -26.23777 -138.33679
22300000000 -21.760172 -63.475365 -0.70703626 -34.79348 -0.71029609 -34.810623 -27.869083 -139.38998
22400000000 -22.018221 -61.875736 -0.71452618 -36.56522 -0.71698886 -36.594021 -29.305332 -143.5807
22500000000 -21.761944 -57.125748 -0.71964598 -38.3867 -0.72156566 -38.43623 -31.532707 -154.54596
22600000000 -21.919207 -56.796307 -0.72564459 -40.138645 -0.72900814 -40.177525 -32.09095 -162.40349
22700000000 -21.664335 -52.948811 -0.73310572 -41.927628 -0.73714244 -41.941956 -33.341152 -173.04758
22800000000 -21.826206 -55.459969 -0.736637 -43.637783 -0.73501414 -43.654728 -33.560291 -172.44199
22900000000 -21.672634 -49.491951 -0.73105443 -45.498882 -0.73440468 -45.523552 -37.130985 162.6537
23000000000 -21.384277 -50.288898 -0.74600232 -47.320595 -0.74105614 -47.34523 -40.618786 145.92091
23100000000 -21.181643 -45.308083 -0.7422024 -49.073826 -0.73611373 -49.084061 -37.144054 98.911942
23200000000 -20.902773 -45.623764 -0.7437622 -50.83073 -0.73991817 -50.837589 -35.460648 92.101471
23300000000 -21.033718 -40.849911 -0.74599314 -52.645119 -0.7455318 -52.69669 -32.001278 83.789658
23400000000 -20.500914 -41.920815 -0.7581926 -54.457466 -0.76148212 -54.43491 -33.177334 70.707451
23500000000 -20.660395 -40.639973 -0.76491487 -56.242737 -0.76524585 -56.261147 -31.632402 62.749531
23600000000 -19.969112 -40.248058 -0.76906258 -57.977386 -0.76900601 -58.036522 -30.423124 41.421169
23700000000 -20.024914 -39.396217 -0.77556157 -59.738121 -0.7782523 -59.771667 -27.908455 41.840534
23800000000 -19.318386 -38.118816 -0.77567083 -61.535244 -0.78151959 -61.559814 -26.528088 38.832062
23900000000 -19.310637 -38.445736 -0.77838486 -63.280373 -0.77883267 -63.291191 -25.345831 44.490002
24000000000 -18.912374 -36.297642 -0.79448825 -65.02536 -0.78694087 -65.070488 -25.350796 40.989559
24100000000 -18.899954 -38.76923 -0.79014975 -66.807022 -0.78895694 -66.83152 -25.583696 40.581539
24200000000 -18.669672 -36.477669 -0.78528643 -68.563667 -0.79025066 -68.598412 -24.645638 29.795416
24300000000 -18.316282 -38.70158 -0.79231268 -70.336121 -0.79043573 -70.375542 -23.920065 24.717619
24400000000 -18.023241 -36.586979 -0.78848386 -72.103142 -0.79437912 -72.115494 -22.226694 21.106491
24500000000 -17.586361 -37.328621 -0.79624224 -73.820274 -0.79673111 -73.865692 -21.540779 23.95586
24600000000 -17.562237 -35.695251 -0.80082339 -75.609428 -0.80800706 -75.638092 -20.776697 23.658178
24700000000 -17.267778 -36.598492 -0.80605942 -77.377899 -0.80803949 -77.400627 -20.97612 24.092014
24800000000 -17.354906 -36.849648 -0.80594164 -79.184143 -0.80982018 -79.188789 -20.74752 20.393053
24900000000 -16.965506 -38.396008 -0.8090077 -80.950783 -0.80477685 -80.957085 -20.688362 15.94714
25000000000 -16.806787 -38.460197 -0.80988443 -82.719986 -0.80512708 -82.748917 -19.836626 11.232596
25100000000 -16.365631 -38.538944 -0.80095011 -84.466011 -0.80578858 -84.508102 -19.203514 9.9795132
25200000000 -16.262976 -38.058147 -0.80907476 -86.285019 -0.81103873 -86.287323 -18.467667 8.9557028
25300000000 -15.901383 -37.912598 -0.82598847 -88.074905 -0.82640773 -88.109604 -18.316168 9.0915937
25400000000 -15.955282 -39.407143 -0.84496784 -89.813766 -0.83728743 -89.822075 -18.118961 6.0978937
25500000000 -15.763545 -40.339527 -0.84503138 -91.535339 -0.84297431 -91.567665 -18.016068 4.443903
25600000000 -15.712697 -41.955563 -0.83362162 -93.326797 -0.83540255 -93.333481 -17.7848 1.2606896
25700000000 -15.333163 -42.094822 -0.84053814 -95.09288 -0.8436929 -95.128899 -17.423416 -0.82785845
25800000000 -15.329758 -43.64534 -0.84239668 -96.873894 -0.84551913 -96.842812 -16.95418 -2.3161724
25900000000 -14.987748 -42.328979 -0.83886194 -98.553879 -0.84645611 -98.648689 -16.760271 -3.956069
26000000000 -14.974708 -44.480175 -0.84547824 -100.33629 -0.85254121 -100.3446 -16.449942 -5.1067657
26100000000 -14.831425 -43.188946 -0.8498494 -102.17893 -0.851596 -102.13497 -16.439503 -7.1988649
26200000000 -14.780215 -45.726254 -0.85308933 -103.89786 -0.85617632 -103.90426 -16.041138 -8.2311716
26300000000 -14.689085 -44.913368 -0.86068165 -105.62073 -0.86418462 -105.66907 -16.156107 -11.647207
26400000000 -14.43504 -48.161816 -0.86279225 -107.45959 -0.86848295 -107.41415 -15.60271 -12.211905
26500000000 -14.516494 -47.546413 -0.86409175 -109.18684 -0.86312062 -109.21884 -15.738143 -15.191806
26600000000 -14.065626 -49.127369 -0.8762185 -110.89584 -0.86865366 -110.96206 -15.297563 -15.989712
26700000000 -14.307064 -49.281029 -0.87175333 -112.69273 -0.869232 -112.73957 -15.200715 -18.479221
26800000000 -13.878394 -50.384232 -0.87175268 -114.53162 -0.8849144 -114.4975 -15.026381 -19.988121
26900000000 -14.17183 -51.43182 -0.88299823 -116.16949 -0.88535362 -116.25823 -14.96623 -22.724884
27000000000 -13.713511 -51.939854 -0.89442027 -118.0296 -0.87192637 -118.03198 -14.998623 -22.209015
27100000000 -13.951717 -54.197487 -0.88323081 -119.74285 -0.88765407 -119.65118 -14.770195 -27.050583
27200000000 -13.677395 -53.309658 -0.88801897 -121.54128 -0.90376884 -121.51048 -14.546076 -27.3878
27300000000 -13.714442 -56.789204 -0.89363825 -123.25217 -0.9072777 -123.12556 -14.290735 -30.444742
27400000000 -13.653421 -55.501209 -0.90234935 -124.93336 -0.90316838 -124.90379 -14.304016 -30.911535
27500000000 -13.464449 -58.833862 -0.91210622 -126.73029 -0.91757643 -126.7338 -14.175913 -33.767651
27600000000 -13.570098 -58.171444 -0.90004879 -128.33882 -0.90619642 -128.50555 -14.350066 -34.495377
27700000000 -13.324949 -60.470829 -0.91620868 -130.2179 -0.90049845 -130.17232 -14.173063 -37.691711
27800000000 -13.582366 -59.666424 -0.89635926 -131.97417 -0.90090013 -132.0558 -14.170446 -39.269676
27900000000 -13.398004 -61.596981 -0.90998876 -133.71619 -0.89847898 -133.73351 -13.860705 -42.042217
28000000000 -13.71303 -62.714073 -0.92003733 -135.43355 -0.92349213 -135.4845 -14.018188 -42.453255
28100000000 -13.375744 -64.146637 -0.92075664 -137.07661 -0.89586067 -137.16069 -13.835384 -44.452724
28200000000 -13.654808 -64.944191 -0.92134255 -139.08795 -0.9167096 -139.0193 -14.094948 -46.14645
28300000000 -13.210673 -65.627167 -0.93986827 -140.69327 -0.93527973 -140.76106 -13.968704 -47.540459
28400000000 -13.532362 -65.848381 -0.9332729 -142.45 -0.92613965 -142.41878 -13.983495 -49.772755
28500000000 -13.349702 -66.380829 -0.93074387 -144.08781 -0.91150683 -144.15926 -13.752257 -50.722569
28600000000 -13.580554 -68.423859 -0.93342501 -145.80865 -0.9104957 -145.80759 -13.83362 -52.804012
28700000000 -13.555371 -69.062256 -0.8988499 -147.56308 -0.90689588 -147.5966 -13.766898 -54.338867
28800000000 -13.67706 -71.192871 -0.91610515 -149.4559 -0.92797846 -149.45285 -14.038244 -56.485111
28900000000 -13.63792 -70.254242 -0.9340862 -151.12877 -0.93530476 -151.22339 -13.856824 -58.863316
29000000000 -13.747871 -73.107071 -0.92486537 -152.91579 -0.9361791 -153.07956 -14.062385 -60.940929
29100000000 -13.67914 -71.601608 -0.9025259 -154.80286 -0.92471349 -154.67348 -13.758714 -62.022167
29200000000 -13.805312 -73.735771 -0.91596192 -156.50125 -0.93821657 -156.48103 -14.006618 -62.401489
29300000000 -13.965259 -72.380684 -0.91133952 -158.13255 -0.92018229 -158.31052 -13.932335 -63.551243
29400000000 -13.907542 -75.562141 -0.92865705 -159.83952 -0.91902518 -159.94913 -14.383608 -64.71286
29500000000 -14.15032 -74.799164 -0.93075925 -161.53125 -0.93607122 -161.57451 -14.322003 -67.850899
29600000000 -13.787057 -77.940453 -0.94461638 -163.33681 -0.94219291 -163.38208 -14.47711 -70.960861
29700000000 -14.127234 -77.206291 -0.93549711 -165.02643 -0.92673177 -165.05426 -14.248868 -72.272232
29800000000 -13.890924 -78.304741 -0.91294527 -166.94698 -0.92509145 -166.92223 -14.542499 -74.813255
29900000000 -14.410434 -79.378616 -0.91925544 -168.56628 -0.92272502 -168.65724 -14.198017 -74.387749
30000000000 -14.259705 -79.622139 -0.91762626 -170.30312 -0.92033648 -170.38402 -14.595851 -76.781273
30100000000 -14.739233 -81.288383 -0.93339455 -172.12431 -0.90750676 -172.14259 -14.677403 -77.548584
30200000000 -14.456574 -80.632729 -0.9184373 -173.74463 -0.91409242 -173.70697 -15.065896 -81.241585
30300000000 -14.703298 -84.040741 -0.90977812 -175.72607 -0.9163596 -175.72638 -14.990031 -82.46669
30400000000 -14.630859 -81.511177 -0.90650898 -177.29951 -0.90279132 -177.33031 -15.209124 -86.641289
30500000000 -14.937255 -84.895744 -0.91154993 -179.18729 -0.90822077 -179.19821 -15.13311 -85.63504
30600000000 -15.208591 -81.712639 -0.89370149 178.9584 -0.91273731 179.12852 -15.353566 -88.640205
30700000000 -15.120446 -86.330383 -0.91172874 177.36375 -0.91007817 177.36986 -15.601274 -87.199684
30800000000 -15.504336 -84.549088 -0.90272665 175.59851 -0.91078842 175.59492 -16.073898 -92.523552
30900000000 -15.294907 -85.946533 -0.88298428 173.85849 -0.89305538 173.82143 -16.171974 -90.924019
31000000000 -15.785707 -85.46032 -0.91781718 172.14256 -0.89964908 171.87218 -16.25174 -96.569366
31100000000 -15.45282 -86.142944 -0.89654636 170.03656 -0.89196557 170.17497 -16.521412 -97.225769
31200000000 -16.108305 -85.704849 -0.88638657 168.36664 -0.87994766 168.61771 -16.418177 -97.846313
31300000000 -16.007889 -85.986 -0.86881083 166.59789 -0.87047303 166.65591 -16.753132 -97.590645
31400000000 -16.613817 -85.425476 -0.88100463 165.04596 -0.87981796 164.96629 -17.322649 -101.09122
31500000000 -16.505007 -85.468163 -0.87542892 163.25873 -0.90229136 163.13008 -17.832701 -100.38153
31600000000 -17.083889 -87.267876 -0.88665259 161.33893 -0.91495103 161.37448 -17.844654 -106.13916
31700000000 -17.045254 -85.449768 -0.9099856 159.58301 -0.87787592 159.64185 -18.456367 -107.73615
31800000000 -17.397873 -87.427956 -0.89523774 157.64784 -0.85912824 157.82822 -18.068493 -109.57681
31900000000 -17.113543 -83.768532 -0.83671272 155.98 -0.8477177 155.82187 -18.885851 -108.3427
32000000000 -17.619009 -84.208588 -0.85916293 154.13982 -0.86159855 154.22363 -18.984396 -111.5945
32100000000 -17.970558 -82.068794 -0.86469066 152.46132 -0.85948253 152.45374 -20.084875 -109.83994
32200000000 -18.589336 -84.155334 -0.86144388 150.69916 -0.83887666 150.80952 -20.350374 -115.40473
32300000000 -18.586456 -82.752609 -0.88292277 148.99503 -0.88882667 148.91733 -21.475025 -117.77685
32400000000 -18.473125 -85.443222 -0.863913 147.08633 -0.88135791 147.02866 -21.338287 -122.95077
32500000000 -18.602043 -81.275513 -0.88243395 145.34042 -0.8701387 145.25096 -22.060125 -124.87566
32600000000 -18.601908 -81.446342 -0.85444081 143.46249 -0.84582955 143.51431 -22.138636 -122.03802
32700000000 -19.314522 -74.926239 -0.84700757 141.76762 -0.85273021 141.65192 -23.056505 -122.22421
32800000000 -19.124655 -75.648209 -0.84015489 139.91858 -0.8503027 139.9044 -24.347008 -121.05024
32900000000 -19.996677 -72.357887 -0.86011201 138.00333 -0.86996001 138.06616 -25.925529 -121.37144
33000000000 -19.414112 -74.649162 -0.84105808 136.2664 -0.84318238 136.41618 -26.702744 -124.59623
33100000000 -19.986019 -71.039742 -0.86418271 134.59854 -0.88564181 134.47223 -28.159845 -128.98415
33200000000 -19.163284 -69.598793 -0.84935987 132.74133 -0.85788447 132.6685 -28.312593 -128.00183
33300000000 -19.978502 -65.993759 -0.8614521 131.04857 -0.88584596 130.95134 -31.847532 -135.86728
33400000000 -19.323736 -64.526085 -0.85997885 129.11475 -0.87492865 129.05537 -30.532127 -118.54146
33500000000 -19.53743 -63.981129 -0.8694815 127.40972 -0.8493312 127.3177 -40.591793 -111.16983
33600000000 -18.909407 -58.935127 -0.84809023 125.68616 -0.84554774 125.53892 -38.519615 -87.825546
33700000000 -19.576771 -61.81345 -0.87353659 123.79751 -0.85499358 123.77729 -42.467964 2.3898168
33800000000 -19.205332 -55.530807 -0.86151457 122.10768 -0.84930885 121.90719 -38.604027 -36.537216
33900000000 -19.178617 -58.534229 -0.84345496 120.19434 -0.88071197 120.06668 -41.059063 -1.7924397
34000000000 -18.771795 -52.068577 -0.85027438 118.36345 -0.89332503 118.27039 -33.654705 -7.9380288
34100000000 -18.539909 -53.106655 -0.84384412 116.56201 -0.85997635 116.61076 -32.704937 3.8499682
34200000000 -18.511969 -48.00626 -0.88001609 114.95692 -0.89300543 114.92387 -28.476347 17.312761
34300000000 -18.413893 -50.049419 -0.88622367 112.82181 -0.84872472 113.02373 -28.208649 23.586237
34400000000 -18.329632 -46.047318 -0.89961696 111.02803 -0.89729422 111.14868 -27.542902 20.053123
34500000000 -17.721296 -48.625889 -0.90741742 109.19772 -0.9173187 109.30431 -27.687073 15.537027
34600000000 -17.745951 -45.205853 -0.87618268 107.33697 -0.88271338 107.5231 -25.341986 12.090159
34700000000 -17.361856 -44.327702 -0.91046375 105.76982 -0.92885739 105.63071 -23.909075 9.7634716
34800000000 -17.49119 -42.983871 -0.9177171 103.88848 -0.8921302 103.90047 -22.26685 12.255807
34900000000 -17.426954 -44.276829 -0.91115946 102.15143 -0.92029935 102.11909 -22.300068 18.411051
35000000000 -16.954844 -43.19978 -0.92356801 100.18124 -0.8978048 100.28812 -21.430563 16.651747
35100000000 -16.476524 -43.133625 -0.92376816 98.513435 -0.93067235 98.589432 -21.182556 10.492165
35200000000 -16.698414 -42.624542 -0.91638005 96.852921 -0.95652962 96.754471 -20.542931 6.1715932
35300000000 -15.782578 -43.908504 -0.94474381 94.87603 -0.9477337 94.995819 -19.780058 2.4360776
35400000000 -16.12574 -41.518787 -0.94078887 93.036095 -0.924016 93.154274 -18.725178 -2.7291443
35500000000 -15.721288 -41.029053 -0.92925656 91.414261 -0.96689415 91.537994 -18.438442 0.2058464
35600000000 -15.833587 -44.14875 -0.93731028 89.542587 -0.94788212 89.591568 -18.02614 -0.55937469
35700000000 -15.242783 -44.863037 -0.92653507 87.699226 -0.95531601 87.700989 -18.307838 -1.731089
35800000000 -15.189177 -45.34367 -0.96653777 85.964844 -0.98404515 85.890526 -17.39728 -6.5575876
35900000000 -14.69989 -44.119823 -0.95736402 84.162361 -0.99655491 84.108711 -17.59491 -8.5618963
36000000000 -14.548264 -44.49485 -1.0044781 82.476631 -1.0197028 82.5224 -16.474064 -10.358386
36100000000 -14.70455 -42.288048 -1.0303202 80.710075 -1.0190942 80.900406 -16.614246 -10.540095
36200000000 -14.53159 -45.616707 -1.0181091 79.260887 -1.0715245 78.839409 -15.891593 -11.501266
36300000000 -14.435199 -45.775337 -1.0296081 77.215767 -1.0142912 77.205284 -16.165573 -12.509387
36400000000 -14.069944 -49.189175 -0.96493572 75.379311 -1.026939 75.279411 -15.624634 -16.298227
36500000000 -14.036059 -46.055607 -0.99381304 73.573006 -1.0488783 73.809044 -15.521922 -19.884611
36600000000 -13.10637 -49.381203 -0.97902411 71.978531 -1.000109 72.348656 -14.469371 -18.816925
36700000000 -13.837047 -47.652317 -1.0236546 70.274803 -1.0531869 70.089409 -14.831195 -23.517834
36800000000 -13.212265 -47.515705 -1.0454096 68.686867 -1.0570977 68.545776 -14.090835 -21.336555
36900000000 -13.93798 -50.942822 -1.0399491 66.489243 -1.0733987 66.695511 -14.694457 -22.259329
37000000000 -13.129152 -49.931187 -1.0766461 65.126671 -1.0791397 64.703766 -14.495653 -22.895941
37100000000 -13.059942 -54.171513 -1.0777709 62.922054 -1.0560263 62.932606 -14.427881 -29.940811
37200000000 -12.800722 -50.496765 -1.0518996 61.401627 -1.0374429 61.390144 -14.009844 -30.544167
37300000000 -12.7987 -52.315502 -1.0407783 59.79319 -1.0626526 59.942944 -13.272126 -34.466396
37400000000 -12.738027 -49.991817 -1.0559659 58.22401 -1.0550771 58.226433 -13.097993 -32.838566
37500000000 -12.620883 -54.112061 -1.0975195 56.352409 -1.0647376 56.155903 -13.262456 -33.807823
37600000000 -12.663299 -54.937286 -1.0588959 54.390373 -1.03861 54.420406 -13.273073 -31.923018
37700000000 -12.334984 -56.202114 -1.0481114 52.640781 -1.0749601 52.779686 -13.594422 -36.202839
37800000000 -12.531802 -56.089931 -1.1020479 51.249439 -1.0413659 51.104134 -13.32727 -41.311203
37900000000 -12.055188 -56.422764 -1.0735843 49.081383 -1.0626416 48.960236 -13.245272 -45.304539
38000000000 -12.226444 -56.203133 -1.0750848 47.470875 -1.1218883 47.557438 -12.566895 -45.115173
38100000000 -12.152593 -59.730621 -1.0994496 45.517498 -1.0961772 45.968891 -12.43641 -45.570808
38200000000 -12.452338 -60.06366 -1.0773818 43.723633 -1.1241663 43.864483 -12.460434 -45.03334
38300000000 -12.10057 -61.14296 -1.1337047 42.582207 -1.062676 42.731464 -12.94276 -47.530804
38400000000 -11.96986 -61.222782 -1.0561254 40.790123 -1.0900177 40.807587 -13.237336 -50.158123
38500000000 -11.931309 -61.600964 -1.1037861 39.135181 -1.1111714 38.958595 -12.893813 -55.261745
38600000000 -12.274178 -62.020359 -1.086416 37.020645 -1.0711614 37.465542 -12.250436 -55.350365
38700000000 -11.884983 -62.730007 -1.1170666 35.386776 -1.1471223 35.5821 -12.020023 -57.792431
38800000000 -12.472949 -63.909084 -1.146377 34.037472 -1.0721809 33.686302 -12.38744 -56.155407
38900000000 -11.952662 -66.088997 -1.1041065 31.965952 -1.1346078 32.118595 -12.47415 -60.094681
39000000000 -12.56619 -67.878593 -1.092784 30.371178 -1.0868089 30.201471 -12.874876 -61.702652
39100000000 -12.059915 -66.305923 -1.0901092 28.523964 -1.1048996 28.417196 -12.277735 -66.528603
39200000000 -12.209226 -70.870529 -1.1432034 27.153276 -1.1210122 26.8332 -12.463546 -66.49247
39300000000 -12.273355 -66.772675 -1.1182436 24.550465 -1.0539273 24.72974 -11.952986 -69.121033
39400000000 -12.329406 -72.296471 -1.064556 23.486164 -1.1662117 23.371773 -12.427764 -68.270332
39500000000 -12.857978 -68.830559 -1.0658485 21.559978 -1.0771858 21.218874 -12.407686 -71.110115
39600000000 -12.194001 -73.229034 -1.09121 19.915319 -1.1185288 19.677383 -13.038499 -70.924515
39700000000 -12.728921 -73.924065 -1.075563 17.962763 -1.1109624 18.074425 -12.925274 -75.798752
39800000000 -11.930866 -74.05014 -1.1094174 16.371586 -1.1103219 16.365086 -12.75094 -77.835732
39900000000 -12.737824 -73.310699 -1.0788537 14.365828 -1.1200972 13.938304 -12.394547 -82.827774
40000000000 -12.418184 -73.776199 -1.0650204 12.630365 -1.0963562 12.440729 -12.157583 -78.368584
40100000000 -13.029596 -77.562897 -1.0863612 11.095695 -1.1171229 10.905704 -12.662179 -79.468513
40200000000 -12.820598 -74.963898 -1.1047518 9.4592781 -1.0897057 9.1045523 -13.057045 -81.293449
40300000000 -12.750533 -80.05323 -1.0421487 7.2659707 -1.0929396 7.1129417 -13.240405 -83.806519
40400000000 -12.518128 -75.588821 -1.1089733 5.8341236 -1.0972342 5.6225047 -13.487658 -90.327682
40500000000 -12.927988 -76.788704 -1.0850339 4.0177612 -1.081431 3.82283 -13.115481 -92.569839
40600000000 -13.031571 -75.70681 -1.0793744 2.0245802 -1.0599519 2.2376122 -13.384563 -92.584564
40700000000 -13.162765 -78.514214 -1.0841763 0.52277684 -1.0912656 0.26619074 -13.050815 -91.927284
40800000000 -13.626059 -77.253769 -1.0438025 -1.2836312 -1.0763336 -1.1424246 -13.433126 -91.244995
40900000000 -12.909459 -79.046944 -1.0437515 -3.0433688 -1.0348594 -2.8861113 -14.403201 -93.964607
41000000000 -13.128914 -79.796066 -1.0379051 -4.5098405 -1.1205153 -4.5108528 -14.334497 -97.719467
41100000000 -13.259137 -80.684204 -1.0399311 -6.3286209 -1.0640004 -6.6005559 -14.390047 -103.44349
41200000000 -13.612688 -76.078568 -1.0108856 -8.2579536 -1.0546361 -8.1341505 -14.473662 -105.28654
41300000000 -13.627473 -77.488121 -1.0045933 -10.033456 -1.0627408 -10.220321 -14.540631 -106.79259
41400000000 -14.400924 -80.516777 -1.0721647 -11.868252 -1.0098583 -11.973112 -14.840011 -106.11075
41500000000 -14.023098 -78.836258 -1.0251316 -13.564938 -1.074688 -13.490188 -14.838118 -107.38316
41600000000 -14.205307 -79.994507 -1.0390384 -15.464457 -1.0450717 -15.349607 -15.727543 -110.65138
41700000000 -14.572368 -77.451553 -0.95364875 -16.894669 -1.0373234 -17.402536 -15.977935 -112.98578
41800000000 -14.97829 -78.042847 -1.0582238 -19.18421 -0.98853403 -18.772886 -16.265676 -114.63424
41900000000 -14.344239 -80.605331 -1.0423807 -21.016632 -1.1130176 -20.969849 -16.158447 -119.81217
42000000000 -15.489957 -77.242188 -1.0360065 -22.63965 -1.0978378 -22.536415 -16.826168 -120.32465
42100000000 -14.452679 -78.203537 -1.062114 -24.358555 -1.0040965 -24.579529 -16.635427 -122.97067
42200000000 -16.072033 -79.87809 -0.9868598 -26.313246 -1.0955489 -26.189426 -18.114801 -125.23916
42300000000 -15.937799 -76.003365 -0.97165126 -28.197731 -1.0605149 -27.950865 -17.617668 -125.64857
42400000000 -16.156553 -78.503548 -0.99948001 -29.491566 -1.0709034 -29.784782 -18.954485 -134.55289
42500000000 -15.063685 -74.562325 -1.0031936 -31.419779 -0.96554089 -31.575979 -19.192083 -136.43274
42600000000 -15.833893 -77.44146 -0.98702061 -33.248173 -0.98331463 -33.309669 -20.339312 -141.0724
42700000000 -16.230341 -70.978706 -1.0112107 -35.437641 -1.0287259 -35.094395 -19.720045 -132.46623
42800000000 -15.943041 -76.230484 -1.0990676 -37.355782 -1.0102104 -36.997368 -20.519247 -142.54918
42900000000 -17.131891 -67.470406 -1.0108997 -38.987499 -0.93848771 -39.240387 -22.267256 -135.71454
43000000000 -15.993473 -77.509911 -0.98571599 -40.644299 -0.98016584 -40.931396 -22.665672 -142.94165
43100000000 -17.407942 -74.162949 -1.0287659 -42.523449 -0.994627 -43.025475 -25.533031 -154.25511
43200000000 -15.825423 -68.408119 -1.0145694 -43.92281 -1.0599407 -44.369904 -25.089293 -161.65285
43300000000 -17.186331 -67.575996 -0.99725997 -45.654327 -1.0362854 -46.355438 -25.593599 -176.42215
43400000000 -15.289013 -61.376465 -0.93541813 -47.612717 -1.0498431 -48.026379 -25.802263 -159.75325
43500000000 -17.103693 -66.169426 -1.0464371 -49.567581 -1.0430945 -50.326004 -26.506935 -171.5341
43600000000 -16.134232 -59.985565 -0.97742325 -51.810959 -1.0244561 -51.669399 -30.336006 -172.36688
43700000000 -16.703053 -66.287453 -1.0568488 -53.974438 -1.0205691 -54.05975 -37.053627 159.39914
43800000000 -16.461792 -60.928947 -1.0816494 -55.558475 -1.0282654 -54.68845 -34.630497 96.97641
43900000000 -15.964195 -62.281311 -1.0224866 -56.787403 -1.0519651 -57.281635 -28.698734 114.78414
44000000000 -16.441948 -52.889214 -1.085367 -58.755035 -0.99310887 -58.323128 -31.289045 107.07784
44100000000 -15.291716 -54.590439 -0.97178692 -60.78738 -1.0627477 -60.805862 -32.217777 93.908569
44200000000 -16.195499 -52.317059 -1.0707749 -62.165905 -1.0925827 -62.338551 -32.683365 62.737564
44300000000 -15.656613 -53.630478 -0.98724419 -64.230263 -1.0737448 -64.206512 -27.400475 53.192837
44400000000 -15.863285 -54.464752 -1.096858 -65.948692 -1.1298425 -66.211884 -25.439932 47.56406
44500000000 -14.920163 -54.370373 -1.1085148 -67.861389 -1.1310599 -68.043434 -24.628851 40.858349
44600000000 -14.623993 -51.044643 -1.1541436 -69.768661 -1.0505297 -69.934647 -23.401264 41.210182
44700000000 -14.151018 -45.865139 -1.0680026 -71.697464 -1.1279763 -71.00061 -22.899199 34.324036
44800000000 -15.011084 -49.177998 -1.0631448 -73.036545 -1.0694362 -73.133537 -21.159689 21.930344
44900000000 -14.519575 -46.526283 -1.1583529 -75.158005 -1.1071525 -75.497284 -20.469139 25.250296
45000000000 -14.796525 -48.997566 -1.1231567 -76.79377 -1.0888261 -77.292892 -19.377668 23.872686
