!Keysight Technologies,N5247B,MY61255062,A.19.80.06
!Date: Monday, May 18, 2026 12:19:07
!Correction: S11(Cdelta 2-Port  ) 
!S21(Cdelta 2-Port  ) 
!S12(Cdelta 2-Port  ) 
!S22(Cdelta 2-Port  ) 
!S2P File: Measurements: S11, S21, S12, S22:
# Hz S  dB   R 50
1000000000 -26.775719 -17.10549 -0.40858847 -21.041281 -0.4080888 -21.048294 -27.17864 -18.734041
1100000000 -26.714058 -20.117025 -0.41985604 -23.092537 -0.42027748 -23.087175 -27.255136 -21.335651
1200000000 -26.608719 -22.165136 -0.43009302 -25.100121 -0.42847165 -25.102991 -27.232271 -22.517267
1300000000 -26.555403 -24.646051 -0.43557912 -27.171127 -0.43532988 -27.168926 -27.144321 -25.410892
1400000000 -26.45714 -26.674837 -0.44035506 -29.152092 -0.43982652 -29.156275 -27.127142 -26.35914
1500000000 -26.333876 -29.058142 -0.44261342 -31.192163 -0.44180059 -31.195936 -26.952448 -28.803854
1600000000 -26.304523 -31.368195 -0.44689554 -33.239487 -0.44713426 -33.242382 -26.863018 -31.712124
1700000000 -26.183308 -33.992931 -0.45044497 -35.266441 -0.4491553 -35.271313 -26.786625 -34.029423
1800000000 -26.097509 -36.794735 -0.45435026 -37.309395 -0.45344502 -37.322021 -26.708353 -36.748428
1900000000 -25.991442 -39.409576 -0.45417953 -39.360275 -0.45458162 -39.368843 -26.625629 -39.513325
2000000000 -25.965008 -42.021687 -0.46089688 -41.424332 -0.4611479 -41.433315 -26.590666 -42.650967
2100000000 -25.859856 -44.65427 -0.46464765 -43.461548 -0.46405768 -43.465633 -26.535706 -44.921303
2200000000 -25.867712 -47.286293 -0.46917936 -45.507393 -0.4702431 -45.5219 -26.495247 -47.652309
2300000000 -25.834345 -49.922138 -0.47304553 -47.561569 -0.47285473 -47.572067 -26.467348 -50.248848
2400000000 -25.811279 -52.681686 -0.47795707 -49.601822 -0.47864431 -49.597195 -26.500494 -53.277149
2500000000 -25.781778 -55.143803 -0.48413512 -51.631035 -0.48449048 -51.652641 -26.446501 -55.826797
2600000000 -25.798071 -57.717236 -0.49071497 -53.676495 -0.49071351 -53.693043 -26.467464 -58.745865
2700000000 -25.766973 -60.171398 -0.49704441 -55.710011 -0.49840617 -55.708324 -26.540567 -61.800934
2800000000 -25.811779 -62.991428 -0.50276607 -57.732231 -0.50131285 -57.750431 -26.540625 -64.133301
2900000000 -25.903622 -65.222496 -0.50758624 -59.775623 -0.50730634 -59.780712 -26.608244 -66.817459
3000000000 -25.904791 -68.113235 -0.51157558 -61.796566 -0.5110808 -61.809975 -26.673269 -69.170265
3100000000 -25.917631 -70.594856 -0.51389432 -63.823017 -0.51356214 -63.822212 -26.803299 -71.782829
3200000000 -25.86095 -73.210091 -0.51799154 -65.844719 -0.51850516 -65.857872 -26.873444 -74.168892
3300000000 -25.894361 -75.856316 -0.52239215 -67.87484 -0.52260411 -67.885887 -26.871225 -76.847748
3400000000 -25.930769 -78.290382 -0.52695125 -69.89502 -0.52675104 -69.906059 -26.962955 -79.050316
3500000000 -25.988932 -80.807365 -0.52926856 -71.918358 -0.52809179 -71.936813 -27.017149 -80.93383
3600000000 -25.991987 -82.9216 -0.53164208 -73.927925 -0.53068817 -73.954674 -27.090452 -83.220482
3700000000 -26.056995 -85.3964 -0.53332907 -75.976433 -0.53454596 -75.985191 -27.069006 -85.669403
3800000000 -26.06218 -87.315689 -0.53501296 -78.008072 -0.53717458 -78.019142 -27.161423 -88.192993
3900000000 -26.130053 -90.219894 -0.53758007 -80.048195 -0.54012728 -80.065033 -27.210028 -90.775375
4000000000 -26.125771 -91.976639 -0.54139739 -82.078651 -0.54199356 -82.10128 -27.35033 -92.931313
4100000000 -26.20343 -94.603889 -0.54503989 -84.108215 -0.54631579 -84.127144 -27.424404 -95.254013
4200000000 -26.279324 -96.606636 -0.54858208 -86.129677 -0.55016226 -86.145065 -27.586428 -97.214424
4300000000 -26.32847 -99.003548 -0.55105203 -88.157372 -0.55131155 -88.167717 -27.584343 -99.563194
4400000000 -26.477137 -101.30976 -0.55342251 -90.187241 -0.55496001 -90.210281 -27.808184 -101.91394
4500000000 -26.49972 -103.20141 -0.55691212 -92.209457 -0.55818093 -92.221764 -27.863108 -104.1797
4600000000 -26.601976 -105.77563 -0.55893958 -94.23896 -0.56256413 -94.260719 -28.070616 -106.85464
4700000000 -26.659605 -107.99216 -0.56190532 -96.277649 -0.56151646 -96.284561 -28.095797 -108.83198
4800000000 -26.807213 -110.37894 -0.56471539 -98.302338 -0.56658459 -98.324074 -28.303936 -111.35931
4900000000 -26.915997 -111.88968 -0.56808102 -100.35101 -0.56865788 -100.35783 -28.357794 -112.82677
5000000000 -27.009111 -114.72639 -0.5711661 -102.3773 -0.57170027 -102.38329 -28.617344 -115.49246
5100000000 -27.185593 -116.13429 -0.57309657 -104.40692 -0.57492739 -104.40824 -28.795313 -116.83593
5200000000 -27.22191 -118.64748 -0.57626265 -106.41626 -0.57772964 -106.42896 -29.08449 -119.75442
5300000000 -27.404211 -120.31117 -0.57981211 -108.45564 -0.57797623 -108.46375 -29.282372 -121.89959
5400000000 -27.513851 -122.99092 -0.58407712 -110.48683 -0.58418667 -110.4867 -29.425524 -124.89168
5500000000 -27.729834 -124.82246 -0.5862177 -112.50275 -0.5842942 -112.5168 -29.581163 -126.93146
5600000000 -27.846882 -127.19074 -0.58870119 -114.53142 -0.59150195 -114.54961 -29.726902 -128.55954
5700000000 -27.990202 -129.60367 -0.59134442 -116.55625 -0.59267706 -116.55582 -30.019838 -129.42874
5800000000 -28.121416 -131.18248 -0.59384745 -118.55981 -0.59709847 -118.59477 -30.373125 -131.90111
5900000000 -28.279112 -133.47307 -0.59672844 -120.59048 -0.59554183 -120.60095 -30.704994 -133.8423
6000000000 -28.383694 -135.32518 -0.59959143 -122.61351 -0.59918314 -122.623 -31.00214 -137.42598
6100000000 -28.682264 -137.51996 -0.60094768 -124.62866 -0.60153574 -124.63404 -31.239428 -140.04147
6200000000 -28.978594 -139.65161 -0.60056984 -126.64 -0.60312754 -126.6559 -31.459846 -142.88017
6300000000 -29.312029 -141.79247 -0.60161126 -128.63512 -0.60310614 -128.66631 -31.930769 -143.35506
6400000000 -29.601366 -144.15515 -0.59897482 -130.69283 -0.60251284 -130.68968 -32.531036 -145.95689
6500000000 -29.98595 -146.18175 -0.6017409 -132.70198 -0.60392714 -132.72368 -33.25663 -146.57187
6600000000 -30.212709 -147.20074 -0.60082817 -134.74113 -0.60273796 -134.73537 -33.790276 -148.91144
6700000000 -30.547752 -149.42891 -0.60157263 -136.76797 -0.60380602 -136.78755 -34.518196 -149.92889
6800000000 -30.896811 -149.7627 -0.60022122 -138.82515 -0.60254675 -138.84128 -35.005119 -152.78838
6900000000 -31.229862 -151.51637 -0.60169214 -140.86523 -0.60368109 -140.88664 -35.812141 -150.50537
7000000000 -31.478168 -150.26639 -0.60820341 -142.92888 -0.60960466 -142.92902 -36.135456 -150.11232
7100000000 -31.610315 -154.55589 -0.61459565 -144.91075 -0.61340564 -144.91595 -36.741703 -154.4736
7200000000 -32.302658 -155.07751 -0.60963267 -146.94606 -0.6099484 -146.9695 -37.925522 -156.92245
7300000000 -32.644588 -156.84857 -0.61145806 -148.98993 -0.6132223 -149.0209 -38.932381 -158.09192
7400000000 -33.538906 -156.85451 -0.61759311 -151.03185 -0.61854696 -151.05832 -39.293705 -153.44432
7500000000 -33.488338 -155.5553 -0.62191033 -153.06555 -0.62188286 -153.07536 -40.354408 -144.0159
7600000000 -34.300049 -156.92157 -0.61693484 -155.07397 -0.62083751 -155.08951 -41.325825 -143.29501
7700000000 -34.516445 -156.14046 -0.61949325 -157.09973 -0.61899829 -157.12247 -43.618732 -134.59996
7800000000 -35.130306 -157.993 -0.6207763 -159.15364 -0.62580943 -159.17152 -45.10078 -132.79707
7900000000 -35.202656 -155.30589 -0.62375766 -161.19832 -0.62677646 -161.21758 -46.566521 -133.06659
8000000000 -35.932766 -157.11201 -0.62702912 -163.23592 -0.6291306 -163.2471 -44.55294 -124.77798
8100000000 -36.474537 -153.32892 -0.630925 -165.27397 -0.63444722 -165.31332 -44.059338 -106.48528
8200000000 -36.83886 -154.89748 -0.63506621 -167.3304 -0.63751811 -167.34431 -42.004044 -83.898499
8300000000 -37.77494 -154.32921 -0.64265293 -169.37778 -0.64654094 -169.40242 -41.663307 -52.565174
8400000000 -38.62355 -156.46501 -0.65352815 -171.43521 -0.65493655 -171.46326 -41.950108 -18.84152
8500000000 -39.695351 -146.80856 -0.68483829 -173.51126 -0.68597585 -173.52911 -40.351841 53.710674
8600000000 -36.39986 -148.39952 -0.76330155 -175.26462 -0.76721138 -175.28038 -31.980278 94.895996
8700000000 -37.046722 148.38713 -0.67065185 -175.9043 -0.67285556 -175.92731 -25.129066 78.136765
8800000000 -44.802544 -94.852814 -0.51649767 -179.10686 -0.51993406 -179.12756 -28.962122 47.838634
8900000000 -39.809139 -132.90929 -0.58831525 178.40005 -0.59230763 178.38974 -36.735237 43.486153
9000000000 -40.414444 -139.62825 -0.62636077 176.37138 -0.63078314 176.36661 -51.231903 -41.795498
9100000000 -41.573986 -133.50986 -0.6421262 174.38034 -0.64902002 174.36163 -40.32114 -80.550781
9200000000 -40.826511 -124.44949 -0.64891875 172.39154 -0.65097636 172.34901 -35.871632 -72.821686
9300000000 -40.396957 -116.40879 -0.65260297 170.36377 -0.65667844 170.35368 -34.547382 -62.494061
9400000000 -39.793045 -115.41528 -0.65779573 168.35249 -0.6617564 168.33611 -34.117935 -56.375793
9500000000 -40.177959 -110.75593 -0.6628316 166.32983 -0.66432267 166.33557 -34.418056 -51.723801
9600000000 -39.695839 -105.77488 -0.66628981 164.33882 -0.66821414 164.32036 -34.446026 -56.149635
9700000000 -39.647789 -102.25221 -0.66836661 162.31 -0.66924375 162.29184 -34.177944 -58.738953
9800000000 -38.5312 -99.893562 -0.66954458 160.28773 -0.67119896 160.25694 -33.192081 -62.897861
9900000000 -38.76136 -100.36909 -0.67265487 158.26689 -0.6719172 158.23236 -32.533379 -61.479099
10000000000 -37.760357 -97.306221 -0.67563462 156.23712 -0.67797905 156.21065 -32.040089 -62.909477
10100000000 -37.886124 -97.373756 -0.67787832 154.21756 -0.67961735 154.18445 -32.31142 -61.173176
10200000000 -36.732445 -92.589897 -0.68106425 152.20351 -0.68080413 152.16548 -31.890062 -64.826401
10300000000 -36.551029 -94.442062 -0.68400735 150.17596 -0.68382794 150.13293 -31.884512 -66.974892
10400000000 -35.597 -91.928093 -0.68516988 148.15102 -0.68818974 148.11551 -31.108122 -70.557495
10500000000 -35.696495 -97.926682 -0.68918288 146.12112 -0.68852705 146.09203 -30.676411 -70.846725
10600000000 -35.005749 -94.471695 -0.68789434 144.06253 -0.6933533 144.04343 -30.034714 -71.912277
10700000000 -34.38834 -96.174797 -0.69194812 142.05605 -0.69470239 142.04007 -30.037674 -70.847282
10800000000 -34.28933 -92.850494 -0.69738787 140.04785 -0.69804811 139.99342 -29.763275 -71.759834
10900000000 -33.651928 -95.671089 -0.69940901 138.00854 -0.7015388 138.00418 -30.048164 -73.987709
11000000000 -33.64299 -95.068642 -0.70234209 136.00647 -0.70582217 135.97742 -29.615183 -76.327766
11100000000 -32.894901 -97.80172 -0.70674568 133.99153 -0.70982939 133.95091 -29.60684 -80.219826
11200000000 -33.154354 -98.280952 -0.7106927 131.96242 -0.71277922 131.9373 -28.944136 -81.584724
11300000000 -32.507046 -99.36068 -0.71252513 129.94193 -0.71643531 129.91338 -28.816446 -83.685364
11400000000 -32.29031 -101.94908 -0.71452129 127.90385 -0.71874118 127.89016 -28.275108 -83.906807
11500000000 -31.730186 -102.44413 -0.71718246 125.91832 -0.71895283 125.87811 -28.145452 -85.600311
11600000000 -31.497133 -105.36493 -0.72191256 123.8853 -0.72331125 123.85647 -28.045778 -87.064522
11700000000 -31.118793 -104.92178 -0.72427976 121.88274 -0.72635597 121.86294 -28.186571 -89.998901
11800000000 -31.001574 -108.18088 -0.72733736 119.87915 -0.73107499 119.84757 -27.895399 -91.57843
11900000000 -30.802298 -108.24747 -0.73157185 117.87025 -0.73341465 117.84623 -27.778063 -95.839256
12000000000 -30.650547 -112.67607 -0.73191249 115.8791 -0.73536801 115.8551 -27.426056 -95.181389
12100000000 -30.49394 -113.55093 -0.73258966 113.86039 -0.73590523 113.83321 -27.398548 -98.782501
12200000000 -30.139967 -118.19586 -0.73424959 111.87583 -0.73661578 111.8469 -27.219976 -100.28095
12300000000 -29.988268 -119.25711 -0.73283571 109.8858 -0.73423642 109.83148 -27.087448 -103.86481
12400000000 -29.841919 -122.16893 -0.73424774 107.86722 -0.73335212 107.83318 -27.170425 -105.03078
12500000000 -29.968561 -124.5164 -0.73043054 105.8789 -0.7346524 105.82897 -27.15391 -108.45242
12600000000 -29.842228 -127.55842 -0.72793204 103.86183 -0.73037142 103.83661 -27.051678 -110.11149
12700000000 -30.071848 -129.97206 -0.72517473 101.84482 -0.72961748 101.81776 -27.024193 -113.17105
12800000000 -29.648979 -133.34473 -0.72244418 99.839432 -0.72451097 99.799698 -27.063118 -114.01563
12900000000 -29.816887 -135.46013 -0.72090614 97.785309 -0.7218802 97.748901 -27.155378 -117.55251
13000000000 -29.632629 -136.9366 -0.71902311 95.763138 -0.7223292 95.718735 -27.285034 -118.65829
13100000000 -29.994858 -139.72574 -0.7149272 93.727242 -0.71987301 93.698425 -27.207945 -122.16791
13200000000 -29.911154 -140.69981 -0.71307361 91.69239 -0.71667653 91.648582 -27.319626 -123.25712
13300000000 -30.330076 -145.19621 -0.71258128 89.646179 -0.71730882 89.61953 -27.205801 -124.68146
13400000000 -30.183567 -144.96353 -0.71291405 87.595566 -0.71359313 87.573708 -27.481575 -124.90494
13500000000 -30.228167 -149.17668 -0.71341068 85.565712 -0.71479505 85.524109 -27.631941 -127.75063
13600000000 -30.245823 -147.5607 -0.71278048 83.510536 -0.71590751 83.474327 -28.05987 -128.84074
13700000000 -30.33375 -151.16611 -0.71431106 81.452209 -0.71831262 81.415108 -28.003899 -132.66464
13800000000 -30.938499 -150.22411 -0.71679741 79.398361 -0.72014433 79.36412 -28.10256 -134.33743
13900000000 -30.70483 -154.05708 -0.72500342 77.33773 -0.73122233 77.289185 -27.750069 -135.35492
14000000000 -30.764133 -154.59621 -0.74420547 75.329956 -0.74588215 75.298515 -27.665102 -134.74615
14100000000 -29.764624 -160.67407 -0.73840338 73.438805 -0.74191433 73.404327 -27.562506 -139.41328
14200000000 -30.472486 -164.51703 -0.72537875 71.400093 -0.72936052 71.364998 -28.385719 -142.11238
14300000000 -30.384113 -163.83691 -0.72387511 69.341324 -0.72941869 69.293045 -28.558506 -145.4557
14400000000 -31.164799 -168.25745 -0.72340637 67.293076 -0.72736764 67.245384 -28.905346 -148.35596
14500000000 -31.267065 -168.31062 -0.72532368 65.236198 -0.72963732 65.190529 -28.792248 -149.40872
14600000000 -31.770231 -175.68425 -0.73072642 63.187309 -0.7318877 63.140038 -28.920866 -151.51146
14700000000 -31.779909 -174.04845 -0.73463279 61.115849 -0.738276 61.083973 -29.00498 -150.9136
14800000000 -31.391615 -177.08003 -0.74926108 59.094231 -0.7559914 59.029705 -29.318872 -152.54364
14900000000 -31.185856 -178.27095 -0.75019568 57.199429 -0.75566518 57.157661 -29.241943 -158.75887
15000000000 -31.445719 178.63589 -0.7427783 55.153374 -0.74649417 55.111305 -29.905386 -161.83441
15100000000 -32.328484 178.34264 -0.7425307 53.100632 -0.7437253 53.059219 -29.771143 -161.89854
15200000000 -32.24868 173.99211 -0.74147034 51.041306 -0.74977022 51.018581 -29.972061 -162.65205
15300000000 -32.717579 168.86963 -0.74645942 49.039555 -0.74871665 49.010067 -30.164162 -164.13257
15400000000 -32.187981 167.17883 -0.74222881 47.005466 -0.74633306 46.975811 -30.969326 -166.07874
15500000000 -32.713615 166.27106 -0.7447294 44.964054 -0.75019044 44.93457 -31.200689 -168.45689
15600000000 -32.573025 166.17876 -0.75061661 42.910515 -0.75302625 42.878593 -31.521297 -174.48213
15700000000 -33.367985 163.19388 -0.75119078 40.889915 -0.7559135 40.87487 -31.479925 -174.3013
15800000000 -33.462509 158.47508 -0.75568056 38.864563 -0.75708342 38.810944 -31.50355 -176.11444
15900000000 -33.981701 151.74635 -0.75874686 36.820404 -0.76183808 36.769554 -31.647747 -175.83186
16000000000 -33.496487 152.0197 -0.75727355 34.818146 -0.76428235 34.76754 -32.341621 -179.17059
16100000000 -33.604931 145.67682 -0.76281953 32.770401 -0.76581639 32.735756 -33.042316 178.38702
16200000000 -33.581993 149.88196 -0.76716292 30.749525 -0.76826602 30.734451 -33.348595 170.73396
16300000000 -34.161957 138.74496 -0.77113837 28.748253 -0.77078688 28.720392 -33.479008 169.41173
16400000000 -34.869251 139.81247 -0.7757358 26.7199 -0.77573639 26.678951 -33.573174 164.06398
16500000000 -34.180866 127.10905 -0.77438295 24.706015 -0.77730364 24.675797 -34.047005 165.53951
16600000000 -34.768528 128.71146 -0.77463478 22.694118 -0.78301042 22.633427 -34.754478 160.43138
16700000000 -33.683891 124.74953 -0.78200924 20.657263 -0.78213102 20.629988 -35.62862 160.3848
16800000000 -35.343067 123.29762 -0.77997595 18.644281 -0.78368104 18.599665 -35.97533 148.3997
16900000000 -34.53825 119.8136 -0.78561056 16.627632 -0.7882933 16.594877 -36.969906 147.95882
17000000000 -36.062675 107.15678 -0.78781748 14.60632 -0.79000849 14.562472 -36.338634 140.11139
17100000000 -34.980865 109.31332 -0.78992528 12.618826 -0.78953218 12.585911 -37.408497 139.51958
17200000000 -35.321514 97.943604 -0.79138798 10.575939 -0.79514599 10.54697 -37.024601 137.25517
17300000000 -35.28754 108.86716 -0.79028857 8.5724201 -0.79485005 8.5464611 -39.633221 133.36464
17400000000 -35.340164 98.243416 -0.79330289 6.5472941 -0.79876852 6.5269427 -39.456409 122.33044
17500000000 -36.990543 104.10955 -0.792153 4.5103693 -0.79874456 4.4927802 -40.816666 106.73007
17600000000 -35.914051 87.699379 -0.79512548 2.5313115 -0.79708374 2.4867604 -38.968319 103.22805
17700000000 -37.337105 85.495171 -0.80051148 0.52365726 -0.80152071 0.49526304 -39.51519 91.926155
17800000000 -35.568813 79.464859 -0.79666954 -1.5098228 -0.80183953 -1.5174623 -39.171673 100.48376
17900000000 -37.306984 74.448914 -0.80087632 -3.4940133 -0.80497128 -3.5232964 -41.214825 91.017731
18000000000 -36.070034 80.216805 -0.80002224 -5.5296731 -0.80289763 -5.5592012 -42.269096 80.862907
18100000000 -37.669037 71.994263 -0.79870445 -7.5391884 -0.80428302 -7.5491185 -42.035362 47.002045
18200000000 -36.953026 73.096642 -0.79923928 -9.5751276 -0.80529249 -9.5638533 -39.835644 47.991585
18300000000 -36.975063 58.291348 -0.79969388 -11.547945 -0.80474383 -11.597338 -38.06741 41.383217
18400000000 -36.735104 61.605785 -0.79736614 -13.594857 -0.80035681 -13.623598 -38.283993 48.21616
18500000000 -36.31176 51.149166 -0.79915214 -15.602824 -0.80341494 -15.632931 -38.714981 42.531685
18600000000 -36.135094 51.081284 -0.79715371 -17.640762 -0.80363578 -17.668192 -40.786728 34.463791
18700000000 -36.202206 40.097351 -0.80159944 -19.658545 -0.80143821 -19.688335 -38.962383 12.247043
18800000000 -36.609291 42.317696 -0.79821628 -21.683638 -0.8004418 -21.704323 -37.607552 4.2374454
18900000000 -36.051735 33.381489 -0.79458398 -23.674995 -0.79760009 -23.700825 -35.061661 1.2145379
19000000000 -36.071815 34.399773 -0.79370439 -25.67634 -0.80035746 -25.68923 -34.791695 7.638133
19100000000 -35.209747 29.042261 -0.79524082 -27.708786 -0.79987752 -27.761276 -34.566525 6.0278664
19200000000 -35.978157 29.710934 -0.79806978 -29.728046 -0.80382949 -29.774876 -35.783848 5.5377426
19300000000 -35.07555 22.506647 -0.79607219 -31.773104 -0.79431015 -31.80328 -35.214077 -7.5563641
19400000000 -36.593384 21.99128 -0.79688036 -33.778683 -0.79738486 -33.825199 -35.357498 -12.169806
19500000000 -35.257542 17.576973 -0.79290211 -35.808346 -0.79556006 -35.836796 -33.524788 -18.296518
19600000000 -36.209492 10.501607 -0.78885168 -37.834927 -0.79456037 -37.884583 -33.744995 -18.441526
19700000000 -34.466576 16.094227 -0.78889918 -39.856136 -0.79117614 -39.904369 -32.54092 -18.737782
19800000000 -35.435452 7.8184128 -0.78691882 -41.896393 -0.79305619 -41.947495 -33.495552 -20.233845
19900000000 -35.087097 17.442757 -0.78542972 -43.885571 -0.79203159 -43.980232 -32.531502 -23.299246
20000000000 -35.921986 1.6387414 -0.78860956 -45.947285 -0.79378337 -46.007 -33.004402 -29.312061
20100000000 -35.931503 11.029406 -0.78804004 -48.005325 -0.79046494 -48.051693 -31.916199 -27.884096
20200000000 -34.718163 -4.7907419 -0.79001844 -50.032185 -0.79197752 -50.076309 -32.088947 -33.212368
20300000000 -35.366669 0.95499885 -0.78734487 -52.083176 -0.7948367 -52.137047 -31.404028 -27.64283
20400000000 -33.517654 -4.2265701 -0.7843399 -54.125195 -0.79278308 -54.169521 -32.105339 -35.661556
20500000000 -35.561951 -5.4793339 -0.78675473 -56.177559 -0.79260224 -56.230759 -31.678764 -35.72731
20600000000 -34.09148 -7.6373878 -0.79065406 -58.23814 -0.80220664 -58.312679 -31.233217 -45.153526
20700000000 -35.409286 -20.673075 -0.79557687 -60.201683 -0.7993843 -60.31773 -30.201393 -41.033768
20800000000 -33.907818 -18.520212 -0.81631273 -62.248276 -0.81231689 -62.294079 -29.317148 -46.927547
20900000000 -34.337673 -34.163761 -0.80712229 -64.159203 -0.81100661 -64.218437 -29.264908 -43.316315
21000000000 -34.824471 -23.980961 -0.79692763 -66.174576 -0.80218792 -66.251366 -29.881556 -49.508026
21100000000 -34.211971 -30.348362 -0.79317176 -68.227524 -0.79986292 -68.299362 -30.449961 -47.522884
21200000000 -35.127842 -26.248981 -0.79140347 -70.339195 -0.79212475 -70.39283 -30.417648 -56.701408
21300000000 -34.672119 -32.85685 -0.79106557 -72.376572 -0.79335076 -72.418083 -30.246204 -58.886913
21400000000 -35.852085 -35.385593 -0.79202783 -74.440269 -0.7941227 -74.510094 -29.201853 -61.762478
21500000000 -34.58514 -39.425892 -0.79820818 -76.495049 -0.80077076 -76.526466 -28.837097 -60.593784
21600000000 -34.449642 -41.655922 -0.80533767 -78.540215 -0.80808967 -78.571495 -28.341497 -61.048855
21700000000 -34.189655 -47.396481 -0.81559867 -80.463989 -0.81946868 -80.540756 -28.632298 -62.064011
21800000000 -35.049267 -49.966515 -0.80668777 -82.407867 -0.81046158 -82.505005 -29.137192 -66.973877
21900000000 -35.769573 -51.558388 -0.79846704 -84.474854 -0.80259305 -84.537651 -29.900148 -68.475288
22000000000 -36.665241 -47.779095 -0.79807007 -86.586525 -0.80274844 -86.609276 -29.780106 -76.559853
22100000000 -36.359734 -54.78476 -0.79987472 -88.640114 -0.80466002 -88.685928 -29.431473 -77.151848
22200000000 -37.262444 -50.131123 -0.80761451 -90.707382 -0.80746335 -90.754349 -28.723156 -81.081001
22300000000 -35.690536 -59.739983 -0.807733 -92.731705 -0.81696099 -92.8088 -28.565929 -76.636055
22400000000 -38.363529 -59.56591 -0.81841248 -94.648483 -0.82392448 -94.697327 -28.418917 -82.145432
22500000000 -37.01693 -62.671482 -0.80399585 -96.687759 -0.80905294 -96.752693 -29.740767 -80.322929
22600000000 -40.580307 -70.754776 -0.80518502 -98.72155 -0.80562097 -98.763412 -29.62406 -87.075363
22700000000 -38.337242 -65.33699 -0.80949581 -100.78312 -0.81394702 -100.85127 -30.117645 -89.847427
22800000000 -39.642323 -92.122444 -0.80787832 -102.83936 -0.80966985 -102.91212 -28.9447 -94.264488
22900000000 -38.7057 -65.624634 -0.81195456 -104.86414 -0.8132683 -104.8945 -29.426071 -94.06601
23000000000 -38.318413 -91.448044 -0.81512177 -106.93073 -0.81128365 -106.98807 -28.804016 -94.345329
23100000000 -41.281296 -76.178001 -0.80541778 -108.94794 -0.8146736 -108.99734 -29.972073 -96.294128
23200000000 -39.434464 -95.87867 -0.8128413 -110.9744 -0.81608373 -111.04965 -29.687365 -99.049141
23300000000 -46.026749 -107.01315 -0.80710638 -113.00887 -0.81208032 -113.0759 -30.632904 -109.04434
23400000000 -39.5117 -105.70844 -0.82411349 -115.05806 -0.82210922 -115.1037 -29.139868 -110.61261
23500000000 -42.386463 -143.75948 -0.82041854 -117.14854 -0.82654929 -117.17582 -29.213783 -114.81509
23600000000 -39.707615 -111.09179 -0.82009894 -119.16817 -0.82614726 -119.20091 -28.686689 -107.46171
23700000000 -40.040333 -147.29572 -0.82553452 -121.18292 -0.82988751 -121.19199 -29.956705 -113.02924
23800000000 -42.331974 -128.896 -0.82514012 -123.20913 -0.83225912 -123.2763 -30.572838 -113.54401
23900000000 -38.22604 -159.32825 -0.82765383 -125.21343 -0.83234692 -125.30944 -31.621344 -130.71231
24000000000 -42.418308 -179.86539 -0.83393437 -127.2746 -0.83551675 -127.32948 -30.417231 -134.86798
24100000000 -37.655342 -171.7597 -0.83239394 -129.31708 -0.83756679 -129.38023 -29.279881 -141.35159
24200000000 -39.541187 167.56395 -0.83514649 -131.34642 -0.83516032 -131.37082 -29.272013 -134.18533
24300000000 -37.70071 -175.34068 -0.83746165 -133.35341 -0.83811617 -133.38872 -29.283001 -135.98514
24400000000 -37.493675 157.67274 -0.83459622 -135.38986 -0.8417452 -135.442 -31.066874 -132.59552
24500000000 -38.044319 160.15202 -0.84222347 -137.39801 -0.84747696 -137.47543 -31.850977 -147.78929
24600000000 -35.127342 145.13235 -0.84230143 -139.42804 -0.84450686 -139.49713 -32.855789 -160.36006
24700000000 -35.505337 141.68237 -0.84616166 -141.48335 -0.85348064 -141.52415 -30.887629 -171.79817
24800000000 -33.086658 140.51472 -0.84972471 -143.51526 -0.85192353 -143.57727 -30.572449 -172.09999
24900000000 -33.676601 132.40698 -0.85021895 -145.55455 -0.85083956 -145.60843 -29.878214 -171.73941
25000000000 -33.213177 132.92245 -0.85144544 -147.61978 -0.85351723 -147.64999 -30.871597 -169.62814
25100000000 -32.999172 123.77876 -0.84935045 -149.55519 -0.85727739 -149.67889 -31.758249 -178.96075
25200000000 -32.108749 119.57435 -0.85278189 -151.59978 -0.85897148 -151.63879 -33.223183 170.49397
25300000000 -31.10676 114.07293 -0.85840553 -153.64873 -0.86552721 -153.66959 -31.562603 157.04353
25400000000 -30.041529 111.65054 -0.86115223 -155.65689 -0.86054659 -155.74113 -31.340698 152.04248
25500000000 -29.753782 111.03567 -0.86420923 -157.70419 -0.86890566 -157.76741 -30.281265 148.20523
25600000000 -29.085499 108.25905 -0.85966271 -159.75034 -0.86975664 -159.80246 -30.646259 144.06767
25700000000 -29.345249 103.94061 -0.86728644 -161.81247 -0.86898315 -161.83951 -30.74094 140.23708
25800000000 -28.263624 103.71066 -0.86425728 -163.85133 -0.86964345 -163.84453 -30.74284 129.73541
25900000000 -28.574419 92.960747 -0.87432802 -165.8007 -0.8801924 -165.90947 -30.490183 124.45143
26000000000 -27.484793 97.651443 -0.86753929 -167.84706 -0.871032 -167.92809 -29.861168 114.47557
26100000000 -27.069967 86.664536 -0.87448597 -169.92474 -0.87700117 -169.91083 -29.112316 113.96604
26200000000 -26.907598 92.707176 -0.87696856 -171.89127 -0.87913048 -171.98975 -28.672855 107.06885
26300000000 -25.808548 84.327133 -0.88981086 -173.93263 -0.88630813 -173.93443 -28.478662 108.15749
26400000000 -26.627888 87.811287 -0.88466811 -175.98245 -0.88895023 -176.05159 -28.360403 94.136993
26500000000 -24.991488 82.513496 -0.87934726 -178.00288 -0.88681072 -178.09085 -27.920771 97.340179
26600000000 -26.116007 78.418526 -0.88167691 179.96025 -0.88652593 179.93912 -27.603374 87.082939
26700000000 -24.398483 81.568253 -0.88500196 178.00865 -0.89900237 177.89049 -26.744534 87.49752
26800000000 -25.23333 71.649818 -0.89005584 175.9855 -0.8919614 175.86113 -26.352333 80.140526
26900000000 -24.041986 78.000282 -0.9054904 173.92763 -0.89123958 173.79776 -26.910421 80.798889
27000000000 -24.137407 66.717186 -0.89889508 171.77328 -0.91587305 171.7612 -25.159216 75.952698
27100000000 -24.071346 74.32634 -0.9102084 169.84769 -0.91318452 169.77242 -26.178375 74.809631
27200000000 -23.08366 63.307377 -0.91916656 167.75899 -0.91387486 167.75002 -25.061134 66.436287
27300000000 -23.836351 67.890297 -0.90911746 165.68636 -0.90314382 165.82407 -25.627485 64.01873
27400000000 -22.512295 61.86237 -0.92207903 163.79993 -0.92015892 163.71031 -24.061068 62.11092
27500000000 -23.647537 61.72673 -0.92763388 161.74713 -0.92958844 161.63081 -24.530111 58.316525
27600000000 -22.548676 58.207561 -0.93766207 159.77147 -0.9227106 159.71213 -23.558023 59.010815
27700000000 -23.122932 55.082726 -0.91363269 157.71797 -0.90282291 157.6488 -23.734991 52.206444
27800000000 -21.911232 55.574642 -0.90761364 155.65834 -0.92803711 155.62193 -23.359888 53.483639
27900000000 -22.222034 51.288219 -0.90996391 153.659 -0.92482752 153.6039 -23.534451 45.411457
28000000000 -21.469017 53.054737 -0.94121706 151.5096 -0.94780934 151.51321 -22.830343 46.271744
28100000000 -21.833538 47.377064 -0.90848082 149.80121 -0.94267112 149.49113 -22.075573 37.80983
28200000000 -21.855442 47.395023 -0.94232512 147.64064 -0.94280171 147.5397 -22.008741 40.16217
28300000000 -21.283522 40.620888 -0.93677294 145.53915 -0.92343223 145.57904 -22.231657 33.17421
28400000000 -21.138931 41.70731 -0.93202055 143.55101 -0.94279659 143.54367 -21.973625 34.229542
28500000000 -20.885408 37.300526 -0.93419015 141.5918 -0.91237545 141.49638 -21.54693 28.876421
28600000000 -20.644157 38.39555 -0.91933221 139.70911 -0.93776423 139.5233 -20.916664 29.289553
28700000000 -20.517717 35.915375 -0.94707042 137.62144 -0.92965257 137.48047 -20.961639 23.799339
28800000000 -20.826105 36.224869 -0.95087677 135.32852 -0.96709466 135.38078 -20.980373 26.415567
28900000000 -20.187233 30.724813 -0.93037695 133.43417 -0.92282552 133.31732 -20.789625 20.085281
29000000000 -20.596174 31.108759 -0.93699843 131.42438 -0.94524413 131.36584 -20.620525 18.81193
29100000000 -19.97086 25.063078 -0.9332822 129.30325 -0.95590311 129.30058 -20.259501 11.328349
29200000000 -20.366302 26.230738 -0.97470671 127.56012 -0.95539343 127.42344 -20.020956 11.856607
29300000000 -19.792646 25.371937 -0.95098472 125.28313 -0.94258559 125.30198 -19.676006 9.2955389
29400000000 -20.458153 25.616032 -0.95952827 123.46411 -0.93940097 123.41995 -19.613634 13.090716
29500000000 -19.599102 23.457827 -0.95197213 121.40403 -0.9592939 121.3748 -19.6693 7.5518074
29600000000 -20.531351 17.660271 -0.95800883 119.36228 -0.94130194 119.30231 -20.178802 9.1962166
29700000000 -19.649164 21.926516 -0.9396587 117.23028 -0.94964027 117.16165 -19.767754 0.71609896
29800000000 -19.95496 13.55488 -0.97018903 115.29665 -0.97430885 115.24756 -19.871754 1.2676842
29900000000 -19.474285 18.017508 -0.9449172 113.28206 -0.93210238 113.03188 -18.918997 -5.2327957
30000000000 -19.519165 11.745319 -0.97581619 111.0222 -0.98404545 111.17109 -19.260231 -2.4943635
30100000000 -19.88154 16.115671 -0.96640098 109.2996 -0.96341145 109.1175 -18.65914 -5.4580531
30200000000 -19.545761 7.3900695 -0.97380704 107.17867 -0.96217299 107.20689 -19.332464 -4.773798
30300000000 -20.306597 10.180379 -0.94831747 105.05292 -0.97116399 105.0723 -18.889273 -10.933823
30400000000 -19.169008 5.1261926 -0.95553857 103.27543 -0.9656046 103.05579 -19.663906 -12.815
30500000000 -20.300503 3.0239661 -0.97741777 101.04774 -0.95365584 101.01126 -18.743145 -16.422939
30600000000 -19.33165 4.6005659 -0.94269723 99.021347 -0.97041398 98.937813 -19.25086 -19.7299
30700000000 -20.103687 -1.4403394 -0.94901669 97.120811 -0.95578402 97.02623 -18.429266 -20.025064
30800000000 -19.80364 0.74238497 -0.95558339 95.100601 -0.98958594 94.857208 -19.31307 -22.348219
30900000000 -20.16802 -5.3545823 -0.94780678 93.017036 -0.96666133 92.996231 -18.564857 -21.731354
31000000000 -19.926165 -3.8208382 -0.94663519 90.984154 -0.984339 90.980019 -19.276146 -28.081629
31100000000 -20.024826 -9.8682089 -0.95597953 88.970161 -0.97125626 88.976906 -18.907269 -30.356131
31200000000 -20.085896 -6.2413893 -0.97630817 87.200073 -0.96604627 86.951485 -18.855547 -34.713913
31300000000 -19.734123 -9.1394587 -0.94401765 84.996132 -0.96925151 84.978951 -18.931318 -34.551601
31400000000 -20.461914 -9.0283689 -0.94584113 82.905418 -0.98341948 82.844681 -18.735073 -37.749596
31500000000 -20.307785 -11.901787 -0.95002139 80.942436 -0.97910196 80.820175 -18.927141 -34.098236
31600000000 -20.861544 -13.082851 -0.94662523 78.857346 -0.95532566 78.803978 -19.575846 -39.64204
31700000000 -20.67296 -16.343414 -0.94023627 76.867226 -0.96469587 76.680534 -19.513969 -40.846798
31800000000 -20.828993 -15.053991 -0.98049706 74.852684 -0.99330539 74.827049 -19.708492 -47.557243
31900000000 -20.683043 -18.074305 -0.96019375 72.809708 -0.96245927 72.713898 -19.325226 -48.196388
32000000000 -20.82748 -18.473719 -0.95531279 70.848846 -0.9675197 70.880989 -19.423943 -50.130577
32100000000 -21.195679 -22.435738 -0.94167846 68.64257 -0.95491928 68.612305 -19.328939 -48.466816
32200000000 -21.734013 -18.799551 -0.94274449 66.717461 -0.96308804 66.48658 -19.987686 -51.305649
32300000000 -21.496336 -22.413498 -0.96649349 64.746666 -0.97234124 64.473572 -20.306885 -53.585686
32400000000 -22.841255 -25.124098 -0.97114843 62.526932 -0.95571375 62.5826 -20.920324 -58.321232
32500000000 -22.18162 -26.47274 -0.94665289 60.492676 -0.96617174 60.55162 -20.628616 -59.24873
32600000000 -23.170395 -29.08021 -0.94534427 58.611294 -0.96224892 58.479424 -20.4426 -64.714554
32700000000 -22.921843 -22.194496 -0.96093524 56.423679 -0.96145391 56.442062 -20.36067 -65.098793
32800000000 -23.911505 -29.112076 -0.96173882 54.367641 -0.95829225 54.36528 -20.486101 -68.174995
32900000000 -23.618654 -20.908499 -0.95272738 52.364227 -0.94334334 52.278793 -21.244396 -65.471001
33000000000 -24.437611 -35.355606 -0.95744276 50.29356 -0.95922768 50.333286 -22.120159 -70.69593
33100000000 -24.813368 -22.303774 -0.95279765 48.268745 -0.96893018 48.157326 -22.53293 -75.658119
33200000000 -24.839989 -33.815887 -0.93263561 46.363548 -0.96198016 46.129139 -21.952293 -80.349106
33300000000 -26.440876 -23.386055 -0.95460546 44.027287 -0.98631561 44.205246 -23.057333 -82.597229
33400000000 -25.386106 -30.495029 -0.9523502 42.17968 -0.97478414 42.050587 -22.680941 -82.511192
33500000000 -27.866381 -23.262903 -0.94428337 40.096313 -0.96575946 40.029362 -23.8318 -86.697762
33600000000 -26.243883 -21.669516 -0.96950102 38.076241 -0.97547591 37.954716 -23.903309 -86.909096
33700000000 -28.700115 -17.217218 -0.97220099 35.991592 -0.9794814 36.047817 -25.321651 -92.76622
33800000000 -27.337431 -14.106804 -0.97038805 33.891056 -0.99408281 33.896793 -25.468626 -96.478363
33900000000 -29.848436 -19.926813 -0.97942626 31.972481 -0.96333069 31.942732 -25.707104 -101.57124
34000000000 -27.901646 -6.0490813 -0.96170914 29.920321 -0.97404712 29.87993 -26.60508 -98.721024
34100000000 -29.876459 -12.719567 -0.9564957 27.599852 -0.96179569 27.947567 -27.398544 -99.515884
34200000000 -29.305069 11.464941 -0.97595847 26.03183 -0.94105566 25.728495 -29.705395 -108.26725
34300000000 -30.805103 9.4450178 -0.95260584 23.665833 -0.9497031 23.596745 -31.108086 -128.05534
34400000000 -29.9524 20.617201 -0.96991068 21.906349 -0.9852733 21.569365 -31.267153 -130.98969
34500000000 -30.226532 18.70076 -0.99154347 19.681591 -0.97081375 19.470394 -31.402866 -142.42992
34600000000 -30.770155 24.642223 -0.97557735 17.402046 -1.005187 17.22065 -33.383644 -136.98891
34700000000 -28.033051 36.852165 -0.98074752 15.529836 -0.99913204 15.140378 -35.360809 -144.64111
34800000000 -27.502949 39.784367 -1.020039 13.17756 -0.99146903 13.185716 -41.104546 172.56638
34900000000 -27.023186 50.857029 -0.99228156 11.264397 -1.0117381 11.11734 -34.61026 133.34346
35000000000 -26.650898 46.451332 -1.0173542 9.4940214 -0.9758178 9.2216415 -31.687212 120.76569
35100000000 -26.49114 51.120712 -1.0053976 7.3461623 -0.9925369 7.104887 -31.515436 135.22633
35200000000 -25.218906 56.890755 -1.001804 5.1224871 -1.0125469 5.3326778 -31.028183 123.01795
35300000000 -25.251923 49.827965 -1.0280105 3.0681441 -1.037623 3.064486 -32.336548 97.896423
35400000000 -23.25728 56.218323 -0.99964428 0.89269263 -1.0149523 0.9481883 -30.17639 90.99102
35500000000 -23.060734 53.266705 -1.0250008 -1.1504059 -1.0430108 -1.075969 -27.949024 88.705368
35600000000 -22.739965 59.464561 -1.0197493 -2.9558184 -1.0160558 -3.0344071 -26.534983 84.405319
35700000000 -22.031639 49.65237 -1.0138096 -5.3792486 -1.074685 -5.1528554 -25.354076 79.168137
35800000000 -21.682781 56.971432 -1.0574325 -7.1662951 -1.0614767 -7.1842203 -25.408405 80.673065
35900000000 -20.795584 47.94379 -1.0871823 -9.2930164 -1.0795772 -9.0709324 -24.372202 77.447411
36000000000 -21.169207 54.829517 -1.041762 -11.17452 -1.067937 -10.947584 -23.926037 69.285477
36100000000 -19.273054 48.267872 -1.0539428 -13.141112 -1.0824353 -13.279421 -22.922306 68.898537
36200000000 -20.806761 51.172722 -1.0641944 -15.1752 -1.0759771 -15.172853 -22.507364 60.073387
36300000000 -18.767527 53.083027 -1.0805813 -17.196194 -1.0648613 -17.36187 -21.54488 64.888237
36400000000 -19.678228 45.470032 -1.0320551 -19.252687 -1.0663365 -19.467731 -21.19109 62.330387
36500000000 -18.158237 48.57719 -1.087837 -21.594139 -1.0820098 -21.216227 -20.769434 61.316658
36600000000 -18.406239 41.463146 -1.038033 -23.725245 -1.0657063 -23.517778 -19.406799 50.664799
36700000000 -17.5518 49.184341 -1.1269649 -25.581516 -1.1273723 -25.801987 -19.476345 50.822956
36800000000 -17.051054 40.741119 -1.0856252 -27.431076 -1.1066455 -27.49412 -18.036091 50.184841
36900000000 -17.090811 44.629456 -1.1085954 -29.52825 -1.0998521 -29.69627 -18.111847 50.680031
37000000000 -16.365013 36.472446 -1.1049378 -31.75065 -1.1325769 -31.504808 -17.666523 49.273602
37100000000 -16.570627 39.272545 -1.1520263 -33.841061 -1.1785975 -33.897076 -18.003584 43.160896
37200000000 -15.736881 34.545692 -1.167713 -35.537403 -1.1389552 -35.704159 -17.366043 39.066868
37300000000 -15.994383 37.247124 -1.129125 -37.764595 -1.2169861 -37.813107 -17.142929 33.094646
37400000000 -15.179376 35.63335 -1.156599 -39.745445 -1.1355602 -39.997677 -15.960404 33.767517
37500000000 -15.497708 34.045322 -1.1907287 -41.642254 -1.1297952 -41.8484 -15.750765 34.43792
37600000000 -15.121724 31.364786 -1.182636 -43.836037 -1.1558917 -43.591137 -15.353257 34.652016
37700000000 -15.017913 29.465567 -1.1914581 -45.886883 -1.1886677 -45.820774 -15.543855 32.016537
37800000000 -14.713987 27.016172 -1.1920882 -47.890202 -1.1582326 -47.993916 -15.54917 28.711021
37900000000 -14.238548 26.274591 -1.2112359 -49.997223 -1.2002951 -49.741684 -15.538147 25.335876
38000000000 -14.087705 26.434837 -1.2254242 -51.928909 -1.2055975 -52.022705 -15.065083 20.37989
38100000000 -14.309748 24.488979 -1.1968129 -53.654858 -1.2138889 -53.896221 -14.583005 19.90288
38200000000 -13.77737 21.446724 -1.202744 -55.881641 -1.2095098 -56.090591 -13.906435 18.505608
38300000000 -13.970609 19.863836 -1.2512385 -57.530819 -1.2492603 -57.710354 -13.963335 20.502949
38400000000 -13.26005 18.758652 -1.2233597 -59.906525 -1.1931742 -59.705982 -14.113761 17.73284
38500000000 -13.717185 15.474673 -1.2868466 -62.006603 -1.2525228 -61.926308 -14.106617 13.849375
38600000000 -12.918615 17.328575 -1.2050099 -63.891079 -1.2147141 -63.717941 -13.659648 9.7602386
38700000000 -13.14266 13.284228 -1.2624134 -65.835915 -1.2649419 -65.733124 -13.525606 7.0874543
38800000000 -12.988307 16.509058 -1.2593124 -67.65667 -1.2486475 -67.808678 -12.797709 7.1548724
38900000000 -13.082995 9.2588959 -1.236869 -69.634811 -1.2773696 -69.719124 -13.173228 7.5764422
39000000000 -12.985783 12.594571 -1.288563 -71.551582 -1.2956876 -71.941063 -12.793582 6.9959984
39100000000 -12.418571 5.0362511 -1.2756119 -73.731926 -1.2389495 -73.765945 -13.482071 1.0992361
39200000000 -12.909621 7.3907943 -1.2823768 -75.455093 -1.2579689 -75.533424 -12.874747 -0.511832
39300000000 -11.851657 3.9726243 -1.2861909 -78.052551 -1.3342835 -77.45443 -12.400675 -6.1366038
39400000000 -13.096498 2.4165845 -1.2367238 -79.651138 -1.3231765 -79.621246 -12.022539 -2.4468815
39500000000 -12.233227 3.1178598 -1.286806 -81.893188 -1.3191742 -81.715416 -12.533219 -5.5191607
39600000000 -12.924795 -3.462806 -1.2602458 -83.406326 -1.3272359 -83.428696 -12.096412 -3.0505631
39700000000 -12.187458 0.4994618 -1.2689174 -85.253677 -1.3261676 -85.920822 -12.736059 -10.118334
39800000000 -12.272636 -6.1656871 -1.2575248 -87.4776 -1.3330269 -88.006744 -12.517771 -11.647691
39900000000 -12.312637 -0.55208331 -1.3377053 -89.291122 -1.3041312 -89.856628 -12.365821 -17.566349
40000000000 -12.082806 -8.0934572 -1.3242916 -91.556816 -1.310527 -91.548431 -11.816233 -16.09203
40100000000 -12.761605 -4.2367644 -1.272125 -93.606148 -1.316923 -93.532753 -11.345091 -18.845598
40200000000 -11.843559 -10.561867 -1.2739049 -95.269272 -1.2935786 -95.092484 -11.635908 -15.280569
40300000000 -12.81176 -12.153592 -1.3053089 -97.520889 -1.3299264 -97.712372 -11.884367 -18.989658
40400000000 -11.849279 -13.39807 -1.3244865 -99.173111 -1.3099355 -99.780869 -12.545609 -21.908962
40500000000 -12.610626 -15.193235 -1.2947067 -101.47083 -1.2898766 -101.61352 -12.100792 -26.664633
40600000000 -11.988798 -13.044319 -1.2780885 -103.18522 -1.2965618 -103.63053 -12.143341 -29.839914
40700000000 -12.227597 -18.557039 -1.2956805 -105.48041 -1.2677732 -105.67961 -11.654192 -30.860912
40800000000 -12.153532 -18.410286 -1.315104 -107.36211 -1.3008647 -107.41914 -11.58939 -30.332487
40900000000 -12.089239 -21.386557 -1.2679312 -109.17463 -1.2783344 -109.32357 -11.891068 -28.733162
41000000000 -12.097603 -21.173845 -1.3270192 -111.45028 -1.3554748 -111.03465 -12.040054 -32.929657
41100000000 -12.100985 -22.389032 -1.3129573 -113.52238 -1.2988391 -113.37608 -12.281715 -35.108356
41200000000 -12.332381 -25.090979 -1.3214462 -115.46987 -1.2862371 -115.5251 -12.436585 -37.683182
41300000000 -12.204107 -23.958139 -1.2539235 -117.39225 -1.2850308 -117.60938 -12.286098 -41.512577
41400000000 -12.466392 -27.031231 -1.2458766 -119.45095 -1.2196066 -119.41351 -12.160483 -40.980717
41500000000 -13.073936 -30.738127 -1.251036 -121.33257 -1.2881712 -121.50146 -11.884334 -43.911278
41600000000 -12.51392 -30.865871 -1.2698572 -123.54222 -1.2673396 -123.64405 -12.694294 -44.142704
41700000000 -13.384224 -31.419168 -1.2413549 -125.0405 -1.2454497 -125.46354 -12.355207 -46.722286
41800000000 -12.798333 -31.703876 -1.2860533 -127.53307 -1.2845771 -127.64498 -12.472417 -46.456074
41900000000 -13.375387 -35.993301 -1.2847886 -129.59572 -1.2846529 -129.44354 -12.997033 -52.019142
42000000000 -13.1159 -33.081207 -1.2492641 -131.65419 -1.2421619 -131.0713 -13.022701 -51.507896
42100000000 -13.283355 -37.055496 -1.2742496 -133.31274 -1.2138783 -133.77591 -12.824645 -53.635365
42200000000 -13.652968 -35.799496 -1.23484 -135.44725 -1.2791448 -135.57727 -13.219556 -53.007359
42300000000 -13.561591 -39.904949 -1.2808952 -137.34007 -1.233574 -137.37553 -12.884398 -56.006962
42400000000 -14.490844 -39.388153 -1.2369357 -139.45764 -1.2046099 -139.22191 -13.887835 -57.075359
42500000000 -13.642986 -41.096615 -1.1667471 -141.5715 -1.2308917 -140.87483 -13.691141 -61.456848
42600000000 -14.78086 -43.023285 -1.2209629 -143.13379 -1.2099675 -143.66078 -14.050982 -64.118896
42700000000 -13.942169 -44.208435 -1.1620673 -145.04601 -1.1276135 -145.9073 -13.766184 -64.988083
42800000000 -15.140403 -47.997036 -1.1728083 -147.66922 -1.1757772 -147.80466 -14.551255 -68.955688
42900000000 -15.792674 -44.507549 -1.12366 -149.42589 -1.2134799 -149.90694 -14.383722 -67.624504
43000000000 -15.347512 -50.836899 -1.2062731 -152.03033 -1.2453272 -152.33894 -14.305532 -67.598877
43100000000 -16.590954 -43.35067 -1.1402576 -154.07353 -1.1263254 -153.26619 -15.431602 -66.612381
43200000000 -15.88622 -46.995712 -1.1145364 -155.93945 -1.1675843 -155.98532 -16.075958 -75.627457
43300000000 -17.00852 -46.257069 -1.1604912 -158.03192 -1.1617908 -158.26941 -16.439655 -75.692612
43400000000 -16.353472 -47.744072 -1.1559495 -159.82024 -1.120243 -160.06577 -16.219572 -78.119514
43500000000 -17.716988 -54.426544 -1.0294076 -162.323 -1.2234077 -162.67888 -16.500908 -80.104218
43600000000 -17.821268 -42.927681 -1.1900041 -164.16336 -1.1477928 -164.29987 -16.103617 -80.090355
43700000000 -18.348959 -54.999989 -1.1346586 -166.45889 -1.1671704 -166.52939 -17.336828 -71.68576
43800000000 -18.702164 -42.696621 -1.1092894 -168.38846 -1.1704202 -167.98769 -18.8822 -75.746399
43900000000 -18.788738 -50.792393 -1.1662741 -169.96661 -1.1043228 -170.68784 -19.922081 -76.914688
44000000000 -19.920734 -38.421528 -1.0814509 -172.83392 -1.140947 -172.49767 -19.998774 -85.968338
44100000000 -19.28125 -45.559017 -1.1256166 -174.63483 -1.1288434 -174.68073 -20.552713 -82.440544
44200000000 -22.914419 -41.27309 -1.1673963 -177.16962 -1.1422776 -177.13853 -19.441853 -86.268646
44300000000 -20.968781 -40.934284 -1.1277126 -179.16325 -1.1637772 -178.65242 -23.105772 -75.687508
44400000000 -21.969439 -41.054443 -1.1522356 178.93459 -1.2086211 178.72464 -22.620626 -83.490356
44500000000 -21.799498 -25.1453 -1.0753722 177.34291 -1.13354 177.05798 -23.685154 -73.56813
44600000000 -21.287451 -35.364132 -1.2046447 174.5526 -1.1006178 174.54607 -25.667662 -80.417648
44700000000 -21.643028 -14.085634 -1.1258903 172.64189 -1.1029944 172.79456 -27.27706 -69.641876
44800000000 -22.939659 -21.460613 -1.1060576 170.04112 -1.1391922 170.43373 -27.407644 -61.912331
44900000000 -22.367224 -7.8472404 -1.1058543 168.22964 -1.126879 168.41197 -28.712418 -48.387089
45000000000 -22.192682 -6.5992446 -1.1956373 166.19382 -1.1243671 165.94992 -28.794827 -18.608828
