!Keysight Technologies,N5247B,MY61255062,A.19.80.06
!Date: Monday, May 18, 2026 12:19:47
!Correction: S11(Cdelta 2-Port  ) 
!S21(Cdelta 2-Port  ) 
!S12(Cdelta 2-Port  ) 
!S22(Cdelta 2-Port  ) 
!S2P File: Measurements: S11, S21, S12, S22:
# Hz S  dB   R 50
1000000000 -26.546524 -16.09911 -0.41678309 -21.117716 -0.41488528 -21.124107 -27.029348 -17.376587
1100000000 -26.503633 -19.140236 -0.42862308 -23.172319 -0.42923453 -23.172361 -27.154396 -19.885725
1200000000 -26.414757 -20.964331 -0.43783188 -25.183399 -0.43667328 -25.189373 -27.132671 -21.092241
1300000000 -26.317131 -23.532598 -0.44424266 -27.253366 -0.44331861 -27.26725 -27.059734 -23.834614
1400000000 -26.215137 -25.240053 -0.4494237 -29.247448 -0.45148286 -29.262432 -27.013638 -24.809196
1500000000 -26.086496 -27.890608 -0.45124102 -31.293503 -0.45025346 -31.304441 -26.844189 -26.870054
1600000000 -26.049772 -30.102655 -0.45664439 -33.354225 -0.45603305 -33.367046 -26.794291 -29.764694
1700000000 -25.924303 -32.559662 -0.45903379 -35.395061 -0.45763484 -35.405293 -26.721443 -31.969883
1800000000 -25.807413 -35.397442 -0.46261534 -37.450626 -0.4620648 -37.459023 -26.648155 -34.470844
1900000000 -25.703489 -38.03323 -0.46475539 -39.50428 -0.46497494 -39.504051 -26.576136 -37.321545
2000000000 -25.668652 -40.559406 -0.4711175 -41.570641 -0.46944007 -41.582603 -26.582518 -40.251942
2100000000 -25.588032 -43.095875 -0.47627208 -43.609375 -0.47316101 -43.620262 -26.565731 -42.569958
2200000000 -25.561682 -45.728443 -0.47695559 -45.660984 -0.47799522 -45.672508 -26.530508 -45.273361
2300000000 -25.542679 -48.348774 -0.48516315 -47.724033 -0.48345396 -47.732155 -26.523968 -47.890121
2400000000 -25.508192 -50.940002 -0.48859715 -49.772858 -0.49039385 -49.779343 -26.56361 -50.559509
2500000000 -25.451387 -53.445484 -0.49449563 -51.823891 -0.4965429 -51.846859 -26.542963 -53.24659
2600000000 -25.447382 -55.914074 -0.50214386 -53.867416 -0.50139076 -53.87986 -26.618719 -56.13913
2700000000 -25.433338 -58.359467 -0.50532001 -55.908901 -0.50807709 -55.907253 -26.695438 -58.734463
2800000000 -25.481661 -61.088337 -0.51229322 -57.954388 -0.51179808 -57.951214 -26.737143 -61.316616
2900000000 -25.522541 -63.531422 -0.51789528 -59.982857 -0.51796967 -60.004276 -26.804253 -63.889481
3000000000 -25.493528 -66.143631 -0.52173996 -62.009083 -0.52328324 -62.015461 -26.945562 -66.202232
3100000000 -25.537901 -68.650475 -0.5253526 -64.041565 -0.52637732 -64.055 -27.061024 -68.624619
3200000000 -25.494493 -71.145172 -0.53034359 -66.077194 -0.53078669 -66.086746 -27.174311 -71.030029
3300000000 -25.490978 -73.708725 -0.53080428 -68.109299 -0.53430033 -68.12709 -27.231377 -73.737717
3400000000 -25.500298 -76.094322 -0.5361225 -70.14679 -0.53615469 -70.150803 -27.335312 -76.158966
3500000000 -25.568047 -78.66877 -0.54085755 -72.175385 -0.54222256 -72.181709 -27.413464 -78.141823
3600000000 -25.567455 -80.66169 -0.54197389 -74.193535 -0.54253584 -74.206406 -27.481009 -80.325165
3700000000 -25.640182 -83.146042 -0.54539382 -76.246529 -0.5457173 -76.247551 -27.516088 -82.629417
3800000000 -25.616488 -85.165199 -0.54458886 -78.278061 -0.54787815 -78.287834 -27.628363 -85.060379
3900000000 -25.68108 -87.751457 -0.54897654 -80.315254 -0.55280536 -80.346184 -27.719484 -87.607941
4000000000 -25.658566 -89.675362 -0.55270308 -82.359291 -0.55616063 -82.378906 -27.850531 -89.93119
4100000000 -25.716602 -92.409966 -0.55749893 -84.396744 -0.55990416 -84.419609 -27.958267 -92.47612
4200000000 -25.787392 -94.352531 -0.55943125 -86.425797 -0.56195599 -86.44706 -28.155375 -94.392731
4300000000 -25.780596 -96.692474 -0.56293839 -88.461014 -0.56485987 -88.475044 -28.240669 -96.989693
4400000000 -25.916931 -98.913277 -0.56596583 -90.499069 -0.56766683 -90.509109 -28.505201 -98.762306
4500000000 -25.947489 -101.20678 -0.5694328 -92.526726 -0.5688296 -92.551445 -28.535028 -101.44014
4600000000 -26.033699 -103.26038 -0.57073539 -94.56382 -0.57221079 -94.587685 -28.784369 -104.01293
4700000000 -26.058821 -105.48382 -0.57415593 -96.60759 -0.57469451 -96.627174 -28.796114 -105.98794
4800000000 -26.230019 -107.94591 -0.57804662 -98.636566 -0.57856768 -98.665764 -29.107874 -108.87079
4900000000 -26.304758 -109.64734 -0.58034223 -100.68007 -0.5834195 -100.70169 -29.177847 -110.26665
5000000000 -26.378138 -112.11441 -0.58351451 -102.70976 -0.58416802 -102.72617 -29.531303 -112.66105
5100000000 -26.493982 -113.84628 -0.58722872 -104.75834 -0.58951765 -104.77331 -29.6901 -113.83738
5200000000 -26.536005 -116.23547 -0.58939546 -106.77749 -0.59351712 -106.81078 -29.995695 -117.08181
5300000000 -26.713055 -118.01977 -0.59312481 -108.81534 -0.59335625 -108.82909 -30.270744 -119.74472
5400000000 -26.800762 -120.64211 -0.59802645 -110.86055 -0.59883249 -110.87533 -30.493437 -122.78886
5500000000 -26.997787 -122.65986 -0.60055441 -112.88887 -0.60060644 -112.91233 -30.652933 -124.61874
5600000000 -27.076296 -124.9813 -0.60467952 -114.915 -0.60546923 -114.93884 -30.898754 -126.52301
5700000000 -27.256519 -127.09758 -0.60682464 -116.94382 -0.60572308 -116.97231 -31.15185 -127.38632
5800000000 -27.286383 -129.20308 -0.60859501 -118.976 -0.61086124 -118.98169 -31.668854 -129.94301
5900000000 -27.433893 -131.4868 -0.61304432 -120.98372 -0.61294889 -121.00739 -32.097946 -132.0378
6000000000 -27.593794 -133.22276 -0.61365992 -123.02737 -0.61388147 -123.02645 -32.421574 -136.24905
6100000000 -27.81979 -135.22026 -0.61445129 -125.02868 -0.61789751 -125.05085 -32.68531 -138.85213
6200000000 -28.066027 -137.40788 -0.61683547 -127.05308 -0.61933857 -127.07964 -33.026363 -142.62172
6300000000 -28.446373 -139.79276 -0.61677313 -129.08153 -0.61829352 -129.09261 -33.691074 -142.63661
6400000000 -28.652393 -141.7587 -0.61616451 -131.11122 -0.61735439 -131.13655 -34.350716 -145.52859
6500000000 -28.967676 -144.31673 -0.6174922 -133.15767 -0.61957622 -133.16228 -35.37236 -146.28355
6600000000 -29.145031 -145.51503 -0.6173684 -135.1803 -0.61738658 -135.20702 -36.008842 -149.36273
6700000000 -29.487459 -147.36537 -0.61667258 -137.22362 -0.61666214 -137.24834 -36.905468 -150.22078
6800000000 -29.776417 -147.75577 -0.61778617 -139.29497 -0.61847532 -139.31151 -37.546253 -151.82143
6900000000 -30.092976 -149.79916 -0.61778975 -141.33301 -0.62028354 -141.36765 -38.74382 -149.84532
7000000000 -30.310896 -148.81583 -0.62477624 -143.39732 -0.62631506 -143.41667 -39.302826 -147.94656
7100000000 -30.205519 -152.07559 -0.6344673 -145.4205 -0.6351186 -145.44679 -39.84417 -149.78316
7200000000 -30.839836 -154.54417 -0.6280033 -147.42023 -0.63250369 -147.41885 -41.328423 -158.73759
7300000000 -31.148996 -156.00285 -0.62919372 -149.48232 -0.63153899 -149.50726 -43.285542 -157.44943
7400000000 -31.838762 -156.795 -0.63196295 -151.53151 -0.63491488 -151.56099 -44.020229 -154.12688
7500000000 -31.873734 -156.25386 -0.6347459 -153.58267 -0.63667214 -153.60405 -46.254883 -134.92929
7600000000 -32.321548 -158.41891 -0.63896722 -155.57635 -0.64144921 -155.6058 -47.145809 -134.28859
7700000000 -32.645031 -158.11801 -0.63768989 -157.62628 -0.64124185 -157.6563 -51.437691 -94.475311
7800000000 -33.204449 -160.19106 -0.64251906 -159.68245 -0.64190322 -159.70981 -53.412106 -77.832703
7900000000 -33.410557 -158.64745 -0.64421993 -161.72893 -0.64385843 -161.76575 -53.971947 -58.773041
8000000000 -33.925907 -160.3598 -0.64583743 -163.77608 -0.6484108 -163.79243 -50.45937 -73.585106
8100000000 -34.376366 -158.06798 -0.65046817 -165.82304 -0.65339845 -165.86096 -45.871506 -60.052395
8200000000 -34.767548 -160.6163 -0.65365392 -167.88326 -0.65679079 -167.90376 -41.697041 -51.561382
8300000000 -35.457428 -160.68428 -0.66110682 -169.93044 -0.66284031 -169.95207 -39.525135 -27.474329
8400000000 -36.140175 -164.08989 -0.67336875 -172.00162 -0.67616117 -172.02374 -38.324924 -4.6048875
8500000000 -37.025955 -158.34874 -0.70202988 -174.10045 -0.70622879 -174.11255 -37.713451 45.097656
8600000000 -34.606213 -157.74397 -0.7839396 -175.83101 -0.78297788 -175.87234 -31.65485 87.987183
8700000000 -35.063828 152.45569 -0.69500738 -176.47739 -0.69439077 -176.49435 -24.594313 74.371803
8800000000 -43.401657 -133.33868 -0.53596401 -179.71101 -0.53900385 -179.73761 -27.880013 43.628487
8900000000 -38.05632 -149.8457 -0.60851908 177.79778 -0.61299425 177.79108 -34.692219 35.438633
9000000000 -38.238426 -157.9707 -0.64643729 175.77885 -0.65134239 175.75459 -44.219322 -0.16820875
9100000000 -39.569756 -154.94421 -0.66515648 173.78128 -0.66766739 173.76646 -39.464336 -53.773914
9200000000 -39.426395 -146.33237 -0.66913629 171.75638 -0.67439115 171.74611 -35.358688 -57.452412
9300000000 -39.783691 -139.912 -0.67493242 169.76437 -0.67856008 169.72697 -33.783581 -50.188263
9400000000 -39.502388 -137.76945 -0.67887634 167.73668 -0.68201244 167.71812 -33.103371 -45.240337
9500000000 -40.296658 -133.88446 -0.68129802 165.71109 -0.68697822 165.70033 -33.313553 -40.197342
9600000000 -40.277767 -130.10799 -0.68836629 163.69305 -0.69136959 163.66759 -33.324482 -44.463734
9700000000 -40.387726 -125.29649 -0.69121963 161.6817 -0.69253922 161.64117 -33.102871 -47.409641
9800000000 -39.562366 -120.10022 -0.69326824 159.63972 -0.69636947 159.61032 -32.434166 -52.396946
9900000000 -39.619511 -119.06994 -0.6960966 157.61061 -0.69685906 157.59026 -31.899801 -52.040764
10000000000 -39.158539 -114.63789 -0.69816911 155.5784 -0.70106786 155.54514 -31.338701 -52.924946
10100000000 -39.398598 -113.71429 -0.70072472 153.5533 -0.70349276 153.52596 -31.381178 -52.018276
10200000000 -38.365551 -107.14828 -0.70473421 151.52084 -0.70562941 151.49763 -31.263981 -55.599491
10300000000 -38.287041 -107.17922 -0.70358467 149.49226 -0.70791733 149.45419 -31.139576 -57.6786
10400000000 -37.435799 -103.37455 -0.70992267 147.44528 -0.71039945 147.4155 -30.492424 -61.856441
10500000000 -37.150097 -109.31573 -0.71192002 145.40187 -0.71617186 145.38829 -30.097372 -62.852966
10600000000 -36.638016 -103.49561 -0.7138018 143.37744 -0.71666402 143.3623 -29.569868 -63.977264
10700000000 -35.984276 -106.38348 -0.71720624 141.33064 -0.7209776 141.34221 -29.480526 -64.03656
10800000000 -35.874645 -101.52224 -0.71868253 139.32822 -0.72437054 139.30405 -29.183367 -64.737007
10900000000 -35.103828 -102.68101 -0.7216078 137.30659 -0.72666866 137.28346 -29.413374 -66.256477
11000000000 -35.013798 -102.24779 -0.72714943 135.26555 -0.72982168 135.25578 -29.179615 -69.465767
11100000000 -34.372478 -104.45631 -0.73196 133.25446 -0.73506784 133.21059 -29.058828 -73.506721
11200000000 -34.568382 -105.02896 -0.73661 131.23087 -0.73696822 131.19087 -28.532019 -74.911377
11300000000 -33.734116 -104.92002 -0.74042404 129.20631 -0.74018615 129.16751 -28.451675 -77.161263
11400000000 -33.595047 -108.33886 -0.73852795 127.1871 -0.74201572 127.13661 -27.875315 -77.708656
11500000000 -32.940121 -108.06264 -0.74263483 125.16001 -0.74546629 125.12982 -27.787025 -79.675293
11600000000 -32.675987 -111.2543 -0.74622613 123.15252 -0.74880093 123.104 -27.652719 -80.438004
11700000000 -32.254036 -109.83044 -0.74834204 121.12546 -0.75241947 121.09301 -27.799517 -83.988411
11800000000 -31.978163 -114.41556 -0.75204116 119.12135 -0.7550171 119.08872 -27.501333 -85.312523
11900000000 -31.907467 -113.72951 -0.75640547 117.10592 -0.75846416 117.08755 -27.493477 -89.064636
12000000000 -31.817154 -118.48248 -0.75832331 115.09982 -0.76062959 115.06869 -27.110447 -89.945679
12100000000 -31.545475 -120.12839 -0.75823635 113.09299 -0.76433641 113.06242 -27.064903 -93.520569
12200000000 -31.023758 -124.50555 -0.75993448 111.09124 -0.76430398 111.05484 -26.888514 -95.004936
12300000000 -31.030973 -125.71805 -0.75824159 109.07034 -0.76224655 109.02087 -26.848204 -98.042503
12400000000 -30.817827 -128.91624 -0.75903291 107.06724 -0.76486856 107.02501 -26.862133 -99.253204
12500000000 -30.993736 -131.25728 -0.75448489 105.06516 -0.76080632 105.03277 -26.860455 -103.12836
12600000000 -30.912174 -134.83621 -0.7506929 103.0324 -0.75569904 103.01762 -26.813108 -104.679
12700000000 -31.111654 -137.13873 -0.75194204 101.00209 -0.75312227 100.99031 -26.709295 -107.67684
12800000000 -30.724722 -140.54413 -0.74851429 98.996063 -0.74922723 98.95636 -26.807726 -108.3314
12900000000 -30.802162 -143.65211 -0.74539745 96.939835 -0.7493214 96.930748 -26.885616 -111.26209
13000000000 -30.575926 -143.97919 -0.74465531 94.899773 -0.74637306 94.874382 -26.867123 -113.04393
13100000000 -31.121046 -148.024 -0.74349457 92.87326 -0.74585819 92.829948 -26.878635 -116.3187
13200000000 -30.929106 -149.59825 -0.74270272 90.81517 -0.74464363 90.792343 -26.925037 -117.40571
13300000000 -31.253536 -154.52621 -0.74148077 88.78495 -0.74485171 88.716339 -26.814413 -118.88459
13400000000 -31.191584 -154.0885 -0.74304765 86.721741 -0.74444485 86.684441 -27.007965 -119.39127
13500000000 -31.107155 -158.76952 -0.74336559 84.674965 -0.74569958 84.629837 -27.170321 -121.94975
13600000000 -31.399466 -157.34393 -0.74173933 82.614105 -0.74631155 82.600494 -27.474316 -123.03791
13700000000 -31.267231 -161.59547 -0.74661863 80.574608 -0.74660295 80.525352 -27.537594 -126.42758
13800000000 -32.060467 -161.98215 -0.7466712 78.493088 -0.74989235 78.46991 -27.584646 -128.15379
13900000000 -31.748343 -166.97411 -0.75268698 76.414635 -0.75408202 76.384346 -27.25034 -129.74481
14000000000 -32.28875 -167.1532 -0.76239032 74.363663 -0.76779366 74.326859 -27.353804 -129.00333
14100000000 -30.81995 -167.82672 -0.78325719 72.411621 -0.784334 72.369171 -26.842701 -131.46927
14200000000 -30.973658 -175.50468 -0.76929498 70.520302 -0.7728709 70.478607 -27.420057 -135.85643
14300000000 -31.06139 -176.16971 -0.75915688 68.426697 -0.76501983 68.37973 -27.632967 -139.52141
14400000000 -31.893379 176.7907 -0.75716937 66.378365 -0.76214349 66.344673 -28.077682 -142.11157
14500000000 -32.121605 175.68233 -0.75925523 64.301727 -0.76163357 64.259346 -27.879814 -143.95953
14600000000 -32.327152 167.08885 -0.76438457 62.241356 -0.7626211 62.207561 -28.027685 -145.36296
14700000000 -32.607121 167.54054 -0.76776433 60.17252 -0.76882899 60.131779 -28.05295 -145.48822
14800000000 -32.124943 162.33577 -0.77906466 58.127724 -0.78149074 58.073746 -28.653816 -147.70274
14900000000 -32.695221 165.89191 -0.79629201 56.130806 -0.79968488 56.10973 -28.433069 -148.30476
15000000000 -31.934542 161.3436 -0.79068261 54.237438 -0.78953063 54.203339 -28.519623 -153.38348
15100000000 -33.087658 156.10092 -0.7801773 52.194809 -0.78027332 52.136963 -28.487722 -154.49106
15200000000 -32.957199 151.06654 -0.78373742 50.102459 -0.78619969 50.062386 -28.534575 -154.88132
15300000000 -33.041538 144.65408 -0.78266573 48.107204 -0.78560841 48.079903 -28.634491 -156.23489
15400000000 -32.678982 143.28358 -0.7787692 46.045197 -0.78169996 46.024254 -29.301901 -158.64233
15500000000 -33.163185 140.75529 -0.78243881 43.993694 -0.78588259 43.964527 -29.446239 -160.29149
15600000000 -33.163666 140.44461 -0.78757387 41.93856 -0.78943038 41.911804 -29.723398 -164.77431
15700000000 -33.849602 133.59006 -0.78460664 39.894222 -0.79090595 39.851353 -29.498636 -166.39745
15800000000 -33.792072 129.12292 -0.79112393 37.869255 -0.7946474 37.818794 -29.549511 -168.00508
15900000000 -33.888638 120.40269 -0.79164076 35.825008 -0.79751545 35.789143 -29.558605 -167.08189
16000000000 -33.421394 120.70837 -0.79722559 33.806957 -0.80001444 33.760838 -30.108662 -169.8625
16100000000 -33.264523 113.99845 -0.79849476 31.789942 -0.80368966 31.73654 -30.429245 -171.55125
16200000000 -33.713223 116.18058 -0.80582911 29.72682 -0.806732 29.688797 -30.818863 -177.02344
16300000000 -33.485233 105.85515 -0.80634958 27.730946 -0.808375 27.673903 -30.809052 -178.43947
16400000000 -34.103626 102.77368 -0.81187999 25.680517 -0.8133173 25.636658 -30.956873 176.03827
16500000000 -32.695919 94.935699 -0.81254536 23.645435 -0.81788713 23.625837 -30.997108 177.15199
16600000000 -33.505802 92.400146 -0.8175959 21.643549 -0.82014459 21.590937 -31.490515 173.85069
16700000000 -32.442745 91.949547 -0.81579858 19.614658 -0.82047635 19.564394 -32.045818 174.25592
16800000000 -33.654285 85.359833 -0.82098669 17.578674 -0.82505435 17.546381 -32.478195 166.93716
16900000000 -32.809814 83.922531 -0.82239795 15.556799 -0.82697892 15.524762 -32.913887 166.18555
17000000000 -33.087536 69.610077 -0.82382751 13.549847 -0.8282336 13.518422 -32.489155 160.40085
17100000000 -32.498234 73.410118 -0.825234 11.557033 -0.83136779 11.49007 -33.059631 160.99637
17200000000 -31.956852 64.68615 -0.82549226 9.5369921 -0.83270532 9.4937363 -32.786762 158.8004
17300000000 -32.806847 69.869171 -0.83611643 7.4779296 -0.83622783 7.4652553 -33.873581 159.91698
17400000000 -32.287731 63.016529 -0.8359918 5.4655223 -0.83749551 5.4182844 -34.282391 153.44576
17500000000 -33.559387 60.093773 -0.83318198 3.4417157 -0.84067762 3.4078236 -35.18335 148.15395
17600000000 -31.98897 51.861542 -0.83386755 1.4431144 -0.84211725 1.4157594 -34.312538 142.33739
17700000000 -32.799076 47.410316 -0.83863896 -0.58204091 -0.83959424 -0.63008982 -35.083164 138.36003
17800000000 -31.405375 47.784744 -0.83823234 -2.5878308 -0.84243906 -2.6446049 -34.286842 140.61801
17900000000 -32.037373 40.075314 -0.84268326 -4.6248903 -0.84257329 -4.6702476 -35.462299 139.73203
18000000000 -32.140472 43.712296 -0.84082025 -6.6851811 -0.8463347 -6.6753106 -36.046329 138.48457
18100000000 -32.243053 33.728859 -0.83777648 -8.6755705 -0.84680623 -8.6865158 -38.310406 130.32561
18200000000 -32.026394 35.534267 -0.84127325 -10.668949 -0.84242839 -10.719773 -37.905731 120.31744
18300000000 -31.450554 27.917711 -0.84081805 -12.703711 -0.84892267 -12.747271 -37.539982 107.75345
18400000000 -31.412199 28.232233 -0.84044957 -14.729928 -0.84613776 -14.777586 -36.671848 112.22083
18500000000 -30.814047 22.950472 -0.84249598 -16.771187 -0.8459692 -16.778242 -37.033707 109.95491
18600000000 -30.731167 21.199131 -0.84191835 -18.769594 -0.84819788 -18.822458 -37.739727 115.11401
18700000000 -30.539488 15.878513 -0.8434543 -20.814125 -0.85001087 -20.838654 -40.660683 105.20033
18800000000 -30.781153 14.08717 -0.84108317 -22.812874 -0.84679806 -22.879906 -41.849201 89.603592
18900000000 -30.294666 10.873938 -0.84595847 -24.856844 -0.84698081 -24.901594 -40.533829 62.557083
19000000000 -30.166563 8.5924721 -0.8371135 -26.858145 -0.8402881 -26.886551 -38.497528 62.950294
19100000000 -29.790802 6.4251475 -0.84392929 -28.868027 -0.84210688 -28.925663 -38.711559 59.962231
19200000000 -30.133396 4.9850926 -0.84266412 -30.901884 -0.84782594 -30.950945 -38.526413 73.003853
19300000000 -29.51807 1.3306686 -0.84057015 -32.951756 -0.84094024 -32.979076 -40.616024 60.287388
19400000000 -30.233015 -2.361325 -0.84486598 -34.965557 -0.84717339 -35.031204 -41.472191 60.682381
19500000000 -29.559809 -4.4503212 -0.83542639 -37.022495 -0.83827192 -37.056431 -40.492542 30.961668
19600000000 -29.684767 -8.746521 -0.83443499 -39.045952 -0.84163773 -39.092773 -40.289249 35.096035
19700000000 -29.176516 -5.7370439 -0.83653885 -41.079113 -0.84072882 -41.106747 -38.710312 25.093946
19800000000 -29.410065 -11.977509 -0.8369478 -43.104256 -0.84319401 -43.159214 -39.891994 29.950558
19900000000 -29.747149 -7.8484807 -0.83530498 -45.146309 -0.83957386 -45.169609 -38.386669 20.28562
20000000000 -29.662775 -17.528725 -0.83714175 -47.160118 -0.84255725 -47.234634 -40.432156 15.586476
20100000000 -29.940016 -14.939562 -0.83518732 -49.259315 -0.83635741 -49.285397 -37.617977 10.37796
20200000000 -29.01582 -22.042194 -0.83081895 -51.266109 -0.83556378 -51.308167 -38.558666 4.3850112
20300000000 -29.585585 -21.043116 -0.83931535 -53.342548 -0.83813691 -53.393753 -36.580875 9.1881418
20400000000 -28.632919 -22.278913 -0.83494759 -55.38744 -0.83795857 -55.430431 -38.645565 4.0965133
20500000000 -29.781601 -26.612112 -0.83271849 -57.430199 -0.84172291 -57.490017 -37.743103 2.9942687
20600000000 -28.975113 -26.90597 -0.8422606 -59.504902 -0.84080613 -59.547012 -38.154636 -17.612089
20700000000 -29.494415 -35.523823 -0.84442073 -61.519932 -0.84741062 -61.572689 -35.825611 -14.495335
20800000000 -28.694773 -32.803417 -0.8559531 -63.585167 -0.85860491 -63.646122 -34.616474 -27.178413
20900000000 -28.419342 -41.972942 -0.86380875 -65.553665 -0.8670674 -65.594002 -33.634567 -18.752306
21000000000 -28.839903 -41.108761 -0.86104047 -67.490479 -0.86889368 -67.55201 -34.839561 -30.601566
21100000000 -28.719072 -45.913601 -0.85364765 -69.482704 -0.85137427 -69.543808 -35.663429 -22.482065
21200000000 -29.622587 -45.136593 -0.84643281 -71.580803 -0.84932685 -71.611717 -36.56266 -37.090801
21300000000 -29.12076 -48.430714 -0.84560311 -73.651703 -0.84834516 -73.707848 -36.579418 -39.163811
21400000000 -29.990208 -51.291462 -0.8457635 -75.739937 -0.84755343 -75.811935 -34.837624 -47.908596
21500000000 -29.438478 -52.483219 -0.84779948 -77.779709 -0.85118186 -77.861969 -34.275581 -45.903675
21600000000 -29.468973 -55.428131 -0.84957111 -79.891754 -0.85522747 -79.906189 -32.927746 -46.791969
21700000000 -29.062456 -56.278515 -0.8576858 -81.873383 -0.86292768 -81.905891 -33.065887 -42.80085
21800000000 -29.167973 -58.946461 -0.86869162 -83.852142 -0.86984712 -83.932884 -33.481037 -51.333416
21900000000 -29.690065 -64.63884 -0.8648628 -85.796928 -0.87230736 -85.846863 -34.759949 -55.588169
22000000000 -30.596704 -65.470619 -0.85397029 -87.860443 -0.86251628 -87.926682 -35.340073 -70.855301
22100000000 -30.729242 -68.526573 -0.85234684 -89.962936 -0.85907495 -89.995354 -34.747047 -68.607483
22200000000 -31.135809 -67.791687 -0.85754764 -92.044334 -0.86852151 -92.118599 -33.464397 -74.198593
22300000000 -30.522966 -70.873428 -0.86954921 -94.147812 -0.86813927 -94.188568 -33.241451 -68.139107
22400000000 -31.726017 -71.725731 -0.88393003 -96.091927 -0.88183641 -96.150513 -32.825783 -73.557632
22500000000 -30.816999 -73.302635 -0.88641131 -98.033119 -0.89207935 -98.099861 -35.005047 -73.898499
22600000000 -32.265182 -82.171539 -0.87561768 -99.989227 -0.8807621 -100.03193 -35.293396 -82.110558
22700000000 -31.786837 -81.85099 -0.87251687 -102.05891 -0.87590837 -102.1202 -36.509117 -86.289391
22800000000 -32.223057 -95.339706 -0.86589336 -104.10503 -0.86799926 -104.16214 -34.294819 -91.898544
22900000000 -32.725983 -84.698471 -0.86285758 -106.1382 -0.86860341 -106.22408 -35.142883 -89.669998
23000000000 -32.362896 -97.068031 -0.86780328 -108.25163 -0.86811781 -108.28297 -33.719711 -89.978363
23100000000 -34.073967 -90.768997 -0.86064219 -110.27816 -0.86037743 -110.36772 -35.695118 -91.387901
23200000000 -33.018078 -102.30383 -0.86636704 -112.32433 -0.87589133 -112.381 -34.807911 -95.179756
23300000000 -35.556961 -107.70004 -0.86502361 -114.39572 -0.87384081 -114.43826 -36.34581 -110.50246
23400000000 -33.559963 -108.81078 -0.87066662 -116.38541 -0.87761134 -116.50031 -33.770329 -109.41768
23500000000 -35.245926 -124.21378 -0.87467092 -118.49893 -0.87891847 -118.55008 -33.813229 -118.87762
23600000000 -34.30283 -112.33578 -0.87788099 -120.56969 -0.87877965 -120.58492 -32.695721 -104.81815
23700000000 -34.809761 -132.89299 -0.88049734 -122.57114 -0.88591325 -122.60475 -34.59935 -111.23518
23800000000 -35.927792 -121.00852 -0.88438982 -124.59953 -0.88660878 -124.66639 -35.913353 -111.52415
23900000000 -34.168457 -144.15393 -0.88838202 -126.68109 -0.89258707 -126.6746 -36.652706 -142.59119
24000000000 -37.419827 -151.25529 -0.89011145 -128.689 -0.89357591 -128.72121 -34.750389 -145.02766
24100000000 -34.523529 -155.4288 -0.88946933 -130.76395 -0.89392477 -130.79335 -32.497524 -152.61781
24200000000 -36.78722 -170.61887 -0.89744067 -132.74973 -0.89768893 -132.80592 -32.811039 -142.61882
24300000000 -35.15382 -162.4263 -0.89429843 -134.80113 -0.89764786 -134.84932 -32.340523 -142.83939
24400000000 -36.13879 177.63524 -0.89423418 -136.83607 -0.90370888 -136.88921 -35.087898 -138.89032
24500000000 -36.611526 176.96147 -0.89945424 -138.85373 -0.90316391 -138.92162 -35.585014 -164.40941
24600000000 -34.549828 157.83907 -0.90187335 -140.87517 -0.91089094 -140.95819 -35.945892 177.74174
24700000000 -35.102642 152.12889 -0.90770453 -142.90785 -0.9098624 -142.98329 -32.88623 170.63831
24800000000 -33.16758 146.5554 -0.9052487 -144.97998 -0.91273475 -145.02682 -31.999243 171.6985
24900000000 -33.507813 138.54599 -0.91297239 -147.04459 -0.91893685 -147.04688 -31.439119 173.71188
25000000000 -32.985817 135.74538 -0.90760976 -149.08331 -0.91563529 -149.13106 -33.047985 175.09775
25100000000 -32.905571 126.34624 -0.91536039 -151.07173 -0.91770428 -151.12256 -33.411011 163.21754
25200000000 -32.210384 118.08936 -0.91081238 -153.08202 -0.92088014 -153.12125 -34.149658 149.42393
25300000000 -31.118708 112.48255 -0.92277402 -155.09808 -0.92974168 -155.13625 -31.798 139.46974
25400000000 -30.030704 109.47414 -0.92317611 -157.11848 -0.92684877 -157.21094 -31.545481 136.26501
25500000000 -29.705507 107.54848 -0.9247523 -159.2049 -0.93055207 -159.26323 -30.2369 134.49973
25600000000 -28.868773 104.96359 -0.93167055 -161.26138 -0.93296933 -161.26106 -30.528246 132.37146
25700000000 -29.258261 99.671761 -0.93371195 -163.2874 -0.93597329 -163.33591 -30.500568 128.37642
25800000000 -28.218555 98.35144 -0.92810059 -165.28639 -0.93505627 -165.36731 -30.247353 119.62569
25900000000 -28.020924 88.183395 -0.93726116 -167.33774 -0.93928623 -167.4272 -29.812243 116.31285
26000000000 -27.438025 89.982651 -0.92884779 -169.33986 -0.94302845 -169.41449 -29.142916 107.73934
26100000000 -26.765322 79.913368 -0.94195563 -171.35925 -0.94466847 -171.4218 -28.500113 109.08657
26200000000 -26.746307 85.419029 -0.94177169 -173.42955 -0.94431907 -173.50117 -28.059349 101.84486
26300000000 -25.463776 77.85556 -0.94272774 -175.42467 -0.94962353 -175.51207 -27.848358 104.22538
26400000000 -26.350145 78.583969 -0.94619167 -177.50291 -0.95775419 -177.56291 -27.58806 93.179611
26500000000 -24.728163 75.645958 -0.94818932 -179.51559 -0.95290661 -179.58223 -27.434378 95.780663
26600000000 -25.407797 69.497261 -0.95622826 178.46124 -0.95997256 178.37985 -26.80625 84.488564
26700000000 -24.089991 72.994484 -0.94055736 176.38866 -0.96310967 176.3564 -26.308426 88.748207
26800000000 -24.770725 61.913113 -0.94380206 174.36441 -0.95873672 174.27638 -25.659365 81.487183
26900000000 -23.7663 70.099869 -0.95558053 172.24509 -0.97111833 172.17937 -26.104071 82.93261
27000000000 -23.930597 57.924492 -0.98161906 170.28918 -0.95539892 170.32364 -24.876942 76.237778
27100000000 -23.677542 63.299816 -0.96928483 168.19852 -0.9866246 168.23444 -25.473526 76.210442
27200000000 -22.743055 54.709846 -0.97563761 166.42627 -0.98480982 166.18336 -24.616388 68.511917
27300000000 -23.458857 57.293762 -0.97631693 164.26709 -0.97847247 164.21107 -25.104328 68.212952
27400000000 -22.17297 52.561115 -0.96920782 162.12914 -0.99875087 162.11734 -23.999681 65.677452
27500000000 -23.2495 50.111813 -0.98051846 160.29515 -0.9934743 160.1521 -23.83506 62.558037
27600000000 -22.108644 47.839104 -0.98122776 158.14105 -0.99619675 158.19093 -23.16666 62.009773
27700000000 -22.753536 43.367306 -0.98592579 156.17067 -0.96913469 156.19044 -24.05957 58.73497
27800000000 -21.349268 45.113789 -0.9739846 154.04288 -1.0000216 153.98967 -23.277563 57.00391
27900000000 -21.633209 39.90377 -0.98358959 152.06544 -0.98823369 152.03915 -23.405724 49.418476
28000000000 -21.216427 43.081676 -0.98987818 150.02531 -0.99783778 149.9877 -22.523035 49.019344
28100000000 -21.43066 35.722515 -0.99369425 148.08432 -1.0034617 147.89923 -22.933064 44.603619
28200000000 -21.210903 36.096127 -1.0149127 146.07838 -1.0049936 145.83101 -22.167261 44.816711
28300000000 -20.9513 29.736055 -1.0145472 143.98671 -1.0173432 143.94725 -22.125172 39.990238
28400000000 -20.732765 30.095375 -1.0162936 142.03363 -1.0238131 142.02238 -22.14677 40.764252
28500000000 -20.497822 26.849159 -1.0053459 139.97757 -1.0187908 139.89865 -21.715227 33.548191
28600000000 -20.412758 27.183617 -0.98728055 138.00021 -1.0141996 137.88335 -21.685133 33.806587
28700000000 -20.429161 24.884819 -1.0040488 135.81548 -0.97585928 135.87747 -21.347036 29.306545
28800000000 -20.512243 24.799 -0.98789471 133.7892 -1.0325434 133.80042 -21.209255 32.626007
28900000000 -19.901991 20.169275 -1.0076227 131.89388 -0.99396372 131.61029 -21.142223 26.07423
29000000000 -20.210798 19.622433 -1.0160192 129.93758 -1.0228473 129.71074 -20.941256 24.432131
29100000000 -19.396559 15.416426 -0.99979317 127.64568 -1.0266367 127.64314 -20.90263 17.146051
29200000000 -20.020428 14.709349 -1.0267423 125.66494 -1.0219308 125.67016 -20.305283 18.608681
29300000000 -19.567028 14.599114 -1.0134971 123.6908 -1.0348496 123.74642 -20.003559 15.518646
29400000000 -20.082148 13.26769 -1.014315 121.7001 -1.0221053 121.76706 -19.853243 18.221031
29500000000 -19.606844 11.616679 -1.0210013 119.82368 -1.0322217 119.68269 -20.23213 11.795236
29600000000 -20.053518 4.7007604 -1.0297072 117.65385 -1.0283959 117.6957 -20.54134 13.759137
29700000000 -19.586859 9.2200336 -1.0107105 115.80613 -1.0306766 115.52065 -20.317032 6.4515953
29800000000 -19.822346 2.5494988 -1.0157278 113.67165 -1.0359305 113.6315 -20.490576 6.3835478
29900000000 -19.436197 7.4000158 -1.0248209 111.65736 -1.0254627 111.54018 -19.680063 0.11071275
30000000000 -19.467907 0.677526 -1.0196029 109.64227 -1.0192069 109.55609 -19.769346 2.6628165
30100000000 -20.127565 4.5847583 -1.0329752 107.45805 -1.033142 107.45631 -19.290192 -0.83068794
30200000000 -19.331285 -3.7339275 -1.0177522 105.70332 -1.0340503 105.51701 -20.077829 1.5130538
30300000000 -20.187698 -3.8691626 -1.0292704 103.3995 -1.0356716 103.4373 -19.437986 -3.3464441
30400000000 -18.998604 -5.6610003 -1.026597 101.48972 -1.0299588 101.4523 -20.69655 -6.2945242
30500000000 -20.185171 -8.2754526 -1.0295359 99.53949 -1.039887 99.359383 -19.505644 -10.397612
30600000000 -19.462351 -7.3829489 -1.0166761 97.317413 -1.0225682 97.372841 -20.03928 -14.740928
30700000000 -20.257572 -12.628196 -1.0184299 95.309319 -1.0448798 95.318085 -19.291883 -14.372841
30800000000 -19.941511 -11.105246 -1.0407109 93.281258 -1.0611739 93.205444 -20.153269 -16.607777
30900000000 -20.003595 -16.982426 -1.0268892 91.36927 -1.0353677 91.258942 -19.481331 -17.349619
31000000000 -20.201351 -13.054168 -1.0501344 89.139648 -1.0396985 89.137283 -20.307367 -22.196348
31100000000 -19.722395 -20.979164 -1.0416255 87.157402 -1.0341141 87.276527 -19.995028 -23.802032
31200000000 -20.323519 -17.81901 -1.0398546 85.231728 -1.0502113 85.204369 -20.030745 -29.793688
31300000000 -20.001467 -22.01717 -1.0360429 83.317642 -1.0251694 83.21418 -19.749151 -28.743565
31400000000 -20.797031 -20.280899 -1.0302768 81.131767 -1.0560217 81.088776 -19.903408 -32.217533
31500000000 -20.424786 -22.84202 -1.0360392 79.122101 -1.0380899 79.243927 -19.946138 -30.13541
31600000000 -21.091499 -23.592155 -1.013484 77.146744 -1.057273 76.909927 -20.539051 -34.713276
31700000000 -20.788374 -26.189371 -1.0489887 75.038513 -1.0165707 75.056252 -20.526648 -35.795689
31800000000 -21.214619 -26.846699 -1.043898 73.019493 -1.0658727 72.913574 -21.174116 -44.163616
31900000000 -21.318359 -29.912907 -1.0233525 71.078056 -1.0060711 70.822571 -20.506224 -44.149315
32000000000 -21.564821 -27.821455 -1.0065256 68.981964 -1.0304497 68.877953 -20.552351 -46.720905
32100000000 -21.801697 -30.758657 -1.0333732 66.984703 -1.0349146 66.922714 -20.582489 -46.192631
32200000000 -22.645544 -31.081648 -1.0393621 64.98024 -1.0031389 64.725906 -21.50177 -47.177349
32300000000 -22.541542 -32.46595 -1.036569 62.800987 -1.0574689 62.831669 -21.719975 -48.079563
32400000000 -23.635637 -36.761963 -1.0417584 60.759266 -1.0699577 60.649445 -22.48296 -55.943459
32500000000 -23.123871 -34.428959 -1.005511 58.637482 -1.0303267 58.714211 -22.316921 -56.896549
32600000000 -23.778379 -43.738201 -1.0091136 56.64716 -1.0405073 56.499588 -22.109671 -65.306709
32700000000 -23.894756 -33.534882 -1.0209382 54.709969 -1.0455413 54.498894 -22.113005 -62.212341
32800000000 -25.003897 -44.162609 -1.0014251 52.75293 -1.0311875 52.623711 -21.629686 -65.122833
32900000000 -25.255049 -30.833923 -1.0236939 50.435738 -1.0407188 50.366734 -23.215328 -63.993267
33000000000 -25.740137 -44.911736 -1.0348023 48.510937 -1.0558662 48.56274 -24.089739 -68.828064
33100000000 -27.203995 -38.921295 -1.0337121 46.390034 -1.0328646 46.3242 -25.062569 -72.774216
33200000000 -26.532803 -40.450718 -1.0347129 44.085556 -1.0407319 44.267567 -24.103388 -80.634254
33300000000 -28.987757 -32.729572 -1.0184102 42.223892 -1.0211959 42.168938 -25.468208 -81.883774
33400000000 -27.062754 -39.650433 -0.99775535 40.35722 -1.0354255 40.155231 -24.718822 -83.61599
33500000000 -30.105379 -31.312754 -1.0418689 38.392368 -1.04316 38.028671 -26.583948 -88.106529
33600000000 -28.796885 -24.26026 -1.0170062 36.120125 -1.0359896 36.040619 -26.65045 -88.746025
33700000000 -31.683626 -26.299784 -1.0665288 34.088558 -1.0652834 33.728828 -29.064894 -98.796066
33800000000 -29.55526 -10.203078 -1.0583751 31.996647 -1.0961113 32.052422 -28.271355 -103.34437
33900000000 -32.187771 -24.462645 -1.0572984 29.702988 -1.0620214 29.847595 -29.738792 -108.77188
34000000000 -30.05088 5.2005014 -1.0694656 27.933851 -1.0583916 27.533228 -31.230259 -106.45263
34100000000 -33.277767 3.0222237 -1.044638 25.938808 -1.05551 25.827709 -32.976345 -114.43574
34200000000 -30.035797 31.472654 -1.0867231 24.010475 -1.0430655 23.760916 -34.936562 -129.0798
34300000000 -30.897573 26.769938 -1.0743248 21.939556 -1.0532169 21.619968 -33.521687 -152.82153
34400000000 -29.706129 40.396923 -1.0660027 19.884089 -1.0608097 19.574087 -34.583534 -163.40846
34500000000 -29.41325 41.412857 -1.0796077 17.313667 -1.0683496 17.604464 -33.83836 -176.11679
34600000000 -29.053772 45.394417 -1.0707086 15.355244 -1.0609908 15.551569 -38.213615 164.53087
34700000000 -27.71282 43.905048 -1.0457702 13.354294 -1.0807095 13.393303 -34.414558 138.66232
34800000000 -26.203655 50.927284 -1.0720857 11.284752 -1.0738088 11.097637 -33.553844 116.2093
34900000000 -25.246552 53.995449 -1.0895686 9.3407688 -1.070438 9.3761873 -29.086872 110.75199
35000000000 -24.847164 51.151955 -1.0762624 7.3766251 -1.0950695 7.3903408 -28.199156 103.35276
35100000000 -24.940155 53.886402 -1.1187533 5.341723 -1.1067259 5.0207834 -27.501783 111.19298
35200000000 -23.629225 54.237057 -1.0916084 3.2100887 -1.0982271 3.0228019 -27.266758 110.07006
35300000000 -23.588776 49.641506 -1.119194 0.94050968 -1.1654198 0.97002935 -27.051031 97.92942
35400000000 -21.778936 54.926437 -1.140468 -1.1184359 -1.1208671 -0.93590188 -26.350441 92.03582
35500000000 -21.651377 51.736954 -1.1476313 -3.0558617 -1.1415894 -3.1344099 -24.590235 86.412621
35600000000 -20.88423 58.223564 -1.1248018 -5.2871499 -1.1698569 -5.2871637 -23.489824 84.855316
35700000000 -21.039028 46.89352 -1.1577334 -7.0474606 -1.1277744 -7.224369 -22.935997 80.217995
35800000000 -20.50275 52.212799 -1.1767788 -9.1108618 -1.1267455 -9.1124983 -22.45808 81.441521
35900000000 -19.095921 46.385387 -1.1482376 -11.381547 -1.2136215 -11.369728 -22.306318 79.388489
36000000000 -19.957706 50.130188 -1.1812305 -13.344028 -1.1362374 -13.126912 -21.615305 67.462097
36100000000 -17.958933 46.075138 -1.1996908 -15.339663 -1.2129831 -15.31778 -20.724483 68.048248
36200000000 -19.346754 47.542931 -1.1641777 -17.251373 -1.1666838 -17.368477 -20.38402 67.301331
36300000000 -17.791716 45.586662 -1.2007906 -19.230354 -1.2346828 -19.554443 -19.765383 67.802109
36400000000 -18.4452 41.507694 -1.1795958 -21.07663 -1.2017126 -21.348619 -19.913795 63.54052
36500000000 -17.266127 43.769981 -1.1963853 -23.465096 -1.1673876 -23.509022 -19.36829 61.489456
36600000000 -17.414331 36.247074 -1.1894114 -25.611977 -1.2131238 -25.140118 -18.296463 51.687038
36700000000 -16.782396 42.186203 -1.2340224 -27.574909 -1.2167765 -27.671179 -18.34948 52.684486
36800000000 -16.313549 35.861622 -1.21509 -29.437645 -1.2379105 -29.698383 -17.28631 52.139454
36900000000 -16.425425 40.686584 -1.1945169 -31.684885 -1.2497771 -31.543768 -17.07431 53.833988
37000000000 -15.697492 32.826405 -1.2274178 -33.373035 -1.2452059 -33.600121 -16.802958 52.051666
37100000000 -16.046627 34.301643 -1.2575256 -35.962887 -1.267395 -35.711662 -17.242161 48.512783
37200000000 -14.873111 30.888206 -1.2684481 -37.444103 -1.1925031 -37.795185 -16.591103 41.184193
37300000000 -15.198085 32.202732 -1.2566823 -39.776806 -1.2515631 -39.900558 -16.200657 37.060062
37400000000 -14.555847 31.024427 -1.2742134 -41.816494 -1.2478138 -41.818115 -14.954463 35.283215
37500000000 -14.607986 28.88834 -1.2866635 -43.839233 -1.2677021 -43.897396 -14.819786 35.953312
37600000000 -14.509008 27.187933 -1.2981926 -45.936058 -1.2624896 -45.884277 -14.799313 35.958084
37700000000 -14.531244 23.102736 -1.3128617 -47.998165 -1.3117214 -47.612469 -15.011143 35.060432
37800000000 -13.747562 23.150837 -1.3042077 -49.678623 -1.2925602 -49.970558 -14.936188 32.082119
37900000000 -13.696057 22.123894 -1.3178374 -51.781464 -1.3436667 -51.939751 -15.00423 26.804693
38000000000 -13.533261 21.354111 -1.3429003 -53.938889 -1.3121241 -53.634178 -14.212409 22.48316
38100000000 -13.698979 19.642504 -1.3394868 -55.856689 -1.3294746 -55.903748 -14.090498 21.837002
38200000000 -13.351051 17.052753 -1.3144695 -57.668217 -1.3578193 -58.035454 -13.413454 21.256496
38300000000 -13.565907 15.219444 -1.3380311 -59.700695 -1.3543468 -59.750099 -13.507781 20.941381
38400000000 -12.849321 13.791332 -1.3498769 -62.022354 -1.3394083 -61.591171 -13.581466 19.731272
38500000000 -13.037073 11.106821 -1.3687505 -64.17659 -1.3581609 -63.818428 -13.732845 17.070351
38600000000 -12.591888 13.985253 -1.3748024 -65.772568 -1.4038235 -66.149261 -13.309825 12.227087
38700000000 -12.576764 7.588985 -1.403164 -67.635521 -1.36716 -67.79393 -13.182391 9.7333221
38800000000 -12.659492 11.249639 -1.3686259 -69.44326 -1.3662164 -69.614891 -12.654786 8.3481684
38900000000 -12.516216 4.9329891 -1.3651947 -71.959167 -1.4122853 -72.012459 -12.801118 9.171895
39000000000 -12.727134 6.4219289 -1.3962367 -73.58297 -1.4067757 -73.675568 -12.478874 7.853004
39100000000 -11.953019 0.42491102 -1.364965 -75.712982 -1.3974525 -75.755684 -12.946456 2.0689206
39200000000 -12.685296 2.9877691 -1.3882059 -77.459862 -1.4216088 -77.761536 -12.579259 -0.26492572
39300000000 -11.660142 -0.88053536 -1.3764797 -79.94175 -1.418039 -79.84832 -12.399753 -4.2075491
39400000000 -12.82771 -0.94258863 -1.3658381 -81.63797 -1.4202657 -81.821281 -11.773109 -2.1418736
39500000000 -11.946994 0.70349199 -1.407328 -84.115013 -1.4324282 -83.815964 -12.150646 -4.5257502
39600000000 -12.475973 -7.6876144 -1.4330741 -85.858925 -1.4259616 -85.850342 -12.059652 -3.4417219
39700000000 -12.091258 -3.4120662 -1.4097544 -87.378204 -1.4813104 -87.87999 -12.801932 -8.105298
39800000000 -12.099585 -10.003623 -1.4578496 -89.561607 -1.4972221 -89.754799 -12.336614 -10.492124
39900000000 -12.035709 -4.6495881 -1.4609773 -91.59375 -1.4332286 -91.763153 -12.255641 -15.636614
40000000000 -11.838711 -12.783213 -1.4194957 -93.38063 -1.3661944 -93.674492 -11.551759 -16.509668
40100000000 -12.415197 -7.7036295 -1.3916122 -95.603149 -1.4091431 -95.782005 -11.401207 -16.994003
40200000000 -12.016579 -13.612752 -1.3968773 -97.591309 -1.3976818 -97.561874 -11.609782 -15.722592
40300000000 -12.569281 -15.06346 -1.3777317 -99.472366 -1.4447553 -99.435165 -11.615684 -19.085777
40400000000 -11.720672 -16.063627 -1.4817742 -101.54595 -1.4444828 -101.3269 -12.253413 -20.423349
40500000000 -12.237292 -17.205652 -1.4703342 -103.94682 -1.455384 -103.69303 -12.191446 -26.121611
40600000000 -11.994699 -15.901121 -1.4570987 -105.55605 -1.47698 -105.6595 -12.180408 -28.059946
40700000000 -12.269395 -20.267166 -1.4022208 -107.60555 -1.4229481 -107.34277 -11.641963 -30.62384
40800000000 -12.140328 -20.661501 -1.396788 -109.53047 -1.42264 -109.50227 -11.492914 -29.01713
40900000000 -11.95962 -22.6957 -1.4602598 -111.13753 -1.3709249 -111.30822 -11.705683 -30.047127
41000000000 -12.322611 -23.542631 -1.472065 -113.54049 -1.4430184 -113.67872 -12.043692 -33.26569
41100000000 -11.919567 -23.446875 -1.3713331 -115.16341 -1.4133564 -115.57202 -12.363169 -34.713142
41200000000 -12.381712 -26.027603 -1.4138701 -117.3046 -1.4382977 -117.24335 -12.344985 -38.420509
41300000000 -12.388513 -24.285532 -1.4363346 -119.16448 -1.3916211 -119.47208 -12.181548 -40.132877
41400000000 -12.273727 -28.231504 -1.3832301 -121.38393 -1.3806713 -121.5508 -12.169544 -40.574055
41500000000 -12.838206 -29.643076 -1.4026613 -123.35156 -1.3635392 -122.89201 -11.86174 -44.450001
41600000000 -12.472682 -31.870264 -1.4128461 -125.78857 -1.3677068 -125.23902 -12.526326 -44.566067
41700000000 -13.016411 -33.187202 -1.3524541 -127.40851 -1.3812006 -127.66611 -12.499471 -48.764732
41800000000 -12.642203 -32.133465 -1.3643302 -129.73065 -1.3543255 -129.89218 -12.907819 -47.148224
41900000000 -13.418797 -37.299351 -1.3031449 -131.66565 -1.3250393 -131.77327 -12.692574 -51.058895
42000000000 -13.341134 -34.593369 -1.3830496 -133.15543 -1.4042051 -133.17015 -12.945007 -53.086639
42100000000 -13.101966 -37.774418 -1.398744 -135.49263 -1.4122251 -135.58763 -13.110298 -55.176617
42200000000 -13.651186 -34.075958 -1.2941177 -137.51463 -1.310954 -137.45522 -13.258488 -56.984924
42300000000 -13.471287 -36.830776 -1.2609112 -139.63301 -1.4025429 -139.11957 -12.868523 -59.446407
42400000000 -14.357003 -38.84251 -1.3919806 -141.73875 -1.376354 -141.68935 -13.811869 -59.991383
42500000000 -13.569212 -39.689861 -1.2541126 -143.28528 -1.309836 -143.84402 -13.904238 -63.242519
42600000000 -14.623162 -41.707722 -1.2800435 -145.67178 -1.3294964 -146.24368 -14.379459 -67.812424
42700000000 -14.347127 -40.967438 -1.3069671 -147.32904 -1.3018186 -147.5468 -13.641427 -67.31369
42800000000 -15.234985 -47.787643 -1.2687386 -149.72115 -1.1978056 -149.56094 -14.261949 -71.745201
42900000000 -15.409077 -37.709286 -1.2821647 -151.47546 -1.3141437 -152.00261 -14.3081 -68.262558
43000000000 -15.34327 -48.142754 -1.3156188 -153.67044 -1.2418438 -154.2892 -14.804925 -72.069496
43100000000 -16.226685 -39.793839 -1.3666468 -155.8837 -1.3934329 -155.51418 -15.30497 -69.992767
43200000000 -15.041159 -43.996323 -1.2971237 -157.94864 -1.2026953 -158.12454 -16.075548 -79.639282
43300000000 -16.723585 -40.620667 -1.2833692 -159.86505 -1.270283 -160.07629 -16.291922 -78.108742
43400000000 -15.512013 -43.498062 -1.2264585 -161.7166 -1.2466488 -162.14006 -16.047026 -84.705589
43500000000 -17.003048 -49.581795 -1.1493258 -163.7955 -1.2448814 -164.2177 -16.771072 -86.245491
43600000000 -16.596046 -39.754272 -1.188275 -166.12318 -1.2440385 -166.24826 -16.56694 -85.883476
43700000000 -17.977049 -44.999409 -1.1977756 -168.93497 -1.2243023 -169.27573 -17.863804 -82.163956
43800000000 -17.283432 -38.768066 -1.2505078 -170.6906 -1.143039 -170.46262 -19.173828 -84.851593
43900000000 -17.990461 -47.199257 -1.2808042 -172.6236 -1.2985549 -172.63986 -20.451954 -96.934235
44000000000 -18.808077 -31.877924 -1.2348452 -175.02484 -1.2513033 -174.35777 -20.293909 -99.508408
44100000000 -17.94392 -38.140114 -1.153801 -176.7767 -1.2337126 -177.18555 -20.635916 -99.732819
44200000000 -19.785204 -25.750135 -1.2310866 -179.40814 -1.2552944 -178.9061 -20.05335 -99.178436
44300000000 -18.536947 -28.753601 -1.2236071 178.72302 -1.2527725 179.31737 -23.037952 -89.329514
44400000000 -20.362459 -30.080919 -1.1976 177.28889 -1.2694584 176.66718 -24.148432 -99.775581
44500000000 -18.492085 -20.128653 -1.2675805 174.47255 -1.2596614 174.59459 -26.60582 -94.44529
44600000000 -19.495678 -22.91416 -1.2402843 172.28648 -1.2908918 172.34425 -27.675554 -105.80039
44700000000 -19.320314 -16.147192 -1.2131532 169.76482 -1.2370147 170.46022 -31.905293 -108.19615
44800000000 -18.993877 -18.097977 -1.259433 168.10954 -1.2361047 167.84453 -33.514122 -90.793205
44900000000 -18.846178 -5.4741144 -1.3047471 165.99225 -1.2433711 166.29153 -42.896297 -80.970985
45000000000 -18.823669 -5.8500161 -1.2708706 163.98804 -1.3423452 163.74687 -44.773792 33.000835
