!Keysight Technologies,N5247B,MY61255062,A.19.80.06
!Date: Monday, May 18, 2026 12:22:26
!Correction: S11(Cdelta 2-Port  ) 
!S21(Cdelta 2-Port  ) 
!S12(Cdelta 2-Port  ) 
!S22(Cdelta 2-Port  ) 
!S2P File: Measurements: S11, S21, S12, S22:
# Hz S  dB   R 50
1000000000 -19.730955 16.679449 -0.57463694 -24.84936 -0.5725652 -24.854763 -21.563423 33.854404
1100000000 -19.216553 14.642324 -0.58969051 -27.239033 -0.58643818 -27.24205 -21.361523 35.632305
1200000000 -18.618683 12.941188 -0.59746295 -29.713465 -0.59639609 -29.716808 -20.895868 38.83144
1300000000 -17.9492 11.261815 -0.6222536 -32.310333 -0.62045795 -32.313194 -20.253696 39.351128
1400000000 -17.410505 8.6302652 -0.62919372 -34.76384 -0.62843168 -34.77536 -19.750944 42.432491
1500000000 -16.802029 6.4798207 -0.64304793 -37.404884 -0.64215529 -37.400917 -19.01099 43.413887
1600000000 -16.152536 3.6464202 -0.6776523 -40.019634 -0.67607009 -40.034184 -18.457415 43.318493
1700000000 -15.599475 0.57571334 -0.698668 -42.651073 -0.69884646 -42.660324 -17.842136 44.315311
1800000000 -15.005349 -2.2607884 -0.72664297 -45.373596 -0.72662216 -45.3862 -17.196259 44.700993
1900000000 -14.388852 -5.3444862 -0.76108664 -48.191284 -0.75906008 -48.192665 -16.501183 44.864521
2000000000 -13.712219 -8.9655685 -0.82771486 -51.066353 -0.8264218 -51.079193 -15.818504 43.758881
2100000000 -13.145787 -12.555561 -0.866593 -53.931332 -0.86566496 -53.940937 -15.151456 44.19054
2200000000 -12.532492 -16.401686 -0.93409967 -56.921089 -0.93534911 -56.925255 -14.437786 43.495144
2300000000 -11.812383 -20.288383 -1.0199637 -60.173313 -1.0222629 -60.192642 -13.574718 42.594925
2400000000 -11.183769 -25.492184 -1.1578524 -63.214828 -1.1591672 -63.227608 -12.890472 40.353836
2500000000 -10.462873 -30.970688 -1.3478531 -66.521851 -1.348442 -66.541862 -12.055858 37.119621
2600000000 -9.9077778 -36.457989 -1.5242984 -69.544922 -1.5244404 -69.550629 -11.457445 34.644516
2700000000 -9.3829956 -42.490372 -1.7371274 -72.450142 -1.7406839 -72.459 -10.926855 31.610636
2800000000 -8.8472347 -48.257629 -1.9757978 -75.561005 -1.974025 -75.586769 -10.293219 28.750504
2900000000 -8.309166 -55.178741 -2.303714 -78.447258 -2.3045466 -78.440544 -9.7239971 24.725504
3000000000 -7.8623228 -61.055813 -2.5598536 -81.412231 -2.5598812 -81.41256 -9.1906185 22.566286
3100000000 -7.2747808 -67.657951 -2.9530475 -84.774017 -2.9533908 -84.782784 -8.4683542 19.36739
3200000000 -6.7503076 -75.227638 -3.4657445 -87.567833 -3.4654412 -87.568924 -7.8267932 14.92966
3300000000 -6.305274 -83.250694 -4.0587788 -89.812439 -4.0627627 -89.822128 -7.2544589 10.124638
3400000000 -5.8387423 -91.262321 -4.752583 -91.908173 -4.7557077 -91.943558 -6.6252766 5.408802
3500000000 -5.3242793 -100.06548 -5.697289 -93.38356 -5.6972666 -93.396835 -5.8924727 -0.18732129
3600000000 -4.8498507 -110.54832 -6.9838028 -91.88829 -6.9803038 -91.905663 -5.1840067 -7.6775842
3700000000 -4.6330919 -122.51043 -8.1423292 -84.280785 -8.1424408 -84.250801 -4.746644 -17.161852
3800000000 -4.6878595 -134.23911 -8.3666582 -73.730675 -8.366744 -73.71209 -4.6110964 -26.078552
3900000000 -5.0541267 -146.48814 -7.4583278 -64.143127 -7.4616776 -64.165138 -4.7895555 -35.862938
4000000000 -5.5727053 -157.32634 -6.28547 -60.29678 -6.289012 -60.294262 -5.1067605 -44.027832
4100000000 -6.2048478 -167.48199 -5.1856837 -59.9002 -5.182137 -59.922707 -5.558754 -51.556953
4200000000 -6.9124618 -176.76286 -4.2947192 -61.487495 -4.2948809 -61.491409 -6.0606341 -57.983227
4300000000 -7.6837354 174.59132 -3.5646608 -64.127563 -3.5637026 -64.127136 -6.6260118 -64.043419
4400000000 -8.5264444 166.5231 -2.9795504 -67.360176 -2.9808547 -67.347908 -7.2563252 -69.460175
4500000000 -9.4060106 159.23045 -2.526123 -70.822906 -2.5282199 -70.849403 -7.9085331 -74.321136
4600000000 -10.287534 152.48335 -2.1816757 -74.384743 -2.1828201 -74.384323 -8.5906067 -78.501846
4700000000 -11.173827 146.48589 -1.9198552 -77.88308 -1.9194067 -77.897301 -9.2465601 -82.175514
4800000000 -12.040361 140.78499 -1.7149513 -81.295135 -1.7156383 -81.309502 -9.9110432 -85.342018
4900000000 -12.904939 135.41151 -1.5507163 -84.595741 -1.5545073 -84.591866 -10.551976 -88.139809
5000000000 -13.732071 130.40254 -1.42307 -87.7547 -1.4261202 -87.772972 -11.200206 -90.684914
5100000000 -14.584497 125.49474 -1.316651 -90.863937 -1.3188332 -90.868698 -11.821607 -92.86937
5200000000 -15.405422 120.88818 -1.2318016 -93.836411 -1.2333446 -93.842308 -12.458207 -95.071777
5300000000 -16.236767 116.51763 -1.1645073 -96.781136 -1.166465 -96.788696 -13.093455 -96.879456
5400000000 -17.042995 112.18576 -1.1072954 -99.629433 -1.1078172 -99.648155 -13.718496 -98.722382
5500000000 -17.860823 107.90559 -1.0605017 -102.41151 -1.0599202 -102.43096 -14.321005 -100.30409
5600000000 -18.66124 103.91891 -1.0212452 -105.13596 -1.0206021 -105.14433 -14.926351 -101.63497
5700000000 -19.477816 99.754623 -0.99052006 -107.79791 -0.99057728 -107.8154 -15.546859 -102.45852
5800000000 -20.324608 95.638306 -0.96191132 -110.41236 -0.96240979 -110.42043 -16.187641 -103.51878
5900000000 -21.147835 91.245834 -0.93685484 -112.98622 -0.9385587 -113.00488 -16.816698 -104.33124
6000000000 -22.080847 87.008072 -0.91588265 -115.52206 -0.91756237 -115.54944 -17.454834 -105.17622
6100000000 -22.970758 82.117798 -0.89724714 -118.0338 -0.89785951 -118.04396 -18.069302 -105.83136
6200000000 -24.008968 76.971252 -0.87403452 -120.49414 -0.87551063 -120.52153 -18.65729 -106.6689
6300000000 -25.07654 71.747704 -0.85152733 -122.97905 -0.8537699 -122.99618 -19.298668 -106.98957
6400000000 -26.390615 66.511345 -0.82847571 -125.47383 -0.82686961 -125.48047 -20.004072 -107.57542
6500000000 -27.741447 61.920132 -0.80890137 -127.95225 -0.80909908 -127.97501 -20.767485 -107.77986
6600000000 -29.597286 56.431362 -0.78853631 -130.43256 -0.79114693 -130.44891 -21.560171 -108.64516
6700000000 -31.580301 51.480145 -0.77010065 -132.92419 -0.77361327 -132.94255 -22.488569 -109.10664
6800000000 -34.226521 45.770172 -0.75980681 -135.45027 -0.76081711 -135.47107 -23.502562 -109.80711
6900000000 -37.621582 43.967304 -0.75029415 -137.96944 -0.75132805 -137.9894 -24.690243 -109.03755
7000000000 -42.732037 33.481968 -0.74432564 -140.47836 -0.74312627 -140.49915 -26.077688 -108.28359
7100000000 -58.769421 20.904686 -0.74376953 -142.99274 -0.74556464 -142.99373 -27.878235 -106.28964
7200000000 -46.529232 -146.07669 -0.74362147 -145.4527 -0.74779344 -145.4749 -30.268576 -101.5589
7300000000 -39.212032 -157.77376 -0.74149829 -147.93196 -0.74476719 -147.96739 -32.660969 -89.098503
7400000000 -36.260036 -164.28705 -0.74589103 -150.46887 -0.74591875 -150.49205 -34.596382 -72.648529
7500000000 -33.362217 -168.05074 -0.74754685 -152.97824 -0.75082952 -152.99165 -35.014496 -42.05817
7600000000 -31.643215 -173.55574 -0.75733888 -155.5248 -0.75968844 -155.54352 -33.435852 -17.482035
7700000000 -29.979656 178.80643 -0.78872973 -158.01375 -0.78978992 -158.03392 -30.473097 -5.0858312
7800000000 -28.834799 176.49802 -0.78125119 -160.50233 -0.78093517 -160.54924 -28.999475 8.320116
7900000000 -28.042578 172.58067 -0.8046239 -162.89493 -0.80607498 -162.92076 -27.204044 10.620203
8000000000 -26.514761 168.21373 -0.80522799 -165.55844 -0.80635422 -165.56641 -25.7833 15.376969
8100000000 -25.674984 163.03593 -0.83419752 -168.10876 -0.83561808 -168.13771 -24.132149 14.264525
8200000000 -24.673277 158.80841 -0.84650832 -170.65797 -0.84646428 -170.6716 -22.801662 13.995076
8300000000 -23.743252 153.89481 -0.86605358 -173.29677 -0.86637872 -173.32004 -21.211121 15.942772
8400000000 -22.710505 147.8922 -0.90088326 -176.00073 -0.9019447 -176.00548 -19.875744 18.346853
8500000000 -22.012539 142.82239 -0.96090651 -178.69807 -0.96169847 -178.73137 -18.88273 23.379541
8600000000 -20.837744 140.33073 -1.0844305 178.85002 -1.0838712 178.83948 -18.102814 32.159618
8700000000 -19.359518 127.99874 -1.0303237 177.69498 -1.0354639 177.66754 -15.388347 38.356449
8800000000 -19.814697 124.68998 -0.8943907 173.5923 -0.89887375 173.55534 -14.709682 23.659855
8900000000 -18.631767 121.85741 -1.0394449 170.25156 -1.0418702 170.23442 -15.115302 17.762146
9000000000 -17.685848 115.99503 -1.1426919 167.3968 -1.1486405 167.38026 -14.988111 13.242103
9100000000 -16.900951 109.81724 -1.2402161 164.49326 -1.2460966 164.4742 -14.336871 9.125515
9200000000 -16.144445 104.02923 -1.3415029 161.51184 -1.3476119 161.49051 -13.478454 5.4988227
9300000000 -15.336191 97.795891 -1.4656914 158.45273 -1.4661885 158.43913 -12.53213 3.1455686
9400000000 -14.523222 91.566803 -1.6108654 155.34334 -1.6127578 155.30775 -11.692135 0.90615791
9500000000 -13.671247 84.672432 -1.7894412 152.14445 -1.7964258 152.14619 -10.915019 -1.3751968
9600000000 -12.866223 77.71402 -2.0077662 148.91647 -2.0128055 148.91132 -10.206374 -4.4646926
9700000000 -12.02811 70.379906 -2.2821338 145.67421 -2.2826567 145.64555 -9.4872179 -8.0612497
9800000000 -11.26478 62.537037 -2.6155422 142.49156 -2.6175063 142.45273 -8.7742491 -12.341156
9900000000 -10.469454 54.519279 -3.0278544 139.41238 -3.0328383 139.39108 -8.0439196 -16.720325
10000000000 -9.7254782 45.657352 -3.5383508 136.65842 -3.5397139 136.63405 -7.3891582 -21.775057
10100000000 -9.0262508 36.612629 -4.1528592 134.56198 -4.157752 134.53339 -6.7908759 -27.098923
10200000000 -8.4034739 26.759071 -4.8660703 133.34538 -4.8719563 133.32127 -6.2748847 -33.295269
10300000000 -7.8787971 16.594193 -5.6524811 133.69394 -5.6596942 133.69121 -5.8474231 -40.042213
10400000000 -7.4929681 5.9493623 -6.3682714 136.12851 -6.3728375 136.14099 -5.5479212 -47.302025
10500000000 -7.2688684 -4.6161947 -6.8725562 140.36723 -6.8700781 140.34566 -5.3722901 -54.384769
10600000000 -7.1484952 -15.381942 -6.9698291 145.75571 -6.976687 145.68588 -5.3320265 -61.639931
10700000000 -7.2415829 -25.792444 -6.650403 150.32957 -6.6522274 150.29004 -5.4893589 -68.365303
10800000000 -7.4007778 -35.43919 -6.0831199 153.19566 -6.0850453 153.172 -5.7418365 -74.634605
10900000000 -7.6877661 -44.646572 -5.4398479 154.15607 -5.4397316 154.13037 -6.1214218 -80.442261
11000000000 -8.0566301 -52.823296 -4.837265 153.60565 -4.8420248 153.6096 -6.5430498 -85.57737
11100000000 -8.4216871 -60.64127 -4.315804 152.16426 -4.3179035 152.16136 -6.9889922 -90.130165
11200000000 -8.8651114 -67.619637 -3.8678229 150.13353 -3.8679302 150.1189 -7.4334254 -93.952286
11300000000 -9.271554 -74.135841 -3.5046358 147.69785 -3.5019135 147.66995 -7.9127765 -97.257378
11400000000 -9.7274475 -79.994827 -3.206243 145.02426 -3.2096572 144.98312 -8.3518353 -99.784409
11500000000 -10.112947 -85.294861 -2.9720316 142.33717 -2.9700243 142.29692 -8.7991428 -102.12572
11600000000 -10.536284 -90.426819 -2.7744722 139.60555 -2.7761152 139.56311 -9.242341 -104.03158
11700000000 -10.898895 -94.847076 -2.6157615 136.86624 -2.6175282 136.83322 -9.6757393 -105.87199
11800000000 -11.283978 -99.204727 -2.4996603 134.12491 -2.4986458 134.10277 -10.048797 -107.07642
11900000000 -11.608504 -102.9248 -2.3950434 131.48308 -2.3988926 131.46173 -10.406526 -108.45741
12000000000 -11.924541 -106.81612 -2.3197653 128.88045 -2.325947 128.86922 -10.701361 -109.00211
12100000000 -12.195539 -110.13513 -2.2635748 126.33361 -2.267457 126.3161 -10.980585 -109.93126
12200000000 -12.400099 -113.57768 -2.2252526 123.84704 -2.2254364 123.82381 -11.203983 -110.41321
12300000000 -12.57736 -116.62344 -2.1958561 121.45847 -2.1972473 121.42912 -11.401578 -111.06309
12400000000 -12.717029 -119.81068 -2.1718416 119.14544 -2.1750846 119.10889 -11.57468 -111.47303
12500000000 -12.838034 -122.88853 -2.155283 116.9253 -2.1591434 116.91254 -11.695088 -112.23611
12600000000 -12.851397 -126.37984 -2.1463859 114.84182 -2.1469915 114.80916 -11.736963 -112.89787
12700000000 -12.912148 -130.09885 -2.1242397 112.8343 -2.1271901 112.82968 -11.775051 -114.13721
12800000000 -12.851473 -134.2522 -2.092212 110.93134 -2.0939775 110.92243 -11.802578 -115.23852
12900000000 -12.898451 -138.72205 -2.0452137 109.06832 -2.0484509 109.02271 -11.84121 -117.30563
13000000000 -12.89613 -143.44727 -1.9816188 107.21964 -1.9838924 107.16833 -11.909684 -119.35245
13100000000 -13.067737 -148.66418 -1.8967391 105.26272 -1.8985382 105.25185 -12.005113 -121.97789
13200000000 -13.196787 -153.73886 -1.8031813 103.27148 -1.8068975 103.23341 -12.168029 -124.37759
13300000000 -13.466023 -159.57349 -1.7014173 101.12894 -1.698822 101.10716 -12.366625 -127.0854
13400000000 -13.7637 -164.48872 -1.6015593 98.887985 -1.5995274 98.864891 -12.673883 -129.38028
13500000000 -14.083637 -170.02226 -1.4982765 96.581795 -1.5012479 96.538002 -12.996278 -132.16495
13600000000 -14.543132 -174.6796 -1.4025826 94.147743 -1.4066917 94.121689 -13.425802 -134.77271
13700000000 -14.998494 -179.9191 -1.3167334 91.605118 -1.3185264 91.598923 -13.839792 -137.80066
13800000000 -15.675082 175.28271 -1.2320597 89.035187 -1.2363787 88.999046 -14.356246 -140.32764
13900000000 -16.222063 170.74466 -1.1595306 86.340088 -1.1636379 86.307205 -14.872008 -142.75528
14000000000 -17.068001 166.35176 -1.0957022 83.55069 -1.1001039 83.507133 -15.690948 -144.43192
14100000000 -17.792776 164.16656 -1.0609955 80.621635 -1.066103 80.580444 -16.567965 -145.39977
14200000000 -18.693007 163.03264 -1.0710124 77.729393 -1.0784329 77.665977 -17.638861 -143.80296
14300000000 -19.152964 163.25113 -1.1084721 75.166122 -1.1084718 75.137009 -18.145676 -141.78351
14400000000 -19.744322 159.98334 -1.1039243 72.780991 -1.1053094 72.738503 -18.666018 -141.80806
14500000000 -20.635607 158.14241 -1.0773441 70.215836 -1.0812949 70.17305 -19.227385 -142.60565
14600000000 -21.492895 156.30319 -1.0653179 67.519569 -1.070603 67.490013 -20.175673 -141.88716
14700000000 -22.535963 156.04468 -1.0377092 64.872864 -1.0394861 64.836555 -21.305971 -142.12314
14800000000 -23.674833 159.37738 -1.0286015 61.922386 -1.0313307 61.894764 -23.278248 -138.88498
14900000000 -24.90271 169.01482 -1.0377979 58.892303 -1.0426469 58.861397 -25.400728 -130.23582
15000000000 -25.179651 -177.80122 -1.0787442 55.707951 -1.083528 55.686363 -27.521788 -109.64696
15100000000 -24.137177 -163.28246 -1.1861053 52.423691 -1.1899006 52.375881 -26.166544 -78.859894
15200000000 -22.166611 -170.87254 -1.3868427 50.457836 -1.3919835 50.411942 -22.860233 -79.338066
15300000000 -22.721558 -157.68004 -1.2981071 46.932995 -1.3007382 46.903435 -23.186821 -57.484669
15400000000 -19.768871 -153.78612 -1.5229132 43.059143 -1.5307858 43.028023 -19.333563 -47.71307
15500000000 -17.04038 -160.99815 -1.9953073 39.911934 -1.9942107 39.881989 -15.897965 -53.798923
15600000000 -15.684011 173.60234 -2.5479972 41.957943 -2.5509117 41.917618 -14.174879 -79.001251
15700000000 -21.630058 168.38069 -1.5970999 40.907486 -1.6021965 40.905437 -20.042559 -86.004272
15800000000 -18.687723 -161.81387 -1.7129047 33.842323 -1.7134416 33.823566 -17.146 -50.142555
15900000000 -15.734915 -168.30482 -2.2558553 29.660595 -2.2610333 29.607269 -13.665888 -54.16103
16000000000 -13.961942 179.1795 -2.8957489 28.044498 -2.8980412 27.972727 -11.774755 -64.254395
16100000000 -13.572644 164.03819 -3.2808657 29.23737 -3.2830522 29.204185 -11.204835 -77.002281
16200000000 -14.547882 157.14105 -3.0268292 29.169313 -3.025034 29.118464 -12.157644 -82.380081
16300000000 -14.722095 159.47191 -2.9567437 25.399237 -2.9630058 25.367483 -12.177226 -77.379807
16400000000 -13.225718 161.07414 -3.387953 20.945433 -3.3952794 20.891813 -10.60972 -73.972206
16500000000 -11.625905 151.64268 -4.166913 19.671366 -4.169651 19.597103 -8.9450684 -80.382896
16600000000 -10.775793 140.71834 -4.7762079 21.425253 -4.7839723 21.397947 -8.0403194 -89.270653
16700000000 -10.274563 129.23656 -5.0141273 24.550449 -5.0268102 24.508717 -7.5599918 -98.137062
16800000000 -10.268914 118.55623 -4.9087605 27.334049 -4.9199367 27.320847 -7.470891 -106.50356
16900000000 -10.314699 108.89957 -4.6006975 28.910334 -4.6031861 28.882057 -7.5330424 -113.88747
17000000000 -10.595481 99.305534 -4.2189007 29.176874 -4.2229176 29.139807 -7.747333 -120.5192
17100000000 -10.820585 91.672646 -3.8403134 28.511456 -3.8478708 28.431366 -7.9970269 -125.8757
17200000000 -11.105173 83.637527 -3.5130765 27.125509 -3.5136309 27.100153 -8.2861729 -130.87361
17300000000 -11.500931 77.749733 -3.2181032 25.356228 -3.2248156 25.332375 -8.6215439 -134.60133
17400000000 -11.823674 71.170029 -2.9772341 23.293312 -2.9820628 23.298815 -8.9784641 -138.4411
17500000000 -12.270828 65.478706 -2.7676754 21.112129 -2.7759888 21.073196 -9.3456039 -141.46831
17600000000 -12.506626 59.593174 -2.6015377 18.77726 -2.6040769 18.762787 -9.6699514 -144.83661
17700000000 -12.945059 54.243492 -2.4629865 16.405025 -2.459815 16.376266 -10.015634 -147.11949
17800000000 -13.137309 50.06052 -2.3497694 14.020839 -2.3510561 13.960738 -10.266644 -149.49644
17900000000 -13.520624 45.118546 -2.2592647 11.623823 -2.2587898 11.561053 -10.564862 -150.95505
18000000000 -13.761611 41.993816 -2.182344 9.2506905 -2.1958046 9.2195311 -10.798482 -152.65837
18100000000 -13.991891 37.4324 -2.1250298 7.0287576 -2.1235218 7.0102744 -11.089868 -153.91051
18200000000 -14.153842 33.818604 -2.0763128 4.8015127 -2.0731506 4.8089676 -11.310432 -155.90106
18300000000 -14.24029 29.156954 -2.013921 2.6408362 -2.0146637 2.6075656 -11.577044 -157.75655
18400000000 -14.388856 25.477474 -1.9580785 0.47149318 -1.9605378 0.38903588 -11.744392 -160.03326
18500000000 -14.457378 21.146662 -1.9026378 -1.7487937 -1.9056268 -1.7578386 -11.926357 -161.67604
18600000000 -14.614293 17.296736 -1.8537928 -3.9551773 -1.8583694 -4.0109215 -12.082175 -163.11348
18700000000 -14.723903 12.710252 -1.8043526 -6.1729865 -1.8069681 -6.196569 -12.354768 -164.02399
18800000000 -14.921641 8.9393587 -1.7584661 -8.3779659 -1.7661424 -8.4151545 -12.668084 -165.2491
18900000000 -14.987451 4.7922297 -1.7211148 -10.559189 -1.7259264 -10.600828 -12.981931 -166.44464
19000000000 -15.14366 1.466743 -1.6912146 -12.782089 -1.6967912 -12.782722 -13.231215 -168.40067
19100000000 -15.135104 -2.1178019 -1.6638123 -14.946437 -1.6674408 -14.985168 -13.456174 -169.70335
19200000000 -15.317732 -5.6887846 -1.6390009 -17.103867 -1.6400963 -17.168371 -13.551884 -171.11702
19300000000 -15.252412 -9.3961401 -1.6108639 -19.2745 -1.6140493 -19.308411 -13.766442 -171.56923
19400000000 -15.459003 -13.594919 -1.5844452 -21.404392 -1.5914679 -21.426111 -13.903638 -172.64229
19500000000 -15.368098 -16.951159 -1.5582074 -23.523127 -1.563877 -23.578613 -14.20628 -173.20354
19600000000 -15.432116 -21.540903 -1.5362508 -25.632572 -1.5374552 -25.648371 -14.364856 -174.69589
19700000000 -15.391786 -24.069115 -1.5015877 -27.70993 -1.5064586 -27.715986 -14.662259 -175.66609
19800000000 -15.45564 -29.109451 -1.4746751 -29.776569 -1.4763054 -29.845417 -14.686196 -177.15157
19900000000 -15.573946 -32.394234 -1.4362863 -31.887108 -1.4353777 -31.948378 -14.993958 -178.30391
20000000000 -15.530722 -38.410622 -1.3997816 -34.009434 -1.4059527 -34.067059 -15.097756 -179.1297
20100000000 -15.752789 -42.093178 -1.3613153 -36.138577 -1.3636299 -36.22543 -15.483018 179.3768
20200000000 -15.576312 -46.863262 -1.3267894 -38.303497 -1.3289683 -38.34005 -15.633488 178.36777
20300000000 -15.839917 -51.35321 -1.2866222 -40.497219 -1.2913045 -40.530384 -16.027853 176.54283
20400000000 -15.770224 -55.172558 -1.2451441 -42.656265 -1.2500318 -42.736122 -16.113811 175.80421
20500000000 -16.100319 -61.636646 -1.2104231 -44.910141 -1.2160208 -44.961285 -16.438757 174.45419
20600000000 -16.167421 -65.629837 -1.1698962 -47.183842 -1.1701478 -47.22681 -16.711193 174.89525
20700000000 -16.384224 -72.489731 -1.1331898 -49.479897 -1.1344131 -49.558136 -17.28153 173.74493
20800000000 -16.761837 -76.063217 -1.0958121 -51.872261 -1.1002176 -51.918865 -17.748119 174.3148
20900000000 -17.034691 -81.67231 -1.0776008 -54.360508 -1.0755059 -54.356701 -18.392801 172.54198
21000000000 -17.815716 -85.178757 -1.06633 -56.831364 -1.0688498 -56.885117 -18.73744 174.1998
21100000000 -18.267359 -87.430046 -1.0848441 -59.373577 -1.0893507 -59.430099 -19.076815 174.58958
21200000000 -18.955221 -88.635544 -1.1349372 -61.750893 -1.1365159 -61.791935 -19.045942 178.35333
21300000000 -18.984842 -88.30349 -1.1905901 -63.910339 -1.1904869 -63.944588 -19.004211 -179.49101
21400000000 -18.807878 -89.772018 -1.2317387 -65.826683 -1.236891 -65.903931 -18.895161 -176.58755
21500000000 -18.211994 -95.015839 -1.2076594 -67.426537 -1.2096761 -67.467415 -18.703712 -178.85925
21600000000 -18.699165 -100.05692 -1.1599884 -69.781807 -1.164315 -69.813629 -19.268276 -179.76901
21700000000 -18.870932 -102.39104 -1.1590722 -71.956009 -1.1613438 -72.009712 -19.599276 178.94017
21800000000 -19.050707 -105.53683 -1.1524841 -74.082253 -1.1587328 -74.134468 -19.609241 178.9742
21900000000 -19.118816 -110.34339 -1.1407764 -76.209686 -1.1430674 -76.266899 -19.711552 177.25903
22000000000 -19.416525 -115.79717 -1.1165799 -78.408867 -1.1144949 -78.481239 -19.769175 177.76978
22100000000 -19.730806 -122.30868 -1.067521 -80.83696 -1.0724758 -80.880608 -20.474016 178.04395
22200000000 -21.170322 -127.41979 -1.0633211 -83.757431 -1.0660378 -83.800591 -21.358971 -174.62062
22300000000 -21.786451 -118.18484 -1.226809 -86.375931 -1.226694 -86.412415 -20.784489 -164.95743
22400000000 -21.12686 -119.44978 -1.3144993 -87.765518 -1.3204745 -87.849777 -19.652231 -166.44885
22500000000 -20.541769 -121.84792 -1.3097209 -89.457886 -1.310743 -89.50695 -19.603674 -172.00861
22600000000 -20.447659 -130.24365 -1.2867917 -91.270569 -1.2869595 -91.338135 -19.429045 -173.45549
22700000000 -20.451313 -133.26823 -1.2598548 -93.328812 -1.2629147 -93.343193 -19.490677 -176.05884
22800000000 -20.205952 -141.20772 -1.2313007 -95.39949 -1.226072 -95.506416 -19.575438 -174.67648
22900000000 -20.869825 -146.26239 -1.1750783 -97.60981 -1.1751024 -97.632423 -20.022379 -176.8223
23000000000 -21.365808 -150.97443 -1.1566643 -100.16344 -1.1548808 -100.23602 -20.602688 -173.02449
23100000000 -22.507151 -155.91185 -1.1422473 -102.6032 -1.1428373 -102.64958 -21.20768 -174.09618
23200000000 -23.344053 -158.97342 -1.1362834 -105.4157 -1.1333932 -105.45621 -21.937843 -167.42554
23300000000 -26.950827 -152.19664 -1.2339966 -109.08881 -1.2317287 -109.14262 -21.847692 -151.63025
23400000000 -21.947586 -123.29433 -1.7097983 -110.80405 -1.7139452 -110.86297 -17.522394 -145.95103
23500000000 -19.969358 -144.71669 -1.7084646 -110.55399 -1.7107716 -110.5873 -16.671488 -161.3595
23600000000 -19.88858 -152.23337 -1.5944598 -111.98741 -1.6003598 -112.03908 -17.130411 -165.38617
23700000000 -19.770195 -162.40981 -1.5269865 -113.9451 -1.5345926 -113.9809 -17.512947 -170.36365
23800000000 -20.228395 -166.63785 -1.4911761 -115.99422 -1.4978942 -116.01493 -17.768183 -172.50148
23900000000 -19.890875 -172.92508 -1.460686 -118.08175 -1.4640013 -118.13588 -17.711798 -176.39122
24000000000 -20.51844 -179.14456 -1.4449377 -120.29591 -1.4450893 -120.36372 -17.674219 -176.10973
24100000000 -20.421543 178.71501 -1.4351878 -122.64333 -1.4380083 -122.70059 -17.530184 -175.20833
24200000000 -21.10021 175.62946 -1.4863802 -125.09338 -1.4890952 -125.12675 -17.681299 -170.82886
24300000000 -20.638565 179.1066 -1.5694506 -127.17458 -1.5656477 -127.23186 -17.233843 -168.73352
24400000000 -20.275118 176.46358 -1.6640109 -129.11874 -1.6667275 -129.14294 -17.074121 -168.41182
24500000000 -19.237675 173.82343 -1.7264526 -130.2868 -1.7317137 -130.38898 -16.250937 -174.01385
24600000000 -18.44956 164.45293 -1.6998411 -131.72682 -1.7049624 -131.72363 -16.086281 179.95485
24700000000 -18.342651 158.11734 -1.6593099 -133.39964 -1.6628377 -133.46094 -15.677659 176.2317
24800000000 -17.913752 151.9644 -1.6174531 -135.30719 -1.6241697 -135.37097 -15.639705 174.23004
24900000000 -17.997881 146.50937 -1.5887789 -137.2719 -1.5902504 -137.30064 -15.530748 172.71828
25000000000 -17.863731 141.95967 -1.5580956 -139.21884 -1.5591403 -139.26163 -15.788987 171.47453
25100000000 -17.909351 136.44255 -1.5370425 -141.16301 -1.5437233 -141.27994 -15.899171 168.7662
25200000000 -17.728127 131.0378 -1.5161732 -143.12526 -1.5197413 -143.21643 -16.061697 165.86098
25300000000 -17.602629 125.94596 -1.5047002 -145.16905 -1.5054646 -145.18887 -15.844472 162.76906
25400000000 -17.3428 121.14745 -1.4871997 -147.14079 -1.4862782 -147.20703 -15.886539 160.91869
25500000000 -17.285425 117.65173 -1.4718513 -149.18033 -1.4703414 -149.26668 -15.715311 158.81702
25600000000 -17.078815 113.21219 -1.457615 -151.21513 -1.4564829 -151.30565 -15.775588 157.31053
25700000000 -17.229887 108.45635 -1.429601 -153.28285 -1.4353049 -153.28825 -15.827106 155.53058
25800000000 -16.9977 104.96699 -1.4129188 -155.30881 -1.4199698 -155.36317 -15.933785 152.50571
25900000000 -17.07616 98.813728 -1.4011413 -157.41528 -1.4070506 -157.44589 -15.973035 150.91283
26000000000 -16.842659 96.73999 -1.3858517 -159.37263 -1.393307 -159.42505 -16.038092 147.4191
26100000000 -16.702652 90.245247 -1.3745426 -161.48131 -1.3824699 -161.49753 -15.885127 146.22852
26200000000 -16.704897 89.009285 -1.3646477 -163.54536 -1.3706024 -163.59117 -16.076584 143.49362
26300000000 -16.36285 83.716843 -1.3480197 -165.57292 -1.3594195 -165.62952 -15.97338 142.66389
26400000000 -16.70545 81.341209 -1.3384806 -167.72324 -1.3444325 -167.76833 -16.249346 139.23964
26500000000 -16.19047 77.608086 -1.3256304 -169.72502 -1.3323771 -169.75862 -16.149376 138.39589
26600000000 -16.508507 73.176559 -1.3168921 -171.89021 -1.3315331 -171.86543 -16.406872 134.49318
26700000000 -16.084234 71.401077 -1.3088666 -173.85115 -1.3209714 -173.92505 -16.357662 134.62895
26800000000 -16.359959 65.583488 -1.2819202 -176.02591 -1.3056595 -176.10933 -16.474701 129.81447
26900000000 -16.08783 66.357285 -1.3048949 -178.09323 -1.2946143 -178.29079 -16.509275 130.62851
27000000000 -16.164022 58.811371 -1.2992158 179.74927 -1.2901633 179.7578 -16.437647 125.94344
27100000000 -16.194054 58.88253 -1.2918174 177.78032 -1.2907294 177.76707 -16.603399 126.21844
27200000000 -15.841054 53.546265 -1.2829392 175.65158 -1.2837152 175.5686 -16.712006 121.38211
27300000000 -16.201836 52.23959 -1.2622023 173.54268 -1.2730314 173.56555 -17.073839 121.75076
27400000000 -15.764978 48.430141 -1.28386 171.44582 -1.2812958 171.40103 -16.732414 117.03092
27500000000 -16.399033 44.962227 -1.2567863 169.36208 -1.2611362 169.3232 -16.950521 116.38438
27600000000 -15.911235 42.525433 -1.2833291 167.27541 -1.2713757 167.29596 -16.730574 113.12962
27700000000 -16.239967 37.955296 -1.2529504 165.05119 -1.2656032 165.05846 -17.184456 112.11652
27800000000 -15.911379 37.369801 -1.2547238 163.01831 -1.2581508 162.93744 -17.056713 109.65278
27900000000 -15.994632 33.229519 -1.2627079 161.05966 -1.2583376 160.96771 -17.62738 107.39853
28000000000 -16.001116 34.052757 -1.2691113 158.90262 -1.2648983 158.78223 -17.424534 104.10749
28100000000 -16.173967 29.046982 -1.2571207 156.91388 -1.2516028 156.8064 -17.820517 101.43791
28200000000 -16.168007 28.900867 -1.250297 154.8093 -1.2696755 154.88097 -17.506235 98.916565
28300000000 -16.121178 24.064779 -1.2469572 152.47502 -1.232475 152.61826 -17.815605 96.231705
28400000000 -16.051271 23.358585 -1.2298189 150.59164 -1.2421449 150.43187 -17.65523 94.706772
28500000000 -15.937961 20.835106 -1.2436631 148.48221 -1.2310238 148.40356 -18.185381 90.645538
28600000000 -15.966476 20.067533 -1.2391541 146.41162 -1.2318614 146.26744 -18.125744 88.150856
28700000000 -15.930037 16.807272 -1.2235168 144.33032 -1.2243812 144.28424 -18.286943 85.020416
28800000000 -16.062561 14.692265 -1.2188392 142.30312 -1.2279608 142.12538 -18.240641 83.680901
28900000000 -15.972485 10.131566 -1.2129774 140.02858 -1.2154735 139.96506 -18.637621 80.475891
29000000000 -16.547419 8.0068483 -1.1928629 137.80994 -1.2020203 137.64063 -18.745537 77.896149
29100000000 -16.417442 7.8638368 -1.1953635 135.54749 -1.2149791 135.40813 -19.45467 72.68644
29200000000 -16.800331 7.4290943 -1.2463132 133.64426 -1.2263967 133.40965 -18.986702 69.629311
29300000000 -16.370399 7.6885571 -1.2351562 131.37048 -1.2368129 131.2247 -19.247316 66.090439
29400000000 -16.777193 5.8248172 -1.2402251 129.19534 -1.2615812 129.20641 -18.847738 65.844742
29500000000 -16.349455 5.2868514 -1.2489867 127.24286 -1.2577182 127.1742 -19.564175 63.189522
29600000000 -16.691486 -0.96327513 -1.2468975 125.00585 -1.2508365 124.94658 -19.761841 62.226734
29700000000 -16.554073 1.9787316 -1.2481499 122.93029 -1.2580613 122.72099 -20.395729 55.620438
29800000000 -16.567276 -5.6485114 -1.2582909 120.65767 -1.2700548 120.70844 -20.67551 54.842716
29900000000 -16.73679 -2.3629563 -1.2510872 118.52393 -1.2424659 118.59032 -20.963528 42.836842
30000000000 -16.694412 -9.0290728 -1.2513721 116.3718 -1.2417897 116.45367 -20.815462 45.164417
30100000000 -18.02356 -4.3882375 -1.2359258 113.90989 -1.2373351 113.92715 -20.877848 33.814445
30200000000 -17.335926 -7.6926227 -1.2572538 111.48164 -1.2505521 111.48562 -21.938824 38.129658
30300000000 -18.197443 -5.4006233 -1.3194593 108.93808 -1.2940958 109.10925 -22.461164 24.442726
30400000000 -17.310953 -4.1702771 -1.3585849 106.54771 -1.3635473 106.46766 -25.681871 19.648745
30500000000 -17.838255 -1.5591974 -1.4798248 103.98008 -1.519655 103.96342 -26.860355 2.1755576
30600000000 -16.721901 0.38860488 -1.6147761 102.2586 -1.616363 102.33006 -30.613144 17.561502
30700000000 -17.034134 0.083089896 -1.6259878 99.970924 -1.6595367 99.890175 -28.398453 5.5307331
30800000000 -15.717496 3.671499 -1.8994201 97.688438 -1.8979214 97.487175 -40.865482 -29.374254
30900000000 -14.474719 -5.4229198 -2.1371446 96.799599 -2.1099017 96.688477 -35.971977 109.81622
31000000000 -13.822693 -7.9979563 -2.1828179 96.252502 -2.2450185 96.107338 -30.108093 121.4286
31100000000 -13.466739 -18.945848 -2.2029328 95.62413 -2.184649 95.466904 -26.590399 109.46986
31200000000 -13.370831 -23.715336 -2.103477 94.558113 -2.1122372 94.705864 -26.342068 100.09586
31300000000 -13.515632 -30.481455 -1.9938523 93.491531 -2.0025234 93.375786 -24.303556 85.265709
31400000000 -14.018584 -34.898449 -1.8930241 91.958298 -1.917546 91.77066 -24.408163 75.824379
31500000000 -14.239044 -39.91597 -1.8071526 89.974304 -1.800072 90.069504 -22.372038 65.912949
31600000000 -14.957131 -44.870701 -1.7234977 88.101242 -1.6877242 87.925201 -22.845852 66.242561
31700000000 -15.128167 -48.654518 -1.6208429 85.89463 -1.5960276 85.853836 -22.772284 58.55817
31800000000 -15.846103 -51.253387 -1.5516882 83.719772 -1.5402077 83.584137 -24.195429 49.234692
31900000000 -16.044703 -53.27224 -1.4479896 81.325539 -1.4814142 81.175499 -25.006268 38.620388
32000000000 -16.555737 -53.234299 -1.4945346 78.922981 -1.5081068 78.878632 -25.887398 32.751827
32100000000 -16.521412 -56.467789 -1.5168816 76.906303 -1.5041873 77.07357 -25.581902 31.925148
32200000000 -17.229158 -59.300407 -1.5012684 74.983604 -1.5238565 74.775085 -26.450729 39.365261
32300000000 -16.934013 -61.571117 -1.5671058 72.783836 -1.5750984 72.733894 -27.160095 46.494476
32400000000 -17.234463 -70.506073 -1.5375271 71.52623 -1.556878 71.273026 -27.582663 63.317379
32500000000 -17.395016 -72.83786 -1.4851481 69.533592 -1.4494042 69.469818 -27.163895 52.754765
32600000000 -18.068193 -80.745308 -1.3706815 67.465675 -1.3909849 67.39077 -28.195608 43.919521
32700000000 -19.134825 -80.268471 -1.3528613 65.241676 -1.3394819 65.199478 -26.866585 32.239475
32800000000 -19.447702 -87.196159 -1.3088223 63.072937 -1.3165388 63.12191 -27.769659 25.60294
32900000000 -21.094213 -86.707123 -1.2892923 60.619118 -1.3110964 60.851803 -27.394094 32.034927
33000000000 -20.577282 -93.342949 -1.2691449 58.662659 -1.2867736 58.616035 -28.286348 35.448189
33100000000 -22.256573 -96.249527 -1.2626305 56.587475 -1.295856 56.303387 -29.352055 38.944557
33200000000 -21.736435 -97.88456 -1.2219489 54.174194 -1.2381027 54.131363 -32.730026 21.982824
33300000000 -24.245924 -105.8895 -1.2185667 52.078548 -1.238407 52.14365 -32.515991 33.689796
33400000000 -23.745157 -102.7202 -1.2227374 49.882721 -1.2351569 49.775291 -33.895195 17.986361
33500000000 -25.66551 -119.70878 -1.2031705 47.874863 -1.2179197 47.703136 -32.658264 42.231415
33600000000 -27.402895 -112.94476 -1.2045681 45.563168 -1.2132884 45.626862 -34.944183 40.217457
33700000000 -27.207754 -131.76581 -1.2367947 43.370033 -1.1946293 43.370636 -33.567619 55.465862
33800000000 -30.630346 -122.61889 -1.2131163 41.21043 -1.2348548 41.377216 -36.385887 64.34877
33900000000 -29.205868 -136.02371 -1.2078061 38.937016 -1.1959444 39.027779 -35.594009 73.56041
34000000000 -34.880333 -146.61179 -1.1924752 37.051163 -1.217712 36.954746 -35.550034 73.107872
34100000000 -32.401245 -154.39125 -1.1998327 34.814327 -1.2324874 34.833431 -34.12418 87.68235
34200000000 -33.788658 159.24632 -1.1991895 32.902435 -1.2025737 32.754608 -31.229616 82.954582
34300000000 -34.946106 164.27254 -1.2204092 30.687292 -1.201088 30.628235 -31.066391 102.32761
34400000000 -33.04565 127.03333 -1.2222829 28.782772 -1.2538655 28.495588 -29.220661 106.265
34500000000 -33.772198 117.10481 -1.2341776 26.704327 -1.2206204 26.238728 -29.824791 107.30085
34600000000 -31.509783 117.20933 -1.192901 24.283512 -1.2373632 24.138996 -29.687469 100.84309
34700000000 -29.174246 97.781151 -1.1968411 22.358829 -1.2257633 22.134735 -27.809324 104.63747
34800000000 -27.899723 98.595306 -1.2451166 20.263649 -1.1992145 19.933723 -26.254892 99.904221
34900000000 -26.823914 94.932686 -1.2262206 18.030233 -1.225127 17.885405 -25.229836 99.023033
35000000000 -25.376204 88.371819 -1.2237762 15.964727 -1.2148209 15.893488 -23.614969 101.50401
35100000000 -24.886618 85.468513 -1.240141 13.845889 -1.2494626 13.65559 -24.062506 108.79228
35200000000 -23.383139 81.063217 -1.2214872 11.734657 -1.2597153 11.581062 -23.671719 106.10621
35300000000 -23.689291 77.926849 -1.2494688 9.5564013 -1.2333316 9.3644123 -23.867462 102.75623
35400000000 -21.537603 78.16671 -1.2004426 7.5063558 -1.2216779 7.2734694 -23.011887 98.158806
35500000000 -21.493782 71.858543 -1.2351248 5.4387479 -1.2323674 5.3520956 -22.328251 96.777153
35600000000 -20.599337 75.86927 -1.2457159 3.0646977 -1.241942 3.2747087 -21.739941 93.777344
35700000000 -20.379553 62.105553 -1.2665949 1.3225193 -1.2631377 0.82805687 -20.993288 94.261787
35800000000 -19.833328 65.324776 -1.2579212 -0.88693577 -1.2742666 -1.1192083 -20.858002 95.375824
35900000000 -19.008556 56.158916 -1.2789661 -3.1616719 -1.2805451 -3.1903381 -20.505373 92.139458
36000000000 -19.309019 63.618767 -1.2299303 -5.0999951 -1.279812 -5.389473 -20.321712 86.32003
36100000000 -17.75676 56.194202 -1.305969 -7.3940468 -1.2622389 -7.0173821 -19.547852 82.911057
36200000000 -18.858051 57.485039 -1.2336895 -9.1599798 -1.2743819 -9.4054995 -19.267763 80.640381
36300000000 -17.352003 54.887054 -1.3123842 -11.644162 -1.2766794 -11.522778 -18.694862 79.369507
36400000000 -17.988173 51.01796 -1.302299 -13.622016 -1.2937275 -13.762107 -19.234701 77.626434
36500000000 -16.702713 51.104206 -1.2954643 -15.938699 -1.3141012 -15.50286 -18.367653 77.910942
36600000000 -16.950756 41.91143 -1.2646807 -18.046618 -1.3204409 -18.090532 -18.315475 69.826576
36700000000 -16.037766 48.545856 -1.310683 -20.025511 -1.3294014 -19.973125 -17.702259 70.03022
36800000000 -16.081741 38.819748 -1.290118 -22.396681 -1.320743 -22.233391 -16.87113 67.702271
36900000000 -16.197866 45.246094 -1.3777611 -24.359198 -1.3389872 -24.803492 -17.243525 67.955917
37000000000 -15.468719 36.686253 -1.3844316 -26.251162 -1.3891835 -26.386684 -16.59276 67.851357
37100000000 -15.746056 37.093327 -1.4003725 -28.68557 -1.3903499 -28.822651 -17.489922 66.433067
37200000000 -14.791706 32.749786 -1.3039799 -30.548738 -1.3641849 -30.807985 -16.669426 58.69017
37300000000 -14.995544 33.108097 -1.3803746 -32.889065 -1.3372124 -33.00816 -16.679255 54.329124
37400000000 -14.268739 33.249958 -1.3934225 -34.674595 -1.4302615 -34.888962 -15.838533 52.050053
37500000000 -14.639553 29.632578 -1.4181043 -36.956135 -1.3763866 -37.176098 -15.690403 51.767818
37600000000 -14.374079 27.870758 -1.3551339 -38.992077 -1.4055902 -39.184647 -15.399832 51.490784
37700000000 -14.622803 24.803453 -1.3913194 -41.172569 -1.4287534 -41.264961 -15.747704 50.727936
37800000000 -14.013507 23.449039 -1.4298247 -43.40921 -1.4005562 -43.496784 -15.971486 47.597694
37900000000 -13.928448 21.725958 -1.4302443 -45.493507 -1.4149572 -45.664219 -16.232906 43.333961
38000000000 -13.893779 21.661154 -1.4652616 -48.120358 -1.4330475 -48.025074 -15.814259 38.083694
38100000000 -14.424583 19.881325 -1.4327209 -50.626911 -1.4397075 -50.583458 -15.453308 35.545177
38200000000 -14.015642 18.327446 -1.4572446 -52.913589 -1.461356 -52.91835 -15.300844 32.756607
38300000000 -14.29516 14.30849 -1.5350051 -55.251625 -1.4879887 -55.187412 -15.472641 35.284004
38400000000 -13.975532 14.940969 -1.4790595 -57.371815 -1.526461 -57.564713 -15.475858 32.900486
38500000000 -14.61882 13.008006 -1.5268617 -60.251297 -1.5771306 -60.033566 -16.995552 29.570539
38600000000 -14.527803 19.725456 -1.632888 -62.901138 -1.6273935 -62.91848 -17.121265 24.719248
38700000000 -14.952564 16.040844 -1.7088145 -65.638702 -1.735219 -65.906013 -17.732004 23.001564
38800000000 -14.670842 27.070986 -1.8859525 -68.610832 -1.8577729 -68.332756 -17.974932 21.831133
38900000000 -15.19406 21.645149 -2.0921164 -71.517044 -2.0939765 -71.08725 -20.169209 33.158459
39000000000 -14.049095 36.68523 -2.5007226 -73.729698 -2.4207566 -73.744186 -19.615002 49.320908
39100000000 -12.203409 32.517399 -2.9500732 -74.968224 -2.9248018 -75.179642 -19.816782 72.439087
39200000000 -10.999629 33.404224 -3.3408866 -73.564278 -3.3616996 -74.141937 -15.905422 70.0186
39300000000 -9.3404789 24.602558 -3.4031041 -72.640289 -3.3849089 -72.358261 -13.913096 62.697216
39400000000 -9.8073025 18.776991 -3.0761285 -71.105721 -3.1680603 -71.380089 -11.943299 52.106514
39500000000 -9.0731258 13.185991 -2.9263077 -72.258995 -2.8218248 -72.204857 -11.707294 46.815014
39600000000 -9.6740398 5.2065058 -2.6021037 -73.996758 -2.6716068 -73.767624 -11.235 41.531624
39700000000 -9.2468224 5.4696059 -2.5613768 -75.919907 -2.4857354 -75.862251 -11.953501 36.127747
39800000000 -9.3214073 -2.5755241 -2.4304101 -77.64756 -2.4729583 -77.770378 -11.574132 33.673756
39900000000 -9.4470053 0.0098521486 -2.3748965 -79.75647 -2.3602395 -79.649582 -11.729524 26.235323
40000000000 -9.1345968 -6.8107042 -2.3652899 -81.441765 -2.2276037 -81.505981 -11.150445 23.842829
40100000000 -9.6700935 -6.9534283 -2.1548281 -83.27832 -2.2180448 -83.261063 -10.650206 20.617636
40200000000 -9.159936 -12.150341 -2.0674334 -84.746567 -2.0986938 -85.021408 -10.371519 20.104525
40300000000 -9.7790041 -15.927952 -2.0160465 -86.86937 -2.0077136 -87.160469 -10.489082 16.581518
40400000000 -9.3993292 -15.995041 -1.9471191 -88.844131 -1.9302974 -89.282188 -10.942913 14.570454
40500000000 -9.9571123 -19.355949 -1.9022937 -91.037987 -1.877212 -91.34333 -10.902264 8.4514093
40600000000 -9.6399498 -18.064373 -1.8501401 -93.527809 -1.8573763 -93.674385 -10.906315 5.0163555
40700000000 -10.091165 -23.234678 -1.8211395 -95.741531 -1.7880914 -95.902588 -10.799432 1.3620598
40800000000 -10.058257 -25.007288 -1.7818494 -97.968513 -1.7632346 -97.98185 -10.538972 0.36358517
40900000000 -10.021669 -27.490713 -1.7342703 -99.841087 -1.7091452 -99.881493 -10.633696 -0.57965469
41000000000 -10.363217 -29.568039 -1.7236964 -102.08487 -1.6982487 -102.3113 -10.837501 -3.3230746
41100000000 -10.242796 -29.676765 -1.654562 -104.33413 -1.6686707 -104.16408 -11.232647 -5.8038778
41200000000 -10.372394 -32.715603 -1.6824495 -106.7811 -1.688365 -106.45253 -11.227839 -8.6634026
41300000000 -10.646667 -31.277779 -1.6326643 -108.21123 -1.5815892 -108.4855 -11.397282 -12.288806
41400000000 -10.696851 -35.016602 -1.6009166 -110.62501 -1.5895612 -110.59188 -11.2534 -14.296196
41500000000 -10.899725 -37.112175 -1.6194998 -112.62805 -1.6339852 -112.61114 -11.167117 -17.53768
41600000000 -10.768293 -38.169865 -1.5904541 -114.80455 -1.5436982 -115.2832 -11.46184 -16.571083
41700000000 -11.432949 -40.74305 -1.4896573 -116.86784 -1.5699143 -117.11192 -11.528852 -19.746107
41800000000 -10.755886 -40.095749 -1.5741695 -119.14548 -1.557646 -119.44601 -11.753208 -20.969791
41900000000 -11.422701 -43.528709 -1.5035282 -121.46194 -1.5570614 -121.51421 -12.00235 -25.653082
42000000000 -11.725849 -43.087669 -1.5264508 -122.93459 -1.5414767 -123.60072 -12.1035 -26.999973
42100000000 -11.574924 -47.825138 -1.5073153 -125.51869 -1.4933953 -125.61855 -11.901491 -30.976803
42200000000 -12.284973 -46.0714 -1.5114737 -127.28323 -1.508649 -127.52604 -11.987369 -29.702488
42300000000 -12.003302 -48.448235 -1.5004869 -129.64162 -1.5033219 -129.91045 -12.018458 -33.155407
42400000000 -12.74211 -48.856529 -1.5248523 -131.4603 -1.5241852 -131.26874 -12.654186 -34.104362
42500000000 -12.109511 -49.540573 -1.45829 -133.63843 -1.413582 -134.06949 -12.562716 -37.133984
42600000000 -13.043869 -53.896397 -1.3950098 -135.65298 -1.3901941 -135.27672 -13.359887 -38.941818
42700000000 -12.609053 -52.337307 -1.4183792 -138.37041 -1.4401644 -137.98665 -12.690021 -44.817799
42800000000 -13.571163 -57.770702 -1.3894441 -140.19835 -1.4134264 -140.45012 -13.463951 -46.035297
42900000000 -14.212534 -50.831978 -1.3754098 -142.34041 -1.5040245 -142.43669 -13.314116 -44.304054
43000000000 -14.306074 -60.647034 -1.2902803 -144.43336 -1.3823566 -144.77097 -13.882401 -47.753033
43100000000 -14.958074 -56.699032 -1.3277804 -147.28874 -1.3790312 -147.21539 -14.43682 -45.626701
43200000000 -14.477078 -58.489384 -1.3218178 -148.84323 -1.3882815 -148.67006 -15.511825 -52.08448
43300000000 -15.59806 -59.600811 -1.3151006 -150.67715 -1.3388776 -151.03773 -15.24638 -50.803337
43400000000 -14.596826 -58.35321 -1.3127874 -153.27393 -1.308727 -153.09247 -15.27475 -56.899353
43500000000 -16.521955 -61.970478 -1.3042583 -155.41817 -1.4285034 -155.56308 -15.872297 -59.974636
43600000000 -15.926367 -51.821266 -1.3351579 -157.38167 -1.3583149 -157.84991 -15.656174 -59.390217
43700000000 -17.130468 -62.652786 -1.3815724 -159.2802 -1.3663377 -159.82176 -16.27066 -55.467255
43800000000 -16.780193 -56.741177 -1.3154194 -161.80663 -1.3816571 -161.01291 -17.123327 -53.988724
43900000000 -16.940809 -63.186962 -1.3830734 -164.53526 -1.3407482 -163.8591 -17.895138 -61.246281
44000000000 -18.792496 -59.266514 -1.2263249 -166.257 -1.3167996 -166.05864 -18.200142 -65.029648
44100000000 -17.534407 -58.232246 -1.3013254 -168.18394 -1.3598896 -168.60774 -18.088079 -66.780785
44200000000 -20.424307 -54.972515 -1.2964764 -170.90057 -1.364007 -171.00037 -18.175068 -69.907242
44300000000 -18.805433 -53.31881 -1.3307587 -172.47849 -1.3186831 -173.02391 -19.971441 -58.924587
44400000000 -21.132565 -58.678093 -1.3365325 -174.83745 -1.3830197 -174.72154 -20.500458 -64.25209
44500000000 -20.092783 -49.849918 -1.2271923 -177.13667 -1.2740489 -177.56639 -22.108498 -66.557808
44600000000 -20.287493 -47.877575 -1.3176522 -179.27696 -1.28254 -179.32362 -23.201643 -70.021416
44700000000 -21.244263 -33.830566 -1.3296865 178.66629 -1.2783122 179.15224 -25.476479 -73.914055
44800000000 -20.463583 -43.785789 -1.3248546 176.01646 -1.317403 175.84814 -24.457655 -58.41721
44900000000 -21.089298 -27.841507 -1.3409336 173.9003 -1.3379366 174.33293 -25.476177 -60.309395
45000000000 -21.413105 -34.573154 -1.3176378 171.55754 -1.3217217 171.73444 -29.055843 -42.26646
