!Keysight Technologies,N5247B,MY61255062,A.19.80.06
!Date: Monday, May 18, 2026 12:24:55
!Correction: S11(Cdelta 2-Port  ) 
!S21(Cdelta 2-Port  ) 
!S12(Cdelta 2-Port  ) 
!S22(Cdelta 2-Port  ) 
!S2P File: Measurements: S11, S21, S12, S22:
# Hz S  dB   R 50
1000000000 -26.495338 -16.638956 -0.41609049 -20.908022 -0.41393897 -20.900761 -27.091993 -17.532064
1100000000 -26.436539 -19.679905 -0.42722845 -22.940672 -0.4263517 -22.948326 -27.21455 -20.128542
1200000000 -26.334778 -21.637558 -0.43631837 -24.936728 -0.43466607 -24.944267 -27.221601 -21.194965
1300000000 -26.24547 -24.028746 -0.44341809 -26.992546 -0.44200036 -26.99798 -27.123432 -23.992174
1400000000 -26.115862 -25.792141 -0.44845691 -28.963364 -0.44689095 -28.964069 -27.107286 -24.719303
1500000000 -25.98628 -28.32164 -0.45035365 -30.978842 -0.44846237 -30.996428 -26.9561 -27.037655
1600000000 -25.932224 -30.520401 -0.45460951 -33.018856 -0.45367202 -33.023746 -26.891994 -29.755768
1700000000 -25.775925 -32.939953 -0.45676804 -35.035133 -0.45615786 -35.041603 -26.846031 -31.724405
1800000000 -25.662716 -35.697208 -0.46066201 -37.062698 -0.45951229 -37.072666 -26.796734 -34.083397
1900000000 -25.531637 -38.126865 -0.46331513 -39.104439 -0.46175504 -39.103737 -26.753775 -36.818844
2000000000 -25.474579 -40.574703 -0.46827909 -41.141338 -0.46841404 -41.164547 -26.770201 -39.81815
2100000000 -25.340061 -42.985275 -0.47275719 -43.168373 -0.47171912 -43.171268 -26.731882 -41.743786
2200000000 -25.327784 -45.355915 -0.47607595 -45.200115 -0.47553614 -45.209976 -26.725183 -44.290745
2300000000 -25.263027 -47.982182 -0.4805907 -47.240704 -0.47984707 -47.255581 -26.736919 -46.713795
2400000000 -25.21365 -50.460697 -0.48597196 -49.252068 -0.48708469 -49.264221 -26.798637 -49.313095
2500000000 -25.1742 -52.823723 -0.49195239 -51.288067 -0.49298951 -51.311199 -26.818695 -52.085636
2600000000 -25.142866 -55.198231 -0.49746385 -53.319656 -0.49861726 -53.330078 -26.884453 -54.461884
2700000000 -25.109413 -57.271942 -0.50306368 -55.342644 -0.50419533 -55.355587 -26.942261 -57.200588
2800000000 -25.142174 -59.807411 -0.5084967 -57.365662 -0.50909215 -57.351959 -27.014214 -59.504753
2900000000 -25.173733 -61.89529 -0.51445526 -59.374649 -0.51547092 -59.381973 -27.125008 -61.568943
3000000000 -25.125137 -64.467934 -0.52054393 -61.389668 -0.51839113 -61.399754 -27.26281 -63.631477
3100000000 -25.146177 -66.675362 -0.52256262 -63.405815 -0.52158034 -63.404243 -27.42518 -65.877525
3200000000 -25.062544 -68.804047 -0.52672505 -65.411026 -0.52574939 -65.412331 -27.49964 -67.909248
3300000000 -25.032167 -70.812592 -0.53057379 -67.415916 -0.52846569 -67.424393 -27.622828 -70.12207
3400000000 -25.058054 -73.151962 -0.53421599 -69.420731 -0.53432024 -69.443596 -27.727875 -72.203346
3500000000 -25.085854 -75.263504 -0.5366866 -71.439362 -0.53755397 -71.437752 -27.773235 -73.970596
3600000000 -25.043009 -76.787506 -0.5354296 -73.449875 -0.53948653 -73.4608 -27.928804 -75.31974
3700000000 -25.09127 -79.215256 -0.54079157 -75.457947 -0.54221582 -75.463402 -27.969263 -77.449036
3800000000 -25.094255 -80.700752 -0.54403573 -77.481201 -0.54387057 -77.488983 -28.119799 -79.434586
3900000000 -25.100212 -83.090263 -0.54614437 -79.504402 -0.54701924 -79.513626 -28.205919 -81.261711
4000000000 -25.111578 -84.608406 -0.54910874 -81.522392 -0.54996455 -81.541977 -28.351997 -82.972778
4100000000 -25.151791 -86.699211 -0.55299592 -83.541176 -0.55417889 -83.545921 -28.517237 -85.078476
4200000000 -25.187294 -88.044106 -0.55653489 -85.547836 -0.55808794 -85.556648 -28.743605 -86.106537
4300000000 -25.184641 -90.438354 -0.55793428 -87.558121 -0.55929732 -87.566132 -28.866697 -87.934067
4400000000 -25.282143 -91.845428 -0.55922073 -89.579544 -0.56150293 -89.579788 -29.080452 -88.842781
4500000000 -25.277077 -93.66246 -0.56532985 -91.598328 -0.56400615 -91.589226 -29.146851 -90.669319
4600000000 -25.386446 -95.26754 -0.5661363 -93.611977 -0.56618202 -93.615524 -29.47283 -92.59597
4700000000 -25.359638 -97.178215 -0.56915742 -95.6231 -0.56831026 -95.633904 -29.553772 -93.594452
4800000000 -25.488329 -98.81356 -0.56996226 -97.629265 -0.57127386 -97.64637 -29.87064 -94.941566
4900000000 -25.555851 -99.762428 -0.57425016 -99.663643 -0.57641459 -99.674438 -29.921612 -95.757584
5000000000 -25.655907 -101.94171 -0.57761812 -101.67526 -0.57875049 -101.68951 -30.29476 -97.067139
5100000000 -25.704836 -102.79778 -0.58027983 -103.69683 -0.58097279 -103.71088 -30.458809 -97.159607
5200000000 -25.800028 -104.73335 -0.58348107 -105.709 -0.58411115 -105.70808 -30.868296 -98.424294
5300000000 -25.89397 -105.73169 -0.58498603 -107.72147 -0.58589864 -107.73021 -31.053144 -99.692909
5400000000 -25.967272 -107.50134 -0.58956659 -109.73485 -0.5906077 -109.7446 -31.348812 -101.13815
5500000000 -26.108488 -108.64535 -0.59249783 -111.74403 -0.59283012 -111.75164 -31.467949 -101.1504
5600000000 -26.199921 -110.24277 -0.59477824 -113.75664 -0.59547383 -113.76828 -31.651918 -101.88802
5700000000 -26.294096 -111.60767 -0.59802645 -115.76163 -0.59684396 -115.77485 -31.849997 -100.35124
5800000000 -26.361313 -113.12206 -0.60002565 -117.76469 -0.60205668 -117.77675 -32.288483 -101.04443
5900000000 -26.518843 -114.26786 -0.60434091 -119.76212 -0.60202217 -119.77443 -32.599758 -100.03049
6000000000 -26.592533 -115.26714 -0.60610074 -121.77663 -0.60434449 -121.79114 -33.052719 -101.51863
6100000000 -26.759521 -116.35491 -0.60701162 -123.76884 -0.60716343 -123.7871 -33.234997 -102.18384
6200000000 -26.967489 -117.35758 -0.60544068 -125.77579 -0.60886449 -125.79469 -33.573444 -102.49686
6300000000 -27.260778 -117.93846 -0.60822725 -127.77796 -0.60657698 -127.79752 -33.817371 -99.618095
6400000000 -27.46497 -119.06973 -0.6076749 -129.80585 -0.60702467 -129.80988 -34.132191 -96.989647
6500000000 -27.77408 -119.47956 -0.60765135 -131.81729 -0.60689133 -131.83 -34.442081 -92.659622
6600000000 -27.85379 -119.58301 -0.60455215 -133.82709 -0.60742837 -133.84558 -34.719486 -89.854057
6700000000 -28.034695 -120.34963 -0.60578173 -135.84732 -0.60579091 -135.87547 -34.806995 -87.412132
6800000000 -28.143373 -119.8828 -0.60635734 -137.89072 -0.6076737 -137.91711 -34.865215 -85.935455
6900000000 -28.352163 -119.95631 -0.60752422 -139.92731 -0.60786486 -139.94765 -34.438232 -81.533173
7000000000 -28.359877 -118.78247 -0.61098105 -141.97108 -0.61139047 -141.99406 -34.012959 -79.590935
7100000000 -28.313591 -119.5373 -0.61850518 -144.00703 -0.62102383 -144.03354 -33.807808 -78.487442
7200000000 -28.487301 -121.63585 -0.6269747 -145.95699 -0.62448156 -145.95236 -34.31945 -81.681808
7300000000 -28.855263 -121.84592 -0.61965746 -147.95389 -0.62037998 -147.97449 -34.368584 -76.639778
7400000000 -29.242224 -120.16195 -0.61940545 -150.00351 -0.62053949 -150.02405 -33.805687 -76.206169
7500000000 -29.226233 -119.99258 -0.62193483 -152.01126 -0.62409896 -152.03145 -33.253578 -72.038597
7600000000 -29.472231 -117.95766 -0.62294489 -154.0546 -0.62383956 -154.0679 -32.686359 -71.934044
7700000000 -29.355808 -117.96704 -0.62580222 -156.07164 -0.62631923 -156.10612 -32.406845 -68.337708
7800000000 -29.59396 -117.22155 -0.62577236 -158.09494 -0.62971258 -158.12691 -32.492977 -69.129051
7900000000 -29.405787 -116.82062 -0.63202131 -160.13268 -0.63133454 -160.15094 -32.432449 -68.545288
8000000000 -29.656891 -116.40955 -0.63433367 -162.16394 -0.63486814 -162.17415 -31.942467 -72.713692
8100000000 -29.556486 -114.81661 -0.63806313 -164.18991 -0.64167273 -164.21614 -31.197311 -71.535736
8200000000 -29.652121 -114.84367 -0.64296597 -166.22591 -0.64270186 -166.24449 -30.184956 -70.269844
8300000000 -29.84148 -113.95785 -0.64905041 -168.27437 -0.6502192 -168.26405 -30.289265 -63.400337
8400000000 -30.122147 -114.47201 -0.66024572 -170.3255 -0.66136003 -170.33093 -30.942495 -56.653332
8500000000 -30.045931 -110.52732 -0.69271624 -172.38525 -0.69331837 -172.40408 -35.039963 -49.886669
8600000000 -28.881294 -116.41241 -0.77660304 -174.1062 -0.77473104 -174.11952 -46.744678 62.804649
8700000000 -32.715816 -133.99329 -0.68069965 -174.62572 -0.68577123 -174.69049 -28.079838 65.678284
8800000000 -30.466412 -98.220673 -0.51828641 -177.9183 -0.52180916 -177.953 -30.927996 9.0234842
8900000000 -29.488195 -109.3898 -0.59684485 179.59744 -0.59889489 179.57993 -34.462006 -44.234947
9000000000 -29.784189 -112.80484 -0.63448977 177.58116 -0.6372183 177.57051 -32.128101 -82.098892
9100000000 -29.944319 -110.39646 -0.6522035 175.60103 -0.654486 175.5791 -29.618837 -86.644875
9200000000 -29.527269 -109.22184 -0.65759575 173.61429 -0.66045034 173.59358 -28.186928 -84.523628
9300000000 -29.451012 -107.88976 -0.66418058 171.63531 -0.66572857 171.60185 -27.845764 -79.918533
9400000000 -29.256048 -108.35879 -0.66546124 169.62225 -0.67061651 169.5995 -27.865343 -78.168602
9500000000 -29.357597 -108.00665 -0.67062014 167.62953 -0.67216498 167.60684 -28.279716 -77.373787
9600000000 -29.173021 -107.47467 -0.67508966 165.62384 -0.67682725 165.60806 -28.220592 -80.645248
9700000000 -29.240145 -106.91789 -0.68051738 163.63576 -0.67783809 163.57872 -28.135429 -82.94458
9800000000 -28.971369 -106.9431 -0.68183285 161.60406 -0.68228501 161.58299 -27.757591 -84.951302
9900000000 -29.008486 -107.6304 -0.68343347 159.60323 -0.68626052 159.57802 -27.595467 -85.119865
10000000000 -28.717133 -107.02547 -0.68642515 157.57991 -0.6870504 157.57285 -27.338661 -85.585014
10100000000 -28.881407 -107.29808 -0.68830198 155.57808 -0.68717772 155.56361 -27.574348 -85.8228
10200000000 -28.647985 -105.82368 -0.69008583 153.57132 -0.69150311 153.54724 -27.533115 -88.69632
10300000000 -28.605991 -106.95831 -0.69400501 151.53581 -0.6968475 151.5181 -27.537256 -90.740967
10400000000 -28.319046 -106.3372 -0.69785112 149.53346 -0.69698119 149.52069 -27.102083 -92.608101
10500000000 -28.238115 -108.62916 -0.69756538 147.51067 -0.70342946 147.49863 -27.052721 -92.740181
10600000000 -28.15173 -107.15837 -0.70357406 145.51068 -0.70442945 145.4933 -26.79022 -93.053291
10700000000 -27.932793 -108.5493 -0.70509744 143.49858 -0.70616025 143.48071 -26.917753 -93.494713
10800000000 -27.954988 -106.95266 -0.70606124 141.48729 -0.71102262 141.5076 -26.923464 -94.211914
10900000000 -27.688913 -107.65696 -0.71305865 139.50142 -0.71237844 139.48233 -27.126204 -96.499336
11000000000 -27.789143 -107.48214 -0.71464735 137.49377 -0.71631628 137.43698 -26.992922 -97.962723
11100000000 -27.509546 -109.1114 -0.71793729 135.49132 -0.72145194 135.46825 -26.968346 -100.97914
11200000000 -27.617126 -109.85602 -0.72140366 133.47949 -0.72329843 133.44872 -26.663649 -101.08791
11300000000 -27.361959 -109.8617 -0.72617972 131.47415 -0.72803861 131.4496 -26.75901 -103.27689
11400000000 -27.343515 -111.00131 -0.72888106 129.47545 -0.73003912 129.45372 -26.440353 -102.60578
11500000000 -27.077427 -110.95129 -0.73154551 127.48503 -0.73174894 127.43917 -26.533119 -104.18207
11600000000 -27.020164 -113.22765 -0.73675841 125.47499 -0.73643702 125.44505 -26.518879 -104.78268
11700000000 -26.889334 -112.11471 -0.73875749 123.5034 -0.73845524 123.45556 -26.742659 -107.78964
11800000000 -26.864012 -114.64318 -0.74160731 121.4875 -0.74347401 121.45765 -26.60651 -108.33047
11900000000 -26.770355 -114.14863 -0.7444098 119.48792 -0.7439118 119.48356 -26.655182 -111.50944
12000000000 -26.840057 -116.94553 -0.74598449 117.5163 -0.74894887 117.47636 -26.470604 -110.79491
12100000000 -26.786669 -117.23326 -0.74756962 115.53048 -0.74808252 115.51496 -26.514002 -113.85067
12200000000 -26.60742 -120.03822 -0.74618673 113.55776 -0.75041169 113.52428 -26.446547 -114.11397
12300000000 -26.682484 -120.74352 -0.74509567 111.53966 -0.74746996 111.49326 -26.55846 -116.15663
12400000000 -26.612495 -122.364 -0.74340457 109.56431 -0.74811786 109.52052 -26.692366 -117.2657
12500000000 -26.859423 -122.93494 -0.74426389 107.54988 -0.74684644 107.54031 -26.739679 -120.55011
12600000000 -26.848097 -125.11182 -0.7412588 105.56252 -0.74207807 105.53405 -26.783802 -120.48073
12700000000 -27.118103 -125.93233 -0.73828214 103.56406 -0.74130332 103.53925 -26.894716 -123.05808
12800000000 -26.957388 -127.88828 -0.73752528 101.56774 -0.73887563 101.52309 -27.082022 -123.31722
12900000000 -27.129229 -129.11075 -0.732131 99.532219 -0.736637 99.499657 -27.223196 -126.02074
13000000000 -27.080605 -129.53845 -0.73158073 97.526367 -0.7346251 97.491951 -27.538795 -126.32628
13100000000 -27.605568 -130.84395 -0.73289579 95.49099 -0.73327333 95.459335 -27.589157 -129.11444
13200000000 -27.576107 -131.37592 -0.73087651 93.491577 -0.73365676 93.458603 -27.890514 -128.58382
13300000000 -27.993795 -133.34648 -0.73143584 91.444023 -0.73242909 91.417564 -27.841358 -129.3734
13400000000 -28.00956 -132.2202 -0.72909415 89.427734 -0.72938997 89.397125 -28.328985 -128.50888
13500000000 -28.177013 -135.22633 -0.72748947 87.412209 -0.73158044 87.371536 -28.656677 -130.04485
13600000000 -28.260258 -132.79105 -0.72903723 85.386673 -0.73077971 85.350815 -29.331442 -129.99396
13700000000 -28.472204 -134.76712 -0.72870535 83.33448 -0.73319584 83.322098 -29.337524 -133.21904
13800000000 -29.044973 -132.53996 -0.72945577 81.296875 -0.73474038 81.260628 -29.659182 -133.30365
13900000000 -29.094736 -135.67824 -0.73530543 79.252739 -0.73921502 79.210991 -29.409529 -132.66994
14000000000 -29.68634 -133.99948 -0.74140036 77.197838 -0.74136198 77.156075 -29.798954 -129.2807
14100000000 -29.005421 -134.66829 -0.7563864 75.15345 -0.7619791 75.11544 -29.564104 -127.42953
14200000000 -28.909931 -134.55383 -0.77761912 73.250671 -0.78100979 73.212173 -29.675499 -127.84983
14300000000 -28.633898 -139.00705 -0.76777482 71.395607 -0.77142066 71.368248 -29.698318 -135.12
14400000000 -29.802704 -141.72961 -0.75234991 69.421211 -0.75589347 69.349091 -30.791801 -138.34224
14500000000 -30.231956 -139.92348 -0.74696577 67.328865 -0.74890429 67.286133 -30.784996 -137.81888
14600000000 -31.293695 -141.77864 -0.74636137 65.264801 -0.74776208 65.22477 -31.197235 -135.56104
14700000000 -31.065235 -141.08818 -0.7550106 63.290855 -0.75739616 63.25919 -30.842035 -133.81754
14800000000 -31.671143 -145.1264 -0.74808651 61.26268 -0.74963391 61.227085 -32.063194 -134.10306
14900000000 -31.737436 -140.73492 -0.74739712 59.22044 -0.75279534 59.18512 -32.283566 -132.66516
15000000000 -31.992725 -141.40454 -0.74903899 57.18166 -0.75308043 57.159851 -32.831547 -131.77992
15100000000 -32.882019 -135.00726 -0.75434506 55.163914 -0.75544459 55.110722 -32.373734 -130.0844
15200000000 -33.333572 -137.55576 -0.75237578 53.152599 -0.7549367 53.11861 -32.515366 -126.60822
15300000000 -33.976295 -132.29997 -0.76144755 51.109737 -0.76259488 51.074253 -32.148197 -122.84553
15400000000 -33.848198 -138.62262 -0.75935173 49.159283 -0.76503158 49.113728 -32.792801 -122.14081
15500000000 -34.224548 -132.44722 -0.7604754 47.123688 -0.76366693 47.104527 -32.958298 -119.37111
15600000000 -33.879414 -131.7093 -0.76362741 45.098087 -0.76382524 45.049751 -33.479992 -119.95972
15700000000 -34.629955 -123.97524 -0.76444507 43.064034 -0.76771611 43.023617 -32.996078 -119.79948
15800000000 -34.993725 -124.15781 -0.76761514 41.032879 -0.77008212 40.998917 -32.849129 -117.90903
15900000000 -36.154663 -115.45341 -0.76928663 39.010399 -0.77319413 38.977032 -32.327129 -115.28141
16000000000 -35.665173 -119.53407 -0.77128893 37.014061 -0.77459949 36.982243 -32.54776 -112.61176
16100000000 -36.725056 -116.28255 -0.77545482 34.997818 -0.77849913 34.954166 -32.556396 -109.81469
16200000000 -35.465088 -114.99174 -0.77644211 32.993576 -0.7814678 32.943851 -33.125057 -108.93138
16300000000 -36.662289 -106.68176 -0.77935266 30.973497 -0.78372598 30.939852 -32.730083 -109.46304
16400000000 -35.783703 -100.98239 -0.78267318 28.958357 -0.78837401 28.946136 -33.00119 -110.68153
16500000000 -37.781017 -95.871262 -0.78492111 26.95686 -0.78870642 26.922039 -32.110821 -109.38736
16600000000 -36.324585 -92.436424 -0.78708017 24.960577 -0.79034352 24.917204 -32.363777 -106.86389
16700000000 -37.487202 -96.707779 -0.79172313 22.934164 -0.79722685 22.899803 -31.623169 -104.39075
16800000000 -35.260601 -87.834351 -0.79234624 20.924896 -0.79687226 20.902288 -32.428165 -103.27946
16900000000 -35.927338 -89.021942 -0.79388279 18.943529 -0.79862726 18.877644 -31.905996 -102.32992
17000000000 -34.657341 -73.060493 -0.79626125 16.904898 -0.80176508 16.894283 -32.120617 -106.5886
17100000000 -35.145718 -78.009171 -0.79796433 14.922802 -0.80585247 14.884699 -31.419722 -105.32267
17200000000 -34.638065 -65.8433 -0.8001464 12.936069 -0.80197591 12.885711 -31.522024 -108.03448
17300000000 -34.285942 -78.763512 -0.80553246 10.95075 -0.80599427 10.905444 -30.731737 -103.17566
17400000000 -34.01392 -72.952507 -0.80478185 8.9243422 -0.81019545 8.8942318 -30.997236 -104.52927
17500000000 -32.494205 -79.192116 -0.80961871 6.9211535 -0.80948675 6.876061 -30.774693 -100.76906
17600000000 -32.807491 -68.830856 -0.80661076 4.9083209 -0.81079566 4.8814464 -31.279636 -106.18927
17700000000 -31.785156 -72.09684 -0.80890697 2.8978779 -0.81462175 2.8853951 -30.974283 -104.46131
17800000000 -32.359695 -66.759995 -0.81260687 0.89419383 -0.81411374 0.87211609 -30.68322 -110.43827
17900000000 -31.168245 -70.569641 -0.81460178 -1.0482223 -0.81775743 -1.1098564 -29.953405 -108.72153
18000000000 -31.708441 -73.285843 -0.81230098 -3.1081152 -0.81811059 -3.1409967 -29.804777 -108.67421
18100000000 -30.420797 -74.58918 -0.80974126 -5.0867853 -0.8177315 -5.1222734 -29.735231 -104.35947
18200000000 -30.89851 -73.588593 -0.81924331 -7.0584083 -0.81778556 -7.1333957 -29.917858 -106.1302
18300000000 -30.170258 -71.823814 -0.81616306 -9.1042919 -0.81709129 -9.1340637 -30.440279 -104.91844
18400000000 -30.254642 -72.243896 -0.81338912 -11.094597 -0.82087851 -11.131913 -30.480602 -111.10516
18500000000 -29.770115 -70.800011 -0.81870657 -13.088939 -0.81891477 -13.122714 -30.243013 -112.68084
18600000000 -29.812696 -71.635773 -0.81158793 -15.122531 -0.82216209 -15.151144 -29.53904 -116.19634
18700000000 -29.140362 -71.68782 -0.81468576 -17.104998 -0.82095009 -17.13587 -29.258612 -111.7347
18800000000 -29.202005 -74.120575 -0.82047886 -19.113436 -0.81777179 -19.142805 -29.28063 -110.21871
18900000000 -28.630634 -73.033875 -0.81476665 -21.136038 -0.8179965 -21.149736 -29.593287 -106.7399
19000000000 -28.771154 -74.699799 -0.81263059 -23.127344 -0.81473422 -23.154722 -30.347904 -109.02581
19100000000 -28.496025 -71.957214 -0.8133164 -25.132376 -0.81584728 -25.183182 -30.278002 -111.44627
19200000000 -28.562475 -75.298775 -0.8174715 -27.148897 -0.81879568 -27.197937 -30.270161 -119.3145
19300000000 -28.242432 -73.983177 -0.81291682 -29.171198 -0.81916231 -29.204277 -29.6677 -117.70724
19400000000 -28.035679 -78.935654 -0.81241494 -31.184668 -0.81815088 -31.201241 -29.610434 -120.31359
19500000000 -27.947994 -76.243065 -0.81192929 -33.178474 -0.81428951 -33.242714 -29.487934 -115.05035
19600000000 -27.589338 -79.707436 -0.80970913 -35.216877 -0.81344497 -35.228523 -29.767864 -119.15443
19700000000 -28.122139 -75.972633 -0.80388898 -37.208099 -0.81041664 -37.220432 -30.327143 -115.73956
19800000000 -27.517294 -79.105423 -0.81076479 -39.245983 -0.81448966 -39.262108 -30.273308 -123.85511
19900000000 -28.365036 -80.16011 -0.80866998 -41.234127 -0.81114233 -41.277958 -30.388323 -120.61564
20000000000 -27.426733 -82.823196 -0.81090146 -43.245792 -0.81471449 -43.314953 -29.890913 -125.81054
20100000000 -28.135345 -84.618507 -0.80968982 -45.302013 -0.81070864 -45.334145 -30.825514 -121.37657
20200000000 -27.127682 -80.825638 -0.81417996 -47.3302 -0.81746966 -47.35479 -30.437605 -124.29748
20300000000 -27.724442 -83.718605 -0.81244272 -49.354839 -0.81174266 -49.414909 -31.700613 -124.29079
20400000000 -27.266171 -79.706192 -0.81132269 -51.395889 -0.81237 -51.426861 -31.039598 -129.49745
20500000000 -27.459171 -86.619392 -0.81256533 -53.395767 -0.81799996 -53.446949 -31.708948 -129.45827
20600000000 -27.389803 -82.360619 -0.81557208 -55.471504 -0.81912607 -55.513218 -30.62112 -127.42992
20700000000 -27.057848 -88.723465 -0.81703657 -57.480167 -0.81883442 -57.541359 -31.65176 -122.76295
20800000000 -27.247066 -83.53273 -0.82698828 -59.521137 -0.82745087 -59.550705 -31.488359 -118.33395
20900000000 -26.497549 -86.398972 -0.83476031 -61.528053 -0.83619046 -61.595875 -33.14896 -113.3028
21000000000 -26.678457 -84.617805 -0.84897208 -63.548538 -0.84786588 -63.576595 -32.429806 -115.4517
21100000000 -25.928915 -86.433525 -0.85626364 -65.46376 -0.86107177 -65.511108 -32.785191 -117.322
21200000000 -26.419497 -91.217789 -0.85340756 -67.334122 -0.85466957 -67.421989 -31.214743 -125.03938
21300000000 -26.214062 -93.308273 -0.8396976 -69.340775 -0.84006757 -69.383743 -31.264715 -128.02087
21400000000 -26.765118 -96.589539 -0.82449156 -71.399323 -0.83387667 -71.45195 -31.199944 -124.97762
21500000000 -26.395769 -95.408234 -0.83083683 -73.423363 -0.83597237 -73.472168 -31.801472 -121.2478
21600000000 -26.617105 -97.227394 -0.83213681 -75.444954 -0.83206379 -75.473587 -32.228649 -117.8756
21700000000 -26.695978 -96.894379 -0.82089603 -77.442673 -0.82460707 -77.47435 -33.669983 -120.66125
21800000000 -26.989735 -96.926155 -0.81964624 -79.456078 -0.82374394 -79.496056 -33.785988 -123.79494
21900000000 -26.965302 -97.966415 -0.82213515 -81.491753 -0.82411134 -81.57486 -35.137184 -127.13364
22000000000 -27.389418 -99.657616 -0.82595092 -83.552208 -0.82806975 -83.619743 -33.700554 -129.71933
22100000000 -27.233921 -100.22366 -0.82747811 -85.592804 -0.82761025 -85.651283 -33.928253 -124.43303
22200000000 -27.569124 -101.46567 -0.83062398 -87.688057 -0.83387411 -87.732262 -33.099297 -121.249
22300000000 -27.169554 -99.781075 -0.82949114 -89.700981 -0.83453977 -89.75367 -34.242031 -112.14275
22400000000 -27.826056 -102.75439 -0.83881766 -91.69265 -0.84019572 -91.727867 -33.608227 -109.72169
22500000000 -27.367245 -100.23881 -0.84679145 -93.693764 -0.85027754 -93.746468 -35.316185 -109.14216
22600000000 -27.851915 -109.38872 -0.84989625 -95.613609 -0.85498637 -95.692627 -34.113091 -117.07705
22700000000 -28.161564 -105.68328 -0.84325153 -97.58902 -0.84978139 -97.658188 -35.243835 -121.53538
22800000000 -27.98835 -112.82161 -0.84301203 -99.62146 -0.84164846 -99.699783 -33.349827 -115.10689
22900000000 -28.810928 -106.5015 -0.83572322 -101.65776 -0.84513134 -101.69257 -34.356426 -114.25249
23000000000 -28.180048 -109.35433 -0.83921081 -103.688 -0.83920449 -103.80434 -33.290058 -109.28549
23100000000 -29.359879 -106.11977 -0.83392936 -105.74802 -0.83707803 -105.79338 -35.078899 -107.87508
23200000000 -28.465181 -108.57614 -0.84297276 -107.75362 -0.84176153 -107.8103 -33.926159 -106.73681
23300000000 -30.012787 -112.20863 -0.84491187 -109.78873 -0.84527981 -109.86837 -35.076969 -118.11676
23400000000 -28.972588 -110.1119 -0.84828126 -111.80426 -0.85106379 -111.85799 -32.75145 -110.63114
23500000000 -29.904482 -117.57311 -0.85606754 -113.86442 -0.85261869 -113.911 -32.735321 -115.53171
23600000000 -29.121649 -109.97247 -0.85013711 -115.91647 -0.85438311 -115.93088 -31.491663 -102.1249
23700000000 -29.656485 -119.11373 -0.85484797 -117.9034 -0.8552382 -117.93269 -33.157902 -103.64006
23800000000 -30.089628 -111.05872 -0.85556251 -119.93298 -0.86373073 -119.97625 -33.47963 -98.555939
23900000000 -29.600069 -121.73309 -0.85523438 -121.94025 -0.85925317 -121.97849 -35.040348 -114.76972
24000000000 -31.034843 -117.53127 -0.86274773 -123.94279 -0.86775106 -123.98476 -33.200462 -119.68993
24100000000 -29.924866 -124.05743 -0.8598271 -125.95853 -0.86392438 -126.05125 -31.902098 -128.31747
24200000000 -31.553415 -123.68466 -0.86584789 -127.97761 -0.86485714 -128.02676 -31.192179 -116.73792
24300000000 -30.206928 -122.2551 -0.86497808 -130.02278 -0.86999321 -130.06325 -30.447958 -115.01286
24400000000 -32.114639 -127.74353 -0.86498094 -132.03328 -0.87234533 -132.05867 -31.661648 -105.03806
24500000000 -31.679802 -123.45922 -0.86980695 -133.98654 -0.87160021 -134.07376 -33.241737 -113.24326
24600000000 -32.932995 -135.24417 -0.87519872 -136.06459 -0.88071865 -136.0802 -34.982025 -117.36142
24700000000 -33.323917 -130.55957 -0.88089174 -138.01529 -0.87748051 -138.10577 -33.39975 -136.84436
24800000000 -33.47155 -145.19974 -0.8774184 -140.07936 -0.88425273 -140.10237 -32.406548 -136.21497
24900000000 -34.585175 -139.24014 -0.87714499 -142.1216 -0.87954378 -142.14819 -31.23105 -137.99849
25000000000 -34.591442 -143.72627 -0.87619662 -144.1179 -0.88055187 -144.19057 -31.550932 -128.66298
25100000000 -36.250549 -139.39359 -0.8775866 -146.04875 -0.88410264 -146.15862 -32.648602 -128.86153
25200000000 -37.346367 -149.24023 -0.88656402 -148.12787 -0.88830006 -148.14914 -34.043446 -128.57991
25300000000 -39.579929 -154.908 -0.88402712 -150.11118 -0.88646114 -150.1322 -34.728779 -145.12486
25400000000 -39.741154 -177.88393 -0.88803738 -152.0912 -0.88706756 -152.16113 -34.348385 -146.76498
25500000000 -40.949242 -176.78333 -0.88758391 -154.17856 -0.89198589 -154.21118 -33.624432 -155.57706
25600000000 -40.56657 169.83675 -0.89809823 -156.17938 -0.89047527 -156.21046 -33.52586 -153.3522
25700000000 -44.753975 170.23177 -0.89207679 -158.18106 -0.89182538 -158.23875 -33.953854 -154.77353
25800000000 -42.348732 152.25018 -0.88841122 -160.16826 -0.89982235 -160.25868 -35.095356 -159.75966
25900000000 -48.286572 85.025528 -0.89335936 -162.21274 -0.90506405 -162.27187 -35.41782 -161.89705
26000000000 -42.22332 106.11126 -0.89862639 -164.16808 -0.89889449 -164.26659 -36.843826 -171.89374
26100000000 -38.209648 60.804695 -0.89647222 -166.24287 -0.90225506 -166.30278 -34.91864 179.3613
26200000000 -40.70293 80.754776 -0.89667684 -168.25307 -0.90284455 -168.32123 -36.54266 171.94754
26300000000 -35.626476 62.82869 -0.9041695 -170.2639 -0.91503572 -170.33052 -34.525131 172.75716
26400000000 -39.611172 61.27739 -0.90173507 -172.32039 -0.91024065 -172.35358 -37.399937 159.08742
26500000000 -33.848042 62.420662 -0.89974624 -174.24361 -0.90567946 -174.37837 -35.185669 156.63782
26600000000 -35.428352 41.363102 -0.90381283 -176.39801 -0.92848969 -176.31786 -36.997147 151.79083
26700000000 -31.885284 57.903744 -0.89581388 -178.25844 -0.9165926 -178.47426 -36.052113 150.19661
26800000000 -32.777798 31.594116 -0.909953 179.70007 -0.90169078 179.55435 -35.834202 122.87043
26900000000 -31.786503 55.354031 -0.91687393 177.57817 -0.92016912 177.45743 -34.691692 139.18767
27000000000 -30.447092 29.297974 -0.91850287 175.64325 -0.91857064 175.49147 -33.099571 114.75173
27100000000 -31.821535 43.446743 -0.91655874 173.6228 -0.91577911 173.55069 -34.890064 122.83351
27200000000 -28.168737 33.986702 -0.9216485 171.52742 -0.93278837 171.46877 -33.973957 99.531784
27300000000 -30.520327 36.510998 -0.92862916 169.61682 -0.93265873 169.54164 -36.054737 105.68377
27400000000 -27.896021 33.135448 -0.94259363 167.44293 -0.94013178 167.48184 -31.923347 90.204971
27500000000 -29.798985 29.597813 -0.93985474 165.47333 -0.92893118 165.43153 -33.785336 81.700996
27600000000 -27.173992 28.037947 -0.94629914 163.5899 -0.93938583 163.40604 -30.551615 81.978195
27700000000 -27.473444 17.314655 -0.93778861 161.61284 -0.94212186 161.35115 -32.454426 79.064247
27800000000 -26.082148 27.381107 -0.93677711 159.4384 -0.94689822 159.44968 -30.212019 75.809853
27900000000 -26.218578 16.721691 -0.95028198 157.70349 -0.95852524 157.47395 -31.934494 61.217983
28000000000 -26.15131 27.654446 -0.94854259 155.51848 -0.95270962 155.48801 -30.212931 62.62561
28100000000 -25.919235 17.921532 -0.9127242 153.63493 -0.94620514 153.51654 -30.079041 57.500004
28200000000 -25.561718 21.877396 -0.95331407 151.5616 -0.93889678 151.4398 -28.709734 59.717812
28300000000 -24.642391 12.044256 -0.92785281 149.38849 -0.93580246 149.36697 -29.427027 54.505661
28400000000 -24.567577 13.942717 -0.93706584 147.51112 -0.94023275 147.47137 -27.930365 54.980255
28500000000 -23.64337 12.122368 -0.95231414 145.44627 -0.91902065 145.26585 -27.587328 43.897793
28600000000 -23.670832 13.480034 -0.93410546 143.42743 -0.94940031 143.35573 -27.07085 45.321129
28700000000 -23.144747 9.897356 -0.950445 141.27284 -0.93036479 141.23611 -25.843334 41.738586
28800000000 -23.807852 11.758728 -0.95131826 139.18398 -0.96191972 139.15506 -25.933598 43.983593
28900000000 -22.770735 5.8201141 -0.94670987 137.21631 -0.95534956 137.08467 -25.724421 36.070362
29000000000 -23.065849 4.9566908 -0.95720011 135.21767 -0.96993786 135.05333 -25.561798 34.503983
29100000000 -21.976553 3.226537 -0.95707232 133.1694 -0.96340144 133.08496 -25.12944 24.384106
29200000000 -22.489616 2.8237572 -0.96694237 131.37874 -0.94996017 131.26241 -23.906906 26.618195
29300000000 -21.766853 2.334198 -0.97204655 129.2231 -0.97266507 129.22359 -23.77556 21.908339
29400000000 -22.249741 -1.2381555 -0.99019879 127.27835 -0.97975969 127.22869 -23.248837 27.01614
29500000000 -21.464935 0.76533395 -0.97673637 125.37504 -0.97864956 125.30679 -23.764086 22.394714
29600000000 -21.995981 -7.797245 -0.98459357 123.33428 -0.99520284 123.24527 -24.160055 25.74291
29700000000 -21.534502 0.084274888 -0.97818291 121.30696 -0.98059666 121.06289 -23.675873 13.045483
29800000000 -21.308424 -9.5610132 -0.97462732 119.03172 -0.99357873 119.24725 -23.560177 17.085819
29900000000 -21.242027 -1.5958983 -0.96839249 117.18678 -0.96318883 117.25016 -22.307007 6.8791451
30000000000 -20.844677 -8.0506859 -0.9540289 115.30787 -0.99438059 115.27189 -22.460245 12.886182
30100000000 -21.521822 -5.0765972 -0.97732049 113.27809 -0.96871567 113.12676 -21.41732 6.941215
30200000000 -20.365044 -11.949822 -0.98160869 111.21762 -0.99203593 111.28101 -21.907608 12.164792
30300000000 -21.501829 -11.582093 -0.9863556 109.18424 -1.0030055 108.97585 -21.386662 3.9450815
30400000000 -19.838352 -11.9155 -0.99046737 107.15842 -1.0016448 107.02563 -22.338785 2.2278373
30500000000 -21.030897 -15.083643 -0.99792212 105.1437 -0.97591728 105.1985 -21.043489 -3.9809625
30600000000 -20.127296 -14.628865 -1.0000591 103.24952 -1.0056335 102.94903 -21.667757 -6.5172338
30700000000 -20.725107 -19.257288 -0.98487866 101.07539 -1.0009085 100.84704 -20.289154 -7.6024013
30800000000 -20.327963 -16.502874 -1.0129067 99.122437 -0.99643117 98.99572 -21.29287 -8.9847393
30900000000 -20.040234 -22.942921 -0.98965323 97.088913 -0.96582574 96.932465 -20.251408 -9.0293789
31000000000 -20.135649 -19.109257 -1.0057186 95.18824 -1.0154494 95.142715 -20.649441 -13.742651
31100000000 -20.074919 -25.431524 -0.98197734 93.105652 -1.0078539 92.950272 -20.603973 -15.524961
31200000000 -20.036194 -20.817251 -1.0193588 91.199699 -1.0291301 90.983864 -20.180212 -21.861164
31300000000 -19.57548 -25.678221 -0.99813288 89.103249 -1.02113 88.979103 -20.081728 -22.123596
31400000000 -20.140947 -23.063492 -1.0098399 87.124977 -1.0152764 87.125748 -19.790619 -22.615944
31500000000 -19.63648 -25.81506 -1.0090045 85.232231 -1.0349032 85.143753 -19.683706 -20.780708
31600000000 -20.342009 -26.396709 -0.99885905 83.093948 -1.0029272 83.103439 -20.117273 -25.283607
31700000000 -19.772621 -28.789597 -1.0149812 80.967819 -1.0143923 81.117348 -19.952532 -27.127899
31800000000 -20.254679 -29.902962 -1.0369571 79.079491 -1.0201743 79.120132 -20.097736 -34.810772
31900000000 -19.556328 -31.676977 -0.98993671 77.000702 -0.99594766 76.855835 -19.488523 -34.84005
32000000000 -19.956013 -30.167393 -1.0230746 75.008789 -1.0229177 74.916489 -19.270803 -38.574268
32100000000 -19.749741 -33.31884 -1.0162436 73.022568 -1.0190367 73.036324 -19.104105 -36.279484
32200000000 -20.431305 -32.428139 -1.0260783 71.078346 -1.0215774 70.922539 -19.479776 -39.973995
32300000000 -20.179594 -33.281799 -1.0204083 68.937378 -1.0200427 69.045898 -19.617586 -39.282269
32400000000 -21.031445 -37.570461 -1.024775 66.903473 -1.0176173 66.842346 -20.33704 -45.331673
32500000000 -20.380096 -36.485497 -1.0112394 64.780251 -1.0268692 64.948509 -19.844986 -48.094528
32600000000 -20.678379 -41.376614 -1.0141277 62.956608 -0.99128491 62.951759 -19.443745 -54.911972
32700000000 -20.550772 -34.988346 -1.025546 60.800282 -1.0155479 60.759308 -19.229362 -52.065144
32800000000 -21.018242 -42.096355 -0.98379189 58.879204 -1.009045 58.766605 -18.871037 -54.792728
32900000000 -21.104225 -33.78471 -0.99639374 56.910473 -1.0239501 56.567093 -19.472433 -53.349297
33000000000 -21.04887 -43.236191 -1.0094954 54.946079 -0.9918372 54.826401 -19.800896 -58.432377
33100000000 -21.540918 -39.527222 -1.0029367 52.885441 -1.0050054 52.628643 -20.119419 -61.144749
33200000000 -21.05566 -42.62394 -1.0161402 50.828983 -1.0170614 50.681549 -19.776142 -66.679985
33300000000 -22.174942 -38.11776 -1.0092827 48.665447 -1.0140581 48.679958 -20.268953 -67.747826
33400000000 -21.174612 -42.509121 -0.97054374 46.666222 -1.0169452 46.56147 -19.730165 -70.383232
33500000000 -22.673115 -41.96489 -1.0248498 44.853649 -1.021464 44.653618 -20.559811 -70.55732
33600000000 -21.779442 -39.548473 -0.99653244 42.742107 -1.0119342 42.626102 -20.069664 -74.051003
33700000000 -22.844067 -41.898643 -1.0359917 40.556232 -1.005249 40.599567 -21.390383 -75.838707
33800000000 -22.142048 -36.983578 -1.0244646 38.620987 -1.0010741 38.444817 -21.196108 -79.988869
33900000000 -22.89216 -42.47451 -1.0311718 36.624615 -1.0120916 36.572796 -21.193542 -81.97287
34000000000 -22.671661 -34.553959 -1.0126021 34.546581 -1.0130943 34.450291 -21.077494 -82.344269
34100000000 -23.286045 -40.749577 -1.0242287 32.604698 -1.0091786 32.486519 -21.606689 -86.118042
34200000000 -24.197668 -32.206871 -1.0414793 30.585348 -1.0269778 30.55324 -22.398037 -85.108986
34300000000 -24.140835 -35.975239 -1.0372375 28.645761 -1.042713 28.542955 -22.894657 -92.452019
34400000000 -24.408587 -33.069038 -1.0434085 26.519865 -1.0317683 26.527708 -23.183767 -97.270195
34500000000 -23.878714 -32.855591 -1.0436326 24.573132 -1.0160637 24.279264 -22.808926 -103.22972
34600000000 -23.965515 -29.718071 -1.0180146 22.500008 -1.0423968 22.226503 -22.789593 -98.450775
34700000000 -24.207308 -26.86356 -1.0411853 20.384747 -1.012892 20.347311 -23.629477 -103.08996
34800000000 -24.355412 -20.041594 -0.99977916 18.372812 -1.0220969 18.450773 -24.399895 -104.08664
34900000000 -24.938526 -21.527878 -1.0201664 16.398645 -1.0356463 16.162226 -26.018099 -115.18787
35000000000 -24.457485 -17.913746 -1.0126482 14.403459 -1.0008048 14.169698 -26.308594 -125.99171
35100000000 -24.684061 -15.24135 -1.0512851 12.25996 -1.0375527 12.210437 -24.934414 -131.07538
35200000000 -24.769468 -9.7790213 -1.0109875 10.120636 -1.0168409 10.192016 -25.495697 -128.3884
35300000000 -24.642397 -12.197329 -1.0138786 8.0774546 -1.0529319 8.0244036 -26.132599 -130.73441
35400000000 -24.335409 -1.1772193 -1.0565839 5.9237227 -1.0197643 6.0554943 -26.129986 -128.71815
35500000000 -23.669357 -3.2669661 -1.033053 4.1274071 -1.0457072 4.0419035 -28.274866 -144.10223
35600000000 -24.69239 3.3889935 -1.0318428 2.0480459 -1.0309348 1.8430787 -28.615171 -151.81511
35700000000 -23.056932 -2.0224309 -1.0491745 -0.17597644 -1.0402566 -0.13365485 -28.840611 -163.51439
35800000000 -23.57449 5.7752962 -1.0420457 -2.2735159 -1.0615315 -2.3283408 -29.015654 -166.85948
35900000000 -21.847483 3.8774297 -1.0637976 -4.3437715 -1.1063092 -4.1646757 -28.669857 -178.35292
36000000000 -22.897249 8.5089102 -1.0464035 -6.265965 -1.10446 -6.1060309 -31.170176 162.1423
36100000000 -21.059694 12.375985 -1.0804356 -8.3712654 -1.1196995 -8.0180845 -29.459143 151.65672
36200000000 -21.978626 6.1582041 -1.0764852 -10.145394 -1.1092153 -10.160251 -30.550446 140.21735
36300000000 -20.919243 10.576914 -1.137949 -12.310091 -1.1097616 -12.604045 -28.371267 128.36598
36400000000 -20.801754 3.4432986 -1.0817873 -14.462171 -1.0926592 -14.378945 -30.635725 130.2435
36500000000 -20.462084 12.048531 -1.1328467 -16.246849 -1.1191072 -16.15317 -27.651043 125.74779
36600000000 -19.225834 1.4653475 -1.0498091 -18.3431 -1.0700982 -18.339573 -29.202557 94.715218
36700000000 -19.822119 14.905925 -1.0679016 -20.286793 -1.0856558 -20.559772 -27.204092 96.357506
36800000000 -18.738108 6.2902231 -1.0724105 -22.172752 -1.0999311 -22.349806 -24.859758 84.128136
36900000000 -19.783907 15.583348 -1.0739456 -24.42178 -1.1306008 -24.469004 -24.61397 89.700836
37000000000 -18.065128 8.5222092 -1.0758935 -26.4112 -1.1586605 -26.75153 -23.493025 88.431213
37100000000 -18.745661 9.1416502 -1.1755309 -28.532536 -1.1548358 -28.874525 -23.889513 88.290909
37200000000 -17.045874 9.6675301 -1.0928067 -30.385643 -1.090825 -30.591522 -23.074373 68.807617
37300000000 -17.741215 12.549083 -1.1116598 -32.598869 -1.1572901 -32.689182 -22.71559 62.821274
37400000000 -16.601286 11.386704 -1.1461202 -34.592396 -1.1225053 -34.754303 -20.782806 60.164242
37500000000 -17.032942 6.940526 -1.1314899 -36.743896 -1.1330091 -36.884895 -20.327248 60.46315
37600000000 -16.251972 8.0132685 -1.1719667 -38.721241 -1.1369779 -38.799213 -19.469145 60.343288
37700000000 -16.45228 4.9986715 -1.1643546 -40.649849 -1.1296769 -40.751369 -19.878149 58.10125
37800000000 -15.833799 5.0924172 -1.1709036 -42.400112 -1.1460507 -42.900879 -19.519154 58.216908
37900000000 -15.519505 5.4936337 -1.1627966 -44.769184 -1.2065814 -44.705711 -19.797264 51.193817
38000000000 -15.191884 5.2671595 -1.1701105 -47.070717 -1.2289346 -47.230614 -18.800655 44.261559
38100000000 -15.364604 4.0183964 -1.2256202 -49.08815 -1.1897597 -48.950966 -17.934597 44.073097
38200000000 -14.970651 3.9478793 -1.2205267 -50.852211 -1.234539 -51.08408 -17.271584 41.394417
38300000000 -15.016381 0.072962113 -1.2263023 -52.780167 -1.2566588 -53.000889 -16.89958 42.989464
38400000000 -14.278737 0.54346091 -1.2274711 -54.733101 -1.215516 -54.575314 -16.810337 39.437939
38500000000 -14.31616 -3.3227105 -1.255491 -56.863861 -1.2203412 -56.956886 -16.833555 37.314175
38600000000 -14.064012 1.0745261 -1.2544439 -58.728931 -1.2313114 -59.153419 -16.516766 29.823437
38700000000 -13.603202 -3.2515752 -1.226613 -60.896439 -1.3038529 -61.054958 -16.411049 29.65259
38800000000 -13.869493 -2.5998247 -1.2117693 -62.962322 -1.3035283 -62.622345 -15.262064 25.759882
38900000000 -13.380252 -6.6529784 -1.2515188 -64.96051 -1.3125279 -64.947495 -15.684217 27.530184
39000000000 -13.791793 -4.6799817 -1.2607836 -67.075203 -1.2916174 -67.061035 -14.912849 26.18322
39100000000 -12.822469 -7.0244088 -1.2888952 -69.056564 -1.3133632 -69.052147 -15.885815 24.365334
39200000000 -13.48813 -9.3808632 -1.2333387 -71.022522 -1.3238187 -70.979668 -14.754633 16.424175
39300000000 -12.328154 -7.5458198 -1.3213166 -73.39045 -1.343769 -73.068939 -15.111015 9.9867573
39400000000 -13.432107 -13.29484 -1.2937965 -74.829697 -1.3501337 -74.754997 -13.897137 13.028694
39500000000 -12.562916 -9.5209923 -1.3401064 -76.755104 -1.3008385 -76.899704 -14.354939 12.014582
39600000000 -12.958976 -16.354513 -1.3295572 -78.624321 -1.3544356 -78.791283 -13.878428 13.934677
39700000000 -12.663362 -12.259197 -1.3375418 -80.565765 -1.3130914 -81.04364 -14.811729 7.5789547
39800000000 -12.344125 -19.491232 -1.3445193 -82.428314 -1.3010607 -83.054459 -14.028723 6.2510552
39900000000 -12.740221 -14.163444 -1.3355303 -84.800941 -1.3250723 -84.595787 -14.028779 -1.3152361
40000000000 -12.120635 -19.992542 -1.3823233 -86.777138 -1.3486072 -86.745605 -13.13328 0.29702967
40100000000 -13.013096 -16.578636 -1.3659189 -88.995621 -1.4130619 -89.278351 -12.86293 -2.7609172
40200000000 -11.971215 -21.488911 -1.3837292 -90.562561 -1.3866179 -90.654167 -12.938139 0.051183511
40300000000 -12.61979 -24.643679 -1.3756258 -93.005463 -1.3403865 -92.739281 -13.132074 -3.2994025
40400000000 -11.696102 -23.293709 -1.355448 -94.353966 -1.3812671 -94.588959 -13.386623 -4.2257018
40500000000 -12.146814 -24.571924 -1.3854611 -96.561432 -1.4014237 -97.024231 -13.364361 -10.937359
40600000000 -11.629326 -23.433691 -1.3738194 -98.012611 -1.439965 -98.1017 -13.005871 -13.488653
40700000000 -12.13828 -28.209352 -1.3915437 -100.62273 -1.344817 -100.77367 -12.457193 -15.474255
40800000000 -11.927831 -26.61149 -1.3920652 -102.40304 -1.3737491 -102.06818 -12.180235 -15.003466
40900000000 -11.64502 -29.65156 -1.3343388 -104.06917 -1.3632915 -104.33652 -12.163524 -15.928486
41000000000 -11.699229 -32.046928 -1.4250113 -106.33028 -1.3748062 -106.2476 -12.418623 -17.770897
41100000000 -11.436541 -33.074608 -1.4035653 -107.81049 -1.3301028 -108.39882 -12.5137 -20.350227
41200000000 -11.789799 -33.054825 -1.3607918 -110.00245 -1.4201959 -110.33368 -12.614992 -24.054802
41300000000 -11.622216 -33.381432 -1.3529044 -112.21368 -1.3604056 -112.76488 -12.474261 -26.324203
41400000000 -11.776176 -35.530441 -1.3488166 -114.08626 -1.3214601 -114.2878 -12.328026 -27.197056
41500000000 -12.361921 -35.223759 -1.3181757 -116.00394 -1.3682978 -115.98492 -11.987909 -32.609093
41600000000 -11.697906 -38.129021 -1.3516512 -118.47291 -1.3239613 -118.78307 -12.317927 -30.550709
41700000000 -12.198501 -39.64045 -1.2800171 -120.14531 -1.3515469 -120.16214 -12.229882 -34.442245
41800000000 -11.636361 -39.996788 -1.4237611 -122.38643 -1.3725374 -122.26104 -12.452829 -34.790897
41900000000 -11.996083 -43.41235 -1.3843341 -124.24228 -1.3200241 -124.25218 -12.545335 -39.044846
42000000000 -12.005493 -39.758144 -1.3674912 -126.23748 -1.3934675 -126.38941 -12.579535 -40.203995
42100000000 -11.966965 -43.29945 -1.3547884 -128.03246 -1.3752435 -128.26074 -12.501639 -41.607944
42200000000 -12.497203 -43.344715 -1.3451096 -130.30521 -1.3525339 -129.87677 -12.46897 -42.362164
42300000000 -12.247027 -45.440178 -1.4290297 -131.86574 -1.3620201 -132.58406 -12.271589 -44.643696
42400000000 -12.824735 -48.043686 -1.3331261 -134.39801 -1.3880633 -134.16212 -12.835249 -45.671257
42500000000 -12.28138 -48.422626 -1.2728794 -135.33327 -1.3664181 -136.37378 -12.912318 -49.777702
42600000000 -12.578129 -49.454105 -1.2709302 -137.70462 -1.2896929 -138.04678 -13.451284 -52.49453
42700000000 -12.550717 -48.331501 -1.2840716 -139.40518 -1.3495413 -140.37889 -12.345 -54.992535
42800000000 -12.489354 -52.832851 -1.3678969 -141.73215 -1.3254235 -142.33321 -13.091131 -58.641647
42900000000 -13.11901 -49.403358 -1.3440046 -144.14455 -1.2379949 -144.0713 -12.572753 -57.957169
43000000000 -13.088198 -57.706509 -1.2997053 -146.16295 -1.3266804 -145.84444 -12.990746 -61.448788
43100000000 -14.223311 -54.510689 -1.3058026 -147.99045 -1.2901427 -148.36722 -13.846664 -59.23819
43200000000 -13.175687 -55.804699 -1.2453907 -149.96704 -1.3291391 -149.95956 -14.194227 -65.580688
43300000000 -13.952982 -52.686504 -1.2838538 -152.04007 -1.2726815 -151.97592 -13.950999 -66.311119
43400000000 -13.30634 -55.776051 -1.2441326 -153.94638 -1.2844644 -154.27969 -14.033388 -70.765381
43500000000 -14.397207 -56.752377 -1.1631073 -156.28511 -1.2226784 -155.98163 -14.004104 -71.440086
43600000000 -14.404238 -54.930405 -1.2173243 -158.59105 -1.2853636 -157.92287 -13.667837 -72.854019
43700000000 -14.759391 -62.137367 -1.2358274 -160.1508 -1.2524968 -160.43298 -14.8623 -73.186386
43800000000 -15.022431 -59.681271 -1.2561244 -161.995 -1.2475761 -162.16385 -15.428667 -75.197296
43900000000 -14.680142 -59.609001 -1.187201 -164.74138 -1.1624391 -164.52853 -16.282082 -75.316124
44000000000 -15.835452 -55.069241 -1.208694 -166.58217 -1.2461387 -166.45361 -16.109724 -79.904121
44100000000 -15.13693 -57.328854 -1.2009951 -168.69189 -1.2137458 -168.84705 -16.276022 -85.348259
44200000000 -17.056347 -56.243801 -1.1154503 -170.47365 -1.3002276 -171.09116 -16.05365 -84.74247
44300000000 -15.890513 -55.659496 -1.2138779 -172.81221 -1.2136705 -172.64368 -17.075283 -81.570244
44400000000 -17.140537 -59.038872 -1.1972051 -174.63237 -1.213601 -174.73138 -17.299669 -86.632423
44500000000 -16.378469 -52.886852 -1.1555164 -177.09099 -1.2573392 -176.89394 -18.584288 -93.277138
44600000000 -17.131973 -58.874153 -1.1976631 -179.1429 -1.1271883 -179.10103 -19.371126 -93.258522
44700000000 -17.004234 -44.00164 -1.2557116 178.94179 -1.2531974 179.12531 -19.719742 -98.732445
44800000000 -17.699766 -54.606655 -1.1839931 176.50916 -1.1823437 176.0778 -20.002348 -95.135368
44900000000 -18.103655 -45.434978 -1.2123784 174.97772 -1.1933099 174.23897 -21.268492 -97.332367
45000000000 -18.278248 -47.989407 -1.2112452 172.54736 -1.1713232 171.97038 -23.192959 -91.363823
