!Keysight Technologies,N5247B,MY61255062,A.19.80.06
!Date: Monday, May 18, 2026 12:25:57
!Correction: S11(Cdelta 2-Port  ) 
!S21(Cdelta 2-Port  ) 
!S12(Cdelta 2-Port  ) 
!S22(Cdelta 2-Port  ) 
!S2P File: Measurements: S11, S21, S12, S22:
# Hz S  dB   R 50
1000000000 -26.404673 -17.755123 -0.41477221 -20.961748 -0.41274318 -20.957272 -27.174713 -18.295528
1100000000 -26.316772 -20.783007 -0.42720532 -22.999041 -0.42465952 -22.991423 -27.318302 -20.81389
1200000000 -26.21484 -22.882307 -0.4349373 -25.000023 -0.4328731 -24.99963 -27.358265 -22.023127
1300000000 -26.085855 -25.473021 -0.44213364 -27.058208 -0.44110426 -27.056507 -27.26469 -24.903131
1400000000 -25.967299 -27.214172 -0.44781664 -29.026613 -0.44638714 -29.035641 -27.287127 -25.643774
1500000000 -25.80904 -29.829578 -0.45070168 -31.066929 -0.44782522 -31.066607 -27.155045 -27.993925
1600000000 -25.731651 -32.036892 -0.45545778 -33.105309 -0.45322692 -33.112297 -27.157333 -30.861742
1700000000 -25.565802 -34.772987 -0.45756465 -35.12299 -0.45517978 -35.136509 -27.118914 -32.819382
1800000000 -25.408346 -37.254715 -0.46073598 -37.161484 -0.45944324 -37.1693 -27.096104 -35.400635
1900000000 -25.270452 -39.94384 -0.46237406 -39.200104 -0.46193123 -39.209843 -27.076067 -38.28421
2000000000 -25.182411 -42.703033 -0.46874681 -41.256908 -0.46720433 -41.259827 -27.077944 -41.227627
2100000000 -25.03944 -44.918316 -0.47251505 -43.273354 -0.47113973 -43.28093 -27.124252 -43.335766
2200000000 -24.998964 -47.426544 -0.47653034 -45.314472 -0.47383073 -45.330677 -27.15062 -46.08728
2300000000 -24.909185 -50.061481 -0.4802371 -47.354172 -0.47903422 -47.36871 -27.196236 -48.699619
2400000000 -24.82827 -52.656818 -0.48598757 -49.396935 -0.48485285 -49.396591 -27.274788 -51.297009
2500000000 -24.728756 -55.069603 -0.49235567 -51.436615 -0.49215823 -51.432224 -27.309408 -54.055496
2600000000 -24.689756 -57.728561 -0.49815881 -53.469917 -0.49860188 -53.470558 -27.426384 -56.746685
2700000000 -24.61729 -60.056637 -0.50476986 -55.490822 -0.50229698 -55.485207 -27.564426 -59.872681
2800000000 -24.614748 -62.435238 -0.50906134 -57.513649 -0.50648975 -57.519508 -27.664694 -62.414639
2900000000 -24.634825 -64.710808 -0.51483613 -59.540459 -0.51416385 -59.535652 -27.799892 -64.68277
3000000000 -24.566681 -67.351074 -0.51971817 -61.539589 -0.51863468 -61.5471 -28.014256 -67.138191
3100000000 -24.532841 -69.591675 -0.52241081 -63.560902 -0.52149481 -63.564014 -28.204508 -69.784897
3200000000 -24.422119 -71.894386 -0.52601582 -65.58091 -0.52479088 -65.589554 -28.383986 -71.731682
3300000000 -24.409452 -74.217316 -0.52914488 -67.606644 -0.52884138 -67.602684 -28.496544 -74.257973
3400000000 -24.370119 -76.225075 -0.53230071 -69.604759 -0.53162307 -69.615189 -28.690277 -76.784958
3500000000 -24.36467 -78.604042 -0.53666288 -71.614456 -0.53588349 -71.636642 -28.850559 -78.525307
3600000000 -24.319014 -80.571274 -0.53711307 -73.633736 -0.53732109 -73.648026 -29.035212 -80.323082
3700000000 -24.344429 -82.732101 -0.53996724 -75.670715 -0.54158682 -75.662712 -29.094185 -82.852539
3800000000 -24.265871 -84.6791 -0.54218388 -77.696999 -0.5443632 -77.701889 -29.359278 -85.122284
3900000000 -24.28573 -86.950905 -0.5461508 -79.722748 -0.54631817 -79.722717 -29.494221 -87.549622
4000000000 -24.248165 -88.467285 -0.55094624 -81.740471 -0.54928792 -81.743942 -29.800058 -89.243065
4100000000 -24.222622 -90.997696 -0.55254787 -83.758492 -0.55401474 -83.768494 -29.979803 -91.939003
4200000000 -24.265627 -92.743126 -0.55741066 -85.779648 -0.55662405 -85.791939 -30.303059 -93.497299
4300000000 -24.202892 -94.963531 -0.55984825 -87.804031 -0.55880708 -87.796364 -30.495029 -95.481476
4400000000 -24.295086 -96.620789 -0.5613144 -89.813553 -0.56169498 -89.830605 -30.917414 -97.35965
4500000000 -24.261297 -98.425461 -0.56487638 -91.841011 -0.56506771 -91.836578 -31.067818 -99.259651
4600000000 -24.32666 -100.47597 -0.56717211 -93.859604 -0.56950098 -93.855301 -31.462843 -101.6858
4700000000 -24.291458 -102.4296 -0.57004523 -95.882347 -0.5690648 -95.883339 -31.663168 -103.5504
4800000000 -24.351969 -104.38047 -0.57283843 -97.908821 -0.57150006 -97.912971 -32.098228 -105.34871
4900000000 -24.41119 -105.64075 -0.57443571 -99.927238 -0.57617044 -99.942596 -32.28545 -106.39356
5000000000 -24.441227 -107.68464 -0.57833111 -101.9389 -0.57855052 -101.94843 -32.82003 -108.3313
5100000000 -24.486565 -109.14532 -0.58077687 -103.96262 -0.58358026 -103.96415 -33.212669 -108.78346
5200000000 -24.565578 -111.34341 -0.58353078 -105.98167 -0.58502686 -105.99049 -33.828735 -111.71212
5300000000 -24.648132 -112.89693 -0.58534616 -108.00293 -0.5865069 -108.00425 -34.199169 -112.94643
5400000000 -24.702326 -114.75446 -0.59205222 -110.02046 -0.58896858 -110.0288 -34.792355 -116.01929
5500000000 -24.824371 -116.18317 -0.59471297 -112.03064 -0.59337378 -112.04906 -35.134022 -116.30008
5600000000 -24.854877 -118.24763 -0.59883189 -114.05194 -0.59566236 -114.07481 -35.482609 -117.03749
5700000000 -24.96077 -119.80014 -0.60077792 -116.06119 -0.59975994 -116.07424 -35.970364 -115.74511
5800000000 -25.01437 -121.41151 -0.60254645 -118.07911 -0.60244209 -118.07385 -36.8909 -116.58686
5900000000 -25.12677 -123.03765 -0.60516959 -120.07652 -0.6040979 -120.09016 -37.66515 -116.10712
6000000000 -25.173134 -124.76356 -0.60682255 -122.08923 -0.6058594 -122.09305 -38.439945 -119.19777
6100000000 -25.386673 -126.15527 -0.60889995 -124.10033 -0.60854435 -124.08846 -39.13126 -120.58068
6200000000 -25.548731 -127.53098 -0.60690862 -126.09351 -0.60844195 -126.11499 -39.955223 -122.05641
6300000000 -25.807022 -129.24255 -0.60889608 -128.10501 -0.60647041 -128.12134 -40.976013 -114.75753
6400000000 -25.949627 -130.21216 -0.60721999 -130.13138 -0.60805511 -130.13843 -42.425346 -110.42753
6500000000 -26.265808 -131.91109 -0.60902089 -132.14494 -0.60928833 -132.15477 -43.648045 -96.000473
6600000000 -26.365135 -132.8325 -0.60695565 -134.16887 -0.60583615 -134.17947 -45.053406 -88.668526
6700000000 -26.591679 -134.29248 -0.60673892 -136.20752 -0.60708064 -136.21692 -44.917618 -73.787827
6800000000 -26.717272 -134.32138 -0.60731077 -138.24431 -0.60787559 -138.25827 -44.801353 -64.008446
6900000000 -26.951653 -135.35756 -0.60941702 -140.29791 -0.60812718 -140.30167 -43.076698 -53.940197
7000000000 -27.112659 -134.69197 -0.61366951 -142.34215 -0.61076409 -142.35052 -41.546391 -51.281525
7100000000 -27.0007 -136.38612 -0.62323684 -144.36943 -0.62482202 -144.39008 -40.838802 -50.450249
7200000000 -27.434952 -138.70738 -0.62040269 -146.31279 -0.62091333 -146.33148 -42.094765 -42.687317
7300000000 -27.719082 -139.27052 -0.61783123 -148.36833 -0.6189571 -148.37311 -40.490437 -35.777851
7400000000 -28.196306 -138.93362 -0.62436616 -150.41933 -0.62373585 -150.4373 -39.44186 -37.562912
7500000000 -28.076281 -138.34085 -0.63347459 -152.44241 -0.63408446 -152.43484 -37.558064 -40.15741
7600000000 -28.634691 -139.39709 -0.62805444 -154.382 -0.62576365 -154.39989 -37.071846 -38.650288
7700000000 -28.721489 -139.1004 -0.62405562 -156.4422 -0.62479627 -156.44749 -35.873215 -34.730118
7800000000 -29.014923 -139.23976 -0.6256898 -158.47548 -0.62909198 -158.49776 -35.791672 -34.738068
7900000000 -29.086859 -138.41829 -0.62994331 -160.52634 -0.63020426 -160.52312 -35.483784 -35.013191
8000000000 -29.425329 -138.99799 -0.63360852 -162.53955 -0.63383311 -162.5567 -35.14439 -42.00927
8100000000 -29.573393 -137.44791 -0.63689786 -164.5916 -0.63848293 -164.60419 -34.059803 -44.876125
8200000000 -29.846283 -138.16084 -0.641761 -166.63498 -0.6402455 -166.63362 -32.624275 -46.001358
8300000000 -30.25894 -137.34985 -0.64788485 -168.67322 -0.64665955 -168.68768 -32.056629 -37.889435
8400000000 -30.668333 -138.64279 -0.65794665 -170.74364 -0.65904558 -170.73959 -32.17894 -29.599045
8500000000 -30.98591 -134.63329 -0.68975568 -172.80222 -0.68973905 -172.81743 -34.842758 -7.363832
8600000000 -29.649357 -136.53522 -0.77020943 -174.54059 -0.77565008 -174.55782 -35.490181 61.869308
8700000000 -32.269966 -164.21072 -0.6801011 -175.11943 -0.68378311 -175.15297 -26.01683 63.885117
8800000000 -33.069603 -120.472 -0.5193733 -178.32281 -0.52140898 -178.36276 -28.388699 23.98753
8900000000 -31.227449 -129.70808 -0.59215575 179.15987 -0.59517014 179.14607 -33.945633 -6.5182357
9000000000 -31.46773 -133.43637 -0.63217223 177.12473 -0.63007951 177.12038 -35.040749 -53.764874
9100000000 -31.947956 -130.11732 -0.64758015 175.15129 -0.64836121 175.14977 -32.132397 -67.403526
9200000000 -31.756687 -127.11732 -0.65527338 173.15869 -0.65511954 173.14243 -30.17305 -68.722282
9300000000 -31.914366 -124.18527 -0.6596536 171.15726 -0.6614905 171.13428 -29.577053 -63.937511
9400000000 -31.647316 -122.87164 -0.66349322 169.14687 -0.66678572 169.13608 -29.443607 -62.212299
9500000000 -32.004395 -121.70475 -0.66674072 167.1422 -0.66871774 167.1357 -29.76119 -61.357975
9600000000 -31.863558 -119.05084 -0.67126149 165.13058 -0.67051953 165.11133 -29.927738 -65.43409
9700000000 -31.983366 -117.25756 -0.67215562 163.11972 -0.67397487 163.11322 -29.859457 -67.965324
9800000000 -31.644743 -114.70599 -0.67726409 161.10403 -0.67769647 161.11314 -29.444294 -71.974106
9900000000 -31.687477 -114.57416 -0.67808288 159.091 -0.67864877 159.07834 -29.180067 -71.915817
10000000000 -31.498106 -112.11782 -0.68001449 157.07079 -0.67986619 157.05925 -28.95335 -73.276955
10100000000 -31.593967 -111.54135 -0.68270212 155.07408 -0.68349069 155.04411 -29.190613 -73.910324
10200000000 -31.152086 -107.86414 -0.68759954 153.05159 -0.68686754 153.02963 -29.152273 -77.453728
10300000000 -31.052126 -108.58188 -0.68867868 151.03188 -0.69006217 151.01538 -29.196091 -80.055962
10400000000 -30.69792 -105.93977 -0.69127637 149.00638 -0.69048214 148.98193 -28.728727 -83.27713
10500000000 -30.453674 -107.69758 -0.69212484 146.98048 -0.69541568 146.98058 -28.590607 -84.289452
10600000000 -30.278769 -105.34753 -0.6951775 144.9525 -0.69593769 144.95126 -28.222404 -84.495872
10700000000 -29.860952 -105.53976 -0.70082724 142.93245 -0.69991142 142.90715 -28.499329 -85.064011
10800000000 -29.805109 -102.84875 -0.7044313 140.93936 -0.70395148 140.91475 -28.395428 -86.291367
10900000000 -29.367878 -102.59071 -0.70334274 138.91362 -0.7069726 138.90929 -28.834675 -89.037285
11000000000 -29.201462 -101.81541 -0.712107 136.89543 -0.70879185 136.87653 -28.594639 -92.359039
11100000000 -28.806017 -103.32291 -0.71319896 134.89682 -0.71301472 134.88953 -28.650599 -95.643394
11200000000 -28.832518 -103.40692 -0.7154808 132.89311 -0.71959102 132.88449 -28.225548 -96.22467
11300000000 -28.404716 -102.85586 -0.72230691 130.88629 -0.71992707 130.87596 -28.314192 -99.179108
11400000000 -28.279825 -104.19872 -0.72327948 128.87286 -0.72287893 128.85138 -27.960228 -99.013992
11500000000 -27.832548 -104.13873 -0.72711056 126.87099 -0.72540259 126.86382 -27.996059 -101.17558
11600000000 -27.665194 -105.74418 -0.72927296 124.87469 -0.72868788 124.85164 -28.080067 -102.07364
11700000000 -27.368206 -104.91601 -0.72923499 122.85384 -0.73213375 122.84853 -28.37265 -106.00667
11800000000 -27.276161 -107.5289 -0.73418826 120.86369 -0.73568076 120.86852 -28.226921 -107.59315
11900000000 -27.041855 -106.45624 -0.73664492 118.8801 -0.73788452 118.86615 -28.205938 -111.65196
12000000000 -27.013592 -109.69002 -0.73685628 116.87106 -0.73873782 116.86574 -28.031219 -111.04088
12100000000 -26.812595 -109.77732 -0.74006486 114.88847 -0.74120718 114.88171 -28.065313 -115.06438
12200000000 -26.506229 -112.90314 -0.74043542 112.90163 -0.74307317 112.86934 -28.046368 -116.03836
12300000000 -26.458195 -113.15012 -0.73843372 110.91234 -0.73912942 110.88477 -28.14555 -118.543
12400000000 -26.256607 -114.94962 -0.73589325 108.9074 -0.74196321 108.90003 -28.211981 -120.60477
12500000000 -26.423397 -115.33882 -0.73677498 106.88644 -0.73843867 106.88366 -28.403067 -124.80204
12600000000 -26.294378 -117.55189 -0.73240459 104.9067 -0.73481214 104.89009 -28.483347 -126.14895
12700000000 -26.455757 -118.79562 -0.72948396 102.89764 -0.73118401 102.88616 -28.518806 -129.63097
12800000000 -26.193853 -120.80289 -0.72823358 100.87585 -0.72818917 100.85511 -28.79863 -130.67429
12900000000 -26.335627 -121.86231 -0.72628617 98.857506 -0.72607172 98.849907 -28.914577 -134.28508
13000000000 -26.134678 -122.19169 -0.7255736 96.843582 -0.72627485 96.801346 -29.314722 -135.39549
13100000000 -26.422438 -123.4934 -0.72524142 94.791588 -0.72309321 94.779106 -29.385548 -139.41388
13200000000 -26.338097 -123.89806 -0.72074109 92.776947 -0.72197247 92.741478 -29.659834 -140.5815
13300000000 -26.523563 -126.40238 -0.72063172 90.720963 -0.72173434 90.717621 -29.730238 -142.30939
13400000000 -26.47435 -125.96519 -0.72347391 88.709526 -0.72203732 88.695816 -30.441776 -142.4924
13500000000 -26.472681 -128.68529 -0.72179121 86.681061 -0.72135264 86.647629 -30.708042 -145.36612
13600000000 -26.482065 -127.52641 -0.72077745 84.635338 -0.72183067 84.625832 -31.575632 -147.40837
13700000000 -26.47649 -129.57098 -0.72108614 82.593224 -0.72470945 82.582619 -31.574621 -151.98613
13800000000 -26.793489 -128.41515 -0.72740746 80.545372 -0.72529799 80.518379 -31.978239 -153.45747
13900000000 -26.723194 -130.94987 -0.73027647 78.489838 -0.73036593 78.463394 -31.786648 -153.33543
14000000000 -26.975294 -130.47501 -0.7400701 76.427902 -0.73788697 76.403015 -32.528759 -149.90291
14100000000 -26.269915 -131.98909 -0.76141423 74.424423 -0.75979203 74.420135 -31.882767 -148.00861
14200000000 -26.379715 -136.2688 -0.75967914 72.615334 -0.76165116 72.602859 -32.291962 -156.27893
14300000000 -26.373005 -138.08586 -0.74136382 70.594688 -0.74106967 70.580864 -32.635891 -164.38857
14400000000 -27.137693 -139.21109 -0.73507643 68.548752 -0.73681885 68.523842 -33.831154 -169.82567
14500000000 -27.214674 -138.58908 -0.73559612 66.461754 -0.7390815 66.459023 -33.736008 -169.29575
14600000000 -27.839754 -141.24454 -0.73924172 64.394463 -0.7421422 64.38118 -34.524345 -169.76001
14700000000 -27.676195 -139.70955 -0.74906117 62.334255 -0.74859422 62.31588 -35.080391 -163.69225
14800000000 -27.307606 -143.51868 -0.76950449 60.342728 -0.77389014 60.330215 -35.268013 -165.27251
14900000000 -27.523781 -145.94989 -0.76160425 58.475395 -0.76293403 58.461769 -35.003666 -176.87189
15000000000 -28.011383 -147.24916 -0.75812912 56.458447 -0.75919139 56.435051 -36.6035 174.44315
15100000000 -28.442785 -143.39178 -0.75250256 54.425781 -0.75407404 54.405056 -37.270721 -178.44693
15200000000 -28.49568 -145.87898 -0.75425112 52.375843 -0.75448364 52.355587 -37.928013 -175.87108
15300000000 -29.090645 -147.30716 -0.75133544 50.391129 -0.75520313 50.380634 -38.492676 -172.81412
15400000000 -28.909817 -150.29285 -0.75094771 48.326836 -0.7537002 48.296169 -40.689846 -175.93146
15500000000 -29.2253 -148.51619 -0.75035691 46.29752 -0.7523939 46.28656 -41.571056 -173.43636
15600000000 -28.923649 -150.24965 -0.75654447 44.2616 -0.75803077 44.223377 -42.879742 171.41339
15700000000 -29.703865 -148.12634 -0.75732595 42.242329 -0.75882113 42.205078 -42.554939 -178.41803
15800000000 -29.876551 -150.04008 -0.76136738 40.224068 -0.76071596 40.219692 -43.730526 -174.8678
15900000000 -30.796803 -151.14723 -0.76459259 38.174381 -0.76458025 38.185196 -43.711121 -156.17677
16000000000 -30.506987 -153.08517 -0.76494604 36.179718 -0.76609308 36.141727 -46.824383 -158.47598
16100000000 -31.17148 -155.9133 -0.76612645 34.143246 -0.77108055 34.134575 -48.534374 -141.84804
16200000000 -30.736567 -153.69395 -0.77009261 32.134136 -0.77321333 32.118832 -54.332169 -162.48921
16300000000 -31.878777 -155.8119 -0.77424651 30.104439 -0.77580386 30.112782 -52.937614 -136.59373
16400000000 -32.229858 -151.57506 -0.77884102 28.08231 -0.77956331 28.077322 -57.348148 -162.66156
16500000000 -33.541451 -157.95737 -0.77722067 26.068155 -0.78295493 26.068029 -49.236809 -113.66275
16600000000 -33.471279 -155.08987 -0.77808851 24.074564 -0.78248405 24.052759 -51.792637 -90.077782
16700000000 -33.736755 -162.68732 -0.78400004 22.045412 -0.78547376 22.042953 -46.309006 -74.648285
16800000000 -34.349533 -154.35075 -0.78677303 20.058178 -0.78758287 20.038754 -48.385853 -50.252781
16900000000 -34.649761 -158.85707 -0.78850311 18.047037 -0.79102707 18.025368 -46.097446 -60.741421
17000000000 -36.892143 -146.43466 -0.78954554 16.030468 -0.79425293 16.017714 -48.253696 -66.372246
17100000000 -36.729206 -155.59286 -0.79257774 14.055158 -0.79435927 14.018863 -45.063221 -71.153473
17200000000 -39.559345 -149.32549 -0.79278058 12.047915 -0.79119039 12.030881 -45.902267 -76.787537
17300000000 -37.576385 -151.72203 -0.7912156 10.044806 -0.79602182 10.001918 -41.349369 -68.50975
17400000000 -39.26915 -145.1476 -0.79691738 8.0180502 -0.80093449 7.9938211 -42.140945 -68.974777
17500000000 -37.837711 -140.54727 -0.7930851 6.0184913 -0.80388647 5.9838843 -40.182354 -58.390701
17600000000 -40.891083 -128.31085 -0.79754937 4.0311055 -0.79764426 4.0044131 -43.861332 -65.875069
17700000000 -39.330544 -119.92135 -0.80069858 1.9763782 -0.80670238 1.9562997 -41.309719 -64.428993
17800000000 -42.74588 -111.12423 -0.80666405 -0.033178058 -0.80318195 -0.05337603 -42.282207 -80.514709
17900000000 -40.201679 -101.38749 -0.8034389 -2.0088952 -0.80606318 -2.0482035 -39.381081 -82.09626
18000000000 -41.622478 -107.55298 -0.80228853 -4.0379996 -0.8058821 -4.0605264 -38.845638 -84.926086
18100000000 -39.096027 -97.486763 -0.80675757 -6.0198283 -0.80558509 -6.0588865 -37.221775 -71.583977
18200000000 -39.96777 -96.052704 -0.80378711 -8.0486746 -0.80276465 -8.0609045 -38.348202 -73.363068
18300000000 -38.041241 -79.796059 -0.80273223 -10.061586 -0.8067314 -10.096561 -38.549179 -65.120216
18400000000 -38.689568 -77.958595 -0.80170846 -12.074162 -0.80723298 -12.068019 -40.608601 -80.325653
18500000000 -37.409119 -66.32122 -0.804546 -14.050973 -0.80427903 -14.068001 -39.443031 -84.625893
18600000000 -37.268776 -66.932388 -0.80535948 -16.100994 -0.80898118 -16.14159 -38.156994 -98.511299
18700000000 -35.722885 -61.737362 -0.80107117 -18.087391 -0.80313647 -18.129765 -36.810856 -88.178528
18800000000 -35.573605 -68.992493 -0.80398524 -20.109709 -0.80675912 -20.15398 -36.260471 -85.329247
18900000000 -34.234249 -59.666977 -0.80064631 -22.108004 -0.80403602 -22.146416 -36.165398 -74.999634
19000000000 -34.128422 -61.836605 -0.80364603 -24.120857 -0.80114186 -24.155121 -38.385693 -73.823341
19100000000 -33.174652 -55.722023 -0.79901958 -26.130907 -0.80274564 -26.165092 -38.382702 -77.447487
19200000000 -33.254555 -59.553692 -0.79826951 -28.144117 -0.8028537 -28.179991 -39.584026 -94.882843
19300000000 -32.532867 -55.679928 -0.80016476 -30.184246 -0.80090773 -30.178642 -37.751976 -95.757584
19400000000 -31.938078 -63.427841 -0.80036676 -32.206669 -0.80294091 -32.232143 -37.312111 -104.66612
19500000000 -31.761927 -59.223862 -0.79712605 -34.221622 -0.80089158 -34.234844 -36.705585 -93.433693
19600000000 -30.822632 -62.972412 -0.79677838 -36.256886 -0.79814446 -36.271935 -37.327583 -99.549118
19700000000 -31.18965 -57.717777 -0.79491597 -38.245266 -0.79955292 -38.276218 -37.87038 -90.831894
19800000000 -30.266478 -61.663227 -0.79657185 -40.296345 -0.79624379 -40.295429 -38.677177 -110.23976
19900000000 -31.008965 -59.74575 -0.79199612 -42.302601 -0.79349434 -42.337284 -38.74667 -102.42021
20000000000 -29.766607 -65.018723 -0.79892784 -44.31744 -0.7987377 -44.368034 -38.339832 -114.51589
20100000000 -30.42642 -65.03672 -0.79694819 -46.385719 -0.79555386 -46.373356 -39.460148 -99.654449
20200000000 -29.023046 -64.438652 -0.79659456 -48.41901 -0.79691333 -48.388607 -39.087761 -109.21411
20300000000 -29.346214 -66.091698 -0.79773909 -50.445827 -0.80426902 -50.463821 -41.753269 -100.36718
20400000000 -28.523706 -62.766571 -0.79563564 -52.475418 -0.79307109 -52.516254 -40.406078 -120.86958
20500000000 -28.786974 -68.690712 -0.79880214 -54.513866 -0.80246973 -54.522263 -42.208649 -118.82458
20600000000 -28.318321 -64.960152 -0.79916614 -56.597103 -0.80093235 -56.59285 -39.090366 -117.65464
20700000000 -27.915062 -71.596703 -0.80118573 -58.591393 -0.80503732 -58.639263 -41.133007 -99.831062
20800000000 -27.545349 -67.145126 -0.81685972 -60.64275 -0.81492436 -60.652634 -39.137264 -89.91684
20900000000 -26.733253 -72.456062 -0.82554704 -62.642193 -0.8261137 -62.653519 -40.802425 -68.804756
21000000000 -26.707808 -72.790329 -0.83919573 -64.533791 -0.83747417 -64.561638 -39.778767 -92.103699
21100000000 -26.225246 -77.142525 -0.82278556 -66.453194 -0.82495731 -66.483849 -43.224758 -109.91258
21200000000 -26.986532 -77.913551 -0.80913776 -68.516701 -0.81455213 -68.572876 -40.79932 -129.24164
21300000000 -26.500708 -78.930916 -0.80700755 -70.564606 -0.80643344 -70.60746 -42.512875 -134.7034
21400000000 -26.927704 -81.770798 -0.8099125 -72.674911 -0.80950576 -72.714699 -41.378399 -111.85432
21500000000 -26.064743 -82.016747 -0.81036264 -74.717476 -0.81310725 -74.75898 -41.511616 -95.539307
21600000000 -26.07951 -83.597298 -0.8249501 -76.753822 -0.8293345 -76.787117 -40.271584 -81.347824
21700000000 -25.456863 -84.172966 -0.82960051 -78.691193 -0.83094436 -78.714684 -43.046371 -77.829002
21800000000 -25.762978 -87.145363 -0.82606488 -80.643333 -0.82341129 -80.631508 -45.488346 -106.96353
21900000000 -25.819277 -87.706635 -0.81432641 -82.630165 -0.81711 -82.694672 -53.659752 -137.28073
22000000000 -26.296095 -90.825096 -0.81292152 -84.711899 -0.81445408 -84.747833 -46.296227 -147.29163
22100000000 -25.94095 -90.824844 -0.80979085 -86.743164 -0.81391048 -86.807671 -47.905098 -126.4715
22200000000 -26.203625 -93.81237 -0.822047 -88.866768 -0.8237946 -88.911247 -43.646156 -108.00333
22300000000 -25.821379 -92.850204 -0.82556647 -90.917885 -0.82864863 -90.933632 -45.018845 -75.214386
22400000000 -26.070641 -97.553131 -0.83684516 -92.836182 -0.83413821 -92.856667 -43.885925 -86.758072
22500000000 -26.088535 -95.30481 -0.82509881 -94.82473 -0.8293041 -94.857742 -61.750885 -27.184072
22600000000 -26.394028 -100.63042 -0.82892936 -96.820953 -0.82703054 -96.853653 -58.607357 -121.11013
22700000000 -26.404272 -97.922173 -0.82453948 -98.835266 -0.82632661 -98.87751 -57.49271 65.429283
22800000000 -25.86161 -104.65399 -0.82705623 -100.91364 -0.82594025 -100.92038 -50.369324 -97.986397
22900000000 -26.24662 -102.38334 -0.82420582 -102.91091 -0.82705468 -102.95554 -54.819778 -52.605652
23000000000 -25.622038 -106.53325 -0.83032906 -104.98416 -0.83043063 -105.00391 -44.857346 -63.722141
23100000000 -26.544706 -106.01691 -0.81538099 -107.00891 -0.82150334 -107.00037 -47.702435 0.31745908
23200000000 -25.891621 -107.38062 -0.82712829 -109.01841 -0.82982486 -109.05027 -47.933029 -33.653305
23300000000 -26.879856 -111.62944 -0.82298797 -111.06448 -0.82933789 -111.09411 -55.094025 25.217022
23400000000 -26.264269 -111.65752 -0.83159822 -113.07764 -0.8359341 -113.08775 -45.840008 -84.306984
23500000000 -26.772411 -118.98309 -0.83744591 -115.13634 -0.83846092 -115.17169 -47.553513 -102.00362
23600000000 -26.315355 -114.26339 -0.83834475 -117.17252 -0.84371018 -117.1741 -40.042301 -69.943542
23700000000 -26.419514 -122.56065 -0.84141815 -119.1413 -0.8429426 -119.18672 -44.104656 -48.351166
23800000000 -26.714165 -117.94439 -0.84140021 -121.20339 -0.84685433 -121.25259 -43.213417 -29.973251
23900000000 -26.382221 -126.1176 -0.84446597 -123.17841 -0.84525841 -123.21835 -52.372448 42.699909
24000000000 -27.474693 -126.38484 -0.84791028 -125.23096 -0.85103667 -125.24661 -57.130516 -142.6017
24100000000 -26.787699 -131.74893 -0.85171598 -127.29299 -0.85004455 -127.31187 -43.990685 -164.40176
24200000000 -27.663792 -133.24884 -0.84935451 -129.28093 -0.85004109 -129.29922 -43.037868 -109.41789
24300000000 -26.731216 -133.71344 -0.85248107 -131.32419 -0.85628575 -131.34689 -40.598827 -103.58975
24400000000 -27.820618 -137.27324 -0.85017771 -133.29254 -0.85150152 -133.33305 -41.807835 -62.002594
24500000000 -27.585396 -136.14867 -0.8538928 -135.29858 -0.85479563 -135.35851 -52.972523 -43.994781
24600000000 -28.519762 -146.4095 -0.85739911 -137.35588 -0.85970628 -137.38678 -48.126427 46.043064
24700000000 -28.501369 -145.65839 -0.8610099 -139.37978 -0.86776656 -139.38116 -44.029911 133.38931
24800000000 -28.454132 -156.8119 -0.86441803 -141.40244 -0.86838812 -141.4469 -43.670738 154.67412
24900000000 -28.959892 -153.64023 -0.86567569 -143.40189 -0.86301613 -143.43677 -41.311581 176.72755
25000000000 -29.012213 -160.53412 -0.86143881 -145.45135 -0.86568767 -145.47127 -45.796036 -159.83104
25100000000 -29.99062 -159.44154 -0.85735244 -147.44189 -0.85802263 -147.44733 -51.569778 153.68449
25200000000 -30.442724 -168.36098 -0.86257344 -149.42126 -0.86245441 -149.45938 -48.255806 73.160355
25300000000 -31.357182 -173.35619 -0.87001789 -151.43936 -0.86542827 -151.47229 -41.087154 110.17379
25400000000 -30.714952 175.819 -0.86743939 -153.49873 -0.86582041 -153.50195 -39.849926 106.82378
25500000000 -31.29793 172.83763 -0.86978859 -155.51677 -0.87301975 -155.54745 -37.98687 116.24917
25600000000 -30.657562 168.11469 -0.87156063 -157.5659 -0.8734616 -157.5992 -38.812626 114.12157
25700000000 -31.881594 164.50862 -0.87157738 -159.58659 -0.87179887 -159.61397 -38.322666 113.51979
25800000000 -31.623638 158.64325 -0.87782139 -161.62181 -0.87745482 -161.61371 -37.759258 97.442978
25900000000 -33.334034 143.90105 -0.86700702 -163.61111 -0.87968361 -163.62335 -36.814896 98.126038
26000000000 -32.370861 141.46126 -0.8722229 -165.57617 -0.87693751 -165.6857 -35.285809 91.064369
26100000000 -32.514256 120.17088 -0.88392496 -167.62047 -0.88597417 -167.67242 -34.169117 98.534477
26200000000 -32.256271 126.14854 -0.87379652 -169.71156 -0.88555264 -169.71889 -33.533596 88.41671
26300000000 -31.067234 108.27648 -0.88173145 -171.67497 -0.89287382 -171.70876 -33.541817 99.777161
26400000000 -32.443138 112.52276 -0.88301128 -173.71927 -0.88980389 -173.74246 -32.882046 82.557098
26500000000 -30.017967 100.48387 -0.87862688 -175.68677 -0.88769412 -175.79369 -32.530865 91.366417
26600000000 -31.847733 91.225052 -0.87339354 -177.68761 -0.9035269 -177.78506 -31.423561 81.074341
26700000000 -29.533041 89.307518 -0.88743752 -179.72981 -0.89382488 -179.75116 -31.172806 84.211517
26800000000 -30.925676 76.325432 -0.88182247 178.27466 -0.87890798 178.19884 -29.94862 79.119362
26900000000 -28.747789 82.415314 -0.89386052 176.24332 -0.9065482 176.09244 -30.970875 85.16597
27000000000 -29.312201 65.837708 -0.8955403 174.18109 -0.88067108 174.14854 -29.250767 75.628807
27100000000 -28.623749 70.155968 -0.92500275 172.20302 -0.91686213 172.18434 -29.944691 77.780708
27200000000 -26.982012 59.26474 -0.9181357 169.96416 -0.91924298 170.00406 -28.064707 71.54084
27300000000 -28.075766 63.988346 -0.90729845 168.03302 -0.89904159 168.02931 -29.077984 70.333282
27400000000 -26.115988 55.646683 -0.92493838 166.02711 -0.91470879 165.95146 -27.111399 66.318985
27500000000 -27.743458 53.644039 -0.91179234 164.02351 -0.90539056 163.96552 -27.843374 63.797504
27600000000 -25.832697 49.766888 -0.92513663 161.99292 -0.92784637 161.97789 -26.47897 67.460182
27700000000 -26.531401 39.877922 -0.90891898 160.04771 -0.91710097 160.05077 -27.608723 62.999222
27800000000 -24.771385 41.965736 -0.92545503 158.05873 -0.92096907 157.97086 -26.395617 64.948196
27900000000 -24.902924 36.772091 -0.92920303 156.01277 -0.91276097 155.9978 -27.453882 55.692123
28000000000 -24.179516 39.975285 -0.91346371 153.92642 -0.94212383 153.95671 -25.878685 57.285126
28100000000 -24.39476 30.86128 -0.91366947 151.88585 -0.93038082 151.85487 -25.538904 50.109734
28200000000 -23.9419 33.786232 -0.93707424 150.00682 -0.95013314 149.88641 -25.052341 53.574669
28300000000 -23.211639 22.755123 -0.92635018 147.97028 -0.93892598 147.90276 -25.122242 47.093987
28400000000 -23.062807 24.308023 -0.96131438 146.00761 -0.93528485 145.97618 -24.673464 49.893532
28500000000 -22.68178 20.182528 -0.92342681 143.82291 -0.91964924 143.8959 -24.761444 43.670849
28600000000 -22.627981 21.752281 -0.92072141 141.92845 -0.93083048 141.82288 -24.182953 45.16819
28700000000 -22.240911 19.061914 -0.93194705 139.93765 -0.9120692 139.74951 -23.942169 39.742023
28800000000 -22.334957 19.270334 -0.94555855 137.77504 -0.9381057 137.64748 -23.236563 42.627819
28900000000 -21.479317 12.050384 -0.95071697 135.7506 -0.93763697 135.75024 -23.380171 37.106636
29000000000 -21.666843 10.651429 -0.95573628 133.71271 -0.95016861 133.56058 -23.339596 36.00478
29100000000 -20.770306 6.9627881 -0.94890779 131.71831 -0.95258033 131.72697 -23.094292 28.168699
29200000000 -21.19677 3.5847416 -0.96648151 129.81831 -0.94017458 129.80122 -22.367088 31.103445
29300000000 -20.623499 6.4941044 -0.94620836 127.70937 -0.94004244 127.79033 -22.066504 26.790749
29400000000 -21.065666 2.959938 -0.94495583 125.70844 -0.9638232 125.78806 -21.875309 33.243938
29500000000 -20.426804 1.5821285 -0.94122672 123.71679 -0.9503957 123.71432 -21.883142 27.689728
29600000000 -20.69375 -6.8926468 -0.96095264 121.68989 -0.9477762 121.6636 -22.026266 31.481152
29700000000 -20.148804 -0.032099649 -0.96230644 119.8122 -0.94775331 119.61414 -22.150251 21.300535
29800000000 -20.071922 -9.0803938 -0.94346493 117.58376 -0.9532209 117.62116 -22.183342 24.014282
29900000000 -20.232058 -3.7837677 -0.9633795 115.62326 -0.94926983 115.44796 -21.092237 13.857525
30000000000 -19.667391 -8.6877441 -0.96199274 113.51885 -0.98691994 113.67812 -21.267908 18.296482
30100000000 -20.254147 -7.5504823 -0.98574001 111.53732 -0.96534985 111.56079 -20.550919 13.699196
30200000000 -19.496847 -14.770211 -0.96632242 109.63863 -0.96500295 109.64259 -21.325928 17.955956
30300000000 -20.144356 -14.929783 -0.96046954 107.59042 -0.98256576 107.50394 -20.693218 12.88764
30400000000 -18.895844 -16.388308 -0.96180248 105.64423 -0.99986035 105.56839 -21.61474 11.608718
30500000000 -19.797287 -21.032391 -0.96139222 103.55972 -0.97557509 103.47976 -20.66814 5.441288
30600000000 -19.113485 -18.660095 -0.9744916 101.53754 -0.96825302 101.47964 -21.38039 5.0102649
30700000000 -19.420504 -23.925167 -0.98837411 99.535812 -0.978908 99.546791 -20.167286 3.0332568
30800000000 -19.314669 -22.967274 -0.97823125 97.608994 -1.0036477 97.621277 -20.853216 2.687412
30900000000 -19.248838 -29.715115 -0.97637302 95.455887 -0.98801982 95.504204 -20.179909 1.3620811
31000000000 -19.000584 -26.558054 -0.95788783 93.653084 -0.99436891 93.50222 -20.778313 -2.3613932
31100000000 -18.945253 -34.444069 -0.96870953 91.450996 -0.97232211 91.660774 -20.56613 -5.7969308
31200000000 -19.11241 -31.061132 -1.0086763 89.461197 -0.98040301 89.509743 -20.530258 -11.072967
31300000000 -18.707956 -35.487122 -0.96758473 87.576309 -0.97083604 87.382317 -20.224682 -10.791202
31400000000 -19.340076 -34.839371 -0.95950663 85.486374 -0.99337113 85.427956 -20.31698 -12.421192
31500000000 -19.226328 -36.99564 -0.98152983 83.56369 -0.97762591 83.539909 -19.905792 -10.133432
31600000000 -19.769543 -37.9459 -0.9825846 81.538879 -0.98506445 81.364357 -20.50703 -13.090191
31700000000 -19.48398 -41.400978 -1.0077667 79.438705 -0.98855156 79.382942 -20.722326 -13.135372
31800000000 -19.688465 -41.684078 -0.98195821 77.321434 -0.97642291 77.303162 -21.069887 -20.449896
31900000000 -19.135456 -44.701275 -0.98218572 75.360832 -0.96360534 75.364944 -20.575081 -22.552586
32000000000 -19.75539 -45.029846 -0.98156261 73.352058 -0.96219242 73.351616 -20.687635 -25.123333
32100000000 -19.44742 -46.631126 -0.98187935 71.359154 -0.97182089 71.314461 -20.275759 -24.83135
32200000000 -20.116495 -48.245205 -0.99084228 69.487068 -0.99973941 69.229454 -20.914803 -23.802355
32300000000 -20.178467 -48.284714 -0.98972571 67.217712 -0.9970336 67.233154 -20.962687 -23.574114
32400000000 -20.697077 -54.34985 -0.97174996 65.130791 -0.99604177 65.358047 -22.047276 -30.055746
32500000000 -20.288593 -54.115204 -0.96693105 63.279648 -0.98613989 63.266766 -21.464636 -32.351425
32600000000 -20.534197 -58.146076 -0.99150348 61.34354 -0.98974162 61.206543 -21.602114 -39.035873
32700000000 -20.876638 -51.785656 -0.96261626 59.270977 -1.0149232 59.067184 -21.36762 -36.437099
32800000000 -21.138964 -60.105652 -0.97018903 57.138336 -0.98434776 57.096039 -21.007172 -41.733109
32900000000 -22.044132 -55.671432 -0.92991483 55.204926 -0.96608251 55.175968 -21.396248 -36.283203
33000000000 -21.298582 -66.535606 -0.99062508 53.172615 -0.95685291 53.008568 -22.142759 -40.525517
33100000000 -22.566168 -62.575306 -0.96403873 51.098251 -0.98899072 51.17374 -22.837662 -41.78056
33200000000 -21.717218 -67.21067 -0.93786955 49.07782 -0.9617492 48.843887 -22.70867 -52.126305
33300000000 -23.226458 -65.625443 -0.98505503 46.946144 -0.96609867 46.905426 -22.947424 -51.285744
33400000000 -22.551134 -65.470078 -0.97137994 44.961205 -0.97654772 44.900284 -22.55662 -51.990959
33500000000 -23.755255 -70.964569 -0.98720646 42.864407 -0.97681773 42.948895 -23.31848 -51.080505
33600000000 -24.031628 -65.835548 -0.96290672 40.849453 -0.96847463 40.907444 -23.636709 -58.043869
33700000000 -24.732077 -69.72171 -1.0102361 38.902653 -0.97728354 39.053345 -24.995134 -56.05994
33800000000 -25.014439 -63.748547 -0.99735183 36.831657 -0.95662028 36.626823 -25.865404 -63.524803
33900000000 -25.351059 -74.662346 -0.9909389 34.629513 -0.95740467 34.727146 -26.168324 -63.710876
34000000000 -26.291475 -67.105164 -0.96741003 32.699318 -0.97632599 32.673801 -25.956543 -58.36771
34100000000 -26.6231 -73.054878 -0.99473929 30.691137 -0.9627468 30.614212 -26.348976 -61.764412
34200000000 -28.622112 -61.422874 -1.0129021 28.721113 -0.96888751 28.657606 -27.318647 -63.583271
34300000000 -28.857637 -71.062874 -0.99289775 26.679939 -0.96996248 26.593889 -30.780483 -66.602882
34400000000 -31.129265 -59.218739 -0.99581254 24.680374 -0.96735668 24.617073 -30.748453 -70.395447
34500000000 -29.985224 -61.376518 -0.95263642 22.477808 -0.97751534 22.475231 -31.541801 -78.687302
34600000000 -32.032864 -48.753651 -0.93448681 20.402021 -0.99118835 20.429064 -30.712967 -73.393929
34700000000 -32.587139 -39.128956 -0.9741835 18.359156 -0.99181509 18.389692 -32.694496 -74.371216
34800000000 -33.460392 -29.300091 -1.0152159 16.151033 -0.99439555 16.309429 -35.34235 -64.416458
34900000000 -34.230881 -18.522884 -0.98949617 14.229344 -0.98066479 14.359838 -46.660526 -39.236931
35000000000 -33.406631 -1.7455742 -1.0112869 12.366062 -0.99995518 12.276563 -45.945961 129.60809
35100000000 -32.626232 3.8515253 -0.99038768 10.16458 -1.0203317 10.148484 -46.901833 165.58138
35200000000 -33.189301 20.83342 -0.99344271 8.0656843 -0.98520929 7.8274345 -45.605824 -179.66786
35300000000 -31.62664 12.7983 -1.003816 6.2409329 -1.0427614 5.8019757 -42.887394 119.4791
35400000000 -29.433424 38.583679 -1.0342569 4.0710912 -1.0127136 4.0916944 -42.086147 75.080376
35500000000 -27.476887 30.808111 -1.0360156 1.994047 -1.030884 1.8565458 -35.271854 88.0028
35600000000 -27.705883 41.349152 -1.0140339 -0.31354466 -1.0428361 -0.32117677 -30.540941 80.741356
35700000000 -25.593887 34.087933 -1.0434704 -2.2387826 -1.0243012 -2.1542776 -29.051453 86.696442
35800000000 -26.628477 38.643536 -1.0493529 -4.123136 -1.0433186 -4.1133084 -29.011202 87.164833
35900000000 -23.553432 32.120426 -1.0476245 -6.2016592 -1.0204427 -6.470511 -28.93787 88.977699
36000000000 -24.639406 33.923275 -1.055446 -8.0685577 -1.0601792 -8.1066799 -27.948837 76.784767
36100000000 -21.804388 38.235146 -1.0665675 -10.335814 -1.0606999 -10.092106 -25.933914 76.222908
36200000000 -23.559231 34.021172 -1.0514896 -12.06332 -1.0578043 -12.135125 -25.569803 70.731682
36300000000 -21.041401 38.982166 -1.06363 -14.545861 -1.0373982 -14.481985 -23.775469 76.083435
36400000000 -22.088169 31.126993 -0.97742099 -16.376921 -1.0859343 -16.722965 -24.665581 67.4188
36500000000 -20.621241 33.984161 -1.0915774 -18.689859 -1.0698247 -18.642305 -22.711283 72.935913
36600000000 -20.193632 26.406944 -1.0659974 -20.608301 -1.0375856 -20.656857 -21.783241 62.250507
36700000000 -19.61952 33.456284 -1.1055915 -22.402767 -1.0985124 -22.393524 -21.369341 65.44574
36800000000 -18.428596 27.609571 -1.0892435 -24.533949 -1.0658211 -24.827349 -19.861418 59.855289
36900000000 -18.805666 33.778652 -1.0883375 -26.659584 -1.0837357 -26.612131 -19.476831 65.022629
37000000000 -17.344711 24.212631 -1.1129379 -28.678547 -1.0913035 -28.555487 -19.122995 60.464809
37100000000 -18.000046 25.87879 -1.125214 -30.877605 -1.1653498 -30.782061 -20.250305 59.999969
37200000000 -16.870758 22.359272 -1.1120878 -32.695332 -1.1282573 -32.523823 -19.305216 55.009953
37300000000 -16.995728 23.128916 -1.155887 -34.459637 -1.1168661 -34.810326 -18.546783 49.810253
37400000000 -15.859303 22.824621 -1.1074501 -36.606148 -1.1185085 -36.829887 -17.434328 46.027958
37500000000 -16.376497 20.808149 -1.1357908 -39.105122 -1.1347805 -38.912285 -16.942074 46.249161
37600000000 -15.808466 19.0168 -1.1460676 -41.012691 -1.158388 -40.902935 -16.646563 48.500534
37700000000 -15.858086 14.192617 -1.1541966 -42.852722 -1.1733533 -43.229103 -16.693954 46.322876
37800000000 -15.048537 14.066013 -1.1824566 -45.008568 -1.1902047 -45.02734 -16.819319 43.923714
37900000000 -14.7026 13.656003 -1.1448002 -46.97028 -1.1784303 -46.931923 -16.917435 40.8507
38000000000 -14.384788 13.374554 -1.1825389 -48.867355 -1.2136855 -48.922398 -15.850622 35.021751
38100000000 -14.477943 11.454673 -1.1737342 -50.84277 -1.2282064 -51.134068 -15.446543 35.610413
38200000000 -14.167881 10.332086 -1.2201588 -52.965614 -1.1955019 -53.209938 -15.108909 31.879042
38300000000 -14.042039 6.2546678 -1.2228392 -54.987568 -1.2547474 -55.155121 -14.752579 34.474449
38400000000 -13.608533 7.2248836 -1.2589896 -56.898506 -1.2369875 -56.904873 -14.887656 33.687618
38500000000 -13.707232 2.4087586 -1.2692081 -59.072956 -1.2385144 -59.079975 -14.971809 32.275093
38600000000 -13.388089 4.3822694 -1.2765051 -60.848709 -1.2398139 -60.925266 -14.576032 24.857479
38700000000 -13.027009 2.1626191 -1.2870553 -63.102226 -1.2812123 -63.00597 -14.284831 23.567867
38800000000 -13.211227 3.898833 -1.2347915 -65.043106 -1.2872804 -65.004745 -13.698505 21.82239
38900000000 -12.798024 -1.6582052 -1.2640709 -67.042961 -1.2818434 -66.724777 -13.991317 22.416601
39000000000 -13.093676 -1.6447752 -1.317667 -68.522133 -1.3385489 -69.041969 -13.245182 21.427282
39100000000 -12.312764 -5.0313663 -1.2948688 -70.970505 -1.2779894 -70.964417 -14.168894 16.735462
39200000000 -12.82634 -7.3030057 -1.316955 -72.928619 -1.3411589 -72.483948 -13.250779 13.760398
39300000000 -11.876971 -8.0818338 -1.2802997 -74.803551 -1.3498927 -74.952408 -13.460749 9.4964514
39400000000 -12.713506 -10.089954 -1.3235441 -76.437279 -1.3321638 -76.693123 -12.587991 14.025507
39500000000 -12.141668 -8.4624805 -1.2892947 -79.032959 -1.3411028 -79.066505 -12.818285 9.8411198
39600000000 -12.447321 -14.168393 -1.312924 -80.507324 -1.3381889 -80.705101 -12.452562 11.91948
39700000000 -12.032611 -12.71677 -1.2981092 -82.609566 -1.3723179 -82.705536 -13.161099 7.6650281
39800000000 -11.876966 -18.271004 -1.3305367 -84.868118 -1.3395101 -84.785881 -12.838978 4.3358674
39900000000 -11.880857 -15.08518 -1.3787432 -86.791626 -1.3998187 -86.825577 -12.923143 -2.8555968
40000000000 -11.688894 -19.673069 -1.3604534 -88.56604 -1.3665663 -88.995644 -12.142782 -0.22463539
40100000000 -12.066339 -17.762716 -1.3596865 -90.710419 -1.3914906 -90.587532 -11.798148 -3.1898265
40200000000 -11.581562 -21.816954 -1.3807043 -92.477242 -1.355824 -92.396126 -11.891407 -0.66781974
40300000000 -12.21941 -24.149321 -1.3709779 -94.680367 -1.3782073 -94.307396 -11.989881 -3.168623
40400000000 -11.367642 -24.657114 -1.3788108 -96.359253 -1.3732916 -96.775444 -12.507635 -4.885088
40500000000 -11.718492 -26.581062 -1.3848913 -98.515854 -1.3682492 -98.353317 -12.274405 -9.8345919
40600000000 -11.138542 -25.418331 -1.3804126 -100.52069 -1.3613797 -100.64429 -12.136912 -11.823839
40700000000 -11.626787 -29.814411 -1.4081825 -102.52518 -1.3256665 -102.47061 -11.652779 -14.936851
40800000000 -11.550217 -29.153696 -1.3522756 -104.19685 -1.339039 -104.16335 -11.33637 -14.596768
40900000000 -11.359482 -32.827206 -1.3914599 -106.24016 -1.3162041 -106.1795 -11.722388 -14.842119
41000000000 -11.367517 -34.504185 -1.3630899 -108.15681 -1.3722992 -108.16947 -12.037224 -16.417253
41100000000 -11.25031 -33.775635 -1.3440815 -109.87593 -1.3829589 -110.3515 -12.082789 -19.36001
41200000000 -11.488251 -35.82946 -1.3668141 -112.26544 -1.3447063 -112.16744 -11.945386 -21.554573
41300000000 -11.467589 -36.930279 -1.3390887 -113.89598 -1.3540707 -114.27863 -12.000484 -23.942379
41400000000 -11.543024 -38.381275 -1.3161381 -116.39877 -1.3094097 -116.10337 -11.626348 -25.210258
41500000000 -11.695447 -41.499233 -1.298542 -118.17884 -1.3402889 -118.14748 -11.470505 -29.327532
41600000000 -11.502612 -40.473682 -1.3021013 -120.06965 -1.309238 -120.43526 -11.85183 -27.563824
41700000000 -11.88393 -44.296459 -1.2853649 -121.95349 -1.3934604 -122.30888 -11.969902 -32.169018
41800000000 -11.624561 -43.031506 -1.3523335 -124.67744 -1.3195617 -124.47723 -12.094377 -31.739016
41900000000 -11.814096 -46.596535 -1.3222821 -126.34436 -1.3382058 -126.17184 -12.288191 -35.355507
42000000000 -12.237807 -46.051178 -1.3186407 -128.04176 -1.3253702 -128.47188 -12.268065 -35.601742
42100000000 -11.638941 -47.93803 -1.333081 -129.89644 -1.3883759 -130.12019 -12.295013 -40.305882
42200000000 -12.478377 -49.755692 -1.3036937 -132.00667 -1.3118286 -132.04614 -12.559443 -41.052124
42300000000 -12.239688 -49.81123 -1.3480395 -134.235 -1.3527803 -134.01894 -11.9759 -41.936974
42400000000 -12.571041 -51.230949 -1.3455845 -135.75299 -1.3855326 -135.89142 -12.548984 -43.501671
42500000000 -12.218492 -52.146164 -1.2794166 -137.77237 -1.3331578 -138.05263 -12.713104 -46.314976
42600000000 -12.463619 -56.510036 -1.2910322 -139.71022 -1.2873143 -139.73407 -13.3106 -48.259953
42700000000 -12.852956 -55.255684 -1.2645408 -141.42374 -1.3084164 -142.19008 -12.69231 -52.455269
42800000000 -13.194025 -61.319908 -1.2349195 -143.85466 -1.2647625 -144.16324 -13.241336 -54.544479
42900000000 -13.49012 -53.881767 -1.2473474 -145.6689 -1.1898063 -145.93707 -12.683297 -52.590149
43000000000 -13.383363 -61.947052 -1.2230365 -148.24997 -1.2511107 -148.36559 -13.261131 -55.191883
43100000000 -14.401806 -58.623001 -1.0906779 -149.86284 -1.2296048 -150.05617 -14.276026 -53.94273
43200000000 -13.740737 -61.766045 -1.2874604 -152.06111 -1.2104939 -152.19107 -14.398325 -60.186455
43300000000 -14.734691 -62.425732 -1.2494657 -153.71585 -1.2599379 -154.25539 -14.50527 -62.507732
43400000000 -14.147672 -62.963104 -1.1679271 -157.3584 -1.2553529 -156.66974 -14.378325 -66.408134
43500000000 -15.152022 -64.198853 -1.1768591 -158.57901 -1.2689757 -158.00797 -14.864019 -64.386848
43600000000 -15.157524 -60.710911 -1.1736701 -160.11557 -1.2293462 -160.5658 -14.459778 -65.158943
43700000000 -15.571224 -69.571007 -1.1519916 -162.41074 -1.1301719 -162.75191 -14.719085 -65.806168
43800000000 -15.754231 -66.910217 -1.2340554 -164.13414 -1.1526669 -164.37468 -16.079323 -67.078514
43900000000 -15.838241 -69.399666 -1.1375127 -166.99878 -1.1665084 -167.03564 -16.737888 -70.00631
44000000000 -16.940361 -64.978508 -1.2350942 -168.73601 -1.1449579 -168.7571 -17.256086 -77.02446
44100000000 -16.414085 -65.197823 -1.1662138 -170.56361 -1.1914643 -170.62859 -16.923002 -74.359688
44200000000 -18.210127 -67.216492 -1.1426837 -172.75526 -1.1989743 -172.71587 -17.174719 -81.173492
44300000000 -17.599545 -66.758781 -1.1358645 -174.63434 -1.1067954 -174.96049 -18.115738 -76.459343
44400000000 -18.422613 -63.788406 -1.1359835 -176.72559 -1.1858964 -177.09497 -18.273653 -74.735603
44500000000 -18.439991 -60.537827 -1.1459169 -178.87234 -1.1427437 -179.4155 -19.975342 -75.88678
44600000000 -18.483631 -64.586281 -1.1825365 178.8138 -1.1531662 178.68983 -20.899006 -81.48407
44700000000 -19.409246 -53.684498 -1.1423787 176.20656 -1.2511753 176.51712 -20.699253 -87.712738
44800000000 -19.60644 -57.186153 -1.2245796 174.44461 -1.1007576 174.43353 -21.769693 -82.868309
44900000000 -20.66744 -51.69936 -1.2332401 171.95711 -1.1588366 172.18788 -22.493229 -79.433159
45000000000 -22.103178 -47.721237 -1.1399816 170.36801 -1.1400251 170.16745 -25.271927 -72.67746
