!Keysight Technologies,N5247B,MY61255062,A.19.80.06
!Date: Thursday, May 21, 2026 12:13:18
!Correction: S11(Cdelta 2-Port  ) 
!S21(Cdelta 2-Port  ) 
!S12(Cdelta 2-Port  ) 
!S22(Cdelta 2-Port  ) 
!S2P File: Measurements: S11, S21, S12, S22:
# Hz S  dB   R 50
1000000000 -25.676279 -13.76895 -0.46530253 -21.042599 -0.46545294 -21.052774 -25.648691 -14.780827
1027500000 -25.660566 -14.611776 -0.46849477 -21.598576 -0.46994367 -21.614006 -25.654625 -15.293193
1055000000 -25.643305 -15.278286 -0.47117782 -22.172586 -0.47265184 -22.187038 -25.647587 -16.386721
1082500000 -25.619722 -15.808772 -0.47584632 -22.736979 -0.47647804 -22.745388 -25.663815 -16.927195
1110000000 -25.64978 -16.729403 -0.47932038 -23.298662 -0.48117948 -23.316158 -25.722828 -17.743715
1137500000 -25.68272 -16.979416 -0.48361656 -23.846714 -0.48515186 -23.864672 -25.773981 -17.772474
1165000000 -25.590511 -17.137508 -0.48612162 -24.386093 -0.48816031 -24.404724 -25.735416 -18.006496
1192500000 -25.493738 -17.914398 -0.48610368 -24.940865 -0.48812065 -24.955975 -25.73218 -18.305166
1220000000 -25.417904 -18.635523 -0.48512232 -25.510965 -0.4890511 -25.51169 -25.663837 -19.108194
1247500000 -25.444799 -19.487692 -0.48797059 -26.080679 -0.48955986 -26.101187 -25.626202 -19.971519
1275000000 -25.475349 -20.023552 -0.49015766 -26.647827 -0.49298227 -26.655684 -25.611475 -20.65522
1302500000 -25.526581 -20.575199 -0.49878189 -27.223148 -0.49919277 -27.233639 -25.696964 -22.005423
1330000000 -25.492365 -20.665396 -0.50026214 -27.742188 -0.50113797 -27.75708 -25.667048 -21.693201
1357500000 -25.455633 -21.133753 -0.49982792 -28.298256 -0.50157261 -28.30797 -25.640539 -22.033484
1385000000 -25.395798 -21.879097 -0.49877086 -28.853451 -0.50262368 -28.872944 -25.614237 -22.839155
1412500000 -25.385796 -22.820171 -0.50155926 -29.426029 -0.50469422 -29.441149 -25.609253 -23.169344
1440000000 -25.40667 -23.241749 -0.5045169 -29.970919 -0.50770116 -29.986818 -25.561113 -23.35784
1467500000 -25.369333 -24.021215 -0.50484139 -30.528027 -0.50650167 -30.54409 -25.502182 -24.022417
1495000000 -25.370876 -24.690521 -0.50721121 -31.091547 -0.51067519 -31.10668 -25.464157 -24.60738
1522500000 -25.373251 -24.855652 -0.50847894 -31.63616 -0.51059282 -31.647493 -25.414364 -24.975573
1550000000 -25.32756 -25.310816 -0.507231 -32.195766 -0.51080912 -32.221756 -25.353769 -25.753527
1577500000 -25.321165 -26.058235 -0.5099619 -32.773624 -0.51400971 -32.794853 -25.365673 -27.031858
1605000000 -25.308142 -26.44277 -0.51241785 -33.322525 -0.51602477 -33.341156 -25.36763 -27.310324
1632500000 -25.349297 -26.725975 -0.51549774 -33.881008 -0.51891792 -33.893543 -25.378672 -27.972792
1660000000 -25.288067 -27.28845 -0.51520979 -34.419327 -0.51796323 -34.436432 -25.320366 -28.183954
1687500000 -25.250202 -27.896544 -0.51472598 -34.983738 -0.51871926 -35.002689 -25.245811 -28.978741
1715000000 -25.247681 -28.67993 -0.51546568 -35.541492 -0.51869828 -35.558014 -25.235563 -29.548014
1742500000 -25.192287 -29.571623 -0.51564527 -36.104057 -0.52025414 -36.125187 -25.230856 -30.277031
1770000000 -25.164795 -30.338697 -0.51663613 -36.66555 -0.51979053 -36.688065 -25.204945 -31.031404
1797500000 -25.16617 -30.799458 -0.51778972 -37.22979 -0.52126217 -37.256794 -25.172344 -31.582279
1825000000 -25.14459 -31.477999 -0.51849729 -37.791576 -0.5223285 -37.805325 -25.170473 -32.23016
1852500000 -25.132057 -32.369324 -0.51882076 -38.355145 -0.52389419 -38.364075 -25.137362 -32.896263
1880000000 -25.132111 -32.960953 -0.52159929 -38.921539 -0.52482009 -38.936008 -25.125126 -33.632477
1907500000 -25.121923 -33.475357 -0.52297199 -39.472317 -0.52666426 -39.494366 -25.110174 -34.42701
1935000000 -25.063623 -34.134541 -0.5229764 -40.036228 -0.52784449 -40.058029 -25.09617 -35.15374
1962500000 -25.060171 -35.006836 -0.52426451 -40.610828 -0.52809089 -40.629364 -25.077999 -35.826965
1990000000 -25.148464 -35.670784 -0.5289852 -41.176071 -0.53177696 -41.183414 -25.113022 -36.701385
2017500000 -25.132158 -36.229584 -0.53129512 -41.729801 -0.53348804 -41.743629 -25.145195 -37.332912
2045000000 -25.111851 -36.975838 -0.5315789 -42.285034 -0.53486627 -42.299065 -25.091463 -37.830204
2072500000 -25.137291 -37.551205 -0.53324246 -42.841763 -0.53624493 -42.858109 -25.067097 -38.312077
2100000000 -25.101044 -38.190903 -0.53272885 -43.395283 -0.53704309 -43.414673 -25.050303 -38.894672
2127500000 -25.111456 -38.945358 -0.53473067 -43.960617 -0.53750038 -43.988091 -25.027912 -39.665012
2155000000 -25.128416 -39.705444 -0.53597426 -44.522652 -0.54034072 -44.534275 -25.025105 -40.432293
2182500000 -25.104353 -40.32196 -0.53715438 -45.083012 -0.54140091 -45.102768 -25.016451 -41.056248
2210000000 -25.105219 -40.940285 -0.53757244 -45.64362 -0.54208887 -45.663242 -24.991453 -41.650826
2237500000 -25.117601 -41.627525 -0.53846258 -46.209179 -0.54462433 -46.222942 -24.971087 -42.238766
2265000000 -25.109119 -42.323826 -0.54089099 -46.769276 -0.54525149 -46.786884 -24.974567 -43.052837
2292500000 -25.075165 -43.059776 -0.54203665 -47.326187 -0.5483439 -47.34943 -24.944902 -43.656265
2320000000 -25.155399 -43.658508 -0.54421031 -47.900734 -0.54881883 -47.909496 -24.902737 -44.460518
2347500000 -25.139194 -44.518097 -0.54580444 -48.449177 -0.55101264 -48.467129 -24.950331 -44.962917
2375000000 -25.099413 -45.158318 -0.547068 -49.006821 -0.55262166 -49.027828 -24.942684 -45.736954
2402500000 -25.161482 -45.757183 -0.5490256 -49.572327 -0.55366981 -49.590836 -24.907488 -46.507988
2430000000 -25.195215 -46.649078 -0.54973298 -50.135414 -0.55439794 -50.151848 -24.906097 -47.003025
2457500000 -25.166359 -47.219627 -0.55184382 -50.699345 -0.55631715 -50.711025 -24.889206 -48.137917
2485000000 -25.186361 -47.939579 -0.55403268 -51.251293 -0.56002992 -51.27182 -24.841154 -48.68816
2512500000 -25.220562 -48.585449 -0.5566352 -51.810612 -0.56128138 -51.829052 -24.864397 -49.590237
2540000000 -25.225359 -49.412247 -0.55665731 -52.358303 -0.56201202 -52.377056 -24.893213 -50.304111
2567500000 -25.234737 -50.147236 -0.55981702 -52.91888 -0.56396222 -52.937767 -24.888208 -50.924271
2595000000 -25.255337 -50.714493 -0.55968213 -53.484425 -0.56613839 -53.492599 -24.856873 -51.404995
2622500000 -25.271259 -51.399204 -0.562177 -54.025013 -0.56678748 -54.042011 -24.86128 -52.265617
2650000000 -25.268776 -52.310661 -0.56312579 -54.5886 -0.56750661 -54.613472 -24.87307 -52.986294
2677500000 -25.251398 -52.846058 -0.56389326 -55.140888 -0.56896418 -55.17326 -24.859243 -53.718483
2705000000 -25.276587 -53.026085 -0.56377304 -55.697739 -0.56975037 -55.731594 -24.860716 -54.347057
2732500000 -25.297724 -54.129028 -0.5666548 -56.263107 -0.57210511 -56.290894 -24.902018 -55.142395
2760000000 -25.263889 -55.03508 -0.56906509 -56.825943 -0.57295036 -56.843464 -24.897053 -55.511299
2787500000 -25.324459 -55.400314 -0.56987494 -57.373459 -0.57421798 -57.408043 -24.870203 -56.683411
2815000000 -25.37286 -56.164925 -0.57010722 -57.946419 -0.5756461 -57.952843 -24.89109 -57.14658
2842500000 -25.351524 -57.102058 -0.57339579 -58.501232 -0.57856506 -58.518372 -24.888369 -57.858822
2870000000 -25.362473 -57.458012 -0.57486504 -59.055019 -0.58083105 -59.067577 -24.877619 -58.679241
2897500000 -25.433771 -57.989864 -0.57585061 -59.613564 -0.58102661 -59.630272 -24.863913 -59.355759
2925000000 -25.424797 -59.249542 -0.57591921 -60.15778 -0.58335906 -60.188343 -24.91745 -59.899059
2952500000 -25.416679 -59.72303 -0.57971358 -60.72366 -0.58332741 -60.736214 -24.920931 -60.852436
2980000000 -25.437975 -60.072845 -0.57885164 -61.274578 -0.58525288 -61.294666 -24.867962 -61.852623
3007500000 -25.479452 -61.12397 -0.58143771 -61.838505 -0.58642393 -61.842556 -24.923708 -62.035126
3035000000 -25.483601 -61.757465 -0.58384824 -62.376896 -0.5883404 -62.412762 -24.932854 -62.881275
3062500000 -25.507608 -62.11956 -0.58296293 -62.947086 -0.59082001 -62.959606 -24.928391 -63.741634
3090000000 -25.557804 -63.112774 -0.58512521 -63.500488 -0.58982748 -63.525166 -24.93112 -64.032341
3117500000 -25.551804 -64.384712 -0.58718485 -64.057671 -0.5911116 -64.072876 -24.999975 -64.930847
3145000000 -25.527002 -64.305687 -0.58755648 -64.605972 -0.59295535 -64.62722 -24.964968 -66.119194
3172500000 -25.533583 -65.168365 -0.5905267 -65.164024 -0.59464407 -65.190331 -24.94166 -66.460716
3200000000 -25.568754 -66.457718 -0.59063053 -65.720978 -0.59716266 -65.739639 -25.030706 -66.747498
3227500000 -25.575214 -66.58725 -0.5926913 -66.268631 -0.59731323 -66.293526 -25.044178 -68.100571
3255000000 -25.565165 -67.23838 -0.59427512 -66.821884 -0.59771276 -66.844437 -24.962221 -68.57032
3282500000 -25.569613 -68.413376 -0.59408426 -67.37677 -0.5993647 -67.394936 -25.089502 -68.662933
3310000000 -25.569168 -69.036713 -0.5972966 -67.947739 -0.60020667 -67.954384 -25.127857 -69.941147
3337500000 -25.605478 -69.502251 -0.59599108 -68.497116 -0.60153365 -68.504349 -25.025614 -71.130661
3365000000 -25.658304 -70.551598 -0.5973658 -69.036842 -0.60266036 -69.047142 -25.084713 -70.897675
3392500000 -25.612427 -70.993782 -0.59834969 -69.589096 -0.60413891 -69.602669 -25.220968 -71.317627
3420000000 -25.651978 -71.740364 -0.59774512 -70.146675 -0.60384291 -70.153824 -25.133211 -73.197983
3447500000 -25.764715 -72.61409 -0.59932578 -70.701096 -0.60322601 -70.723358 -25.076078 -73.076012
3475000000 -25.672281 -73.523849 -0.59883577 -71.246338 -0.60466224 -71.273964 -25.214588 -73.019447
3502500000 -25.730633 -74.321465 -0.59957361 -71.816017 -0.60485446 -71.818748 -25.237259 -74.66761
3530000000 -25.818951 -74.525352 -0.59951687 -72.376701 -0.60389173 -72.380745 -25.129774 -75.458206
3557500000 -25.739159 -75.508659 -0.60016888 -72.932327 -0.60494667 -72.940445 -25.155912 -75.175163
3585000000 -25.78339 -76.460876 -0.60022151 -73.488716 -0.60481936 -73.501869 -25.240671 -76.324814
3612500000 -25.894297 -76.684479 -0.60125065 -74.040642 -0.60589421 -74.060867 -25.246964 -77.770996
3640000000 -25.829466 -77.716148 -0.60270703 -74.610184 -0.60629332 -74.620773 -25.217178 -77.626411
3667500000 -25.809498 -78.909767 -0.60437721 -75.171402 -0.60707378 -75.186417 -25.214542 -78.11338
3695000000 -25.939018 -78.825768 -0.60453582 -75.735786 -0.60860842 -75.742096 -25.258057 -79.647057
3722500000 -25.913952 -79.740501 -0.60537338 -76.286865 -0.61019123 -76.306084 -25.256495 -79.991447
3750000000 -25.88183 -80.979195 -0.60595757 -76.849815 -0.61191553 -76.863983 -25.292368 -80.239235
3777500000 -25.928616 -81.016464 -0.60704315 -77.402328 -0.61044294 -77.416519 -25.352289 -81.655083
3805000000 -25.9813 -81.536125 -0.60854673 -77.956139 -0.61232448 -77.984261 -25.355835 -82.198563
3832500000 -25.922602 -82.981689 -0.60992038 -78.532639 -0.61325717 -78.54232 -25.349379 -82.434837
3860000000 -25.93807 -83.466232 -0.61062646 -79.075104 -0.61454523 -79.090118 -25.379932 -83.686066
3887500000 -26.033598 -83.229492 -0.612562 -79.631752 -0.6160416 -79.650009 -25.438513 -84.327774
3915000000 -26.00703 -84.987808 -0.61345869 -80.193863 -0.61688501 -80.205811 -25.42128 -84.564308
3942500000 -25.916845 -85.864754 -0.61465377 -80.74968 -0.6186108 -80.753029 -25.44416 -85.591011
3970000000 -26.00322 -85.374809 -0.61635929 -81.298355 -0.61941141 -81.318642 -25.514803 -86.299629
3997500000 -26.12475 -86.385086 -0.61534184 -81.856834 -0.61948907 -81.864983 -25.471561 -86.868057
4025000000 -26.061874 -87.899094 -0.61543757 -82.408569 -0.62005007 -82.41951 -25.458601 -87.843979
4052500000 -26.056166 -87.77961 -0.61559623 -82.968254 -0.62152982 -82.985992 -25.577835 -88.454781
4080000000 -26.186424 -88.246376 -0.61644495 -83.522797 -0.62272948 -83.536942 -25.575449 -89.076843
4107500000 -26.149689 -90.183159 -0.61693484 -84.078369 -0.62344182 -84.091202 -25.588676 -90.0755
4135000000 -26.074114 -90.770241 -0.61759013 -84.638824 -0.62420624 -84.653809 -25.609289 -90.428726
4162500000 -26.169201 -90.548706 -0.61848307 -85.20034 -0.62393552 -85.215111 -25.623199 -90.920929
4190000000 -26.224346 -91.914108 -0.61978644 -85.756126 -0.62604201 -85.781113 -25.637218 -91.966377
4217500000 -26.191704 -93.025902 -0.62089962 -86.320335 -0.62487698 -86.338951 -25.685358 -91.980965
4245000000 -26.223335 -92.730995 -0.62104148 -86.87767 -0.62774843 -86.898804 -25.718002 -92.903824
4272500000 -26.335306 -93.695503 -0.62367135 -87.42952 -0.62771887 -87.457863 -25.756908 -93.987923
4300000000 -26.304842 -95.1213 -0.62340629 -87.992767 -0.62934542 -88.009636 -25.785013 -94.114624
4327500000 -26.274878 -95.397163 -0.62420988 -88.545517 -0.62997085 -88.562843 -25.794727 -95.111885
4355000000 -26.357317 -95.700592 -0.62675041 -89.119347 -0.62940437 -89.12381 -25.819807 -96.170914
4382500000 -26.402374 -97.028557 -0.62861657 -89.666176 -0.6335929 -89.688408 -25.855221 -96.500496
4410000000 -26.370663 -97.877708 -0.62840718 -90.227333 -0.63346803 -90.242584 -25.858192 -97.130745
4437500000 -26.429836 -98.021774 -0.63050181 -90.784386 -0.63473034 -90.797195 -25.901093 -98.052521
4465000000 -26.476307 -98.916138 -0.63099265 -91.336487 -0.63623071 -91.355759 -25.930622 -98.394852
4492500000 -26.477419 -100.10402 -0.63147646 -91.900093 -0.63672012 -91.912659 -25.967632 -99.260727
4520000000 -26.533298 -100.46941 -0.63355875 -92.453514 -0.63711369 -92.466713 -26.022917 -100.39111
4547500000 -26.551079 -101.01659 -0.6341213 -93.009262 -0.6403358 -93.031075 -26.015951 -100.48916
4575000000 -26.586758 -102.12397 -0.63546199 -93.560585 -0.64067274 -93.579865 -26.089788 -101.0427
4602500000 -26.620039 -102.93937 -0.63564479 -94.120972 -0.64196771 -94.145096 -26.132343 -102.43923
4630000000 -26.640236 -103.16084 -0.63672459 -94.677818 -0.64227563 -94.695007 -26.111107 -102.79668
4657500000 -26.637703 -104.16961 -0.63858849 -95.236855 -0.64202446 -95.254593 -26.143526 -103.19501
4685000000 -26.719385 -105.20817 -0.64024764 -95.793213 -0.64391613 -95.813156 -26.191933 -104.2912
4712500000 -26.746216 -105.57302 -0.64005023 -96.35643 -0.64513433 -96.362473 -26.206537 -105.06168
4740000000 -26.780313 -106.25762 -0.64116412 -96.908752 -0.64669681 -96.919083 -26.252325 -105.20412
4767500000 -26.840055 -107.56537 -0.64189899 -97.454391 -0.64734763 -97.479378 -26.332069 -106.55959
4795000000 -26.880894 -108.01101 -0.64375877 -98.014519 -0.64947331 -98.034309 -26.316204 -107.19243
4822500000 -26.877813 -108.53037 -0.64296836 -98.578529 -0.65078241 -98.593803 -26.345516 -107.60474
4850000000 -26.941206 -109.77664 -0.64574552 -99.128654 -0.65243483 -99.153587 -26.424612 -108.39181
4877500000 -26.969454 -110.41617 -0.6451115 -99.69384 -0.65161788 -99.704178 -26.438787 -109.29409
4905000000 -26.999184 -110.5658 -0.64688462 -100.23452 -0.65203202 -100.2503 -26.405979 -109.41201
4932500000 -27.010038 -111.81173 -0.64791191 -100.79598 -0.65359312 -100.81599 -26.512318 -110.24387
4960000000 -27.047253 -113.06532 -0.65017682 -101.35946 -0.65422684 -101.36539 -26.571421 -111.40533
4987500000 -27.104944 -113.28927 -0.65105695 -101.90769 -0.65516108 -101.92379 -26.528629 -111.68897
5015000000 -27.128386 -114.11979 -0.65094662 -102.46026 -0.6561895 -102.4916 -26.644823 -112.14072
5042500000 -27.187572 -115.50667 -0.6518681 -103.02831 -0.65902328 -103.04096 -26.727314 -113.8027
5070000000 -27.256174 -115.57533 -0.65385067 -103.58181 -0.65888077 -103.60145 -26.63876 -114.09303
5097500000 -27.278471 -116.34562 -0.65433639 -104.13921 -0.66057724 -104.15983 -26.708364 -114.3069
5125000000 -27.286303 -117.71063 -0.65690732 -104.68431 -0.6618197 -104.70596 -26.844683 -115.52757
5152500000 -27.320599 -117.87357 -0.65736806 -105.24839 -0.66143203 -105.26299 -26.758343 -116.23094
5180000000 -27.381742 -118.50838 -0.6583153 -105.81059 -0.66424966 -105.82338 -26.80784 -116.31005
5207500000 -27.374516 -120.04402 -0.65924954 -106.35842 -0.66651982 -106.36693 -26.961788 -117.52338
5235000000 -27.384909 -120.41679 -0.66065562 -106.915 -0.66565645 -106.92253 -26.896677 -118.46309
5262500000 -27.43878 -120.80563 -0.66196561 -107.46833 -0.66692001 -107.47779 -26.881849 -118.48519
5290000000 -27.503796 -122.19266 -0.66295308 -108.02248 -0.6674419 -108.0353 -27.021664 -119.48997
5317500000 -27.515348 -122.60889 -0.66370404 -108.57379 -0.66939688 -108.59325 -27.074661 -120.88163
5345000000 -27.601654 -123.39041 -0.66469312 -109.12508 -0.67027456 -109.14988 -27.04389 -120.909
5372500000 -27.634125 -124.60464 -0.66452354 -109.68595 -0.67056638 -109.70634 -27.157949 -121.56182
5400000000 -27.604149 -125.47492 -0.66712916 -110.25004 -0.67306679 -110.25836 -27.222136 -123.51426
5427500000 -27.729252 -125.99921 -0.66806108 -110.79099 -0.67357671 -110.80421 -27.148403 -123.56572
5455000000 -27.798021 -126.84172 -0.6683808 -111.34847 -0.67473769 -111.36882 -27.221176 -123.6073
5482500000 -27.73118 -127.96763 -0.67092949 -111.89574 -0.67424786 -111.91544 -27.398254 -125.41161
5510000000 -27.812998 -128.44969 -0.67094278 -112.44838 -0.67775244 -112.47859 -27.325752 -126.07751
5537500000 -27.903574 -129.45645 -0.67113554 -113.01125 -0.67669749 -113.03069 -27.351513 -125.98739
5565000000 -27.870815 -130.48825 -0.67331374 -113.55345 -0.67778087 -113.57392 -27.51055 -127.52887
5592500000 -27.913074 -131.36246 -0.67359912 -114.1137 -0.67935884 -114.12029 -27.519716 -128.93253
5620000000 -28.016741 -132.20654 -0.67530859 -114.66415 -0.68007416 -114.68705 -27.466097 -129.09721
5647500000 -27.924612 -132.74387 -0.6762982 -115.21199 -0.67988223 -115.24362 -27.59234 -129.94232
5675000000 -28.009008 -133.47845 -0.67533642 -115.77065 -0.68242466 -115.79134 -27.683502 -131.33192
5702500000 -28.149752 -134.56383 -0.67588681 -116.32356 -0.68380129 -116.34995 -27.649994 -131.5197
5730000000 -28.098099 -135.45218 -0.67742598 -116.86858 -0.68399793 -116.90366 -27.733959 -132.01495
5757500000 -28.099648 -136.20007 -0.67963821 -117.42344 -0.68444765 -117.45513 -27.863827 -133.53186
5785000000 -28.290804 -137.20805 -0.68005931 -117.98496 -0.68656158 -118.00523 -27.89789 -134.23932
5812500000 -28.259695 -137.99493 -0.68051559 -118.53316 -0.68777573 -118.55095 -27.954689 -134.45352
5840000000 -28.212141 -138.78061 -0.68095976 -119.08755 -0.68612349 -119.10635 -28.006546 -136.25342
5867500000 -28.355785 -139.53304 -0.68131191 -119.6359 -0.68747187 -119.6635 -28.085594 -137.18883
5895000000 -28.405077 -141.24275 -0.68332893 -120.18922 -0.68697912 -120.21122 -28.166832 -137.46967
5922500000 -28.383297 -141.58365 -0.68316323 -120.73873 -0.68841267 -120.76083 -28.233349 -139.00104
5950000000 -28.489067 -142.14842 -0.68286753 -121.30206 -0.68913984 -121.32072 -28.291462 -139.78914
5977500000 -28.581011 -143.5649 -0.68444765 -121.85352 -0.6905207 -121.87154 -28.425457 -139.82016
6005000000 -28.474575 -144.71648 -0.68638426 -122.40198 -0.69204193 -122.42562 -28.429405 -141.55885
6032500000 -28.578062 -144.71362 -0.68634784 -122.95731 -0.69084996 -122.97188 -28.512165 -142.58768
6060000000 -28.749355 -146.35114 -0.68735874 -123.51146 -0.69232154 -123.53249 -28.71158 -142.81818
6087500000 -28.647892 -147.33078 -0.68578279 -124.05727 -0.69166946 -124.07812 -28.744596 -144.13504
6115000000 -28.680151 -147.13008 -0.68724537 -124.61911 -0.69324094 -124.63229 -28.749428 -145.8623
6142500000 -28.950169 -148.94968 -0.68762141 -125.16869 -0.6916039 -125.1876 -28.961254 -145.70139
6170000000 -28.941277 -150.29083 -0.68762171 -125.72562 -0.69370919 -125.74442 -28.983782 -146.98077
6197500000 -28.814083 -149.95241 -0.68837357 -126.28773 -0.69378328 -126.29066 -28.983372 -148.5497
6225000000 -29.049156 -151.00778 -0.69068485 -126.82909 -0.69389874 -126.84929 -29.296885 -148.42209
6252500000 -29.17886 -153.12976 -0.68887287 -127.37244 -0.69375539 -127.39664 -29.313093 -149.53999
6280000000 -28.929604 -152.88019 -0.68864775 -127.94341 -0.69438648 -127.95499 -29.184757 -151.7274
6307500000 -29.169676 -152.96947 -0.68808055 -128.48027 -0.69273174 -128.50075 -29.496443 -151.21692
6335000000 -29.481653 -154.92628 -0.69126791 -129.03241 -0.69428021 -129.05598 -29.73871 -151.61987
6362500000 -29.191496 -155.97452 -0.69055921 -129.59366 -0.69487739 -129.61676 -29.583042 -154.57008
6390000000 -29.215506 -155.10216 -0.69020689 -130.14221 -0.69645029 -130.16046 -29.772696 -154.12399
6417500000 -29.737925 -157.0472 -0.68979698 -130.67924 -0.69552749 -130.71552 -30.051447 -153.89476
6445000000 -29.49239 -158.63048 -0.68962795 -131.2435 -0.69427896 -131.26933 -29.887108 -157.13231
6472500000 -29.291019 -158.25525 -0.68803686 -131.8007 -0.69510579 -131.83267 -29.933882 -157.61909
6500000000 -29.743902 -158.48598 -0.68895417 -132.35658 -0.69365698 -132.38467 -30.3123 -156.57416
6527500000 -29.820717 -160.74559 -0.68839055 -132.90701 -0.69419819 -132.94705 -30.383293 -160.16095
6555000000 -29.446815 -162.08961 -0.68893355 -133.4745 -0.69327039 -133.49257 -30.277912 -161.53523
6582500000 -29.696825 -161.21632 -0.68875396 -134.0403 -0.69369221 -134.05821 -30.599726 -158.8671
6610000000 -30.018578 -162.04897 -0.68841058 -134.5867 -0.69368035 -134.60429 -30.800373 -161.90096
6637500000 -29.785563 -164.4556 -0.68855315 -135.14561 -0.69401836 -135.17824 -30.690149 -164.66978
6665000000 -29.803154 -164.08511 -0.68880975 -135.71483 -0.69590974 -135.72923 -30.712704 -161.79361
6692500000 -30.095728 -163.90572 -0.68822491 -136.26537 -0.69523495 -136.30183 -31.199804 -163.25108
6720000000 -30.05484 -166.11169 -0.68936127 -136.82066 -0.69483608 -136.8575 -31.218384 -167.87865
6747500000 -30.02466 -166.69313 -0.68803811 -137.38609 -0.69354582 -137.41286 -31.073742 -166.65768
6775000000 -30.161758 -166.59854 -0.6876778 -137.9487 -0.69493967 -137.96477 -31.363298 -165.24654
6802500000 -30.307493 -168.40945 -0.68943834 -138.51703 -0.69618565 -138.53793 -31.719788 -169.48537
6830000000 -30.257389 -169.32439 -0.68929029 -139.06897 -0.69592732 -139.09573 -31.500645 -171.74313
6857500000 -30.31638 -169.69742 -0.69199795 -139.62366 -0.69827431 -139.65895 -31.523539 -170.1293
6885000000 -30.510935 -170.86908 -0.69378728 -140.18559 -0.69755203 -140.21159 -31.911503 -171.33696
6912500000 -30.447964 -171.65158 -0.69186378 -140.74315 -0.69982141 -140.75975 -32.008255 -174.92799
6940000000 -30.372467 -172.55313 -0.69270897 -141.30957 -0.70055467 -141.32693 -31.899593 -174.22345
6967500000 -30.651142 -173.79822 -0.69400197 -141.86487 -0.70020765 -141.89026 -32.202431 -173.75893
6995000000 -30.699852 -174.213 -0.69361019 -142.42317 -0.70023805 -142.43419 -32.623196 -177.45126
7022500000 -30.576031 -175.1848 -0.69563508 -142.97626 -0.70069247 -142.99893 -32.43261 -178.66119
7050000000 -30.812731 -177.00792 -0.69690889 -143.54068 -0.70239168 -143.5697 -32.545609 -177.72778
7077500000 -30.923063 -176.63965 -0.69651413 -144.09314 -0.70330805 -144.12155 -32.955635 -179.79922
7105000000 -30.814468 -177.55368 -0.69625127 -144.6562 -0.70374388 -144.67535 -33.12241 176.86867
7132500000 -31.009222 -178.9696 -0.69641048 -145.19917 -0.70374787 -145.23048 -32.924583 178.42615
7160000000 -31.207048 -178.8287 -0.70140129 -145.77483 -0.70419288 -145.78778 -33.397331 177.69357
7187500000 -31.009741 -179.68463 -0.7004984 -146.32809 -0.70552677 -146.35341 -33.643898 173.29037
7215000000 -31.120472 178.73267 -0.70188504 -146.89497 -0.70681024 -146.91466 -33.528709 173.63284
7242500000 -31.4666 178.10997 -0.70222765 -147.45982 -0.70720744 -147.48537 -33.776096 174.30946
7270000000 -31.309225 178.31799 -0.70281011 -148.01881 -0.70910394 -148.03244 -34.147373 170.03067
7297500000 -31.210142 176.14275 -0.70414507 -148.56271 -0.70846337 -148.59344 -34.014164 169.20988
7325000000 -31.622492 175.52893 -0.70612127 -149.12881 -0.71234059 -149.15132 -34.120071 170.69473
7352500000 -31.54887 175.9252 -0.7052384 -149.67424 -0.71244889 -149.70955 -34.660133 167.21147
7380000000 -31.413509 174.21184 -0.70851886 -150.25128 -0.71256387 -150.25841 -34.510685 163.45886
7407500000 -31.706953 172.80597 -0.70649743 -150.7861 -0.71386099 -150.81642 -34.547493 166.16624
7435000000 -31.790392 173.03676 -0.70901865 -151.35085 -0.71366757 -151.3638 -35.004101 163.97775
7462500000 -31.564682 172.3644 -0.71135104 -151.90839 -0.71460736 -151.93854 -35.102924 159.12631
7490000000 -31.77416 170.74503 -0.71057379 -152.45757 -0.71676356 -152.48576 -34.97633 161.60437
7517500000 -32.121342 170.17178 -0.71103907 -153.02299 -0.71703923 -153.05328 -35.554733 159.32294
7545000000 -31.894667 169.44936 -0.71156538 -153.58615 -0.71715313 -153.60976 -35.631588 153.7831
7572500000 -31.923845 168.37784 -0.71408433 -154.13356 -0.71892202 -154.15829 -35.310883 155.43521
7600000000 -32.240219 168.09048 -0.71429211 -154.6973 -0.721407 -154.72263 -35.831268 155.4236
7627500000 -32.171352 166.85008 -0.71708256 -155.24992 -0.72040617 -155.27249 -36.020107 148.07828
7655000000 -32.072212 166.70212 -0.71802157 -155.81345 -0.72207153 -155.81467 -35.849987 148.69629
7682500000 -32.393066 165.10509 -0.71879464 -156.36218 -0.72221732 -156.38908 -36.223503 149.6067
7710000000 -32.386425 164.96706 -0.7198745 -156.91313 -0.72447121 -156.93816 -36.37944 142.95537
7737500000 -32.16013 164.28001 -0.72100514 -157.48323 -0.72587621 -157.48505 -36.312611 141.77104
7765000000 -32.356869 162.91119 -0.71936494 -158.03427 -0.72685844 -158.04211 -36.788731 143.33797
7792500000 -32.584385 161.85735 -0.72204125 -158.56863 -0.72695142 -158.60658 -36.917915 135.62381
7820000000 -32.379662 161.83875 -0.72127193 -159.1454 -0.72813714 -159.16649 -36.587669 133.46034
7847500000 -32.628147 160.1214 -0.72267282 -159.69681 -0.72807473 -159.716 -37.144508 137.28569
7875000000 -32.713028 158.62958 -0.72313118 -160.2527 -0.7297222 -160.27441 -37.444538 130.52037
7902500000 -32.659374 159.01813 -0.72532427 -160.81261 -0.73095548 -160.82405 -37.011642 126.01389
7930000000 -32.750805 159.13846 -0.72604263 -161.37627 -0.73030555 -161.38548 -37.585308 129.10069
7957500000 -32.935768 156.09047 -0.72700101 -161.92285 -0.73219591 -161.9413 -37.864677 123.28283
7985000000 -32.900864 156.05112 -0.72690797 -162.48392 -0.73446107 -162.51079 -37.155064 118.81088
8012500000 -32.834743 157.05672 -0.72778422 -163.03456 -0.73354799 -163.06665 -37.85862 121.81428
8040000000 -32.952007 153.70956 -0.73108536 -163.59464 -0.73678267 -163.61383 -38.246853 115.88949
8067500000 -33.110306 152.98868 -0.72890311 -164.15675 -0.73542899 -164.17438 -37.256096 110.20904
8095000000 -33.041084 154.4088 -0.73250568 -164.70831 -0.73823369 -164.73137 -37.989441 113.95091
8122500000 -33.018909 152.09337 -0.73490131 -165.25908 -0.74052441 -165.29242 -38.805534 106.0901
8150000000 -33.276447 149.81912 -0.73640692 -165.82265 -0.74143595 -165.84174 -37.023796 101.88023
8177500000 -33.364933 151.69199 -0.73637503 -166.38344 -0.74248648 -166.4003 -37.779114 108.59985
8205000000 -33.193974 150.00694 -0.74073011 -166.92976 -0.74330044 -166.97954 -39.541523 96.398109
8232500000 -33.258995 146.65338 -0.73929143 -167.48503 -0.74716187 -167.52078 -36.883457 92.241608
8260000000 -33.592159 148.96429 -0.74214286 -168.06693 -0.7480281 -168.07712 -37.250336 102.48211
8287500000 -33.365738 148.57704 -0.74429584 -168.62122 -0.75097293 -168.64278 -40.666286 86.596268
8315000000 -33.393036 143.53412 -0.74899411 -169.17863 -0.75234681 -169.1875 -36.42271 77.89492
8342500000 -33.816334 146.04469 -0.75238687 -169.74617 -0.75679404 -169.75967 -35.93153 99.123726
8370000000 -33.508133 147.07744 -0.75424773 -170.29472 -0.76221353 -170.32196 -42.602322 84.491119
8397500000 -33.417606 139.93156 -0.76004457 -170.84059 -0.76838928 -170.87711 -36.027004 56.859234
8425000000 -34.223095 143.83051 -0.77177495 -171.39806 -0.7762146 -171.42824 -33.520512 91.149635
8452500000 -33.475433 145.82043 -0.77838051 -171.92427 -0.78457749 -171.95517 -42.660118 127.46981
8480000000 -33.889275 135.72462 -0.79403847 -172.4057 -0.79681569 -172.43742 -36.149006 13.188463
8507500000 -34.667175 144.42589 -0.80555117 -172.87582 -0.81148994 -172.89447 -29.866869 66.60585
8535000000 -33.058685 141.80226 -0.80314583 -173.27319 -0.81309664 -173.32066 -31.769594 126.32789
8562500000 -35.25893 134.31299 -0.78951204 -173.58215 -0.79576033 -173.60423 -37.195568 -99.206596
8590000000 -33.537251 146.50807 -0.75919014 -173.9688 -0.76382184 -174.02553 -29.198709 8.4189043
8617500000 -32.90044 130.50108 -0.72419167 -174.57968 -0.72780842 -174.61533 -27.004869 67.536926
8645000000 -35.134075 141.66953 -0.69133526 -175.34447 -0.69645727 -175.38766 -31.5254 133.57742
8672500000 -33.007404 138.50403 -0.68224686 -176.09306 -0.6843425 -176.11099 -40.099735 -65.957848
8700000000 -34.318893 125.21001 -0.68801749 -176.73221 -0.69247884 -176.77144 -29.964584 22.360126
8727500000 -34.40947 137.2121 -0.70497322 -177.44067 -0.70903325 -177.45058 -30.893143 74.034988
8755000000 -33.464108 133.01245 -0.71183372 -178.04337 -0.71548539 -178.09453 -41.428036 102.25117
8782500000 -34.823303 127.26938 -0.71806526 -178.57866 -0.72205687 -178.60939 -34.28318 10.564591
8810000000 -34.606983 132.77318 -0.72929376 -179.15373 -0.73365986 -179.18578 -31.787233 48.272259
8837500000 -33.897633 130.01729 -0.73435414 -179.73837 -0.73756146 -179.75963 -36.752571 70.567291
8865000000 -34.811848 127.26479 -0.73698139 179.74557 -0.74057263 179.70169 -36.619324 19.194645
8892500000 -34.996273 128.59767 -0.74331397 179.19052 -0.74817538 179.17371 -32.555023 33.909931
8920000000 -34.270798 127.71671 -0.74538732 178.63124 -0.74968988 178.59666 -34.795532 54.073879
8947500000 -34.717468 125.62274 -0.74466729 178.09042 -0.7505517 178.07317 -36.53207 29.779205
8975000000 -35.221752 124.96434 -0.74854964 177.54424 -0.75199467 177.52017 -33.087139 26.689375
9002500000 -34.598637 124.78398 -0.75137424 176.97859 -0.75692379 176.96523 -33.737816 42.370369
9030000000 -34.896198 124.15213 -0.74961084 176.43057 -0.75862598 176.40169 -35.860542 30.820932
9057500000 -35.307144 122.0454 -0.75450182 175.89499 -0.75876319 175.85402 -33.241966 21.265644
9085000000 -34.909252 121.65291 -0.7549718 175.35103 -0.75949603 175.30286 -33.140663 32.796078
9112500000 -34.934681 121.87201 -0.75487602 174.77528 -0.76080412 174.74211 -34.838619 29.900509
9140000000 -35.418404 119.92976 -0.75550282 174.23209 -0.76145649 174.1962 -33.237328 18.251902
9167500000 -35.268627 118.62924 -0.75794262 173.67944 -0.76431662 173.65662 -32.548515 25.033087
9195000000 -35.161732 118.95695 -0.75965822 173.12526 -0.7639336 173.08385 -33.84082 26.360527
9222500000 -35.426193 117.78261 -0.75816149 172.56842 -0.76377434 172.54645 -33.195358 16.502474
9250000000 -35.500908 116.00463 -0.76149446 172.03084 -0.76665419 172.00235 -32.307316 18.256292
9277500000 -35.252628 116.37971 -0.76238203 171.4682 -0.76567131 171.43546 -32.931419 21.867352
9305000000 -35.621971 114.68414 -0.76153082 170.91815 -0.76970905 170.87947 -32.907269 15.145436
9332500000 -35.877003 111.85926 -0.76358825 170.37128 -0.76978481 170.3261 -31.979883 14.121758
9360000000 -35.454376 112.99185 -0.7645244 169.81175 -0.76984322 169.7756 -32.283691 16.727804
9387500000 -35.739296 113.23456 -0.76436538 169.25505 -0.769328 169.23044 -32.392483 12.973379
9415000000 -35.944275 110.6295 -0.76678765 168.70598 -0.77077824 168.68053 -31.715141 10.744184
9442500000 -35.831726 110.83249 -0.76805317 168.14243 -0.7722317 168.11571 -31.70672 11.679921
9470000000 -35.84454 110.92965 -0.7658686 167.60135 -0.77353162 167.577 -31.967745 10.274673
9497500000 -36.23843 106.82336 -0.76761389 167.05255 -0.77435261 167.026 -31.332052 7.9270349
9525000000 -36.136406 107.05624 -0.77096558 166.50186 -0.77351552 166.46405 -31.241293 7.7075553
9552500000 -36.003391 108.08553 -0.76900631 165.93732 -0.77283567 165.90729 -31.410368 7.0740781
9580000000 -36.249157 104.83172 -0.77060014 165.38153 -0.77547675 165.35695 -31.072683 4.8045321
9607500000 -36.393845 104.62527 -0.7713446 164.82448 -0.77653557 164.79782 -30.81708 3.9136341
9635000000 -36.339993 105.8537 -0.77164882 164.28554 -0.77600849 164.23781 -30.931194 3.7423229
9662500000 -36.487797 103.65726 -0.77221036 163.72321 -0.77731508 163.70384 -30.744097 2.6802475
9690000000 -36.71632 100.62341 -0.77331632 163.17831 -0.77878684 163.13829 -30.444452 0.7034561
9717500000 -36.695889 102.86845 -0.77302277 162.62727 -0.77988487 162.58115 -30.502695 0.38061991
9745000000 -36.618923 102.28571 -0.77444637 162.0647 -0.78036785 162.03606 -30.375137 0.12132584
9772500000 -36.767475 98.662216 -0.77476752 161.51678 -0.78113812 161.48051 -30.121052 -1.8575635
9800000000 -36.916271 100.35492 -0.77553648 160.95601 -0.78148919 160.92885 -30.042683 -3.049592
9827500000 -36.950619 100.62824 -0.77614403 160.39702 -0.78339142 160.36998 -29.939148 -2.9963741
9855000000 -37.114048 95.64856 -0.77717727 159.85722 -0.78223085 159.8174 -29.764215 -3.7154403
9882500000 -37.23637 96.501808 -0.77675658 159.28802 -0.78380191 159.27261 -29.697737 -6.3914204
9910000000 -37.260307 98.409821 -0.77995795 158.74857 -0.78181368 158.71988 -29.567612 -5.941771
9937500000 -37.2103 94.15303 -0.77791327 158.19341 -0.78482091 158.15918 -29.446152 -6.4506235
9965000000 -37.564766 92.693916 -0.78094876 157.64117 -0.78459048 157.60974 -29.293352 -9.0376978
9992500000 -37.526859 95.251541 -0.77906525 157.0952 -0.78674847 157.05374 -29.249001 -8.8092813
10020000000 -37.397312 92.130524 -0.78081894 156.53217 -0.78500295 156.4948 -29.167597 -8.1786499
10047500000 -37.744869 89.522041 -0.78009182 155.98297 -0.78618073 155.95364 -29.027849 -11.710304
10075000000 -38.004112 92.394173 -0.78183413 155.42805 -0.78789169 155.40335 -28.905602 -12.148654
10102500000 -37.749443 89.944794 -0.78104609 154.88844 -0.78933817 154.84216 -28.783102 -10.903186
10130000000 -37.76825 86.363937 -0.78074521 154.33783 -0.78901434 154.29735 -28.659266 -13.148173
10157500000 -38.332695 88.249313 -0.7819888 153.77539 -0.78918725 153.74301 -28.533686 -14.674038
10185000000 -38.132664 88.280579 -0.78330153 153.21957 -0.78893399 153.18335 -28.484388 -13.336922
10212500000 -37.980392 83.982391 -0.78300947 152.66672 -0.78868097 152.62419 -28.358971 -15.125791
10240000000 -38.675381 85.800964 -0.78043318 152.1042 -0.78948069 152.06082 -28.188105 -17.758362
10267500000 -38.491909 87.463036 -0.78388035 151.55075 -0.79188216 151.51172 -28.116089 -16.153202
10295000000 -38.176376 82.28804 -0.78522348 150.99367 -0.79069877 150.97243 -28.024256 -17.026178
10322500000 -38.659763 82.17437 -0.78530008 150.43477 -0.7909646 150.40567 -27.853964 -20.031174
10350000000 -39.047169 84.677452 -0.78384382 149.89648 -0.78994763 149.85368 -27.825048 -19.025629
10377500000 -38.425072 80.427788 -0.78406113 149.33807 -0.79291141 149.30771 -27.770596 -19.67124
10405000000 -38.961868 79.730606 -0.78798044 148.76241 -0.79194272 148.74513 -27.573097 -22.473728
10432500000 -39.610252 82.811325 -0.78818494 148.22459 -0.79421723 148.18842 -27.408005 -22.159922
10460000000 -38.937046 79.528435 -0.78718197 147.65366 -0.79491442 147.64497 -27.48984 -21.446253
10487500000 -39.150219 77.688332 -0.78672582 147.1115 -0.79433811 147.06903 -27.299425 -24.427513
10515000000 -40.102558 80.954506 -0.78769398 146.55592 -0.79453486 146.5278 -27.1772 -25.382055
10542500000 -39.861412 78.668961 -0.7882334 146.01624 -0.79387563 145.96362 -27.172806 -24.43651
10570000000 -39.469921 75.400429 -0.79080439 145.44431 -0.79645807 145.41057 -27.02494 -26.105667
10597500000 -40.160606 77.574615 -0.79046243 144.8885 -0.79651093 144.84184 -26.914318 -27.657911
10625000000 -40.601528 75.958649 -0.79276133 144.3497 -0.79780161 144.31395 -26.915159 -26.777378
10652500000 -39.797413 75.164207 -0.7905637 143.77708 -0.7976318 143.75392 -26.82032 -27.972555
10680000000 -40.42292 75.123917 -0.79179364 143.20987 -0.79923648 143.17332 -26.622683 -29.939741
10707500000 -41.207119 74.426201 -0.79311866 142.66972 -0.80025846 142.64383 -26.668966 -29.582136
10735000000 -40.586594 72.498718 -0.79406494 142.11133 -0.79970449 142.06937 -26.588415 -29.863337
10762500000 -40.225063 71.368927 -0.79473382 141.56238 -0.80101234 141.51665 -26.449059 -32.357853
10790000000 -42.258949 69.464165 -0.79718953 141.009 -0.79944867 140.96135 -26.416504 -32.534302
10817500000 -41.528503 69.981781 -0.79885626 140.46114 -0.80494261 140.42133 -26.372154 -31.926029
10845000000 -40.733295 70.635124 -0.79973811 139.89682 -0.8046416 139.86667 -26.148943 -33.999168
10872500000 -42.128429 68.722717 -0.79924768 139.35629 -0.80354947 139.29996 -26.114866 -34.953587
10900000000 -42.395958 66.792717 -0.80073404 138.7979 -0.8024931 138.75771 -26.16526 -34.241364
10927500000 -41.153343 70.874985 -0.80002159 138.23322 -0.80607623 138.20586 -25.962805 -36.114902
10955000000 -42.243328 67.068153 -0.80099368 137.68134 -0.80732489 137.65297 -25.84639 -37.570538
10982500000 -43.348167 65.209198 -0.80333209 137.14037 -0.80728251 137.09505 -25.869419 -36.674324
11010000000 -42.304436 72.023285 -0.80286306 136.57314 -0.80859077 136.53464 -25.784826 -37.939087
11037500000 -42.612415 66.684967 -0.80417556 136.00778 -0.80990255 135.98151 -25.633596 -39.880951
11065000000 -44.185093 59.634388 -0.80154687 135.46201 -0.81145811 135.43369 -25.628134 -39.918934
11092500000 -43.186306 68.53109 -0.80312341 134.90427 -0.81000239 134.87933 -25.589012 -39.802376
11120000000 -42.846561 67.712402 -0.8076691 134.35535 -0.81251168 134.32378 -25.46283 -41.961391
11147500000 -44.714314 59.324482 -0.80642378 133.80733 -0.81373221 133.76332 -25.450317 -42.715565
11175000000 -44.678921 65.579636 -0.80709797 133.24951 -0.81089336 133.22174 -25.35775 -42.171646
11202500000 -43.794704 69.582245 -0.80576521 132.69763 -0.81327266 132.67372 -25.223957 -44.208164
11230000000 -44.893505 54.770912 -0.80730808 132.142 -0.81319368 132.10141 -25.223888 -45.409065
11257500000 -46.023705 62.128113 -0.8079347 131.58482 -0.81406319 131.56459 -25.142281 -44.364418
11285000000 -44.570045 71.786743 -0.81168997 131.03903 -0.81468701 130.9958 -25.059708 -45.887646
11312500000 -45.673317 59.518173 -0.80999953 130.47752 -0.81599879 130.44843 -25.000643 -47.744968
11340000000 -47.556007 53.217827 -0.80865687 129.92578 -0.81683224 129.90291 -24.950712 -47.138783
11367500000 -46.159176 69.125725 -0.81179947 129.3831 -0.81892478 129.34259 -24.887697 -47.448952
11395000000 -46.476067 59.228012 -0.81256849 128.81796 -0.82036257 128.78876 -24.840179 -49.44088
11422500000 -48.368755 48.978462 -0.81204599 128.27452 -0.8186053 128.24644 -24.841059 -49.342979
11450000000 -48.673771 70.559502 -0.81344938 127.72376 -0.82127035 127.68122 -24.764385 -49.563351
11477500000 -47.710026 66.272034 -0.81393766 127.17071 -0.82097203 127.12488 -24.702456 -51.757534
11505000000 -50.031902 49.521229 -0.81435668 126.61832 -0.82082063 126.58024 -24.682699 -52.598392
11532500000 -50.603825 68.662918 -0.81559962 126.07364 -0.82266164 126.02081 -24.598234 -52.277843
11560000000 -49.21862 76.376526 -0.81715345 125.51268 -0.82291198 125.46954 -24.475937 -53.835762
11587500000 -50.981972 51.713749 -0.81582385 124.95763 -0.82251275 124.91521 -24.538284 -54.72245
11615000000 -53.618099 70.99707 -0.81824905 124.41105 -0.823385 124.37003 -24.434031 -54.639648
11642500000 -51.64415 77.310646 -0.8179915 123.84775 -0.82471317 123.82357 -24.359665 -55.560299
11670000000 -52.607582 61.843769 -0.8207137 123.28285 -0.8255583 123.26839 -24.360052 -57.265705
11697500000 -55.608868 55.386211 -0.82130194 122.74843 -0.82597345 122.71797 -24.293907 -56.956474
11725000000 -53.622219 98.316719 -0.82070559 122.19212 -0.82881409 122.15482 -24.192141 -57.83902
11752500000 -53.599609 81.949234 -0.82294261 121.63924 -0.82835013 121.6208 -24.180182 -59.19833
11780000000 -58.549622 88.813675 -0.82306337 121.09396 -0.82814115 121.05255 -24.190924 -59.475185
11807500000 -55.412106 129.57173 -0.82558715 120.53568 -0.82808477 120.51794 -24.103291 -60.048771
11835000000 -55.411396 115.22893 -0.82233196 119.9931 -0.82970953 119.95148 -24.019737 -61.587002
11862500000 -60.07151 121.73079 -0.82613564 119.43087 -0.83066005 119.40314 -24.072918 -62.161198
11890000000 -56.260284 166.36443 -0.82576936 118.88944 -0.83049864 118.85536 -23.978979 -62.247627
11917500000 -53.72525 144.30225 -0.82620138 118.34269 -0.83094621 118.30377 -23.8883 -63.75412
11945000000 -55.69165 144.1608 -0.82790309 117.78544 -0.83220804 117.75578 -23.883902 -64.574364
11972500000 -54.041775 -172.72537 -0.82493913 117.24569 -0.83379978 117.1962 -23.924433 -64.270607
12000000000 -52.25621 -178.38966 -0.82778722 116.6907 -0.83312583 116.65235 -23.783382 -65.620468
12027500000 -54.109756 171.76678 -0.82701772 116.12755 -0.83255166 116.09088 -23.79812 -66.832687
12055000000 -52.544918 -162.3838 -0.82979888 115.58422 -0.83307689 115.54494 -23.883862 -66.634254
12082500000 -49.806976 -166.09511 -0.82966131 115.03399 -0.83594978 115.00029 -23.750734 -67.928658
12110000000 -50.460464 177.8367 -0.82756484 114.48659 -0.83556348 114.45844 -23.716747 -69.086067
12137500000 -49.66045 -162.44188 -0.82938647 113.9318 -0.83568305 113.90029 -23.795542 -69.464127
12165000000 -47.426365 -163.46375 -0.82874358 113.38982 -0.83607876 113.33497 -23.66857 -70.193527
12192500000 -48.219246 -175.04773 -0.82867622 112.81325 -0.83642679 112.79882 -23.540049 -71.429459
12220000000 -47.75391 -172.10641 -0.83040148 112.28094 -0.83608001 112.24561 -23.672489 -72.099327
12247500000 -46.101654 -164.71744 -0.82957417 111.73217 -0.837246 111.68733 -23.600851 -72.15921
12275000000 -46.020714 -178.40909 -0.83168066 111.17142 -0.83783209 111.14532 -23.428537 -73.804276
12302500000 -46.081833 -176.72668 -0.83100891 110.60844 -0.83550513 110.59174 -23.472311 -74.211136
12330000000 -44.457951 -169.867 -0.83019024 110.07727 -0.83761829 110.03302 -23.505293 -74.55246
12357500000 -44.060143 -177.15974 -0.82951087 109.52504 -0.83761072 109.47695 -23.30007 -76.081223
12385000000 -44.253101 -176.90706 -0.83061677 108.95934 -0.83631569 108.92075 -23.34227 -76.367493
12412500000 -43.657574 -168.79515 -0.83217257 108.39732 -0.8364858 108.35657 -23.482635 -76.392395
12440000000 -42.742443 -172.46811 -0.83251244 107.84475 -0.83634299 107.80884 -23.291628 -77.963463
12467500000 -42.616356 -177.02908 -0.83310044 107.31142 -0.83837175 107.27695 -23.219477 -79.324799
12495000000 -42.182392 -169.02675 -0.83234501 106.75284 -0.83636308 106.71771 -23.402355 -79.244804
12522500000 -41.435703 -169.84656 -0.8317343 106.20159 -0.83724755 106.16682 -23.316305 -80.127945
12550000000 -41.399349 -175.20898 -0.83136654 105.65663 -0.8397513 105.62931 -23.157499 -81.684601
12577500000 -41.226097 -170.82149 -0.83206505 105.08735 -0.83879125 105.06583 -23.348324 -81.452667
12605000000 -40.581577 -168.53152 -0.83277273 104.54942 -0.83712262 104.51596 -23.307156 -82.251595
12632500000 -40.132599 -175.30894 -0.83419222 103.98379 -0.83961719 103.95688 -23.12079 -83.905815
12660000000 -40.226078 -174.75015 -0.83351785 103.44369 -0.83888859 103.42324 -23.224129 -84.249451
12687500000 -39.980736 -170.72237 -0.83248049 102.88875 -0.84015018 102.84757 -23.278086 -84.661148
12715000000 -39.39679 -175.40457 -0.83298814 102.32777 -0.83963478 102.30964 -23.07519 -85.949425
12742500000 -39.283241 -179.9955 -0.83341402 101.7834 -0.84021866 101.75121 -23.141291 -86.754959
12770000000 -39.110359 -176.36723 -0.83370602 101.23792 -0.84142631 101.20448 -23.226414 -86.812675
12797500000 -38.477169 -177.87248 -0.83368063 100.68298 -0.83962411 100.6546 -23.066166 -87.817558
12825000000 -38.363792 177.65244 -0.83377314 100.12276 -0.83862484 100.0955 -23.009438 -89.154648
12852500000 -38.472183 -179.81981 -0.83357024 99.575073 -0.84080517 99.540329 -23.11997 -89.135544
12880000000 -37.836742 179.9102 -0.83454794 99.037178 -0.83977389 98.997742 -22.997931 -89.775902
12907500000 -37.312965 174.5097 -0.83338583 98.479202 -0.84198028 98.438255 -22.973558 -91.159431
12935000000 -37.576473 177.14754 -0.83428627 97.915871 -0.84014076 97.894798 -23.084812 -91.914909
12962500000 -37.363762 176.17151 -0.83288217 97.361824 -0.84033519 97.336769 -23.056541 -91.803375
12990000000 -36.595703 172.91391 -0.83320862 96.821754 -0.83998495 96.783333 -22.931257 -93.228638
13017500000 -36.735588 173.14082 -0.832663 96.254326 -0.84091419 96.217522 -23.065569 -94.327644
13045000000 -36.716599 175.43311 -0.83423078 95.720512 -0.83968347 95.672874 -23.058489 -94.106766
13072500000 -36.146782 173.21864 -0.83285958 95.156219 -0.83757341 95.11026 -22.894045 -95.385254
13100000000 -36.11792 169.63567 -0.83400589 94.592567 -0.83920199 94.558533 -22.991041 -96.788696
13127500000 -36.322128 171.58595 -0.83242846 94.043091 -0.83807725 94.015068 -23.054855 -96.740509
13155000000 -35.504406 170.81337 -0.83198166 93.499733 -0.83924502 93.464821 -22.939146 -97.070137
13182500000 -35.524895 167.53119 -0.8323698 92.939583 -0.83934051 92.918472 -22.952995 -99.118614
13210000000 -35.743095 169.13411 -0.83071488 92.384628 -0.83967531 92.359062 -23.041462 -99.195313
13237500000 -35.255146 169.06317 -0.8305701 91.834137 -0.83691639 91.797264 -22.935511 -99.13015
13265000000 -34.930771 166.33086 -0.82957482 91.263168 -0.83688313 91.254265 -22.907869 -100.90225
13292500000 -35.256088 164.82436 -0.83032596 90.731285 -0.83845216 90.677681 -23.017225 -101.69599
13320000000 -34.934631 165.97321 -0.83031404 90.167137 -0.83388793 90.135284 -22.937078 -101.36459
13347500000 -34.400967 164.02448 -0.83023912 89.609314 -0.83616596 89.586243 -22.90777 -102.68179
13375000000 -34.728546 161.34718 -0.83015674 89.067787 -0.83709186 89.035294 -22.978439 -104.18462
13402500000 -34.634113 162.14755 -0.83001727 88.495636 -0.83739507 88.471397 -22.956848 -103.52026
13430000000 -34.014698 161.68251 -0.8295964 87.943527 -0.83480644 87.916031 -22.887428 -104.55067
13457500000 -34.135952 158.5114 -0.82994771 87.385483 -0.83682787 87.353844 -22.925261 -106.45906
13485000000 -34.217537 159.92805 -0.83165717 86.82946 -0.83647072 86.80204 -22.946852 -105.93453
13512500000 -33.893276 160.41086 -0.82885164 86.281242 -0.83424711 86.230141 -22.920378 -106.3622
13540000000 -33.566139 156.39409 -0.83064532 85.713326 -0.83509409 85.671684 -22.919525 -108.51447
13567500000 -33.893021 155.06177 -0.82770234 85.178925 -0.83624506 85.125656 -22.901386 -108.6177
13595000000 -33.488335 156.89828 -0.82845068 84.609901 -0.83353949 84.565521 -22.917982 -108.13773
13622500000 -33.038952 154.27867 -0.82869375 84.055733 -0.83401495 84.020256 -22.932327 -110.26309
13650000000 -33.2257 152.16878 -0.83020312 83.49675 -0.83534449 83.460617 -22.939465 -111.11232
13677500000 -33.270916 154.46228 -0.82696509 82.929237 -0.83471888 82.896912 -22.968639 -110.51888
13705000000 -32.788933 153.6472 -0.82944572 82.38195 -0.83524722 82.353714 -22.954336 -112.06721
13732500000 -32.810844 149.86517 -0.82641995 81.823517 -0.83291352 81.788788 -22.951006 -113.4856
13760000000 -32.924103 150.82584 -0.82739508 81.255432 -0.83321583 81.233589 -22.983807 -112.77718
13787500000 -32.529095 151.46069 -0.8290506 80.702354 -0.83422202 80.672096 -22.991453 -114.0268
13815000000 -32.334156 148.47865 -0.82657182 80.144241 -0.8339535 80.092873 -22.931065 -115.65649
13842500000 -32.614784 148.46965 -0.82668328 79.592186 -0.83150011 79.537155 -22.968645 -115.42358
13870000000 -32.291519 149.86511 -0.82753915 79.029633 -0.83199608 78.981255 -22.965441 -115.98125
13897500000 -31.916241 146.46916 -0.82806975 78.482567 -0.83358276 78.429993 -22.974861 -118.0545
13925000000 -32.163185 144.92729 -0.82867497 77.92775 -0.83267897 77.892311 -22.999155 -118.05512
13952500000 -32.146 146.38264 -0.82632977 77.365585 -0.83414453 77.309654 -23.010033 -117.93233
13980000000 -31.564161 145.55507 -0.82903367 76.794739 -0.83571285 76.749611 -22.958157 -120.27795
14007500000 -31.600035 142.66058 -0.83030027 76.262741 -0.83480138 76.197929 -22.996685 -120.44651
14035000000 -31.922686 144.42996 -0.82848734 75.681068 -0.8335216 75.644485 -23.074566 -120.07873
14062500000 -31.433952 144.29773 -0.83185971 75.121788 -0.83682317 75.076988 -23.031328 -122.03223
14090000000 -31.32563 141.8277 -0.83116347 74.573692 -0.83612549 74.542755 -23.012125 -122.75039
14117500000 -31.61661 141.6064 -0.82924265 74.003418 -0.83462977 73.961357 -23.099157 -122.41005
14145000000 -31.349535 142.21629 -0.82957417 73.452385 -0.83567458 73.394417 -23.08647 -124.05461
14172500000 -30.890291 140.18048 -0.83246917 72.893944 -0.83824086 72.849586 -23.035406 -125.37055
14200000000 -31.149126 139.03654 -0.83148569 72.324875 -0.8364318 72.276192 -23.097664 -124.86895
14227500000 -31.038977 140.09329 -0.83239365 71.763397 -0.83905381 71.73024 -23.086075 -125.98419
14255000000 -30.557819 139.12643 -0.83474994 71.221588 -0.84163082 71.174889 -23.063002 -127.65348
14282500000 -30.618462 137.27274 -0.83606023 70.657837 -0.83926606 70.613281 -23.136257 -127.56891
14310000000 -30.823154 137.63263 -0.83596641 70.093796 -0.84163117 70.045486 -23.141838 -128.43695
14337500000 -30.351023 137.95441 -0.83723593 69.550079 -0.84259558 69.500092 -23.039333 -130.02722
14365000000 -30.093952 135.5731 -0.83865434 68.979767 -0.84309375 68.930191 -23.133089 -130.21513
14392500000 -30.389347 135.67049 -0.83791775 68.435364 -0.84381992 68.377319 -23.192617 -130.72968
14420000000 -30.105984 136.06631 -0.83928865 67.887009 -0.84641898 67.824089 -23.10605 -132.31401
14447500000 -29.777679 134.48793 -0.84050041 67.327385 -0.8469047 67.285568 -23.167488 -132.79234
14475000000 -30.01996 133.1707 -0.84103262 66.762306 -0.84539396 66.736687 -23.276081 -133.24211
14502500000 -29.872164 134.248 -0.8408432 66.21505 -0.84666497 66.170471 -23.149868 -135.03412
14530000000 -29.392418 133.40208 -0.84201735 65.661995 -0.84599966 65.636063 -23.187748 -135.8508
14557500000 -29.527386 131.24629 -0.84050202 65.118019 -0.8452493 65.068665 -23.342436 -136.15952
14585000000 -29.680759 132.36482 -0.84150922 64.539459 -0.84649354 64.501869 -23.236284 -137.19814
14612500000 -29.36837 131.98209 -0.84008044 63.995171 -0.8470214 63.946205 -23.256163 -138.38872
14640000000 -29.193935 129.5018 -0.84220839 63.445839 -0.84558392 63.383404 -23.415535 -138.8054
14667500000 -29.422539 129.67569 -0.8416431 62.869038 -0.84716928 62.830502 -23.322809 -139.79945
14695000000 -29.177816 130.33739 -0.84117681 62.317287 -0.8475616 62.263309 -23.298746 -140.83319
14722500000 -28.911716 128.15533 -0.84103578 61.766323 -0.84905171 61.721642 -23.492477 -141.3902
14750000000 -29.088066 127.31705 -0.84285772 61.204807 -0.84695941 61.157501 -23.412025 -142.34837
14777500000 -29.078854 127.82612 -0.84114385 60.641037 -0.85041386 60.606586 -23.325195 -143.34248
14805000000 -28.625851 127.14745 -0.84453297 60.079124 -0.8530544 60.027195 -23.55924 -144.17633
14832500000 -28.786108 125.37378 -0.84350777 59.522778 -0.84967184 59.476265 -23.505816 -144.82486
14860000000 -28.901192 125.95053 -0.84762138 58.959709 -0.8527658 58.913696 -23.387611 -145.58885
14887500000 -28.467905 126.02686 -0.84259778 58.410236 -0.85170871 58.360134 -23.576593 -146.79428
14915000000 -28.409611 124.72285 -0.84594119 57.838596 -0.85278028 57.792336 -23.63249 -147.73552
14942500000 -28.690718 124.50454 -0.84822744 57.287472 -0.85647237 57.23806 -23.403599 -148.27341
14970000000 -28.33177 124.60494 -0.84943229 56.732609 -0.85540336 56.696468 -23.597424 -149.32832
14997500000 -28.061472 123.68529 -0.8480745 56.174004 -0.85498726 56.134605 -23.715305 -150.39668
15025000000 -28.409739 122.72476 -0.85064876 55.616745 -0.85435289 55.56715 -23.527647 -151.01289
15052500000 -28.209021 122.70113 -0.85196197 55.062218 -0.85836041 55.018017 -23.585857 -151.71521
15080000000 -27.835583 122.93936 -0.85214746 54.497314 -0.86031336 54.449348 -23.86648 -153.29463
15107500000 -28.118931 121.32771 -0.85301471 53.945621 -0.85974884 53.900536 -23.618547 -153.23988
15135000000 -28.059464 120.87553 -0.85363787 53.391777 -0.85942543 53.350555 -23.579481 -154.22446
15162500000 -27.646381 121.78033 -0.85612428 52.837631 -0.86134034 52.782158 -23.875137 -155.85068
15190000000 -27.833412 120.30419 -0.85651618 52.259617 -0.86036164 52.216927 -23.776651 -156.0858
15217500000 -27.986778 119.2293 -0.85868216 51.712662 -0.8630963 51.675037 -23.626575 -156.51498
15245000000 -27.565578 120.05361 -0.85840142 51.154026 -0.86435074 51.105534 -23.92592 -158.72871
15272500000 -27.537066 118.76419 -0.85923523 50.590954 -0.86372823 50.548222 -23.922892 -159.21587
15300000000 -27.780888 116.70974 -0.85953271 50.043205 -0.86648649 49.996601 -23.69194 -158.97398
15327500000 -27.445965 118.3886 -0.8597157 49.482883 -0.86714959 49.433075 -23.9231 -161.25235
15355000000 -27.287472 118.39587 -0.86270511 48.911545 -0.86829102 48.888191 -24.071686 -162.28001
15382500000 -27.554192 115.35538 -0.86508423 48.371998 -0.86871094 48.310654 -23.746595 -161.80241
15410000000 -27.351551 116.40366 -0.86418748 47.805687 -0.86988759 47.768211 -23.908918 -163.82224
15437500000 -27.072664 117.2411 -0.86720616 47.254669 -0.87362748 47.212917 -24.139849 -165.46465
15465000000 -27.264589 114.89191 -0.86854905 46.682259 -0.87422067 46.63467 -23.867825 -164.87889
15492500000 -27.147219 114.64175 -0.8687014 46.130432 -0.8729704 46.100925 -23.914305 -166.04726
15520000000 -26.902882 116.04039 -0.8700729 45.577908 -0.87693399 45.542797 -24.157709 -168.27911
15547500000 -27.057423 114.24648 -0.86925006 45.038921 -0.87305772 44.987984 -24.013298 -167.76108
15575000000 -27.032478 112.95161 -0.87122434 44.473011 -0.87775898 44.441349 -23.9485 -168.32356
15602500000 -26.689722 114.81447 -0.87399912 43.923107 -0.87904364 43.882214 -24.196371 -171.22789
15630000000 -26.753082 113.28957 -0.87225455 43.358871 -0.88041556 43.318996 -24.155535 -171.14223
15657500000 -26.766241 111.07264 -0.8739174 42.8148 -0.88006049 42.756153 -23.960911 -170.9464
15685000000 -26.543972 112.92139 -0.87521106 42.250378 -0.88125324 42.204464 -24.189827 -173.82756
15712500000 -26.481529 112.55906 -0.87797004 41.707336 -0.88293922 41.644585 -24.263676 -174.74968
15740000000 -26.599428 109.9888 -0.87683773 41.143402 -0.88546729 41.101837 -24.110483 -173.80748
15767500000 -26.444918 110.67356 -0.87875718 40.5965 -0.88540471 40.546108 -24.191521 -175.72801
15795000000 -26.326464 111.43456 -0.88260841 40.042065 -0.88789129 39.998161 -24.394585 -177.59447
15822500000 -26.349491 108.23389 -0.8813436 39.488235 -0.88752675 39.435844 -24.213051 -176.96585
15850000000 -26.265629 108.95277 -0.88064033 38.923096 -0.88721842 38.875561 -24.210375 -178.44705
15877500000 -26.17692 110.13346 -0.88254464 38.383183 -0.88835502 38.323265 -24.452202 179.50185
15905000000 -26.06196 107.46452 -0.88240761 37.829735 -0.89133143 37.765842 -24.356726 179.28252
15932500000 -26.048103 106.64613 -0.88368416 37.269207 -0.89086866 37.223026 -24.256645 178.58733
15960000000 -25.975521 108.32149 -0.88668847 36.713474 -0.89446449 36.652863 -24.409357 176.22389
15987500000 -25.907425 106.33184 -0.88741177 36.16523 -0.89344966 36.105457 -24.485249 175.98956
16015000000 -25.897818 104.90132 -0.88799167 35.610325 -0.89233655 35.563358 -24.315205 175.92381
16042500000 -25.784069 106.42441 -0.89039427 35.03754 -0.89338702 35.000721 -24.418228 173.7684
16070000000 -25.698099 105.47245 -0.88887846 34.49749 -0.89767939 34.445038 -24.565134 172.84676
16097500000 -25.684223 103.37603 -0.89066565 33.945499 -0.89737511 33.909992 -24.493572 172.68344
16125000000 -25.674641 104.2478 -0.89111084 33.392776 -0.89868659 33.33506 -24.449926 170.56854
16152500000 -25.529119 104.46954 -0.89415914 32.848267 -0.90053093 32.792995 -24.612322 169.39235
16180000000 -25.425224 102.25416 -0.89686745 32.281662 -0.9027155 32.24004 -24.620819 169.35001
16207500000 -25.514793 102.2225 -0.89571369 31.730038 -0.90102977 31.678333 -24.449396 167.5233
16235000000 -25.374046 103.02352 -0.89789134 31.183563 -0.90213686 31.136965 -24.647381 166.19936
16262500000 -25.28133 100.8382 -0.89540797 30.627529 -0.90308964 30.577019 -24.73539 165.79057
16290000000 -25.308334 100.28265 -0.89583933 30.070854 -0.90333664 30.029001 -24.588842 164.64389
16317500000 -25.220737 101.06547 -0.90044945 29.52249 -0.90591192 29.475548 -24.684175 162.8195
16345000000 -25.000437 100.339 -0.89931095 28.97522 -0.90654916 28.924763 -24.797251 162.15558
16372500000 -25.056787 98.689087 -0.90075868 28.410652 -0.90972608 28.377056 -24.673382 161.32756
16400000000 -25.089678 99.460464 -0.90177268 27.856726 -0.91064382 27.79705 -24.705709 159.7318
16427500000 -24.887709 99.181145 -0.90418035 27.321627 -0.90876132 27.240337 -24.907682 158.51974
16455000000 -24.857122 97.506592 -0.90616131 26.744955 -0.91138518 26.718878 -24.806839 157.80847
16482500000 -24.942638 97.287788 -0.90713513 26.19116 -0.91071182 26.166424 -24.766039 156.33893
16510000000 -24.709404 97.807243 -0.90822393 25.649548 -0.91094935 25.623184 -24.903286 155.11017
16537500000 -24.636925 96.046555 -0.90701294 25.104074 -0.91410393 25.053371 -24.914986 154.06194
16565000000 -24.721287 95.275307 -0.90927958 24.528643 -0.91542435 24.491894 -24.766523 153.0528
16592500000 -24.637365 96.107063 -0.91001624 23.990883 -0.91484141 23.956583 -24.927734 151.77722
16620000000 -24.464121 95.480522 -0.91131943 23.433449 -0.91545886 23.397657 -25.004541 150.69014
16647500000 -24.528944 93.588486 -0.91084844 22.883537 -0.91653317 22.82497 -24.840792 149.34311
16675000000 -24.465876 94.449303 -0.911663 22.346661 -0.91837043 22.294128 -25.010902 148.12514
16702500000 -24.303743 94.554878 -0.91517889 21.805676 -0.91962302 21.73975 -25.079979 146.81613
16730000000 -24.335039 92.040062 -0.91222697 21.226276 -0.9174853 21.196064 -24.933811 145.67853
16757500000 -24.359156 92.669121 -0.91558224 20.690029 -0.92177588 20.643196 -24.999378 144.62175
16785000000 -24.184128 93.608757 -0.91606104 20.144291 -0.92289054 20.094221 -25.146334 143.45216
16812500000 -24.166553 91.149498 -0.91598719 19.590652 -0.92169523 19.536032 -24.887232 142.14313
16840000000 -24.197437 90.279846 -0.91504467 19.041895 -0.92514592 18.979212 -24.940165 141.18381
16867500000 -24.137753 92.148125 -0.91567844 18.490389 -0.92563027 18.447044 -25.19277 139.42143
16895000000 -23.979233 90.152374 -0.91769058 17.947777 -0.92665744 17.890417 -25.008507 138.15884
16922500000 -23.946857 88.897163 -0.91672403 17.379391 -0.92630529 17.355797 -24.878193 137.59598
16950000000 -23.990671 90.447113 -0.9188633 16.840696 -0.92769575 16.795773 -25.177738 136.57182
16977500000 -23.876026 89.663315 -0.92186326 16.276159 -0.92852688 16.226122 -25.071997 134.94849
17005000000 -23.776737 87.458443 -0.91845936 15.715916 -0.92777205 15.67964 -24.886059 133.39703
17032500000 -23.909292 88.674461 -0.92363143 15.185064 -0.92886317 15.120587 -25.110069 132.60771
17060000000 -23.781088 88.677406 -0.92375755 14.621981 -0.93277901 14.579189 -25.093855 131.08002
17087500000 -23.580849 86.09153 -0.92167956 14.088629 -0.92730665 14.044129 -24.740778 130.16624
17115000000 -23.71582 86.873215 -0.92475545 13.515093 -0.93129712 13.492677 -25.006798 128.95724
17142500000 -23.734804 88.090324 -0.92414474 12.976365 -0.93446332 12.93279 -25.090965 127.33764
17170000000 -23.385939 85.46624 -0.92788547 12.44704 -0.93408042 12.38117 -24.818735 126.51205
17197500000 -23.496567 85.181923 -0.92659879 11.883485 -0.93269497 11.841807 -24.879166 125.18165
17225000000 -23.654175 86.617561 -0.93080062 11.31527 -0.93381304 11.278303 -25.046881 123.42438
17252500000 -23.300705 84.836288 -0.92559057 10.819022 -0.93537188 10.743724 -24.751844 122.48066
17280000000 -23.294868 83.467918 -0.92834771 10.241528 -0.93305403 10.187387 -24.78577 121.67076
17307500000 -23.498219 84.749115 -0.93079162 9.6746359 -0.93809479 9.6131401 -24.978062 119.63538
17335000000 -23.260258 83.988411 -0.93609434 9.1310892 -0.93918979 9.0882702 -24.800415 118.97002
17362500000 -23.087362 82.122429 -0.93166703 8.5785046 -0.9377231 8.5233431 -24.586397 117.9184
17390000000 -23.307781 82.931183 -0.93051004 8.0224781 -0.93848258 7.968173 -25.002405 115.696
17417500000 -23.187918 83.137207 -0.93475515 7.458601 -0.93861175 7.4369254 -24.815378 114.33071
17445000000 -22.829857 81.28894 -0.93222076 6.9388771 -0.93818825 6.8741117 -24.568321 114.20849
17472500000 -23.12656 80.643555 -0.93408102 6.3905673 -0.93782687 6.3287716 -24.777246 111.8101
17500000000 -23.165718 81.706978 -0.93691653 5.7927203 -0.93796915 5.770586 -24.78018 110.44271
17527500000 -22.768398 80.731522 -0.934048 5.3002639 -0.9428072 5.2457166 -24.411451 110.21468
17555000000 -22.954369 79.374306 -0.93685001 4.7249079 -0.94290787 4.6887212 -24.581991 108.83807
17582500000 -23.050087 79.926102 -0.93755668 4.1538959 -0.94293165 4.130743 -24.776619 106.72235
17610000000 -22.727232 79.861275 -0.93892342 3.6410048 -0.94255024 3.5921044 -24.403048 107.00774
17637500000 -22.67469 78.290886 -0.93689662 3.0802324 -0.94543791 3.037385 -24.387262 105.5692
17665000000 -22.87077 77.934059 -0.93607092 2.5285735 -0.94607127 2.4614942 -24.726004 102.87479
17692500000 -22.5839 78.393806 -0.93890315 2.0093617 -0.94678396 1.938599 -24.421089 102.80819
17720000000 -22.478191 77.404709 -0.93977213 1.4342232 -0.94651192 1.3517585 -24.250071 102.01534
17747500000 -22.758034 76.383049 -0.94157135 0.87694478 -0.94834518 0.83782732 -24.515854 99.123787
17775000000 -22.587027 76.971512 -0.94508874 0.31344649 -0.95166373 0.2703394 -24.447786 98.784416
17802500000 -22.343735 76.299591 -0.94295514 -0.24362296 -0.94804442 -0.25844938 -24.095352 98.601845
17830000000 -22.583754 74.41478 -0.94348973 -0.7800054 -0.94742554 -0.83534837 -24.269085 95.696182
17857500000 -22.522259 75.160599 -0.93918401 -1.3505898 -0.95161986 -1.3850524 -24.33288 94.735069
17885000000 -22.28418 75.130219 -0.94212383 -1.8603835 -0.94844306 -1.9149994 -24.006401 95.401131
17912500000 -22.381174 73.047127 -0.9443329 -2.4346287 -0.95059294 -2.476923 -24.067186 93.0252
17940000000 -22.391165 72.705971 -0.94267631 -2.9706738 -0.94831365 -3.0513415 -24.151632 90.560493
17967500000 -22.110516 74.00518 -0.9404645 -3.5275629 -0.94946533 -3.5658393 -23.904379 91.451805
17995000000 -22.173855 71.904076 -0.94408453 -4.0722132 -0.9532122 -4.127243 -23.85338 90.262024
18022500000 -22.27265 71.233421 -0.94172025 -4.6171603 -0.94863951 -4.6940746 -24.046265 86.856781
18050000000 -22.126562 72.253738 -0.94327033 -5.1895347 -0.95188963 -5.2092667 -23.866903 87.954636
18077500000 -22.022472 70.950089 -0.94886237 -5.7387314 -0.95155317 -5.7805505 -23.697819 87.156357
18105000000 -22.130182 69.472687 -0.94358915 -6.2927718 -0.95180613 -6.3498535 -23.892441 83.572571
18132500000 -22.001114 70.537369 -0.94900763 -6.8360848 -0.95506603 -6.863359 -23.799217 83.572861
18160000000 -21.907131 69.895294 -0.94888526 -7.3871365 -0.95041054 -7.4441662 -23.565163 84.460556
18187500000 -22.034153 67.982567 -0.94552672 -7.9361701 -0.95515859 -7.9827676 -23.727921 81.054108
18215000000 -21.982756 68.136253 -0.94701153 -8.4896307 -0.95454389 -8.5394926 -23.729462 79.383095
18242500000 -21.798073 68.645149 -0.9492808 -9.0501118 -0.95656282 -9.1098766 -23.505495 81.18399
18270000000 -21.803328 66.376541 -0.95069921 -9.5791283 -0.9571898 -9.6423464 -23.495665 78.112679
18297500000 -21.816132 66.215675 -0.9512673 -10.134534 -0.95719302 -10.203385 -23.563919 75.726585
18325000000 -21.715895 67.114822 -0.95056391 -10.680412 -0.95561534 -10.75635 -23.33321 77.414688
18352500000 -21.647778 65.537422 -0.95290881 -11.238524 -0.95897168 -11.297668 -23.333294 75.757439
18380000000 -21.721487 64.578468 -0.94993085 -11.776758 -0.95776874 -11.855082 -23.410892 72.352081
18407500000 -21.648832 65.185982 -0.94968212 -12.344548 -0.96075338 -12.40543 -23.302835 73.408569
18435000000 -21.527758 64.405121 -0.95656639 -12.896222 -0.96168232 -12.955517 -23.187828 73.091408
18462500000 -21.573679 62.895763 -0.94978392 -13.439729 -0.95663512 -13.515574 -23.240435 68.916527
18490000000 -21.536787 63.515038 -0.95422947 -13.970347 -0.95652443 -14.041848 -23.138746 68.921562
18517500000 -21.377565 63.218941 -0.95410049 -14.551326 -0.96536762 -14.615565 -23.018023 69.821198
18545000000 -21.424133 61.433769 -0.95063835 -15.122812 -0.96111739 -15.134593 -23.01372 66.28405
18572500000 -21.459976 61.405838 -0.95454258 -15.62311 -0.96120816 -15.704502 -23.003653 65.306839
18600000000 -21.308838 62.302288 -0.95840585 -16.183733 -0.96485877 -16.259501 -22.909336 66.586243
18627500000 -21.278561 60.122585 -0.95141327 -16.731976 -0.96006072 -16.810404 -22.847288 64.178017
18655000000 -21.384699 59.664196 -0.95498347 -17.2761 -0.96191329 -17.342737 -22.895258 61.927948
18682500000 -21.246513 60.195087 -0.95564115 -17.849804 -0.9652884 -17.90663 -22.786205 63.193424
18710000000 -21.153255 59.397717 -0.95620888 -18.391363 -0.96472013 -18.453033 -22.680399 61.801228
18737500000 -21.243704 58.12064 -0.95603311 -18.935642 -0.96037364 -19.000677 -22.681234 58.59528
18765000000 -21.172672 58.521778 -0.95656544 -19.487255 -0.96543747 -19.548586 -22.670792 59.321899
18792500000 -21.021364 58.350838 -0.95836127 -20.047733 -0.96675158 -20.091162 -22.602701 59.214188
18820000000 -21.095953 56.643921 -0.95838875 -20.610659 -0.95983535 -20.662123 -22.563957 55.564671
18847500000 -21.087893 57.028702 -0.96086156 -21.131334 -0.96534467 -21.17461 -22.467829 55.541729
18875000000 -20.990761 57.077114 -0.96149206 -21.703808 -0.96810615 -21.754768 -22.395275 56.302696
18902500000 -20.936712 55.394459 -0.95409727 -22.245319 -0.9654898 -22.295719 -22.397758 53.155369
18930000000 -21.002413 55.323353 -0.95812762 -22.784447 -0.96607119 -22.857683 -22.304609 52.349739
18957500000 -20.90185 55.859905 -0.95969939 -23.337589 -0.9673748 -23.393023 -22.259146 53.286831
18985000000 -20.810482 54.250965 -0.95677483 -23.888145 -0.96397316 -23.952112 -22.201488 50.532436
19012500000 -20.840836 53.441704 -0.95712942 -24.423731 -0.96640712 -24.51123 -22.120672 48.874321
19040000000 -20.805578 54.478413 -0.9608109 -25.007874 -0.96696115 -25.053907 -22.11688 49.922661
19067500000 -20.723438 53.368195 -0.95893848 -25.547016 -0.96445054 -25.596704 -22.038307 47.871078
19095000000 -20.739651 52.4366 -0.96095139 -26.101351 -0.9646771 -26.148779 -22.003643 45.879875
19122500000 -20.755264 53.100681 -0.95879769 -26.647907 -0.97049391 -26.699358 -21.964352 46.565121
19150000000 -20.66136 52.6712 -0.96390915 -27.205269 -0.96712673 -27.239143 -21.903702 45.794514
19177500000 -20.629843 50.666237 -0.96147233 -27.754597 -0.96608442 -27.812386 -21.818336 43.185169
19205000000 -20.654322 51.19759 -0.96303374 -28.292707 -0.96716034 -28.329021 -21.828686 43.259926
19232500000 -20.59408 51.220348 -0.96361184 -28.84182 -0.97095746 -28.878819 -21.713188 43.090988
19260000000 -20.490435 49.627373 -0.95955604 -29.398933 -0.96647763 -29.463827 -21.668608 40.775425
19287500000 -20.560629 49.648788 -0.9626072 -29.94301 -0.96984017 -30.002478 -21.657337 39.968563
19315000000 -20.577808 50.49065 -0.96637416 -30.469061 -0.97041786 -30.53125 -21.585251 40.288597
19342500000 -20.408712 48.646648 -0.95720142 -31.040245 -0.96866101 -31.110344 -21.503759 38.319771
19370000000 -20.447466 47.921761 -0.96031517 -31.57967 -0.96931458 -31.634125 -21.46805 36.942856
19397500000 -20.520893 48.80608 -0.96131051 -32.127586 -0.97300124 -32.194202 -21.403517 37.447144
19425000000 -20.331745 47.406696 -0.96199596 -32.674622 -0.96863574 -32.732574 -21.313557 36.183147
19452500000 -20.300879 46.917454 -0.96317655 -33.245605 -0.9668541 -33.27639 -21.31196 34.133659
19480000000 -20.505655 47.464039 -0.96518499 -33.769444 -0.97315669 -33.836594 -21.2953 34.685993
19507500000 -20.334665 46.667965 -0.96215069 -34.316223 -0.96994048 -34.398739 -21.186405 33.816448
19535000000 -20.157837 45.383373 -0.96067685 -34.879906 -0.96732628 -34.945126 -21.17724 31.499464
19562500000 -20.39612 45.862152 -0.96387005 -35.419247 -0.9719407 -35.489601 -21.156769 31.469051
19590000000 -20.339895 45.653767 -0.96224248 -35.984028 -0.96988124 -36.039837 -21.041073 31.56101
19617500000 -20.056486 44.412758 -0.95964128 -36.538223 -0.96854579 -36.595299 -21.023846 29.553686
19645000000 -20.302713 44.317959 -0.96292448 -37.063854 -0.97106069 -37.128483 -21.036251 28.479279
19672500000 -20.353249 44.431671 -0.96394891 -37.625015 -0.97257859 -37.668282 -20.834566 29.176933
19700000000 -20.032001 43.631786 -0.95846617 -38.189629 -0.96693265 -38.253407 -20.800421 27.296001
19727500000 -20.166225 43.226025 -0.96316427 -38.740063 -0.97132456 -38.807865 -20.898836 25.538519
19755000000 -20.350908 42.961559 -0.96669561 -39.273468 -0.97080272 -39.340694 -20.760534 26.371956
19782500000 -20.025682 42.554913 -0.9618209 -39.814472 -0.96872896 -39.884338 -20.632626 25.462639
19810000000 -20.013039 41.99596 -0.95996225 -40.372025 -0.96866971 -40.436707 -20.753023 23.353689
19837500000 -20.338581 41.679337 -0.96450192 -40.938786 -0.97261775 -40.983353 -20.651943 23.768408
19865000000 -20.033684 41.482594 -0.96151012 -41.458256 -0.96875387 -41.535564 -20.500437 23.221498
19892500000 -19.889109 41.094173 -0.96049345 -42.038391 -0.96474922 -42.08268 -20.6021 21.342199
19920000000 -20.296648 40.066212 -0.96548045 -42.594799 -0.97284383 -42.630547 -20.567743 21.012535
19947500000 -20.075087 39.937893 -0.96081412 -43.114716 -0.96968806 -43.190063 -20.361475 21.326262
19975000000 -19.838259 39.852608 -0.95872539 -43.681957 -0.96468908 -43.72348 -20.396297 19.247808
20002500000 -20.172497 38.708 -0.96716553 -44.24876 -0.96943015 -44.312222 -20.45653 18.136089
20030000000 -20.07486 38.300121 -0.96413928 -44.776867 -0.96817249 -44.843807 -20.274492 18.972742
20057500000 -19.787731 39.237473 -0.96194816 -45.313042 -0.9660812 -45.35574 -20.240873 17.462225
20085000000 -20.050886 37.729973 -0.96272546 -45.887379 -0.96782893 -45.946747 -20.32354 15.475604
20112500000 -20.173275 36.731964 -0.96488661 -46.433674 -0.96620178 -46.479546 -20.173187 16.786089
20140000000 -19.79328 38.042027 -0.96270412 -46.965424 -0.96664709 -47.026093 -20.071896 15.795339
20167500000 -19.91185 36.946346 -0.95672256 -47.561092 -0.96616721 -47.608322 -20.172379 13.215718
20195000000 -20.156479 34.742302 -0.9621284 -48.088348 -0.97024149 -48.164677 -20.065836 13.981343
20222500000 -19.826899 36.182018 -0.96100694 -48.621384 -0.96689546 -48.691311 -19.921841 14.151358
20250000000 -19.767101 35.801659 -0.95811856 -49.203907 -0.9632405 -49.26001 -20.031355 11.416829
20277500000 -20.071217 33.270863 -0.96266341 -49.727268 -0.97148353 -49.806988 -19.98451 11.414356
20305000000 -19.86936 34.243404 -0.96396637 -50.290112 -0.96847528 -50.345253 -19.80109 12.192015
20332500000 -19.747644 35.239933 -0.95294011 -50.831844 -0.96394241 -50.905655 -19.89584 9.4050703
20360000000 -19.945274 32.21064 -0.96041143 -51.403347 -0.96729589 -51.457172 -19.874643 8.6084051
20387500000 -19.945366 32.162567 -0.96058899 -51.966755 -0.96829897 -52.022705 -19.700447 10.12141
20415000000 -19.70813 34.096436 -0.95940816 -52.488708 -0.96217299 -52.543732 -19.779417 8.2269096
20442500000 -19.891171 31.645014 -0.95827025 -53.067516 -0.96495444 -53.147884 -19.77034 6.2274103
20470000000 -19.913054 30.458303 -0.96010721 -53.627979 -0.96809292 -53.669117 -19.63866 7.9518285
20497500000 -19.787758 32.435474 -0.96170074 -54.167694 -0.96664643 -54.216053 -19.591225 6.7191195
20525000000 -19.789242 31.156807 -0.96044272 -54.723778 -0.96352363 -54.804375 -19.644775 3.8145847
20552500000 -19.890833 28.658937 -0.9575386 -55.273006 -0.96807867 -55.346668 -19.558147 5.1966515
20580000000 -19.797882 30.346668 -0.96129048 -55.827957 -0.96558166 -55.866695 -19.451521 5.13942
20607500000 -19.773335 30.057306 -0.95809531 -56.378017 -0.9649325 -56.453209 -19.522552 2.0640931
20635000000 -19.798252 27.24758 -0.962237 -56.935333 -0.96666777 -56.993526 -19.460068 2.7737193
20662500000 -19.826855 28.14089 -0.95808566 -57.491859 -0.96816921 -57.55241 -19.388845 3.3319082
20690000000 -19.737068 29.355505 -0.95157832 -58.041431 -0.95849687 -58.080959 -19.397909 0.42352715
20717500000 -19.709566 26.659693 -0.959939 -58.603134 -0.964136 -58.668171 -19.319094 0.26027417
20745000000 -19.802464 26.028166 -0.95760411 -59.133415 -0.9663344 -59.225464 -19.24515 1.5304151
20772500000 -19.711103 27.753469 -0.95566535 -59.685261 -0.963099 -59.75523 -19.278038 -0.85095119
20800000000 -19.696047 25.681456 -0.96133798 -60.290028 -0.96350807 -60.324955 -19.282396 -2.3450963
20827500000 -19.740288 23.931252 -0.95722848 -60.82584 -0.96414733 -60.86689 -19.17 -0.81683677
20855000000 -19.768776 25.98649 -0.95766026 -61.35524 -0.96365643 -61.422951 -19.134783 -2.4481368
20882500000 -19.628345 24.794785 -0.95652926 -61.967819 -0.96226507 -62.003155 -19.085794 -4.919786
20910000000 -19.663507 22.444643 -0.9578678 -62.447937 -0.96387488 -62.528633 -19.065495 -3.3078749
20937500000 -19.724991 23.720551 -0.96099788 -63.040577 -0.96575624 -63.080772 -19.055618 -4.1696649
20965000000 -19.656113 23.83408 -0.95791912 -63.602245 -0.96128726 -63.650021 -18.98978 -6.5794997
20992500000 -19.562658 21.440145 -0.95348817 -64.11692 -0.96250385 -64.187386 -18.984861 -5.8475122
21020000000 -19.685799 21.682766 -0.95820057 -64.69857 -0.96830767 -64.748352 -18.908806 -5.6254063
21047500000 -19.658552 22.74169 -0.95561534 -65.268547 -0.96339011 -65.331108 -18.865307 -8.2282858
21075000000 -19.513033 20.485235 -0.96063745 -65.777054 -0.96525252 -65.842209 -18.861414 -8.3000011
21102500000 -19.601778 19.797834 -0.95641476 -66.33831 -0.96456915 -66.410339 -18.814837 -7.527472
21130000000 -19.665567 20.908978 -0.95697808 -66.911537 -0.96743238 -66.973061 -18.738136 -9.7450151
21157500000 -19.503855 19.920118 -0.958085 -67.464081 -0.9669857 -67.545639 -18.782104 -10.59794
21185000000 -19.512875 17.758507 -0.95664155 -67.984032 -0.96383935 -68.054527 -18.701118 -9.8473663
21212500000 -19.641403 19.057331 -0.95906079 -68.570946 -0.9640494 -68.599678 -18.680231 -11.346137
21240000000 -19.528835 19.243422 -0.96131861 -69.145844 -0.96503073 -69.182716 -18.694288 -13.051539
21267500000 -19.49507 17.005335 -0.95448458 -69.642754 -0.96351326 -69.699089 -18.66107 -12.174216
21295000000 -19.559057 17.264965 -0.9572401 -70.203712 -0.96286637 -70.245392 -18.573128 -13.147801
21322500000 -19.544918 18.273468 -0.95854014 -70.79509 -0.9609462 -70.845558 -18.568048 -14.912251
21350000000 -19.431299 15.790786 -0.95512182 -71.284073 -0.96349937 -71.383659 -18.615046 -14.30326
21377500000 -19.530876 15.401049 -0.95873022 -71.827339 -0.96447378 -71.920197 -18.504799 -14.725388
21405000000 -19.549253 16.664043 -0.95476967 -72.436066 -0.95712137 -72.511185 -18.427263 -16.914799
21432500000 -19.368776 15.234554 -0.95532763 -72.96962 -0.96365803 -73.020103 -18.467184 -16.490963
21460000000 -19.426722 14.053158 -0.95580047 -73.513016 -0.96189451 -73.57753 -18.428389 -16.255898
21487500000 -19.498222 15.139241 -0.95398021 -74.093994 -0.95978755 -74.149361 -18.32819 -18.258947
21515000000 -19.372723 14.725813 -0.95964384 -74.654099 -0.96515357 -74.709564 -18.435442 -18.637629
21542500000 -19.348957 12.68829 -0.9543907 -75.175354 -0.96137094 -75.265549 -18.36956 -18.233658
21570000000 -19.405249 13.783861 -0.95407116 -75.753578 -0.96326089 -75.816689 -18.265171 -19.678753
21597500000 -19.391949 13.982473 -0.95528632 -76.326019 -0.9658972 -76.425018 -18.315596 -21.040346
21625000000 -19.287422 11.771481 -0.95307553 -76.85054 -0.95788944 -76.922211 -18.300022 -20.086708
21652500000 -19.375648 11.832503 -0.95372546 -77.393837 -0.95935166 -77.480667 -18.178492 -21.484453
21680000000 -19.326605 12.796391 -0.95337665 -77.9944 -0.96446574 -78.075569 -18.182793 -23.064156
21707500000 -19.268927 10.832664 -0.95206881 -78.500153 -0.95971233 -78.558945 -18.27006 -22.336205
21735000000 -19.271511 10.407724 -0.950571 -79.048813 -0.96147752 -79.126083 -18.127859 -22.864639
21762500000 -19.298868 11.251742 -0.95321411 -79.663284 -0.95965648 -79.698463 -18.068432 -24.431829
21790000000 -19.174755 10.483194 -0.95359361 -80.18689 -0.96219432 -80.244133 -18.228012 -24.330669
21817500000 -19.216629 9.1329651 -0.95231956 -80.721565 -0.95814663 -80.788727 -18.062117 -24.582602
21845000000 -19.280434 9.5847254 -0.94840091 -81.324692 -0.95573825 -81.368271 -18.01421 -26.264086
21872500000 -19.165195 9.4382114 -0.95652801 -81.860664 -0.96010107 -81.924095 -18.125717 -26.647488
21900000000 -19.177673 8.0804253 -0.95471674 -82.397469 -0.95817536 -82.463219 -18.040089 -26.119139
21927500000 -19.250439 8.207015 -0.95162952 -82.980682 -0.95996028 -83.023682 -17.921221 -27.806
21955000000 -19.146826 8.437376 -0.95396024 -83.550735 -0.95982015 -83.607613 -18.061703 -28.807539
21982500000 -19.103567 6.9747505 -0.95105076 -84.049591 -0.96122622 -84.117844 -17.998137 -28.076374
22010000000 -19.228148 6.6689072 -0.95037413 -84.624382 -0.96086258 -84.68544 -17.8606 -29.436979
22037500000 -19.145781 7.0277529 -0.95327377 -85.201591 -0.96150559 -85.252014 -17.942398 -30.615036
22065000000 -19.048138 5.9789443 -0.95760608 -85.735573 -0.96034068 -85.793541 -17.973846 -30.061682
22092500000 -19.132559 4.8715277 -0.95276344 -86.27285 -0.96031386 -86.332924 -17.742683 -30.800888
22120000000 -19.126053 5.5729342 -0.95772743 -86.871056 -0.96333683 -86.924713 -17.813562 -32.533253
22147500000 -19.011274 5.2392092 -0.95356071 -87.402512 -0.96254128 -87.477936 -17.979107 -32.285511
22175000000 -19.1534 3.9120655 -0.95804077 -87.940582 -0.96548855 -87.998482 -17.772213 -32.278866
22202500000 -19.185791 3.9245389 -0.95389313 -88.517296 -0.96539867 -88.564171 -17.757299 -34.252533
22230000000 -19.042942 3.9856565 -0.95675963 -89.037315 -0.96536762 -89.110329 -17.952244 -34.600224
22257500000 -19.126936 2.6595609 -0.96151853 -89.575508 -0.96806246 -89.65052 -17.785896 -34.160637
22285000000 -19.23488 2.4049463 -0.95808983 -90.175774 -0.96177888 -90.212929 -17.680796 -35.989834
22312500000 -19.056669 3.1778889 -0.95708233 -90.686844 -0.96306342 -90.760223 -17.874071 -37.06459
22340000000 -19.11643 1.8032496 -0.95774126 -91.256157 -0.96174759 -91.308167 -17.834877 -35.976315
22367500000 -19.22578 1.0699985 -0.95706975 -91.796684 -0.96608186 -91.84568 -17.678801 -37.199448
22395000000 -19.135893 2.0356693 -0.95604759 -92.361961 -0.95754182 -92.403625 -17.820612 -39.020359
22422500000 -19.038679 0.98048657 -0.95798624 -92.883224 -0.9646529 -92.982147 -17.886175 -37.575912
22450000000 -19.145109 -0.37606245 -0.95635539 -93.445595 -0.96382642 -93.528511 -17.633066 -38.779736
22477500000 -19.165287 0.56382847 -0.95490187 -94.024231 -0.96335977 -94.097206 -17.715071 -40.567532
22505000000 -19.030838 0.33970031 -0.95502734 -94.562637 -0.95799142 -94.627327 -17.936344 -39.94735
22532500000 -19.130751 -1.5617977 -0.96016437 -95.109627 -0.9626922 -95.154022 -17.719809 -40.085522
22560000000 -19.156881 -1.2627681 -0.95581019 -95.688583 -0.95787585 -95.744164 -17.641174 -42.077122
22587500000 -19.053432 -0.49981585 -0.95056003 -96.228027 -0.95894134 -96.308929 -17.928761 -42.346024
22615000000 -19.085489 -2.6036236 -0.96058613 -96.790886 -0.96346802 -96.83345 -17.752815 -41.468002
22642500000 -19.217878 -2.9975355 -0.95222324 -97.341507 -0.9626376 -97.411705 -17.591017 -43.378059
22670000000 -19.128548 -1.7180002 -0.94854194 -97.893196 -0.95985049 -97.962349 -17.82855 -44.432114
22697500000 -19.124676 -3.8036559 -0.95759994 -98.454773 -0.96318978 -98.529953 -17.834391 -43.12368
22725000000 -19.183161 -4.5207181 -0.95553631 -99.016861 -0.96279949 -99.096634 -17.583445 -44.551929
22752500000 -19.204988 -3.4091208 -0.94914585 -99.552299 -0.95829386 -99.612923 -17.753033 -46.245628
22780000000 -19.126783 -4.5545316 -0.95413464 -100.12193 -0.96078503 -100.17327 -17.89488 -45.332703
22807500000 -19.154148 -6.2168274 -0.95944178 -100.67095 -0.96604723 -100.75294 -17.603958 -45.867748
22835000000 -19.2673 -4.79175 -0.95374614 -101.22339 -0.9625901 -101.27831 -17.663218 -47.805431
22862500000 -19.210911 -5.3994246 -0.95308548 -101.80848 -0.95863569 -101.86499 -17.944174 -47.379871
22890000000 -19.155167 -7.6260829 -0.95437264 -102.3141 -0.96255845 -102.40604 -17.680138 -47.045197
22917500000 -19.331293 -7.0325637 -0.95605439 -102.89157 -0.96286088 -102.9683 -17.58127 -49.163666
22945000000 -19.329779 -6.5098562 -0.95249432 -103.44366 -0.96005815 -103.4884 -17.920904 -49.722027
22972500000 -19.152981 -8.7922745 -0.95531505 -103.99123 -0.96711731 -104.07084 -17.780243 -48.835316
23000000000 -19.341772 -8.8637934 -0.95782453 -104.57021 -0.9638471 -104.61586 -17.569082 -50.345978
23027500000 -19.436237 -7.9493876 -0.95427495 -105.09517 -0.95960319 -105.1698 -17.847754 -51.628391
23055000000 -19.157665 -9.351573 -0.95801854 -105.68903 -0.96750289 -105.75669 -17.897306 -50.279751
23082500000 -19.32159 -10.520816 -0.95769417 -106.24576 -0.96296781 -106.32799 -17.559956 -51.638702
23110000000 -19.527792 -9.5121164 -0.9604224 -106.7584 -0.96341759 -106.81143 -17.757004 -53.481312
23137500000 -19.280283 -10.288262 -0.96210063 -107.34048 -0.96433192 -107.42496 -17.987259 -52.461979
23165000000 -19.251686 -11.810227 -0.95716298 -107.92405 -0.96809709 -108.01733 -17.608698 -52.868179
23192500000 -19.633287 -11.417133 -0.96206379 -108.41548 -0.97200578 -108.47858 -17.688194 -54.85862
23220000000 -19.468534 -11.748813 -0.96434742 -109.04485 -0.96492022 -109.07118 -18.048586 -55.111542
23247500000 -19.295502 -13.18469 -0.96888942 -109.56524 -0.97033077 -109.6589 -17.711731 -54.855858
23275000000 -19.654091 -13.732683 -0.97093934 -110.1055 -0.97248304 -110.15437 -17.652615 -56.086781
23302500000 -19.640865 -13.527667 -0.96118098 -110.67211 -0.96550018 -110.73524 -17.995913 -57.204872
23330000000 -19.294491 -14.264001 -0.96865195 -111.21423 -0.97211361 -111.28951 -17.857046 -56.22554
23357500000 -19.654739 -15.399794 -0.96685278 -111.76696 -0.97791862 -111.83724 -17.65361 -57.467102
23385000000 -19.808525 -15.287308 -0.95963901 -112.26849 -0.96831548 -112.35119 -17.983234 -58.756954
23412500000 -19.477106 -15.076577 -0.96945697 -112.85984 -0.97423792 -112.94399 -17.969301 -58.045242
23440000000 -19.66004 -16.984276 -0.966196 -113.42842 -0.97769916 -113.49995 -17.693382 -59.165039
23467500000 -19.977434 -17.497652 -0.96804923 -113.92063 -0.96982431 -113.97488 -17.946167 -60.305515
23495000000 -19.611658 -16.284925 -0.97078007 -114.52634 -0.97702157 -114.59322 -18.077934 -60.056732
23522500000 -19.574997 -17.570997 -0.9658128 -115.0856 -0.97175384 -115.16862 -17.76355 -60.156311
23550000000 -20.029442 -19.084654 -0.96817571 -115.59837 -0.97392726 -115.68326 -17.974909 -61.403313
23577500000 -19.870529 -17.704004 -0.96829444 -116.18971 -0.97588879 -116.2428 -18.176268 -62.468719
23605000000 -19.677177 -18.269602 -0.96692908 -116.75114 -0.97479743 -116.84383 -17.826241 -61.60918
23632500000 -20.071209 -20.675657 -0.97199279 -117.27439 -0.97804415 -117.32373 -17.93203 -62.504921
23660000000 -20.088219 -19.650188 -0.96764779 -117.8309 -0.97263688 -117.87725 -18.166182 -64.211227
23687500000 -19.754992 -18.999348 -0.97193712 -118.39946 -0.97748941 -118.46112 -17.961529 -63.41011
23715000000 -20.032831 -21.940859 -0.96926022 -118.94645 -0.97514802 -119.02387 -17.919016 -63.861526
23742500000 -20.213547 -21.194864 -0.97140098 -119.4677 -0.97413486 -119.54784 -18.204384 -65.526756
23770000000 -19.985012 -19.687273 -0.96668333 -120.05372 -0.97780001 -120.11269 -18.075277 -65.232666
23797500000 -20.010986 -22.509537 -0.97120869 -120.60997 -0.97746444 -120.67837 -17.884546 -65.163887
23825000000 -20.374006 -23.32436 -0.96495414 -121.14079 -0.97534728 -121.20158 -18.248611 -66.821609
23852500000 -20.196903 -21.141003 -0.97155637 -121.68932 -0.97609198 -121.79547 -18.186321 -67.259796
23880000000 -20.073021 -22.721823 -0.9725135 -122.26387 -0.97725368 -122.36667 -17.954443 -66.633438
23907500000 -20.322723 -24.850557 -0.97284544 -122.81013 -0.97737461 -122.89617 -18.237375 -68.125732
23935000000 -20.368113 -22.445208 -0.97457224 -123.38543 -0.97884506 -123.42999 -18.32502 -69.250381
23962500000 -20.160904 -23.130989 -0.96919227 -123.9375 -0.97711593 -124.01277 -17.976633 -67.885674
23990000000 -20.300859 -26.125458 -0.97488976 -124.46543 -0.97936982 -124.52956 -18.252964 -69.304718
24017500000 -20.474987 -24.3822 -0.97373837 -125.01913 -0.98276961 -125.12514 -18.395063 -70.765717
24045000000 -20.259132 -23.912302 -0.96967995 -125.57028 -0.9776476 -125.65231 -18.091465 -69.691177
24072500000 -20.242388 -26.89686 -0.97579837 -126.14753 -0.98100418 -126.18724 -18.248674 -70.71714
24100000000 -20.561749 -26.494755 -0.97026151 -126.68797 -0.98002702 -126.74751 -18.465317 -72.471588
24127500000 -20.452406 -24.971798 -0.97135758 -127.21547 -0.98194683 -127.28861 -18.209377 -71.73082
24155000000 -20.234669 -27.214594 -0.97113162 -127.79218 -0.97921741 -127.84822 -18.227226 -71.845528
24182500000 -20.599028 -28.309984 -0.97380191 -128.32663 -0.98473907 -128.39551 -18.570328 -73.941574
24210000000 -20.653208 -26.776928 -0.97683102 -128.85655 -0.98355812 -128.92766 -18.353142 -73.774101
24237500000 -20.353704 -27.648054 -0.97180825 -129.42372 -0.97723752 -129.49709 -18.258654 -72.751495
24265000000 -20.527481 -29.712605 -0.9727428 -129.96539 -0.97917068 -130.04803 -18.611753 -75.133018
24292500000 -20.829042 -28.513018 -0.97269583 -130.55798 -0.98552275 -130.60147 -18.543724 -75.618332
24320000000 -20.508333 -28.390772 -0.97120577 -131.07401 -0.97648352 -131.15826 -18.269663 -74.58374
24347500000 -20.498999 -30.505241 -0.97035152 -131.65732 -0.97698754 -131.72032 -18.651686 -76.197784
24375000000 -20.875462 -30.297428 -0.97506344 -132.20142 -0.98240024 -132.26604 -18.720434 -77.570869
24402500000 -20.761724 -29.053019 -0.96967995 -132.75238 -0.97889245 -132.82443 -18.338381 -76.103348
24430000000 -20.49613 -31.485844 -0.97143918 -133.29372 -0.97853249 -133.37517 -18.669374 -77.401306
24457500000 -20.862759 -31.634912 -0.9734093 -133.85939 -0.98581958 -133.93779 -18.876343 -79.327721
24485000000 -20.908417 -30.736254 -0.97257727 -134.40405 -0.97792548 -134.46625 -18.496799 -77.529892
24512500000 -20.577623 -31.537842 -0.96997476 -134.92714 -0.97598928 -135.01576 -18.650581 -78.399513
24540000000 -20.847614 -33.013443 -0.97602749 -135.52103 -0.9771691 -135.58363 -19.017494 -80.95298
24567500000 -21.073917 -32.25848 -0.97042757 -136.06961 -0.9767046 -136.13651 -18.645317 -79.234642
24595000000 -20.733484 -32.329044 -0.96823782 -136.60582 -0.9765678 -136.67032 -18.70698 -79.221901
24622500000 -20.869499 -33.66909 -0.97232437 -137.16861 -0.97723621 -137.24486 -19.098532 -82.046059
24650000000 -21.204288 -34.120564 -0.9743591 -137.71001 -0.97792155 -137.81323 -18.90202 -81.333885
24677500000 -20.968248 -33.271996 -0.96867716 -138.2637 -0.97698981 -138.31638 -18.72213 -80.249992
24705000000 -20.857111 -34.526451 -0.96953303 -138.83229 -0.9776395 -138.88518 -19.180058 -83.3797
24732500000 -21.156164 -35.660206 -0.96836269 -139.366 -0.97928715 -139.44839 -19.121878 -83.345375
24760000000 -21.115816 -34.357933 -0.96568739 -139.89659 -0.97475821 -139.97322 -18.816921 -81.253784
24787500000 -20.977673 -35.148941 -0.96501231 -140.46449 -0.97530514 -140.53688 -19.176893 -84.127296
24815000000 -21.258432 -36.679916 -0.96984303 -141.04263 -0.97547817 -141.10486 -19.332354 -85.224434
24842500000 -21.368198 -36.123741 -0.96644884 -141.58046 -0.97252482 -141.63742 -18.94919 -82.473961
24870000000 -21.127789 -35.951012 -0.96468067 -142.12567 -0.97186071 -142.15129 -19.191257 -84.844864
24897500000 -21.22753 -37.588829 -0.97216314 -142.68263 -0.9775455 -142.75676 -19.455769 -87.038307
24925000000 -21.458275 -37.781086 -0.96552312 -143.25049 -0.97044212 -143.30807 -19.210325 -83.577225
24952500000 -21.297417 -36.662945 -0.96282953 -143.78494 -0.96962237 -143.82732 -19.242052 -85.24028
24980000000 -21.263544 -38.287399 -0.97027999 -144.33128 -0.9731515 -144.39922 -19.585566 -88.677635
25007500000 -21.623926 -39.161446 -0.96350646 -144.93196 -0.97088981 -144.99089 -19.434752 -85.773186
25035000000 -21.503536 -37.95787 -0.9612149 -145.39606 -0.96984047 -145.50537 -19.359035 -85.593941
25062500000 -21.353727 -38.846176 -0.9644835 -146.00354 -0.97303683 -146.07808 -19.715504 -89.917168
25090000000 -21.571978 -39.948532 -0.96150208 -146.61348 -0.97445625 -146.64447 -19.648966 -88.264587
25117500000 -21.783669 -38.926125 -0.96143001 -147.12764 -0.96609801 -147.13892 -19.517027 -85.940224
25145000000 -21.572187 -39.618217 -0.96310741 -147.6619 -0.96803987 -147.72214 -19.700497 -90.786079
25172500000 -21.662601 -41.214813 -0.96297425 -148.24631 -0.97304654 -148.27148 -19.885061 -90.449318
25200000000 -21.871845 -40.79599 -0.96057737 -148.7789 -0.96588719 -148.87062 -19.738695 -86.711739
25227500000 -21.756014 -40.006477 -0.96320754 -149.33884 -0.96637547 -149.38333 -19.748617 -90.984833
25255000000 -21.804462 -41.907955 -0.96197081 -149.88805 -0.97067517 -149.96785 -20.050671 -92.274567
25282500000 -22.080416 -41.319969 -0.9605183 -150.44344 -0.96646762 -150.49577 -19.926939 -88.213104
25310000000 -22.002907 -40.59576 -0.96141195 -151.00035 -0.96850991 -151.06699 -19.878153 -91.059196
25337500000 -21.92495 -42.864231 -0.96285504 -151.58357 -0.96626484 -151.64409 -20.09453 -93.818741
25365000000 -22.201828 -42.9622 -0.95467061 -152.13422 -0.96323889 -152.17761 -20.185402 -90.24649
25392500000 -22.198051 -41.653587 -0.95910436 -152.66142 -0.96521342 -152.72691 -20.018555 -90.900536
25420000000 -22.000834 -42.761932 -0.95920801 -153.22044 -0.96876293 -153.27267 -20.230967 -95.522705
25447500000 -22.311298 -44.022991 -0.95628345 -153.79318 -0.96168649 -153.85303 -20.398066 -92.539719
25475000000 -22.421947 -42.851894 -0.95739633 -154.34021 -0.9627704 -154.40927 -20.296253 -90.920113
25502500000 -22.27655 -43.291119 -0.96583802 -154.91095 -0.97200418 -154.96564 -20.313307 -96.349876
25530000000 -22.386282 -45.382797 -0.9590224 -155.44655 -0.96509409 -155.51814 -20.551975 -94.456856
25557500000 -22.575695 -43.965469 -0.9573282 -156.00214 -0.95840776 -156.05133 -20.55687 -91.834328
25585000000 -22.418383 -43.69833 -0.95755541 -156.51837 -0.96635962 -156.595 -20.419157 -95.934311
25612500000 -22.554245 -45.147995 -0.96170753 -157.08904 -0.96523827 -157.18343 -20.749327 -96.680725
25640000000 -22.844526 -45.746712 -0.95564467 -157.63286 -0.9614042 -157.71025 -20.838133 -92.736015
25667500000 -22.70167 -44.465214 -0.95937008 -158.20348 -0.96380091 -158.26822 -20.704618 -95.765572
25695000000 -22.735643 -46.29134 -0.95921898 -158.78026 -0.96813428 -158.84877 -20.864456 -98.441238
25722500000 -22.993523 -47.138527 -0.95111585 -159.32591 -0.96339113 -159.37546 -21.050732 -94.585716
25750000000 -22.954876 -44.981907 -0.94993597 -159.85649 -0.96118134 -159.96638 -20.978374 -96.052925
25777500000 -22.859941 -46.010181 -0.95754153 -160.42639 -0.96199048 -160.49232 -20.946514 -99.410423
25805000000 -23.196281 -48.853046 -0.95132244 -160.9752 -0.9631297 -161.07237 -21.309973 -96.528137
25832500000 -23.231493 -45.08691 -0.95116001 -161.52542 -0.95826674 -161.59872 -21.247494 -95.515518
25860000000 -23.040487 -45.753559 -0.95530504 -162.11626 -0.96390557 -162.17786 -21.140291 -100.10671
25887500000 -23.317457 -49.488544 -0.95866275 -162.68341 -0.96633017 -162.7254 -21.406082 -98.358185
25915000000 -23.508152 -46.57618 -0.95071727 -163.19412 -0.95557922 -163.26405 -21.648161 -95.715126
25942500000 -23.353205 -45.695431 -0.95230186 -163.73996 -0.96394372 -163.83328 -21.412558 -99.822769
25970000000 -23.471743 -49.705963 -0.96107572 -164.33856 -0.96184832 -164.40259 -21.743238 -100.24273
25997500000 -23.72592 -49.246902 -0.94933295 -164.87894 -0.95775712 -164.9305 -21.830143 -96.349808
26025000000 -23.693731 -46.070889 -0.95637828 -165.42821 -0.95901304 -165.51582 -21.614237 -99.739075
26052500000 -23.587629 -49.432892 -0.95514959 -165.97861 -0.95569181 -166.04539 -21.820187 -101.56495
26080000000 -23.912853 -50.989929 -0.95223516 -166.51302 -0.96027935 -166.59216 -22.198225 -97.497124
26107500000 -23.940037 -45.664066 -0.94822764 -167.08359 -0.95792651 -167.09573 -22.034229 -99.816597
26135000000 -23.963903 -49.254425 -0.95519245 -167.66547 -0.96443564 -167.71355 -22.128908 -102.38153
26162500000 -24.047789 -52.041367 -0.95369226 -168.20201 -0.95774031 -168.27069 -22.462126 -99.163795
26190000000 -24.397688 -48.319633 -0.95280987 -168.75584 -0.95058936 -168.81732 -22.397362 -98.713821
26217500000 -24.195776 -47.037498 -0.95132661 -169.31096 -0.95925033 -169.39507 -22.275385 -102.12213
26245000000 -24.138836 -53.181347 -0.954036 -169.89481 -0.9599067 -169.952 -22.733961 -99.836655
26272500000 -24.593632 -49.995407 -0.94668931 -170.41127 -0.95357972 -170.47644 -22.761663 -99.218117
26300000000 -24.622803 -46.600117 -0.95172012 -170.9668 -0.95597726 -171.05112 -22.733723 -102.70205
26327500000 -24.316456 -52.976292 -0.95385349 -171.58943 -0.96053022 -171.61488 -22.902529 -101.92964
26355000000 -24.759214 -52.169865 -0.94875902 -172.09686 -0.94935197 -172.14964 -23.099325 -99.331444
26382500000 -25.014563 -46.565884 -0.94332308 -172.6179 -0.95696259 -172.70114 -22.954298 -102.20532
26410000000 -24.538624 -51.532642 -0.95166498 -173.22037 -0.95727366 -173.31693 -23.112593 -102.86813
26437500000 -24.992643 -54.104404 -0.94459414 -173.7536 -0.95382607 -173.82571 -23.372297 -100.0302
26465000000 -25.38365 -48.070374 -0.95110363 -174.31915 -0.95684648 -174.38451 -23.20907 -101.56204
26492500000 -24.918991 -49.898338 -0.95182258 -174.90065 -0.95490801 -174.95415 -23.425379 -102.48095
26520000000 -25.034538 -54.210777 -0.95120996 -175.30817 -0.94991958 -175.46576 -23.818806 -100.37807
26547500000 -25.63279 -49.379414 -0.95206273 -175.95297 -0.95657641 -176.03384 -23.757473 -101.38041
26575000000 -25.412228 -49.464855 -0.95684904 -176.50415 -0.95103079 -176.60112 -24.024426 -103.2043
26602500000 -25.162352 -52.380566 -0.95684159 -177.18925 -0.96407169 -177.11099 -23.951996 -101.32027
26630000000 -25.955719 -52.312637 -0.95471966 -177.64105 -0.93954587 -177.74957 -24.052565 -99.753662
26657500000 -25.670788 -48.775623 -0.93844241 -178.09502 -0.94654089 -178.27217 -24.155506 -103.69759
26685000000 -25.351166 -53.840931 -0.94766706 -178.7798 -0.9508884 -178.92024 -24.347525 -99.902534
26712500000 -26.016592 -54.034904 -0.93942797 -179.38321 -0.9590382 -179.33125 -24.4722 -100.10647
26740000000 -26.373001 -49.772312 -0.94935328 -179.8743 -0.9497456 -179.95293 -24.398254 -103.55252
26767500000 -25.711527 -50.163067 -0.95062542 179.57137 -0.95676613 179.43031 -24.683712 -102.24449
26795000000 -25.993242 -55.941093 -0.9519757 179.09584 -0.95512122 178.87022 -24.563404 -99.609596
26822500000 -26.979731 -49.679817 -0.97028095 178.48363 -0.95298684 178.37959 -24.5804 -103.03796
26850000000 -26.186144 -49.826485 -0.94276118 177.90097 -0.9524321 177.82472 -25.172634 -101.67112
26877500000 -26.053518 -53.288063 -0.95372999 177.36061 -0.9514581 177.25543 -24.913282 -99.993401
26905000000 -27.189531 -53.118916 -0.95094734 176.81633 -0.95556921 176.72838 -24.890789 -100.48698
26932500000 -26.708992 -47.465637 -0.93891281 176.21107 -0.95554596 176.0786 -25.449812 -101.29432
26960000000 -26.34425 -52.064697 -0.94623703 175.66025 -0.95615828 175.59506 -25.22488 -100.00304
26987500000 -27.217339 -53.753475 -0.94085634 175.14424 -0.95644087 175.05087 -25.361113 -100.21738
27015000000 -27.347023 -47.20076 -0.94815618 174.49321 -0.95471001 174.50374 -25.954958 -101.14034
27042500000 -26.391098 -48.599998 -0.94502372 174.01341 -0.94618231 173.92119 -25.772991 -98.580635
27070000000 -26.919844 -56.200829 -0.95633733 173.38928 -0.95733017 173.37296 -25.937136 -99.360916
27097500000 -28.098467 -48.866489 -0.94375867 172.89435 -0.95981306 172.8156 -26.094112 -101.39575
27125000000 -27.114992 -47.910233 -0.94417143 172.20888 -0.95883739 172.15497 -26.496534 -98.453644
27152500000 -27.202766 -52.723743 -0.95785487 171.69904 -0.95275283 171.65858 -26.174837 -96.894005
27180000000 -28.016069 -51.713898 -0.95716268 171.17899 -0.95092833 171.16638 -26.376072 -101.74519
27207500000 -27.56369 -46.852074 -0.95916474 170.59679 -0.94295967 170.61043 -26.960779 -98.901657
27235000000 -27.290274 -54.24461 -0.9392885 170.05989 -0.95371836 169.96432 -26.495161 -95.70887
27262500000 -28.151142 -53.308254 -0.94797778 169.50633 -0.95771289 169.44109 -26.628508 -100.66339
27290000000 -28.442251 -43.479946 -0.95437813 168.94595 -0.95109105 168.89705 -27.308201 -99.428947
27317500000 -27.522547 -48.281715 -0.9587993 168.43968 -0.95780003 168.29344 -27.324425 -93.842926
27345000000 -28.102779 -54.086308 -0.95921934 167.8699 -0.94554794 167.77515 -26.878986 -100.0912
27372500000 -29.097466 -47.147087 -0.95232379 167.3316 -0.95495605 167.17474 -27.52953 -98.264107
27400000000 -28.038612 -46.212849 -0.93596172 166.78902 -0.9568513 166.64517 -27.571753 -91.411133
27427500000 -27.970369 -52.330906 -0.94796067 166.17459 -0.9588474 166.10072 -26.979319 -95.54377
27455000000 -28.951654 -47.775726 -0.93872482 165.71541 -0.95932007 165.63184 -27.627939 -97.738274
27482500000 -28.795406 -41.882671 -0.94916904 165.08887 -0.95251334 164.93665 -28.239349 -92.268471
27510000000 -28.296957 -49.587208 -0.9477495 164.45479 -0.95076078 164.4202 -27.596636 -92.33905
27537500000 -29.124569 -49.876987 -0.96240628 164.01665 -0.95337856 163.86859 -28.081146 -95.150284
27565000000 -29.312416 -39.337582 -0.94326907 163.37125 -0.95730466 163.36156 -28.299524 -90.180374
27592500000 -28.085772 -45.941368 -0.94331765 162.94872 -0.95611566 162.75951 -28.02305 -85.181412
27620000000 -28.894472 -50.042152 -0.94826436 162.2841 -0.96602106 162.16776 -28.122093 -92.481728
27647500000 -29.964575 -39.360924 -0.94637865 161.70569 -0.95906436 161.69456 -28.806019 -88.827591
27675000000 -29.034689 -40.577606 -0.95429915 161.06953 -0.96095461 161.01529 -28.333586 -83.527496
27702500000 -29.078989 -52.091446 -0.95222193 160.51439 -0.96082443 160.5242 -28.549139 -88.292763
27730000000 -30.044655 -41.384277 -0.9487893 160.1096 -0.96544683 159.92694 -28.983273 -85.165512
27757500000 -29.578468 -42.584007 -0.94380242 159.51595 -0.95821506 159.38304 -28.904863 -79.457336
27785000000 -29.027184 -47.419777 -0.97528279 158.90077 -0.95353109 158.84361 -28.063795 -83.054657
27812500000 -30.555086 -39.157028 -0.95240855 158.41106 -0.96397215 158.25325 -29.022966 -86.128052
27840000000 -29.620333 -34.534313 -0.95193183 157.82983 -0.9614659 157.78516 -29.270498 -76.873482
27867500000 -29.033001 -44.896397 -0.96437263 157.17245 -0.95547634 157.15709 -28.24509 -79.608109
27895000000 -30.182022 -44.874615 -0.94132704 156.68033 -0.95310777 156.62241 -29.028835 -83.456314
27922500000 -30.067102 -31.641279 -0.95284373 156.11168 -0.9589178 156.02629 -29.598038 -78.94384
27950000000 -29.489302 -37.550442 -0.96197981 155.62801 -0.95253748 155.55597 -28.572317 -75.034843
27977500000 -29.951653 -37.362007 -0.96374369 154.92484 -0.96720725 154.97905 -29.028126 -79.660995
28005000000 -30.899057 -32.679535 -0.94101965 154.52008 -0.96518236 154.33566 -29.753103 -73.600555
28032500000 -29.420723 -34.886951 -0.96247929 154.00446 -0.95412403 153.8502 -29.046539 -66.186287
28060000000 -29.219049 -38.076355 -0.95804209 153.32442 -0.95897043 153.23486 -28.871819 -77.026917
28087500000 -31.396328 -33.324821 -0.95618248 152.83858 -0.94618714 152.70284 -29.475887 -71.716789
28115000000 -30.168516 -29.229931 -0.95570052 152.30469 -0.9533183 152.17926 -28.772554 -66.699242
28142500000 -29.291323 -35.914646 -0.95463938 151.63074 -0.95798141 151.59895 -28.325068 -70.879715
28170000000 -30.737825 -32.315487 -0.95883161 151.07063 -0.98981059 150.98824 -29.198709 -68.925049
28197500000 -30.250273 -28.417871 -0.94401312 150.56693 -0.96989095 150.51125 -29.062902 -62.529312
28225000000 -29.568481 -33.239407 -0.94404721 149.96054 -0.9709633 149.77853 -27.980885 -66.923798
28252500000 -31.063839 -31.859579 -0.95829511 149.53822 -0.96908259 149.25731 -28.702812 -66.349205
28280000000 -30.434088 -23.029339 -0.95289111 148.92682 -0.96236068 148.78157 -29.253187 -63.3372
28307500000 -29.09704 -27.733101 -0.93345773 148.42056 -0.96489465 148.30571 -28.100788 -57.641415
28335000000 -30.188665 -28.623377 -0.94857705 147.7294 -0.96882826 147.68304 -28.107521 -64.075798
28362500000 -31.049034 -22.634293 -0.96972847 147.29637 -0.96337366 147.17549 -28.755007 -57.248627
28390000000 -29.858675 -26.507669 -0.95717943 146.68031 -0.9489336 146.62556 -28.020191 -57.87257
28417500000 -30.225393 -24.939211 -0.94658631 146.10764 -0.97269809 146.07608 -28.193314 -60.3895
28445000000 -31.245117 -21.327448 -0.94721532 145.50388 -0.96786386 145.46687 -28.366247 -57.336113
28472500000 -30.097357 -22.004629 -0.95356619 145.01453 -0.94718444 144.84769 -27.819798 -52.71394
28500000000 -30.046953 -23.638554 -0.96075827 144.40028 -0.96573263 144.3042 -27.330143 -57.012802
28527500000 -31.02536 -19.879148 -0.94376284 143.88026 -0.95071214 143.84261 -28.160187 -56.00668
28555000000 -30.113319 -15.915673 -0.96624255 143.37019 -0.96771246 143.36679 -27.209152 -50.280754
28582500000 -29.188148 -20.702316 -0.94245052 142.76547 -0.95361394 142.66476 -27.295826 -53.666328
28610000000 -30.798273 -22.669798 -0.95142198 142.23837 -0.94910169 142.07747 -27.780254 -55.209789
28637500000 -29.947329 -14.842635 -0.95473415 141.69589 -0.96071172 141.59167 -27.147068 -48.640778
28665000000 -29.071316 -13.602921 -0.96394503 141.00171 -0.96958256 140.98003 -26.63623 -49.733753
28692500000 -30.218773 -18.57966 -0.95771581 140.5127 -0.95192248 140.49159 -26.951288 -52.446701
28720000000 -30.258148 -12.891356 -0.95531791 139.99734 -0.98139876 139.90056 -26.923748 -50.424892
28747500000 -29.05151 -11.250305 -0.96409237 139.47337 -0.96191585 139.37132 -26.395796 -47.527706
28775000000 -30.196665 -15.023271 -0.96310252 138.85432 -0.97573417 138.82449 -26.413708 -50.178772
28802500000 -30.679455 -14.523986 -0.9382962 138.23314 -0.97445399 138.12878 -26.582876 -49.928455
28830000000 -28.891329 -8.7646494 -0.96494961 137.54195 -0.94951397 137.69681 -26.042484 -46.3577
28857500000 -29.564297 -14.104987 -0.96485168 137.2218 -0.96271062 136.96753 -25.651381 -51.133434
28885000000 -30.715389 -6.4893332 -0.97287166 136.67252 -0.96673697 136.56952 -26.003204 -48.839367
28912500000 -29.152739 -9.026022 -0.93929428 136.04678 -0.96542805 136.01353 -25.693661 -44.90012
28940000000 -29.249735 -10.440261 -0.96407235 135.51697 -0.972974 135.40421 -25.455069 -47.65184
28967500000 -30.651541 -8.6078978 -0.95452195 134.89305 -0.97721803 134.96158 -25.772762 -47.506855
28995000000 -29.069424 -2.8934207 -0.97782689 134.36566 -0.9731735 134.3064 -25.683483 -41.910648
29022500000 -28.434023 -8.8080206 -0.96413505 133.78838 -0.97369885 133.69353 -24.942581 -44.420517
29050000000 -29.120792 -7.1758761 -0.96336591 133.2448 -0.96019959 133.27325 -25.14188 -45.053864
29077500000 -29.530193 -4.5504217 -0.96891272 132.77135 -0.9759708 132.72531 -25.186392 -42.430695
29105000000 -28.363184 -4.119009 -0.96288377 132.07262 -0.95585501 131.9996 -24.57745 -43.822674
29132500000 -29.482702 -4.7476845 -0.97420746 131.6926 -0.97774488 131.56013 -24.887102 -46.663891
29160000000 -29.717398 -3.1916814 -0.97969419 131.0105 -0.97760803 130.97591 -24.960007 -43.104988
29187500000 -28.327394 -0.72721678 -0.97641158 130.45682 -0.97742939 130.44875 -24.424095 -44.834072
29215000000 -28.979605 -5.4923024 -0.97101766 129.91316 -0.97206795 129.81746 -24.297352 -44.848888
29242500000 -29.490339 -1.3113345 -0.97812355 129.31345 -0.99293804 129.3365 -24.502655 -43.078003
29270000000 -28.470459 1.1309433 -0.96071917 128.82863 -0.97835898 128.77155 -23.933142 -44.128502
29297500000 -28.525955 -2.9958529 -0.98092109 128.18538 -0.97539556 128.0556 -23.790346 -44.918991
29325000000 -29.289211 -4.2433028 -1.0036203 127.69743 -0.99744368 127.69582 -24.333103 -44.313995
29352500000 -28.366293 3.7433233 -0.97385889 127.27446 -0.99211174 127.12485 -23.836708 -44.398506
29380000000 -27.466383 -3.4112494 -0.96300918 126.63227 -0.97186005 126.47657 -23.146839 -46.316589
29407500000 -28.931894 -3.2105587 -0.96888685 126.03484 -0.98480982 126.02105 -23.978432 -45.529205
29435000000 -28.200924 0.20640755 -0.97250181 125.49183 -0.99089271 125.50948 -23.62396 -44.059971
29462500000 -27.649847 3.9608707 -0.97096491 124.83363 -0.98585111 124.79081 -23.06604 -45.409828
29490000000 -28.289856 -4.0123296 -0.97590077 124.45817 -1.0023009 124.26569 -23.476898 -44.988396
29517500000 -28.890949 0.74931943 -0.98588681 123.80499 -1.0068667 123.80373 -23.58667 -44.437317
29545000000 -27.568117 3.3420918 -0.97048974 123.28994 -0.9844088 123.25586 -22.802418 -44.950966
29572500000 -27.471439 0.61507267 -0.97533917 122.62727 -0.98425621 122.57168 -23.204773 -45.5709
29600000000 -28.801853 -2.0764632 -0.97386312 122.13559 -0.9802382 122.09779 -23.295454 -43.003914
29627500000 -27.305124 9.1447716 -0.98210651 121.59902 -0.98600572 121.57647 -22.711407 -43.834114
29655000000 -26.856724 1.3889805 -0.97178978 121.06529 -0.97591311 120.88422 -22.750875 -45.019306
29682500000 -28.021858 -0.11171134 -0.98072708 120.48399 -0.99290228 120.44734 -22.870781 -43.750118
29710000000 -27.412344 5.7656054 -0.99067318 119.95609 -0.99420744 119.92303 -22.499754 -44.315308
29737500000 -26.519072 2.5957689 -0.97645175 119.3213 -0.98303837 119.22095 -22.283516 -46.340103
29765000000 -27.257603 -2.3006904 -0.99298495 118.80445 -0.99084395 118.7485 -22.990879 -43.817173
29792500000 -27.130653 4.2889209 -1.0154546 118.35919 -0.98270017 118.33018 -22.340424 -44.995476
29820000000 -26.690931 7.4537196 -0.97501129 117.7741 -0.99680436 117.63045 -21.985025 -46.513512
29847500000 -26.748959 -3.4415047 -0.99201643 117.30493 -0.97838074 117.10969 -22.600821 -46.510689
29875000000 -27.83914 0.82169986 -0.97857493 116.55486 -0.99407434 116.54253 -22.354456 -43.741024
29902500000 -26.598143 9.3638182 -0.98099768 116.05344 -0.97841835 116.05843 -21.64374 -46.512222
29930000000 -26.167582 2.1057627 -0.98821515 115.46217 -0.98969322 115.36505 -21.91852 -45.414684
29957500000 -26.964449 -2.1519265 -0.97838074 114.88067 -1.017616 114.91409 -22.278757 -45.662079
29985000000 -26.913795 5.9602489 -0.98473155 114.23394 -0.98844558 114.45193 -21.388985 -46.198727
30012500000 -25.750082 1.0454328 -0.97960627 113.81332 -1.0061738 113.69236 -21.688766 -48.679085
30040000000 -26.24386 -3.3384476 -0.99996132 113.25127 -0.99556482 113.21954 -22.014711 -46.360851
30067500000 -26.735399 4.7798033 -0.98388767 112.7447 -1.0054986 112.59907 -21.555998 -46.206081
30095000000 -26.007185 5.9945798 -0.99021471 112.11855 -0.96692556 111.97668 -21.101427 -48.923225
30122500000 -25.768713 -3.6987929 -0.99291337 111.69474 -0.99893296 111.52171 -21.862902 -47.299732
30150000000 -26.697411 -0.76732874 -0.99612153 111.08787 -1.0031353 111.01124 -21.415442 -47.465603
30177500000 -26.010595 5.1945329 -0.98046821 110.53231 -1.0007383 110.34161 -20.93754 -48.759964
30205000000 -25.456911 -2.6249728 -1.0036676 109.91364 -1.0204784 109.92774 -21.359282 -47.457226
30232500000 -26.364256 -3.8881156 -1.0046445 109.47958 -1.0002345 109.26167 -21.336357 -48.510471
30260000000 -26.100325 8.3734407 -1.0094421 108.88837 -0.9870609 108.78432 -20.729897 -50.288017
30287500000 -25.79801 -1.7014536 -0.98569876 108.26009 -0.99962634 108.27355 -21.231794 -49.417404
30315000000 -25.811769 -4.508523 -0.99569994 107.80888 -1.0164827 107.58979 -21.205242 -49.060566
30342500000 -26.155113 4.9897079 -0.99599326 107.14349 -0.99836808 107.12016 -20.452047 -50.576607
30370000000 -25.209091 1.0999253 -0.98734814 106.53954 -0.98361689 106.5406 -20.702715 -50.858192
30397500000 -25.251152 -6.6443796 -0.99103385 106.08657 -1.0060574 105.83932 -21.025032 -50.411465
30425000000 -25.620495 2.1716101 -0.99126184 105.49443 -1.0066689 105.4009 -20.38793 -50.281487
30452500000 -25.056053 -0.68737835 -0.97912854 104.86926 -0.99516767 104.79691 -20.357542 -51.57946
30480000000 -24.470295 -3.709991 -0.98265505 104.36741 -1.0250098 104.29379 -20.762848 -50.566399
30507500000 -25.560703 -0.44463307 -1.0160244 103.85587 -1.0176228 103.75115 -20.671921 -50.724159
30535000000 -25.343111 1.5052285 -0.99585098 103.20013 -0.99646831 103.22318 -20.07523 -51.688164
30562500000 -24.373461 -3.5026276 -0.98193645 102.67838 -1.012661 102.48325 -20.716343 -53.061714
30590000000 -25.186405 -2.7887123 -1.0159423 102.05138 -1.0266066 101.96313 -20.459229 -51.003998
30617500000 -25.626516 1.6146991 -0.98080951 101.59074 -1.0170244 101.53189 -19.820782 -52.271587
30645000000 -24.166622 -2.2769029 -0.99756122 100.9851 -1.0057852 100.95388 -20.320633 -54.512386
30672500000 -24.401489 -5.7981129 -1.0254676 100.51074 -1.0138818 100.39467 -20.267359 -53.065762
30700000000 -25.226673 -1.345083 -1.0028189 99.873993 -1.0197266 99.890755 -19.494131 -53.586983
30727500000 -24.325329 -0.23907717 -1.0065684 99.298775 -1.0116322 99.202263 -20.055399 -55.944244
30755000000 -23.800982 -5.2694664 -1.0172256 98.714516 -1.0101062 98.848373 -20.07037 -55.316902
30782500000 -24.846205 -1.2813812 -1.0215616 98.267029 -1.0254709 98.145325 -19.572548 -54.52721
30810000000 -24.317526 -1.3722259 -1.0030504 97.757843 -1.0251749 97.688087 -19.617411 -56.161663
30837500000 -23.474222 -5.4184995 -1.0250877 96.962654 -1.01884 97.06089 -20.096939 -57.246597
30865000000 -24.361641 -6.9897323 -1.0255489 96.662216 -1.0103326 96.53936 -19.667849 -56.455593
30892500000 -24.482994 -2.7734427 -1.0131669 95.999504 -1.0181402 96.011528 -19.467844 -58.246952
30920000000 -23.729879 -5.4937086 -1.0094196 95.355377 -1.0174406 95.438927 -19.94076 -59.185692
30947500000 -24.223612 -6.046082 -1.0163865 94.891594 -1.0275503 94.760643 -19.659443 -58.077686
30975000000 -24.663225 -3.9104588 -1.0294211 94.34008 -1.0329857 94.285828 -19.231567 -58.072716
31002500000 -23.784723 -6.3018312 -1.0394427 93.852951 -1.0236375 93.754074 -19.698647 -59.379398
31030000000 -23.483028 -8.0795116 -1.0097218 93.474625 -1.0354478 93.197845 -19.739887 -59.379433
31057500000 -24.615318 -5.3134513 -1.0300382 92.822845 -1.0275152 92.638878 -19.068621 -59.236652
31085000000 -23.561726 -5.8744063 -1.0102519 92.250679 -1.0383279 92.102623 -19.480494 -60.268894
31112500000 -23.385904 -6.0735455 -1.0221443 91.565521 -1.0379713 91.67234 -19.604086 -60.331272
31140000000 -23.974001 -7.3876657 -1.0355086 91.063553 -1.0266069 91.045784 -18.940845 -59.18264
31167500000 -23.636217 -6.3472714 -1.0269797 90.499825 -1.0218757 90.553345 -19.214636 -61.439808
31195000000 -23.148205 -6.1248636 -1.0151162 89.982201 -1.0353934 89.874092 -19.416334 -62.753742
31222500000 -23.895878 -8.3349857 -1.014678 89.533546 -1.0236958 89.496765 -19.167694 -60.812153
31250000000 -23.596966 -6.3822703 -1.024859 88.939072 -1.0383306 88.872849 -18.954102 -62.943676
31277500000 -23.271486 -9.7531404 -1.0052432 88.309372 -1.0332198 88.252205 -19.364214 -64.717613
31305000000 -23.273623 -9.2005205 -1.0114218 87.84655 -1.0339013 87.679619 -18.957344 -64.213676
31332500000 -24.068165 -7.323246 -1.0288597 87.071815 -1.0182531 87.219185 -18.859972 -63.145367
31360000000 -23.139446 -6.1112895 -1.0269804 86.715851 -1.0503157 86.526291 -19.120083 -64.4589
31387500000 -23.048223 -8.085454 -1.0113822 86.054916 -1.0117711 86.004417 -19.139889 -65.734856
31415000000 -23.665051 -7.6517878 -1.0228482 85.581985 -1.0310878 85.456299 -18.689947 -63.239937
31442500000 -23.337387 -8.3990288 -1.0193244 85.059669 -1.0260276 84.926369 -19.006517 -66.448975
31470000000 -22.860985 -8.7288227 -1.0370058 84.479736 -1.0305256 84.317566 -19.079174 -66.519958
31497500000 -23.508335 -10.362765 -1.0185758 83.923309 -1.0170585 83.813103 -18.658823 -65.246513
31525000000 -23.158766 -7.9713235 -1.0401682 83.385826 -1.0386847 83.071472 -18.854935 -66.109634
31552500000 -22.868813 -8.5526609 -1.0001986 82.879265 -1.0200511 82.636055 -18.934822 -68.616341
31580000000 -23.400105 -11.050453 -1.0247295 82.257622 -1.0470811 82.23745 -18.7047 -65.369461
31607500000 -23.263039 -10.360344 -1.0250999 81.608131 -1.0270981 81.683311 -18.903051 -68.452927
31635000000 -22.820175 -8.8574924 -1.0395232 81.144302 -1.0523767 81.112289 -18.906578 -70.434662
31662500000 -23.30434 -10.556342 -1.0166767 80.493881 -1.027143 80.599045 -18.651999 -67.783012
31690000000 -23.387842 -11.250969 -1.0240419 80.097229 -1.0371406 79.889038 -18.651104 -68.74958
31717500000 -22.765436 -11.15471 -1.033496 79.55616 -1.0489762 79.513184 -18.819736 -71.161102
31745000000 -22.911945 -10.263174 -1.0241828 78.932243 -1.0430211 79.036133 -18.568031 -69.831932
31772500000 -23.240202 -11.388607 -1.0333722 78.399796 -1.0270154 78.266342 -18.69779 -70.20562
31800000000 -22.826223 -10.09615 -1.0426854 77.912445 -1.0406724 77.766396 -18.698414 -72.53582
31827500000 -22.609861 -9.6279945 -1.01442 77.138008 -1.0280774 77.273468 -18.704102 -71.652336
31855000000 -23.509274 -12.780658 -1.0220195 76.754471 -1.0392572 76.613586 -18.46427 -71.626221
31882500000 -22.770475 -10.907626 -1.0182688 76.250435 -1.023765 76.034309 -18.676733 -73.456612
31910000000 -22.524755 -9.3432035 -1.0349472 75.721321 -1.0250595 75.561859 -18.720177 -72.42086
31937500000 -23.215914 -13.665463 -1.0179245 75.051933 -1.0251166 75.040741 -18.444191 -72.384491
31965000000 -22.95656 -9.167202 -1.0254811 74.514244 -1.0473318 74.317451 -18.620638 -73.385468
31992500000 -22.758066 -11.1129 -1.0132251 73.926155 -1.0312008 73.921616 -18.889343 -75.162987
32020000000 -22.777784 -12.765813 -1.0277346 73.439713 -1.0366197 73.30732 -18.450468 -72.903481
32047500000 -22.76683 -15.408302 -1.0240599 72.818436 -1.0449239 72.77861 -18.468365 -75.48922
32075000000 -22.977423 -9.2615814 -1.0271735 72.339676 -1.0367856 72.256882 -18.799324 -76.881165
32102500000 -22.958094 -15.805152 -1.035144 71.759209 -1.0509142 71.621193 -18.683752 -75.077507
32130000000 -22.802296 -13.552123 -1.0552546 71.261055 -1.0313333 71.125031 -18.533863 -75.696411
32157500000 -22.827873 -9.5239096 -1.0481714 70.730385 -1.0350602 70.625938 -18.648142 -78.040337
32185000000 -23.082756 -14.624878 -1.0309093 70.088028 -1.0349741 70.073334 -18.75535 -74.424423
32212500000 -22.893982 -14.726733 -1.0463772 69.697189 -1.0463936 69.487038 -18.639906 -76.512337
32240000000 -23.134802 -13.763019 -1.0389849 69.121536 -1.0271561 68.993164 -18.55817 -79.727646
32267500000 -22.901237 -14.702018 -1.032657 68.433739 -1.0453563 68.441307 -18.735624 -77.236542
32295000000 -22.913977 -18.613741 -1.0457442 67.932892 -1.0556196 67.825851 -18.411348 -78.333405
32322500000 -22.99601 -14.306458 -1.0302262 67.36657 -1.0461894 67.394958 -18.539938 -80.185867
32350000000 -22.798882 -13.281157 -1.0118361 66.948059 -1.035625 66.743637 -18.657454 -79.992676
32377500000 -22.609089 -18.115421 -1.0281255 66.167351 -1.0202318 66.044678 -18.593441 -77.42173
32405000000 -23.274456 -15.684463 -1.0379344 65.801292 -1.0369253 65.758545 -18.510675 -80.161339
32432500000 -23.157003 -15.912516 -1.0239744 65.089073 -1.0223838 64.973289 -18.715675 -82.668015
32460000000 -22.803242 -19.22323 -1.0292728 64.470444 -1.0275391 64.510025 -18.725065 -79.531387
32487500000 -23.242474 -17.595661 -1.0304707 64.078018 -1.0425814 63.83852 -18.594479 -80.579849
32515000000 -23.192686 -17.003094 -1.0250838 63.566277 -1.0569547 63.466827 -18.689903 -83.69899
32542500000 -23.00967 -18.588972 -1.0079759 62.807873 -1.0133476 62.842529 -18.744486 -81.982025
32570000000 -22.720758 -19.432579 -1.0372241 62.468597 -1.0274034 62.34676 -18.658012 -81.05407
32597500000 -23.336756 -17.31321 -1.0557243 61.759636 -1.0351146 61.784233 -18.605259 -84.277283
32625000000 -22.993158 -17.854334 -1.0381557 61.151157 -1.039291 61.098248 -18.998087 -82.090782
32652500000 -22.872398 -21.151018 -1.0382335 60.771233 -1.0528063 60.732784 -18.460495 -82.817322
32680000000 -23.264362 -19.703106 -1.0210246 60.181602 -1.0471981 60.057091 -18.684267 -85.739853
32707500000 -23.077797 -19.031725 -1.0278127 59.650215 -1.0449798 59.45356 -18.728546 -84.914742
32735000000 -22.58337 -19.235981 -1.0492589 59.100433 -1.0392828 59.050804 -18.654257 -83.508598
32762500000 -23.369284 -23.019064 -1.0346032 58.660439 -1.0376902 58.438465 -18.521135 -85.911072
32790000000 -23.234503 -20.64282 -1.0311987 57.966335 -1.0421375 57.914146 -18.684313 -87.974419
32817500000 -22.806139 -22.058815 -1.015023 57.409325 -1.0553833 57.28569 -18.720472 -83.578552
32845000000 -22.976658 -22.070875 -1.0063487 57.033073 -1.0189093 56.691246 -18.608849 -86.608208
32872500000 -23.533968 -20.72398 -1.03039 56.279869 -1.0499611 56.327011 -18.693911 -89.147591
32900000000 -22.901457 -21.080208 -1.0378568 55.508003 -1.040759 55.734001 -18.60726 -85.599365
32927500000 -22.777145 -22.609398 -1.0432541 55.239086 -1.0435205 55.112312 -18.617239 -87.099014
32955000000 -23.660938 -23.558237 -1.0415781 54.655334 -1.0421467 54.53965 -18.715631 -89.326851
32982500000 -22.74544 -23.389067 -1.0241157 54.076958 -1.0537306 53.986954 -18.993374 -88.18882
33010000000 -22.633862 -24.294275 -1.0367362 53.514751 -1.0373772 53.437637 -18.726767 -87.358261
33037500000 -23.386711 -26.105534 -1.0399169 52.884163 -1.0332795 52.876701 -18.72879 -90.771851
33065000000 -23.258471 -22.138086 -0.99550134 52.480919 -1.0338589 52.267303 -18.736973 -89.996208
33092500000 -22.818911 -24.956141 -1.0263196 51.753876 -1.0335062 51.694187 -18.599716 -89.735466
33120000000 -23.348377 -27.953617 -1.0476146 51.3321 -1.0380906 51.105892 -18.666025 -91.711823
33147500000 -23.587875 -24.898918 -1.0439135 50.787212 -1.028765 50.580276 -18.943224 -93.250519
33175000000 -22.623981 -24.587189 -1.030545 50.267853 -1.0305771 50.126675 -18.765118 -89.936546
33202500000 -22.952288 -28.195248 -1.019841 49.596916 -1.0322722 49.542801 -18.600775 -92.647758
33230000000 -23.520138 -27.360538 -1.0370091 49.181576 -1.0429319 48.905972 -18.75881 -95.56498
33257500000 -22.76808 -24.601208 -1.0338271 48.446335 -1.0407553 48.407787 -19.057377 -92.181915
33285000000 -22.716398 -26.952223 -1.0327424 47.940876 -1.0580246 47.789131 -18.643301 -92.937439
33312500000 -23.713478 -26.817921 -1.0158906 47.378365 -1.0315861 47.365665 -18.762747 -94.760719
33340000000 -23.116831 -25.249342 -1.0238967 46.915943 -1.0455977 46.793186 -19.038412 -92.661369
33367500000 -22.545303 -27.589205 -1.0210419 46.293983 -1.0345359 46.094769 -18.668514 -94.11338
33395000000 -23.162094 -30.529928 -1.0312923 45.796658 -1.044755 45.634911 -18.561428 -94.74633
33422500000 -23.361284 -26.586973 -1.0192333 45.391541 -1.0301268 45.087013 -18.947117 -94.806839
33450000000 -22.740211 -27.382095 -1.0214434 44.647568 -1.0493684 44.447346 -18.935673 -95.337616
33477500000 -23.212152 -31.386717 -1.0348345 44.052494 -1.0440959 43.950996 -18.769461 -97.568726
33505000000 -23.224709 -26.375999 -1.0309854 43.65242 -1.0706692 43.509224 -19.063732 -97.616089
33532500000 -22.749809 -25.267864 -1.036927 43.060692 -1.0315703 42.798317 -18.98311 -95.433586
33560000000 -22.839184 -30.610804 -1.0328704 42.355358 -1.0547169 42.232494 -18.866415 -98.781929
33587500000 -23.193428 -29.842112 -1.0406066 41.848812 -1.0493875 41.722656 -19.050518 -98.331551
33615000000 -23.21604 -27.273634 -1.0251956 41.265869 -1.0335174 41.19072 -19.004967 -96.793648
33642500000 -22.760944 -29.619106 -1.0027583 40.773048 -1.037562 40.666294 -18.751328 -99.640907
33670000000 -23.015545 -32.067776 -1.0222367 40.178471 -1.0375869 40.246498 -19.072447 -100.03664
33697500000 -23.255636 -23.559574 -1.0297656 39.591736 -1.0269568 39.552391 -19.281481 -99.052917
33725000000 -22.645311 -30.567656 -1.0294135 39.071846 -1.010812 39.110714 -18.992941 -101.92406
33752500000 -22.919012 -31.104126 -1.0314548 38.504311 -1.0239292 38.427242 -19.222197 -100.75125
33780000000 -23.489798 -27.34605 -1.0632559 38.008949 -1.0488173 37.90237 -19.368502 -99.69252
33807500000 -23.251507 -28.370981 -1.0442966 37.366474 -1.0331318 37.199627 -19.166136 -101.73223
33835000000 -22.377829 -31.653395 -1.0407372 36.95269 -1.0315737 36.621834 -19.191225 -101.66782
33862500000 -23.43395 -31.205566 -1.0548869 36.320045 -1.0487902 36.325752 -19.654217 -101.39561
33890000000 -23.324318 -29.612818 -1.0429826 35.861023 -1.0590922 35.569645 -19.426722 -103.15103
33917500000 -22.419529 -31.234653 -1.0260924 35.202164 -1.057598 35.095554 -19.221437 -102.88564
33945000000 -23.12364 -33.603771 -1.0501872 34.648643 -1.0386584 34.599957 -19.741941 -103.80405
33972500000 -23.361595 -27.989237 -1.0219258 34.149925 -1.0282896 34.002735 -19.704306 -102.5041
34000000000 -22.589447 -32.371098 -1.0575178 33.492989 -1.0178428 33.299545 -19.319027 -103.02918
34027500000 -22.496073 -33.496792 -1.0168612 32.85585 -1.0136425 32.744183 -20.078964 -104.33704
34055000000 -23.513481 -29.541162 -1.0298269 32.471947 -1.0362266 32.333538 -19.930012 -102.90221
34082500000 -22.872501 -31.08231 -1.0286412 31.958284 -1.0358737 31.792551 -19.509771 -103.24642
34110000000 -22.884726 -31.544426 -1.0428704 31.267393 -1.0306742 31.107841 -19.864231 -106.95837
34137500000 -23.399174 -30.448561 -1.0258472 30.714302 -1.0583589 30.734167 -20.135746 -102.39553
34165000000 -23.147305 -28.573494 -1.0269778 30.018839 -1.0628288 30.102846 -19.467463 -106.34417
34192500000 -22.865372 -31.600269 -1.0330136 29.784256 -1.0328395 29.461557 -20.123268 -107.40547
34220000000 -23.570871 -33.420605 -1.0013254 29.295105 -1.0482541 28.854012 -20.433594 -106.19871
34247500000 -23.135597 -29.809694 -1.0308322 28.33218 -1.044211 28.47731 -19.81834 -105.00986
34275000000 -22.996286 -30.967911 -1.0399148 27.872673 -1.0303887 27.95244 -19.834389 -105.53625
34302500000 -23.332283 -31.605068 -1.014708 27.420683 -1.0479654 27.261824 -20.870205 -109.06663
34330000000 -23.110628 -30.974361 -1.0110624 26.903688 -1.0375084 26.658987 -20.122583 -105.995
34357500000 -22.902094 -33.006416 -1.0334882 26.350195 -1.0648527 26.29236 -19.846191 -107.94321
34385000000 -23.126358 -34.078335 -1.0394541 25.797844 -1.035695 25.670071 -20.910248 -110.29415
34412500000 -23.476639 -32.753414 -1.0114554 25.003559 -1.0509171 25.119396 -20.347231 -108.4267
34440000000 -23.137104 -33.345818 -1.0314348 24.713802 -1.0512575 24.535265 -19.940874 -108.13583
34467500000 -23.28828 -29.955807 -1.0122348 23.978718 -1.0348473 24.028175 -21.216591 -111.24646
34495000000 -23.74506 -33.524448 -1.0588769 23.51193 -1.0414761 23.559013 -20.939753 -111.3062
34522500000 -23.664026 -31.08387 -1.0291674 22.959221 -1.0265161 22.937941 -20.080883 -107.85945
34550000000 -23.297171 -32.251026 -1.040001 22.299486 -1.0607337 22.274769 -20.925613 -109.58178
34577500000 -24.041533 -34.329433 -1.0102551 21.910587 -1.0444369 21.95014 -21.812761 -110.61459
34605000000 -24.281727 -32.780388 -1.0384315 21.293802 -1.0512848 21.192059 -20.723253 -107.96844
34632500000 -23.266459 -33.188206 -1.0464345 20.906782 -1.0510952 20.706917 -21.116377 -111.6776
34660000000 -23.982792 -35.265961 -1.0352871 20.277515 -1.0505073 20.00849 -21.472759 -113.86171
34687500000 -24.154743 -34.113594 -1.0306398 19.586134 -1.0349511 19.510168 -20.939171 -110.86871
34715000000 -23.527851 -30.467596 -1.0332677 19.149761 -1.029303 18.92025 -21.045549 -111.48187
34742500000 -24.040016 -36.557728 -1.0392048 18.415016 -1.0361904 18.632772 -21.891161 -113.93155
34770000000 -24.342644 -31.628544 -1.0519391 17.999714 -1.0424662 17.880232 -21.606066 -112.1711
34797500000 -23.98144 -32.511398 -1.032961 17.421894 -1.0244348 17.415667 -21.011871 -111.03537
34825000000 -23.879957 -32.53524 -1.0235442 16.996527 -1.034077 16.667933 -21.95639 -116.41503
34852500000 -24.43631 -36.078537 -1.0458694 16.394369 -1.0527792 16.237185 -21.996494 -114.48251
34880000000 -24.094923 -31.066935 -1.0419703 15.668433 -1.0446707 15.774583 -21.114946 -111.07404
34907500000 -23.60647 -33.538319 -1.0189326 15.177335 -1.0559491 15.207488 -22.00778 -117.24541
34935000000 -24.789007 -34.875927 -1.0470265 14.638557 -1.0411329 14.564552 -22.410555 -117.39662
34962500000 -24.520626 -33.347729 -1.0279425 14.075158 -1.049993 14.075203 -21.533186 -110.97903
34990000000 -24.035744 -32.108173 -1.0134859 13.73082 -1.0468442 13.447421 -22.240885 -114.89194
35017500000 -24.598021 -36.717602 -1.0527083 13.063071 -1.0410385 12.948244 -22.875879 -120.22414
35045000000 -24.643372 -31.853096 -1.0561683 12.461585 -1.0163862 12.318819 -21.97732 -112.43414
35072500000 -24.220999 -30.597111 -1.0423151 11.879816 -1.0213046 11.818761 -22.036234 -115.105
35100000000 -24.80814 -32.30476 -1.0407618 11.497583 -1.0299077 11.19348 -23.35247 -116.18909
35127500000 -24.567574 -32.014065 -1.0174469 10.878182 -1.0195616 10.5691 -22.98847 -114.31358
35155000000 -24.363892 -33.749584 -1.0258685 10.255623 -1.0344824 10.143635 -22.420658 -112.52548
35182500000 -24.779215 -31.242096 -1.0478492 9.6238756 -1.0422214 9.5618572 -23.149879 -122.78149
35210000000 -25.423647 -39.687103 -1.018837 9.2096996 -1.0458143 9.1299314 -23.170767 -117.60278
35237500000 -25.062433 -32.129314 -1.0312207 8.5392551 -1.0566823 8.2373018 -22.739218 -112.87288
35265000000 -25.317886 -33.275448 -1.0571839 8.0578299 -1.0413175 8.0115891 -22.968405 -118.93534
35292500000 -25.620949 -36.034325 -1.029155 7.3308311 -1.0358073 7.4201684 -23.336084 -118.54916
35320000000 -25.838457 -31.369724 -1.0103292 6.9425316 -1.0448896 6.6914487 -22.930937 -112.79836
35347500000 -25.15019 -33.98201 -1.0236274 6.238265 -1.0259023 6.0699906 -23.454494 -116.61677
35375000000 -25.779575 -38.610203 -1.0552437 5.8667679 -1.0492427 5.6429849 -23.682344 -122.38108
35402500000 -25.741383 -34.047085 -0.99430251 5.0664854 -1.0151973 4.8929605 -23.519087 -113.40247
35430000000 -25.459656 -31.90238 -1.0185624 4.6814919 -1.0436666 4.3040824 -23.438869 -119.40005
35457500000 -25.89662 -36.761749 -1.0364208 4.2213249 -1.0484456 4.0273261 -24.117674 -123.51991
35485000000 -25.274345 -33.369278 -1.0247475 3.5279627 -1.0336648 3.2908604 -24.508982 -119.85563
35512500000 -25.367161 -29.728224 -1.0075117 2.9774308 -1.0474814 2.8078079 -23.451834 -114.48047
35540000000 -25.296614 -32.564301 -1.0378062 2.4130125 -1.0450981 2.2453232 -24.345505 -125.53615
35567500000 -25.985502 -38.92049 -1.0073463 2.0602274 -1.0096629 1.5924997 -24.33992 -118.124
35595000000 -25.543671 -29.846148 -1.0211153 1.2440578 -1.0218617 1.2317673 -24.269276 -116.4522
35622500000 -25.13254 -35.406036 -1.0561023 0.66949993 -1.0382404 0.58473349 -24.301306 -122.13628
35650000000 -25.960926 -37.666225 -1.032902 0.21164542 -1.0138786 0.24515407 -25.016111 -123.60461
35677500000 -25.977488 -27.38246 -1.0001328 -0.35762769 -1.0335147 -0.52859563 -24.444353 -116.4247
35705000000 -25.767582 -29.73711 -1.0447987 -0.91348732 -1.0413064 -1.0970911 -24.296144 -120.90504
35732500000 -25.393616 -37.236938 -1.0591078 -1.4381394 -1.0697879 -1.5984743 -24.789919 -122.06787
35760000000 -25.942886 -32.889511 -1.0099027 -2.0220144 -1.0427278 -2.0710526 -25.09222 -117.0881
35787500000 -25.987415 -26.410181 -1.0380923 -2.6676743 -1.0674664 -2.6532152 -24.619961 -121.36392
35815000000 -25.600348 -36.876675 -1.0431153 -3.0021124 -1.0582407 -3.1207306 -25.529825 -121.32799
35842500000 -26.054893 -35.408604 -1.0403572 -3.5270925 -1.0241442 -3.6545119 -25.694637 -113.23038
35870000000 -25.517563 -25.23278 -1.0413626 -4.205482 -1.0228447 -4.5044336 -25.30681 -117.7038
35897500000 -25.382563 -33.905182 -1.0464418 -4.843852 -1.0514724 -5.0196404 -25.608486 -124.42114
35925000000 -25.898455 -35.892612 -1.017671 -5.3812127 -1.0112342 -5.6452723 -25.377205 -122.88535
35952500000 -26.097692 -30.1996 -0.9998942 -6.009202 -1.0291363 -6.1607132 -25.489311 -120.41065
35980000000 -25.534245 -31.579449 -1.0262653 -6.4092937 -1.0181297 -6.6483736 -25.589596 -118.06104
36007500000 -25.868567 -38.083721 -1.029073 -6.8715515 -1.0499225 -7.1050258 -25.739071 -119.2925
36035000000 -26.404226 -30.871189 -1.0078937 -7.698823 -1.0355855 -7.8766913 -25.950958 -119.42653
36062500000 -26.060438 -26.301615 -1.0460953 -8.4551001 -1.0369066 -8.4926014 -25.562132 -122.73525
36090000000 -25.992947 -37.396465 -1.0491011 -8.7517424 -1.0417252 -8.6823664 -26.316603 -121.64739
36117500000 -26.431202 -29.900957 -1.002678 -9.3258066 -1.0450681 -9.4737463 -26.834732 -121.21127
36145000000 -26.110624 -27.929996 -0.99333274 -9.8321505 -1.0364429 -10.179562 -26.82037 -118.71236
36172500000 -26.082546 -34.811764 -1.0266931 -10.447769 -1.0302945 -10.474529 -26.303745 -122.45821
36200000000 -26.531937 -35.331486 -1.0044765 -10.924829 -1.0509903 -11.037338 -27.186996 -120.5834
36227500000 -26.274141 -25.063177 -0.99980038 -11.635811 -1.0047166 -11.629781 -28.04191 -119.02236
36255000000 -24.953617 -29.378963 -1.0578126 -12.110445 -1.0487916 -12.244013 -26.902149 -121.03596
36282500000 -26.129948 -39.979309 -1.0614734 -12.579606 -1.0137289 -12.480117 -28.022507 -117.25687
36310000000 -26.414156 -27.946327 -1.0375406 -12.960542 -1.047003 -13.176097 -28.263535 -118.76135
36337500000 -25.593449 -26.827442 -1.0065361 -14.040106 -1.0376395 -13.849653 -27.02706 -119.68208
36365000000 -25.80439 -34.935619 -1.0421427 -14.507018 -1.0558312 -14.42293 -28.643175 -117.11021
36392500000 -26.81002 -34.058308 -1.0269486 -15.060705 -0.98575234 -14.982512 -28.03083 -119.20473
36420000000 -25.465189 -23.373831 -1.0315576 -15.487606 -0.99914867 -15.535027 -27.828234 -115.50871
36447500000 -26.155901 -36.104122 -1.04018 -15.797663 -1.057704 -16.137667 -28.418236 -109.51059
36475000000 -26.735823 -37.427357 -1.0273749 -16.628778 -0.9980309 -16.647486 -29.01095 -122.47148
36502500000 -27.098412 -27.810207 -1.0086166 -16.953979 -1.0511858 -17.269363 -28.99457 -111.03471
36530000000 -25.522739 -32.166016 -1.0431814 -17.694942 -1.0457879 -17.794722 -29.180897 -111.06828
36557500000 -25.898062 -38.284454 -1.042251 -18.092304 -1.0292915 -18.291904 -30.099121 -109.23748
36585000000 -26.446049 -30.295038 -1.0288633 -18.847982 -1.0638936 -19.09643 -29.427252 -113.0304
36612500000 -25.780355 -22.215717 -1.0430856 -19.487839 -1.0374972 -19.679249 -29.320957 -104.6183
36640000000 -26.227737 -35.485851 -1.029282 -19.716394 -1.0728513 -19.930717 -29.724007 -110.52503
36667500000 -26.318283 -26.167236 -1.0499927 -20.612093 -1.0499703 -20.549417 -29.805111 -110.73944
36695000000 -26.940088 -21.959959 -1.0865004 -21.298773 -1.0232618 -21.052456 -30.052853 -103.54765
36722500000 -25.989555 -32.63232 -1.0275093 -21.74719 -1.0528257 -21.722441 -31.272757 -93.310242
36750000000 -26.717716 -31.705933 -1.0600407 -22.473103 -1.0784498 -22.373365 -29.474554 -112.50607
36777500000 -26.70248 -19.501762 -1.0520674 -22.736214 -1.0536472 -22.746218 -31.881239 -99.203819
36805000000 -25.941067 -28.846085 -1.0452492 -23.351105 -1.0528423 -23.463848 -32.544868 -95.574654
36832500000 -26.180479 -34.53907 -1.0706679 -23.859549 -1.0497985 -23.977835 -31.060118 -108.39418
36860000000 -26.677288 -15.735206 -1.025859 -24.28751 -1.0506349 -24.552263 -30.572241 -87.413185
36887500000 -26.168144 -26.121342 -1.0395232 -24.868366 -1.0569488 -25.019833 -32.656498 -79.843086
36915000000 -25.222914 -32.136089 -1.0559855 -25.52334 -1.06757 -25.526697 -32.234829 -99.567307
36942500000 -25.896072 -19.765657 -1.0307655 -26.066782 -1.0568728 -26.138113 -30.235708 -91.779526
36970000000 -25.993757 -20.850899 -1.0431923 -26.605913 -1.0577374 -26.827063 -30.95336 -73.070213
36997500000 -25.38101 -28.875107 -1.0584977 -27.069189 -1.0353374 -27.301802 -32.120628 -88.728333
37025000000 -26.155773 -24.861704 -1.0557114 -27.872276 -1.0697577 -28.04948 -29.337776 -94.010704
37052500000 -26.198053 -17.605005 -1.0456954 -28.336121 -1.0566156 -28.300547 -30.668867 -71.725739
37080000000 -25.217579 -31.446028 -1.0415268 -28.783934 -1.0454142 -29.040844 -31.420176 -74.64637
37107500000 -25.863951 -25.538361 -1.0495342 -29.362089 -1.082962 -29.540995 -30.033743 -89.49662
37135000000 -26.780651 -16.615414 -1.0617163 -29.952944 -1.1047882 -29.930857 -29.638596 -68.75872
37162500000 -25.353758 -29.127117 -1.0383556 -30.365225 -1.0593922 -30.679495 -30.659266 -61.154312
37190000000 -25.723166 -32.258759 -1.0856388 -31.118876 -1.0491232 -31.203112 -30.217964 -78.130165
37217500000 -26.628159 -13.801826 -1.0446674 -31.453091 -1.0700386 -31.691463 -30.492109 -66.344162
37245000000 -26.030333 -24.924984 -1.0788898 -32.259403 -1.011029 -32.121296 -30.656151 -51.952888
37272500000 -25.161089 -27.738924 -1.0521492 -32.289631 -1.0474241 -32.825386 -30.374641 -77.045235
37300000000 -26.614344 -18.834305 -1.0727545 -33.251804 -1.0656034 -33.224197 -29.734615 -68.928108
37327500000 -26.02142 -20.786787 -1.0295074 -33.750286 -1.0477349 -33.918789 -30.827126 -49.267612
37355000000 -24.554819 -29.209854 -1.0168445 -34.351158 -1.0389559 -34.574963 -30.218328 -66.229004
37382500000 -26.014662 -18.285334 -1.0541207 -34.9795 -1.0440563 -35.17207 -29.352234 -71.303642
37410000000 -27.687893 -21.824568 -1.0300974 -35.250214 -1.0343214 -35.678997 -29.957048 -41.493572
37437500000 -24.818748 -25.043365 -1.0437453 -36.063171 -1.0546942 -36.019314 -30.019878 -53.824284
37465000000 -26.785168 -20.826422 -1.0396787 -36.576118 -1.0659614 -36.611294 -28.902899 -62.688503
37492500000 -26.879597 -11.865783 -1.0494422 -37.10709 -1.0224981 -37.474262 -28.080467 -51.35075
37520000000 -25.11504 -21.35644 -1.0585208 -37.555992 -1.0875677 -37.683636 -29.679726 -47.524708
37547500000 -25.827684 -25.096716 -1.0328238 -38.639874 -1.0632527 -38.427784 -27.938231 -66.187645
37575000000 -27.535044 -14.986014 -1.0263567 -38.839394 -1.0568708 -38.999924 -27.562086 -57.090874
37602500000 -25.418489 -17.190525 -1.0750947 -39.316021 -1.0244889 -39.343689 -28.383753 -37.684505
37630000000 -25.308294 -21.656031 -1.0484222 -40.374638 -1.0552955 -39.949417 -27.574432 -56.867241
37657500000 -27.317469 -16.092375 -1.0303428 -40.508465 -1.0817863 -40.770748 -28.745197 -53.706692
37685000000 -26.351587 -16.761311 -1.0474334 -41.095032 -1.05202 -41.273853 -28.704613 -41.503834
37712500000 -24.899857 -19.086256 -1.0300376 -41.822193 -1.0374913 -41.762852 -27.532984 -51.03783
37740000000 -26.617886 -17.75115 -1.0535327 -42.24865 -1.0682738 -42.16964 -27.381079 -54.477127
37767500000 -25.828184 -19.573679 -1.0481757 -42.626133 -1.0758693 -42.599068 -27.635132 -43.712074
37795000000 -25.346733 -16.745533 -1.0533763 -43.36739 -1.0922928 -43.262417 -26.667263 -50.597477
37822500000 -25.833549 -19.495539 -1.0522178 -44.022583 -1.0256764 -44.074093 -26.14518 -53.726799
37850000000 -27.079813 -12.061202 -1.06651 -44.537941 -1.1034964 -44.428501 -26.768333 -39.976624
37877500000 -25.193872 -16.863445 -1.0257646 -44.820923 -1.0454247 -45.106411 -26.737583 -38.129463
37905000000 -25.633228 -16.376144 -1.0626159 -45.685127 -1.0367357 -45.677963 -26.062304 -49.858665
37932500000 -26.503572 -16.142204 -1.0181428 -46.198757 -1.0641277 -46.26936 -26.19128 -48.505089
37960000000 -24.850281 -13.49836 -1.0400676 -46.598961 -1.0504014 -46.539333 -26.889975 -35.694504
37987500000 -25.402962 -21.603907 -1.0300895 -47.084774 -1.0776386 -47.489239 -25.758928 -51.978271
38015000000 -26.274399 -14.485083 -1.0126145 -47.854591 -1.0766318 -48.131298 -25.984407 -47.053658
38042500000 -25.370399 -15.885919 -1.0491667 -48.38826 -1.0608679 -48.427742 -26.7493 -35.614113
38070000000 -25.209103 -14.109728 -1.0656487 -48.942898 -1.0674753 -49.005219 -25.525816 -43.228786
38097500000 -26.233889 -12.524418 -1.0553236 -49.357651 -1.0432136 -49.420841 -25.606497 -47.477402
38125000000 -25.289677 -12.575337 -1.0401622 -50.049202 -1.0686293 -50.196022 -25.901873 -40.986561
38152500000 -24.915529 -17.043169 -1.0622773 -50.52462 -1.0688591 -50.515972 -25.36351 -43.999119
38180000000 -26.036074 -15.436101 -1.1221125 -51.100677 -1.0907757 -51.187992 -24.646154 -46.970188
38207500000 -25.585333 -15.140639 -1.0653121 -51.834202 -1.0537916 -51.952702 -25.177965 -44.622913
38235000000 -25.372652 -13.506688 -1.0494128 -52.40546 -1.0632139 -52.228413 -25.12677 -42.131992
38262500000 -24.943167 -14.775861 -1.0549998 -52.717903 -1.0698836 -52.749222 -24.970358 -49.348663
38290000000 -25.924658 -12.008874 -1.0258961 -53.421539 -1.0412958 -53.72036 -24.648113 -49.869724
38317500000 -25.035892 -15.492493 -1.0387908 -54.091026 -1.1122316 -53.973392 -25.177595 -41.410702
38345000000 -24.251715 -14.221054 -1.0897373 -54.589241 -1.0611713 -54.661072 -24.411085 -46.534321
38372500000 -25.524746 -13.428547 -1.0603844 -54.794701 -1.0864478 -55.047115 -24.547918 -45.274075
38400000000 -25.295198 -11.101884 -1.0841367 -55.387688 -1.0748659 -55.720398 -24.65089 -42.781349
38427500000 -24.633749 -14.30652 -1.070334 -56.404644 -1.0614305 -56.280102 -23.457115 -49.712322
38455000000 -25.172777 -13.324671 -1.0390309 -56.640556 -1.0773994 -56.498989 -24.008348 -47.841476
38482500000 -25.049965 -12.542921 -1.0482138 -57.297161 -1.0851473 -57.355968 -24.599342 -48.086048
38510000000 -23.681679 -9.9889097 -1.0611349 -58.047565 -1.0840414 -57.883526 -23.71286 -46.858761
38537500000 -25.182222 -14.195423 -1.0746061 -58.304516 -1.0985662 -58.376438 -23.044809 -47.605728
38565000000 -25.592335 -13.763144 -1.055352 -58.908939 -1.0584913 -58.980686 -23.691484 -47.52652
38592500000 -24.825455 -15.887642 -1.0715176 -59.608932 -1.1041269 -59.5168 -23.972588 -46.773193
38620000000 -24.621086 -18.467033 -1.0867736 -59.833599 -1.0791633 -60.267426 -22.953215 -50.813416
38647500000 -25.748369 -12.655099 -1.0256003 -60.528481 -1.069225 -60.52364 -23.655268 -46.886681
38675000000 -24.173201 -12.894441 -1.0198036 -61.335789 -1.0758929 -61.333073 -23.39842 -52.296307
38702500000 -24.399635 -14.780106 -1.1097527 -61.743034 -1.1247501 -61.860424 -23.128513 -50.691967
38730000000 -25.536997 -14.937639 -1.0716517 -62.18198 -1.0827471 -62.179058 -23.418707 -46.575356
38757500000 -24.36401 -14.380877 -1.0512584 -63.017628 -1.0417495 -62.855656 -22.566626 -49.74855
38785000000 -23.820023 -16.024309 -1.1060556 -63.410759 -1.0849921 -63.594711 -22.743826 -49.795616
38812500000 -25.436832 -16.828453 -1.056406 -63.763599 -1.0791471 -63.885746 -22.626274 -50.775955
38840000000 -25.333473 -11.15901 -1.0484462 -64.633194 -1.0887526 -64.432716 -23.336462 -50.022041
38867500000 -24.017895 -14.621938 -1.0516261 -65.231056 -1.1076722 -65.101059 -22.478653 -47.463001
38895000000 -25.542343 -19.417034 -1.0976468 -65.191704 -1.1094599 -65.42852 -23.015026 -48.313351
38922500000 -24.539581 -17.416426 -1.0404619 -66.185104 -1.0923383 -66.419258 -22.851912 -53.301479
38950000000 -23.510414 -12.45693 -1.0963695 -66.71701 -1.0739901 -66.900772 -22.113224 -50.820709
38977500000 -24.304052 -13.409608 -1.1026155 -67.370003 -1.0894572 -67.591698 -23.121965 -51.097939
39005000000 -25.017277 -15.390915 -1.0707096 -67.821457 -1.1129427 -67.770065 -22.984871 -53.18634
39032500000 -24.263227 -10.553517 -1.0621094 -68.467682 -1.0256565 -68.364136 -21.719147 -54.059795
39060000000 -24.326193 -13.991783 -1.0868987 -68.869461 -1.1647283 -68.75499 -22.645908 -50.731075
39087500000 -25.618645 -19.886053 -1.0868189 -69.078659 -1.1078644 -69.398857 -22.794056 -55.02541
39115000000 -24.418547 -11.505186 -1.0958028 -70.128731 -1.0524783 -70.012032 -22.041634 -54.052135
39142500000 -24.198215 -15.981041 -1.0997597 -70.877777 -1.1018127 -70.755112 -22.426397 -53.002445
39170000000 -25.827948 -19.788647 -1.0990422 -71.07386 -1.0590675 -71.038429 -22.563339 -56.161301
39197500000 -24.922438 -20.001167 -1.0766703 -71.734032 -1.0901035 -71.655434 -21.837299 -57.55106
39225000000 -23.698946 -15.591681 -1.0658462 -72.599724 -1.0744088 -72.505569 -21.458481 -54.365562
39252500000 -25.382683 -24.354441 -1.1051137 -72.821739 -1.1135269 -73.009743 -22.522202 -54.51693
39280000000 -24.696127 -19.74017 -1.0895166 -73.345917 -1.0934583 -73.537376 -21.760527 -58.483879
39307500000 -23.911802 -12.693445 -1.0835394 -74.083847 -1.057238 -74.558014 -21.099514 -59.103313
39335000000 -24.052862 -19.589621 -1.1015835 -74.298431 -1.1407057 -74.301498 -22.187469 -52.731194
39362500000 -24.130913 -20.492887 -1.0601425 -75.121628 -1.0806324 -74.830826 -21.675491 -62.824299
39390000000 -24.002863 -7.9888115 -1.0714854 -75.559235 -1.023805 -75.634834 -20.421389 -60.556347
39417500000 -24.27281 -18.273565 -1.1136528 -76.149132 -1.099622 -76.355751 -21.213398 -56.69854
39445000000 -23.975615 -26.415249 -1.0957015 -76.672386 -1.083061 -76.440491 -22.104868 -59.401165
39472500000 -24.427452 -5.3717456 -1.0729752 -77.120255 -1.0420026 -77.478569 -20.706686 -58.828487
39500000000 -23.951338 -15.257961 -1.1161902 -77.965759 -1.1203012 -77.915627 -21.212341 -58.919098
39527500000 -24.471828 -18.563112 -1.0902956 -78.123192 -1.1264844 -78.572533 -21.759813 -60.363483
39555000000 -25.661989 -9.2971439 -1.0439305 -79.045631 -1.1096904 -79.049973 -20.730474 -61.007633
39582500000 -24.209457 -11.882636 -1.0800943 -79.562386 -1.0608989 -79.788162 -20.498293 -60.041161
39610000000 -24.117195 -27.112068 -1.0625186 -79.905792 -1.1342343 -80.010162 -21.592323 -61.254128
39637500000 -24.946764 -18.066032 -1.1035565 -80.540131 -1.0946962 -80.271034 -20.911652 -57.254532
39665000000 -25.07053 -5.5211229 -1.0599608 -81.006302 -1.0580713 -81.347794 -20.160038 -59.796886
39692500000 -23.827707 -26.32135 -1.0909361 -81.55761 -1.0847561 -81.716347 -21.706507 -62.116192
39720000000 -24.829277 -17.347319 -1.1295213 -82.064095 -1.1240114 -82.652061 -20.888466 -61.649719
39747500000 -25.075079 -10.138992 -1.0483496 -82.975395 -1.0685734 -82.818466 -19.366482 -61.336555
39775000000 -24.327208 -21.326159 -1.1324153 -83.33371 -1.1391932 -83.465012 -21.502394 -64.033157
39802500000 -24.351664 -21.456913 -1.1290324 -83.980682 -1.1426036 -84.071388 -20.942152 -62.712559
39830000000 -25.330494 -8.7929153 -1.0444093 -84.37162 -1.0598398 -84.638527 -19.571407 -61.758652
39857500000 -24.450893 -18.223787 -1.0757238 -85.163513 -1.0514735 -85.046837 -20.481548 -66.535431
39885000000 -23.879141 -23.203888 -1.139913 -85.735619 -1.1064657 -85.511131 -21.087694 -66.441765
39912500000 -25.559528 -15.740059 -1.0820217 -86.024788 -1.0749121 -86.049095 -20.022484 -63.536011
39940000000 -25.342892 -15.902204 -1.0886079 -86.806747 -1.0924795 -86.96965 -20.040871 -66.489052
39967500000 -24.189047 -23.051579 -1.0735435 -87.472015 -1.1255156 -87.179649 -20.958876 -68.875412
39995000000 -25.818884 -18.654747 -1.1046777 -87.671249 -1.0891029 -87.942749 -19.826693 -65.947197
40022500000 -25.527269 -15.644888 -1.1073095 -88.449051 -1.0773367 -88.391098 -19.780787 -67.340424
40050000000 -23.880999 -16.996714 -1.0978881 -88.83033 -1.0892336 -88.855263 -20.53751 -69.046486
40077500000 -24.551716 -16.33489 -1.1259583 -89.639137 -1.1294531 -89.562057 -20.421072 -67.55777
40105000000 -26.213396 -13.938917 -1.0359946 -89.960793 -1.0799294 -90.044991 -19.251616 -66.764145
40132500000 -24.116491 -24.900305 -1.0798049 -90.852325 -1.0935515 -90.696236 -20.131771 -72.81601
40160000000 -24.404993 -21.217346 -1.0996484 -91.338936 -1.0935123 -91.329498 -20.295532 -73.307358
40187500000 -26.660023 -16.519392 -1.0368799 -91.608292 -1.046254 -91.799911 -19.014427 -67.179733
40215000000 -24.758327 -19.809669 -1.0416571 -92.039383 -1.0744021 -92.202477 -19.385019 -71.471359
40242500000 -24.114141 -17.87326 -1.1293352 -92.816025 -1.1137953 -93.136696 -21.052753 -74.770508
40270000000 -26.25828 -21.766819 -1.0746597 -93.161118 -1.080919 -93.60952 -19.572319 -70.817665
40297500000 -25.676847 -23.695244 -1.0876625 -94.02372 -1.0495325 -93.993774 -19.147936 -74.205589
40325000000 -23.301159 -17.752857 -1.0629472 -94.422104 -1.082581 -94.600067 -20.087475 -77.597832
40352500000 -25.723637 -25.298859 -1.0887223 -94.979836 -1.0914299 -95.085442 -19.377012 -71.595284
40380000000 -25.71909 -20.206848 -1.1062297 -95.73127 -1.10901 -95.616539 -19.547659 -71.135384
40407500000 -23.957632 -17.299776 -1.0630074 -96.209122 -1.1139227 -96.294411 -20.192629 -80.554108
40435000000 -25.34177 -20.361423 -1.0988041 -96.783394 -1.1105248 -96.812851 -19.610212 -75.244408
40462500000 -26.637951 -23.340006 -1.0814977 -97.295242 -1.0518221 -97.613266 -19.031954 -72.858482
40490000000 -24.145996 -14.740804 -1.1018463 -97.712654 -1.0614142 -97.822937 -19.44372 -80.297935
40517500000 -25.121948 -22.399656 -1.0644088 -98.414803 -1.0788238 -98.428169 -19.879442 -78.562714
40545000000 -26.459194 -29.708393 -1.0430353 -98.823792 -1.0920178 -98.975212 -19.053404 -75.173157
40572500000 -24.661076 -14.949493 -1.0946162 -99.646202 -1.1122822 -99.552063 -19.664778 -80.278175
40600000000 -24.861042 -23.200745 -1.0879617 -100.34195 -1.0615414 -100.48463 -20.342434 -81.024986
40627500000 -25.903488 -32.435593 -1.064263 -100.43546 -1.0994136 -100.78378 -19.185179 -77.28698
40655000000 -25.42733 -19.873573 -1.0327998 -101.07401 -1.1203434 -101.24707 -19.168875 -79.50145
40682500000 -25.190973 -15.952797 -1.1055311 -101.7249 -1.0914756 -101.75407 -19.671417 -81.610977
40710000000 -25.483963 -24.551798 -1.091884 -102.11483 -1.1046964 -102.48621 -19.480869 -78.420876
40737500000 -26.129623 -23.709469 -1.0705155 -102.73203 -1.0719628 -102.92799 -19.339003 -80.271706
40765000000 -24.749498 -19.885521 -1.0906981 -103.49489 -1.0992492 -103.52168 -19.394741 -86.872337
40792500000 -25.508671 -25.269894 -1.0693988 -104.16565 -1.0943348 -104.23808 -19.258028 -82.282631
40820000000 -25.86009 -27.445385 -1.0810412 -104.43385 -1.1023551 -104.49508 -19.21913 -81.854881
40847500000 -25.40374 -12.100629 -1.0887779 -105.1312 -1.1461973 -105.05833 -19.552221 -89.319153
40875000000 -24.705364 -23.009977 -1.1066127 -105.6663 -1.1012833 -105.88432 -19.536068 -86.903069
40902500000 -26.176577 -24.68638 -1.0769947 -106.38352 -1.1256068 -106.24533 -19.488314 -84.357704
40930000000 -26.105221 -19.851717 -1.0925797 -106.81829 -1.0627213 -106.79572 -19.449408 -88.445953
40957500000 -26.240482 -19.269234 -1.059594 -107.18986 -1.0864937 -107.41633 -19.764771 -90.111069
40985000000 -25.698421 -24.966051 -1.0740865 -107.73451 -1.0615669 -108.52886 -19.170086 -85.353035
41012500000 -26.135069 -20.575994 -1.0385705 -108.50735 -1.0767595 -108.46776 -19.479713 -90.494247
41040000000 -26.270342 -20.056877 -1.1115829 -108.93192 -1.1471182 -109.13988 -19.799656 -89.960785
41067500000 -25.11747 -24.186888 -1.0662314 -109.33503 -1.1080735 -109.77677 -19.442738 -85.817657
41095000000 -27.295803 -26.71752 -1.1058897 -110.20371 -1.0778831 -110.29787 -19.250021 -88.410538
41122500000 -26.713503 -9.2762566 -1.1313155 -110.74282 -1.1284806 -110.91037 -19.576044 -92.072334
41150000000 -26.286898 -28.212637 -1.0745112 -111.12111 -1.0916636 -111.37367 -19.574129 -89.225227
41177500000 -26.857258 -18.286674 -1.0917828 -112.17321 -1.0685743 -111.87025 -19.601103 -93.762108
41205000000 -26.196442 -18.586481 -1.1161534 -112.35912 -1.0942209 -112.24045 -19.624807 -95.040276
41232500000 -25.054893 -18.690426 -1.0573113 -112.87437 -1.0822818 -112.99382 -19.817436 -90.665855
41260000000 -26.901043 -18.29077 -1.0560002 -113.70999 -1.072659 -113.45491 -19.661375 -94.256264
41287500000 -26.931889 -18.932655 -1.0910479 -114.28819 -1.1280253 -114.19473 -19.644096 -95.150513
41315000000 -25.942627 -21.40143 -1.1397427 -114.6002 -1.0975795 -114.64835 -19.479652 -93.329643
41342500000 -25.954264 -13.861713 -1.1352489 -114.94031 -1.1020539 -115.48862 -19.775684 -94.806274
41370000000 -27.785715 -21.962437 -1.1424274 -115.86771 -1.1274172 -115.96119 -19.596743 -95.719376
41397500000 -26.455173 -21.605892 -1.1194915 -116.19048 -1.112553 -116.22524 -19.871613 -96.027336
41425000000 -26.081377 -20.570168 -1.0833172 -117.08598 -1.0788895 -117.00452 -19.983747 -96.481522
41452500000 -27.787317 -16.124035 -1.0859469 -117.4464 -1.1110071 -117.5045 -19.66461 -98.699326
41480000000 -26.299044 -19.403305 -1.1209261 -118.00686 -1.1230729 -118.03078 -19.681162 -100.8812
41507500000 -25.822939 -23.331123 -1.1064701 -118.63363 -1.1174874 -118.82946 -20.211792 -98.462906
41535000000 -27.278522 -26.485872 -1.1335188 -119.28887 -1.066447 -119.35525 -19.624531 -101.61953
41562500000 -26.759819 -13.898278 -1.0838168 -119.50771 -1.1412268 -119.73064 -19.846445 -100.20784
41590000000 -26.793158 -15.357384 -1.0906992 -120.46954 -1.0839237 -120.15166 -20.401352 -100.35138
41617500000 -27.552797 -21.643038 -1.0743382 -120.86205 -1.0664421 -120.99273 -19.781776 -102.7782
41645000000 -27.122746 -16.516212 -1.1120651 -121.55212 -1.1561214 -121.42854 -19.745239 -107.12828
41672500000 -26.293137 -12.979651 -1.13903 -121.72572 -1.0792844 -122.0415 -20.315454 -101.51241
41700000000 -27.962225 -18.961216 -1.0579206 -122.54021 -1.104454 -122.18697 -20.172537 -103.62231
41727500000 -27.420769 -16.175016 -1.0888721 -123.18003 -1.0844198 -123.28857 -19.904184 -109.91682
41755000000 -26.606152 -10.440536 -1.0936378 -123.70228 -1.1392022 -123.47598 -21.079 -106.01579
41782500000 -27.694279 -10.555202 -1.0866965 -124.27892 -1.1113796 -123.954 -20.130526 -105.50702
41810000000 -27.485615 -14.993268 -1.1046216 -124.86127 -1.0565137 -125.04501 -20.2349 -106.48837
41837500000 -27.641989 -6.2577791 -1.1087143 -125.26981 -1.1377684 -125.50043 -20.397263 -108.17209
41865000000 -27.079123 -18.831589 -1.1528914 -125.76881 -1.0755345 -125.85129 -20.383717 -103.07832
41892500000 -28.829149 -15.687196 -1.1023268 -126.36726 -1.1101346 -126.55655 -20.258888 -110.73512
41920000000 -28.109581 -3.1015971 -1.1037186 -126.85079 -1.1245536 -127.03876 -20.620836 -113.28865
41947500000 -26.845703 -18.70377 -1.1145962 -127.71958 -1.1186976 -127.73029 -20.781981 -106.36759
41975000000 -28.427597 -16.186659 -1.0923727 -127.79829 -1.1049908 -127.96587 -20.304522 -111.11076
42002500000 -28.448975 -3.5786567 -1.1150825 -128.55669 -1.0821084 -128.88333 -20.749603 -110.82686
42030000000 -27.452776 -10.568576 -1.1586206 -129.18585 -1.1555107 -129.21049 -21.253328 -109.86614
42057500000 -29.265173 -19.626949 -1.0755055 -129.67067 -1.0604228 -129.66045 -20.718412 -111.98656
42085000000 -29.209036 -6.7618575 -1.1202857 -130.34052 -1.1235107 -130.37447 -19.976696 -119.3891
42112500000 -27.818642 -9.6739674 -1.1770381 -131.1993 -1.120324 -131.22035 -21.473785 -115.50252
42140000000 -27.169104 -11.796477 -1.1094362 -131.57591 -1.1094953 -131.58311 -20.74663 -109.65987
42167500000 -28.568214 -3.5581515 -1.0872059 -131.99138 -1.128688 -132.08398 -20.414751 -117.41452
42195000000 -27.269009 -2.3021245 -1.0933708 -132.69281 -1.1176459 -132.8219 -21.200405 -120.02455
42222500000 -28.488684 -6.411078 -1.1142272 -133.17694 -1.1296468 -133.16814 -21.307478 -113.82525
42250000000 -29.569517 -7.776546 -1.0919102 -133.32661 -1.1469203 -133.78624 -20.856262 -119.9686
42277500000 -30.975496 12.938879 -1.0998901 -134.18207 -1.1095845 -134.2632 -21.572079 -119.92926
42305000000 -28.365316 -2.1616228 -1.1201934 -135.05678 -1.1696862 -135.22769 -21.837509 -113.0819
42332500000 -29.377205 4.7645011 -1.1009287 -135.56006 -1.0989882 -135.34431 -20.987322 -115.63628
42360000000 -28.127428 19.048933 -1.1446863 -135.94 -1.1418601 -136.36414 -21.198893 -129.17493
42387500000 -28.788692 0.085454948 -1.0991336 -136.49477 -1.1292412 -136.8275 -22.252722 -124.24057
42415000000 -29.447802 -7.4752688 -1.1405333 -137.09938 -1.087563 -136.86391 -21.063959 -122.21472
42442500000 -28.808382 31.719645 -1.1148047 -137.57631 -1.1443524 -137.66449 -20.843111 -126.27097
42470000000 -28.261393 3.453969 -1.1034093 -138.20085 -1.1756225 -138.74741 -22.28443 -121.48855
42497500000 -28.366459 2.6220984 -1.1447244 -138.64049 -1.168192 -139.07277 -21.175293 -120.39227
42525000000 -30.270994 18.15366 -1.1085285 -139.03781 -1.1105846 -139.63977 -20.935736 -130.40468
42552500000 -28.245153 24.557341 -1.0920976 -139.68423 -1.1155496 -139.96556 -21.964161 -127.70178
42580000000 -28.163635 4.8670597 -1.1007229 -140.1757 -1.1706446 -140.47397 -22.86157 -122.73602
42607500000 -30.646351 23.890379 -1.1230882 -140.77086 -1.1213701 -141.29486 -21.125992 -127.57622
42635000000 -29.194029 23.426985 -1.0777192 -141.55992 -1.1393288 -141.75691 -21.945097 -135.80801
42662500000 -27.616613 20.180302 -1.1076953 -142.10912 -1.1725936 -142.47813 -23.746826 -127.97645
42690000000 -30.253815 16.762236 -1.1277642 -142.61227 -1.1231265 -142.65784 -22.106173 -129.06654
42717500000 -31.339361 36.37162 -1.1145711 -143.1149 -1.081084 -142.84441 -21.870472 -134.34738
42745000000 -27.816761 21.897144 -1.1260765 -143.46193 -1.1023088 -143.93861 -23.169842 -135.92761
42772500000 -27.76511 17.897463 -1.0944723 -143.89912 -1.1841501 -144.20998 -21.723745 -132.74229
42800000000 -30.52771 20.208645 -1.108284 -144.94969 -1.1600296 -144.64391 -22.214716 -141.63438
42827500000 -27.139788 23.618547 -1.1330612 -145.6373 -1.1393857 -145.76538 -23.403658 -138.48515
42855000000 -26.934271 22.490101 -1.134197 -145.92339 -1.1222278 -146.38974 -22.313595 -133.56299
42882500000 -29.123528 36.641411 -1.0655212 -146.62659 -1.145026 -146.70656 -22.295603 -136.86096
42910000000 -27.586102 21.272465 -1.1582309 -147.03992 -1.1420079 -147.04991 -22.223219 -141.57768
42937500000 -25.988514 18.091145 -1.1592301 -147.65721 -1.1593143 -148.02341 -23.811663 -140.53481
42965000000 -29.090824 24.639824 -1.1190976 -147.96687 -1.1521748 -148.06381 -22.027332 -139.85309
42992500000 -28.999781 26.157896 -1.1653535 -148.68874 -1.1449465 -148.8907 -23.64279 -143.11285
43020000000 -25.4799 33.297829 -1.0943291 -149.25687 -1.174948 -149.62979 -24.731628 -135.38049
43047500000 -27.724152 22.252075 -1.1660767 -149.66805 -1.1908299 -150.20662 -22.656178 -141.66154
43075000000 -29.056339 46.732422 -1.149164 -150.81155 -1.1748194 -150.09196 -22.671501 -150.33975
43102500000 -25.771473 30.373398 -1.115157 -150.88127 -1.1380042 -151.492 -24.578259 -150.32719
43130000000 -28.503958 38.76701 -1.1854957 -151.59811 -1.1444585 -151.55659 -22.181662 -148.71457
43157500000 -28.548292 31.886045 -1.1311955 -151.92375 -1.1320851 -151.87976 -22.391407 -148.98247
43185000000 -25.829115 37.787273 -1.0942225 -152.4791 -1.1274179 -152.75262 -24.81797 -149.37498
43212500000 -26.198446 35.023705 -1.1417934 -153.67578 -1.1912585 -153.10832 -24.008469 -151.30254
43240000000 -29.272179 19.976175 -1.1472578 -153.78685 -1.1690431 -154.13507 -23.457651 -156.39555
43267500000 -26.544884 41.579872 -1.1273562 -154.71317 -1.1231385 -154.54666 -23.257536 -158.27187
43295000000 -25.115297 44.597931 -1.130051 -154.80795 -1.172718 -155.05623 -24.34148 -153.43729
43322500000 -27.470793 28.385891 -1.2060955 -155.85875 -1.1771457 -155.45815 -22.822153 -159.74771
43350000000 -26.880136 42.2556 -1.1683817 -155.98029 -1.1725537 -156.20801 -23.430923 -153.65585
43377500000 -25.060129 42.739994 -1.1559342 -156.54102 -1.1939344 -156.6749 -23.452158 -163.07457
43405000000 -25.866425 23.771456 -1.125641 -157.67914 -1.1752075 -157.22662 -22.977213 -159.96284
43432500000 -26.003792 37.859577 -1.1496031 -157.4357 -1.2181301 -158.049 -24.179089 -159.81972
43460000000 -24.779997 51.449627 -1.1834824 -158.14189 -1.1158897 -158.50432 -26.186623 -167.27336
43487500000 -25.143408 41.886055 -1.1434718 -159.02814 -1.150458 -159.16983 -24.929279 -159.30705
43515000000 -27.617546 40.445793 -1.167707 -159.49713 -1.217387 -159.49771 -23.121546 -168.51849
43542500000 -24.288111 49.223892 -1.1391265 -160.47432 -1.0965744 -159.9675 -25.585276 -178.86191
43570000000 -24.012493 42.996826 -1.1173432 -160.83424 -1.1433526 -160.55058 -24.846186 -173.13214
43597500000 -26.239397 32.278572 -1.1432768 -160.91217 -1.181097 -161.13689 -24.448408 -177.35056
43625000000 -25.304213 49.500607 -1.1425577 -161.66655 -1.1739581 -161.92815 -27.009167 -170.89366
43652500000 -22.62141 50.824993 -1.1676744 -162.26842 -1.1375433 -162.49258 -24.501112 -178.14233
43680000000 -25.268143 30.625862 -1.1584891 -162.95973 -1.137593 -163.15108 -23.975519 -177.15276
43707500000 -23.855036 40.046989 -1.1491855 -163.45319 -1.2334567 -163.45952 -25.53721 -179.6665
43735000000 -23.496878 50.484051 -1.1861264 -163.65196 -1.2058166 -164.14786 -24.786701 169.60036
43762500000 -23.346592 37.866314 -1.1875923 -164.51323 -1.1547028 -164.63597 -23.747274 176.80901
43790000000 -24.819183 37.652386 -1.1179563 -165.22305 -1.1326878 -165.07526 -25.160496 165.06192
43817500000 -23.436304 52.45108 -1.1746005 -165.40221 -1.2229158 -165.62355 -25.135702 167.45747
43845000000 -23.83292 41.215626 -1.1240331 -166.10251 -1.1762255 -166.2977 -23.915876 174.9581
43872500000 -23.663507 37.724995 -1.2064109 -166.73239 -1.1652164 -166.64143 -25.570059 165.51326
43900000000 -23.634947 47.995747 -1.1611071 -166.92497 -1.2058408 -167.30536 -26.634825 156.84889
43927500000 -23.077944 43.245075 -1.1926138 -167.84306 -1.1843759 -167.71309 -24.398151 169.34157
43955000000 -23.404205 35.38031 -1.1728727 -168.36052 -1.1886541 -168.36977 -25.558743 155.78778
43982500000 -23.163671 48.4132 -1.1356469 -169.39771 -1.2043964 -169.11299 -26.865675 161.94333
44010000000 -23.246029 51.289577 -1.2111692 -169.60106 -1.2223834 -169.69601 -24.960356 165.61575
44037500000 -22.688498 37.989342 -1.114869 -169.99458 -1.1595181 -170.33244 -24.206913 148.15016
44065000000 -22.62377 43.690987 -1.1981205 -170.45232 -1.1795096 -170.53929 -26.735493 150.81789
44092500000 -22.083485 50.214317 -1.21609 -171.01996 -1.1863478 -171.2365 -25.335888 157.3519
44120000000 -21.75639 44.005413 -1.1613935 -171.91217 -1.1619059 -171.6387 -25.152889 154.23769
44147500000 -22.230381 41.844772 -1.2217824 -171.91641 -1.1899548 -172.38608 -25.906193 138.58398
44175000000 -21.552864 51.053295 -1.2002401 -172.59117 -1.1814153 -172.87332 -26.227474 146.56924
44202500000 -21.825289 44.052593 -1.1325796 -173.0731 -1.1948106 -173.20348 -24.458588 145.08369
44230000000 -21.041178 38.555634 -1.2189567 -174.0192 -1.2082912 -173.94229 -25.175776 136.2653
44257500000 -22.18454 48.681988 -1.1888614 -174.58754 -1.2560822 -174.22905 -26.832251 132.38864
44285000000 -21.075031 43.976604 -1.1673479 -175.13522 -1.2255955 -175.05603 -25.202995 143.95467
44312500000 -21.618029 40.265366 -1.2156438 -175.25159 -1.1802402 -175.64894 -23.706547 136.3582
44340000000 -21.738638 44.957146 -1.1523217 -176.39485 -1.270704 -176.50877 -24.833729 127.92394
44367500000 -20.782995 45.370346 -1.229741 -176.86768 -1.1992373 -176.84541 -25.239443 143.33084
44395000000 -20.58503 40.427879 -1.2212591 -176.76102 -1.1511122 -177.70332 -24.489 128.51823
44422500000 -21.335859 47.984745 -1.1762944 -177.91711 -1.2305807 -177.76344 -25.994099 123.68593
44450000000 -19.914473 46.207836 -1.2166277 -178.53549 -1.2420248 -178.59134 -26.11846 137.03789
44477500000 -20.506378 40.654991 -1.2001522 -178.8517 -1.2004054 -179.06653 -24.259468 132.88811
44505000000 -20.557455 45.435848 -1.2238657 -179.66063 -1.2428976 -179.7296 -23.568089 115.40125
44532500000 -20.504778 49.699242 -1.214486 -179.97064 -1.2259219 179.79097 -26.4023 124.06036
44560000000 -19.746231 43.455605 -1.1900092 179.42218 -1.2445321 179.07597 -24.332056 125.98788
44587500000 -20.117914 43.057812 -1.1974829 178.72896 -1.1900344 178.46008 -22.745321 105.87585
44615000000 -19.705933 49.264465 -1.2390467 177.80145 -1.2146171 177.96609 -25.702551 108.57634
44642500000 -19.787411 44.02943 -1.1783142 177.26445 -1.2100489 177.36394 -24.68474 121.93021
44670000000 -19.388275 43.831215 -1.2191333 177.00406 -1.154456 176.90797 -23.265795 110.9172
44697500000 -19.350231 51.629539 -1.2092305 176.48837 -1.1640794 176.11359 -25.078035 105.23527
44725000000 -19.423023 45.782024 -1.1775055 175.80141 -1.222003 175.6266 -24.879545 123.75255
44752500000 -19.069878 41.01358 -1.2119719 175.46835 -1.2329922 175.15977 -22.366167 107.59993
44780000000 -20.181471 42.642265 -1.2437724 174.76608 -1.2349305 174.53366 -22.999083 94.084564
44807500000 -19.032906 45.703049 -1.2012041 174.08304 -1.2180239 174.08632 -25.628113 108.91922
44835000000 -18.662285 40.934578 -1.1970755 173.62399 -1.2230033 173.79898 -22.783459 104.7078
44862500000 -19.195162 44.888702 -1.213815 173.20454 -1.2016809 172.97197 -22.06394 94.295479
44890000000 -19.056734 41.996166 -1.2260236 172.15765 -1.2229618 172.43008 -24.455099 96.824883
44917500000 -18.380632 43.628269 -1.2409756 172.1523 -1.2208178 171.77571 -22.975889 103.354
44945000000 -18.917122 38.298458 -1.219147 171.49637 -1.2801756 171.35684 -22.029903 93.096138
44972500000 -18.484123 42.9627 -1.1811606 170.77989 -1.2333949 170.68152 -23.728336 86.890625
45000000000 -18.430641 41.620686 -1.2198554 170.21161 -1.2312042 170.21594 -23.619255 99.154884
