!Keysight Technologies,N5247B,MY61255062,A.19.80.06
!Date: Thursday, May 21, 2026 12:14:15
!Correction: S11(Cdelta 2-Port  ) 
!S21(Cdelta 2-Port  ) 
!S12(Cdelta 2-Port  ) 
!S22(Cdelta 2-Port  ) 
!S2P File: Measurements: S11, S21, S12, S22:
# Hz S  dB   R 50
1000000000 -25.610855 -14.380419 -0.46795821 -21.124096 -0.46870556 -21.136393 -25.661627 -15.00713
1027500000 -25.579586 -15.226287 -0.47127706 -21.687586 -0.47221574 -21.696947 -25.662182 -15.556936
1055000000 -25.569626 -15.867717 -0.47407845 -22.267462 -0.47643444 -22.274927 -25.659792 -16.67391
1082500000 -25.540224 -16.478319 -0.47749329 -22.826031 -0.47924694 -22.828564 -25.68222 -17.174501
1110000000 -25.579098 -17.288425 -0.48268697 -23.397354 -0.48393661 -23.406626 -25.75362 -18.051767
1137500000 -25.595137 -17.519289 -0.4880662 -23.941053 -0.48937964 -23.946339 -25.819876 -17.824774
1165000000 -25.485054 -17.757719 -0.48891321 -24.488617 -0.49067265 -24.502518 -25.759556 -18.215658
1192500000 -25.396526 -18.532829 -0.49017245 -25.039438 -0.49163118 -25.050537 -25.758671 -18.55072
1220000000 -25.330942 -19.373724 -0.48843753 -25.609579 -0.49091145 -25.614754 -25.69574 -19.297585
1247500000 -25.35812 -20.116421 -0.49106044 -26.184753 -0.4933897 -26.200167 -25.669718 -20.134842
1275000000 -25.392075 -20.538841 -0.49456206 -26.746422 -0.49555483 -26.763393 -25.63772 -20.844584
1302500000 -25.42425 -21.172199 -0.5027315 -27.326504 -0.5036447 -27.338907 -25.759155 -22.165487
1330000000 -25.39151 -21.264811 -0.50246441 -27.851133 -0.50584638 -27.861872 -25.732172 -21.884203
1357500000 -25.372175 -21.728104 -0.50499141 -28.40704 -0.50648248 -28.425209 -25.704378 -22.377766
1385000000 -25.30431 -22.526804 -0.50338572 -28.969168 -0.50437498 -28.980589 -25.670219 -22.955462
1412500000 -25.289558 -23.559837 -0.50593537 -29.53698 -0.5095998 -29.55509 -25.664787 -23.321375
1440000000 -25.288786 -23.923468 -0.50869113 -30.089457 -0.50969672 -30.10022 -25.607031 -23.506487
1467500000 -25.255424 -24.764893 -0.50873941 -30.650303 -0.51114112 -30.659203 -25.589615 -24.147718
1495000000 -25.259207 -25.276791 -0.51163208 -31.213453 -0.51298004 -31.223831 -25.53441 -24.805748
1522500000 -25.258535 -25.358105 -0.51174361 -31.757307 -0.51315135 -31.769457 -25.473444 -25.19055
1550000000 -25.204809 -26.009283 -0.51038057 -32.324268 -0.51274908 -32.337551 -25.416445 -25.953634
1577500000 -25.19203 -26.733009 -0.51415658 -32.907295 -0.51639384 -32.923351 -25.443504 -27.173559
1605000000 -25.166517 -27.057852 -0.51625919 -33.449356 -0.51926595 -33.468204 -25.444946 -27.557028
1632500000 -25.21957 -27.441927 -0.5203315 -34.012333 -0.52241552 -34.025787 -25.460779 -28.175547
1660000000 -25.134705 -27.941256 -0.51927644 -34.550137 -0.52102518 -34.56332 -25.403078 -28.504288
1687500000 -25.093222 -28.715742 -0.51926827 -35.114849 -0.5205524 -35.133892 -25.331209 -29.203861
1715000000 -25.095453 -29.397058 -0.5183503 -35.67606 -0.52109963 -35.698444 -25.311703 -29.761635
1742500000 -25.058142 -30.216627 -0.51946843 -36.235329 -0.52277756 -36.268036 -25.310186 -30.432802
1770000000 -25.014603 -31.082609 -0.52023989 -36.806801 -0.5238387 -36.825729 -25.291857 -31.214582
1797500000 -25.011911 -31.505823 -0.52263999 -37.369576 -0.52485687 -37.389034 -25.269526 -31.780689
1825000000 -24.998049 -32.196522 -0.52317202 -37.937538 -0.52506429 -37.950661 -25.270767 -32.365021
1852500000 -24.962681 -33.065598 -0.52331656 -38.496529 -0.52669466 -38.519436 -25.232227 -32.998581
1880000000 -24.969009 -33.742836 -0.5251233 -39.072159 -0.52679229 -39.078724 -25.230896 -33.826813
1907500000 -24.945406 -34.067265 -0.52537602 -39.62962 -0.52916944 -39.649368 -25.202154 -34.577885
1935000000 -24.88821 -34.908394 -0.52753752 -40.197281 -0.52925044 -40.211845 -25.182325 -35.183899
1962500000 -24.886219 -35.72839 -0.52792692 -40.765553 -0.53158712 -40.783478 -25.182858 -36.083317
1990000000 -24.965084 -36.410519 -0.53175735 -41.335453 -0.53482527 -41.347069 -25.215582 -36.926991
2017500000 -24.938082 -36.919811 -0.53459454 -41.885139 -0.53670126 -41.901119 -25.257215 -37.486839
2045000000 -24.930515 -37.746788 -0.53517395 -42.45089 -0.5375039 -42.461246 -25.218603 -38.017406
2072500000 -24.929867 -38.269989 -0.53704101 -43.006721 -0.53886783 -43.018883 -25.203342 -38.497349
2100000000 -24.903261 -38.922764 -0.53713065 -43.567242 -0.53944957 -43.579468 -25.179314 -38.969997
2127500000 -24.91259 -39.699081 -0.53791642 -44.134087 -0.5414443 -44.154293 -25.191414 -39.83857
2155000000 -24.910526 -40.415318 -0.53971279 -44.696564 -0.54316473 -44.707809 -25.160656 -40.516109
2182500000 -24.904333 -41.011726 -0.54057407 -45.258316 -0.54270065 -45.267235 -25.159256 -41.21125
2210000000 -24.88101 -41.752686 -0.54261971 -45.81757 -0.54493338 -45.832611 -25.115812 -41.722454
2237500000 -24.904896 -42.431412 -0.5425933 -46.381538 -0.54615378 -46.404106 -25.132023 -42.600742
2265000000 -24.885077 -43.013794 -0.54428601 -46.949478 -0.54923713 -46.969326 -25.134031 -43.129974
2292500000 -24.8589 -43.824692 -0.54597998 -47.519062 -0.55042052 -47.537266 -25.096764 -43.821758
2320000000 -24.91993 -44.522228 -0.54851425 -48.090107 -0.55141735 -48.097225 -25.079535 -44.5951
2347500000 -24.883482 -45.254921 -0.54952264 -48.636803 -0.55420917 -48.650497 -25.143585 -45.09787
2375000000 -24.87204 -45.833591 -0.55199605 -49.200008 -0.55449533 -49.217529 -25.106499 -45.803036
2402500000 -24.896992 -46.370232 -0.55258137 -49.759712 -0.55769438 -49.784279 -25.086163 -46.663303
2430000000 -24.937719 -47.224602 -0.55516213 -50.322498 -0.5573889 -50.338936 -25.095634 -47.242989
2457500000 -24.901876 -47.902588 -0.55586493 -50.897583 -0.55905735 -50.89109 -25.066994 -48.066116
2485000000 -24.919378 -48.466755 -0.55758846 -51.449623 -0.56032765 -51.455723 -25.026031 -48.909874
2512500000 -24.969482 -49.209427 -0.56006849 -52.014984 -0.56295961 -52.031185 -25.052059 -49.417114
2540000000 -24.932108 -50.203014 -0.56018543 -52.56535 -0.56572378 -52.584602 -25.110222 -50.345444
2567500000 -24.953125 -50.841808 -0.56445807 -53.12719 -0.5671736 -53.140507 -25.097382 -51.09256
2595000000 -24.985876 -51.445629 -0.56347919 -53.6791 -0.56869477 -53.701321 -25.067877 -51.343891
2622500000 -24.981401 -51.979324 -0.56495035 -54.237923 -0.56977099 -54.255493 -25.062792 -52.390617
2650000000 -24.958902 -53.047871 -0.56600654 -54.79916 -0.56979758 -54.805672 -25.09263 -53.170658
2677500000 -24.944059 -53.368557 -0.56798279 -55.35947 -0.57298106 -55.376312 -25.075365 -53.677284
2705000000 -24.980824 -53.815254 -0.56995815 -55.920643 -0.57476306 -55.94075 -25.088686 -54.41964
2732500000 -24.998432 -54.810795 -0.57072562 -56.48085 -0.57436919 -56.499748 -25.107767 -55.094345
2760000000 -24.956104 -55.505783 -0.57135653 -57.044659 -0.57635605 -57.06459 -25.116354 -55.641949
2787500000 -24.991215 -55.968624 -0.5729326 -57.598351 -0.57736772 -57.627659 -25.138453 -56.839195
2815000000 -25.07387 -56.704945 -0.57392281 -58.162407 -0.57885963 -58.179878 -25.110157 -57.055004
2842500000 -25.035809 -57.677979 -0.57779938 -58.721569 -0.58067632 -58.744961 -25.112154 -57.804737
2870000000 -25.037069 -57.938152 -0.57986414 -59.273918 -0.58323115 -59.305275 -25.110662 -58.639004
2897500000 -25.080875 -58.420563 -0.58182597 -59.843285 -0.58364832 -59.846153 -25.114571 -59.391651
2925000000 -25.090019 -59.697227 -0.58144093 -60.409477 -0.5853219 -60.415939 -25.157495 -59.964409
2952500000 -25.049644 -60.178905 -0.58406854 -60.9562 -0.58695167 -60.967575 -25.186996 -60.754143
2980000000 -25.088118 -60.592945 -0.58445442 -61.512814 -0.58689684 -61.528744 -25.13262 -61.6036
3007500000 -25.106413 -61.538162 -0.58663398 -62.066982 -0.59006828 -62.084747 -25.221014 -62.044758
3035000000 -25.103262 -62.074718 -0.58834934 -62.623436 -0.5919404 -62.650539 -25.234913 -62.833076
3062500000 -25.128294 -62.38662 -0.5893178 -63.18322 -0.59394062 -63.203239 -25.212837 -63.676025
3090000000 -25.15988 -63.458755 -0.58993602 -63.746964 -0.59385931 -63.753757 -25.232681 -64.135399
3117500000 -25.149172 -64.645164 -0.59193057 -64.306709 -0.59587735 -64.31501 -25.313765 -64.729698
3145000000 -25.132103 -64.604568 -0.59280109 -64.858185 -0.59691733 -64.88768 -25.253466 -65.958313
3172500000 -25.124052 -65.517891 -0.59531826 -65.415237 -0.59809655 -65.435127 -25.277252 -66.292686
3200000000 -25.163176 -66.652512 -0.5939424 -65.981079 -0.60055381 -65.98571 -25.367765 -66.771729
3227500000 -25.14797 -66.709373 -0.59606296 -66.531815 -0.60353416 -66.542694 -25.353796 -67.883064
3255000000 -25.155464 -67.554337 -0.59732956 -67.075775 -0.6030345 -67.101639 -25.30262 -68.503571
3282500000 -25.152832 -68.431732 -0.59867114 -67.646393 -0.60305232 -67.659134 -25.422808 -68.36322
3310000000 -25.144848 -69.150314 -0.59995013 -68.200836 -0.60339022 -68.204956 -25.458527 -69.717575
3337500000 -25.158293 -69.559616 -0.60125244 -68.750504 -0.60613054 -68.762436 -25.398939 -71.026367
3365000000 -25.223137 -70.660179 -0.60279894 -69.306641 -0.60565758 -69.32196 -25.456547 -70.640587
3392500000 -25.177668 -70.799812 -0.6041919 -69.856049 -0.60772133 -69.868149 -25.587233 -71.171135
3420000000 -25.223507 -71.712135 -0.60340387 -70.413971 -0.60779756 -70.423157 -25.474712 -72.958794
3447500000 -25.294273 -72.512962 -0.60261095 -70.979057 -0.60712147 -70.981529 -25.446814 -72.893639
3475000000 -25.231401 -73.343575 -0.60495323 -71.521561 -0.60791844 -71.542023 -25.574989 -72.700546
3502500000 -25.248934 -73.912674 -0.60298151 -72.086861 -0.60907209 -72.100586 -25.617794 -74.366257
3530000000 -25.343458 -74.320717 -0.6045956 -72.651344 -0.60902923 -72.669594 -25.492622 -75.363342
3557500000 -25.258373 -75.19648 -0.60525912 -73.206413 -0.60968655 -73.220161 -25.51948 -74.4739
3585000000 -25.309637 -76.187309 -0.60565847 -73.758942 -0.6091311 -73.782669 -25.668068 -75.640671
3612500000 -25.392874 -76.306076 -0.60668772 -74.338745 -0.60952246 -74.336197 -25.61841 -77.413826
3640000000 -25.332735 -77.256638 -0.60677284 -74.908112 -0.61014652 -74.918465 -25.596457 -77.293571
3667500000 -25.317453 -78.442024 -0.60707438 -75.454147 -0.61278051 -75.482407 -25.646429 -77.618073
3695000000 -25.411243 -78.292542 -0.60899168 -76.020393 -0.61276919 -76.03466 -25.699879 -79.177811
3722500000 -25.409649 -78.989014 -0.61138004 -76.575935 -0.61297131 -76.592552 -25.689564 -79.703415
3750000000 -25.350365 -80.201675 -0.61082071 -77.142365 -0.6136325 -77.159492 -25.716543 -79.856186
3777500000 -25.403158 -80.398209 -0.61325866 -77.69735 -0.61628443 -77.70948 -25.772594 -81.219925
3805000000 -25.443462 -80.878311 -0.61350727 -78.259407 -0.61694586 -78.276588 -25.775692 -81.815193
3832500000 -25.399431 -82.167435 -0.61462992 -78.826363 -0.6184926 -78.831787 -25.812365 -81.854988
3860000000 -25.413485 -82.625816 -0.61445665 -79.379662 -0.61974996 -79.385048 -25.844719 -83.216187
3887500000 -25.478893 -82.402733 -0.61768144 -79.930916 -0.62068164 -79.95269 -25.939156 -83.772934
3915000000 -25.481222 -83.970749 -0.61860573 -80.492714 -0.62110746 -80.509178 -25.902628 -83.922119
3942500000 -25.369225 -85.026505 -0.62011427 -81.047157 -0.62409151 -81.065239 -25.937376 -85.054779
3970000000 -25.455727 -84.280266 -0.62120247 -81.602875 -0.62495619 -81.621704 -26.032061 -85.607437
3997500000 -25.556244 -85.323349 -0.62050664 -82.159821 -0.62395942 -82.170883 -25.984755 -86.097733
4025000000 -25.458654 -86.935181 -0.62113285 -82.729141 -0.62551045 -82.738907 -25.966825 -87.087677
4052500000 -25.505362 -86.676826 -0.62131923 -83.284302 -0.62683713 -83.296402 -26.120483 -87.892685
4080000000 -25.598093 -87.034058 -0.62116152 -83.840752 -0.62665051 -83.85923 -26.114363 -88.4618
4107500000 -25.587652 -88.946602 -0.62303156 -84.401505 -0.62845922 -84.420876 -26.105129 -89.375755
4135000000 -25.476112 -89.204666 -0.62358195 -84.958015 -0.62760699 -84.977776 -26.186016 -89.612259
4162500000 -25.56361 -88.916252 -0.6233958 -85.520912 -0.62896097 -85.541649 -26.183744 -90.232399
4190000000 -25.666563 -90.381241 -0.62404311 -86.09024 -0.63093042 -86.100311 -26.191782 -91.105453
4217500000 -25.572098 -91.612167 -0.62632489 -86.640053 -0.6306383 -86.65818 -26.253525 -91.198914
4245000000 -25.580301 -91.264511 -0.62651807 -87.20359 -0.63293701 -87.22435 -26.259268 -92.167892
4272500000 -25.676125 -91.963905 -0.62978768 -87.76796 -0.63283461 -87.7854 -26.332617 -93.16687
4300000000 -25.664932 -93.325027 -0.63031441 -88.328773 -0.63447237 -88.331863 -26.368261 -93.108276
4327500000 -25.64205 -93.643883 -0.63005197 -88.880569 -0.63535804 -88.90876 -26.376787 -94.116554
4355000000 -25.730719 -93.844322 -0.631401 -89.446411 -0.63634008 -89.468231 -26.458181 -95.21096
4382500000 -25.750803 -94.854652 -0.63424951 -90.011032 -0.63771087 -90.026939 -26.466246 -95.38253
4410000000 -25.748123 -95.905731 -0.63384479 -90.561996 -0.63939035 -90.582253 -26.498934 -96.059975
4437500000 -25.791555 -95.90937 -0.63524717 -91.120972 -0.64069492 -91.137375 -26.562563 -96.962463
4465000000 -25.816723 -96.864204 -0.63590074 -91.687363 -0.64195871 -91.699165 -26.574131 -97.37709
4492500000 -25.815161 -97.863693 -0.63696593 -92.241829 -0.64226067 -92.258064 -26.640839 -97.874298
4520000000 -25.882986 -98.156807 -0.63818729 -92.80188 -0.64264208 -92.811752 -26.698811 -99.046577
4547500000 -25.8811 -98.476402 -0.63847154 -93.351974 -0.64375341 -93.377541 -26.7103 -99.129448
4575000000 -25.877886 -99.752472 -0.64062083 -93.916481 -0.64497846 -93.931786 -26.777361 -99.715858
4602500000 -25.953224 -100.18959 -0.64146751 -94.478569 -0.64644027 -94.499008 -26.820606 -100.93336
4630000000 -25.943913 -100.47042 -0.64394134 -95.041214 -0.64685243 -95.053772 -26.822126 -101.37047
4657500000 -25.961378 -101.47065 -0.64480817 -95.593857 -0.64879161 -95.609375 -26.869158 -101.6965
4685000000 -26.010654 -102.33538 -0.64448661 -96.158401 -0.64768142 -96.169067 -26.923386 -102.76685
4712500000 -26.064312 -102.59985 -0.64642525 -96.699341 -0.65013623 -96.724174 -26.959627 -103.34267
4740000000 -26.082233 -103.18389 -0.6472683 -97.267212 -0.65158176 -97.284004 -26.98922 -103.459
4767500000 -26.127243 -104.50969 -0.64726228 -97.826485 -0.65141213 -97.834084 -27.0972 -104.86915
4795000000 -26.158577 -104.71775 -0.64793086 -98.387436 -0.65226817 -98.388939 -27.075636 -105.58708
4822500000 -26.175228 -105.21357 -0.64900953 -98.947342 -0.6550774 -98.957375 -27.13419 -105.74926
4850000000 -26.203505 -106.34649 -0.65104765 -99.495255 -0.65624696 -99.51709 -27.213844 -106.57423
4877500000 -26.229588 -106.7302 -0.65244144 -100.05347 -0.65629095 -100.0742 -27.256742 -107.47982
4905000000 -26.256647 -107.10397 -0.65177244 -100.61597 -0.65727383 -100.63469 -27.223688 -107.63849
4932500000 -26.296663 -108.07565 -0.65278739 -101.17825 -0.65916216 -101.18902 -27.34185 -108.20828
4960000000 -26.320986 -109.15683 -0.6554597 -101.73064 -0.65977925 -101.75357 -27.4216 -109.35948
4987500000 -26.375648 -109.14066 -0.65520686 -102.28889 -0.66170245 -102.30209 -27.385962 -109.62012
5015000000 -26.367332 -109.94886 -0.65732712 -102.84206 -0.66251343 -102.86232 -27.471661 -109.9693
5042500000 -26.429291 -111.07885 -0.65813428 -103.40749 -0.66306496 -103.41843 -27.630732 -111.54417
5070000000 -26.494671 -111.12555 -0.65968704 -103.95858 -0.66388768 -103.97327 -27.568569 -111.97323
5097500000 -26.498999 -111.95258 -0.65972286 -104.52479 -0.66631246 -104.54343 -27.620096 -112.0369
5125000000 -26.523905 -113.0052 -0.66035032 -105.08391 -0.66520327 -105.09722 -27.764177 -113.49273
5152500000 -26.562887 -113.42015 -0.66259068 -105.63831 -0.66610694 -105.65466 -27.713625 -113.87766
5180000000 -26.60367 -113.78707 -0.6640566 -106.20597 -0.66652191 -106.21051 -27.707287 -113.5938
5207500000 -26.65089 -114.84033 -0.66609883 -106.75552 -0.67064947 -106.7711 -27.915276 -115.01249
5235000000 -26.615786 -115.37003 -0.66676968 -107.31086 -0.66981852 -107.31628 -27.860216 -116.13664
5262500000 -26.677868 -115.89662 -0.66729158 -107.86868 -0.67270833 -107.86815 -27.886074 -115.8414
5290000000 -26.725393 -116.69094 -0.66765106 -108.42165 -0.67364776 -108.42961 -28.049173 -116.89717
5317500000 -26.714687 -117.25155 -0.66883427 -108.9746 -0.67378289 -108.99267 -28.102512 -118.34513
5345000000 -26.814964 -117.93707 -0.67028064 -109.53228 -0.67440993 -109.55907 -28.056099 -118.15252
5372500000 -26.838724 -118.73371 -0.66931021 -110.08664 -0.67745137 -110.09737 -28.196619 -118.77582
5400000000 -26.841721 -119.53564 -0.6731711 -110.64057 -0.6789012 -110.65973 -28.290878 -120.41095
5427500000 -26.950754 -120.04484 -0.67382127 -111.21044 -0.67998487 -111.21738 -28.219656 -120.53332
5455000000 -26.972811 -120.74526 -0.67551422 -111.75909 -0.68113935 -111.77015 -28.342508 -120.66312
5482500000 -26.981564 -121.64489 -0.67579854 -112.30923 -0.68083745 -112.33051 -28.505646 -122.37489
5510000000 -27.038847 -122.27035 -0.67684603 -112.86236 -0.68162447 -112.8849 -28.494017 -122.93282
5537500000 -27.123966 -122.91373 -0.67690802 -113.42936 -0.68150091 -113.43301 -28.478069 -122.69307
5565000000 -27.085754 -123.57652 -0.6797781 -113.97314 -0.68180799 -113.99754 -28.701521 -124.27812
5592500000 -27.131813 -124.34042 -0.67865151 -114.53865 -0.68401581 -114.547 -28.713968 -125.63309
5620000000 -27.220102 -125.198 -0.67952049 -115.10136 -0.68354315 -115.10527 -28.677788 -125.42361
5647500000 -27.206867 -125.62997 -0.68095976 -115.63223 -0.6860556 -115.66293 -28.850447 -126.39209
5675000000 -27.227932 -126.01058 -0.68067634 -116.20301 -0.68687814 -116.22275 -28.994383 -127.43571
5702500000 -27.360004 -126.82278 -0.6828869 -116.76113 -0.6877718 -116.78095 -28.941149 -127.70226
5730000000 -27.335077 -127.51157 -0.68406308 -117.31379 -0.68800867 -117.33485 -29.034756 -128.25948
5757500000 -27.359076 -128.37952 -0.68389523 -117.8786 -0.68815094 -117.89632 -29.18733 -129.72395
5785000000 -27.49984 -129.07018 -0.68401885 -118.42827 -0.69151801 -118.44298 -29.25272 -130.1869
5812500000 -27.480267 -129.81148 -0.68570453 -118.98303 -0.69011009 -118.99448 -29.350336 -130.33943
5840000000 -27.486561 -130.41579 -0.68654221 -119.53242 -0.69115043 -119.55869 -29.434221 -132.25909
5867500000 -27.605576 -130.97096 -0.68616259 -120.08702 -0.69115925 -120.10933 -29.555368 -132.70851
5895000000 -27.658892 -132.18073 -0.6875183 -120.64548 -0.69170684 -120.6542 -29.622887 -133.08408
5922500000 -27.653893 -132.56409 -0.6893 -121.19588 -0.69285256 -121.22415 -29.7299 -134.42526
5950000000 -27.769388 -132.94212 -0.68987131 -121.74959 -0.69338489 -121.77188 -29.868399 -135.31357
5977500000 -27.857759 -134.01161 -0.69051582 -122.31197 -0.69493967 -122.32095 -29.988369 -135.52274
6005000000 -27.802135 -134.79663 -0.68991166 -122.86475 -0.69494176 -122.88057 -29.994917 -136.63838
6032500000 -27.839861 -135.0036 -0.6933369 -123.41714 -0.69488889 -123.42862 -30.15687 -137.69943
6060000000 -28.021063 -135.8385 -0.69161057 -123.96896 -0.6955573 -123.99095 -30.40316 -137.75166
6087500000 -27.948534 -136.69954 -0.69261545 -124.52239 -0.69670254 -124.5426 -30.375694 -138.95427
6115000000 -27.974653 -136.68741 -0.69379485 -125.08234 -0.69826972 -125.09785 -30.468258 -140.10706
6142500000 -28.247175 -137.83035 -0.69254166 -125.63932 -0.69679338 -125.66484 -30.679281 -140.18581
6170000000 -28.22904 -139.04169 -0.69195056 -126.1945 -0.69904536 -126.21085 -30.798447 -141.49016
6197500000 -28.106647 -138.95126 -0.69362205 -126.75217 -0.69899058 -126.76876 -30.844368 -143.43317
6225000000 -28.30097 -139.1814 -0.69483483 -127.30087 -0.69827491 -127.31455 -31.194807 -142.49437
6252500000 -28.486965 -140.90877 -0.69353366 -127.84874 -0.69857925 -127.8667 -31.272575 -143.13908
6280000000 -28.275789 -141.05936 -0.69471574 -128.408 -0.70000201 -128.43271 -31.180902 -145.76279
6307500000 -28.418129 -140.80621 -0.69508517 -128.95496 -0.69996071 -128.9819 -31.5243 -144.89645
6335000000 -28.775326 -141.92392 -0.69346446 -129.51732 -0.69956714 -129.53542 -31.770369 -144.55934
6362500000 -28.57737 -143.15884 -0.69429415 -130.07977 -0.69908667 -130.08717 -31.655001 -147.88683
6390000000 -28.523726 -142.57954 -0.69496363 -130.62309 -0.6989243 -130.64807 -31.905558 -147.09128
6417500000 -29.026865 -143.08315 -0.69457424 -131.18965 -0.69868106 -131.19827 -32.252296 -145.8759
6445000000 -28.913311 -145.02444 -0.69389874 -131.74376 -0.6984725 -131.7599 -32.231384 -150.31763
6472500000 -28.62075 -144.98819 -0.69405544 -132.29005 -0.69952339 -132.32199 -32.292976 -150.23563
6500000000 -29.020327 -144.49236 -0.69311005 -132.84709 -0.69984818 -132.88191 -32.723377 -147.69804
6527500000 -29.244015 -146.05885 -0.6935367 -133.41222 -0.69819617 -133.43973 -32.862576 -152.17969
6555000000 -28.900936 -147.79813 -0.69466048 -133.96452 -0.69850719 -134.00229 -32.855244 -154.30603
6582500000 -29.083422 -146.31166 -0.69363755 -134.53947 -0.69773686 -134.5584 -33.073357 -149.80904
6610000000 -29.33264 -146.71704 -0.69405967 -135.09373 -0.69827068 -135.12047 -33.553352 -152.67096
6637500000 -29.191599 -149.29448 -0.694296 -135.65915 -0.69929957 -135.67702 -33.441311 -157.21596
6665000000 -29.194826 -148.70207 -0.69300592 -136.23145 -0.69815361 -136.23521 -33.428448 -152.22575
6692500000 -29.492313 -147.45377 -0.6944986 -136.76866 -0.69832718 -136.79373 -34.079857 -152.44576
6720000000 -29.471001 -149.9787 -0.69314587 -137.34192 -0.69811928 -137.36687 -34.377094 -158.70146
6747500000 -29.419165 -150.22305 -0.6936776 -137.90764 -0.69841355 -137.92238 -33.948132 -157.02385
6775000000 -29.605015 -149.70015 -0.69399226 -138.4687 -0.69888842 -138.48575 -34.292976 -153.673
6802500000 -29.779961 -150.94305 -0.69558555 -139.02786 -0.69886202 -139.05499 -35.087299 -157.71861
6830000000 -29.712811 -151.80986 -0.69642144 -139.60091 -0.69974595 -139.6169 -34.790325 -161.72108
6857500000 -29.734833 -151.93127 -0.69687122 -140.15851 -0.70345044 -140.18886 -34.76207 -157.74654
6885000000 -29.985596 -152.31039 -0.69812381 -140.71205 -0.70243305 -140.74533 -35.454212 -158.40732
6912500000 -29.956652 -152.99384 -0.69704139 -141.2847 -0.7036739 -141.2968 -35.61718 -163.52737
6940000000 -29.940512 -153.9919 -0.6977399 -141.83841 -0.70423001 -141.86122 -35.501198 -161.99196
6967500000 -30.21493 -153.95294 -0.69862515 -142.40331 -0.70405132 -142.42503 -35.908813 -159.43787
6995000000 -30.230963 -154.09337 -0.70041019 -142.96722 -0.70526189 -142.99246 -36.620171 -163.95874
7022500000 -30.095369 -155.39262 -0.70141375 -143.53174 -0.70563066 -143.55408 -36.593784 -166.35611
7050000000 -30.441154 -155.85863 -0.70238346 -144.08856 -0.70560539 -144.10167 -36.549053 -163.1436
7077500000 -30.507566 -155.6109 -0.70249271 -144.64343 -0.70773512 -144.66714 -37.502605 -164.41214
7105000000 -30.38225 -156.50674 -0.70285451 -145.20448 -0.70942217 -145.22522 -37.761105 -168.47769
7132500000 -30.67152 -157.53885 -0.70223832 -145.76768 -0.7066232 -145.78059 -37.263283 -165.85756
7160000000 -30.804777 -156.52469 -0.70518577 -146.33023 -0.71130925 -146.34218 -38.185596 -166.45015
7187500000 -30.630369 -157.4881 -0.7047528 -146.88751 -0.71163368 -146.89789 -39.046787 -171.24637
7215000000 -30.825377 -158.53702 -0.70816779 -147.44269 -0.71181667 -147.45103 -38.480659 -169.89813
7242500000 -31.063011 -158.02025 -0.70663571 -148.00478 -0.71327978 -148.03036 -39.00322 -166.75697
7270000000 -30.969673 -158.34807 -0.70939106 -148.56348 -0.71308428 -148.59064 -40.054031 -172.68959
7297500000 -30.964533 -160.24989 -0.71100068 -149.13712 -0.71530318 -149.15933 -39.841808 -173.24452
7325000000 -31.286077 -159.82982 -0.70913839 -149.68703 -0.71574759 -149.70009 -40.013897 -169.76651
7352500000 -31.289141 -159.30557 -0.71042168 -150.24638 -0.71600491 -150.25679 -41.353966 -174.09204
7380000000 -31.231903 -160.92952 -0.71378291 -150.80051 -0.7185365 -150.82643 -41.553928 -179.92639
7407500000 -31.536589 -160.91353 -0.71301043 -151.36354 -0.71781909 -151.3835 -41.060463 -172.45847
7435000000 -31.595705 -160.70067 -0.71290123 -151.9136 -0.71790189 -151.94453 -42.464451 -174.38313
7462500000 -31.424763 -161.58679 -0.71421248 -152.49011 -0.71868253 -152.50751 -43.256767 178.75809
7490000000 -31.729736 -161.9278 -0.71397203 -153.03586 -0.72051984 -153.06657 -42.847187 -174.54681
7517500000 -31.98424 -161.01266 -0.71675313 -153.61334 -0.7212643 -153.6337 -44.260983 -176.58777
7545000000 -31.767288 -162.52631 -0.71673912 -154.16866 -0.72284251 -154.18619 -45.343983 173.29196
7572500000 -31.874908 -162.92319 -0.71799743 -154.73502 -0.72298074 -154.74533 -44.70377 179.27197
7600000000 -32.14687 -161.82294 -0.71949202 -155.29759 -0.72584134 -155.32239 -45.961071 -174.96585
7627500000 -32.020588 -162.85678 -0.72122091 -155.83879 -0.72424853 -155.88387 -47.789249 167.38861
7655000000 -31.996078 -163.57237 -0.72268414 -156.40697 -0.7278583 -156.44225 -47.153706 171.15726
7682500000 -32.357277 -163.3486 -0.72532123 -156.95665 -0.730165 -157.00496 -47.616463 -177.19371
7710000000 -32.328369 -163.59703 -0.72587067 -157.51933 -0.72933483 -157.55598 -50.056511 160.42056
7737500000 -32.183483 -164.33888 -0.72786564 -158.08459 -0.73196059 -158.10971 -49.929733 157.70595
7765000000 -32.419296 -164.82516 -0.72636449 -158.63896 -0.73217911 -158.65604 -51.632633 -179.87648
7792500000 -32.568035 -164.87254 -0.7284506 -159.19083 -0.73331106 -159.21297 -54.507545 138.33014
7820000000 -32.423393 -165.28027 -0.73032397 -159.7498 -0.73403406 -159.77145 -52.561852 129.79204
7847500000 -32.665749 -165.95952 -0.73092979 -160.30489 -0.73525023 -160.33105 -56.79747 164.93575
7875000000 -32.893085 -166.41959 -0.73148179 -160.86288 -0.73742008 -160.88573 -58.753468 102.22919
7902500000 -32.795731 -166.3746 -0.73156571 -161.433 -0.73619777 -161.4532 -53.316452 84.966568
7930000000 -32.795101 -165.8918 -0.7339133 -161.97615 -0.73770136 -162.00873 -65.915169 63.781761
7957500000 -33.124676 -167.45634 -0.73558754 -162.54056 -0.73907417 -162.56833 -54.565163 34.801907
7985000000 -33.106201 -167.52734 -0.73463643 -163.10086 -0.73896831 -163.12616 -51.042397 51.961437
8012500000 -32.946514 -166.52907 -0.73769158 -163.6593 -0.74153852 -163.68652 -54.515297 21.592672
8040000000 -33.308605 -168.42448 -0.7398988 -164.22861 -0.74331921 -164.23584 -49.881977 12.553233
8067500000 -33.493584 -168.87401 -0.73934454 -164.76642 -0.74498105 -164.7852 -48.282822 38.18364
8095000000 -33.226215 -167.22546 -0.74125999 -165.32854 -0.74510765 -165.35704 -50.179371 12.120975
8122500000 -33.430553 -169.09795 -0.74443012 -165.88089 -0.74659222 -165.91136 -46.371193 -0.50195324
8150000000 -33.836185 -170.10992 -0.74374402 -166.4478 -0.74842817 -166.46367 -45.223804 29.889738
8177500000 -33.664421 -167.66873 -0.74435329 -167.01175 -0.74972069 -167.03064 -48.591034 13.66299
8205000000 -33.584469 -169.14536 -0.74801302 -167.5648 -0.75164074 -167.60091 -43.684563 -9.9638643
8232500000 -34.047569 -171.80272 -0.74919927 -168.1339 -0.75370824 -168.15491 -42.255226 22.639278
8260000000 -34.048851 -168.38664 -0.74945056 -168.68434 -0.75351453 -168.70908 -47.452282 17.260378
8287500000 -33.868336 -169.65492 -0.75355148 -169.25543 -0.75791365 -169.28146 -41.46489 -20.695726
8315000000 -34.463459 -173.03816 -0.75683933 -169.82082 -0.75923735 -169.82603 -39.521835 14.856957
8342500000 -34.341831 -168.63708 -0.76148582 -170.38438 -0.76451081 -170.40799 -45.34708 37.024269
8370000000 -33.982536 -168.99142 -0.76493496 -170.94373 -0.76922357 -170.97237 -40.534817 -38.806904
8397500000 -34.818817 -174.3145 -0.76994115 -171.49113 -0.77575624 -171.52631 -36.203606 1.322206
8425000000 -34.72356 -166.98444 -0.7799468 -172.04657 -0.78526813 -172.08116 -39.815357 54.695862
8452500000 -33.968369 -170.00801 -0.78758043 -172.56445 -0.79178894 -172.60228 -42.254845 -77.879852
8480000000 -35.579807 -174.5233 -0.80327946 -173.05881 -0.80518031 -173.07849 -32.281815 -25.417158
8507500000 -34.766987 -163.67456 -0.81741714 -173.50793 -0.82124281 -173.53763 -31.888374 40.829224
8535000000 -33.918301 -174.24318 -0.81398445 -173.91873 -0.82130694 -173.94052 -38.013828 141.41917
8562500000 -36.434879 -165.58008 -0.79798949 -174.2061 -0.80242211 -174.23322 -30.67462 -83.30423
8590000000 -33.507915 -167.5076 -0.76495838 -174.61012 -0.77202326 -174.62547 -27.551228 -13.468362
8617500000 -35.14431 176.25342 -0.72583121 -175.21306 -0.73124254 -175.23289 -28.612604 49.353516
8645000000 -35.08218 -161.61966 -0.69403934 -176.03496 -0.70070678 -176.05119 -36.469994 154.33032
8672500000 -33.944695 -175.22562 -0.682594 -176.75008 -0.68710583 -176.76633 -31.645311 -71.090263
8700000000 -36.953472 -176.70686 -0.69291359 -177.42447 -0.69502836 -177.45097 -28.825447 -7.3250766
8727500000 -35.147797 -167.63304 -0.70964801 -178.114 -0.71649086 -178.12637 -34.5093 43.210968
8755000000 -34.877449 -176.93079 -0.71481943 -178.73137 -0.7168417 -178.75897 -41.986805 -73.474068
8782500000 -36.736759 -171.46832 -0.72516185 -179.25745 -0.72855043 -179.26915 -31.541702 -28.042158
8810000000 -35.558933 -169.28227 -0.73691976 -179.84203 -0.74239469 -179.87416 -32.905827 7.6165633
8837500000 -35.501701 -174.96262 -0.73958421 179.56897 -0.74259645 179.56235 -41.546268 -11.256093
8865000000 -36.529221 -170.26904 -0.74184281 179.05795 -0.74570698 179.0143 -33.501373 -32.609467
8892500000 -36.196606 -167.73433 -0.75087571 178.51065 -0.75328207 178.47792 -32.392899 -8.454011
8920000000 -35.917248 -173.02539 -0.75093108 177.92303 -0.75639749 177.90411 -37.032497 -5.0632162
8947500000 -36.519234 -170.22086 -0.75076675 177.38707 -0.75622159 177.36121 -34.650585 -30.896118
8975000000 -36.685349 -167.63425 -0.75391454 176.85133 -0.75901014 176.82356 -32.287056 -17.339277
9002500000 -36.360378 -172.66051 -0.75722545 176.28346 -0.76215243 176.26117 -34.649799 -9.3570032
9030000000 -36.529613 -170.72614 -0.75649118 175.72894 -0.7638188 175.70363 -34.469769 -27.212944
9057500000 -36.974937 -167.30728 -0.75937146 175.18369 -0.76479077 175.15802 -32.135361 -22.834797
9085000000 -36.713558 -170.9304 -0.7611357 174.63155 -0.76680893 174.6017 -33.242008 -14.744977
9112500000 -36.61153 -170.19553 -0.76231843 174.07545 -0.76884997 174.04636 -34.036175 -25.22868
9140000000 -37.138412 -166.93346 -0.7625767 173.53035 -0.76554346 173.50101 -32.059967 -25.877571
9167500000 -37.158379 -168.84518 -0.76523346 172.97023 -0.77035379 172.94884 -32.184139 -18.803839
9195000000 -37.005619 -169.05811 -0.76682252 172.41409 -0.76932245 172.3759 -33.3423 -23.727806
9222500000 -37.255932 -166.98099 -0.76560211 171.85764 -0.77302587 171.83479 -31.988749 -28.276993
9250000000 -37.42625 -166.28494 -0.76796263 171.30226 -0.77273548 171.28294 -31.516714 -23.387751
9277500000 -37.079765 -168.48309 -0.77038252 170.7489 -0.77240795 170.71634 -32.510773 -24.552315
9305000000 -37.555683 -165.21648 -0.76828891 170.1889 -0.77553064 170.1748 -31.857302 -30.052973
9332500000 -37.935585 -164.47382 -0.77097607 169.65135 -0.77656156 169.61099 -31.147152 -27.024622
9360000000 -37.505383 -167.12617 -0.77274197 169.08615 -0.77571815 169.05367 -31.662031 -26.431099
9387500000 -37.501457 -164.73445 -0.77176386 168.53223 -0.77718073 168.49899 -31.438574 -30.370543
9415000000 -38.140854 -162.67226 -0.77111083 167.97069 -0.77915478 167.94621 -30.741282 -29.881115
9442500000 -37.881546 -163.88258 -0.77524 167.41605 -0.7787503 167.39615 -31.00749 -28.766762
9470000000 -37.734142 -163.81024 -0.77329278 166.86734 -0.77929598 166.82761 -31.066427 -31.638372
9497500000 -38.413628 -160.93935 -0.77649873 166.29616 -0.78006113 166.27567 -30.388926 -31.927338
9525000000 -38.249325 -161.37999 -0.77579308 165.75806 -0.7792477 165.72495 -30.42141 -31.453278
9552500000 -37.90527 -162.69167 -0.77763861 165.19711 -0.78030711 165.16443 -30.643425 -32.637684
9580000000 -38.394897 -159.48442 -0.7764836 164.64192 -0.78238827 164.6088 -30.19043 -33.854362
9607500000 -38.433311 -159.43362 -0.77964538 164.0919 -0.78473562 164.05275 -29.906225 -33.688587
9635000000 -37.767551 -160.10057 -0.7790755 163.53253 -0.78495955 163.504 -30.070621 -34.79966
9662500000 -38.221535 -158.4157 -0.77803677 162.97289 -0.7840187 162.94667 -29.873711 -35.564823
9690000000 -38.494392 -156.03365 -0.78034395 162.4201 -0.78512144 162.40807 -29.621475 -36.220974
9717500000 -38.140244 -156.23067 -0.77949888 161.86731 -0.78649223 161.8381 -29.593056 -36.783985
9745000000 -38.074753 -156.26085 -0.78254205 161.3179 -0.7859118 161.27681 -29.516029 -36.736275
9772500000 -38.61787 -155.05505 -0.78169495 160.7462 -0.78735232 160.72641 -29.226776 -38.107277
9800000000 -38.078739 -153.36565 -0.78360879 160.19447 -0.78943717 160.17032 -29.111204 -39.009323
9827500000 -37.938259 -154.21942 -0.78366429 159.64119 -0.78853822 159.60838 -29.227171 -38.882835
9855000000 -38.70953 -151.02113 -0.78314185 159.07614 -0.78986472 159.05496 -28.947035 -39.510185
9882500000 -38.210964 -150.93544 -0.7849744 158.5287 -0.79062736 158.50938 -28.707466 -41.197647
9910000000 -37.802212 -151.32098 -0.7859875 157.97961 -0.78928477 157.9437 -28.802347 -40.864067
9937500000 -38.231701 -150.90594 -0.78728187 157.41896 -0.7923615 157.39645 -28.638203 -41.543934
9965000000 -38.354939 -147.979 -0.78619033 156.86514 -0.79226518 156.82744 -28.372372 -42.895458
9992500000 -37.849499 -149.08324 -0.78629708 156.31598 -0.79129976 156.27852 -28.419542 -43.493542
10020000000 -38.192448 -149.09258 -0.78995073 155.76315 -0.79267126 155.71098 -28.422171 -42.944546
10047500000 -38.283165 -145.31085 -0.78739423 155.1964 -0.7948252 155.16858 -28.128584 -45.212139
10075000000 -37.413319 -146.15477 -0.78844041 154.63858 -0.79378706 154.61052 -28.026724 -45.419743
10102500000 -37.852085 -147.10767 -0.791237 154.09935 -0.79589713 154.05899 -28.053246 -44.647636
10130000000 -38.168503 -144.78423 -0.78914726 153.53819 -0.79470021 153.50117 -27.814875 -46.239124
10157500000 -37.497929 -143.48315 -0.79078978 152.98489 -0.79641515 152.93344 -27.722584 -47.553658
10185000000 -37.376019 -143.51529 -0.79236394 152.41637 -0.7967236 152.38759 -27.814199 -46.321297
10212500000 -37.883507 -143.87924 -0.79111803 151.86542 -0.7948342 151.8269 -27.580065 -47.67717
10240000000 -37.226898 -141.27904 -0.7909677 151.30862 -0.79585606 151.26952 -27.287773 -49.474457
10267500000 -37.046947 -143.26637 -0.79108173 150.74918 -0.79690993 150.71347 -27.474087 -48.526386
10295000000 -37.79446 -142.14201 -0.79338932 150.18523 -0.79767597 150.14943 -27.331432 -49.534534
10322500000 -37.395531 -140.16579 -0.79339117 149.62932 -0.79690897 149.58836 -27.034109 -51.287052
10350000000 -36.690327 -140.11868 -0.79209679 149.07709 -0.79820138 149.0359 -27.172625 -50.857662
10377500000 -37.437733 -141.22263 -0.79343402 148.52557 -0.79877722 148.49245 -27.115768 -51.214165
10405000000 -37.044132 -139.16098 -0.79369134 147.95013 -0.799721 147.91724 -26.787081 -53.102428
10432500000 -36.346073 -140.21277 -0.79771703 147.39861 -0.80033064 147.38893 -26.752525 -52.861313
10460000000 -36.732128 -138.87537 -0.79712391 146.84399 -0.80131614 146.80901 -26.868338 -52.862507
10487500000 -36.812592 -139.4319 -0.79737085 146.27806 -0.80204189 146.23668 -26.49493 -54.909111
10515000000 -35.999535 -138.75751 -0.79842877 145.72092 -0.80258274 145.69933 -26.435909 -55.512794
10542500000 -36.176659 -138.0537 -0.79725671 145.17937 -0.80404848 145.14169 -26.495998 -55.070206
10570000000 -36.516327 -138.0603 -0.79923087 144.62038 -0.80500525 144.57904 -26.307894 -56.135647
10597500000 -35.83168 -136.8335 -0.79706573 144.0545 -0.80454755 144.02998 -26.171204 -57.320019
10625000000 -35.617359 -136.14191 -0.80131179 143.49649 -0.80543804 143.46942 -26.292334 -56.997513
10652500000 -36.091236 -138.57254 -0.79992795 142.94763 -0.80418307 142.90941 -26.161169 -57.883114
10680000000 -35.890995 -138.11478 -0.79996902 142.36891 -0.80742496 142.33432 -25.88488 -59.146572
10707500000 -35.26656 -135.83272 -0.80227572 141.8273 -0.80552214 141.77975 -25.986441 -59.184193
10735000000 -35.691238 -136.99692 -0.80203009 141.27107 -0.80710047 141.23387 -25.977556 -59.71743
10762500000 -35.699986 -137.70395 -0.80344605 140.70447 -0.80774516 140.67102 -25.696333 -61.282215
10790000000 -34.832737 -134.60011 -0.80441856 140.15599 -0.80731678 140.10693 -25.693386 -61.913105
10817500000 -35.072792 -136.44247 -0.80564088 139.59892 -0.81341755 139.55449 -25.786554 -61.128609
10845000000 -35.328316 -138.51231 -0.80890822 139.0468 -0.81338316 138.99829 -25.4793 -62.633251
10872500000 -34.830769 -135.20143 -0.80777979 138.4969 -0.81162345 138.45204 -25.417719 -63.63102
10900000000 -34.519661 -135.40302 -0.80878943 137.93549 -0.81225073 137.88596 -25.544043 -63.298027
10927500000 -34.787556 -139.25543 -0.81041318 137.37173 -0.81677538 137.34033 -25.33061 -64.731331
10955000000 -34.479771 -136.65112 -0.81201667 136.82462 -0.81658262 136.76996 -25.125212 -65.883301
10982500000 -34.115482 -135.60678 -0.81124032 136.25589 -0.81632459 136.24467 -25.292345 -65.641273
11010000000 -34.276554 -139.43465 -0.81417495 135.69852 -0.81636518 135.67754 -25.175045 -65.989922
11037500000 -34.194145 -138.02103 -0.8144207 135.14244 -0.8193655 135.10426 -24.962467 -67.946053
11065000000 -33.717724 -134.96577 -0.81225699 134.60205 -0.81968504 134.55157 -25.007395 -67.975067
11092500000 -33.890938 -138.78987 -0.8138243 134.04272 -0.82058984 134.01723 -24.96497 -68.07785
11120000000 -33.9487 -139.61407 -0.81581759 133.4812 -0.82283813 133.45212 -24.811398 -69.623329
11147500000 -33.477409 -136.34839 -0.81769216 132.92148 -0.82057363 132.88412 -24.771662 -70.592117
11175000000 -33.316315 -138.16557 -0.81777275 132.36179 -0.82382905 132.32547 -24.769686 -70.030113
11202500000 -33.527496 -139.98856 -0.81804091 131.81534 -0.82351583 131.77679 -24.576859 -71.722649
11230000000 -33.357384 -136.07634 -0.81931424 131.25349 -0.82256907 131.22012 -24.544437 -72.668053
11257500000 -33.11084 -137.51103 -0.81855154 130.69455 -0.82443774 130.66678 -24.595167 -72.155945
11285000000 -33.079079 -141.14395 -0.81925547 130.14328 -0.8251633 130.11107 -24.447792 -73.289276
11312500000 -32.941826 -138.63794 -0.82205415 129.58127 -0.82676816 129.55939 -24.344995 -74.975914
11340000000 -32.716244 -137.29613 -0.82151681 129.01944 -0.82707566 128.98271 -24.371653 -74.14267
11367500000 -32.716469 -141.2316 -0.82442462 128.48505 -0.82893342 128.44618 -24.317303 -74.907196
11395000000 -32.771164 -139.20453 -0.82374078 127.93107 -0.83018339 127.87714 -24.199196 -76.504524
11422500000 -32.333908 -137.15712 -0.82383186 127.37631 -0.83096188 127.3388 -24.24754 -76.666481
11450000000 -32.253899 -140.51883 -0.824516 126.81426 -0.83052903 126.77913 -24.227226 -76.667809
11477500000 -32.330776 -141.36411 -0.82561719 126.26661 -0.83334035 126.22208 -24.040976 -78.8451
11505000000 -32.14082 -138.71806 -0.82608992 125.70398 -0.83183962 125.66142 -24.016672 -79.628586
11532500000 -31.899424 -141.14424 -0.82603985 125.14272 -0.83321303 125.10631 -24.004919 -79.20507
11560000000 -31.943289 -142.89351 -0.82798642 124.59509 -0.83463484 124.54929 -23.857941 -80.42131
11587500000 -31.902287 -140.06285 -0.82865244 124.0383 -0.83506274 123.99033 -23.849144 -81.428246
11615000000 -31.542681 -141.44992 -0.83055758 123.47688 -0.8362667 123.44353 -23.85391 -81.347298
11642500000 -31.543983 -143.61543 -0.83022755 122.90791 -0.83651149 122.89503 -23.752533 -82.183914
11670000000 -31.576454 -141.92841 -0.8300373 122.36419 -0.83677453 122.32675 -23.674072 -83.650711
11697500000 -31.390947 -142.12082 -0.83086193 121.81001 -0.83715653 121.78023 -23.677488 -83.584831
11725000000 -31.184118 -144.78233 -0.83408993 121.25452 -0.83852655 121.2299 -23.597893 -84.194305
11752500000 -31.28084 -144.67674 -0.83451813 120.70051 -0.84165847 120.67111 -23.512106 -85.691566
11780000000 -31.056995 -143.3266 -0.83489549 120.15573 -0.84211254 120.09963 -23.567032 -85.921951
11807500000 -30.807762 -145.63141 -0.8381573 119.59286 -0.84303874 119.57376 -23.486334 -86.301315
11835000000 -30.88402 -146.15005 -0.83622938 119.05124 -0.8452521 119.01292 -23.38357 -87.74791
11862500000 -30.732401 -145.2746 -0.83586192 118.50191 -0.84274834 118.45387 -23.394705 -88.548622
11890000000 -30.483761 -145.71165 -0.83596641 117.93554 -0.84477133 117.90889 -23.375872 -88.518471
11917500000 -30.484211 -147.8833 -0.83749425 117.38373 -0.84483826 117.36363 -23.252003 -89.746353
11945000000 -30.562641 -146.91188 -0.8392309 116.82839 -0.84458297 116.80756 -23.248339 -90.451691
11972500000 -30.167233 -146.62218 -0.84009868 116.2828 -0.84746063 116.25083 -23.2918 -90.584709
12000000000 -30.16637 -148.00479 -0.8416937 115.72195 -0.84712368 115.69727 -23.140663 -91.741898
12027500000 -30.20859 -148.12053 -0.84124845 115.1685 -0.84720987 115.13669 -23.127756 -92.983536
12055000000 -29.908485 -146.88863 -0.84369481 114.62447 -0.8481192 114.5803 -23.231956 -93.067741
12082500000 -29.783897 -148.59717 -0.84039205 114.07216 -0.84939575 114.02216 -23.091934 -93.983932
12110000000 -29.910742 -149.45375 -0.84340745 113.51488 -0.85071868 113.48375 -23.022911 -95.009697
12137500000 -29.684944 -148.5338 -0.84235734 112.95992 -0.85024571 112.92648 -23.124325 -95.79364
12165000000 -29.453394 -149.55206 -0.84348762 112.40078 -0.85018182 112.37073 -23.003908 -96.322952
12192500000 -29.580864 -150.97989 -0.84428394 111.8586 -0.8524344 111.82535 -22.852154 -97.177078
12220000000 -29.468794 -150.91222 -0.84363347 111.30138 -0.85133082 111.26172 -22.999355 -97.843819
12247500000 -29.187567 -151.04538 -0.84809369 110.7439 -0.85282534 110.70008 -22.937517 -98.26281
12275000000 -29.258446 -153.11063 -0.84719253 110.19437 -0.85356951 110.1607 -22.737007 -99.320183
12302500000 -29.285812 -153.19536 -0.84643722 109.63338 -0.85147065 109.60271 -22.799168 -99.806229
12330000000 -28.97286 -152.84523 -0.8455292 109.08837 -0.85322827 109.03849 -22.836975 -100.28496
12357500000 -28.912117 -154.68256 -0.84736121 108.53654 -0.85274661 108.47258 -22.585329 -101.32118
12385000000 -28.923037 -155.21498 -0.84759402 107.97431 -0.85426182 107.93745 -22.636131 -101.96596
12412500000 -28.765574 -153.92233 -0.84873414 107.42482 -0.85448462 107.38142 -22.786652 -102.67395
12440000000 -28.634024 -155.6792 -0.84852833 106.86575 -0.85516477 106.83316 -22.624331 -103.71552
12467500000 -28.635361 -156.77382 -0.8485623 106.29718 -0.85410613 106.28108 -22.51132 -104.6308
12495000000 -28.506205 -155.78233 -0.84964603 105.76395 -0.85600704 105.71491 -22.724522 -105.03681
12522500000 -28.284346 -156.47177 -0.84974045 105.2096 -0.85552531 105.15775 -22.57736 -106.0445
12550000000 -28.311916 -158.32036 -0.85106909 104.65897 -0.85488421 104.61964 -22.432648 -106.69554
12577500000 -28.230328 -157.33888 -0.84981 104.09737 -0.85641718 104.05655 -22.611166 -107.42973
12605000000 -28.078278 -157.48433 -0.85272425 103.54153 -0.85688162 103.50108 -22.58321 -108.1177
12632500000 -28.019531 -159.43799 -0.85160446 102.99562 -0.85675675 102.95383 -22.366865 -109.15028
12660000000 -28.034241 -159.34779 -0.85170621 102.43443 -0.85807025 102.40157 -22.478399 -109.84427
12687500000 -27.917858 -159.34521 -0.85038459 101.86416 -0.85753816 101.83578 -22.54649 -110.43451
12715000000 -27.797674 -160.97748 -0.85170776 101.31883 -0.85771543 101.30489 -22.354212 -111.29031
12742500000 -27.742083 -161.88213 -0.85024542 100.78482 -0.85889256 100.73603 -22.364405 -112.10403
12770000000 -27.702122 -161.27269 -0.85386413 100.21496 -0.85953462 100.18176 -22.494919 -112.68727
12797500000 -27.534664 -162.45465 -0.85157645 99.680817 -0.85947782 99.631912 -22.322901 -113.2255
12825000000 -27.574606 -164.31197 -0.8529501 99.106178 -0.8568936 99.072884 -22.235422 -114.48951
12852500000 -27.531672 -163.55762 -0.85379732 98.553871 -0.8600114 98.526993 -22.38336 -114.82146
12880000000 -27.338324 -164.58295 -0.85346681 98.000916 -0.85925221 97.965691 -22.290375 -115.25076
12907500000 -27.274189 -166.57127 -0.85457253 97.452682 -0.85978198 97.406075 -22.218752 -116.46812
12935000000 -27.314003 -166.4324 -0.8556757 96.899612 -0.86071193 96.862953 -22.288401 -117.50438
12962500000 -27.202736 -166.20471 -0.85549444 96.335846 -0.85957974 96.317398 -22.28548 -117.49749
12990000000 -27.06419 -168.47107 -0.85507429 95.789406 -0.85956299 95.760056 -22.158688 -118.4741
13017500000 -27.137653 -168.6281 -0.85567099 95.243286 -0.85991669 95.194038 -22.247925 -119.78839
13045000000 -26.994181 -167.99126 -0.85470396 94.683784 -0.85903645 94.632919 -22.302496 -119.87049
13072500000 -26.834539 -169.6521 -0.85532707 94.119408 -0.85972804 94.084961 -22.13763 -120.41667
13100000000 -26.935049 -171.23007 -0.85523695 93.556953 -0.85972106 93.529877 -22.172415 -122.07921
13127500000 -26.969604 -170.464 -0.85344851 93.010147 -0.85883075 92.980278 -22.294374 -122.34996
13155000000 -26.710571 -171.25626 -0.85466611 92.462021 -0.8597703 92.430412 -22.168903 -122.59867
13182500000 -26.703211 -172.90263 -0.85344315 91.893181 -0.86180878 91.862877 -22.133192 -124.27143
13210000000 -26.768744 -172.50394 -0.85393912 91.335999 -0.86087072 91.30545 -22.233871 -125.0275
13237500000 -26.600422 -172.91457 -0.85268772 90.781403 -0.85806835 90.749542 -22.191191 -124.62815
13265000000 -26.495266 -174.80356 -0.8545782 90.226158 -0.86119235 90.204315 -22.086622 -126.19936
13292500000 -26.67012 -175.32159 -0.85508657 89.669739 -0.86004704 89.638786 -22.173729 -127.27985
13320000000 -26.489605 -175.01982 -0.85442281 89.114021 -0.86073184 89.094292 -22.185762 -126.96423
13347500000 -26.340927 -176.89243 -0.85526401 88.559166 -0.85922134 88.530991 -22.108702 -128.01952
13375000000 -26.505653 -177.87796 -0.85538536 88.009102 -0.86036134 87.975861 -22.128435 -129.51456
13402500000 -26.466438 -177.17471 -0.85518396 87.449341 -0.86092371 87.418777 -22.163908 -129.22917
13430000000 -26.234684 -178.2119 -0.85421199 86.883476 -0.85878026 86.850838 -22.103283 -129.99722
13457500000 -26.351984 179.87614 -0.8550812 86.334259 -0.86058605 86.30085 -22.068537 -131.66614
13485000000 -26.337732 -179.56424 -0.85394007 85.774849 -0.85906327 85.739769 -22.141562 -131.35902
13512500000 -26.178862 -179.82693 -0.85466832 85.216446 -0.85886735 85.194733 -22.129099 -131.82587
13540000000 -26.16258 177.90973 -0.85428703 84.654289 -0.85985518 84.627846 -22.051327 -133.60019
13567500000 -26.289782 177.56494 -0.85320592 84.104004 -0.8609938 84.066177 -22.075024 -134.00914
13595000000 -26.108982 178.02032 -0.85448742 83.529602 -0.85767537 83.49398 -22.161043 -133.4523
13622500000 -25.95838 175.98784 -0.85411304 82.979431 -0.85895538 82.94223 -22.073278 -135.61041
13650000000 -26.075783 175.33449 -0.85353047 82.428741 -0.86035627 82.390114 -22.093399 -136.64709
13677500000 -26.043131 175.51276 -0.85348225 81.858253 -0.85899323 81.829872 -22.161758 -136.07048
13705000000 -25.850109 174.63097 -0.85678166 81.307076 -0.85913485 81.264046 -22.096914 -137.49489
13732500000 -25.94689 172.84767 -0.85571384 80.749542 -0.86218607 80.71537 -22.068718 -138.95157
13760000000 -25.986101 173.22745 -0.85430342 80.182167 -0.8584885 80.15654 -22.17359 -138.41551
13787500000 -25.769112 173.06398 -0.85615867 79.626991 -0.86000222 79.582642 -22.144491 -139.55876
13815000000 -25.758299 170.73495 -0.85651809 79.064545 -0.86174566 79.032753 -22.067736 -141.07022
13842500000 -25.90089 171.06348 -0.85546857 78.520195 -0.86120337 78.477989 -22.146515 -140.88841
13870000000 -25.765516 171.14313 -0.85533369 77.95639 -0.86087227 77.902573 -22.152758 -141.47237
13897500000 -25.638428 168.85788 -0.85612273 77.386055 -0.86531579 77.35334 -22.083586 -143.21967
13925000000 -25.752165 168.19518 -0.85608929 76.833527 -0.86149311 76.787056 -22.113701 -143.56882
13952500000 -25.779289 168.91353 -0.85578132 76.260239 -0.86118162 76.218048 -22.190321 -143.47807
13980000000 -25.491529 167.57423 -0.85819197 75.716324 -0.86392248 75.676064 -22.051451 -145.35959
14007500000 -25.57262 166.23357 -0.85850614 75.167923 -0.86392182 75.103943 -22.093468 -145.55872
14035000000 -25.697847 166.95175 -0.85706735 74.585442 -0.86126679 74.551895 -22.249111 -145.75511
14062500000 -25.472269 166.05334 -0.85942167 74.022415 -0.86499298 73.995834 -22.123249 -147.24683
14090000000 -25.450405 164.24992 -0.86021525 73.474205 -0.86545265 73.431198 -22.109196 -148.25523
14117500000 -25.586468 164.71814 -0.85817498 72.903793 -0.86312729 72.873657 -22.236355 -148.13411
14145000000 -25.452137 164.4256 -0.86298263 72.344887 -0.86724281 72.315277 -22.17634 -149.34711
14172500000 -25.306538 162.65799 -0.86165255 71.795303 -0.86797804 71.763176 -22.088261 -150.46985
14200000000 -25.458851 162.18407 -0.86316234 71.235466 -0.86585957 71.192688 -22.221142 -150.48283
14227500000 -25.404543 162.36043 -0.86466223 70.666626 -0.8680315 70.624275 -22.18849 -151.2787
14255000000 -25.151129 160.97144 -0.86363697 70.105614 -0.87138534 70.083534 -22.122122 -152.80437
14282500000 -25.264494 160.0713 -0.86571014 69.558029 -0.8702181 69.51004 -22.207842 -152.91827
14310000000 -25.32276 160.2645 -0.86825943 68.995934 -0.87241971 68.956787 -22.230297 -153.88309
14337500000 -25.084892 159.51071 -0.87074667 68.439621 -0.87466806 68.399529 -22.082443 -154.83026
14365000000 -25.037037 157.95758 -0.86966556 67.879349 -0.87571144 67.838387 -22.197443 -155.43405
14392500000 -25.187496 158.3878 -0.87002641 67.33046 -0.87637717 67.283669 -22.276424 -155.98232
14420000000 -25.06653 158.04108 -0.87445241 66.777313 -0.87891626 66.716347 -22.127262 -157.04341
14447500000 -24.877714 156.56334 -0.87434703 66.214417 -0.88056582 66.178711 -22.203066 -157.73132
14475000000 -25.077642 156.21442 -0.87429255 65.673843 -0.87789083 65.623329 -22.266754 -158.63551
14502500000 -24.928213 156.14417 -0.87569624 65.12114 -0.88166928 65.078773 -22.131866 -159.70351
14530000000 -24.717304 154.85242 -0.87565285 64.575623 -0.8814289 64.530327 -22.146214 -160.65694
14557500000 -24.819769 154.0627 -0.87602496 64.01136 -0.87902653 63.974812 -22.280756 -161.36536
14585000000 -24.907782 154.17545 -0.87560314 63.45536 -0.87935138 63.428894 -22.190308 -162.11714
14612500000 -24.703836 153.22067 -0.87704045 62.894112 -0.88141531 62.85429 -22.203964 -163.19254
14640000000 -24.675745 151.75713 -0.8756066 62.351276 -0.8809945 62.307064 -22.356127 -164.00557
14667500000 -24.824738 151.79477 -0.87513095 61.773762 -0.88046026 61.737358 -22.264206 -164.74756
14695000000 -24.652828 151.59111 -0.87622321 61.244823 -0.88084483 61.176037 -22.193165 -165.48422
14722500000 -24.578266 149.86754 -0.87602687 60.666615 -0.8795495 60.614124 -22.38953 -166.62976
14750000000 -24.682693 149.44299 -0.87622541 60.116375 -0.88049608 60.059978 -22.306108 -167.18997
14777500000 -24.646494 149.38828 -0.8758688 59.55975 -0.88265854 59.502766 -22.225254 -167.76694
14805000000 -24.417944 148.1201 -0.8792221 58.995979 -0.88404107 58.946075 -22.448353 -169.10974
14832500000 -24.627419 147.1593 -0.87768614 58.431587 -0.88489473 58.381657 -22.396158 -169.55804
14860000000 -24.643044 147.32179 -0.87699991 57.871086 -0.88476872 57.832939 -22.306292 -169.97957
14887500000 -24.403543 146.52234 -0.87728816 57.297623 -0.88351947 57.269428 -22.448868 -171.53719
14915000000 -24.411634 145.52113 -0.87894225 56.747784 -0.88554597 56.698345 -22.485069 -172.43765
14942500000 -24.569155 145.22775 -0.88016415 56.187 -0.8858996 56.14397 -22.318619 -172.45258
14970000000 -24.362989 144.96661 -0.88158208 55.622498 -0.88664401 55.585697 -22.464401 -173.79779
14997500000 -24.25202 143.86932 -0.88480455 55.078892 -0.88827431 55.0228 -22.568329 -175.13202
15025000000 -24.4737 143.35124 -0.88247865 54.509186 -0.88928443 54.457199 -22.437307 -175.05544
15052500000 -24.366526 143.29633 -0.8844828 53.957588 -0.89085025 53.908226 -22.463148 -175.9812
15080000000 -24.166897 142.47139 -0.88653862 53.386379 -0.89170712 53.342091 -22.663658 -177.57213
15107500000 -24.424545 141.71034 -0.88640529 52.83255 -0.89374763 52.782574 -22.505938 -177.4601
15135000000 -24.370895 141.15685 -0.88705361 52.291683 -0.89209461 52.22879 -22.505527 -177.86412
15162500000 -24.097267 141.27132 -0.88804853 51.702423 -0.8965922 51.663731 -22.67907 179.93169
15190000000 -24.274176 140.11977 -0.88819748 51.145874 -0.89350849 51.097393 -22.619865 179.81728
15217500000 -24.393309 139.67358 -0.89235115 50.602005 -0.89823514 50.542114 -22.544386 179.69386
15245000000 -24.141672 139.52644 -0.89317459 50.040684 -0.89840227 49.973717 -22.675056 177.57767
15272500000 -24.194229 138.66061 -0.89337301 49.474792 -0.90070105 49.409523 -22.690918 177.18031
15300000000 -24.368822 137.41693 -0.89765644 48.91412 -0.90434229 48.867836 -22.539165 177.77956
15327500000 -24.087004 138.06065 -0.89894062 48.35532 -0.90430051 48.316734 -22.70018 175.55757
15355000000 -24.055216 137.3446 -0.89828384 47.796898 -0.90536219 47.755005 -22.772675 174.30113
15382500000 -24.312126 135.91399 -0.89967746 47.246365 -0.90762639 47.192924 -22.604317 175.18062
15410000000 -24.093641 135.90416 -0.90225059 46.695099 -0.90665442 46.647388 -22.692427 173.50627
15437500000 -23.91787 135.97362 -0.90492219 46.141956 -0.90857178 46.09211 -22.812557 171.40338
15465000000 -24.139629 134.45135 -0.90429986 45.578609 -0.91141009 45.531796 -22.666405 172.38049
15492500000 -24.077375 133.77141 -0.90676922 45.03154 -0.91072172 44.985428 -22.702932 171.44034
15520000000 -23.890553 134.33566 -0.90772623 44.466167 -0.91208035 44.426991 -22.830214 168.85262
15547500000 -24.04179 132.76567 -0.90806824 43.917252 -0.91194785 43.866142 -22.806704 169.3056
15575000000 -24.078716 132.22906 -0.90888417 43.373005 -0.91204363 43.324097 -22.735928 169.17195
15602500000 -23.845398 132.72186 -0.90955722 42.806519 -0.91594917 42.744995 -22.868006 166.53235
15630000000 -23.899183 131.50587 -0.91033483 42.24408 -0.91431224 42.208946 -22.848392 166.37334
15657500000 -24.023266 129.90257 -0.91066903 41.70575 -0.9190802 41.652458 -22.778503 166.72829
15685000000 -23.814264 130.80077 -0.9114548 41.142593 -0.91872323 41.086891 -22.859093 164.41141
15712500000 -23.793394 130.14134 -0.91297275 40.580402 -0.92027408 40.528053 -22.950403 163.27441
15740000000 -23.966452 128.26422 -0.91521436 40.028599 -0.92221284 39.976849 -22.883389 164.1852
15767500000 -23.862099 128.65875 -0.91731936 39.478882 -0.92492878 39.430054 -22.898237 162.33051
15795000000 -23.72991 128.75653 -0.91850895 38.942883 -0.92337203 38.876019 -23.01082 160.6357
15822500000 -23.858587 126.37241 -0.91649383 38.365829 -0.9254483 38.318764 -22.99209 161.52467
15850000000 -23.828259 126.61741 -0.91857511 37.811722 -0.92557931 37.764721 -22.944056 160.24147
15877500000 -23.727699 127.06293 -0.92278391 37.259796 -0.9270522 37.221706 -23.083666 158.04454
15905000000 -23.750153 125.09074 -0.92176276 36.690132 -0.92820889 36.648361 -23.077097 158.13707
15932500000 -23.803352 124.52286 -0.92340153 36.159817 -0.93035901 36.116516 -23.008036 157.92525
15960000000 -23.650826 125.38885 -0.9269042 35.584812 -0.93089622 35.537254 -23.066835 155.56316
15987500000 -23.696501 123.63538 -0.92740345 35.031876 -0.93084198 34.983715 -23.158846 155.17375
16015000000 -23.761175 122.29527 -0.92708558 34.481678 -0.93149221 34.441582 -23.073198 155.23715
16042500000 -23.65513 123.38382 -0.92888528 33.935436 -0.93408746 33.8797 -23.084797 153.39027
16070000000 -23.592726 122.39211 -0.93070602 33.368748 -0.93634385 33.326279 -23.237528 152.49028
16097500000 -23.638874 120.63954 -0.9317767 32.829018 -0.93622893 32.771206 -23.193933 152.67377
16125000000 -23.647367 121.3689 -0.93183899 32.264236 -0.93839645 32.229881 -23.083979 150.99709
16152500000 -23.536287 120.9109 -0.93509126 31.75094 -0.93979883 31.684284 -23.236973 149.46468
16180000000 -23.516579 119.0589 -0.93576711 31.170357 -0.9414894 31.11548 -23.303188 149.57809
16207500000 -23.599247 119.39156 -0.9358288 30.627872 -0.94126016 30.577456 -23.159733 148.37775
16235000000 -23.475889 119.40202 -0.93639302 30.083832 -0.94290078 30.032452 -23.306839 146.82738
16262500000 -23.445518 117.68114 -0.93781912 29.528763 -0.94381911 29.488495 -23.375942 146.4411
16290000000 -23.512291 116.65496 -0.93609339 28.97049 -0.94303393 28.936834 -23.23979 145.76982
16317500000 -23.484512 117.11472 -0.94175112 28.422901 -0.94571531 28.392313 -23.284081 143.88708
16345000000 -23.307255 116.02971 -0.93986952 27.879698 -0.94373035 27.819174 -23.446877 143.00253
16372500000 -23.439333 114.72453 -0.94095439 27.315182 -0.94564962 27.271786 -23.337523 142.66766
16400000000 -23.458408 115.05821 -0.94440949 26.764814 -0.94748574 26.711557 -23.300745 141.27621
16427500000 -23.309507 114.84862 -0.94249523 26.214842 -0.94643533 26.167219 -23.519798 140.0408
16455000000 -23.373255 113.23684 -0.94270945 25.655272 -0.9477253 25.624979 -23.469637 139.52127
16482500000 -23.46332 112.65041 -0.9434489 25.096581 -0.94971079 25.063147 -23.390882 138.32637
16510000000 -23.272509 112.95837 -0.94562167 24.579685 -0.95072788 24.504908 -23.587749 137.07355
16537500000 -23.250458 111.42024 -0.94557369 24.015301 -0.95051593 23.970436 -23.551838 136.5148
16565000000 -23.427237 110.30497 -0.94569343 23.455956 -0.95238376 23.42728 -23.436546 135.6671
16592500000 -23.296444 111.13063 -0.94847274 22.894464 -0.95223129 22.859842 -23.580473 134.10719
16620000000 -23.207575 110.19713 -0.94543916 22.368029 -0.95396858 22.314415 -23.655415 133.20024
16647500000 -23.343473 108.56126 -0.94880891 21.81628 -0.95315224 21.764256 -23.530365 132.49789
16675000000 -23.314432 109.1777 -0.95037866 21.258038 -0.95743215 21.201992 -23.666779 131.16989
16702500000 -23.197445 109.18445 -0.9488073 20.697102 -0.95599985 20.652567 -23.773804 129.85979
16730000000 -23.2691 106.59508 -0.95283246 20.162872 -0.95327216 20.099333 -23.58481 129.24149
16757500000 -23.300154 106.94727 -0.95079362 19.613007 -0.95768446 19.545694 -23.676903 128.20711
16785000000 -23.149086 107.59136 -0.94960642 19.060486 -0.95573986 19.010441 -23.861004 126.65308
16812500000 -23.222614 105.28696 -0.94906402 18.518831 -0.95816052 18.456392 -23.670252 126.43354
16840000000 -23.310617 104.4968 -0.94983739 17.944145 -0.96070915 17.905893 -23.690706 125.76138
16867500000 -23.175577 105.99426 -0.95401794 17.410978 -0.95830899 17.351292 -23.931732 123.682
16895000000 -23.163937 103.78369 -0.95350754 16.864208 -0.95904112 16.807318 -23.715782 123.08681
16922500000 -23.19768 102.51465 -0.95122284 16.305796 -0.95780003 16.238291 -23.690247 122.54325
16950000000 -23.217787 104.14073 -0.95543182 15.751942 -0.96135479 15.700227 -23.992098 120.95564
16977500000 -23.133627 102.8448 -0.95368969 15.192414 -0.96042627 15.141644 -23.861223 119.78417
17005000000 -23.14879 100.81471 -0.95405048 14.650452 -0.96142161 14.584821 -23.723139 119.18411
17032500000 -23.257433 102.0131 -0.95587891 14.084901 -0.96240467 14.041343 -23.964195 118.03072
17060000000 -23.149521 102.04493 -0.95821345 13.532587 -0.96405458 13.48858 -23.926346 116.6543
17087500000 -23.104158 99.152672 -0.95381963 13.020632 -0.96064776 12.931411 -23.709154 116.44809
17115000000 -23.235319 99.711716 -0.95854563 12.437996 -0.96388847 12.384546 -23.956509 114.90294
17142500000 -23.179138 100.52251 -0.95575762 11.888677 -0.96512938 11.84553 -24.003359 113.51356
17170000000 -22.982796 97.895164 -0.95790106 11.361968 -0.96402806 11.284704 -23.779564 113.55377
17197500000 -23.155165 97.479675 -0.95835936 10.777087 -0.96356851 10.743128 -23.879032 111.84583
17225000000 -23.278456 99.075203 -0.95855236 10.234642 -0.96762383 10.16927 -24.055128 110.29076
17252500000 -23.013956 97.099075 -0.960361 9.7041674 -0.96781957 9.6413536 -23.829113 109.88775
17280000000 -23.052732 95.623375 -0.9601447 9.1423426 -0.96391499 9.0894413 -23.827753 108.88543
17307500000 -23.266779 96.889603 -0.95977044 8.5702562 -0.96535468 8.527092 -24.088011 106.76905
17335000000 -23.073353 95.854797 -0.96417028 8.0354643 -0.96849889 7.9683447 -23.977951 106.2641
17362500000 -22.95937 94.012291 -0.95786583 7.4979668 -0.9681524 7.4374881 -23.754944 105.65514
17390000000 -23.236336 94.698143 -0.96332484 6.9418683 -0.96471202 6.8996515 -24.083708 103.51028
17417500000 -23.156919 94.558685 -0.96435517 6.3752089 -0.96745175 6.3274159 -24.019564 102.48637
17445000000 -22.86488 92.751678 -0.9633103 5.8309703 -0.9685756 5.7977214 -23.810772 102.8699
17472500000 -23.174053 92.296211 -0.96363443 5.261126 -0.96842676 5.2276211 -24.045242 100.31372
17500000000 -23.189224 93.012764 -0.96509963 4.7125697 -0.96987122 4.6755252 -24.04504 99.354378
17527500000 -22.875975 91.976021 -0.96596158 4.1908216 -0.97363925 4.129683 -23.81999 99.268036
17555000000 -23.102047 90.595367 -0.9637233 3.6245773 -0.97131777 3.5735888 -23.96167 97.778343
17582500000 -23.275854 90.847824 -0.96622187 3.0711768 -0.9710601 2.9957623 -24.146173 95.755615
17610000000 -22.936007 90.672432 -0.96627975 2.5364542 -0.97308153 2.4789596 -23.908676 96.416176
17637500000 -22.950169 88.648827 -0.9620021 1.9838605 -0.97081536 1.9209459 -23.875486 94.669281
17665000000 -23.23164 88.920288 -0.96477342 1.4240789 -0.97281629 1.3642269 -24.134609 92.456604
17692500000 -22.953091 89.054611 -0.9648717 0.8795315 -0.97332281 0.81325924 -24.001253 92.667358
17720000000 -22.903606 87.877304 -0.97042888 0.35560289 -0.96837759 0.26789927 -23.847094 91.662781
17747500000 -23.22616 86.89994 -0.96649319 -0.22591245 -0.97236389 -0.27941063 -24.102455 89.04126
17775000000 -23.079857 87.317146 -0.96792114 -0.78164709 -0.9741177 -0.84634644 -24.082523 89.13269
17802500000 -22.884377 86.438789 -0.96676868 -1.3274947 -0.97167552 -1.3742501 -23.839516 88.972343
17830000000 -23.157991 84.497963 -0.96809322 -1.865 -0.97255528 -1.9391258 -23.959009 85.825363
17857500000 -23.119181 84.886078 -0.96904409 -2.433238 -0.97344851 -2.4965591 -24.101269 85.057762
17885000000 -22.926832 84.818764 -0.96733564 -2.9945517 -0.97442323 -3.0315454 -23.881451 85.656212
17912500000 -23.124935 82.971519 -0.96752518 -3.5361648 -0.9749487 -3.5813539 -23.939026 83.612457
17940000000 -23.189203 82.150536 -0.96639258 -4.0892849 -0.97139317 -4.1546845 -24.048592 81.190147
17967500000 -22.9025 83.529404 -0.96527421 -4.619432 -0.97693437 -4.6883931 -23.897026 82.158058
17995000000 -23.027325 81.231026 -0.96717685 -5.1633029 -0.9741323 -5.2212868 -23.855789 81.260643
18022500000 -23.181704 80.486595 -0.96540999 -5.7342916 -0.9717558 -5.8129144 -23.994284 77.970909
18050000000 -23.025866 81.540985 -0.96712738 -6.2624063 -0.97782755 -6.3457565 -23.969473 78.764633
18077500000 -22.98704 80.266991 -0.96893668 -6.8415675 -0.97253907 -6.890285 -23.851654 78.202324
18105000000 -23.195354 78.549782 -0.96775258 -7.3822546 -0.97295749 -7.422277 -23.963413 74.808807
18132500000 -23.066107 79.508179 -0.96573102 -7.9309444 -0.9791013 -7.993567 -23.990038 74.17363
18160000000 -23.018452 78.971451 -0.97250897 -8.5032272 -0.97465062 -8.5486507 -23.758944 75.635101
18187500000 -23.157743 76.478729 -0.96530586 -9.0314474 -0.97342163 -9.102211 -23.955837 72.022934
18215000000 -23.170046 76.798111 -0.96632826 -9.6084023 -0.97409117 -9.633893 -23.996456 70.641594
18242500000 -23.00004 77.331841 -0.96606857 -10.156493 -0.97778672 -10.246104 -23.896708 72.155052
18270000000 -23.079639 74.660309 -0.96764553 -10.702118 -0.97480619 -10.751397 -23.906338 69.257141
18297500000 -23.168262 74.422165 -0.97019488 -11.258657 -0.97554266 -11.303688 -24.001823 66.749695
18325000000 -23.060728 75.307655 -0.96705621 -11.800084 -0.97514737 -11.861763 -23.91732 68.575233
18352500000 -23.014029 73.153816 -0.97114199 -12.369011 -0.97462928 -12.432514 -23.851629 66.786072
18380000000 -23.196623 72.226608 -0.96730393 -12.903673 -0.97674966 -12.97788 -23.931007 63.462849
18407500000 -23.119827 72.956711 -0.96874321 -13.447041 -0.97470248 -13.526435 -23.942345 64.362236
18435000000 -23.044359 71.905174 -0.97429556 -14.016309 -0.9802599 -14.090115 -23.868382 64.421982
18462500000 -23.212173 70.437553 -0.967498 -14.588331 -0.97630459 -14.613507 -23.941885 60.231621
18490000000 -23.183296 70.939873 -0.96918452 -15.101518 -0.97423178 -15.161313 -23.896437 59.984867
18517500000 -23.034082 70.524803 -0.97036672 -15.676276 -0.97723556 -15.743475 -23.772409 61.149891
18545000000 -23.111658 68.273849 -0.96732497 -16.209669 -0.97151685 -16.286631 -23.836441 57.602448
18572500000 -23.243498 68.410126 -0.96585035 -16.77005 -0.97447568 -16.819014 -23.848009 56.055717
18600000000 -23.073835 69.195038 -0.97433347 -17.330036 -0.97898257 -17.399273 -23.808887 57.322159
18627500000 -23.102013 66.877167 -0.96565568 -17.882545 -0.97772866 -17.934259 -23.802179 55.045452
18655000000 -23.29084 66.132767 -0.9668929 -18.423897 -0.97630751 -18.494505 -23.941673 52.513435
18682500000 -23.208778 66.964188 -0.97099727 -18.975431 -0.97718269 -19.036196 -23.840673 53.810886
18710000000 -23.100126 65.915321 -0.97081858 -19.534063 -0.97679371 -19.595947 -23.732737 52.419376
18737500000 -23.291725 64.437202 -0.96623641 -20.092867 -0.97193551 -20.159246 -23.777267 49.213131
18765000000 -23.204523 65.101807 -0.97029907 -20.645864 -0.97748715 -20.681566 -23.79207 50.017742
18792500000 -23.104015 64.594368 -0.97030425 -21.188063 -0.97648257 -21.242117 -23.790989 49.222733
18820000000 -23.237211 62.349861 -0.96734893 -21.750267 -0.97210032 -21.803774 -23.765739 45.857868
18847500000 -23.285961 63.136078 -0.97005081 -22.262484 -0.97278488 -22.352789 -23.7514 45.68396
18875000000 -23.202831 62.855621 -0.96503723 -22.827991 -0.97483563 -22.906065 -23.656961 46.345234
18902500000 -23.231012 60.973011 -0.96569449 -23.358372 -0.97542667 -23.4562 -23.707968 43.25769
18930000000 -23.340916 61.033649 -0.96959227 -23.94104 -0.97407401 -23.993313 -23.697285 42.115814
18957500000 -23.207296 61.622349 -0.96935344 -24.498869 -0.97477311 -24.544847 -23.694374 42.943363
18985000000 -23.231129 59.343266 -0.9662416 -25.064827 -0.97211361 -25.091536 -23.677317 40.572083
19012500000 -23.313772 58.480606 -0.96355367 -25.595068 -0.97538614 -25.638493 -23.692772 38.642654
19040000000 -23.262102 60.33395 -0.96972394 -26.161057 -0.97480685 -26.200514 -23.696409 39.095314
19067500000 -23.209146 58.624996 -0.96657592 -26.702888 -0.9726696 -26.739914 -23.630703 37.593178
19095000000 -23.329113 57.135738 -0.96605468 -27.251701 -0.97013468 -27.331127 -23.633368 35.015236
19122500000 -23.341557 58.489185 -0.97000521 -27.813879 -0.97253746 -27.877502 -23.656031 35.768368
19150000000 -23.369194 57.45047 -0.96348739 -28.38286 -0.97416437 -28.422016 -23.640982 34.880051
19177500000 -23.362551 54.736118 -0.96464801 -28.916897 -0.97237587 -28.992958 -23.523115 31.968657
19205000000 -23.443392 55.965076 -0.96475923 -29.447998 -0.97154731 -29.505556 -23.608715 31.625454
19232500000 -23.378052 56.172256 -0.9669317 -30.006367 -0.97545969 -30.078255 -23.54895 31.916729
19260000000 -23.318653 53.662205 -0.96374661 -30.569075 -0.96731269 -30.633549 -23.456512 28.904026
19287500000 -23.422123 54.039173 -0.96416289 -31.13233 -0.97051334 -31.170696 -23.518452 28.003904
19315000000 -23.562897 55.303493 -0.96727031 -31.663374 -0.97061431 -31.742458 -23.506056 28.496986
19342500000 -23.321592 52.81723 -0.96219563 -32.20892 -0.96783149 -32.290276 -23.398085 26.214266
19370000000 -23.490061 51.80521 -0.96200275 -32.773998 -0.97329074 -32.838642 -23.463934 24.667818
19397500000 -23.629045 53.758347 -0.96367711 -33.320053 -0.97189182 -33.388832 -23.416126 25.285599
19425000000 -23.381439 51.444794 -0.96020442 -33.854515 -0.96775872 -33.939034 -23.406765 23.686636
19452500000 -23.437227 50.813641 -0.96146554 -34.436806 -0.96709663 -34.491688 -23.417021 21.025208
19480000000 -23.771324 52.238266 -0.96673602 -34.960442 -0.97246361 -35.031189 -23.442642 21.838713
19507500000 -23.600801 50.707478 -0.96414608 -35.538292 -0.97158581 -35.600727 -23.310959 21.27166
19535000000 -23.410471 48.574768 -0.9596445 -36.093941 -0.96636188 -36.161762 -23.398705 18.232357
19562500000 -23.788471 50.087963 -0.96244568 -36.631943 -0.96679324 -36.693134 -23.411276 17.976847
19590000000 -23.776049 50.062561 -0.96104372 -37.191658 -0.96564728 -37.254265 -23.300028 18.392105
19617500000 -23.449699 47.713112 -0.95670897 -37.720634 -0.96346027 -37.824055 -23.267483 15.589354
19645000000 -23.892149 48.308376 -0.96126533 -38.324455 -0.9679389 -38.353081 -23.37302 14.474103
19672500000 -24.035872 48.297363 -0.96259302 -38.854603 -0.9689703 -38.901051 -23.205029 15.352515
19700000000 -23.533373 46.816986 -0.9531877 -39.403851 -0.96212035 -39.462971 -23.19618 13.258214
19727500000 -23.826757 46.588459 -0.9604637 -39.955101 -0.96482998 -40.051369 -23.338953 10.460732
19755000000 -24.244995 46.790195 -0.9601689 -40.535004 -0.96505207 -40.578346 -23.219889 11.901757
19782500000 -23.637257 46.161221 -0.95377225 -41.054867 -0.96350032 -41.12394 -23.184399 10.984179
19810000000 -23.794306 45.314331 -0.957923 -41.630695 -0.95847911 -41.685261 -23.210342 7.6713572
19837500000 -24.390095 44.98941 -0.96171623 -42.183945 -0.96216267 -42.238255 -23.257233 8.7218695
19865000000 -23.957531 44.834633 -0.95260483 -42.719311 -0.96251935 -42.788849 -23.118114 8.5695515
19892500000 -23.758932 44.328186 -0.95173877 -43.28479 -0.95960158 -43.339947 -23.143038 5.2737069
19920000000 -24.519236 43.097603 -0.95728528 -43.848621 -0.96763808 -43.900188 -23.256893 5.3788838
19947500000 -24.195429 42.83091 -0.95474482 -44.388023 -0.96004748 -44.439468 -23.129435 5.9829087
19975000000 -23.838549 43.624119 -0.95211816 -44.938686 -0.95428139 -45.003738 -23.128675 2.8405836
20002500000 -24.466244 41.355778 -0.95799172 -45.50703 -0.96075112 -45.571117 -23.243917 1.5624182
20030000000 -24.480665 41.323254 -0.95494252 -46.03495 -0.96306443 -46.123672 -23.073311 2.9594631
20057500000 -23.966406 42.601887 -0.95147419 -46.586624 -0.95784873 -46.656132 -23.021338 0.97045386
20085000000 -24.509033 40.56134 -0.95298588 -47.17305 -0.95867473 -47.241585 -23.123093 -2.0064106
20112500000 -24.728838 38.897778 -0.95655251 -47.708645 -0.95865631 -47.793354 -23.069433 0.41305962
20140000000 -24.167976 41.296806 -0.94855583 -48.25555 -0.95857626 -48.313938 -22.989517 -1.2784195
20167500000 -24.474407 39.924496 -0.94969374 -48.858261 -0.95777875 -48.906155 -23.071527 -4.8276968
20195000000 -24.97896 36.653694 -0.95151287 -49.384331 -0.95638895 -49.436325 -23.106329 -3.1921136
20222500000 -24.540831 38.879295 -0.94818866 -49.954227 -0.95688969 -49.99427 -22.973457 -2.9085972
20250000000 -24.506426 39.204899 -0.94514763 -50.508179 -0.95337856 -50.547073 -23.032516 -6.9493146
20277500000 -25.05698 34.657608 -0.95209074 -51.046188 -0.95862275 -51.122517 -23.081762 -7.0149837
20305000000 -24.734776 36.29158 -0.95110619 -51.62228 -0.95278603 -51.678181 -22.946102 -5.5131469
20332500000 -24.600664 38.667107 -0.94255924 -52.156925 -0.94578934 -52.232597 -22.972221 -9.3347158
20360000000 -25.069481 34.009346 -0.94782096 -52.732826 -0.95229447 -52.787842 -23.033764 -10.645279
20387500000 -25.063534 33.390312 -0.9447158 -53.280437 -0.95507151 -53.347553 -22.941124 -7.9540591
20415000000 -24.754318 37.620548 -0.94129807 -53.821918 -0.94854712 -53.902908 -22.964533 -11.152505
20442500000 -25.116339 33.663509 -0.94651544 -54.4436 -0.94991857 -54.487747 -23.028608 -14.172503
20470000000 -25.325899 31.407242 -0.94159001 -54.987278 -0.95448393 -55.045135 -22.962416 -11.144092
20497500000 -25.06353 35.455814 -0.94275153 -55.519634 -0.94900382 -55.572109 -22.92058 -12.700245
20525000000 -25.161488 33.738506 -0.94471484 -56.077736 -0.94809371 -56.173058 -22.905523 -16.544081
20552500000 -25.468056 28.769573 -0.94084507 -56.63139 -0.94948405 -56.678349 -23.017838 -14.253968
20580000000 -25.416401 32.668407 -0.94369692 -57.175781 -0.95124346 -57.236443 -22.904175 -14.886983
20607500000 -25.371824 32.38644 -0.93902081 -57.758244 -0.94524032 -57.843971 -22.845575 -18.846186
20635000000 -25.526972 27.483894 -0.94083869 -58.309429 -0.94813907 -58.383072 -22.944389 -18.079391
20662500000 -25.61091 29.670061 -0.94046736 -58.871792 -0.94734991 -58.94249 -22.921595 -17.233644
20690000000 -25.566118 31.996599 -0.93660468 -59.435192 -0.94638157 -59.495804 -22.784191 -21.140234
20717500000 -25.537004 27.268801 -0.94325268 -60.000195 -0.94519782 -60.0508 -22.861164 -21.401516
20745000000 -25.783346 26.640068 -0.94295967 -60.560673 -0.94494653 -60.631947 -22.923767 -19.401779
20772500000 -25.799772 30.423992 -0.93980849 -61.12376 -0.94556439 -61.171017 -22.820179 -22.992769
20800000000 -25.743851 26.135578 -0.94003218 -61.678905 -0.94603556 -61.74218 -22.795815 -24.883625
20827500000 -25.882463 23.585859 -0.93541682 -62.243073 -0.94529241 -62.284119 -22.880756 -22.439177
20855000000 -26.122599 28.258242 -0.93987727 -62.768375 -0.94522005 -62.830761 -22.80468 -24.721424
20882500000 -25.948589 26.250881 -0.93555266 -63.372982 -0.94286638 -63.434391 -22.688366 -27.967758
20910000000 -26.067308 21.116409 -0.93795216 -63.893021 -0.94299215 -63.960468 -22.844519 -25.662771
20937500000 -26.296141 25.014214 -0.94208074 -64.480331 -0.94535971 -64.525475 -22.776087 -26.513863
20965000000 -26.223137 24.97226 -0.93827242 -65.043037 -0.94393492 -65.082153 -22.62645 -29.745491
20992500000 -26.070702 20.293879 -0.93722713 -65.587791 -0.94534105 -65.65255 -22.853315 -29.340643
21020000000 -26.384567 21.261221 -0.93857449 -66.157379 -0.94720984 -66.213028 -22.734053 -28.712822
21047500000 -26.444517 24.160042 -0.93699068 -66.738541 -0.94553381 -66.753708 -22.567806 -31.808065
21075000000 -26.156464 19.445848 -0.94121706 -67.251289 -0.9446196 -67.315392 -22.670883 -32.252666
21102500000 -26.536489 18.853907 -0.94102448 -67.814781 -0.94478917 -67.902679 -22.759308 -31.343735
21130000000 -26.703875 22.112646 -0.94276154 -68.389015 -0.94534427 -68.461983 -22.530886 -33.98365
21157500000 -26.507738 19.69269 -0.9432652 -68.943504 -0.94815421 -69.031517 -22.637316 -35.609776
21185000000 -26.685701 15.769876 -0.93934602 -69.481018 -0.94718957 -69.516594 -22.672867 -34.635513
21212500000 -27.034666 19.345028 -0.94140995 -70.046822 -0.94669157 -70.093544 -22.608276 -36.566391
21240000000 -26.841665 19.587952 -0.94252449 -70.612396 -0.94802094 -70.664726 -22.590685 -39.001648
21267500000 -26.852951 15.222361 -0.93816549 -71.127701 -0.94668287 -71.182648 -22.74017 -38.003349
21295000000 -27.198879 16.824078 -0.94119424 -71.688004 -0.94432133 -71.752716 -22.543287 -38.883305
21322500000 -27.13776 19.361877 -0.93796885 -72.293747 -0.9426406 -72.335815 -22.509518 -41.337353
21350000000 -27.072218 14.426591 -0.93341184 -72.804993 -0.9417212 -72.867981 -22.74275 -41.195072
21377500000 -27.378578 14.466206 -0.93759328 -73.372818 -0.940126 -73.421249 -22.632421 -41.079472
21405000000 -27.479496 17.59201 -0.93558121 -73.954933 -0.93726504 -74.023216 -22.418663 -43.516918
21432500000 -27.167385 14.788893 -0.93195415 -74.481346 -0.93968922 -74.555885 -22.689722 -43.626877
21460000000 -27.516289 12.654317 -0.93486494 -75.040779 -0.94092995 -75.121567 -22.690155 -43.314194
21487500000 -27.622549 15.720437 -0.93120223 -75.623039 -0.93721908 -75.683228 -22.471079 -45.301277
21515000000 -27.350193 15.924748 -0.93461519 -76.17231 -0.94232833 -76.249596 -22.685431 -46.587692
21542500000 -27.530931 10.982681 -0.9307031 -76.730736 -0.94113058 -76.800163 -22.674253 -46.012833
21570000000 -27.80196 14.503229 -0.92917031 -77.308571 -0.93590361 -77.359596 -22.496038 -47.583652
21597500000 -27.711666 15.262326 -0.93478823 -77.875793 -0.93634963 -77.939362 -22.574343 -49.667648
21625000000 -27.64093 11.028339 -0.92901999 -78.405052 -0.93550032 -78.477715 -22.729008 -48.69772
21652500000 -27.999302 12.132642 -0.9319092 -78.974594 -0.93430638 -79.024498 -22.505888 -49.722641
21680000000 -27.864363 14.683775 -0.93137127 -79.564156 -0.93466878 -79.617714 -22.461536 -51.82793
21707500000 -27.817602 11.032412 -0.92806017 -80.080566 -0.93248963 -80.130241 -22.734385 -51.766235
21735000000 -28.092287 10.244883 -0.9278515 -80.610596 -0.93579763 -80.71402 -22.523367 -51.637333
21762500000 -28.196196 13.315434 -0.93096226 -81.232056 -0.93304473 -81.293442 -22.475281 -53.898903
21790000000 -27.934523 11.704823 -0.92549634 -81.785591 -0.93485081 -81.84259 -22.761271 -54.594105
21817500000 -28.271444 8.8031359 -0.92597336 -82.322578 -0.93574625 -82.400948 -22.563019 -54.072876
21845000000 -28.471733 11.99445 -0.92685997 -82.927948 -0.93347186 -82.972572 -22.429253 -56.24081
21872500000 -28.165844 12.053912 -0.92928702 -83.470909 -0.93586862 -83.533066 -22.702576 -57.852879
21900000000 -28.437544 8.5913239 -0.92836469 -84.031548 -0.92968303 -84.068649 -22.640718 -56.796329
21927500000 -28.724304 9.7941132 -0.92336696 -84.583046 -0.93095648 -84.636284 -22.394466 -58.074421
21955000000 -28.422661 12.064017 -0.92863524 -85.168716 -0.93449897 -85.222435 -22.631769 -60.479298
21982500000 -28.548897 8.9219532 -0.9266994 -85.689621 -0.93203431 -85.750526 -22.717415 -59.650337
22010000000 -29.092377 8.3847589 -0.923235 -86.267548 -0.93229067 -86.321289 -22.431057 -60.449764
22037500000 -28.70369 11.265541 -0.92830312 -86.83268 -0.93716353 -86.913216 -22.615753 -63.02816
22065000000 -28.631609 8.4535141 -0.92895967 -87.385849 -0.93287015 -87.459129 -22.77936 -62.444412
22092500000 -29.146196 6.6050601 -0.92751116 -87.954231 -0.9349404 -88.012497 -22.418375 -62.362686
22120000000 -29.195473 9.5153055 -0.92796469 -88.557465 -0.9338631 -88.605186 -22.455362 -65.219765
22147500000 -28.745255 9.9643869 -0.92671221 -89.072556 -0.93473041 -89.138809 -22.805775 -65.758995
22175000000 -29.514168 6.331418 -0.92893016 -89.628723 -0.93747222 -89.673141 -22.565401 -64.597855
22202500000 -29.594269 7.9348965 -0.92930532 -90.202972 -0.9358362 -90.283836 -22.473383 -67.51519
22230000000 -29.170835 9.072053 -0.92671096 -90.751747 -0.93597299 -90.818253 -22.788647 -69.338425
22257500000 -29.754946 5.9575887 -0.93361884 -91.294952 -0.94093192 -91.357841 -22.722609 -67.333099
22285000000 -30.07877 6.2558961 -0.93091416 -91.851036 -0.93590391 -91.949013 -22.425886 -69.603569
22312500000 -29.498962 10.285044 -0.93049371 -92.4105 -0.93794698 -92.466209 -22.712183 -72.268776
22340000000 -30.010738 6.519784 -0.9317674 -93.006607 -0.93834186 -93.060188 -22.815056 -70.839439
22367500000 -30.534101 4.8222761 -0.93102032 -93.547218 -0.939345 -93.587456 -22.557468 -71.675354
22395000000 -30.217075 10.802394 -0.93033236 -94.108398 -0.93332267 -94.152046 -22.62615 -75.24147
22422500000 -30.054262 7.3223643 -0.92967147 -94.645691 -0.93548459 -94.737778 -22.98498 -74.207954
22450000000 -30.720051 3.2089417 -0.93119961 -95.220779 -0.93796724 -95.276566 -22.660816 -73.655464
22477500000 -30.641806 9.1880836 -0.92527115 -95.803047 -0.93494838 -95.8582 -22.612413 -77.345428
22505000000 -30.441557 9.5840082 -0.92870802 -96.344772 -0.93612134 -96.387268 -23.091841 -77.690613
22532500000 -31.088888 3.3246171 -0.9334709 -96.886215 -0.93824321 -96.946693 -22.890974 -76.2556
22560000000 -31.161924 8.0274668 -0.92918253 -97.469719 -0.93649864 -97.542389 -22.620628 -79.267349
22587500000 -30.762653 11.600399 -0.92587441 -98.011475 -0.9327001 -98.100494 -23.089375 -81.816216
22615000000 -31.238335 4.3269858 -0.93272835 -98.568375 -0.93405312 -98.644463 -23.020044 -79.161995
22642500000 -31.799599 5.7366109 -0.92901099 -99.158646 -0.93561172 -99.256721 -22.718451 -80.655838
22670000000 -31.348829 13.420177 -0.92553067 -99.693001 -0.93245786 -99.768799 -23.026327 -84.475273
22697500000 -31.765167 4.6805072 -0.92953646 -100.27349 -0.93750173 -100.34622 -23.295195 -82.507095
22725000000 -32.156673 3.526026 -0.93034327 -100.85271 -0.93650252 -100.9159 -22.850124 -82.636742
22752500000 -32.149361 12.75561 -0.92703527 -101.38906 -0.93519819 -101.44479 -22.899761 -86.913055
22780000000 -32.026226 7.4638224 -0.93171608 -101.97175 -0.93386215 -102.02218 -23.412926 -85.789749
22807500000 -32.453907 1.1964604 -0.92956406 -102.52068 -0.93992931 -102.60114 -22.978525 -85.023499
22835000000 -32.968906 12.160471 -0.93369848 -103.0893 -0.93969017 -103.13122 -22.834946 -88.236343
22862500000 -32.935326 10.384437 -0.93272644 -103.66828 -0.93640006 -103.73009 -23.446014 -89.535843
22890000000 -32.767937 1.3944242 -0.93150246 -104.22052 -0.94397807 -104.30144 -23.234556 -87.418465
22917500000 -33.778141 9.1441498 -0.93587148 -104.80427 -0.94043458 -104.84589 -22.938169 -89.482552
22945000000 -33.70401 13.550986 -0.93463635 -105.35484 -0.93943274 -105.41286 -23.326977 -92.810265
22972500000 -33.429813 1.5755836 -0.93723482 -105.90923 -0.94439149 -105.98189 -23.393093 -90.339729
23000000000 -34.164024 5.7718849 -0.9435817 -106.50958 -0.9463172 -106.55959 -22.914982 -91.846046
23027500000 -34.781044 15.544646 -0.93883312 -107.02377 -0.94276023 -107.07811 -23.173386 -95.685905
23055000000 -33.88718 4.959136 -0.94554055 -107.60693 -0.94691914 -107.68976 -23.524702 -94.169022
23082500000 -34.689995 3.8366778 -0.94567734 -108.1979 -0.94724464 -108.25311 -23.008532 -94.523689
23110000000 -36.258205 18.657169 -0.94228876 -108.67661 -0.94714385 -108.74704 -23.024065 -98.341293
23137500000 -35.026684 10.407305 -0.94856066 -109.28284 -0.94786638 -109.33644 -23.634331 -98.990646
23165000000 -34.911091 5.1059694 -0.94498318 -109.86679 -0.95449424 -109.91389 -23.23428 -96.912643
23192500000 -37.709328 20.337364 -0.94653636 -110.35046 -0.95323539 -110.43276 -23.107639 -100.65109
23220000000 -36.408371 17.279564 -0.94687212 -110.95394 -0.95111358 -111.03053 -23.547483 -103.5481
23247500000 -35.612541 6.7829065 -0.94859898 -111.54012 -0.95037931 -111.60544 -23.394258 -100.54447
23275000000 -38.671177 17.300453 -0.95277315 -112.07844 -0.95698357 -112.1147 -23.190145 -102.49798
23302500000 -38.474777 21.120123 -0.9506467 -112.63355 -0.95058548 -112.69487 -23.599768 -106.99234
23330000000 -35.815628 9.7673769 -0.95542699 -113.18494 -0.95824802 -113.25612 -23.732401 -104.25675
23357500000 -39.322823 17.809601 -0.9606778 -113.75659 -0.95949501 -113.84525 -23.298925 -104.68785
23385000000 -40.645748 35.501068 -0.94887048 -114.28491 -0.95248234 -114.33129 -23.612797 -109.77575
23412500000 -37.096992 21.961077 -0.95521635 -114.8684 -0.96068329 -114.95565 -23.935583 -108.37299
23440000000 -39.488762 17.964928 -0.9562341 -115.4308 -0.96301496 -115.54173 -23.483723 -107.58669
23467500000 -43.296215 45.042332 -0.95329052 -115.95715 -0.95968974 -116.00727 -23.590496 -112.17619
23495000000 -38.564976 28.678038 -0.96265858 -116.53788 -0.96700734 -116.62126 -23.959635 -112.39539
23522500000 -39.154907 23.796568 -0.95682806 -117.12108 -0.96240401 -117.19559 -23.728895 -110.27904
23550000000 -43.934471 54.517338 -0.96018082 -117.64781 -0.96947837 -117.70573 -23.736744 -114.0598
23577500000 -39.846252 48.427143 -0.96256137 -118.23369 -0.96651256 -118.29415 -23.977392 -116.95682
23605000000 -38.748119 37.137348 -0.96052474 -118.76176 -0.96569026 -118.86234 -23.948698 -113.36316
23632500000 -44.813118 59.424553 -0.96640551 -119.31402 -0.97249115 -119.394 -23.859684 -116.23163
23660000000 -41.631134 69.182579 -0.96337497 -119.89124 -0.96665972 -119.97514 -23.971542 -120.35703
23687500000 -38.441032 48.029705 -0.9680599 -120.48154 -0.97272527 -120.55034 -24.157972 -117.05353
23715000000 -42.973083 64.628098 -0.96910912 -121.01098 -0.97293741 -121.11077 -23.996521 -118.23153
23742500000 -41.148739 82.634171 -0.96238399 -121.56457 -0.97350258 -121.63478 -24.111509 -122.99096
23770000000 -38.361065 65.115974 -0.96974045 -122.12946 -0.97155249 -122.17363 -24.290285 -121.70023
23797500000 -41.094879 66.258133 -0.96718979 -122.69007 -0.97290015 -122.77132 -24.100651 -120.38837
23825000000 -41.048218 98.739723 -0.96830642 -123.22308 -0.97551256 -123.28511 -24.195059 -125.80098
23852500000 -37.908104 76.453011 -0.97266698 -123.82407 -0.97983074 -123.88903 -24.318577 -125.91088
23880000000 -39.020512 73.553055 -0.97459686 -124.39598 -0.97538036 -124.46043 -24.292942 -122.75933
23907500000 -40.862907 95.847084 -0.97192222 -124.92557 -0.97891742 -125.00919 -24.293375 -128.13104
23935000000 -37.102646 88.039253 -0.97960079 -125.49723 -0.98391008 -125.55959 -24.32509 -130.29741
23962500000 -37.380001 77.458488 -0.9669776 -126.07521 -0.97953039 -126.13955 -24.492237 -126.16628
23990000000 -39.773457 96.235626 -0.98124266 -126.60265 -0.98637801 -126.66072 -24.460661 -130.1653
24017500000 -37.093792 99.216415 -0.97695804 -127.17404 -0.98566335 -127.25085 -24.435583 -133.97101
24045000000 -36.282173 86.33564 -0.97737366 -127.71935 -0.98433638 -127.78687 -24.537258 -129.9223
24072500000 -38.62204 93.351372 -0.97899818 -128.28909 -0.98834777 -128.32918 -24.488623 -132.67653
24100000000 -36.788692 104.91037 -0.98331302 -128.8143 -0.99202979 -128.90794 -24.507332 -137.78236
24127500000 -35.095432 93.447914 -0.98381233 -129.38524 -0.99139941 -129.44254 -24.609274 -134.81546
24155000000 -37.074528 93.572319 -0.98132116 -129.93164 -0.98994029 -130.00201 -24.597853 -135.11427
24182500000 -36.264069 106.64691 -0.98920721 -130.4684 -0.99319899 -130.53212 -24.552761 -141.27158
24210000000 -34.302509 100.28394 -0.98637021 -131.00235 -0.99334836 -131.09404 -24.574133 -139.02344
24237500000 -35.318192 94.580292 -0.98442018 -131.6073 -0.99144626 -131.66145 -24.918262 -137.44832
24265000000 -35.869926 103.01834 -0.98942012 -132.1277 -0.99447399 -132.21727 -24.705322 -144.1205
24292500000 -33.630543 103.32776 -0.99120134 -132.70213 -0.99712348 -132.76016 -24.658102 -144.70143
24320000000 -33.715263 96.272255 -0.98865491 -133.24928 -0.99629116 -133.33372 -24.99925 -140.49933
24347500000 -34.932526 100.16586 -0.98619086 -133.82021 -0.99505764 -133.86594 -24.846231 -146.95555
24375000000 -33.391808 105.03664 -0.99329209 -134.33437 -0.99899131 -134.46101 -24.79472 -149.52489
24402500000 -32.552219 99.002914 -0.98868841 -134.90741 -0.99244195 -134.97392 -25.068768 -144.43738
24430000000 -34.118225 98.555801 -0.99008822 -135.45702 -0.99273181 -135.53436 -25.070503 -149.03587
24457500000 -33.065086 105.34148 -0.98888832 -136.0322 -0.99681479 -136.10519 -24.771204 -153.56155
24485000000 -32.057755 100.98908 -0.99059612 -136.57854 -0.99295467 -136.64856 -25.17918 -148.88966
24512500000 -32.71558 96.946831 -0.98836076 -137.12357 -0.99485159 -137.20146 -25.17934 -151.93593
24540000000 -32.647591 102.42113 -0.99144232 -137.68141 -0.99982089 -137.77214 -24.836906 -158.09782
24567500000 -31.518618 102.94923 -0.98988533 -138.28586 -0.99846643 -138.31081 -25.286448 -153.81271
24595000000 -31.8395 95.610138 -0.99196148 -138.79774 -0.99733257 -138.86649 -25.402964 -154.72707
24622500000 -32.194965 100.15927 -0.99292833 -139.33601 -1.0002719 -139.4456 -24.98209 -161.51497
24650000000 -31.0956 102.75263 -0.99515039 -139.94514 -1.0002928 -140.00034 -25.181168 -159.73828
24677500000 -30.928726 97.534981 -0.99188727 -140.45386 -0.99629313 -140.54135 -25.638142 -157.22211
24705000000 -31.632868 98.206116 -0.99605024 -141.02298 -1.0018901 -141.08957 -25.146618 -164.26491
24732500000 -30.768663 101.79707 -0.99892676 -141.57204 -1.0027235 -141.67583 -25.114859 -165.38094
24760000000 -30.300543 98.55986 -0.99767262 -142.11998 -1.0014437 -142.19009 -25.891695 -161.16336
24787500000 -30.60722 96.094849 -0.99821168 -142.68413 -1.0003279 -142.77679 -25.237961 -167.2804
24815000000 -30.386499 100.78115 -0.99909621 -143.28256 -1.0063722 -143.3243 -25.173481 -169.51561
24842500000 -29.713751 100.65717 -0.997343 -143.80449 -0.99985313 -143.90366 -25.957525 -165.6041
24870000000 -29.944817 94.833611 -0.9962759 -144.33095 -1.0005662 -144.40961 -25.5035 -169.35583
24897500000 -29.997225 98.716057 -1.0026827 -144.90831 -1.008659 -144.99045 -25.023148 -174.39471
24925000000 -29.341145 99.792969 -0.99387258 -145.48218 -1.0012425 -145.55289 -26.128849 -171.25044
24952500000 -29.295803 95.559837 -0.99876451 -146.01123 -1.0032315 -146.07452 -25.743618 -172.66093
24980000000 -29.584978 96.020134 -1.0006405 -146.58263 -1.0064607 -146.65935 -24.938471 -178.11134
25007500000 -29.007549 99.129295 -0.99424911 -147.13876 -1.0098282 -147.24152 -25.94112 -177.44481
25035000000 -28.700907 95.594116 -0.9999783 -147.69684 -1.0031962 -147.74419 -26.145914 -176.63086
25062500000 -29.045717 95.340729 -1.006573 -148.23608 -1.0081359 -148.30754 -25.076113 178.63756
25090000000 -28.649624 96.412392 -1.0003798 -148.82361 -1.0081282 -148.91336 -25.633814 177.88222
25117500000 -28.046843 96.007645 -1.001151 -149.36751 -1.0047861 -149.43257 -26.507431 178.57143
25145000000 -28.243048 93.651688 -1.0004991 -149.92833 -1.0084305 -149.97881 -25.259428 175.9538
25172500000 -28.318121 96.275658 -1.0053568 -150.49911 -1.0090215 -150.53894 -25.387455 172.95775
25200000000 -27.581417 95.690041 -1.0016292 -151.03415 -1.0061457 -151.11438 -26.619068 172.61539
25227500000 -27.849453 92.630089 -1.0026113 -151.61783 -1.0093948 -151.66006 -25.614544 172.40218
25255000000 -27.858715 94.404686 -1.0037638 -152.18481 -1.0106043 -152.21494 -25.239964 168.21774
25282500000 -27.082996 95.136032 -1.0013316 -152.73558 -1.0085748 -152.7888 -26.512972 167.21552
25310000000 -27.119204 92.322365 -1.0021312 -153.26555 -1.009868 -153.33842 -25.903406 168.23441
25337500000 -27.339006 92.489983 -1.0068263 -153.80391 -1.0191208 -153.92606 -25.150307 165.43839
25365000000 -26.797285 93.892448 -1.0054402 -154.38863 -1.0112476 -154.47343 -26.26203 161.5172
25392500000 -26.639475 91.94651 -1.0102684 -154.93257 -1.0129397 -154.98363 -26.157146 163.79068
25420000000 -26.942163 90.441711 -1.008889 -155.50652 -1.019401 -155.58342 -25.084057 161.56999
25447500000 -26.525137 93.296127 -1.0116266 -156.0528 -1.0209221 -156.14738 -25.914892 157.45474
25475000000 -26.174538 90.96627 -1.0062544 -156.62698 -1.0159606 -156.67178 -26.440525 156.77437
25502500000 -26.389767 89.612373 -1.012059 -157.18837 -1.0208625 -157.25778 -25.238989 158.0954
25530000000 -26.276001 91.082535 -1.0085212 -157.75896 -1.0232002 -157.82339 -25.721802 153.26727
25557500000 -25.819824 90.655029 -1.0070374 -158.26003 -1.0134157 -158.33299 -26.432774 151.5672
25585000000 -25.839777 87.592903 -1.0129738 -158.84587 -1.0185254 -158.92386 -25.483511 154.85373
25612500000 -25.85923 89.745819 -1.0137253 -159.42212 -1.0254407 -159.48506 -25.393101 150.00554
25640000000 -25.424284 90.553909 -1.0050135 -159.91591 -1.0196173 -159.99835 -26.301474 145.83498
25667500000 -25.400969 87.261086 -1.0144337 -160.50079 -1.0186939 -160.5862 -25.760061 147.73834
25695000000 -25.620325 87.893364 -1.018188 -161.09047 -1.0266072 -161.12962 -25.196568 147.21858
25722500000 -25.208677 89.905266 -1.0172021 -161.63324 -1.0215652 -161.67369 -25.9617 140.73947
25750000000 -24.9739 86.346054 -1.016855 -162.18277 -1.0223306 -162.21625 -25.973581 142.19608
25777500000 -25.087416 85.855034 -1.0205115 -162.72162 -1.0266885 -162.82121 -25.12623 143.70445
25805000000 -25.052809 89.679352 -1.0213524 -163.29153 -1.0273561 -163.33209 -25.594469 136.80009
25832500000 -24.46706 85.926178 -1.0169145 -163.85045 -1.0239724 -163.91832 -25.926432 135.5593
25860000000 -24.595778 83.15609 -1.0272194 -164.4182 -1.0282834 -164.45537 -25.198603 139.36661
25887500000 -24.860994 87.258492 -1.0261737 -164.98305 -1.0351876 -165.0153 -25.337582 133.38271
25915000000 -24.263662 85.577187 -1.0206199 -165.53833 -1.0310838 -165.55066 -25.783539 129.91637
25942500000 -24.086557 82.126022 -1.0253867 -166.04085 -1.0337193 -166.11856 -25.410698 134.00111
25970000000 -24.566132 85.206085 -1.0257404 -166.65399 -1.0351118 -166.68411 -25.093845 130.55571
25997500000 -24.084957 84.982109 -1.0251188 -167.11589 -1.0291035 -167.23 -25.52116 125.24339
26025000000 -23.741262 81.428841 -1.0272696 -167.70789 -1.0340127 -167.78227 -25.314579 129.10942
26052500000 -24.12607 82.490105 -1.0301255 -168.30229 -1.0355273 -168.34953 -24.973398 127.90525
26080000000 -23.965017 84.931107 -1.0310166 -168.8129 -1.0356272 -168.8912 -25.232885 120.00158
26107500000 -23.236927 80.31321 -1.0281262 -169.36121 -1.0312513 -169.42894 -25.164721 122.14482
26135000000 -23.561991 80.431107 -1.0316248 -169.96716 -1.0382645 -170.00804 -24.901863 123.51665
26162500000 -23.932625 82.45118 -1.0289437 -170.48599 -1.0376773 -170.53133 -25.02879 117.13563
26190000000 -23.155258 81.008194 -1.030268 -171.04372 -1.0292586 -171.13089 -25.210642 115.97741
26217500000 -23.057926 78.034676 -1.0245466 -171.57985 -1.0391233 -171.66791 -24.748575 119.08379
26245000000 -23.664688 81.401268 -1.0409787 -172.18651 -1.040877 -172.23965 -24.720858 114.09406
26272500000 -23.031025 80.302979 -1.0265914 -172.71318 -1.0384291 -172.8064 -24.87236 111.14722
26300000000 -22.679564 77.404572 -1.0335889 -173.27588 -1.0422086 -173.33134 -24.623718 114.02324
26327500000 -23.34609 78.510536 -1.0372549 -173.85388 -1.04403 -173.89142 -24.562571 110.88411
26355000000 -22.890448 79.759254 -1.0360491 -174.39197 -1.037823 -174.46779 -24.699486 106.90557
26382500000 -22.210649 76.574585 -1.0330333 -174.90135 -1.0416229 -174.97639 -24.551466 108.86081
26410000000 -22.888275 75.513733 -1.0363423 -175.53893 -1.0401915 -175.58844 -24.337626 107.65855
26437500000 -22.879366 78.574051 -1.0406513 -176.05087 -1.0442355 -176.09241 -24.426569 103.69154
26465000000 -22.041025 76.965645 -1.0366597 -176.56364 -1.0437376 -176.6505 -24.476933 104.42714
26492500000 -22.391172 74.207108 -1.0377313 -177.15872 -1.0416883 -177.21968 -24.143578 103.77684
26520000000 -22.646805 76.317406 -1.0454626 -177.66029 -1.0523719 -177.77626 -23.93825 99.398323
26547500000 -21.977133 75.182747 -1.0365565 -178.34761 -1.0364478 -178.34274 -23.993923 99.534576
26575000000 -21.862741 72.91967 -1.0396985 -178.82088 -1.0358589 -178.8653 -23.897747 99.557152
26602500000 -22.584209 74.198761 -1.049724 -179.40919 -1.0576696 -179.44836 -23.874624 95.582718
26630000000 -21.987137 75.39502 -1.0410501 -179.90613 -1.0475918 179.89172 -23.952015 95.232841
26657500000 -21.62631 72.613777 -1.0340881 179.56969 -1.0547612 179.48291 -23.679605 97.275948
26685000000 -22.182861 70.672546 -1.0384585 178.93672 -1.0425652 178.85968 -23.478212 92.119781
26712500000 -22.204468 74.666466 -1.0433091 178.46158 -1.0535654 178.35631 -23.669531 92.116669
26740000000 -21.458307 72.021591 -1.0468799 177.86176 -1.063539 177.76952 -23.513023 92.604332
26767500000 -21.649403 68.386398 -1.0512469 177.26164 -1.05277 177.14952 -23.205456 91.4319
26795000000 -21.954662 71.712517 -1.0426992 176.8042 -1.0531381 176.71675 -23.424534 89.045784
26822500000 -21.300539 72.484085 -1.0525048 176.24709 -1.0590265 176.13634 -23.353918 88.607491
26850000000 -21.311388 67.701866 -1.0511094 175.68289 -1.0524223 175.57837 -23.009499 88.053581
26877500000 -21.664005 68.129379 -1.0595524 175.06148 -1.0486561 175.04286 -23.064409 86.076317
26905000000 -21.298603 71.768288 -1.0427631 174.48865 -1.0633945 174.50211 -23.331556 84.151489
26932500000 -20.847111 67.62854 -1.047775 173.93747 -1.0517683 173.92712 -22.849216 84.183174
26960000000 -21.350477 65.808762 -1.0530276 173.46764 -1.0583106 173.35667 -22.851198 82.397949
26987500000 -21.255447 68.992966 -1.0537452 172.82002 -1.0686747 172.83798 -22.923887 81.514885
27015000000 -20.690296 68.469734 -1.0464971 172.30089 -1.0555339 172.23026 -22.691177 82.539291
27042500000 -21.055386 63.31321 -1.0528785 171.73106 -1.059746 171.63913 -22.499743 79.556091
27070000000 -21.306612 66.468735 -1.0572618 171.17554 -1.058637 171.11154 -22.705364 77.265633
27097500000 -20.545914 67.357872 -1.0530157 170.685 -1.0626202 170.62427 -22.435503 79.398544
27125000000 -20.731028 63.70747 -1.0589116 170.05247 -1.0593635 169.93614 -22.315765 75.678574
27152500000 -21.021069 63.84938 -1.0601091 169.52551 -1.0607562 169.44606 -22.506699 73.602089
27180000000 -20.691803 65.435349 -1.0626935 168.9792 -1.0685627 169.01035 -22.499216 76.111237
27207500000 -20.374281 62.0494 -1.0505179 168.39211 -1.0687349 168.41537 -22.050116 73.398041
27235000000 -20.959286 61.196106 -1.0675057 167.91508 -1.0662181 167.81238 -22.295309 70.876434
27262500000 -20.677582 64.501083 -1.0539405 167.32866 -1.082123 167.23799 -22.319355 72.534004
27290000000 -20.270952 61.680531 -1.0664163 166.82808 -1.0613947 166.74831 -21.926189 72.133858
27317500000 -20.579996 59.666477 -1.071667 166.23727 -1.0662323 166.14958 -21.967524 68.691574
27345000000 -20.742064 61.014591 -1.0771616 165.64609 -1.0693054 165.70448 -22.145052 69.04834
27372500000 -20.297468 61.860027 -1.0703568 165.19437 -1.0641872 165.08067 -21.72117 69.291634
27400000000 -20.189116 58.868191 -1.0626565 164.60451 -1.058091 164.46526 -21.566833 65.68602
27427500000 -20.515884 59.06461 -1.0582103 164.0657 -1.0789735 163.98317 -21.966717 64.718605
27455000000 -20.073195 60.512562 -1.0547698 163.48451 -1.0629874 163.4245 -21.66173 67.656395
27482500000 -20.023693 58.007378 -1.0631125 162.94165 -1.0720507 162.77336 -21.483927 63.862083
27510000000 -20.328814 56.449162 -1.063965 162.31241 -1.0724585 162.18347 -21.798248 61.564861
27537500000 -20.200541 58.190815 -1.0787004 161.80089 -1.0754889 161.69431 -21.644016 63.457336
27565000000 -19.673462 57.287476 -1.0666794 161.31491 -1.0757794 161.1658 -21.238459 61.362167
27592500000 -20.002655 55.250778 -1.0623286 160.72466 -1.0754753 160.57335 -21.272488 59.034256
27620000000 -20.176863 56.16238 -1.0737922 160.20035 -1.0860523 160.0257 -21.288641 60.358818
27647500000 -19.647499 56.603901 -1.0700674 159.50194 -1.0703473 159.53232 -21.004211 59.359093
27675000000 -19.668291 53.566055 -1.0807059 159.10762 -1.0815037 158.93709 -21.050097 56.918682
27702500000 -20.146296 53.898911 -1.0849097 158.47931 -1.0739635 158.37674 -21.171457 57.658421
27730000000 -19.584763 55.73476 -1.0585498 157.97954 -1.0672956 157.82599 -21.097483 57.854633
27757500000 -19.443817 53.025314 -1.0613999 157.36217 -1.0773294 157.32169 -20.787437 54.071556
27785000000 -19.751991 50.410133 -1.0828826 156.70863 -1.0819029 156.74632 -20.956282 53.543453
27812500000 -19.658651 53.961887 -1.0726942 156.21547 -1.0848601 156.20259 -20.879654 54.977158
27840000000 -19.254555 52.0005 -1.0642811 155.71983 -1.0856904 155.58701 -20.499975 53.105621
27867500000 -19.652302 48.786682 -1.0701684 155.2532 -1.0887363 155.07793 -20.820704 51.133636
27895000000 -19.636211 51.570557 -1.078709 154.64789 -1.0737511 154.48949 -20.771269 51.717293
27922500000 -19.127142 51.404099 -1.0929253 154.09973 -1.0907018 154.0394 -20.41337 51.38752
27950000000 -19.152763 47.68742 -1.0872475 153.5296 -1.079226 153.44063 -20.490274 48.004475
27977500000 -19.43121 48.811222 -1.0769124 153.00665 -1.0824691 152.90688 -20.626577 49.203407
28005000000 -19.179453 49.986786 -1.0859147 152.44548 -1.0858928 152.31874 -20.152859 49.331959
28032500000 -19.027107 46.880196 -1.0773168 151.89453 -1.0860367 151.82474 -20.012342 45.193542
28060000000 -19.37463 45.915474 -1.0743057 151.32158 -1.0874254 151.25325 -20.47814 45.961903
28087500000 -19.268545 48.612228 -1.0917542 150.71631 -1.0911344 150.69356 -20.240351 46.314297
28115000000 -18.99036 45.870003 -1.0898536 150.19788 -1.0757055 150.16116 -19.928349 43.57338
28142500000 -19.136084 44.875282 -1.0949832 149.61629 -1.0844411 149.5748 -20.225889 41.965778
28170000000 -19.200111 46.526791 -1.0794321 149.11395 -1.0863123 149.01402 -20.027613 43.283398
28197500000 -18.788746 44.852615 -1.0877942 148.58928 -1.0867474 148.53024 -19.615417 42.463211
28225000000 -18.771214 43.058968 -1.0805418 147.98248 -1.092839 147.95314 -19.888044 39.208961
28252500000 -19.054171 44.447201 -1.0871557 147.494 -1.083354 147.29745 -20.185581 40.573425
28280000000 -18.807064 44.581596 -1.1033906 146.86378 -1.0817372 146.75662 -19.586525 40.625805
28307500000 -18.696249 41.379807 -1.0686518 146.29326 -1.1055298 146.26123 -19.703051 37.694359
28335000000 -18.860142 41.559052 -1.0869526 145.6812 -1.0900511 145.67883 -19.891727 36.989941
28362500000 -18.666744 43.157185 -1.0942729 145.16846 -1.0824864 145.11261 -19.515413 36.685207
28390000000 -18.578291 40.071251 -1.0682744 144.61108 -1.1016572 144.59227 -19.374756 35.540672
28417500000 -18.642839 40.124138 -1.0783799 144.13695 -1.1068909 144.01883 -19.522179 33.93047
28445000000 -18.60824 41.093163 -1.0929552 143.51192 -1.0916829 143.54611 -19.517385 34.840828
28472500000 -18.57181 39.743977 -1.0725709 143.05368 -1.0851761 142.98752 -19.283911 33.48489
28500000000 -18.563824 39.170204 -1.0976678 142.2908 -1.1040328 142.54478 -19.424601 32.234558
28527500000 -18.620016 39.362019 -1.0885534 141.84624 -1.0866015 141.80963 -19.417721 32.778652
28555000000 -18.452301 38.253647 -1.0945503 141.34627 -1.0998695 141.40268 -19.097748 31.847639
28582500000 -18.308586 36.246471 -1.0811886 140.82372 -1.0974629 140.69125 -19.159798 29.189964
28610000000 -18.601915 37.65136 -1.096603 140.26497 -1.1053648 140.20728 -19.111565 31.023266
28637500000 -18.296394 36.689037 -1.0810351 139.70364 -1.0875304 139.68024 -18.925451 29.621704
28665000000 -18.251213 35.663227 -1.0962585 139.06802 -1.0953023 139.0918 -18.931953 27.071062
28692500000 -18.451649 35.345966 -1.0971962 138.56329 -1.1000326 138.43785 -19.120342 27.695356
28720000000 -18.306183 36.058582 -1.0779743 137.98392 -1.0953957 137.89227 -18.866627 27.018385
28747500000 -18.088371 34.071129 -1.0933368 137.42862 -1.0933261 137.4353 -18.748894 25.410023
28775000000 -18.26096 34.635014 -1.0861092 136.92137 -1.0969542 136.90491 -19.089483 24.337938
28802500000 -18.354959 34.577 -1.0971802 136.3808 -1.1083732 136.29506 -18.88822 25.580719
28830000000 -17.944653 33.089718 -1.0839407 135.80481 -1.1078142 135.80984 -18.615221 22.94416
28857500000 -18.166807 32.729309 -1.0921979 135.26292 -1.105858 135.20448 -18.677191 21.708672
28885000000 -18.207314 34.325058 -1.0912266 134.78159 -1.0913315 134.63007 -18.690174 21.997501
28912500000 -18.060955 31.658112 -1.0906346 134.28664 -1.1084914 134.17603 -18.435028 21.295677
28940000000 -18.100088 30.292696 -1.0758621 133.43149 -1.0957395 133.53288 -18.664865 19.230785
28967500000 -18.390936 31.194523 -1.0782039 132.92693 -1.0979611 132.94893 -18.683397 19.404198
28995000000 -17.854172 31.043276 -1.1075617 132.56886 -1.1214402 132.44522 -18.181562 19.693943
29022500000 -17.799919 28.050144 -1.0917917 131.88521 -1.1050075 131.83774 -18.317593 18.31691
29050000000 -18.099466 29.442537 -1.0925081 131.34338 -1.1139512 131.43477 -18.325069 17.920397
29077500000 -17.902052 29.698711 -1.0912004 130.94672 -1.1070379 130.72472 -18.113245 18.439089
29105000000 -17.79677 27.775887 -1.0994507 130.27368 -1.0922728 130.2207 -18.241119 16.15514
29132500000 -18.019787 26.756502 -1.1009203 129.72403 -1.1119186 129.66353 -18.417368 15.400329
29160000000 -18.047359 28.374676 -1.1063639 129.09912 -1.106239 129.08452 -18.231422 15.352131
29187500000 -17.594824 27.380707 -1.112126 128.61539 -1.0914506 128.44864 -18.050406 13.539461
29215000000 -17.903202 26.331781 -1.1040314 128.03264 -1.1116371 128.00752 -18.022776 13.359319
29242500000 -18.122446 26.679392 -1.1104468 127.53504 -1.1185921 127.48297 -18.039602 12.745736
29270000000 -17.599688 25.469854 -1.1040238 126.99161 -1.1201478 126.95879 -17.936741 11.083957
29297500000 -17.79549 24.950106 -1.1010337 126.41199 -1.0946186 126.29858 -17.980787 9.7673111
29325000000 -18.033789 24.440363 -1.1164744 125.75825 -1.1154191 125.78255 -18.021688 11.417849
29352500000 -17.676193 25.677271 -1.1125122 125.30378 -1.1035287 125.32847 -17.87977 10.015268
29380000000 -17.528101 22.665186 -1.0926183 124.77695 -1.1053678 124.65508 -17.822783 7.4367542
29407500000 -17.949772 22.105656 -1.0937387 124.2354 -1.1094882 124.2071 -17.93174 8.1886988
29435000000 -17.771811 22.382505 -1.1149091 123.71363 -1.1124831 123.66458 -17.725548 8.4306355
29462500000 -17.481232 22.75082 -1.0886319 123.0163 -1.1081383 122.97643 -17.81749 5.2086477
29490000000 -17.775684 20.167017 -1.0867039 122.63912 -1.1283092 122.44521 -17.860214 6.5686464
29517500000 -17.914299 21.254433 -1.1000509 122.12314 -1.1119046 122.0345 -17.739605 6.9549108
29545000000 -17.478703 20.668058 -1.0928763 121.45628 -1.1013546 121.45709 -17.701244 3.869323
29572500000 -17.615477 19.746788 -1.0806583 120.86289 -1.1057614 120.91693 -17.803968 4.1067305
29600000000 -17.951231 18.857256 -1.0986795 120.41744 -1.1069888 120.32587 -17.704992 5.3920913
29627500000 -17.457436 21.484423 -1.1060907 119.87218 -1.1054783 119.79914 -17.571997 2.7958257
29655000000 -17.492067 17.766216 -1.0930032 119.31686 -1.1078219 119.1373 -17.63463 2.6426461
29682500000 -17.727644 17.476177 -1.1088126 118.70167 -1.1078824 118.764 -17.667959 2.7237313
29710000000 -17.481022 18.732813 -1.1137729 118.14815 -1.1064794 118.12535 -17.377604 2.1326673
29737500000 -17.370296 17.531837 -1.0943881 117.65775 -1.0912992 117.4354 -17.607414 -0.21575283
29765000000 -17.63719 14.828448 -1.1120751 117.1311 -1.1055919 117.01055 -17.582916 1.1837742
29792500000 -17.638041 16.563972 -1.1060213 116.49888 -1.1106875 116.46774 -17.330416 0.27585807
29820000000 -17.230385 16.943233 -1.1059692 115.93845 -1.1054099 115.79042 -17.447975 -0.96513957
29847500000 -17.619881 13.12487 -1.1162652 115.47069 -1.1110499 115.30993 -17.37488 -1.1039739
29875000000 -17.788298 14.374669 -1.1176649 114.87962 -1.1099769 114.72395 -17.524382 0.13261339
29902500000 -17.361069 16.040907 -1.101743 114.22137 -1.104216 114.29985 -17.297567 -4.1783047
29930000000 -17.34091 13.018445 -1.1060323 113.82096 -1.1092877 113.69115 -17.413155 -2.7841961
29957500000 -17.676731 12.111492 -1.1052586 113.19203 -1.1153575 113.20349 -17.435665 -2.4203267
29985000000 -17.427553 14.240109 -1.0939732 112.58772 -1.0951115 112.64973 -17.165068 -4.9697657
30012500000 -17.248549 11.869379 -1.1063669 112.19097 -1.1002086 112.04449 -17.324387 -5.9572892
30040000000 -17.579924 8.993124 -1.1098425 111.48508 -1.1146896 111.48048 -17.335503 -4.8727717
30067500000 -17.631771 11.715635 -1.1177969 111.04023 -1.1097373 110.92133 -17.080626 -6.0080533
30095000000 -17.206297 12.339783 -1.0924329 110.41696 -1.1135775 110.3504 -17.193142 -8.7338152
30122500000 -17.340788 7.46665 -1.1149298 109.89546 -1.1081904 109.82397 -17.323597 -5.1343584
30150000000 -17.642426 10.098955 -1.0986668 109.43498 -1.1084905 109.28731 -17.129038 -7.4990191
30177500000 -17.340117 10.40005 -1.0930475 108.67975 -1.1014147 108.69363 -16.986847 -9.1388884
30205000000 -17.382801 6.3377686 -1.1124513 108.14534 -1.1276119 108.13683 -17.175659 -8.0665483
30232500000 -17.568346 6.2484846 -1.1060721 107.68985 -1.099707 107.64041 -17.08375 -8.235034
30260000000 -17.562019 10.335707 -1.0986482 107.10468 -1.1103423 107.06602 -16.940128 -11.798852
30287500000 -17.269859 5.9618645 -1.1046621 106.61291 -1.100415 106.5827 -17.112972 -10.74026
30315000000 -17.351284 4.1046147 -1.1011748 106.09686 -1.1211941 105.94587 -17.160038 -10.383881
30342500000 -17.560341 7.1805959 -1.0966084 105.40127 -1.0986265 105.424 -16.841881 -13.053367
30370000000 -17.281561 4.6006455 -1.0985972 104.91931 -1.1123574 104.76512 -16.972603 -13.485168
30397500000 -17.246502 2.0275619 -1.1001846 104.29114 -1.1092203 104.1759 -17.088009 -11.908513
30425000000 -17.566292 4.9454947 -1.1155375 103.82589 -1.1202657 103.75542 -16.726727 -13.391855
30452500000 -17.368288 3.6477087 -1.092153 103.28817 -1.0974882 103.09593 -16.839317 -16.074753
30480000000 -17.08913 1.5266099 -1.1102965 102.68862 -1.1160969 102.60079 -17.108046 -13.7845
30507500000 -17.554588 2.4221048 -1.1019491 102.07281 -1.1053848 102.10738 -16.863701 -14.803385
30535000000 -17.342491 3.6642065 -1.1000426 101.56718 -1.1336563 101.41327 -16.717915 -17.311346
30562500000 -17.129236 0.90563476 -1.10339 101.0163 -1.1173897 100.96873 -17.062977 -16.207638
30590000000 -17.294704 -0.39380285 -1.1116729 100.39487 -1.1133467 100.37862 -16.924511 -16.533966
30617500000 -17.47352 1.135864 -1.0669219 99.915428 -1.1101865 99.880859 -16.666168 -19.550379
30645000000 -17.16861 -1.1041248 -1.1138425 99.382301 -1.1126714 99.359612 -16.953726 -19.020329
30672500000 -17.144066 -1.7770875 -1.1021674 98.931313 -1.1010327 98.776054 -16.895746 -19.245546
30700000000 -17.50709 -1.6794049 -1.1026882 98.240837 -1.1191642 98.073898 -16.561623 -21.145914
30727500000 -17.112717 -0.43574959 -1.1036696 97.760551 -1.1113442 97.618118 -16.904709 -21.675713
30755000000 -17.007746 -4.1360922 -1.1116223 97.090454 -1.1104553 97.013634 -16.926395 -21.556053
30782500000 -17.509502 -2.5015452 -1.1021006 96.561569 -1.133998 96.403931 -16.591614 -21.962063
30810000000 -17.28352 -4.2117295 -1.1227667 95.98455 -1.1235507 96.109688 -16.628181 -23.015776
30837500000 -17.019402 -5.1271014 -1.1150442 95.424278 -1.11443 95.374603 -16.864609 -23.192169
30865000000 -17.444424 -5.3270597 -1.127032 94.991661 -1.1299351 94.707558 -16.686779 -24.082304
30892500000 -17.470772 -5.575119 -1.1184335 94.471222 -1.101429 94.324028 -16.619705 -25.551676
30920000000 -17.087488 -5.9446807 -1.1055298 93.893936 -1.1127844 93.804962 -16.868717 -25.153282
30947500000 -17.279949 -7.2334418 -1.1201605 93.243881 -1.1262032 93.16748 -16.72271 -24.562817
30975000000 -17.517794 -5.8682365 -1.1198101 92.69841 -1.1149215 92.548195 -16.491814 -26.491304
31002500000 -17.161177 -7.2071004 -1.105691 92.242889 -1.1103202 92.268669 -16.773891 -26.584793
31030000000 -17.135201 -8.7501879 -1.1085984 91.875793 -1.1161658 91.6418 -16.819632 -27.966267
31057500000 -17.746254 -7.851954 -1.107721 91.021118 -1.1220367 91.027817 -16.612846 -27.85442
31085000000 -17.306068 -9.1105356 -1.100897 90.591942 -1.1309309 90.477188 -16.698725 -29.08954
31112500000 -17.018173 -9.2139502 -1.0966277 90.079781 -1.124469 89.855766 -16.842453 -28.942572
31140000000 -17.54442 -9.2271051 -1.1142148 89.48558 -1.1080236 89.471924 -16.306561 -29.610804
31167500000 -17.297878 -9.9975157 -1.1085068 88.785866 -1.1118628 88.949951 -16.656904 -31.747963
31195000000 -17.059441 -9.9408026 -1.0989655 88.37748 -1.1124272 88.266869 -16.833607 -31.60207
31222500000 -17.393194 -12.051761 -1.1057401 87.774246 -1.1102861 87.752853 -16.61412 -31.146227
31250000000 -17.466578 -12.252406 -1.1340512 87.310417 -1.1229804 87.22937 -16.547926 -32.558762
31277500000 -17.167496 -11.365674 -1.1004554 86.760765 -1.1279267 86.739227 -16.904295 -33.935253
31305000000 -17.254662 -12.367661 -1.1115184 86.205009 -1.1005402 85.955399 -16.620195 -34.049152
31332500000 -17.719193 -13.624821 -1.090068 85.469002 -1.0984122 85.523956 -16.614174 -33.761467
31360000000 -17.17543 -12.78467 -1.0974098 85.180214 -1.110972 84.938774 -17.017593 -34.171211
31387500000 -17.28664 -13.192632 -1.0979738 84.659142 -1.1115084 84.414223 -16.785637 -35.007755
31415000000 -17.606535 -15.681979 -1.1055441 83.900581 -1.1110727 83.896996 -16.468262 -34.41684
31442500000 -17.33864 -14.102455 -1.0956424 83.403687 -1.1204205 83.394951 -16.799618 -36.597767
31470000000 -17.456554 -14.695066 -1.1113856 82.777992 -1.100471 82.731346 -16.885641 -36.71838
31497500000 -17.562065 -15.656075 -1.1092935 82.198975 -1.0877306 82.290382 -16.733042 -37.157574
31525000000 -17.452496 -16.510303 -1.0903128 81.788948 -1.1129603 81.728287 -16.811493 -37.766823
31552500000 -17.268702 -16.167202 -1.0870799 81.286102 -1.1151809 81.024193 -16.85932 -38.646118
31580000000 -17.705624 -17.43845 -1.0961035 80.622643 -1.1256185 80.512917 -16.638838 -38.43161
31607500000 -17.644186 -18.429722 -1.0935545 80.073372 -1.1072928 80.031822 -16.795719 -39.636372
31635000000 -17.30994 -16.406254 -1.0940194 79.646362 -1.1126825 79.475594 -16.961235 -40.939823
31662500000 -17.570259 -19.271536 -1.1106491 78.959366 -1.0974958 78.921684 -16.731289 -40.275055
31690000000 -17.703434 -19.57777 -1.0863751 78.353378 -1.1071899 78.36541 -16.756338 -41.514893
31717500000 -17.549139 -17.286726 -1.0917425 77.947372 -1.1068726 77.684959 -17.013706 -43.031635
31745000000 -17.606798 -19.236841 -1.0942435 77.275772 -1.0944993 77.311272 -16.823019 -42.530651
31772500000 -17.885448 -20.785172 -1.0918005 76.772278 -1.1004447 76.658791 -16.881041 -42.188313
31800000000 -17.636887 -20.238997 -1.1062139 76.164314 -1.1360363 76.111725 -17.067118 -43.747356
31827500000 -17.568216 -20.300995 -1.096729 75.500145 -1.1042464 75.54776 -16.974382 -42.891518
31855000000 -17.839432 -22.37924 -1.0976405 75.152275 -1.0786104 74.989761 -16.826189 -43.799519
31882500000 -17.533188 -22.346525 -1.0913341 74.414597 -1.0827774 74.454224 -16.954132 -46.012711
31910000000 -17.759737 -20.924391 -1.092067 74.046997 -1.1033666 73.81842 -17.05554 -45.103371
31937500000 -18.013861 -23.662603 -1.0949256 73.564865 -1.1180215 73.340248 -16.864235 -45.647022
31965000000 -17.788876 -22.963438 -1.0960807 72.865349 -1.1031817 72.706871 -17.105352 -46.854671
31992500000 -17.787121 -22.868174 -1.1081914 72.218628 -1.1223752 72.09623 -17.198282 -46.974636
32020000000 -17.879982 -24.261045 -1.0897003 71.755219 -1.1021904 71.595215 -16.997169 -47.157806
32047500000 -17.958086 -25.514818 -1.0801336 71.251038 -1.1021997 71.17868 -16.973843 -48.626827
32075000000 -18.077164 -23.685472 -1.1006244 70.553871 -1.1115425 70.56971 -17.320887 -49.282536
32102500000 -17.922823 -26.978355 -1.0931586 70.094116 -1.112552 70.000221 -17.046602 -48.408573
32130000000 -18.150631 -26.921379 -1.087553 69.620361 -1.1111192 69.485069 -17.0014 -49.153652
32157500000 -18.047651 -23.868704 -1.1071267 69.004417 -1.1104746 68.873512 -17.256611 -50.2257
32185000000 -18.294565 -28.345362 -1.1147672 68.490219 -1.1025074 68.366249 -17.185867 -50.057789
32212500000 -18.253281 -28.89012 -1.1024662 67.927055 -1.133829 67.832985 -17.200603 -51.26096
32240000000 -18.494129 -29.041801 -1.0936787 67.411171 -1.0975975 67.25753 -17.407595 -53.271599
32267500000 -18.158279 -27.721552 -1.1003507 66.828384 -1.1146127 66.765839 -17.250969 -52.045559
32295000000 -18.377043 -31.204403 -1.0864372 66.227654 -1.0971749 66.145866 -17.152872 -51.434097
32322500000 -18.303999 -29.88826 -1.10549 65.824318 -1.1077764 65.636795 -17.423882 -54.439926
32350000000 -18.370193 -29.455584 -1.0732129 65.18837 -1.0941473 65.13018 -17.523571 -53.623577
32377500000 -18.408785 -31.159901 -1.0918134 64.511635 -1.1130072 64.506454 -17.427706 -52.764168
32405000000 -18.917187 -31.85882 -1.0981895 64.209579 -1.09943 63.987816 -17.456966 -54.958664
32432500000 -18.637344 -31.480007 -1.0952964 63.475269 -1.0766013 63.363289 -17.705757 -55.856213
32460000000 -18.504253 -33.530449 -1.0886884 62.842064 -1.1003643 62.852993 -17.504765 -54.856483
32487500000 -18.732021 -33.709591 -1.0910395 62.396503 -1.0956275 62.3195 -17.480076 -56.484573
32515000000 -18.891069 -32.114796 -1.0846139 61.897728 -1.0963662 61.836628 -17.789339 -58.164108
32542500000 -18.580225 -34.741493 -1.0772299 61.274284 -1.1179724 61.101978 -17.670179 -56.185818
32570000000 -18.603294 -34.776024 -1.0921203 60.710255 -1.1170094 60.693253 -17.557997 -57.038158
32597500000 -19.172741 -35.156837 -1.0999458 60.113945 -1.0899346 60.068134 -17.816608 -59.701393
32625000000 -18.988348 -34.908443 -1.0792522 59.446274 -1.0909777 59.467117 -17.808298 -57.559727
32652500000 -18.784281 -37.399471 -1.0632678 59.190529 -1.0976598 58.893349 -17.595173 -58.69519
32680000000 -19.20352 -35.5121 -1.0865147 58.549885 -1.0928867 58.292747 -17.864645 -61.484203
32707500000 -18.996258 -36.181534 -1.0741869 57.825783 -1.1019875 57.794048 -17.967302 -59.109402
32735000000 -18.843996 -35.984936 -1.0947021 57.300514 -1.0967083 57.305016 -17.690102 -58.331299
32762500000 -19.19577 -39.532444 -1.0797424 56.885338 -1.0883541 56.716278 -17.77463 -60.803329
32790000000 -19.236813 -39.070286 -1.0617814 56.200123 -1.0917832 56.222565 -18.211309 -62.071918
32817500000 -18.926422 -39.653511 -1.0793389 55.727139 -1.0986465 55.538952 -17.915573 -60.414364
32845000000 -19.113781 -40.446659 -1.0813785 55.201523 -1.0828916 55.2159 -17.725792 -62.637321
32872500000 -19.690779 -41.07468 -1.0848448 54.43354 -1.0820403 54.55891 -18.193766 -64.39386
32900000000 -19.0396 -39.947384 -1.0781502 53.966511 -1.0776074 53.927147 -18.156923 -60.7687
32927500000 -19.142843 -40.675179 -1.0908166 53.608463 -1.1029714 53.455994 -17.909344 -62.681602
32955000000 -19.537868 -41.427097 -1.0744488 52.864204 -1.0791935 52.792225 -18.106373 -64.981705
32982500000 -19.248665 -40.566673 -1.0768411 52.422119 -1.0823702 52.196198 -18.309916 -62.872536
33010000000 -19.083153 -41.685852 -1.0917338 51.916245 -1.0852493 51.738369 -18.090813 -63.38438
33037500000 -19.678066 -44.741543 -1.074487 51.21994 -1.080332 51.285244 -18.290598 -66.984123
33065000000 -19.594645 -42.079273 -1.0694962 50.652897 -1.0792271 50.450279 -18.362314 -67.24675
33092500000 -19.40476 -43.2388 -1.0544711 50.120155 -1.0856711 49.981007 -18.238745 -66.14064
33120000000 -19.451223 -46.319332 -1.0850937 49.511196 -1.0976428 49.479591 -18.182468 -66.734413
33147500000 -19.715471 -44.929039 -1.0667088 48.970348 -1.0854936 48.947823 -18.604759 -67.332512
33175000000 -19.375046 -43.516594 -1.053476 48.406616 -1.0775274 48.568222 -18.300714 -67.200211
33202500000 -19.699148 -45.517334 -1.0779557 47.878429 -1.0769917 47.725986 -18.265768 -68.312988
33230000000 -19.919493 -47.257572 -1.0590287 47.390968 -1.0940174 47.355278 -18.771048 -70.276405
33257500000 -19.825792 -45.418648 -1.0554981 46.83934 -1.0772676 46.779999 -18.813932 -68.365372
33285000000 -19.721407 -47.712112 -1.0731552 46.081993 -1.0791125 46.015808 -18.493227 -69.077858
33312500000 -20.152548 -47.914215 -1.0794905 45.681183 -1.0727249 45.591747 -18.58864 -70.747383
33340000000 -20.05409 -45.688625 -1.0582809 44.954727 -1.0783765 45.049179 -18.842012 -68.47776
33367500000 -19.865128 -47.343681 -1.0551836 44.572544 -1.0749426 44.47517 -18.609673 -70.595055
33395000000 -19.893478 -50.821926 -1.0965778 44.126099 -1.0825455 43.913929 -18.600863 -72.332161
33422500000 -20.206564 -49.27523 -1.0504707 43.549934 -1.0760564 43.26321 -18.816378 -71.823166
33450000000 -20.171494 -48.469475 -1.0726703 42.882088 -1.0747997 42.774483 -19.075329 -71.643074
33477500000 -20.159725 -52.066772 -1.0794876 42.10199 -1.085032 42.105209 -18.694635 -74.198601
33505000000 -20.414288 -51.415947 -1.0327029 41.582272 -1.0741385 41.699348 -18.934479 -75.579353
33532500000 -20.30475 -47.63932 -1.0635704 41.023319 -1.0652477 41.128876 -18.989523 -72.516396
33560000000 -19.958967 -52.904079 -1.0628096 40.577148 -1.065863 40.494881 -18.816765 -75.08741
33587500000 -20.229668 -52.698666 -1.059299 40.063419 -1.0748732 40.05386 -19.084969 -74.592804
33615000000 -20.623421 -50.294815 -1.055012 39.652435 -1.0521901 39.530785 -19.149061 -73.659065
33642500000 -20.442942 -52.899559 -1.049814 38.970505 -1.0735154 38.866077 -19.085642 -77.505959
33670000000 -20.307981 -53.277294 -1.0845706 38.438896 -1.0805465 38.281761 -19.59182 -76.462723
33697500000 -20.869535 -51.156967 -1.0586001 37.956238 -1.0924416 37.744549 -19.347424 -73.985085
33725000000 -20.618271 -54.251854 -1.069224 37.199924 -1.0582063 37.302418 -19.413101 -77.451103
33752500000 -20.576813 -54.259888 -1.0648977 36.617592 -1.0733441 36.539703 -19.400085 -78.682617
33780000000 -21.031593 -56.089779 -1.0430599 36.081566 -1.0689895 36.117119 -19.441469 -74.30265
33807500000 -20.791872 -51.237835 -1.0644505 35.594006 -1.0810372 35.407516 -19.717794 -77.976707
33835000000 -20.418308 -55.500568 -1.0743017 35.006748 -1.087432 34.771088 -19.522083 -78.147682
33862500000 -21.097389 -56.976604 -1.0546737 34.366825 -1.066505 34.432594 -20.297857 -77.409264
33890000000 -21.110197 -54.709831 -1.0667498 34.038361 -1.0609323 33.676422 -19.697363 -77.882629
33917500000 -20.600004 -54.370857 -1.0675707 33.347878 -1.076476 33.07151 -19.648939 -80.393257
33945000000 -20.936798 -59.422768 -1.0626066 32.947205 -1.0747513 32.583317 -20.248272 -78.806313
33972500000 -21.689632 -54.708729 -1.0543661 32.256721 -1.0818493 32.092697 -20.143305 -79.529808
34000000000 -21.150827 -57.7383 -1.0541203 31.673555 -1.0729152 31.645599 -19.846048 -81.328056
34027500000 -20.952446 -58.565548 -1.0671116 31.201862 -1.0626796 30.896009 -20.623425 -80.375053
34055000000 -21.812586 -56.649788 -1.0529072 30.50577 -1.0602723 30.487106 -20.525887 -79.466652
34082500000 -21.328306 -55.774315 -1.0378243 29.920774 -1.0612205 29.730978 -20.104191 -80.791199
34110000000 -21.092848 -59.152096 -1.0692389 29.366138 -1.0565113 29.468681 -20.633099 -81.837479
34137500000 -22.230742 -57.728085 -1.0603305 28.776417 -1.0764468 28.706026 -20.449688 -79.135872
34165000000 -21.795662 -55.465912 -1.0484099 28.227858 -1.0720265 28.280256 -20.140207 -82.179207
34192500000 -21.812439 -58.662643 -1.0507414 27.538094 -1.0698435 27.682562 -20.719244 -81.380562
34220000000 -22.062305 -59.531425 -1.0437399 27.360535 -1.0644852 27.126781 -21.205475 -81.553932
34247500000 -22.335127 -59.405796 -1.0764507 26.706585 -1.0878782 26.806372 -20.567331 -82.410614
34275000000 -21.823206 -59.299046 -1.0557619 25.947113 -1.0559125 26.170996 -20.613657 -80.722023
34302500000 -22.147736 -62.424194 -1.0484772 25.595703 -1.0504091 25.524521 -21.729967 -81.63237
34330000000 -22.55612 -60.85693 -1.0558748 24.939775 -1.0562752 24.721167 -21.160093 -82.684296
34357500000 -22.070606 -58.322891 -1.0848631 24.355131 -1.0522561 24.309656 -20.94693 -82.583008
34385000000 -22.209167 -62.078899 -1.0579709 23.665285 -1.0346367 23.715008 -22.162651 -82.636452
34412500000 -23.108564 -62.492393 -1.0538831 23.276947 -1.0540959 23.227842 -21.366549 -82.005661
34440000000 -22.526968 -61.657032 -1.0571327 22.68066 -1.0618293 22.580336 -20.947676 -83.39138
34467500000 -22.64711 -60.689476 -1.0331614 22.193645 -1.052994 22.207445 -22.037548 -83.66713
34495000000 -23.211376 -63.96003 -1.0651571 21.509073 -1.0337453 21.640593 -22.096912 -80.215164
34522500000 -23.216599 -62.377323 -1.0541992 20.969418 -1.0558784 21.035677 -21.343214 -82.101479
34550000000 -23.170515 -60.886765 -1.0445285 20.429207 -1.0687706 20.348953 -22.271263 -84.214142
34577500000 -23.43396 -65.533104 -1.0593007 20.094391 -1.051459 19.858744 -22.80092 -81.759186
34605000000 -23.805782 -64.905891 -1.0828505 19.19816 -1.0678004 19.286428 -21.639797 -83.870003
34632500000 -23.165604 -61.812714 -1.0211912 18.770151 -1.0311761 18.780943 -22.273628 -83.018181
34660000000 -23.979193 -66.94606 -1.062555 18.325571 -1.0504035 18.141794 -23.714554 -81.556366
34687500000 -24.278599 -67.875793 -1.0563898 17.864769 -1.0493279 17.495733 -22.373081 -83.718185
34715000000 -23.974688 -62.931622 -1.0577465 17.135063 -1.0646052 17.053181 -22.167158 -84.208443
34742500000 -24.092665 -64.736435 -1.0587972 16.47278 -1.0658498 16.479395 -23.1819 -84.36924
34770000000 -24.353746 -66.038704 -1.0396745 16.027407 -1.069214 15.905921 -23.464039 -83.566536
34797500000 -24.463449 -62.780518 -1.0369203 15.55671 -1.0599508 15.348825 -22.433062 -85.639343
34825000000 -24.545433 -63.197571 -1.0324942 14.857219 -1.0475799 14.807837 -23.385036 -85.45636
34852500000 -24.903507 -69.176598 -1.0661457 14.312117 -1.0500168 14.351517 -23.549004 -84.367874
34880000000 -24.868494 -63.381733 -1.0338767 13.74219 -1.0539408 13.649446 -22.724724 -83.081802
34907500000 -24.64636 -63.604141 -1.0288672 13.163905 -1.0559415 13.076373 -23.871567 -85.909424
34935000000 -25.32226 -68.688271 -1.052927 12.779327 -1.0752155 12.70477 -24.576668 -85.130829
34962500000 -25.131454 -66.663528 -1.0621606 12.009556 -1.0722855 12.06635 -22.937269 -80.381416
34990000000 -24.966896 -65.669022 -1.0385591 11.4836 -1.047803 11.454874 -24.006237 -86.544395
35017500000 -25.174465 -68.089882 -1.0482172 11.008117 -1.0610424 10.754748 -25.180098 -86.662605
35045000000 -26.508114 -64.5 -1.0343565 10.353683 -1.0368776 10.300584 -23.457012 -80.953186
35072500000 -25.747702 -62.989346 -1.0682962 9.9452753 -1.0488434 9.820961 -23.602474 -84.725304
35100000000 -26.179281 -72.924644 -1.0607747 9.2359524 -1.0738217 9.166975 -25.415777 -83.471832
35127500000 -26.283915 -71.704689 -1.0437001 8.7562275 -1.0658799 8.5871687 -24.996029 -79.14492
35155000000 -26.435432 -66.73632 -1.0372261 7.8859768 -1.0752721 8.1255865 -24.057863 -79.427307
35182500000 -27.289478 -61.535553 -1.0609865 7.5644193 -1.0551893 7.4372725 -25.919037 -87.870308
35210000000 -27.166252 -74.801224 -1.0485507 7.0207086 -1.0820353 6.808125 -25.338644 -81.004402
35237500000 -27.460293 -67.860893 -1.0393449 6.4921293 -1.0483625 6.3311157 -23.933447 -78.719925
35265000000 -27.740589 -65.74041 -1.0430316 5.8948665 -1.0494072 5.6859469 -25.002106 -83.007462
35292500000 -27.042274 -75.269417 -1.0564852 5.1664476 -1.0568883 5.3835878 -26.241755 -84.875473
35320000000 -28.633621 -70.045151 -1.0196115 4.6360207 -1.0638704 4.8046284 -24.244507 -77.794479
35347500000 -27.929163 -66.879791 -1.0400083 4.0477767 -1.0429336 4.103837 -25.724159 -84.75779
35375000000 -28.390095 -75.518135 -1.0470749 3.7996693 -1.0362068 3.5702326 -26.344503 -81.225555
35402500000 -28.498356 -70.415154 -1.0620221 3.0342839 -1.0686333 2.9694796 -25.177998 -75.378044
35430000000 -29.4132 -63.3465 -1.0522386 2.4905131 -1.046036 2.2970295 -25.370861 -79.79789
35457500000 -27.879633 -75.95858 -1.0580161 1.8280101 -1.0685859 1.8567613 -27.156054 -77.353928
35485000000 -28.897507 -71.724258 -1.0551031 1.3364302 -1.0534126 1.2432555 -26.853195 -76.693993
35512500000 -30.278198 -65.667313 -1.0331433 0.82824993 -1.0495985 0.59862226 -25.399479 -81.11657
35540000000 -28.522345 -64.071587 -1.0589885 0.3006281 -1.0546542 0.029155113 -27.043232 -85.823303
35567500000 -28.674593 -78.557205 -1.0647094 -0.4404704 -1.0908356 -0.23041852 -26.829586 -74.636215
35595000000 -30.325399 -57.041706 -1.062472 -0.77215624 -1.076334 -1.2115784 -25.717394 -74.362579
35622500000 -29.883026 -67.442024 -1.0572479 -1.5689403 -1.0751567 -1.4757332 -27.222239 -86.394714
35650000000 -29.327663 -73.081268 -1.0619742 -1.9162087 -1.0597639 -2.0651016 -27.937454 -75.756226
35677500000 -32.000969 -61.351231 -1.0627574 -2.6303394 -1.0297416 -2.5506003 -25.946665 -71.013283
35705000000 -30.965942 -66.871536 -1.0731157 -3.1860187 -1.0825206 -3.177475 -27.211901 -73.851059
35732500000 -30.35754 -75.351074 -1.0585266 -3.4011092 -1.0838749 -3.5810409 -27.928539 -74.902458
35760000000 -31.336828 -65.97393 -1.0438986 -4.0460892 -1.0458512 -4.2402368 -27.141848 -65.155823
35787500000 -31.666712 -53.581394 -1.0393482 -4.8178091 -1.0859795 -4.8273306 -27.412344 -74.15554
35815000000 -29.907909 -66.862961 -1.0687809 -5.6132407 -1.0957428 -5.2733259 -28.653423 -71.160683
35842500000 -32.444389 -75.749443 -1.0533717 -5.9253092 -1.0593628 -5.8539543 -27.809464 -67.948219
35870000000 -32.899887 -51.683239 -1.0787976 -6.5112309 -1.0763757 -6.866982 -27.43259 -66.473167
35897500000 -31.186964 -63.35424 -1.110608 -6.888103 -1.0865034 -7.1096802 -28.613832 -68.500946
35925000000 -32.743366 -63.246864 -1.0395814 -7.6215711 -1.0611616 -7.6814504 -28.327774 -71.391106
35952500000 -33.461029 -46.707386 -1.0524127 -8.3588877 -1.0379847 -8.1815453 -28.277449 -68.355431
35980000000 -30.940742 -51.889256 -1.0629869 -8.8689404 -1.065639 -8.7897902 -27.593586 -66.710373
36007500000 -32.274792 -59.473164 -1.0342041 -9.151391 -1.070192 -9.1416054 -27.218149 -65.26268
36035000000 -34.187366 -43.343235 -1.066376 -9.7893438 -1.0606583 -9.9163618 -28.317539 -58.089359
36062500000 -33.206768 -37.538742 -1.0540949 -10.558569 -1.0778759 -10.496821 -27.903954 -67.040474
36090000000 -30.817553 -60.040752 -1.0892606 -10.803404 -1.0828594 -11.086096 -28.593472 -60.693684
36117500000 -35.057594 -49.207428 -1.0363883 -11.300091 -1.0831749 -11.477321 -27.917034 -58.054005
36145000000 -34.291592 -38.312477 -1.0567137 -12.247245 -1.1001486 -12.223807 -28.891539 -58.378441
36172500000 -31.981632 -48.36105 -1.0798826 -12.639703 -1.1067706 -12.776163 -29.043371 -58.564507
36200000000 -34.933945 -47.202797 -1.0667763 -13.309601 -1.0667675 -13.269301 -29.287037 -55.600113
36227500000 -33.822311 -33.511818 -1.0373591 -13.62202 -1.0435935 -13.748177 -28.532423 -57.344601
36255000000 -31.527962 -30.824903 -1.0691661 -14.263904 -1.0547289 -14.33209 -29.024618 -58.635571
36282500000 -33.094749 -54.983135 -1.0976925 -14.804292 -1.0775214 -14.916971 -27.62505 -49.755913
36310000000 -35.662388 -32.347874 -1.0728225 -15.491384 -1.0794342 -15.500793 -29.600031 -45.374897
36337500000 -32.671619 -19.784613 -1.0670954 -16.157347 -1.0732028 -16.047613 -27.960409 -47.98719
36365000000 -32.096806 -42.917774 -1.0607221 -16.518473 -1.0798759 -16.568928 -29.133051 -48.428764
36392500000 -36.344856 -38.397202 -1.0772412 -17.19318 -1.0479773 -17.065735 -28.86079 -45.416794
36420000000 -31.819805 -12.4325 -1.0412879 -17.865196 -1.0976275 -17.898125 -29.180407 -46.179909
36447500000 -32.274239 -33.918636 -1.072443 -18.205582 -1.0777239 -18.129965 -27.840136 -41.797604
36475000000 -33.710793 -38.318214 -1.0640063 -18.645473 -1.021898 -18.959581 -29.280268 -44.741535
36502500000 -34.383415 -2.4342535 -1.06414 -19.428753 -1.0881995 -19.477043 -29.018747 -39.360611
36530000000 -32.400166 -12.088489 -1.0413449 -20.015631 -1.073524 -20.006084 -27.509174 -41.022652
36557500000 -32.738136 -34.492352 -1.0545146 -20.203421 -1.0762172 -20.487032 -28.638193 -35.165154
36585000000 -32.615753 -5.5326004 -1.0652612 -21.212154 -1.070544 -21.364792 -27.330372 -44.113342
36612500000 -32.011177 -0.47778139 -1.0539247 -21.439245 -1.0477543 -21.645638 -26.819345 -33.296444
36640000000 -32.304619 -32.389984 -1.0489854 -21.902122 -1.0843139 -22.351057 -28.283571 -35.779606
36667500000 -33.147636 7.4424286 -1.1059405 -22.808825 -1.0927092 -22.809336 -29.119457 -31.46385
36695000000 -31.363743 9.3252144 -1.0705189 -23.318365 -1.0685922 -23.311138 -27.32539 -29.760906
36722500000 -31.061863 -17.481153 -1.0645696 -24.030287 -1.0588864 -24.005964 -27.168615 -29.243387
36750000000 -33.54575 -9.1066113 -1.0870327 -24.473211 -1.0885661 -24.5172 -28.219408 -29.847183
36777500000 -30.754341 12.23575 -1.1051764 -24.906668 -1.0792835 -25.140471 -26.62849 -32.456543
36805000000 -30.010857 -9.288125 -1.0769098 -25.601587 -1.0909613 -25.725893 -25.957659 -24.639351
36832500000 -32.255604 -17.222843 -1.0492207 -26.289991 -1.07955 -26.21291 -27.641058 -29.78343
36860000000 -29.876007 19.624517 -1.0783818 -26.692743 -1.0613887 -26.730719 -25.524223 -26.383673
36887500000 -30.036549 2.6343739 -1.1033876 -27.257322 -1.1235892 -26.986666 -25.894625 -21.184574
36915000000 -30.247433 -8.3194618 -1.0978721 -27.784731 -1.0932518 -27.42304 -26.439934 -22.704636
36942500000 -30.442326 20.446028 -1.08885 -28.236385 -1.1016208 -28.383118 -26.254974 -27.34026
36970000000 -29.175488 8.9147921 -1.0879145 -28.726751 -1.0907304 -28.86215 -25.204178 -21.995008
36997500000 -29.893522 -0.80704564 -1.0868974 -29.414537 -1.1071979 -29.32202 -26.080059 -26.381325
37025000000 -29.361782 6.3714619 -1.1144129 -29.846107 -1.0718572 -30.106388 -26.137524 -26.953121
37052500000 -29.17609 18.494812 -1.0893444 -30.503416 -1.0674347 -30.546417 -25.37409 -22.541061
37080000000 -29.24025 -1.0329255 -1.0869972 -31.173014 -1.1008112 -31.054388 -24.986658 -22.930452
37107500000 -28.917711 10.121461 -1.1101989 -31.79435 -1.1069046 -31.756609 -25.418247 -26.987255
37135000000 -29.427246 19.858086 -1.1133715 -32.229282 -1.1068004 -32.320324 -24.752544 -24.370731
37162500000 -28.743567 6.3391242 -1.0860978 -32.486523 -1.0973232 -32.842556 -24.019688 -19.172951
37190000000 -29.269239 0.67281264 -1.0915368 -33.422039 -1.1029471 -33.594055 -24.675894 -25.449982
37217500000 -28.622602 24.590143 -1.0969689 -34.170288 -1.1506199 -33.780094 -24.136356 -23.553473
37245000000 -28.207428 8.9653664 -1.1241575 -34.326931 -1.1123815 -34.505657 -23.644236 -16.848457
37272500000 -27.673677 3.4448199 -1.0988235 -34.975552 -1.0907092 -35.295586 -24.41461 -26.871449
37300000000 -28.254015 16.157551 -1.1117353 -35.653187 -1.0855265 -35.581268 -23.773149 -24.237745
37327500000 -27.60511 12.474361 -1.0858229 -35.87722 -1.0931123 -36.083633 -23.630428 -13.845926
37355000000 -27.325701 1.9592459 -1.0620214 -36.623512 -1.0635403 -36.549805 -23.474703 -20.144875
37382500000 -27.324419 14.793241 -1.1334274 -37.2621 -1.1126162 -37.223549 -23.962332 -22.280214
37410000000 -27.913233 18.136402 -1.0719742 -37.686703 -1.0869612 -37.69981 -22.680929 -17.103456
37437500000 -26.284481 4.0228448 -1.1099923 -38.349602 -1.0664136 -38.30183 -23.148865 -22.090965
37465000000 -27.256495 16.375212 -1.1018637 -38.905022 -1.0925214 -38.843613 -23.306208 -25.190325
37492500000 -27.151011 21.373518 -1.0928481 -39.251007 -1.123022 -39.674927 -22.343971 -20.700741
37520000000 -26.684692 7.1613765 -1.1214552 -39.984203 -1.0922614 -39.913845 -23.021986 -14.972071
37547500000 -26.059122 12.923071 -1.0988762 -40.414555 -1.1061248 -40.780441 -22.940069 -27.045929
37575000000 -26.426392 21.910675 -1.1233618 -41.027519 -1.1040578 -41.147015 -22.769018 -21.817118
37602500000 -26.209578 12.177171 -1.1006389 -41.624306 -1.0864398 -41.732231 -22.462337 -17.129133
37630000000 -25.725668 7.6512828 -1.0727419 -42.263592 -1.1021971 -42.150097 -22.182171 -24.21339
37657500000 -26.799511 15.715007 -1.087742 -42.653076 -1.1351581 -42.663338 -22.545029 -22.032393
37685000000 -26.030519 14.394166 -1.1175042 -43.235619 -1.099252 -43.382324 -22.050806 -17.799345
37712500000 -24.66279 8.2893944 -1.1044748 -43.837475 -1.1003814 -44.11301 -22.194969 -22.980663
37740000000 -25.644178 14.616672 -1.0878104 -44.4841 -1.1591668 -44.210617 -21.830624 -19.977486
37767500000 -25.371199 14.238182 -1.069604 -45.222969 -1.1012913 -45.077667 -21.784912 -16.154751
37795000000 -25.112228 9.2677946 -1.0796403 -45.49889 -1.1278542 -45.760689 -21.429544 -22.367737
37822500000 -25.54105 9.9993362 -1.1157645 -46.292206 -1.0849508 -46.286682 -21.963751 -27.009295
37850000000 -25.811459 21.347229 -1.1126156 -46.592072 -1.1046139 -46.887081 -21.745312 -18.210833
37877500000 -24.324713 8.3835545 -1.0831978 -47.060829 -1.0831723 -47.446766 -21.313038 -19.534393
37905000000 -24.33773 14.441409 -1.1086875 -47.838348 -1.1220337 -47.698765 -21.316561 -26.212294
37932500000 -25.460024 12.718657 -1.1291479 -48.313637 -1.1171825 -48.363857 -21.215918 -20.468353
37960000000 -23.895456 12.281726 -1.068187 -48.893566 -1.1064287 -49.026249 -20.854494 -16.863604
37987500000 -23.981195 10.79226 -1.0713172 -49.324612 -1.0992749 -49.548885 -20.884615 -23.723007
38015000000 -24.592848 11.710896 -1.1141596 -49.967663 -1.1240747 -50.205929 -20.996004 -26.655689
38042500000 -24.140064 11.905121 -1.1036266 -50.498787 -1.1313736 -50.539024 -20.867403 -18.346029
38070000000 -23.172916 11.622007 -1.1289531 -50.891598 -1.1274018 -51.235157 -20.475479 -23.573786
38097500000 -24.14506 11.530107 -1.1256953 -51.584454 -1.1337107 -51.678776 -20.819216 -24.090746
38125000000 -24.212671 11.163778 -1.0868887 -52.306004 -1.1148 -52.414825 -20.818945 -21.547071
38152500000 -23.478945 10.123733 -1.1153408 -52.740162 -1.1349375 -52.89016 -20.597519 -23.069138
38180000000 -23.763445 9.7421942 -1.1224071 -53.397038 -1.1397188 -53.659004 -20.403799 -25.355928
38207500000 -23.421381 12.645159 -1.1108587 -53.867653 -1.1240808 -53.895264 -20.597286 -24.807137
38235000000 -22.888895 10.838467 -1.1216041 -54.640675 -1.1396242 -54.790653 -20.696583 -22.857752
38262500000 -23.01786 8.097559 -1.1160591 -55.057766 -1.1239252 -55.036709 -20.779202 -25.746418
38290000000 -23.596533 14.21458 -1.0914686 -55.663113 -1.1047298 -55.669624 -20.363987 -26.601734
38317500000 -22.790117 8.3686333 -1.1158572 -56.176777 -1.1290287 -56.29092 -20.220657 -21.49612
38345000000 -22.917601 10.10454 -1.1423457 -56.678905 -1.1457198 -56.921906 -19.932302 -27.186384
38372500000 -23.417397 10.84207 -1.1410996 -57.090668 -1.1315886 -57.234756 -20.194023 -23.543045
38400000000 -22.347025 7.6695881 -1.0919708 -57.794556 -1.1271158 -57.854816 -19.818356 -26.805634
38427500000 -22.656763 5.8137188 -1.1487067 -58.51038 -1.1154977 -58.666142 -19.41181 -27.5119
38455000000 -22.378838 7.6021519 -1.1271635 -58.692467 -1.1210729 -59.044205 -20.076784 -27.792065
38482500000 -22.871019 5.589632 -1.0999999 -59.588852 -1.1334294 -59.586914 -20.163271 -27.660311
38510000000 -21.763985 6.4369192 -1.0801704 -60.223473 -1.1443783 -60.141361 -19.866842 -28.020815
38537500000 -22.324875 5.9986782 -1.0985035 -60.822063 -1.1379204 -60.687611 -19.89677 -27.018629
38565000000 -22.263128 9.9011459 -1.1036913 -60.951843 -1.1195371 -61.259693 -19.943214 -28.80871
38592500000 -22.252548 5.2106123 -1.1479051 -61.719276 -1.1384135 -61.846531 -19.642351 -27.185749
38620000000 -21.974323 1.470819 -1.1617781 -62.355263 -1.1202369 -62.291843 -19.323446 -31.754202
38647500000 -22.041079 5.7422576 -1.1308919 -62.664364 -1.1061805 -62.743259 -19.55352 -28.881968
38675000000 -21.63953 4.1519251 -1.1612254 -63.648739 -1.1326764 -63.738861 -19.450399 -30.866718
38702500000 -21.556824 2.0649827 -1.0969276 -64.176666 -1.1995144 -64.177269 -19.606771 -29.972652
38730000000 -22.467657 3.428982 -1.1051034 -64.206619 -1.1347399 -64.483589 -19.776806 -30.748289
38757500000 -21.705582 3.8047357 -1.118469 -64.872055 -1.0982201 -65.130913 -19.048958 -34.581703
38785000000 -21.037102 -0.79683286 -1.153074 -65.707848 -1.1411356 -65.387642 -18.826811 -29.073284
38812500000 -21.885155 0.50250238 -1.109746 -65.95446 -1.1458751 -66.024902 -19.117147 -31.59008
38840000000 -21.776533 4.8843093 -1.1453983 -66.761726 -1.1568484 -66.751976 -19.475311 -30.92569
38867500000 -20.905201 2.5839252 -1.1492847 -67.555809 -1.1478319 -67.481827 -19.220043 -31.275341
38895000000 -21.759295 -0.67998719 -1.1795934 -67.883995 -1.1552885 -67.836258 -19.039516 -30.310043
38922500000 -21.605949 0.22370683 -1.0627087 -68.33625 -1.1422921 -68.282661 -19.412579 -34.487675
38950000000 -20.735619 2.199425 -1.1484402 -69.24649 -1.1505402 -69.227448 -18.901281 -30.84646
38977500000 -21.048149 -0.36065486 -1.1421449 -69.277802 -1.1398249 -69.612152 -18.721928 -30.075083
39005000000 -21.800915 -2.4069598 -1.1336777 -70.028206 -1.1482265 -69.842827 -19.114305 -32.300022
39032500000 -20.711796 1.5226848 -1.1669774 -70.781075 -1.1321869 -70.726334 -18.723913 -33.605629
39060000000 -20.854548 0.06280122 -1.16363 -71.261116 -1.1748425 -71.183922 -18.954632 -31.109751
39087500000 -21.647017 -4.2100234 -1.1410086 -71.575546 -1.1147414 -71.600777 -19.27582 -32.421139
39115000000 -20.928682 2.2315278 -1.1107949 -72.383514 -1.1203672 -72.373543 -18.556301 -35.842003
39142500000 -20.46945 -0.069699004 -1.1537122 -73.227203 -1.1353666 -72.903572 -18.571627 -33.370777
39170000000 -21.254871 -2.9131308 -1.158214 -73.259621 -1.1755122 -73.204544 -18.765856 -33.468384
39197500000 -20.850952 -4.3885674 -1.1140081 -74.073494 -1.162482 -73.809395 -18.602781 -37.377708
39225000000 -20.584091 -0.93864006 -1.1796081 -74.545029 -1.1579274 -74.460541 -18.533667 -36.511559
39252500000 -21.149338 -11.93908 -1.1659889 -74.776169 -1.1667193 -74.829849 -18.810493 -33.797161
39280000000 -21.397512 -7.2887888 -1.1776257 -75.572121 -1.1537223 -75.51593 -18.440737 -37.824215
39307500000 -20.159925 -2.2720425 -1.1305075 -76.209465 -1.1065987 -76.399796 -18.066935 -38.265491
39335000000 -20.261066 -10.69167 -1.1776773 -76.495209 -1.2075398 -76.501617 -18.619957 -31.67993
39362500000 -20.509409 -9.1651669 -1.1255618 -77.031151 -1.1812003 -77.206741 -18.410944 -36.790283
39390000000 -20.318605 -1.2424968 -1.1443744 -77.741943 -1.1299325 -77.849709 -17.754778 -38.282917
39417500000 -20.414965 -6.0480409 -1.1650773 -78.391541 -1.1739849 -78.238762 -18.618452 -35.455956
39445000000 -20.399105 -10.901264 -1.1754894 -78.815681 -1.1319131 -79.062126 -18.181499 -39.500526
39472500000 -20.221157 -1.6495186 -1.1293335 -79.726067 -1.1097673 -79.593094 -17.776882 -40.028446
39500000000 -20.48238 -8.3509436 -1.1027572 -80.139915 -1.1629468 -79.957771 -17.969812 -40.240669
39527500000 -20.059103 -15.803738 -1.1692822 -80.715729 -1.1349052 -80.795555 -18.384611 -39.53109
39555000000 -20.947735 -7.0370803 -1.1392574 -81.074135 -1.183955 -80.770004 -17.787655 -41.971516
39582500000 -20.148376 -9.5662422 -1.1282506 -81.838531 -1.1576581 -81.75235 -17.814114 -38.764023
39610000000 -19.815649 -13.203745 -1.1913785 -82.145882 -1.1575644 -82.10598 -18.38249 -38.89423
39637500000 -19.927555 -10.546144 -1.1824781 -82.742195 -1.1644971 -82.564674 -17.743784 -39.501213
39665000000 -20.401251 -3.4960749 -1.1042647 -83.301849 -1.1256071 -83.576576 -17.692011 -40.828369
39692500000 -19.369991 -15.222425 -1.1450431 -83.847458 -1.1765625 -83.905693 -18.2024 -40.705647
39720000000 -19.802429 -12.072989 -1.2066504 -84.216095 -1.203329 -84.632988 -17.765385 -39.945377
39747500000 -20.547127 -9.2759008 -1.1103495 -84.960411 -1.1562164 -84.824791 -17.273909 -41.309906
39775000000 -20.027729 -16.287004 -1.1721417 -85.633972 -1.1807193 -85.648842 -18.318018 -42.095421
39802500000 -19.561861 -14.498987 -1.2130738 -86.222351 -1.1933783 -86.356659 -18.071474 -41.866539
39830000000 -20.824844 -6.756249 -1.0982594 -86.374565 -1.1238803 -86.739471 -16.998314 -41.721645
39857500000 -19.705139 -12.179616 -1.1472794 -87.122299 -1.168319 -87.166908 -17.67277 -44.133572
39885000000 -19.504215 -16.978445 -1.1683414 -87.811066 -1.1569127 -87.948677 -18.364189 -43.053627
39912500000 -20.665398 -15.134813 -1.1138207 -88.333023 -1.1518593 -88.056351 -17.236212 -45.891331
39940000000 -19.753569 -13.615196 -1.1182841 -88.970169 -1.1827241 -88.976097 -17.081835 -44.53635
39967500000 -19.26613 -18.197056 -1.1626424 -89.636223 -1.1693372 -89.621628 -17.962318 -43.979576
39995000000 -20.166035 -16.937475 -1.1469851 -89.713615 -1.1822183 -89.77301 -17.419226 -43.338772
40022500000 -20.284857 -14.178712 -1.1907349 -90.397942 -1.128019 -90.601524 -16.942173 -46.186337
40050000000 -19.17445 -19.407192 -1.2175925 -91.02433 -1.1771837 -91.201965 -17.994371 -46.106281
40077500000 -19.862791 -17.91568 -1.1575783 -91.505135 -1.1737779 -91.777626 -17.353935 -44.492722
40105000000 -20.300371 -16.791698 -1.154973 -92.305756 -1.1666571 -92.073929 -16.775272 -45.737762
40132500000 -19.249243 -16.174913 -1.1697313 -92.857574 -1.2182387 -92.995735 -17.73414 -49.252613
40160000000 -19.163826 -20.641535 -1.188602 -93.375145 -1.2180089 -93.415894 -17.713005 -46.627563
40187500000 -20.545441 -20.667921 -1.1640185 -93.662468 -1.1697116 -93.598724 -16.699104 -46.801979
40215000000 -19.520327 -21.281919 -1.1756103 -94.243591 -1.19304 -94.160248 -17.282688 -49.224861
40242500000 -19.089649 -18.091995 -1.1919775 -94.978058 -1.1784371 -95.016449 -17.916025 -46.947918
40270000000 -20.520216 -21.791565 -1.1606971 -95.287582 -1.1370627 -95.482155 -16.875 -49.327198
40297500000 -19.423752 -23.756372 -1.1361738 -95.874283 -1.1788324 -96.136208 -17.139002 -50.093616
40325000000 -18.587732 -20.74921 -1.1444963 -96.660545 -1.1428437 -96.525276 -17.600256 -51.656467
40352500000 -19.836981 -26.777874 -1.1551446 -97.03463 -1.1500093 -97.313278 -17.071774 -49.662586
40380000000 -19.901409 -22.867573 -1.1744659 -97.734146 -1.1554195 -97.765884 -16.970785 -51.302113
40407500000 -18.980976 -19.531767 -1.170187 -98.069 -1.1571782 -98.142517 -17.727198 -53.539082
40435000000 -19.718761 -24.283325 -1.1874052 -98.765724 -1.1883324 -98.697952 -17.498314 -50.718399
40462500000 -19.976746 -26.96838 -1.1530197 -99.417351 -1.1264563 -99.508881 -16.886011 -51.702267
40490000000 -18.955252 -21.213387 -1.1737413 -99.563591 -1.180089 -99.762947 -17.100826 -54.653873
40517500000 -19.091803 -26.072889 -1.1454953 -100.72849 -1.1663631 -100.66694 -17.320839 -53.545277
40545000000 -19.72731 -27.759468 -1.1184549 -101.08855 -1.1934142 -101.0279 -16.650343 -51.133129
40572500000 -19.31072 -23.007385 -1.190251 -101.45515 -1.1817712 -101.38482 -17.093235 -54.674778
40600000000 -19.559727 -25.102831 -1.1545347 -102.30855 -1.1120507 -102.47331 -17.483625 -54.723125
40627500000 -19.469299 -29.548851 -1.1356056 -102.74172 -1.160622 -102.90473 -16.724239 -54.174252
40655000000 -19.542091 -28.180336 -1.1532928 -103.48771 -1.1730077 -103.29904 -16.80777 -55.020367
40682500000 -19.207548 -25.886984 -1.171965 -103.59717 -1.1920897 -103.85258 -17.496464 -55.13633
40710000000 -18.948895 -32.357567 -1.176625 -104.33884 -1.1538249 -104.58238 -16.883417 -56.249874
40737500000 -19.665842 -29.056639 -1.1206872 -104.71318 -1.1540416 -105.0677 -16.869711 -57.443645
40765000000 -18.994749 -25.626299 -1.1133941 -105.43843 -1.1488891 -105.56664 -17.399067 -55.761417
40792500000 -19.263203 -30.173931 -1.126986 -106.11284 -1.0761526 -106.02548 -17.049126 -55.914841
40820000000 -19.334515 -33.532948 -1.1480899 -106.54965 -1.1752347 -106.3875 -16.696625 -55.951641
40847500000 -19.189058 -28.836008 -1.1398147 -107.24682 -1.1481146 -107.24509 -17.367361 -59.683422
40875000000 -18.65419 -31.723339 -1.1686605 -107.85123 -1.1751885 -107.76864 -17.312323 -58.375324
40902500000 -19.340523 -33.119759 -1.1302689 -108.18668 -1.1584661 -108.19947 -17.001251 -57.023586
40930000000 -19.113884 -32.067631 -1.1505011 -108.75318 -1.1432879 -108.72784 -17.026901 -59.106388
40957500000 -19.254324 -31.75034 -1.1260946 -109.50182 -1.1359005 -109.62344 -17.477625 -60.016068
40985000000 -18.916098 -34.535801 -1.1281254 -110.04526 -1.1489104 -109.94627 -16.803179 -57.768055
41012500000 -19.118532 -31.201523 -1.1525849 -110.4454 -1.1245348 -110.24687 -17.056021 -63.000797
41040000000 -18.689062 -30.620678 -1.1510473 -110.81407 -1.1941007 -111.23672 -17.360838 -60.522293
41067500000 -18.74395 -33.373119 -1.0758036 -111.64951 -1.1488864 -111.81976 -17.069302 -58.026344
41095000000 -19.323315 -36.207424 -1.181026 -111.96009 -1.186277 -112.60089 -16.92597 -62.379162
41122500000 -19.20443 -29.888494 -1.1415493 -112.53602 -1.194595 -112.71361 -17.117268 -61.800945
41150000000 -18.54797 -39.289909 -1.1867955 -112.98775 -1.1150494 -113.34511 -16.913483 -59.24752
41177500000 -19.021738 -38.654041 -1.1633465 -114.06711 -1.2087661 -114.01811 -17.195189 -62.126034
41205000000 -19.341087 -37.081985 -1.1552922 -114.14082 -1.1585013 -114.40521 -17.049868 -64.527519
41232500000 -18.526264 -37.759838 -1.1525654 -114.71127 -1.1327406 -114.936 -17.347675 -63.573101
41260000000 -19.03087 -39.669735 -1.1373469 -115.65984 -1.1779978 -115.53261 -17.275822 -60.956528
41287500000 -19.286512 -37.385452 -1.1420884 -116.14302 -1.1668091 -116.22258 -17.441893 -63.967487
41315000000 -18.929762 -38.808331 -1.1756252 -116.52527 -1.1659361 -116.74579 -17.417862 -63.198189
41342500000 -18.991095 -40.023869 -1.1389098 -117.21867 -1.0980281 -117.03969 -17.33057 -63.607777
41370000000 -19.680468 -39.377831 -1.1449882 -117.63 -1.1613481 -118.02007 -17.000412 -64.557098
41397500000 -18.886278 -36.276287 -1.1892347 -118.33163 -1.1215608 -118.00772 -17.176249 -64.518936
41425000000 -18.965914 -39.921146 -1.1709036 -118.78672 -1.1605656 -118.88179 -17.105265 -63.848888
41452500000 -19.590292 -41.324505 -1.1760514 -119.56903 -1.149248 -119.38203 -17.407854 -65.475365
41480000000 -19.049778 -39.211399 -1.1900817 -119.63324 -1.1669185 -119.67164 -17.241756 -66.455597
41507500000 -18.608164 -42.496166 -1.1626583 -120.32636 -1.1778178 -120.25067 -17.503365 -66.072296
41535000000 -18.98661 -44.750465 -1.1233705 -121.21475 -1.1138217 -120.96157 -17.250797 -67.598282
41562500000 -19.468065 -39.828724 -1.164709 -121.4678 -1.1165909 -121.45901 -17.271025 -66.928352
41590000000 -18.896996 -41.146099 -1.1535366 -122.07066 -1.1555924 -122.1125 -17.664978 -65.435791
41617500000 -19.083132 -46.239635 -1.124516 -122.69769 -1.1414772 -122.89806 -17.235826 -66.578552
41645000000 -18.917904 -43.203064 -1.1467845 -123.18607 -1.1295292 -123.39696 -17.561392 -68.782135
41672500000 -19.079874 -42.1292 -1.1422621 -123.46299 -1.1548986 -123.63806 -17.577913 -65.895409
41700000000 -18.777857 -46.381435 -1.0995607 -124.69055 -1.1174861 -124.63037 -16.998613 -68.226189
41727500000 -19.080275 -48.230232 -1.1709321 -125.24288 -1.1428972 -124.9864 -17.629728 -69.294357
41755000000 -19.008474 -43.907547 -1.1064875 -125.23842 -1.1620347 -125.71906 -17.889858 -66.427788
41782500000 -18.936747 -48.213509 -1.1584094 -125.93678 -1.1392928 -126.13787 -17.340225 -68.040039
41810000000 -19.173765 -48.125797 -1.1266025 -126.76573 -1.1169019 -126.7644 -17.641037 -71.965981
41837500000 -19.072975 -43.916954 -1.169451 -127.14235 -1.1520392 -127.00336 -17.906525 -68.993965
41865000000 -18.490923 -47.142101 -1.1448483 -127.48239 -1.1967621 -127.66047 -17.434402 -67.291054
41892500000 -19.378527 -52.650055 -1.1383013 -128.39847 -1.1321429 -128.08679 -17.57671 -71.724121
41920000000 -18.986103 -47.041927 -1.1246649 -129.00043 -1.137037 -129.07834 -18.119978 -70.075859
41947500000 -18.844713 -49.278996 -1.1508446 -129.43608 -1.1588598 -129.39915 -17.562647 -67.31797
41975000000 -19.045536 -51.500622 -1.1179124 -129.88644 -1.1481125 -129.59311 -17.293621 -71.999199
42002500000 -19.67433 -50.567726 -1.1288708 -130.4785 -1.1314219 -130.70393 -18.021872 -69.504501
42030000000 -18.894072 -46.929932 -1.1357925 -131.18481 -1.1215216 -130.8929 -17.873318 -68.61171
42057500000 -18.840809 -50.323444 -1.1399622 -131.42313 -1.1306988 -131.39268 -17.56875 -70.009865
42085000000 -19.295362 -53.226971 -1.0860047 -131.93246 -1.1468961 -132.14221 -17.97691 -76.670189
42112500000 -19.403267 -48.335575 -1.1426675 -132.88852 -1.116932 -132.70689 -18.344778 -70.395065
42140000000 -19.32868 -51.462269 -1.1415207 -133.13977 -1.0915265 -133.4787 -17.581539 -68.646049
42167500000 -19.504416 -51.331165 -1.155714 -133.73438 -1.1278123 -133.54253 -17.785755 -75.38446
42195000000 -19.554993 -51.507099 -1.1739397 -134.39117 -1.1617409 -134.45581 -18.391129 -74.029716
42222500000 -19.127037 -54.028732 -1.1495829 -134.75027 -1.1185316 -134.79736 -17.677479 -69.222824
42250000000 -19.352024 -55.419571 -1.1306562 -135.85426 -1.1144249 -135.55746 -17.941744 -75.185822
42277500000 -19.948479 -51.193996 -1.1086916 -136.07466 -1.1208129 -136.27254 -18.467791 -76.507805
42305000000 -19.176645 -58.341919 -1.1551737 -136.63884 -1.1957188 -136.94501 -17.832592 -67.23085
42332500000 -19.278597 -56.284752 -1.1497805 -137.44177 -1.1566443 -137.01433 -17.694073 -71.757736
42360000000 -20.324457 -53.649517 -1.1991469 -137.82739 -1.1186042 -137.94193 -17.986176 -78.581665
42387500000 -19.101936 -58.845196 -1.1977327 -138.57048 -1.149197 -138.75427 -18.39097 -71.009842
42415000000 -18.84807 -56.411312 -1.132413 -138.88387 -1.1815387 -139.05325 -17.684036 -74.514511
42442500000 -20.807402 -57.377693 -1.1052202 -139.25391 -1.1373873 -139.46889 -18.531895 -78.490318
42470000000 -19.468847 -57.658833 -1.1554404 -139.95949 -1.1790165 -139.70392 -18.628178 -74.44944
42497500000 -19.753469 -56.760139 -1.1396087 -140.43974 -1.2059034 -140.63498 -17.784685 -72.011971
42525000000 -19.897247 -61.974991 -1.154794 -141.08983 -1.1389977 -141.37114 -18.29233 -79.883858
42552500000 -20.192629 -58.613297 -1.1335735 -141.9491 -1.1813549 -141.8819 -18.767897 -76.66938
42580000000 -19.083094 -58.463879 -1.2116116 -142.48845 -1.2182045 -142.3535 -18.514656 -70.576157
42607500000 -20.101862 -63.230469 -1.1662467 -142.56841 -1.1847966 -142.82039 -18.094288 -77.852478
42635000000 -20.115149 -60.001862 -1.1306226 -143.56761 -1.1155008 -143.14374 -19.056269 -79.981522
42662500000 -19.878868 -59.28933 -1.1165638 -144.00432 -1.1796291 -144.16812 -18.479637 -73.753029
42690000000 -19.537457 -65.073204 -1.1545401 -144.66666 -1.1629736 -144.59297 -18.565205 -76.109329
42717500000 -21.212069 -64.240631 -1.1329812 -144.64641 -1.1471202 -144.80309 -19.056232 -80.811462
42745000000 -19.574308 -62.747486 -1.08771 -145.38213 -1.1758196 -145.47212 -18.370632 -72.449768
42772500000 -19.678816 -60.547443 -1.1351507 -145.97322 -1.1678526 -146.05426 -18.535799 -77.576057
42800000000 -20.424179 -67.043144 -1.1110493 -146.46254 -1.1378945 -146.54903 -19.387199 -84.366524
42827500000 -20.712423 -62.876175 -1.1194754 -147.4101 -1.128453 -147.53635 -18.852085 -74.126236
42855000000 -19.92366 -60.84177 -1.1887661 -147.98383 -1.1872429 -147.83897 -18.469765 -77.52462
42882500000 -20.189465 -70.170387 -1.1601709 -148.1282 -1.1509306 -148.4462 -18.772709 -82.57135
42910000000 -20.95426 -67.486298 -1.0777023 -148.89256 -1.1301074 -148.989 -18.947952 -79.63134
42937500000 -19.233637 -61.345371 -1.1475221 -149.41006 -1.1888648 -149.6032 -19.41128 -74.624588
42965000000 -20.154518 -68.982803 -1.1278737 -150.26035 -1.1663889 -149.82957 -18.410973 -82.567299
42992500000 -19.895218 -68.13649 -1.1933978 -150.19676 -1.2330712 -150.4966 -19.156384 -77.808044
43020000000 -20.320507 -59.485107 -1.1213038 -151.1142 -1.1163294 -151.25066 -19.395945 -69.499344
43047500000 -20.164612 -65.334602 -1.1481594 -151.85831 -1.1635444 -151.70364 -18.675337 -82.557503
43075000000 -20.220898 -72.64669 -1.1505278 -152.38843 -1.1218441 -152.29219 -18.818626 -81.331268
43102500000 -20.193277 -63.27552 -1.1238809 -152.91948 -1.1508381 -152.66093 -19.225658 -74.208801
43130000000 -20.559404 -67.344727 -1.2101187 -153.30519 -1.2018676 -153.80038 -18.878923 -81.232803
43157500000 -20.013485 -72.67804 -1.1136966 -153.43906 -1.141553 -154.00545 -19.007898 -83.032936
43185000000 -20.253941 -68.132179 -1.1548072 -154.24294 -1.1299852 -154.8329 -19.374014 -78.288651
43212500000 -20.885498 -66.274269 -1.0954477 -154.93126 -1.134518 -155.14937 -19.148016 -75.493912
43240000000 -19.72616 -76.500069 -1.1223665 -155.21689 -1.1814517 -155.55046 -20.555847 -79.832008
43267500000 -21.142965 -70.876053 -1.1305628 -155.98672 -1.1607256 -156.47124 -19.662165 -78.790848
43295000000 -20.991959 -67.638275 -1.1023558 -156.52551 -1.1613245 -156.48105 -19.805235 -75.533531
43322500000 -20.406145 -74.876724 -1.1841563 -157.30708 -1.1591114 -157.32083 -19.444494 -83.717995
43350000000 -20.756838 -71.577278 -1.1370411 -157.30185 -1.1392285 -157.46107 -19.793879 -78.708862
43377500000 -20.919426 -73.130943 -1.1711717 -158.12599 -1.1448423 -158.66794 -19.976517 -74.859215
43405000000 -20.63488 -75.257133 -1.1214221 -158.93855 -1.142055 -158.75366 -19.490463 -78.060181
43432500000 -20.933956 -76.285072 -1.111088 -159.24002 -1.1445583 -159.20236 -19.723953 -86.52272
43460000000 -21.771183 -72.842224 -1.1728507 -160.07722 -1.1627601 -160.35338 -20.064053 -75.376976
43487500000 -20.590448 -74.222977 -1.1334902 -160.33366 -1.177628 -160.17422 -19.333599 -78.649155
43515000000 -20.284815 -75.356247 -1.124895 -160.93413 -1.1873242 -161.66895 -19.379339 -84.247398
43542500000 -22.032387 -75.375343 -1.1935791 -161.91856 -1.1831884 -161.69749 -20.432905 -77.000114
43570000000 -21.263262 -70.811317 -1.094533 -162.24728 -1.1710385 -162.15613 -19.546345 -78.730583
43597500000 -20.527885 -77.317482 -1.1420116 -162.7999 -1.1596202 -163.12534 -20.032948 -82.961082
43625000000 -22.083563 -82.063416 -1.1923707 -163.37157 -1.1505231 -162.95605 -20.209822 -74.283508
43652500000 -22.157518 -76.583656 -1.1378443 -164.15669 -1.1697824 -163.98038 -19.898369 -81.171577
43680000000 -20.883478 -79.150917 -1.1345977 -164.81865 -1.1124767 -164.54292 -20.24892 -85.197235
43707500000 -21.540756 -81.129463 -1.0921316 -165.3708 -1.1039022 -164.82281 -19.770935 -81.156471
43735000000 -22.851688 -78.079453 -1.0827607 -165.44147 -1.1294655 -165.66937 -20.28965 -77.491348
43762500000 -21.33264 -79.358131 -1.130638 -166.31192 -1.1502049 -166.56384 -20.007879 -88.580566
43790000000 -21.318537 -82.77269 -1.1580747 -166.99913 -1.1306239 -166.4492 -20.870749 -82.05162
43817500000 -23.259447 -78.628899 -1.1083378 -166.6405 -1.1997938 -167.42551 -20.446262 -81.430893
43845000000 -21.102165 -79.869446 -1.109266 -168.0593 -1.1266965 -167.98933 -20.396568 -83.701767
43872500000 -20.634159 -83.459518 -1.2070903 -168.24551 -1.113346 -168.52402 -20.52528 -82.419174
43900000000 -22.397247 -88.209633 -1.1164094 -169.28738 -1.1455587 -168.82751 -20.648684 -75.580872
43927500000 -22.193043 -81.04776 -1.1403822 -169.74628 -1.1047235 -169.56578 -20.041708 -82.816353
43955000000 -21.752163 -86.547508 -1.177996 -170.01819 -1.1128449 -170.09825 -21.046656 -80.30616
43982500000 -23.187847 -87.609344 -1.1240194 -170.32367 -1.1741134 -171.16724 -21.066645 -74.802582
44010000000 -23.505203 -87.304359 -1.1111627 -170.68944 -1.144063 -171.3625 -20.115086 -80.298119
44037500000 -21.138241 -79.386841 -1.0927664 -171.82814 -1.1165925 -171.98311 -19.954865 -86.151421
44065000000 -21.89888 -86.694771 -1.1283164 -172.3008 -1.1457989 -172.34549 -21.027393 -72.603134
44092500000 -23.38081 -87.854393 -1.1083187 -172.9763 -1.17854 -172.84297 -20.520954 -79.99118
44120000000 -22.095518 -83.728249 -1.1384139 -173.2394 -1.1134393 -173.33351 -21.143366 -85.837563
44147500000 -21.666342 -84.439636 -1.1240005 -174.28339 -1.1157511 -174.32677 -21.587456 -79.409065
44175000000 -22.812658 -91.442329 -1.1452649 -174.41154 -1.1655293 -174.71494 -20.691563 -76.292572
44202500000 -22.538851 -86.059074 -1.1475784 -175.26669 -1.2081982 -174.91812 -20.859903 -84.633835
44230000000 -22.479673 -84.249733 -1.1711514 -175.79277 -1.1775204 -176.12343 -21.510214 -81.2901
44257500000 -23.413841 -97.021111 -1.1526284 -176.30833 -1.201299 -176.19107 -20.732315 -73.608032
44285000000 -23.373419 -87.639854 -1.0561383 -176.67332 -1.1603951 -176.85059 -20.649944 -80.649185
44312500000 -22.871275 -80.999504 -1.1852703 -177.53934 -1.1126239 -177.64629 -22.174332 -81.654243
44340000000 -22.567179 -90.51384 -1.1157123 -178.24419 -1.213943 -178.29071 -21.678307 -73.746117
44367500000 -24.22328 -94.03788 -1.1331078 -178.2198 -1.117306 -178.39262 -20.844927 -81.198349
44395000000 -23.245163 -85.373398 -1.1479003 -179.04791 -1.093174 -179.17 -21.971113 -82.081512
44422500000 -22.4625 -93.421799 -1.1422224 -179.78522 -1.1655092 -179.64896 -21.917919 -75.396461
44450000000 -24.230806 -88.875984 -1.0983357 179.41568 -1.1291137 179.74922 -20.597658 -81.349838
44477500000 -23.329966 -84.010956 -1.1098659 179.0076 -1.0838327 179.11009 -21.521187 -87.484779
44505000000 -23.651197 -93.830696 -1.122751 178.43619 -1.162937 178.32481 -22.41942 -72.627159
44532500000 -23.409641 -101.42178 -1.1370636 178.10785 -1.1695619 178.33939 -20.516401 -75.045578
44560000000 -23.24658 -85.403824 -1.1152568 177.68144 -1.1447426 177.42747 -21.666773 -83.665436
44587500000 -23.181616 -92.75193 -1.1264763 177.09927 -1.1607035 176.74388 -23.025356 -74.289169
44615000000 -25.127214 -101.02268 -1.0904449 176.19421 -1.1347129 176.06689 -20.498756 -68.765724
44642500000 -23.396515 -93.48645 -1.0955986 175.8457 -1.116693 175.71597 -20.93507 -81.709137
44670000000 -24.108259 -90.369026 -1.172363 175.3981 -1.1588755 175.46597 -23.885807 -74.691864
44697500000 -24.991337 -97.8619 -1.1003693 174.71687 -1.1338983 174.57777 -21.345325 -71.444984
44725000000 -25.497145 -97.303963 -1.092352 174.20151 -1.1449821 173.85435 -20.859707 -83.337845
44752500000 -25.139257 -89.359741 -1.1145715 173.89565 -1.1291372 174.07037 -22.6045 -78.42643
44780000000 -24.018923 -107.94511 -1.1768575 173.34396 -1.1339372 172.76715 -22.472317 -66.875183
44807500000 -25.067961 -97.533257 -1.1456453 172.40791 -1.1775435 172.29247 -20.724991 -75.928871
44835000000 -24.80969 -88.795883 -1.0963684 172.1149 -1.086163 172.11469 -21.495325 -80.820854
44862500000 -25.681833 -97.76712 -1.1338438 171.40709 -1.0912249 171.33517 -23.113138 -66.597893
44890000000 -25.230986 -103.89186 -1.1665528 170.48645 -1.159659 170.63457 -21.117706 -76.064117
44917500000 -26.093191 -92.618538 -1.1844164 170.61888 -1.1495157 170.23161 -21.316969 -80.202087
44945000000 -25.334446 -100.36284 -1.1036038 169.74455 -1.1341255 169.58307 -23.260254 -67.756042
44972500000 -26.297739 -106.10079 -1.1237431 169.08417 -1.1516538 168.73883 -20.766678 -67.555679
45000000000 -25.757071 -88.639969 -1.154218 168.33179 -1.1144015 168.91644 -21.582474 -75.412498
