!Keysight Technologies,N5247B,MY61255062,A.19.80.06
!Date: Thursday, May 21, 2026 12:19:26
!Correction: S11(Cdelta 2-Port  ) 
!S21(Cdelta 2-Port  ) 
!S12(Cdelta 2-Port  ) 
!S22(Cdelta 2-Port  ) 
!S2P File: Measurements: S11, S21, S12, S22:
# Hz S  dB   R 50
1000000000 -25.621735 -17.664955 -0.47323084 -21.27235 -0.47359717 -21.289675 -25.689035 -18.200151
1027500000 -25.58329 -18.7421 -0.47411424 -21.844002 -0.47523057 -21.855427 -25.668413 -18.899549
1055000000 -25.589922 -19.447437 -0.47808769 -22.416794 -0.48083332 -22.437181 -25.68483 -20.129227
1082500000 -25.557871 -19.978542 -0.48327515 -22.988064 -0.4837954 -23.000048 -25.734734 -20.458952
1110000000 -25.587229 -20.907532 -0.48675543 -23.559216 -0.48961607 -23.579933 -25.800318 -21.429821
1137500000 -25.588844 -21.217844 -0.4914448 -24.089399 -0.49431375 -24.113976 -25.848217 -21.129442
1165000000 -25.495066 -21.45993 -0.49247572 -24.65522 -0.49539816 -24.668829 -25.796412 -21.526747
1192500000 -25.390182 -22.311382 -0.4929353 -25.208448 -0.4965722 -25.220089 -25.788652 -22.017843
1220000000 -25.327902 -23.127298 -0.49273378 -25.78022 -0.49501228 -25.791771 -25.721878 -22.867664
1247500000 -25.349476 -23.922234 -0.49562562 -26.356945 -0.49800146 -26.379519 -25.676277 -23.630913
1275000000 -25.377825 -24.4533 -0.49769142 -26.922199 -0.50159526 -26.95093 -25.653484 -24.422228
1302500000 -25.432051 -25.17255 -0.50620764 -27.510927 -0.50816905 -27.531239 -25.772131 -26.001699
1330000000 -25.408062 -25.151873 -0.50749111 -28.037861 -0.50863117 -28.052681 -25.747143 -25.616758
1357500000 -25.37615 -25.757591 -0.50761038 -28.591543 -0.51014096 -28.607903 -25.723194 -26.102182
1385000000 -25.313448 -26.681177 -0.50648105 -29.166893 -0.51088488 -29.181622 -25.686668 -26.907757
1412500000 -25.295525 -27.750813 -0.50998026 -29.735933 -0.51345229 -29.753677 -25.671087 -27.180662
1440000000 -25.287428 -28.178238 -0.51243007 -30.287746 -0.51498127 -30.299829 -25.640499 -27.413263
1467500000 -25.254389 -29.017479 -0.51228333 -30.856165 -0.51578224 -30.87233 -25.593002 -28.202009
1495000000 -25.241669 -29.717419 -0.51390684 -31.422609 -0.51785213 -31.446926 -25.546803 -28.872343
1522500000 -25.24148 -29.904709 -0.51490784 -31.967392 -0.51909471 -31.995476 -25.49053 -29.157347
1550000000 -25.182884 -30.5431 -0.51423466 -32.542465 -0.51704407 -32.561909 -25.415773 -29.95916
1577500000 -25.175318 -31.274231 -0.51866007 -33.129864 -0.52115446 -33.158817 -25.451674 -31.517014
1605000000 -25.171331 -31.595213 -0.51942289 -33.669903 -0.52303213 -33.702496 -25.445444 -31.665977
1632500000 -25.220428 -31.98163 -0.52346927 -34.241451 -0.52636969 -34.260483 -25.457264 -32.581161
1660000000 -25.132627 -32.585144 -0.5217219 -34.786102 -0.52552176 -34.809658 -25.417137 -32.821434
1687500000 -25.090597 -33.392151 -0.52096564 -35.358932 -0.52440822 -35.375088 -25.330797 -33.555183
1715000000 -25.091017 -34.045586 -0.52328032 -35.92654 -0.52524889 -35.945679 -25.327675 -34.273594
1742500000 -25.040482 -35.012764 -0.52321029 -36.489647 -0.52633697 -36.515648 -25.321823 -35.007187
1770000000 -24.998783 -35.862999 -0.52342635 -37.061821 -0.52794558 -37.089741 -25.300161 -35.75565
1797500000 -24.998844 -36.43507 -0.52527755 -37.631317 -0.52769244 -37.65181 -25.284281 -36.300678
1825000000 -24.972174 -37.054337 -0.52667886 -38.197308 -0.53027719 -38.222466 -25.2838 -37.00909
1852500000 -24.929794 -37.987732 -0.5260725 -38.760609 -0.53061265 -38.788185 -25.227722 -37.732357
1880000000 -24.939802 -38.656605 -0.52783334 -39.336021 -0.53095639 -39.359261 -25.216425 -38.616554
1907500000 -24.915392 -39.171234 -0.52819437 -39.90181 -0.53309351 -39.928249 -25.200567 -39.311066
1935000000 -24.849072 -39.854847 -0.53046495 -40.47414 -0.53431231 -40.49147 -25.176235 -40.072266
1962500000 -24.85236 -40.705151 -0.52970165 -41.050484 -0.53601003 -41.071396 -25.159622 -40.854218
1990000000 -24.922028 -41.489983 -0.53531802 -41.627071 -0.54042572 -41.645294 -25.208059 -41.811745
2017500000 -24.903334 -42.019749 -0.53837287 -42.178379 -0.54153782 -42.202156 -25.235266 -42.409958
2045000000 -24.882936 -42.779335 -0.53929716 -42.747993 -0.54196918 -42.758808 -25.205063 -42.998577
2072500000 -24.891541 -43.400932 -0.53968877 -43.301723 -0.54272646 -43.329056 -25.178791 -43.416237
2100000000 -24.849447 -44.198982 -0.53954458 -43.867138 -0.54475027 -43.891376 -25.170698 -43.964703
2127500000 -24.853071 -44.897728 -0.54138798 -44.429638 -0.54602522 -44.462852 -25.145206 -44.841053
2155000000 -24.864029 -45.719227 -0.54240382 -45.000103 -0.54800236 -45.019997 -25.146023 -45.633522
2182500000 -24.85387 -46.31839 -0.54440546 -45.56459 -0.54816914 -45.593445 -25.127995 -46.134003
2210000000 -24.82992 -46.94561 -0.54515964 -46.140823 -0.54998153 -46.156364 -25.087805 -46.784615
2237500000 -24.841648 -47.756687 -0.54627591 -46.705013 -0.55209398 -46.73103 -25.097454 -47.53648
2265000000 -24.823048 -48.405922 -0.54817212 -47.276585 -0.55400479 -47.294773 -25.094313 -48.252842
2292500000 -24.787573 -49.136967 -0.54912168 -47.847923 -0.55540508 -47.867062 -25.056089 -48.804695
2320000000 -24.82999 -49.980377 -0.55220628 -48.412376 -0.55702984 -48.440441 -25.044029 -49.674717
2347500000 -24.822958 -50.567829 -0.55289888 -48.971622 -0.55803466 -48.997581 -25.07185 -50.284592
2375000000 -24.787842 -51.386887 -0.55450386 -49.537476 -0.56041044 -49.565384 -25.069754 -51.030815
2402500000 -24.836285 -51.924526 -0.55655545 -50.109848 -0.56199193 -50.127628 -25.05756 -51.904377
2430000000 -24.840908 -52.847702 -0.55800021 -50.667877 -0.56385201 -50.692039 -25.05442 -52.477909
2457500000 -24.825245 -53.476673 -0.55994099 -51.246666 -0.56471837 -51.261089 -24.999809 -53.386635
2485000000 -24.863129 -54.202942 -0.5614593 -51.813866 -0.56676894 -51.827564 -24.975628 -54.051315
2512500000 -24.897917 -54.949692 -0.56467617 -52.371998 -0.5693599 -52.387386 -25.001324 -54.770412
2540000000 -24.855822 -55.816189 -0.56647843 -52.929802 -0.57198226 -52.960609 -25.054068 -55.544922
2567500000 -24.854324 -56.580509 -0.56764293 -53.495136 -0.57259619 -53.515678 -25.030331 -56.360794
2595000000 -24.902519 -56.93766 -0.56852746 -54.057102 -0.57436359 -54.072292 -25.012211 -56.677971
2622500000 -24.88966 -57.742222 -0.56849265 -54.604778 -0.57503349 -54.636726 -24.98875 -57.396404
2650000000 -24.861031 -58.743542 -0.57170939 -55.175053 -0.57699221 -55.210285 -25.017218 -58.573669
2677500000 -24.860449 -59.281929 -0.57371658 -55.748852 -0.57937455 -55.775085 -24.989155 -58.992447
2705000000 -24.881767 -59.585766 -0.57247072 -56.308342 -0.57977128 -56.345177 -25.006237 -59.831104
2732500000 -24.898119 -60.556381 -0.57538897 -56.866856 -0.58339876 -56.898701 -25.045012 -60.398121
2760000000 -24.8305 -61.32045 -0.57730323 -57.440514 -0.58269888 -57.45512 -25.055084 -60.95668
2787500000 -24.891729 -61.544041 -0.57967597 -58.001339 -0.58474314 -58.02467 -25.034964 -62.280411
2815000000 -24.957943 -62.53989 -0.58044314 -58.567753 -0.58663136 -58.589577 -25.052311 -62.612858
2842500000 -24.927591 -63.47691 -0.58224773 -59.132904 -0.58921432 -59.14769 -25.033884 -63.188068
2870000000 -24.959156 -63.613987 -0.58329338 -59.692451 -0.59008932 -59.707424 -25.01996 -64.067192
2897500000 -24.989315 -64.196846 -0.58438039 -60.256763 -0.59177333 -60.270695 -25.032013 -64.581688
2925000000 -24.951462 -65.677719 -0.58656377 -60.818832 -0.59227979 -60.836018 -25.090403 -65.204811
2952500000 -24.951418 -66.007416 -0.58873761 -61.377781 -0.59410858 -61.39679 -25.079136 -66.230042
2980000000 -24.963186 -66.425079 -0.58921939 -61.945034 -0.59464049 -61.963367 -25.011679 -66.951714
3007500000 -25.008694 -67.417046 -0.59086454 -62.501198 -0.59595156 -62.520935 -25.08857 -67.270081
3035000000 -24.987875 -68.04438 -0.5924747 -63.053043 -0.59870857 -63.075562 -25.101271 -68.307747
3062500000 -25.029646 -68.160149 -0.59396404 -63.618992 -0.60024589 -63.640034 -25.085974 -69.19455
3090000000 -25.032562 -69.327858 -0.59390616 -64.182755 -0.60243523 -64.203011 -25.114809 -69.479073
3117500000 -25.050705 -70.476646 -0.5983476 -64.750526 -0.60183156 -64.767479 -25.199919 -70.252083
3145000000 -25.027205 -70.430275 -0.60004646 -65.317604 -0.60324681 -65.320442 -25.134508 -71.280228
3172500000 -25.018126 -71.174866 -0.60106391 -65.866745 -0.60576028 -65.887856 -25.126917 -71.596397
3200000000 -25.048761 -72.45002 -0.60117811 -66.432083 -0.60762846 -66.438431 -25.241049 -71.96608
3227500000 -25.039379 -72.456642 -0.60189879 -66.995438 -0.60841513 -66.996025 -25.216787 -73.022491
3255000000 -25.043591 -73.136696 -0.60311359 -67.533463 -0.60954803 -67.566681 -25.14325 -73.604645
3282500000 -25.02532 -74.237381 -0.60457718 -68.107056 -0.61133534 -68.124008 -25.273811 -73.593613
3310000000 -25.055922 -74.604538 -0.6055814 -68.665558 -0.61296475 -68.681587 -25.313181 -75.120529
3337500000 -25.037762 -75.177338 -0.60639811 -69.222206 -0.61320353 -69.240288 -25.209721 -76.134453
3365000000 -25.090179 -76.343887 -0.60844195 -69.788513 -0.61448801 -69.796669 -25.294922 -75.907715
3392500000 -25.036671 -76.474617 -0.6095314 -70.333084 -0.61621016 -70.348785 -25.433447 -76.319435
3420000000 -25.070333 -77.269722 -0.6087963 -70.896149 -0.61596942 -70.906021 -25.319393 -78.243706
3447500000 -25.155188 -78.04158 -0.61052102 -71.457962 -0.61599684 -71.471725 -25.291271 -78.035286
3475000000 -25.080324 -78.88028 -0.6089375 -72.021301 -0.61742598 -72.03849 -25.439383 -77.800438
3502500000 -25.116018 -79.542557 -0.61083323 -72.573448 -0.61839741 -72.596863 -25.453939 -79.654305
3530000000 -25.200005 -79.811852 -0.61048526 -73.153351 -0.61636794 -73.16436 -25.337053 -80.310318
3557500000 -25.101206 -80.604225 -0.61042237 -73.709282 -0.61647296 -73.730675 -25.349588 -79.821228
3585000000 -25.1518 -81.52417 -0.60995704 -74.279366 -0.61705387 -74.291641 -25.489843 -80.659454
3612500000 -25.267103 -81.722023 -0.61239511 -74.849213 -0.61677611 -74.856796 -25.468393 -82.453636
3640000000 -25.181396 -82.677872 -0.61316895 -75.414627 -0.61927348 -75.424065 -25.4258 -82.134575
3667500000 -25.178057 -83.564316 -0.61399925 -75.974983 -0.62042183 -75.99649 -25.456667 -82.613197
3695000000 -25.281351 -83.622795 -0.61489296 -76.538597 -0.62112302 -76.559891 -25.52109 -84.065811
3722500000 -25.246893 -84.351135 -0.6178599 -77.109169 -0.62188226 -77.123146 -25.487234 -84.437347
3750000000 -25.208796 -85.519318 -0.61737317 -77.669655 -0.62235188 -77.677986 -25.511124 -84.331245
3777500000 -25.274349 -85.555176 -0.61922008 -78.227638 -0.62381536 -78.238503 -25.567038 -86.105522
3805000000 -25.33831 -85.937523 -0.61965626 -78.79084 -0.62539476 -78.809685 -25.594175 -86.378876
3832500000 -25.264481 -87.322426 -0.6225813 -79.355362 -0.62685508 -79.376076 -25.577776 -86.368446
3860000000 -25.265678 -87.59771 -0.62372184 -79.907776 -0.6292811 -79.932396 -25.615475 -87.595039
3887500000 -25.385513 -87.319908 -0.62388229 -80.481506 -0.63104445 -80.496407 -25.744627 -88.478783
3915000000 -25.332499 -88.902657 -0.62510359 -81.045525 -0.63053411 -81.053429 -25.672628 -88.454506
3942500000 -25.240211 -89.634743 -0.62677407 -81.610611 -0.63246989 -81.619263 -25.692713 -89.539612
3970000000 -25.347441 -89.053986 -0.62779838 -82.161873 -0.63445622 -82.182182 -25.796053 -90.147186
3997500000 -25.441795 -90.159492 -0.62694597 -82.719475 -0.63320297 -82.7369 -25.753321 -90.393509
4025000000 -25.353579 -91.699005 -0.6288715 -83.28331 -0.63384479 -83.291939 -25.737141 -91.328346
4052500000 -25.340511 -91.295052 -0.62921584 -83.840508 -0.63462341 -83.863754 -25.883751 -92.202286
4080000000 -25.499582 -91.433617 -0.62860489 -84.402054 -0.63600832 -84.416534 -25.867985 -92.674164
4107500000 -25.476805 -93.276558 -0.62973624 -84.97538 -0.63611919 -84.988274 -25.857405 -93.449791
4135000000 -25.359379 -93.759087 -0.62846309 -85.538567 -0.63759482 -85.546577 -25.939489 -93.623772
4162500000 -25.488087 -93.278709 -0.63126206 -86.099983 -0.63645339 -86.114273 -25.92087 -94.377113
4190000000 -25.555063 -94.555588 -0.63195485 -86.664742 -0.63805807 -86.690102 -25.953295 -95.19194
4217500000 -25.477959 -95.730957 -0.63161385 -87.225494 -0.63804156 -87.247375 -26.005634 -95.072868
4245000000 -25.513042 -95.448326 -0.63329971 -87.791176 -0.64056951 -87.814903 -26.060499 -96.081703
4272500000 -25.583111 -95.872543 -0.6355738 -88.367859 -0.64085305 -88.374519 -26.057894 -96.822037
4300000000 -25.575783 -97.333099 -0.63451672 -88.923958 -0.6430431 -88.94519 -26.113892 -96.815109
4327500000 -25.558535 -97.509865 -0.63809192 -89.490883 -0.64233088 -89.507423 -26.130459 -97.81942
4355000000 -25.661381 -97.521568 -0.63898611 -90.043236 -0.64410615 -90.074715 -26.14444 -98.840279
4382500000 -25.685015 -98.870155 -0.63972658 -90.618607 -0.64626336 -90.632492 -26.197906 -98.798126
4410000000 -25.667345 -99.537193 -0.6404258 -91.178055 -0.6467551 -91.197166 -26.211487 -99.407578
4437500000 -25.695044 -99.564255 -0.64214092 -91.738167 -0.64691943 -91.761589 -26.276268 -100.30296
4465000000 -25.757425 -100.36428 -0.64400077 -92.304726 -0.65085787 -92.3209 -26.309608 -100.59554
4492500000 -25.753757 -101.34691 -0.64474124 -92.869629 -0.65166175 -92.891533 -26.372499 -101.22687
4520000000 -25.824009 -101.41955 -0.64678758 -93.425743 -0.65191203 -93.440468 -26.389456 -102.12452
4547500000 -25.838739 -101.76295 -0.64665598 -93.994408 -0.65195864 -94.007874 -26.402903 -102.28242
4575000000 -25.842892 -102.94878 -0.64867377 -94.54644 -0.65346915 -94.572067 -26.48221 -102.71959
4602500000 -25.899805 -103.40918 -0.64848745 -95.111122 -0.65518188 -95.139519 -26.520466 -103.81881
4630000000 -25.918089 -103.44078 -0.64983046 -95.669197 -0.65545219 -95.693085 -26.525745 -104.0564
4657500000 -25.91017 -104.38147 -0.65169787 -96.231026 -0.65688956 -96.254692 -26.565235 -104.39517
4685000000 -25.974268 -105.21391 -0.65140224 -96.795448 -0.65837133 -96.820503 -26.627096 -105.24918
4712500000 -26.01963 -105.1272 -0.65304643 -97.357025 -0.65918112 -97.375969 -26.658865 -105.76245
4740000000 -26.054768 -105.77486 -0.65287465 -97.925812 -0.65982413 -97.945358 -26.687605 -105.82048
4767500000 -26.114214 -107.06335 -0.65319777 -98.482361 -0.66059655 -98.502655 -26.770428 -106.98172
4795000000 -26.154634 -107.27926 -0.65571076 -99.046646 -0.66222495 -99.066719 -26.784706 -107.72622
4822500000 -26.181547 -107.47371 -0.65554398 -99.6063 -0.66417032 -99.624878 -26.785873 -107.64836
4850000000 -26.201359 -108.75002 -0.65898287 -100.15331 -0.665088 -100.1834 -26.902735 -108.64148
4877500000 -26.247545 -108.93448 -0.65759242 -100.72646 -0.6658963 -100.7452 -26.910254 -109.21337
4905000000 -26.300461 -109.03151 -0.66120476 -101.29196 -0.66663992 -101.31612 -26.900242 -109.33561
4932500000 -26.322422 -109.97764 -0.66071469 -101.85285 -0.66688949 -101.87745 -26.991543 -109.71658
4960000000 -26.361404 -110.93049 -0.66255027 -102.40985 -0.669801 -102.43501 -27.088474 -110.78426
4987500000 -26.41592 -110.90536 -0.66077465 -102.98273 -0.66961098 -102.99224 -27.045841 -111.06628
5015000000 -26.466858 -111.69323 -0.66343832 -103.5303 -0.67081261 -103.55824 -27.163042 -111.21487
5042500000 -26.498249 -112.55972 -0.66357976 -104.10685 -0.67252004 -104.1143 -27.292719 -112.38171
5070000000 -26.549713 -112.52769 -0.66613984 -104.65566 -0.67248166 -104.67548 -27.206383 -112.66137
5097500000 -26.571716 -113.01167 -0.66713732 -105.22736 -0.67489159 -105.25031 -27.267113 -112.83747
5125000000 -26.621071 -114.0448 -0.66904902 -105.78384 -0.6746406 -105.80608 -27.407173 -113.79528
5152500000 -26.655855 -114.14321 -0.67103279 -106.34494 -0.67685783 -106.3625 -27.340225 -114.15622
5180000000 -26.71487 -114.46888 -0.66995502 -106.91615 -0.67716426 -106.91695 -27.347879 -114.02322
5207500000 -26.722633 -115.70865 -0.67176461 -107.45765 -0.67888546 -107.48291 -27.565063 -115.3003
5235000000 -26.75798 -115.79958 -0.67392862 -108.03225 -0.68041837 -108.04455 -27.480015 -115.91741
5262500000 -26.830847 -116.19805 -0.67291236 -108.58813 -0.68040717 -108.60003 -27.49412 -115.71132
5290000000 -26.88961 -116.95531 -0.67425179 -109.13779 -0.68112814 -109.15949 -27.669538 -116.59931
5317500000 -26.911345 -117.39712 -0.67655259 -109.71413 -0.68365616 -109.72277 -27.748795 -117.42284
5345000000 -27.0196 -117.6405 -0.6759724 -110.26007 -0.68317413 -110.28323 -27.641268 -117.48352
5372500000 -27.046848 -118.53785 -0.67882913 -110.8251 -0.68337226 -110.83894 -27.796461 -117.94707
5400000000 -27.056763 -119.06393 -0.67807412 -111.40026 -0.68733603 -111.40247 -27.905689 -119.35412
5427500000 -27.173437 -119.47945 -0.67951685 -111.94451 -0.6859116 -111.95876 -27.830576 -119.15305
5455000000 -27.209972 -120.19326 -0.68118113 -112.5045 -0.68778878 -112.51861 -27.927698 -119.17922
5482500000 -27.21493 -120.47079 -0.68301934 -113.06029 -0.68849552 -113.0918 -28.128382 -120.59449
5510000000 -27.29925 -120.91042 -0.68188673 -113.61464 -0.68785429 -113.63786 -28.048393 -121.08915
5537500000 -27.365538 -121.63334 -0.68323863 -114.18941 -0.68963921 -114.20529 -28.095564 -120.66712
5565000000 -27.356501 -122.25108 -0.6844613 -114.74522 -0.69082689 -114.76006 -28.273409 -121.71358
5592500000 -27.427347 -122.75966 -0.68667072 -115.30804 -0.69148189 -115.32066 -28.357824 -122.98444
5620000000 -27.541098 -123.54286 -0.68475705 -115.87051 -0.69264942 -115.87547 -28.266926 -122.76007
5647500000 -27.530567 -123.6238 -0.68604076 -116.41341 -0.69307208 -116.44553 -28.414165 -123.34923
5675000000 -27.538347 -123.90506 -0.68616593 -116.98598 -0.69453776 -116.99876 -28.529787 -124.01969
5702500000 -27.710705 -124.81336 -0.68887591 -117.54366 -0.69469118 -117.55894 -28.524151 -124.26331
5730000000 -27.726938 -125.14581 -0.68856251 -118.09814 -0.69593006 -118.11121 -28.585764 -124.44784
5757500000 -27.750515 -125.31743 -0.68984312 -118.67113 -0.69542027 -118.67796 -28.775982 -125.50211
5785000000 -27.902027 -126.14114 -0.6915772 -119.21928 -0.69850445 -119.2451 -28.822945 -126.01075
5812500000 -27.912937 -126.6825 -0.69233674 -119.7849 -0.69867164 -119.79578 -28.874035 -125.88154
5840000000 -27.927893 -126.75385 -0.69179213 -120.33978 -0.69908607 -120.36285 -28.950016 -127.09554
5867500000 -28.091652 -127.2457 -0.69221926 -120.89823 -0.70020765 -120.92075 -29.122173 -127.54959
5895000000 -28.118256 -128.38557 -0.6942808 -121.46549 -0.69980073 -121.48091 -29.124107 -127.82906
5922500000 -28.142887 -128.36485 -0.69364905 -122.01615 -0.70086163 -122.03291 -29.252815 -128.50648
5950000000 -28.244135 -128.50551 -0.69498974 -122.57335 -0.70174325 -122.59374 -29.397594 -129.05241
5977500000 -28.381927 -129.39873 -0.69691133 -123.14353 -0.70275897 -123.1573 -29.508535 -128.84044
6005000000 -28.301428 -130.01068 -0.69558156 -123.69564 -0.70195079 -123.72118 -29.492672 -129.95876
6032500000 -28.395994 -129.73154 -0.69761068 -124.25196 -0.70378894 -124.27773 -29.627079 -130.33943
6060000000 -28.570864 -130.52731 -0.69720185 -124.82475 -0.70364767 -124.83482 -29.845951 -129.97589
6087500000 -28.546421 -131.21762 -0.69924694 -125.37781 -0.70560843 -125.39413 -29.830126 -130.87755
6115000000 -28.576149 -130.76152 -0.69967419 -125.93537 -0.70580029 -125.95203 -29.934278 -131.85164
6142500000 -28.847992 -131.50928 -0.70129848 -126.48926 -0.70583379 -126.52013 -30.156439 -131.38402
6170000000 -28.895048 -132.51537 -0.6997925 -127.04399 -0.70696223 -127.06504 -30.194071 -132.09587
6197500000 -28.76779 -132.35387 -0.70100093 -127.61377 -0.70818943 -127.63591 -30.243378 -133.51566
6225000000 -28.988668 -132.34175 -0.70265186 -128.16463 -0.70805812 -128.19189 -30.610857 -131.87936
6252500000 -29.214027 -133.53868 -0.7028299 -128.73267 -0.70824426 -128.74892 -30.636101 -132.31128
6280000000 -28.934807 -133.77051 -0.70374024 -129.28287 -0.70822203 -129.31374 -30.537712 -134.39221
6307500000 -29.141211 -132.65929 -0.70204204 -129.83607 -0.70921797 -129.86682 -30.808695 -132.75935
6335000000 -29.570442 -133.31505 -0.7014451 -130.39816 -0.70927006 -130.41739 -31.007978 -132.15736
6362500000 -29.332947 -134.75035 -0.70201832 -130.96436 -0.70977998 -130.99034 -30.976429 -135.09062
6390000000 -29.2761 -133.72243 -0.70328307 -131.52049 -0.70847738 -131.53754 -31.233873 -133.94475
6417500000 -29.812216 -133.18422 -0.70117372 -132.07788 -0.70927984 -132.09923 -31.391405 -131.9292
6445000000 -29.757797 -135.29634 -0.70221001 -132.63953 -0.70878702 -132.66402 -31.393496 -135.75957
6472500000 -29.419765 -135.80182 -0.70173079 -133.20151 -0.709566 -133.22581 -31.537027 -134.73012
6500000000 -29.859711 -133.7263 -0.70262814 -133.75885 -0.70873857 -133.78316 -31.785816 -132.05626
6527500000 -30.09141 -134.69891 -0.70148402 -134.31833 -0.70877361 -134.34531 -31.940964 -135.55615
6555000000 -29.810802 -137.21114 -0.70243001 -134.88704 -0.70805961 -134.92368 -32.008152 -135.97632
6582500000 -29.929701 -134.86658 -0.70108122 -135.44916 -0.70757246 -135.47823 -31.961262 -132.19966
6610000000 -30.322363 -134.28767 -0.70161366 -136.01659 -0.70817417 -136.03787 -32.445049 -134.08278
6637500000 -30.183329 -137.35474 -0.70269811 -136.58099 -0.70928621 -136.61104 -32.547241 -136.86031
6665000000 -30.117308 -136.51907 -0.70184851 -137.15334 -0.70900095 -137.17896 -32.171852 -133.39545
6692500000 -30.362591 -134.08449 -0.70067543 -137.71417 -0.70821291 -137.73149 -32.700649 -131.62935
6720000000 -30.535061 -136.82643 -0.70232505 -138.28099 -0.70820469 -138.29927 -33.181656 -135.58997
6747500000 -30.449028 -137.06203 -0.7024492 -138.84123 -0.70961815 -138.873 -32.712284 -135.74269
6775000000 -30.538408 -134.98172 -0.7017405 -139.41249 -0.70978916 -139.44016 -32.727318 -131.82841
6802500000 -30.825777 -136.15253 -0.70441574 -139.98436 -0.70954591 -140.00467 -33.514297 -132.48224
6830000000 -30.790312 -137.07718 -0.70407629 -140.55928 -0.71062076 -140.58101 -33.479767 -136.65685
6857500000 -30.804243 -136.12482 -0.70604205 -141.11934 -0.71507794 -141.14247 -33.072227 -133.24402
6885000000 -31.070835 -136.11209 -0.70728487 -141.67943 -0.71309096 -141.70943 -33.613514 -131.65607
6912500000 -31.043112 -136.51619 -0.70796579 -142.24205 -0.71478468 -142.27356 -34.137882 -135.16675
6940000000 -30.968321 -137.07774 -0.71057993 -142.82141 -0.71636605 -142.84346 -33.59024 -134.02849
6967500000 -31.294886 -136.13434 -0.71140558 -143.37639 -0.71733665 -143.41922 -33.748817 -130.91893
6995000000 -31.309229 -136.18254 -0.71352601 -143.93486 -0.71896356 -143.95836 -34.41214 -132.21841
7022500000 -31.268515 -137.12897 -0.71388268 -144.50075 -0.71903074 -144.52928 -34.320778 -134.36089
7050000000 -31.591347 -136.67245 -0.71580493 -145.07137 -0.72040343 -145.08217 -34.036644 -131.89365
7077500000 -31.645962 -136.34639 -0.71700227 -145.61887 -0.72082728 -145.64638 -34.772434 -129.80739
7105000000 -31.47901 -137.57448 -0.7164799 -146.18005 -0.7229737 -146.2132 -34.976067 -132.41722
7132500000 -31.831213 -137.00476 -0.71580374 -146.74666 -0.72398615 -146.7724 -34.562153 -131.5649
7160000000 -31.974216 -135.50951 -0.71520185 -147.31261 -0.7245602 -147.34164 -34.935017 -128.99118
7187500000 -31.843622 -136.77686 -0.71567494 -147.86685 -0.72415161 -147.89342 -35.781361 -129.64659
7215000000 -32.079388 -136.69179 -0.71803683 -148.4299 -0.72466636 -148.46492 -35.397945 -130.09402
7242500000 -32.35574 -134.74272 -0.72014707 -149.01205 -0.72609586 -149.0318 -35.343143 -126.87113
7270000000 -32.189507 -134.9884 -0.71858722 -149.56544 -0.72532463 -149.57681 -36.196541 -126.4774
7297500000 -32.310642 -136.15065 -0.72117841 -150.13634 -0.72755557 -150.15746 -35.950977 -127.61913
7325000000 -32.579987 -134.30377 -0.72118944 -150.69676 -0.72940093 -150.72456 -35.634235 -124.56297
7352500000 -32.389214 -133.24568 -0.72256339 -151.25883 -0.72944689 -151.27538 -36.433247 -122.8656
7380000000 -32.442295 -135.18877 -0.72503859 -151.8243 -0.73251182 -151.85786 -36.621815 -124.48838
7407500000 -32.717033 -133.76025 -0.72468376 -152.39711 -0.73102134 -152.4095 -36.029171 -123.20581
7435000000 -32.641212 -132.79106 -0.72715831 -152.95412 -0.73249406 -152.97632 -36.439251 -120.10119
7462500000 -32.531567 -133.95891 -0.72913337 -153.5172 -0.73388296 -153.55133 -36.964138 -120.55606
7490000000 -32.781078 -133.4944 -0.73053437 -154.07806 -0.73564947 -154.1097 -36.219688 -119.57091
7517500000 -32.877525 -131.69113 -0.73135006 -154.64165 -0.73896062 -154.66585 -36.599388 -116.87709
7545000000 -32.795574 -133.29947 -0.73150259 -155.20291 -0.73847395 -155.24156 -37.261753 -116.64007
7572500000 -32.781536 -133.4705 -0.73418278 -155.77026 -0.74034727 -155.79245 -36.625957 -117.16578
7600000000 -33.082077 -131.43416 -0.73708415 -156.3304 -0.74346328 -156.35446 -36.607059 -113.96565
7627500000 -32.881889 -132.4146 -0.73847944 -156.88878 -0.74284154 -156.91452 -37.452682 -113.85629
7655000000 -32.887234 -132.82999 -0.74003941 -157.42944 -0.74654549 -157.46988 -37.046219 -115.51466
7682500000 -33.317253 -131.97197 -0.74101532 -157.99461 -0.74620026 -158.02818 -36.807083 -113.04481
7710000000 -33.349251 -131.54887 -0.74014622 -158.54367 -0.74689502 -158.57759 -37.766666 -111.32832
7737500000 -33.213917 -132.54636 -0.74299848 -159.10811 -0.74961394 -159.12943 -37.538803 -110.99745
7765000000 -33.455612 -131.6302 -0.74258572 -159.66737 -0.74834973 -159.69127 -36.979759 -108.44698
7792500000 -33.657585 -130.48711 -0.74435699 -160.21545 -0.74718064 -160.25157 -38.013596 -105.69486
7820000000 -33.43235 -130.91573 -0.74419659 -160.78844 -0.74904114 -160.80663 -38.057816 -106.49075
7847500000 -33.630421 -129.84633 -0.74249727 -161.35078 -0.7509194 -161.37039 -37.074413 -103.64403
7875000000 -33.956142 -129.55667 -0.74607301 -161.91486 -0.75203562 -161.93349 -37.79277 -101.08527
7902500000 -33.719719 -128.69728 -0.74496233 -162.47377 -0.7522437 -162.5014 -38.343704 -100.97762
7930000000 -33.63118 -128.25856 -0.74586463 -163.03572 -0.752047 -163.05888 -37.259594 -99.297852
7957500000 -34.076588 -127.49472 -0.74547368 -163.5938 -0.75427884 -163.61911 -37.649437 -95.937752
7985000000 -34.000397 -127.0806 -0.74873853 -164.15791 -0.75400352 -164.18091 -38.256252 -97.032738
8012500000 -33.707554 -127.14755 -0.74730331 -164.71791 -0.75554687 -164.73625 -37.090313 -95.311272
8040000000 -34.238636 -126.53278 -0.74921989 -165.27597 -0.75614297 -165.30267 -37.262718 -90.247162
8067500000 -34.351437 -125.21342 -0.74948597 -165.83492 -0.75703102 -165.85654 -38.422672 -91.745018
8095000000 -33.801807 -124.36024 -0.75207657 -166.40149 -0.7588532 -166.4337 -36.959045 -92.382072
8122500000 -34.183033 -125.37784 -0.75289541 -166.96852 -0.75955272 -166.99188 -36.687653 -84.876686
8150000000 -34.635708 -123.70749 -0.75701159 -167.53288 -0.76254398 -167.54941 -38.462048 -86.356003
8177500000 -33.984203 -121.73795 -0.75536239 -168.09648 -0.76168942 -168.11296 -37.002728 -91.372803
8205000000 -34.205292 -123.83465 -0.75824004 -168.65244 -0.76402926 -168.6913 -35.761074 -80.582077
8232500000 -34.861973 -122.13432 -0.75973099 -169.21228 -0.7671209 -169.24438 -38.244854 -76.898399
8260000000 -34.125698 -118.9956 -0.76293492 -169.78743 -0.76806396 -169.81801 -37.24382 -92.217171
8287500000 -34.093685 -121.57308 -0.76498896 -170.35007 -0.77103943 -170.3811 -34.543121 -79.161987
8315000000 -34.897575 -120.06293 -0.76789439 -170.9082 -0.77291453 -170.94421 -37.393631 -65.391594
8342500000 -34.05587 -117.13867 -0.7729702 -171.49413 -0.7779479 -171.52452 -38.53233 -94.106781
8370000000 -33.892162 -119.85019 -0.77550614 -172.05919 -0.78230679 -172.07976 -33.281822 -83.246025
8397500000 -35.093464 -117.15324 -0.78286099 -172.59862 -0.78970605 -172.62611 -34.580082 -53.549988
8425000000 -33.861618 -113.47048 -0.7933144 -173.1523 -0.79879713 -173.19818 -43.975739 -87.276062
8452500000 -33.803196 -119.5692 -0.80291039 -173.69063 -0.80603385 -173.72423 -32.275326 -101.87032
8480000000 -35.177948 -111.23508 -0.8155359 -174.17194 -0.82200378 -174.18904 -29.886387 -57.272678
8507500000 -33.155174 -111.37815 -0.83281064 -174.59096 -0.83832371 -174.63612 -36.43523 9.1811323
8535000000 -34.250004 -121.98563 -0.82590741 -174.97301 -0.83267301 -175.02034 -34.912067 -159.02794
8562500000 -33.921989 -102.86166 -0.80572283 -175.26617 -0.80916554 -175.29724 -26.511536 -96.41172
8590000000 -32.545506 -120.19736 -0.76687133 -175.65855 -0.77533937 -175.67458 -26.472265 -37.651203
8617500000 -35.926548 -116.77916 -0.7227236 -176.32193 -0.72796541 -176.35829 -32.035961 32.07037
8645000000 -32.576176 -107.9775 -0.69207931 -177.16681 -0.69931751 -177.19751 -32.738903 -159.0589
8672500000 -33.62513 -122.08662 -0.68107998 -177.94521 -0.68899632 -177.98415 -27.329 -91.331299
8700000000 -34.806339 -105.40271 -0.69492871 -178.62773 -0.7001164 -178.66318 -28.566805 -37.760475
8727500000 -33.022121 -111.97293 -0.71683133 -179.32014 -0.72298104 -179.35831 -43.411373 -23.912622
8755000000 -33.926319 -118.79063 -0.7244758 -179.94466 -0.72962385 -179.9753 -32.313488 -108.15592
8782500000 -33.978462 -106.76494 -0.73320836 179.51334 -0.74123973 179.48151 -29.424328 -65.47921
8810000000 -33.249405 -111.4331 -0.74770212 178.95906 -0.75604624 178.91855 -34.073799 -43.491993
8837500000 -33.991859 -115.31357 -0.75245333 178.37173 -0.75954753 178.33517 -35.516689 -93.296638
8865000000 -33.781258 -108.16415 -0.75383478 177.86345 -0.76156539 177.81625 -30.690514 -75.407623
8892500000 -33.464455 -108.84058 -0.76275349 177.31235 -0.76875669 177.27943 -32.111332 -53.829071
8920000000 -33.828255 -112.13039 -0.76353765 176.75032 -0.77093339 176.70355 -35.251915 -73.990501
8947500000 -33.642712 -108.0025 -0.76560462 176.20105 -0.77011114 176.17632 -31.742188 -77.663887
8975000000 -33.369514 -105.86111 -0.76674747 175.66209 -0.77209282 175.62782 -31.299456 -60.183804
9002500000 -33.732941 -109.09045 -0.76762682 175.10521 -0.77531183 175.05354 -33.960693 -65.299652
9030000000 -33.530056 -107.77684 -0.76724941 174.52211 -0.77481985 174.51634 -32.156784 -77.085503
9057500000 -33.207821 -105.17326 -0.76976532 173.98683 -0.77592611 173.96498 -30.874861 -64.659569
9085000000 -33.43623 -106.46144 -0.77192152 173.42419 -0.77717823 173.39803 -32.495564 -62.449261
9112500000 -33.220516 -106.58413 -0.77270794 172.86711 -0.7790795 172.83051 -32.187202 -74.449265
9140000000 -32.965641 -104.09377 -0.77244568 172.30106 -0.77729094 172.27986 -30.67713 -67.764915
9167500000 -33.133968 -104.48849 -0.77452153 171.755 -0.78052521 171.72101 -31.539066 -62.702415
9195000000 -33.120193 -105.81416 -0.77492845 171.19218 -0.78088558 171.15652 -32.000099 -71.306053
9222500000 -32.837433 -104.01656 -0.7760942 170.62997 -0.78113592 170.59831 -30.572002 -69.744583
9250000000 -32.823967 -103.21681 -0.77589023 170.07539 -0.78360599 170.04808 -30.686499 -63.931782
9277500000 -32.83799 -105.17044 -0.77748692 169.51556 -0.78371853 169.48013 -31.483339 -69.331093
9305000000 -32.591 -102.91066 -0.77631366 168.95186 -0.78501505 168.92661 -30.649622 -70.916496
9332500000 -32.628876 -101.53144 -0.77912474 168.4173 -0.78627259 168.37317 -30.2096 -65.944046
9360000000 -32.666634 -103.93553 -0.78169066 167.83958 -0.78532553 167.80817 -30.891928 -67.693634
9387500000 -32.342735 -103.4221 -0.77978325 167.28221 -0.78804129 167.24677 -30.457809 -71.182358
9415000000 -32.24971 -100.97618 -0.78153288 166.72221 -0.78833336 166.68964 -29.919479 -67.921242
9442500000 -32.317684 -102.47505 -0.78218651 166.16585 -0.78822255 166.12445 -30.302326 -68.133995
9470000000 -32.099094 -102.73053 -0.7814768 165.59521 -0.78928506 165.56953 -30.181505 -71.432274
9497500000 -32.042194 -100.70646 -0.7831496 165.0368 -0.79205918 165.01244 -29.667503 -69.054535
9525000000 -32.061268 -100.98949 -0.78426737 164.48204 -0.79045594 164.45685 -29.737749 -68.476143
9552500000 -31.975349 -102.93575 -0.78655457 163.93178 -0.79213375 163.88786 -29.889378 -71.308983
9580000000 -31.818989 -100.8774 -0.78595549 163.35793 -0.79227418 163.3343 -29.445057 -71.062332
9607500000 -31.809092 -100.91934 -0.7858023 162.80127 -0.79322523 162.76682 -29.286591 -69.539314
9635000000 -31.602442 -102.98011 -0.78670382 162.2433 -0.79283464 162.21489 -29.521009 -71.233887
9662500000 -31.492117 -101.55135 -0.78772533 161.68411 -0.79430765 161.6508 -29.277891 -71.753761
9690000000 -31.472876 -100.4522 -0.7896297 161.13231 -0.79595745 161.09512 -29.041815 -70.946442
9717500000 -31.264025 -101.92924 -0.78892094 160.56453 -0.7953285 160.52466 -29.063576 -71.912018
9745000000 -31.270916 -101.89678 -0.78935897 160.01045 -0.79821068 159.96666 -28.988167 -72.181259
9772500000 -31.245953 -100.75038 -0.79170758 159.44362 -0.79798329 159.42119 -28.727661 -71.384247
9800000000 -31.048672 -101.43089 -0.790914 158.87132 -0.79795748 158.85245 -28.704054 -72.733887
9827500000 -30.959787 -102.34994 -0.79180169 158.33018 -0.79912943 158.29506 -28.751024 -73.421516
9855000000 -31.060461 -100.22433 -0.79354995 157.77322 -0.7995013 157.73758 -28.55666 -73.055099
9882500000 -30.865627 -101.45871 -0.79308665 157.20966 -0.80206275 157.17325 -28.269001 -73.720192
9910000000 -30.730719 -102.28757 -0.79377902 156.64909 -0.8016001 156.61998 -28.426245 -73.835831
9937500000 -30.757219 -101.45809 -0.79568976 156.10405 -0.80184728 156.06912 -28.297428 -73.700264
9965000000 -30.639959 -100.98184 -0.7946592 155.52458 -0.80086231 155.49857 -28.032394 -74.514404
9992500000 -30.485136 -102.72352 -0.79573512 154.97624 -0.80213064 154.93452 -28.08078 -74.861694
10020000000 -30.533028 -102.09181 -0.7963903 154.40579 -0.80313396 154.38599 -28.122416 -74.96386
10047500000 -30.354095 -100.70541 -0.79737049 153.85506 -0.80280262 153.81853 -27.753473 -75.528107
10075000000 -30.142 -102.65339 -0.79695255 153.30351 -0.80630189 153.25336 -27.758661 -76.234634
10102500000 -30.254509 -102.62328 -0.7991901 152.73961 -0.80646616 152.69228 -27.825785 -75.585945
10130000000 -30.242136 -101.2947 -0.79844463 152.18593 -0.80607718 152.14702 -27.608622 -76.11322
10157500000 -29.94849 -102.59274 -0.79813731 151.62119 -0.80629224 151.5878 -27.475588 -77.183556
10185000000 -29.92301 -103.67026 -0.80051929 151.06329 -0.80436122 151.02603 -27.679403 -76.609627
10212500000 -30.094255 -102.02168 -0.79917175 150.49945 -0.80633837 150.47537 -27.426743 -77.082596
10240000000 -29.745285 -102.94922 -0.79880118 149.93269 -0.80671114 149.89603 -27.205132 -78.044029
10267500000 -29.655828 -104.2821 -0.79952091 149.38483 -0.80859172 149.34087 -27.349979 -77.845009
10295000000 -29.897642 -102.70412 -0.80101234 148.82813 -0.80873388 148.7733 -27.237633 -77.881798
10322500000 -29.628855 -103.15713 -0.8009482 148.24251 -0.80930024 148.22081 -26.934727 -79.08757
10350000000 -29.393446 -104.57954 -0.80111259 147.70435 -0.80942845 147.65303 -27.089638 -79.112549
10377500000 -29.616114 -103.74187 -0.80228692 147.1328 -0.81029463 147.09418 -27.058519 -79.300087
10405000000 -29.498222 -103.83304 -0.80459273 146.55775 -0.80912405 146.52267 -26.729511 -80.104485
10432500000 -29.138807 -105.0717 -0.80429429 145.99301 -0.80971819 145.96983 -26.744732 -80.30191
10460000000 -29.317135 -105.06435 -0.80575585 145.43785 -0.81253541 145.42081 -26.845591 -80.553612
10487500000 -29.296824 -105.12836 -0.80687475 144.87469 -0.81444722 144.85335 -26.531576 -81.138344
10515000000 -29.015907 -105.94075 -0.80673075 144.30759 -0.81668574 144.27383 -26.493353 -81.967636
10542500000 -28.989954 -106.32098 -0.80925971 143.76923 -0.81637675 143.72197 -26.609516 -81.46949
10570000000 -29.164457 -105.70181 -0.80906916 143.20151 -0.81423175 143.15654 -26.337212 -81.913223
10597500000 -28.752434 -106.65703 -0.80995464 142.63843 -0.81815529 142.59758 -26.188244 -83.08432
10625000000 -28.641777 -106.69154 -0.80963308 142.07132 -0.81694913 142.06073 -26.395786 -83.092506
10652500000 -28.926069 -107.23827 -0.80881405 141.52559 -0.81730747 141.48526 -26.261578 -82.665237
10680000000 -28.761009 -107.01453 -0.81215996 140.95082 -0.8186816 140.90057 -26.024412 -83.936714
10707500000 -28.397091 -107.55817 -0.81011218 140.39159 -0.8175959 140.34604 -26.162025 -84.392067
10735000000 -28.683439 -107.76275 -0.81344998 139.8317 -0.82231158 139.79753 -26.151661 -84.247749
10762500000 -28.734785 -107.79386 -0.8124705 139.26204 -0.82168257 139.23003 -25.809687 -85.29055
10790000000 -28.225243 -108.29671 -0.81442815 138.71158 -0.82136291 138.66238 -25.86215 -85.985382
10817500000 -28.369202 -108.87915 -0.81405008 138.16344 -0.82265663 138.11839 -26.025183 -85.425102
10845000000 -28.538969 -109.2242 -0.81833965 137.59428 -0.82279557 137.54623 -25.739168 -86.241333
10872500000 -28.201151 -109.10336 -0.81811649 137.01746 -0.82443088 136.99986 -25.627996 -86.990379
10900000000 -28.061483 -109.64066 -0.81810963 136.49103 -0.82654709 136.44142 -25.827063 -86.809319
10927500000 -28.386742 -110.69724 -0.82046384 135.91869 -0.82720125 135.88049 -25.58663 -87.357536
10955000000 -28.07295 -110.6751 -0.8204354 135.36256 -0.82839429 135.31116 -25.401613 -88.48912
10982500000 -27.870251 -110.83385 -0.82132071 134.79718 -0.82801586 134.75386 -25.558809 -88.530533
11010000000 -28.101187 -112.05098 -0.82269764 134.23917 -0.82824767 134.18985 -25.484127 -88.811928
11037500000 -28.073492 -111.51551 -0.82398146 133.67514 -0.83076066 133.62311 -25.254541 -89.581665
11065000000 -27.678814 -111.28098 -0.82321358 133.11253 -0.83240086 133.07506 -25.302551 -89.953705
11092500000 -27.858593 -113.00709 -0.82428062 132.55118 -0.83119696 132.52005 -25.319134 -89.951263
11120000000 -27.951628 -112.87963 -0.82573396 131.99716 -0.8349244 131.9664 -25.103201 -91.092705
11147500000 -27.594055 -112.58646 -0.82502931 131.4417 -0.83596045 131.39732 -25.100761 -91.948868
11175000000 -27.574183 -113.88089 -0.82710445 130.88474 -0.83515906 130.83786 -25.144979 -91.566338
11202500000 -27.771152 -114.67532 -0.82638365 130.31313 -0.83509725 130.29297 -24.933205 -92.247795
11230000000 -27.495306 -113.3746 -0.83054471 129.76912 -0.83674377 129.71616 -24.87311 -93.676079
11257500000 -27.420818 -114.63329 -0.83010405 129.20306 -0.83633578 129.15283 -25.03261 -92.975502
11285000000 -27.609085 -116.26588 -0.83160764 128.64674 -0.83989233 128.60471 -24.873869 -93.557648
11312500000 -27.405825 -114.8735 -0.8314603 128.05862 -0.8380754 128.03543 -24.697603 -95.068069
11340000000 -27.192524 -115.08619 -0.83312237 127.50291 -0.83844584 127.47738 -24.808371 -94.605309
11367500000 -27.375275 -117.21356 -0.83549982 126.94967 -0.84266722 126.9268 -24.788343 -94.512032
11395000000 -27.362274 -116.21861 -0.83710504 126.40239 -0.84455967 126.36999 -24.590561 -96.060371
11422500000 -27.074657 -115.71072 -0.83465302 125.83853 -0.84214997 125.80518 -24.703123 -96.285721
11450000000 -27.127613 -118.06532 -0.83584529 125.28876 -0.84350049 125.2653 -24.695618 -96.466743
11477500000 -27.246727 -118.13553 -0.83755016 124.72411 -0.84446663 124.69055 -24.472755 -97.843269
11505000000 -27.009409 -117.17062 -0.83896303 124.15701 -0.84640986 124.12106 -24.483055 -98.503334
11532500000 -26.95182 -119.06363 -0.83948654 123.60454 -0.84802794 123.57844 -24.531914 -98.129578
11560000000 -27.054445 -120.26567 -0.83974284 123.04529 -0.84795243 123.01057 -24.313456 -98.905548
11587500000 -26.970303 -118.71852 -0.84136254 122.48473 -0.84638184 122.44031 -24.328302 -100.12483
11615000000 -26.78429 -120.0806 -0.8430683 121.92518 -0.84743953 121.89518 -24.413979 -99.753571
11642500000 -26.882147 -120.97327 -0.84427327 121.37299 -0.85034525 121.34588 -24.307356 -100.2087
11670000000 -26.868652 -120.34441 -0.84393024 120.81681 -0.84990507 120.78461 -24.177929 -101.5079
11697500000 -26.744135 -120.51116 -0.84398651 120.26977 -0.85297561 120.22443 -24.283476 -101.55954
11725000000 -26.775881 -122.61571 -0.84437543 119.70197 -0.85190177 119.67741 -24.201063 -101.67794
11752500000 -26.847178 -122.42702 -0.84478796 119.14903 -0.85375887 119.12026 -24.095154 -102.81671
11780000000 -26.625223 -122.17796 -0.84639162 118.59546 -0.85469198 118.56281 -24.19488 -103.38995
11807500000 -26.560852 -123.84622 -0.84854156 118.02659 -0.8544181 117.99863 -24.122749 -103.503
11835000000 -26.646448 -124.55038 -0.850559 117.47837 -0.85665303 117.43414 -23.93997 -104.5359
11862500000 -26.525673 -123.93387 -0.85012293 116.92515 -0.8550393 116.88268 -24.018402 -105.38926
11890000000 -26.357382 -124.40702 -0.85014218 116.35778 -0.85914654 116.31886 -24.044188 -104.85987
11917500000 -26.510784 -125.91953 -0.85137177 115.81036 -0.85849983 115.78378 -23.860752 -105.97981
11945000000 -26.510986 -125.72067 -0.85086036 115.25031 -0.85847843 115.21066 -23.901245 -106.61337
11972500000 -26.255604 -125.90361 -0.85108614 114.69438 -0.85875976 114.66545 -23.994358 -107.12592
12000000000 -26.261616 -126.74901 -0.85252768 114.15604 -0.8620137 114.1117 -23.843897 -107.41698
12027500000 -26.358158 -126.94583 -0.85282379 113.58478 -0.85923111 113.54157 -23.815201 -108.51936
12055000000 -26.152563 -126.59795 -0.85436451 113.02548 -0.86131889 112.98926 -23.999603 -109.04691
12082500000 -26.126343 -127.82002 -0.85207218 112.47079 -0.86037457 112.43668 -23.809597 -109.42649
12110000000 -26.274727 -128.4561 -0.85437679 111.90427 -0.8621788 111.87891 -23.734774 -110.27611
12137500000 -26.110376 -128.22493 -0.85436863 111.36107 -0.86161339 111.32703 -23.879915 -111.39877
12165000000 -25.996815 -128.86694 -0.85500401 110.80385 -0.86441517 110.77042 -23.736599 -111.17264
12192500000 -26.154604 -130.23174 -0.85447675 110.23637 -0.86153573 110.21292 -23.610214 -111.46905
12220000000 -26.119446 -130.25803 -0.85663253 109.68878 -0.86338115 109.64711 -23.77739 -112.55154
12247500000 -25.941923 -130.502 -0.85940021 109.12913 -0.86376047 109.09816 -23.755728 -112.93063
12275000000 -26.112942 -131.89188 -0.85738242 108.5828 -0.86357635 108.54536 -23.515827 -113.22779
12302500000 -26.08008 -132.10814 -0.85566151 108.0159 -0.86408073 107.99173 -23.630621 -113.90685
12330000000 -25.863716 -132.10971 -0.85766655 107.45289 -0.8647055 107.42681 -23.741215 -114.6185
12357500000 -25.947706 -133.52475 -0.85858566 106.91533 -0.86494112 106.87442 -23.439726 -114.79107
12385000000 -26.01825 -133.94934 -0.85815257 106.33368 -0.86399382 106.31194 -23.542416 -115.45911
12412500000 -25.837069 -133.45302 -0.85684156 105.78028 -0.86481827 105.7515 -23.769478 -116.46295
12440000000 -25.840164 -134.99535 -0.85724109 105.23764 -0.86494368 105.1915 -23.512516 -116.90211
12467500000 -25.923004 -135.62413 -0.85700965 104.67333 -0.86430115 104.63299 -23.433643 -117.49241
12495000000 -25.77511 -135.18892 -0.85896987 104.11322 -0.86679178 104.09151 -23.686775 -118.21763
12522500000 -25.672319 -135.60629 -0.85833806 103.5565 -0.8652305 103.52474 -23.552248 -118.69186
12550000000 -25.783892 -137.00417 -0.85722595 103.00745 -0.8663497 102.95998 -23.393719 -119.17022
12577500000 -25.707567 -136.53242 -0.85981637 102.43465 -0.86752284 102.40485 -23.634405 -119.87542
12605000000 -25.636093 -136.77959 -0.85903615 101.87997 -0.86705858 101.86708 -23.63633 -120.70589
12632500000 -25.701395 -138.36763 -0.856264 101.3399 -0.86675799 101.29365 -23.404503 -121.10882
12660000000 -25.70577 -138.40941 -0.86117435 100.77607 -0.86873651 100.74324 -23.533703 -121.83373
12687500000 -25.592739 -138.35861 -0.86118031 100.20914 -0.86793 100.18392 -23.647102 -122.18149
12715000000 -25.653786 -139.8824 -0.85834432 99.64827 -0.86731678 99.63282 -23.432669 -122.42125
12742500000 -25.703461 -140.42833 -0.85894275 99.097748 -0.86689579 99.064079 -23.450468 -123.65501
12770000000 -25.627392 -140.41484 -0.85925794 98.537621 -0.86986798 98.514153 -23.647518 -124.25089
12797500000 -25.604893 -141.37537 -0.85880393 97.98793 -0.86707056 97.959724 -23.475838 -124.18645
12825000000 -25.700294 -142.70937 -0.86059803 97.432999 -0.8682664 97.393059 -23.387564 -125.07568
12852500000 -25.671659 -141.92422 -0.86126494 96.859467 -0.86915582 96.843819 -23.642826 -125.91312
12880000000 -25.584347 -143.06593 -0.86166328 96.310768 -0.86932528 96.272644 -23.521965 -125.63445
12907500000 -25.653313 -144.63388 -0.86294568 95.748131 -0.86917669 95.721672 -23.418262 -126.57413
12935000000 -25.682852 -144.04391 -0.86156386 95.191116 -0.86838591 95.152695 -23.596804 -127.92513
12962500000 -25.597843 -144.6924 -0.8620187 94.64373 -0.86817789 94.602936 -23.604979 -127.45728
12990000000 -25.663206 -146.20457 -0.8621273 94.073807 -0.86845547 94.04834 -23.452196 -127.86217
13017500000 -25.688618 -146.11635 -0.8612327 93.516563 -0.87048632 93.483696 -23.599531 -129.45372
13045000000 -25.650833 -145.72173 -0.86250776 92.951195 -0.8694331 92.919899 -23.671064 -129.18791
13072500000 -25.60787 -147.54575 -0.86426139 92.391121 -0.8692162 92.36525 -23.503077 -129.57063
13100000000 -25.705023 -147.93867 -0.86334389 91.831009 -0.86963332 91.801468 -23.558399 -131.15109
13127500000 -25.707462 -147.45184 -0.86436749 91.270279 -0.87110853 91.24366 -23.707176 -131.32159
13155000000 -25.535858 -148.88742 -0.86139023 90.718163 -0.87093043 90.682755 -23.62678 -130.94565
13182500000 -25.713406 -149.9659 -0.86314398 90.158073 -0.87046862 90.128227 -23.578344 -132.78757
13210000000 -25.727322 -149.10086 -0.8638438 89.592331 -0.87135845 89.561256 -23.710381 -133.51338
13237500000 -25.618225 -150.07007 -0.86143535 89.039551 -0.8695786 88.999641 -23.724756 -132.48936
13265000000 -25.6453 -151.64937 -0.8636139 88.484573 -0.87176186 88.44046 -23.605961 -134.08102
13292500000 -25.82703 -151.0506 -0.86430651 87.924454 -0.87152708 87.882126 -23.718218 -135.42885
13320000000 -25.68767 -151.50493 -0.86303979 87.37323 -0.87034839 87.335068 -23.789366 -134.437
13347500000 -25.656363 -153.33653 -0.86373138 86.818199 -0.86953115 86.766472 -23.675909 -135.34901
13375000000 -25.926369 -153.30278 -0.86490923 86.246086 -0.87057549 86.208351 -23.725704 -136.95509
13402500000 -25.818441 -153.11818 -0.8636452 85.681534 -0.86968076 85.651596 -23.838512 -136.11577
13430000000 -25.699991 -154.47424 -0.86380023 85.148056 -0.87002736 85.084389 -23.768579 -136.6989
13457500000 -25.937441 -155.4711 -0.86482173 84.567657 -0.87037563 84.535217 -23.724878 -138.32246
13485000000 -25.922157 -154.84886 -0.86275184 84.018105 -0.86937463 83.975632 -23.884905 -138.09579
13512500000 -25.813551 -155.56422 -0.86260372 83.456749 -0.86992806 83.418587 -23.882835 -137.82399
13540000000 -25.995316 -157.38669 -0.86353272 82.894707 -0.8710342 82.84478 -23.786283 -140.18079
13567500000 -26.121489 -157.38101 -0.86314684 82.336472 -0.87223744 82.29155 -23.902412 -140.16298
13595000000 -25.904745 -157.13866 -0.86321568 81.770546 -0.86809474 81.716843 -23.989449 -139.30853
13622500000 -25.942526 -159.12306 -0.8636657 81.212006 -0.87139452 81.156197 -23.913797 -141.4839
13650000000 -26.116299 -159.44019 -0.86304265 80.652657 -0.87235391 80.604111 -23.953964 -142.18837
13677500000 -26.055578 -158.93816 -0.86173463 80.082413 -0.86819935 80.04184 -24.103098 -141.22289
13705000000 -25.984547 -160.25563 -0.8645131 79.527435 -0.86918521 79.483223 -24.052568 -142.78932
13732500000 -26.223289 -161.59647 -0.86265743 78.963821 -0.86927438 78.919609 -23.975164 -143.94858
13760000000 -26.257862 -160.89917 -0.86225647 78.402718 -0.86667013 78.357941 -24.197393 -143.11165
13787500000 -26.044121 -161.57545 -0.86256081 77.852486 -0.86903751 77.794754 -24.162079 -144.10405
13815000000 -26.266472 -163.75398 -0.8615607 77.265755 -0.87074757 77.246239 -24.092556 -145.81294
13842500000 -26.373922 -162.90392 -0.86120147 76.722321 -0.86817724 76.670097 -24.23325 -145.12035
13870000000 -26.190342 -162.53882 -0.86108977 76.150009 -0.86889523 76.111076 -24.263256 -145.50354
13897500000 -26.379709 -165.28027 -0.86162698 75.605995 -0.86923802 75.547928 -24.172764 -147.51164
13925000000 -26.507906 -165.37619 -0.86251062 75.026855 -0.86983067 74.989815 -24.292421 -147.25233
13952500000 -26.439081 -164.37617 -0.86149532 74.460007 -0.86851078 74.421738 -24.448843 -146.9342
13980000000 -26.346972 -166.99585 -0.86188108 73.904701 -0.87018806 73.860107 -24.263855 -149.10248
14007500000 -26.533863 -167.69659 -0.86284685 73.350594 -0.86920989 73.296356 -24.353865 -149.00664
14035000000 -26.621077 -165.83652 -0.86095589 72.779526 -0.86664993 72.727814 -24.603159 -148.74136
14062500000 -26.511396 -167.68381 -0.86352515 72.210602 -0.86993754 72.160614 -24.442257 -150.20697
14090000000 -26.644766 -169.31065 -0.86525041 71.653748 -0.87151194 71.604156 -24.461647 -150.82909
14117500000 -26.808256 -167.9711 -0.85893768 71.068756 -0.8696093 71.048889 -24.714859 -150.30034
14145000000 -26.664078 -168.82854 -0.86435264 70.503235 -0.87032688 70.467827 -24.636425 -151.64528
14172500000 -26.658461 -171.13054 -0.86382395 69.952126 -0.86924088 69.90432 -24.547798 -152.55247
14200000000 -26.933016 -170.16098 -0.86417007 69.382622 -0.86936736 69.333473 -24.803411 -151.95206
14227500000 -26.935202 -170.06445 -0.86477816 68.810036 -0.87249219 68.768234 -24.79273 -152.83727
14255000000 -26.760103 -173.00327 -0.86569178 68.263367 -0.87442428 68.219101 -24.705786 -154.31096
14282500000 -26.952703 -172.79797 -0.86658925 67.684822 -0.87307197 67.638359 -24.920202 -153.81956
14310000000 -27.113966 -171.82535 -0.86839223 67.120049 -0.87264311 67.086823 -24.982515 -154.56613
14337500000 -26.908844 -173.68086 -0.87111932 66.55838 -0.8773427 66.504501 -24.789864 -155.62933
14365000000 -27.026833 -175.12758 -0.87087506 65.990639 -0.87795609 65.941376 -25.031237 -155.57901
14392500000 -27.222439 -173.44788 -0.86982715 65.427597 -0.8781994 65.380234 -25.210974 -155.89038
14420000000 -27.138657 -174.32498 -0.87278175 64.869232 -0.88071483 64.806541 -25.020048 -157.16313
14447500000 -27.100174 -176.47353 -0.87446481 64.302063 -0.8807497 64.248566 -25.16539 -157.11717
14475000000 -27.356598 -175.54346 -0.87292224 63.732285 -0.88000536 63.69305 -25.402994 -157.3905
14502500000 -27.28776 -175.38463 -0.87554169 63.180847 -0.8832311 63.127949 -25.169369 -158.39735
14530000000 -27.171885 -177.86871 -0.87843138 62.617397 -0.8842721 62.565327 -25.268106 -158.74492
14557500000 -27.443995 -177.94913 -0.8787806 62.05537 -0.88581073 62.002544 -25.558098 -158.79648
14585000000 -27.516905 -176.55396 -0.88174129 61.48988 -0.88723207 61.443466 -25.385246 -159.53499
14612500000 -27.350027 -178.27835 -0.88026148 60.920063 -0.88645452 60.88335 -25.367027 -160.0981
14640000000 -27.557236 -179.49525 -0.88463289 60.378853 -0.89088362 60.329361 -25.687704 -160.26897
14667500000 -27.741821 -178.38533 -0.88421339 59.805656 -0.89066118 59.748821 -25.550709 -160.68591
14695000000 -27.517302 -178.67844 -0.88883144 59.24847 -0.89383543 59.210541 -25.406857 -161.11021
14722500000 -27.573364 179.12807 -0.88645768 58.692287 -0.89522982 58.645912 -25.772429 -161.49918
14750000000 -27.824446 179.83061 -0.88657928 58.144604 -0.89342582 58.080597 -25.700518 -162.39401
14777500000 -27.735373 -179.56282 -0.88990653 57.580837 -0.8976813 57.541935 -25.491369 -162.50578
14805000000 -27.575298 177.79564 -0.89338732 57.021389 -0.89845228 56.968529 -25.843655 -163.15277
14832500000 -27.96361 178.33939 -0.89384365 56.470455 -0.90187269 56.427334 -25.888065 -163.81775
14860000000 -27.957506 178.40306 -0.89451313 55.917183 -0.90428042 55.866535 -25.597765 -164.03886
14887500000 -27.694868 176.91325 -0.8929317 55.365974 -0.90273941 55.308609 -25.910126 -165.3367
14915000000 -27.833189 176.05951 -0.89725095 54.83543 -0.90268141 54.755863 -26.081215 -166.26196
14942500000 -28.068468 176.84242 -0.89693016 54.250973 -0.90569258 54.21188 -25.745102 -166.0477
14970000000 -27.846712 175.61757 -0.89735854 53.69862 -0.90383512 53.657505 -25.961454 -166.82239
14997500000 -27.816025 174.22153 -0.8971265 53.156815 -0.90271968 53.107948 -26.277639 -168.57013
15025000000 -28.201956 174.77994 -0.89726812 52.581936 -0.90413857 52.528019 -26.051449 -168.28741
15052500000 -28.091385 174.16074 -0.897165 52.036343 -0.90503061 51.982998 -26.094046 -168.61482
15080000000 -27.978025 172.79198 -0.8972885 51.471516 -0.90367001 51.410755 -26.596487 -170.38261
15107500000 -28.417282 173.20663 -0.89511687 50.925888 -0.90507716 50.859406 -26.326199 -169.96463
15135000000 -28.463419 172.73723 -0.89751482 50.351776 -0.90514028 50.299583 -26.307209 -169.86319
15162500000 -28.082994 171.6779 -0.89978826 49.774944 -0.90682411 49.726749 -26.781069 -171.86494
15190000000 -28.520832 171.04591 -0.89684933 49.219875 -0.90597671 49.15572 -26.733057 -172.00391
15217500000 -28.773659 171.64441 -0.90136874 48.66103 -0.90775174 48.606525 -26.485306 -171.05301
15245000000 -28.397133 170.58658 -0.90037107 48.079494 -0.90923744 48.039047 -26.962587 -173.39928
15272500000 -28.57193 170.44939 -0.9040162 47.537033 -0.91097969 47.483459 -27.077196 -173.68323
15300000000 -29.034983 170.24947 -0.90520912 46.979992 -0.91345698 46.930126 -26.714149 -172.19489
15327500000 -28.598146 169.44958 -0.9056288 46.413208 -0.91382533 46.376427 -27.02562 -174.16327
15355000000 -28.518118 169.20453 -0.90975958 45.880661 -0.91760069 45.828987 -27.32 -175.48343
15382500000 -29.192101 168.98701 -0.90997219 45.323265 -0.91897589 45.264595 -26.935734 -174.01778
15410000000 -28.90937 167.68375 -0.90992367 44.764275 -0.91987735 44.73283 -27.100239 -175.10178
15437500000 -28.635992 167.44699 -0.91179872 44.224483 -0.9193911 44.181503 -27.521097 -178.02025
15465000000 -29.180586 166.77412 -0.91135132 43.6716 -0.91874367 43.606758 -27.180119 -176.28531
15492500000 -29.18206 165.48457 -0.90952498 43.132721 -0.91796523 43.084167 -27.247269 -176.68794
15520000000 -28.78315 165.47334 -0.91090626 42.58017 -0.92041743 42.528889 -27.752275 179.70853
15547500000 -29.279196 165.02402 -0.91038591 42.011284 -0.91569281 41.964237 -27.644445 -179.30818
15575000000 -29.503746 163.26089 -0.90710413 41.46204 -0.91693473 41.430618 -27.404484 -178.82841
15602500000 -29.073637 163.36903 -0.9086346 40.898327 -0.91791731 40.838856 -28.006882 177.93993
15630000000 -29.431032 162.99208 -0.90754378 40.342243 -0.91688645 40.289501 -28.126436 177.67682
15657500000 -29.932404 161.01689 -0.90597767 39.7827 -0.91341162 39.729618 -27.838463 179.47458
15685000000 -29.500883 161.41093 -0.90542024 39.220531 -0.91570175 39.16761 -28.253868 176.556
15712500000 -29.655315 161.29367 -0.90460718 38.665161 -0.91321391 38.622036 -28.621611 175.24789
15740000000 -30.220892 159.763 -0.90638584 38.093479 -0.91425604 38.053085 -28.362835 177.35527
15767500000 -30.07053 159.52803 -0.90812248 37.526886 -0.91649193 37.482662 -28.489199 175.60193
15795000000 -29.864801 160.43529 -0.90813589 36.987545 -0.91641837 36.9235 -29.071791 173.08798
15822500000 -30.489332 157.63768 -0.90656513 36.408806 -0.91612399 36.354881 -28.909241 175.26633
15850000000 -30.476583 158.05611 -0.90661234 35.855877 -0.91643375 35.797924 -28.8279 174.94083
15877500000 -30.174915 159.60695 -0.90926296 35.284325 -0.91643691 35.244919 -29.495861 171.79776
15905000000 -30.670511 156.16464 -0.9098981 34.738907 -0.91584879 34.675907 -29.396612 172.83315
15932500000 -30.8543 156.06184 -0.9105857 34.173508 -0.91678411 34.102486 -29.236645 173.25851
15960000000 -30.555746 157.72507 -0.91116488 33.58989 -0.91808581 33.543949 -29.635853 170.26073
15987500000 -31.005001 155.75288 -0.90943629 33.046421 -0.91686916 32.987747 -29.965778 170.46864
16015000000 -31.290495 153.54179 -0.90918607 32.473106 -0.91803175 32.422607 -29.677538 172.31683
16042500000 -31.029318 156.08298 -0.91117573 31.921535 -0.92073262 31.863771 -29.931889 169.30193
16070000000 -31.207302 154.10803 -0.91232848 31.350985 -0.91804999 31.312931 -30.465689 169.11998
16097500000 -31.642069 151.8728 -0.91425025 30.806896 -0.92107052 30.735743 -30.276518 170.13683
16125000000 -31.643703 154.67053 -0.91130537 30.237333 -0.91980988 30.166071 -30.292427 167.99774
16152500000 -31.456526 153.30542 -0.91302896 29.686441 -0.92114508 29.630598 -30.890472 166.77367
16180000000 -31.887745 150.54688 -0.91734874 29.127298 -0.92376876 29.059683 -30.883142 168.50589
16207500000 -32.089966 152.54001 -0.91548854 28.550922 -0.92263985 28.494907 -30.808393 167.23178
16235000000 -31.809868 152.59343 -0.91793966 28.018137 -0.92386162 27.939543 -31.36503 165.07951
16262500000 -32.22477 149.16591 -0.91946691 27.444798 -0.9234044 27.386463 -31.623362 166.15411
16290000000 -32.724674 149.74725 -0.91541153 26.873667 -0.92254603 26.822422 -31.374405 165.7195
16317500000 -32.410213 150.72084 -0.91822493 26.325764 -0.92446148 26.257107 -31.869623 163.38901
16345000000 -32.329102 148.31538 -0.91618186 25.763924 -0.92543453 25.704376 -32.371407 163.46159
16372500000 -33.057869 147.94292 -0.91757578 25.194593 -0.92558289 25.150702 -31.973688 163.98296
16400000000 -33.012058 149.68735 -0.92028755 24.638054 -0.92970514 24.581182 -32.223759 162.03302
16427500000 -32.692677 147.99704 -0.91937381 24.092548 -0.92607623 24.048605 -32.964737 161.96294
16455000000 -33.469788 146.53496 -0.9215368 23.498545 -0.92938644 23.477015 -32.8531 161.78154
16482500000 -33.783405 147.82076 -0.92118925 22.966587 -0.93006682 22.910316 -32.907639 160.14743
16510000000 -32.992096 147.25612 -0.92484391 22.411549 -0.93015599 22.367622 -33.578239 160.02672
16537500000 -33.682487 144.03015 -0.92302626 21.852407 -0.92999566 21.787663 -33.707199 160.20816
16565000000 -34.499638 144.80632 -0.92298591 21.288338 -0.93024099 21.24752 -33.447514 159.17188
16592500000 -33.620255 146.37074 -0.92472249 20.739519 -0.93251944 20.680426 -34.281788 157.79515
16620000000 -33.757355 144.33067 -0.92661035 20.191021 -0.93191564 20.131836 -34.618347 158.34998
16647500000 -34.947445 141.87173 -0.92269683 19.621548 -0.93149221 19.567453 -34.213573 157.12442
16675000000 -34.431503 145.4781 -0.92774129 19.066841 -0.93450606 18.998468 -35.025085 157.58499
16702500000 -34.260723 144.66527 -0.93008482 18.498846 -0.93479306 18.458393 -35.709656 155.89928
16730000000 -35.418949 139.94727 -0.92720479 17.951851 -0.93582749 17.895235 -35.107243 155.15503
16757500000 -35.242569 142.45403 -0.93014508 17.381021 -0.93876791 17.318216 -35.80315 155.22237
16785000000 -34.656029 146.24812 -0.92818201 16.827202 -0.9365356 16.781631 -36.835175 152.68454
16812500000 -35.845203 139.50101 -0.92948359 16.291222 -0.93530512 16.230227 -36.177235 153.28894
16840000000 -36.453461 140.15051 -0.92640013 15.691825 -0.94057024 15.653696 -36.499893 154.09106
16867500000 -35.353951 147.21526 -0.92970383 15.162845 -0.93793094 15.113276 -38.150513 152.97438
16895000000 -36.239292 139.54613 -0.93127054 14.59685 -0.93661171 14.544133 -37.321278 150.40228
16922500000 -36.905922 136.21645 -0.93244791 14.022947 -0.93694764 13.975686 -37.315144 151.84381
16950000000 -35.984093 146.55827 -0.93478787 13.475543 -0.9425348 13.420401 -39.265408 154.08252
16977500000 -36.465946 142.80804 -0.93476319 12.91014 -0.941845 12.863027 -39.076168 151.41901
17005000000 -37.531925 134.92839 -0.93609822 12.365201 -0.94000548 12.296703 -38.410301 149.56993
17032500000 -36.892464 147.52716 -0.93675947 11.792803 -0.94408548 11.745939 -40.235107 151.82852
17060000000 -36.648983 148.03514 -0.9398303 11.230193 -0.94547653 11.16168 -40.868546 151.28775
17087500000 -37.908962 136.15334 -0.94081521 10.701709 -0.94848013 10.640377 -38.98106 150.27516
17115000000 -37.567089 146.23518 -0.94288534 10.138266 -0.95319319 10.055773 -41.100475 151.03294
17142500000 -37.033398 150.07506 -0.94409674 9.598485 -0.95142525 9.528204 -42.305454 151.10463
17170000000 -37.70578 134.19212 -0.94462377 9.0540571 -0.95005196 8.9701166 -40.52459 148.95953
17197500000 -38.177654 138.31537 -0.9441489 8.5083208 -0.95230639 8.4202042 -41.948612 147.1852
17225000000 -37.656284 153.01189 -0.94513154 7.9119463 -0.95042437 7.8721757 -44.383904 145.50313
17252500000 -37.963181 138.5226 -0.94355148 7.3968005 -0.95453101 7.3229456 -42.533192 145.44734
17280000000 -38.574757 132.87679 -0.94544947 6.8340969 -0.95076013 6.7839537 -42.964813 139.93359
17307500000 -38.284767 153.05698 -0.94736248 6.2776327 -0.9534353 6.221931 -46.971184 141.26019
17335000000 -38.384331 140.64146 -0.95214295 5.7355332 -0.95626503 5.6718259 -45.589958 140.80766
17362500000 -38.816822 128.84097 -0.94641244 5.2176323 -0.95455617 5.1202517 -44.203346 134.85349
17390000000 -39.51791 145.60722 -0.94728005 4.6575303 -0.95261097 4.6056671 -50.356411 132.61983
17417500000 -39.401066 140.94934 -0.94854873 4.1108837 -0.95032579 4.0349832 -49.655128 127.67419
17445000000 -38.979588 122.53521 -0.94382912 3.5554268 -0.95244497 3.5262437 -46.381256 130.22366
17472500000 -41.063793 134.97899 -0.94441497 3.018137 -0.95241243 2.9556482 -52.918324 110.42215
17500000000 -41.439266 142.08394 -0.94298506 2.4365826 -0.94848043 2.391748 -55.359463 72.894806
17527500000 -40.142334 124.39219 -0.93853849 1.885046 -0.9463957 1.852422 -49.658642 104.84929
17555000000 -42.726585 129.83159 -0.93924028 1.3326792 -0.9481101 1.2887348 -53.21669 75.184807
17582500000 -44.229752 146.78009 -0.93879199 0.74869663 -0.94595248 0.69806725 -53.292397 13.467326
17610000000 -41.654465 128.04945 -0.93940675 0.22317588 -0.94670284 0.16040045 -56.019447 63.254772
17637500000 -43.172039 124.00201 -0.9362973 -0.33896425 -0.94324881 -0.43126822 -52.521698 35.05003
17665000000 -47.064407 150.45863 -0.93537575 -0.89892566 -0.94474924 -0.97534269 -48.676346 -9.0622511
17692500000 -43.786118 131.493 -0.93775105 -1.4593273 -0.94737405 -1.5085076 -49.836357 -7.1089101
17720000000 -44.329517 128.86752 -0.93688923 -2.0166779 -0.94317031 -2.1059048 -49.267475 9.4448471
17747500000 -49.512474 156.75977 -0.93861783 -2.5841079 -0.94314617 -2.6471109 -45.137207 -16.637669
17775000000 -46.766068 149.74103 -0.94009322 -3.1607587 -0.94114536 -3.2316232 -45.42662 -23.365913
17802500000 -45.374641 129.97191 -0.93535519 -3.6981158 -0.94336462 -3.7655001 -46.777668 -8.9823208
17830000000 -54.769779 164.45381 -0.93622315 -4.2674537 -0.94401634 -4.3241944 -43.24239 -19.604557
17857500000 -52.175697 158.10394 -0.93905193 -4.8401899 -0.94449121 -4.8917179 -42.343506 -29.08707
17885000000 -47.55846 140.40585 -0.93443704 -5.3998966 -0.94144338 -5.4512157 -44.254807 -24.982004
17912500000 -60.227539 -170.72618 -0.93574083 -5.9611015 -0.94185853 -5.9930477 -42.026199 -21.676098
17940000000 -55.695377 -119.38313 -0.93350911 -6.5001869 -0.94166076 -6.5550895 -40.328728 -28.90731
17967500000 -49.184792 150.47331 -0.93817639 -7.066637 -0.94714963 -7.1042304 -41.622219 -27.452738
17995000000 -57.786785 -147.7507 -0.93476224 -7.620255 -0.94400764 -7.699873 -41.020248 -25.201048
18022500000 -52.38232 -89.259567 -0.93295747 -8.1981812 -0.93899316 -8.2457571 -38.708424 -32.848835
18050000000 -51.498791 -168.75348 -0.934412 -8.7499638 -0.94220996 -8.7869663 -39.164471 -37.956867
18077500000 -54.079056 -142.30333 -0.93876952 -9.3202667 -0.94691622 -9.3585253 -40.054794 -31.300791
18105000000 -48.547138 -76.53463 -0.93135583 -9.8653917 -0.94444811 -9.9212933 -37.557194 -35.031002
18132500000 -50.233639 -120.56527 -0.93634003 -10.433852 -0.94581509 -10.488119 -37.278606 -39.791622
18160000000 -50.890896 -128.93103 -0.93629247 -10.984608 -0.94473219 -11.042922 -38.79715 -36.458401
18187500000 -46.376743 -75.987495 -0.93331528 -11.524964 -0.94524252 -11.607537 -36.67115 -37.904732
18215000000 -46.939514 -92.434525 -0.93703216 -12.105564 -0.94225019 -12.16027 -35.942337 -42.020523
18242500000 -49.064808 -112.54503 -0.93635607 -12.67389 -0.94500411 -12.750795 -37.271503 -41.395878
18270000000 -45.447704 -73.672005 -0.93727559 -13.21174 -0.94399673 -13.268164 -36.136864 -40.405563
18297500000 -44.841854 -75.430824 -0.93787795 -13.758921 -0.94593155 -13.814222 -34.769363 -44.094398
18325000000 -46.904839 -102.7235 -0.93458658 -14.345199 -0.94338006 -14.392189 -35.640526 -44.869865
18352500000 -44.956306 -77.580597 -0.93922549 -14.878582 -0.94600719 -14.954026 -35.629547 -40.226501
18380000000 -42.862106 -76.223228 -0.93422675 -15.441272 -0.94153374 -15.516047 -34.009052 -44.717361
18407500000 -43.918591 -91.979744 -0.93573183 -15.992208 -0.93901724 -16.076124 -34.283031 -47.37001
18435000000 -43.760868 -83.781845 -0.93775392 -16.558245 -0.94840121 -16.65045 -34.901379 -45.179207
18462500000 -41.621178 -74.731522 -0.93730742 -17.135405 -0.94197619 -17.186584 -33.199806 -46.297531
18490000000 -41.768345 -88.299751 -0.93653303 -17.694393 -0.94222414 -17.741545 -33.137234 -48.459106
18517500000 -42.119534 -87.413025 -0.94032079 -18.267593 -0.94897735 -18.332685 -34.180832 -47.067181
18545000000 -40.68367 -75.277985 -0.93655902 -18.82457 -0.94229072 -18.867619 -33.036106 -47.541519
18572500000 -40.160542 -82.80127 -0.93679094 -19.34532 -0.93984801 -19.436096 -32.150856 -50.802635
18600000000 -41.199795 -88.027252 -0.93766302 -19.941236 -0.94667864 -19.975622 -33.046947 -50.988365
18627500000 -39.982899 -76.219795 -0.93560016 -20.463423 -0.94494331 -20.549873 -32.560661 -49.715485
18655000000 -38.787189 -80.341812 -0.93532789 -21.042372 -0.94642341 -21.109976 -31.565691 -53.05896
18682500000 -39.524139 -87.947227 -0.93526691 -21.613375 -0.94436735 -21.67712 -32.207424 -53.63208
18710000000 -39.403267 -79.116119 -0.93881708 -22.16099 -0.94176722 -22.220024 -32.120041 -51.768475
18737500000 -37.909271 -80.843956 -0.93563485 -22.73572 -0.94404817 -22.798195 -31.041508 -54.859867
18765000000 -38.433815 -87.970123 -0.93657476 -23.27865 -0.94651097 -23.335102 -31.232204 -56.068729
18792500000 -39.107121 -85.138496 -0.94001675 -23.84354 -0.9463104 -23.893068 -31.5632 -55.621151
18820000000 -37.337959 -79.763908 -0.93821877 -24.425261 -0.94270682 -24.46999 -30.428205 -56.425682
18847500000 -37.489193 -87.779922 -0.93168402 -24.948763 -0.94381529 -25.003672 -30.353384 -56.877884
18875000000 -37.930279 -86.582993 -0.93755794 -25.518503 -0.94686216 -25.574545 -31.170364 -57.064861
18902500000 -36.85495 -80.606857 -0.93535584 -26.074148 -0.94276249 -26.146814 -30.130955 -58.052509
18930000000 -36.367752 -86.873787 -0.9392274 -26.628248 -0.94432133 -26.689575 -29.708063 -59.338531
18957500000 -37.335495 -91.280289 -0.93483412 -27.191795 -0.94514507 -27.254978 -30.397379 -59.361858
18985000000 -36.642406 -85.295311 -0.93279731 -27.760839 -0.94344854 -27.819576 -29.92985 -60.180264
19012500000 -35.926296 -84.9814 -0.93544894 -28.314703 -0.94504398 -28.372671 -29.160019 -60.636105
19040000000 -36.746822 -92.137939 -0.93867761 -28.88109 -0.94480783 -28.944736 -29.658312 -61.340927
19067500000 -36.257778 -86.952698 -0.93551475 -29.428352 -0.9415077 -29.491343 -29.494884 -62.208858
19095000000 -35.413387 -87.03582 -0.93842858 -29.988256 -0.94140387 -30.067507 -28.748068 -62.421406
19122500000 -35.774715 -95.656792 -0.93716252 -30.550142 -0.94390118 -30.635099 -29.052805 -63.554836
19150000000 -35.639793 -93.611267 -0.93512756 -31.112492 -0.9470402 -31.15914 -29.276079 -63.951248
19177500000 -34.641651 -86.933037 -0.93858927 -31.666687 -0.94192928 -31.740757 -28.473967 -64.973846
19205000000 -34.993591 -95.370018 -0.93805748 -32.227276 -0.94145757 -32.29295 -28.353947 -65.691582
19232500000 -35.086037 -95.328278 -0.93436962 -32.8134 -0.94495648 -32.859688 -28.806343 -65.568558
19260000000 -34.474705 -89.096428 -0.93285924 -33.35886 -0.94159484 -33.418148 -28.145472 -66.705925
19287500000 -34.371399 -95.131302 -0.93601024 -33.929005 -0.94243121 -33.986164 -27.796612 -67.432152
19315000000 -34.388515 -101.12929 -0.93766689 -34.488716 -0.94527346 -34.525475 -28.364637 -67.978294
19342500000 -34.288612 -91.515656 -0.93495291 -35.020493 -0.94192767 -35.091476 -27.917627 -68.589325
19370000000 -33.872929 -94.959816 -0.93461841 -35.59697 -0.944839 -35.655643 -27.46838 -69.687706
19397500000 -33.663261 -103.6022 -0.93864417 -36.152912 -0.94637901 -36.208221 -27.93136 -69.568146
19425000000 -33.98946 -96.206024 -0.93445659 -36.697453 -0.93999809 -36.769897 -27.716158 -70.801567
19452500000 -33.769203 -95.808746 -0.93886656 -37.280899 -0.94162667 -37.320686 -27.060089 -71.338699
19480000000 -33.251171 -106.45624 -0.9365375 -37.837868 -0.94524252 -37.878368 -27.328241 -72.314926
19507500000 -33.374359 -101.19484 -0.93801093 -38.365044 -0.94328868 -38.436676 -27.586628 -72.860161
19535000000 -33.625797 -96.491272 -0.93303353 -38.947937 -0.94210774 -39.020477 -26.708551 -74.119064
19562500000 -32.607494 -106.41145 -0.93828404 -39.491737 -0.94633651 -39.550812 -26.813297 -74.196548
19590000000 -32.765308 -105.65081 -0.93536258 -40.056309 -0.94168228 -40.120087 -27.25038 -74.475975
19617500000 -33.355553 -99.282784 -0.93008286 -40.605083 -0.94119292 -40.697411 -26.610054 -75.485085
19645000000 -32.45023 -107.58528 -0.93364775 -41.177326 -0.9447155 -41.245499 -26.40649 -76.480347
19672500000 -31.968687 -109.44521 -0.93575042 -41.734821 -0.94306737 -41.786175 -26.889423 -76.362656
19700000000 -33.15036 -102.41154 -0.93045968 -42.287624 -0.93693644 -42.344498 -26.472843 -77.178329
19727500000 -32.253544 -109.00452 -0.9348855 -42.876335 -0.94081748 -42.909657 -25.977997 -78.629265
19755000000 -31.310844 -112.2074 -0.9346242 -43.408718 -0.94267112 -43.476269 -26.443399 -78.238174
19782500000 -32.7341 -106.84121 -0.9302057 -43.960621 -0.93660015 -44.016823 -26.344158 -78.392105
19810000000 -32.337887 -109.09801 -0.93538666 -44.560616 -0.94081646 -44.613335 -25.734034 -80.693054
19837500000 -30.836687 -114.2159 -0.93303257 -45.101078 -0.93945271 -45.121162 -26.15649 -80.63369
19865000000 -31.853216 -110.8261 -0.92884266 -45.651493 -0.94099265 -45.722836 -26.231522 -80.97361
19892500000 -32.402988 -111.05973 -0.92797107 -46.217239 -0.93681407 -46.281898 -25.555574 -82.117081
19920000000 -30.339041 -115.41001 -0.93405473 -46.795319 -0.94270462 -46.838169 -25.721323 -83.210175
19947500000 -31.090347 -113.25388 -0.930902 -47.336308 -0.93754447 -47.391888 -26.089437 -82.946388
19975000000 -32.135223 -114.67515 -0.92970324 -47.912529 -0.93284804 -47.950737 -25.41736 -83.986237
20002500000 -30.321655 -115.84209 -0.93446112 -48.460732 -0.94354278 -48.528603 -25.342314 -85.202568
20030000000 -30.365828 -115.51389 -0.93190539 -49.036949 -0.93740761 -49.105598 -25.804644 -84.945999
20057500000 -32.047691 -117.67204 -0.92861313 -49.587925 -0.93491501 -49.64064 -25.401762 -85.348907
20085000000 -30.443865 -118.18965 -0.93176037 -50.150814 -0.93870425 -50.226318 -24.982452 -87.246262
20112500000 -29.585817 -117.51089 -0.93116307 -50.725044 -0.93810797 -50.777843 -25.567225 -87.146736
20140000000 -31.464485 -120.73483 -0.92593783 -51.287254 -0.93595272 -51.343773 -25.353352 -87.162567
20167500000 -30.41906 -122.19839 -0.92962307 -51.857166 -0.937186 -51.904751 -24.744503 -88.578125
20195000000 -29.14698 -118.78053 -0.92857116 -52.379166 -0.93846649 -52.485542 -25.213448 -90.003174
20222500000 -30.443552 -121.67143 -0.9268074 -52.981983 -0.93721235 -53.023762 -25.363531 -89.373543
20250000000 -30.609808 -124.58978 -0.92574048 -53.545052 -0.9313103 -53.602047 -24.691874 -90.590813
20277500000 -28.868137 -120.20233 -0.93359959 -54.086887 -0.938685 -54.149548 -24.858624 -91.587112
20305000000 -29.929348 -121.54069 -0.93074608 -54.681488 -0.93674469 -54.730618 -25.258701 -90.806343
20332500000 -30.494581 -128.99849 -0.92367846 -55.228161 -0.93249381 -55.268768 -24.568804 -91.903328
20360000000 -28.992308 -122.16715 -0.93188739 -55.778103 -0.93727851 -55.857529 -24.525419 -93.553879
20387500000 -29.122652 -122.49152 -0.92482436 -56.339989 -0.93479365 -56.446415 -25.147078 -93.092697
20415000000 -30.107964 -130.26164 -0.92564374 -56.915993 -0.93091643 -56.977493 -24.635393 -93.941986
20442500000 -28.980137 -125.82094 -0.92710155 -57.491009 -0.93642676 -57.575481 -24.316196 -95.250046
20470000000 -28.718765 -122.57936 -0.92791688 -58.059471 -0.93517828 -58.131863 -24.906717 -95.481514
20497500000 -29.58601 -132.39507 -0.92926043 -58.619976 -0.93461359 -58.664925 -24.651318 -95.202904
20525000000 -29.136156 -129.24249 -0.92687792 -59.197422 -0.9313671 -59.260025 -24.162237 -96.614052
20552500000 -28.415548 -123.38246 -0.92630273 -59.751324 -0.93536931 -59.823307 -24.600868 -97.553108
20580000000 -29.029079 -131.12613 -0.92650527 -60.315624 -0.93479109 -60.381092 -24.635916 -97.054131
20607500000 -28.966404 -131.99551 -0.9211579 -60.878609 -0.93201768 -60.949837 -24.030098 -98.247192
20635000000 -28.283724 -124.74051 -0.92714834 -61.438625 -0.93489349 -61.522697 -24.368835 -99.549118
20662500000 -28.599194 -130.76787 -0.9259311 -62.02158 -0.93303961 -62.090355 -24.587095 -99.352936
20690000000 -28.736095 -135.56476 -0.92451239 -62.569328 -0.93034679 -62.644787 -23.93626 -99.347374
20717500000 -28.411533 -127.68628 -0.92808902 -63.118515 -0.93516767 -63.213867 -24.089325 -100.64488
20745000000 -28.242142 -129.94676 -0.93030417 -63.732624 -0.9348309 -63.79538 -24.52026 -101.23509
20772500000 -28.547783 -136.71545 -0.92399549 -64.267876 -0.93283004 -64.341003 -23.99054 -100.92003
20800000000 -28.232897 -131.35956 -0.93070984 -64.859871 -0.93398863 -64.913551 -23.83186 -102.3825
20827500000 -28.055088 -129.4178 -0.93016338 -65.431686 -0.93276685 -65.494156 -24.352701 -102.90434
20855000000 -28.071562 -137.6333 -0.92881125 -65.981827 -0.93474394 -66.042961 -24.056532 -102.34988
20882500000 -28.303812 -134.72861 -0.92615342 -66.569077 -0.93498981 -66.641624 -23.641468 -103.31596
20910000000 -27.821911 -129.99779 -0.92694199 -67.103523 -0.93463123 -67.166191 -24.110487 -104.6352
20937500000 -27.873751 -136.73047 -0.92845607 -67.678741 -0.93909407 -67.748573 -24.028854 -103.86817
20965000000 -27.997843 -137.19344 -0.93266964 -68.263107 -0.93746579 -68.315811 -23.634399 -104.36633
20992500000 -27.908445 -131.30141 -0.92876381 -68.804077 -0.93701607 -68.865173 -23.844395 -106.52302
21020000000 -27.71442 -135.62962 -0.93408519 -69.389442 -0.94286799 -69.470055 -23.971569 -105.50669
21047500000 -27.775557 -140.14574 -0.93284225 -69.966949 -0.93818408 -70.06472 -23.520988 -105.66722
21075000000 -27.920986 -133.18352 -0.93535101 -70.511314 -0.94482905 -70.597672 -23.656885 -107.37186
21102500000 -27.535597 -135.20107 -0.93788373 -71.11467 -0.94171572 -71.191338 -23.889267 -107.39565
21130000000 -27.56427 -140.31993 -0.93962753 -71.671257 -0.94252288 -71.743553 -23.553139 -106.59396
21157500000 -27.8274 -137.26245 -0.94284129 -72.238747 -0.95131278 -72.30175 -23.453733 -108.94663
21185000000 -27.421114 -134.59959 -0.94292653 -72.796181 -0.94858605 -72.858719 -23.661158 -109.10689
21212500000 -27.324144 -140.20279 -0.94366342 -73.343933 -0.95043921 -73.438812 -23.462742 -108.15413
21240000000 -27.609171 -139.91057 -0.95203274 -73.961075 -0.9559105 -73.99865 -23.132286 -110.23463
21267500000 -27.337378 -136.13007 -0.94430137 -74.47274 -0.95618474 -74.538437 -23.384346 -110.96048
21295000000 -27.108103 -139.45665 -0.95789909 -75.028786 -0.95779294 -75.109764 -23.317659 -109.78167
21322500000 -27.241411 -142.18349 -0.95586085 -75.618912 -0.96157056 -75.698997 -22.983583 -110.98263
21350000000 -27.108114 -137.77136 -0.95343947 -76.131523 -0.96312708 -76.1931 -23.107868 -112.94654
21377500000 -26.844063 -139.81789 -0.9592526 -76.677132 -0.96441853 -76.73777 -23.158825 -112.33873
21405000000 -26.872627 -143.54933 -0.95758188 -77.266594 -0.96205896 -77.33728 -22.803814 -112.42567
21432500000 -27.08625 -140.68932 -0.95991993 -77.773888 -0.96771568 -77.851295 -22.970823 -114.42263
21460000000 -26.687191 -141.27849 -0.95867538 -78.315804 -0.96725607 -78.392578 -23.049427 -114.79936
21487500000 -26.667463 -144.89412 -0.95821476 -78.877922 -0.96762419 -78.966919 -22.800127 -114.32288
21515000000 -27.021795 -145.11288 -0.95906115 -79.431396 -0.97246265 -79.492287 -22.830599 -117.19468
21542500000 -26.624752 -143.28026 -0.96223825 -79.983368 -0.96650964 -80.061966 -22.901045 -117.5719
21570000000 -26.570362 -146.84026 -0.95174652 -80.532639 -0.96678746 -80.609436 -22.849663 -116.40879
21597500000 -26.676016 -148.03401 -0.95781779 -81.11071 -0.9653427 -81.188705 -22.632507 -118.95526
21625000000 -26.697874 -146.1179 -0.95283246 -81.654137 -0.96086097 -81.729218 -22.86985 -120.28706
21652500000 -26.373077 -148.31544 -0.95267612 -82.207893 -0.96080118 -82.277885 -22.796967 -118.5685
21680000000 -26.691769 -150.51202 -0.95435619 -82.794861 -0.96181667 -82.868797 -22.660149 -120.23697
21707500000 -26.684183 -148.98746 -0.95032454 -83.316811 -0.95830125 -83.412712 -22.69553 -122.5845
21735000000 -26.449215 -149.62042 -0.95018214 -83.879776 -0.95949888 -83.970139 -22.808187 -120.83913
21762500000 -26.510567 -152.94189 -0.95325285 -84.470909 -0.95587438 -84.548744 -22.692636 -121.7057
21790000000 -26.791624 -153.1147 -0.95480222 -85.010391 -0.96088356 -85.101532 -22.674086 -124.69798
21817500000 -26.368717 -152.15421 -0.95119607 -85.591217 -0.9552502 -85.636292 -22.724928 -123.1013
21845000000 -26.455025 -154.82841 -0.9496612 -86.152596 -0.95795786 -86.219856 -22.627176 -123.14027
21872500000 -26.754831 -155.33443 -0.9544223 -86.728355 -0.95668834 -86.779572 -22.576866 -126.21179
21900000000 -26.453176 -154.88127 -0.94730544 -87.262764 -0.9570781 -87.350021 -22.748915 -125.7688
21927500000 -26.357115 -156.42215 -0.9503516 -87.82402 -0.95486057 -87.907501 -22.647806 -124.66017
21955000000 -26.759418 -157.96519 -0.95155156 -88.420341 -0.95848554 -88.506142 -22.536285 -128.19397
21982500000 -26.595732 -157.78419 -0.94769186 -88.947861 -0.95776486 -89.039307 -22.625565 -128.14616
22010000000 -26.254333 -157.70782 -0.95017505 -89.526649 -0.95524019 -89.607704 -22.655313 -126.32798
22037500000 -26.707644 -160.13013 -0.94968987 -90.11557 -0.96135056 -90.193428 -22.462269 -129.31644
22065000000 -26.714361 -159.71754 -0.95290399 -90.665268 -0.95755541 -90.737396 -22.572392 -130.37756
22092500000 -26.320278 -159.11397 -0.94925988 -91.222298 -0.95641732 -91.315247 -22.626637 -127.98795
22120000000 -26.530212 -161.2989 -0.95207143 -91.834869 -0.95718849 -91.90036 -22.413984 -130.14053
22147500000 -26.834454 -163.13246 -0.95317835 -92.373116 -0.95893973 -92.445496 -22.433228 -132.6434
22175000000 -26.211367 -161.91319 -0.95522022 -92.927666 -0.96283597 -93.011986 -22.67569 -130.35884
22202500000 -26.348597 -163.04817 -0.95435977 -93.536339 -0.96036816 -93.586098 -22.379145 -131.44637
22230000000 -26.727194 -164.7935 -0.95561665 -94.081223 -0.96268475 -94.144783 -22.276598 -134.8521
22257500000 -26.307505 -163.75812 -0.95491028 -94.633423 -0.96554703 -94.699333 -22.591509 -133.06148
22285000000 -26.186039 -164.34949 -0.95594311 -95.19931 -0.96532917 -95.269691 -22.428389 -132.87383
22312500000 -26.718964 -167.24664 -0.95568371 -95.771378 -0.96397054 -95.828308 -22.167791 -136.23409
22340000000 -26.324537 -166.59827 -0.95998061 -96.333649 -0.96998417 -96.388031 -22.51293 -135.88324
22367500000 -26.136745 -165.31235 -0.95799917 -96.911858 -0.96778232 -96.948982 -22.477961 -134.57379
22395000000 -26.436304 -170.61237 -0.9606294 -97.445663 -0.96813303 -97.531982 -22.062113 -137.72893
22422500000 -26.454954 -169.14052 -0.96085608 -98.012978 -0.96917516 -98.081909 -22.392698 -138.94585
22450000000 -25.982521 -166.77251 -0.96028644 -98.572212 -0.96889913 -98.63678 -22.518389 -136.65268
22477500000 -26.343943 -170.91406 -0.9637146 -99.157448 -0.97163504 -99.222809 -22.115347 -138.81371
22505000000 -26.378506 -172.99902 -0.9659431 -99.679726 -0.97251415 -99.770592 -22.253313 -141.28529
22532500000 -25.939949 -168.77859 -0.96981812 -100.25043 -0.975905 -100.31646 -22.497828 -139.65504
22560000000 -26.175617 -172.06415 -0.96699119 -100.83266 -0.97576857 -100.93619 -22.177979 -139.95
22587500000 -26.229774 -176.39977 -0.96690518 -101.38773 -0.97548211 -101.43783 -22.035553 -143.75952
22615000000 -25.921417 -170.99986 -0.97306889 -101.94509 -0.97977656 -102.0144 -22.508879 -142.18423
22642500000 -25.885962 -172.76503 -0.96976799 -102.51442 -0.97646439 -102.60555 -22.257027 -141.79988
22670000000 -26.081173 -178.59952 -0.96802205 -103.05566 -0.97603238 -103.10917 -21.977587 -145.27264
22697500000 -25.852583 -173.71123 -0.97379798 -103.63809 -0.98240054 -103.72159 -22.478437 -146.05243
22725000000 -25.794464 -173.60556 -0.97379279 -104.20914 -0.97947913 -104.2714 -22.402948 -143.86586
22752500000 -25.838684 179.72897 -0.97313464 -104.72337 -0.98133743 -104.79869 -21.92342 -146.32224
22780000000 -25.83783 -177.57744 -0.97663814 -105.3101 -0.98368669 -105.38168 -22.322039 -148.24118
22807500000 -25.843643 -174.05588 -0.97432572 -105.87981 -0.98126572 -105.97655 -22.48366 -146.03677
22835000000 -25.649889 179.3024 -0.9764722 -106.39787 -0.9873696 -106.50171 -22.036274 -146.97531
22862500000 -25.600382 179.13229 -0.97889793 -106.99567 -0.9868598 -107.07922 -22.159836 -150.57208
22890000000 -25.799198 -175.63338 -0.98214483 -107.5507 -0.98762661 -107.63125 -22.553053 -148.84267
22917500000 -25.431746 178.45851 -0.98520768 -108.10747 -0.99113405 -108.19479 -22.102125 -148.62746
22945000000 -25.362919 175.84393 -0.97818029 -108.65363 -0.98758149 -108.72991 -21.99439 -152.36658
22972500000 -25.702465 -177.82153 -0.98320359 -109.22881 -0.99244744 -109.31775 -22.5117 -151.86148
23000000000 -25.424599 177.96646 -0.98505408 -109.79174 -0.99133438 -109.88577 -22.219706 -150.77716
23027500000 -25.045107 173.87845 -0.97876078 -110.31519 -0.99050474 -110.39731 -21.904354 -153.71471
23055000000 -25.631226 178.08772 -0.98628086 -110.90182 -0.9936012 -110.99694 -22.485777 -155.38376
23082500000 -25.47011 177.41328 -0.9847163 -111.51853 -0.98867732 -111.5536 -22.388247 -152.99422
23110000000 -24.789551 171.76891 -0.98246157 -111.9845 -0.99022937 -112.05613 -21.953342 -154.90192
23137500000 -25.352974 174.62566 -0.98822361 -112.59355 -0.9944073 -112.68044 -22.356005 -157.81731
23165000000 -25.58847 176.04799 -0.98411691 -113.17416 -0.9918099 -113.25639 -22.540899 -155.39075
23192500000 -24.57407 171.43796 -0.99156141 -113.67961 -0.99566668 -113.74777 -22.05056 -156.58217
23220000000 -24.965137 171.91205 -0.99070996 -114.2876 -0.99671483 -114.3766 -22.171017 -159.93697
23247500000 -25.581289 173.5863 -0.98651057 -114.85392 -0.99659467 -114.92261 -22.607128 -158.48622
23275000000 -24.65889 171.26091 -0.99614793 -115.39206 -0.99998283 -115.4938 -22.170444 -157.61021
23302500000 -24.610392 169.82431 -0.98915714 -115.97024 -0.99378866 -116.05148 -22.128851 -161.55469
23330000000 -25.702951 171.72009 -0.99608213 -116.54207 -1.0004166 -116.62306 -22.653614 -161.5103
23357500000 -24.735245 170.00458 -0.99760783 -117.12685 -1.0074112 -117.19402 -22.315212 -159.05867
23385000000 -24.294222 168.41463 -0.99732119 -117.62542 -0.99838924 -117.71357 -22.123547 -162.79854
23412500000 -25.334242 168.25531 -1.0000656 -118.24055 -1.0083597 -118.32437 -22.573759 -164.33546
23440000000 -24.912243 168.28543 -0.99953932 -118.81579 -1.005038 -118.88272 -22.457918 -161.4787
23467500000 -24.058111 167.52808 -1.0028017 -119.30145 -1.0079923 -119.40956 -22.134417 -163.78117
23495000000 -25.043087 166.30792 -1.0077611 -119.933 -1.0119404 -119.99805 -22.481014 -166.30215
23522500000 -25.175692 165.24905 -1.0015545 -120.4988 -1.0089879 -120.56628 -22.651436 -164.08606
23550000000 -24.018166 166.63368 -1.0120021 -121.00406 -1.015434 -121.06422 -22.247519 -165.3064
23577500000 -24.51289 163.73541 -1.0114446 -121.6126 -1.0167552 -121.65959 -22.32604 -168.60182
23605000000 -25.129372 162.5907 -1.0104697 -122.16625 -1.0143313 -122.24352 -22.71673 -166.7305
23632500000 -24.100451 165.12756 -1.012977 -122.66603 -1.0192887 -122.77522 -22.419281 -166.8526
23660000000 -24.06381 162.69835 -1.0135337 -123.27448 -1.0193368 -123.33762 -22.263975 -169.97739
23687500000 -25.061409 159.90674 -1.0157092 -123.83468 -1.0280747 -123.90688 -22.657835 -169.66696
23715000000 -24.328167 162.73099 -1.0228214 -124.35547 -1.0238401 -124.46274 -22.545269 -168.83231
23742500000 -23.95594 161.4778 -1.0181513 -124.91074 -1.0287393 -124.99799 -22.296827 -171.72327
23770000000 -24.65756 157.89128 -1.0186613 -125.46809 -1.0239298 -125.56328 -22.630228 -172.39609
23797500000 -24.53833 159.5285 -1.0236965 -126.05615 -1.027446 -126.14077 -22.73366 -170.60054
23825000000 -23.79269 160.713 -1.0235445 -126.54012 -1.0301105 -126.63236 -22.364029 -173.02156
23852500000 -24.382421 156.08162 -1.0283841 -127.16647 -1.0342258 -127.24583 -22.553558 -174.45229
23880000000 -24.486607 155.87102 -1.0277431 -127.71918 -1.0320431 -127.80419 -22.830778 -172.96205
23907500000 -23.889732 159.30881 -1.028762 -128.22789 -1.0350924 -128.33289 -22.447508 -174.66644
23935000000 -23.946545 154.21875 -1.0346446 -128.76927 -1.0434691 -128.86343 -22.489813 -177.2769
23962500000 -24.378111 151.84819 -1.0262104 -129.35106 -1.0339493 -129.43633 -22.878283 -175.42429
23990000000 -23.983852 156.74315 -1.030158 -129.86591 -1.0393239 -129.97888 -22.502583 -176.67099
24017500000 -23.795391 153.2876 -1.0306808 -130.46771 -1.0392272 -130.51709 -22.457039 -179.69655
24045000000 -24.224176 148.74255 -1.0257076 -130.99449 -1.0327703 -131.04813 -22.870386 -177.93629
24072500000 -24.238304 152.40488 -1.0286386 -131.53304 -1.0346476 -131.61755 -22.698822 -178.37012
24100000000 -23.814981 152.42365 -1.033807 -132.12228 -1.0398948 -132.18724 -22.439377 178.07922
24127500000 -24.056131 146.80777 -1.0273674 -132.66702 -1.0379475 -132.73003 -22.787043 179.24716
24155000000 -24.3825 148.3708 -1.0265315 -133.21388 -1.0414218 -133.29289 -22.826456 -179.96089
24182500000 -24.022364 150.80711 -1.0313498 -133.7766 -1.0400504 -133.81889 -22.472185 176.40999
24210000000 -23.998426 145.66969 -1.0330967 -134.31259 -1.0394281 -134.38481 -22.770964 176.71075
24237500000 -24.26874 144.64156 -1.0254197 -134.88336 -1.0374558 -134.98083 -23.051973 177.7016
24265000000 -24.248396 148.70447 -1.0288309 -135.43961 -1.0386784 -135.53349 -22.630953 174.58545
24292500000 -23.886616 145.2157 -1.0297738 -135.99469 -1.0405043 -136.1127 -22.659191 173.6192
24320000000 -24.249704 141.85953 -1.0285835 -136.56506 -1.0403516 -136.64632 -23.085091 175.53204
24347500000 -24.333691 145.38609 -1.03334 -137.16089 -1.0390635 -137.20113 -22.746027 172.77209
24375000000 -24.017464 144.3636 -1.0367922 -137.69638 -1.0393249 -137.76056 -22.60947 170.7149
24402500000 -23.95503 139.75848 -1.0299129 -138.27609 -1.0386902 -138.33788 -23.206476 173.14296
24430000000 -24.489567 142.41071 -1.0325496 -138.78409 -1.0378845 -138.86026 -22.924637 171.42194
24457500000 -24.130411 142.89772 -1.0418078 -139.38333 -1.046532 -139.42056 -22.588837 168.02216
24485000000 -24.029364 138.8857 -1.0346072 -139.93839 -1.0435756 -140.02719 -23.249187 170.08939
24512500000 -24.314264 138.40942 -1.0351367 -140.48387 -1.0413412 -140.55936 -23.127123 169.43571
24540000000 -24.284353 141.0694 -1.0406154 -141.01237 -1.0442331 -141.09125 -22.573408 166.517
24567500000 -23.857214 137.64804 -1.0386442 -141.58595 -1.0466328 -141.70091 -23.20533 166.91441
24595000000 -24.212265 135.52214 -1.0348779 -142.1422 -1.041255 -142.20862 -23.251476 167.47864
24622500000 -24.365639 137.91144 -1.0408869 -142.69754 -1.0494663 -142.77867 -22.674126 164.25818
24650000000 -23.966784 136.63882 -1.0450513 -143.23604 -1.0470262 -143.35983 -22.98571 163.56274
24677500000 -24.008656 133.27101 -1.0397873 -143.79073 -1.0472956 -143.89189 -23.427456 165.29965
24705000000 -24.380379 134.81282 -1.0435964 -144.39404 -1.0455301 -144.44495 -22.799433 162.25748
24732500000 -24.107166 134.30156 -1.0438634 -144.92378 -1.050781 -145.01761 -22.893187 160.45464
24760000000 -23.929216 131.45493 -1.0397067 -145.45895 -1.0455241 -145.54182 -23.558056 161.62964
24787500000 -24.194633 131.54018 -1.0368727 -146.02254 -1.049692 -146.11382 -22.995663 160.1925
24815000000 -24.124033 132.14185 -1.0468868 -146.61108 -1.0536046 -146.65788 -22.836739 158.02982
24842500000 -23.793444 130.42474 -1.0389159 -147.14607 -1.0450368 -147.2001 -23.645367 158.81166
24870000000 -24.171476 128.679 -1.043214 -147.68416 -1.0490348 -147.74289 -23.224152 158.64496
24897500000 -24.269485 129.75317 -1.0443852 -148.26329 -1.0521841 -148.32227 -22.736387 155.79639
24925000000 -23.858614 127.82064 -1.036482 -148.75757 -1.0481206 -148.87958 -23.650688 154.84976
24952500000 -24.034431 126.48053 -1.0380925 -149.3271 -1.0437877 -149.40273 -23.450022 156.18927
24980000000 -24.368654 126.13205 -1.0446322 -149.89755 -1.052423 -149.98727 -22.779392 153.63472
25007500000 -24.007376 125.94616 -1.0375866 -150.45674 -1.0499077 -150.52264 -23.465532 151.58633
25035000000 -23.953844 124.2044 -1.0366952 -150.9897 -1.0443639 -151.05592 -23.848001 152.77696
25062500000 -24.314615 124.13737 -1.0436571 -151.60326 -1.0457386 -151.63692 -22.924356 151.32776
25090000000 -24.162626 123.07221 -1.0387353 -152.14813 -1.0490361 -152.23154 -23.292459 149.06955
25117500000 -23.81447 122.00525 -1.0358458 -152.66786 -1.0411944 -152.7413 -24.0116 148.78085
25145000000 -24.187923 121.013 -1.0338918 -153.25288 -1.0455499 -153.31744 -23.172176 150.06216
25172500000 -24.226646 121.05075 -1.0380021 -153.84764 -1.0468246 -153.89346 -23.142653 146.76134
25200000000 -23.905485 120.08697 -1.033097 -154.35915 -1.0427519 -154.47021 -24.124048 144.18459
25227500000 -24.145752 118.50829 -1.039414 -154.94688 -1.0458087 -155.03949 -23.471981 147.49306
25255000000 -24.276697 118.59145 -1.0398024 -155.5013 -1.0460629 -155.59583 -23.081697 143.92821
25282500000 -23.841434 117.99737 -1.0356102 -156.05606 -1.0425794 -156.12958 -24.019894 141.47522
25310000000 -23.955893 116.604 -1.0367484 -156.63188 -1.0423231 -156.6927 -23.848993 143.84193
25337500000 -24.281151 116.16512 -1.0374321 -157.18329 -1.0488628 -157.27396 -23.158348 143.01106
25365000000 -23.896675 115.68623 -1.0380883 -157.73265 -1.0428216 -157.79399 -23.89299 138.31082
25392500000 -23.838717 114.41079 -1.0394853 -158.25606 -1.0433838 -158.33681 -24.240313 140.59908
25420000000 -24.261806 113.3447 -1.0446177 -158.88939 -1.0482857 -158.93225 -23.294859 141.13878
25447500000 -23.932064 113.64857 -1.0421177 -159.39116 -1.0471836 -159.48611 -23.756865 136.04318
25475000000 -23.822643 111.77546 -1.0390608 -159.96304 -1.0455045 -160.04646 -24.376753 135.05382
25502500000 -24.152426 110.94538 -1.044317 -160.55167 -1.0522627 -160.61197 -23.48373 139.05933
25530000000 -24.019526 110.97231 -1.0391496 -161.09955 -1.0515008 -161.14394 -23.701275 134.64461
25557500000 -23.726128 110.45743 -1.0380356 -161.63373 -1.0457982 -161.71942 -24.291092 131.45343
25585000000 -24.054487 107.57141 -1.0432239 -162.19685 -1.04925 -162.27632 -23.974607 136.13034
25612500000 -23.916637 108.94015 -1.0376067 -162.75195 -1.0542797 -162.85406 -23.560844 132.27956
25640000000 -23.762192 108.00807 -1.0336645 -163.29202 -1.0438505 -163.38445 -24.35232 128.02521
25667500000 -23.860453 106.01004 -1.0455667 -163.85168 -1.0536634 -163.95058 -24.200483 131.03123
25695000000 -24.144661 105.90148 -1.0503029 -164.46138 -1.0588742 -164.51683 -23.662479 131.49382
25722500000 -23.572701 106.82023 -1.0421467 -164.97801 -1.050987 -165.00316 -24.165329 124.57691
25750000000 -23.791193 103.32025 -1.0381327 -165.54655 -1.0528089 -165.61893 -24.361523 126.30399
25777500000 -23.974693 102.32355 -1.0497785 -166.12898 -1.0527426 -166.21675 -23.830816 129.24846
25805000000 -23.794819 105.45185 -1.0476013 -166.70264 -1.0600612 -166.73552 -24.056953 122.24213
25832500000 -23.537493 101.48002 -1.0425413 -167.23991 -1.0512133 -167.31517 -24.390043 121.21936
25860000000 -23.837296 99.131851 -1.0506102 -167.75726 -1.0583863 -167.841 -24.141615 126.24883
25887500000 -23.934927 103.01062 -1.0518346 -168.37465 -1.0546569 -168.41185 -23.987566 120.38712
25915000000 -23.577333 99.916557 -1.0445534 -168.87328 -1.0549216 -168.94276 -24.389446 117.06735
25942500000 -23.71788 96.032036 -1.0484656 -169.48683 -1.0569019 -169.53906 -24.464197 121.80332
25970000000 -23.962381 100.39429 -1.0483961 -170.04033 -1.061751 -170.0634 -23.989523 119.06069
25997500000 -23.604601 98.776917 -1.0446328 -170.53416 -1.0537276 -170.61812 -24.454857 113.28354
26025000000 -23.52623 94.498749 -1.0515906 -171.11823 -1.0577743 -171.20862 -24.591099 117.41167
26052500000 -23.972168 95.245621 -1.0527439 -171.66652 -1.0584227 -171.75523 -24.195477 117.37007
26080000000 -23.798054 97.922157 -1.045537 -172.19121 -1.055625 -172.29677 -24.361055 109.6869
26107500000 -23.372305 91.78051 -1.0447451 -172.78854 -1.0563374 -172.83875 -24.548939 112.74401
26135000000 -23.734617 92.709908 -1.0460083 -173.36421 -1.0567157 -173.44073 -24.372957 114.70618
26162500000 -23.992765 95.459419 -1.0493034 -173.90164 -1.0643204 -173.97343 -24.322918 108.39566
26190000000 -23.335625 92.014725 -1.0499294 -174.41084 -1.0580329 -174.52791 -24.643656 107.24352
26217500000 -23.51528 88.671661 -1.0501493 -174.99026 -1.0574979 -175.08762 -24.503321 111.3643
26245000000 -24.089806 92.815895 -1.05514 -175.5574 -1.0628774 -175.66731 -24.406046 105.99799
26272500000 -23.479784 90.215454 -1.0438588 -176.11192 -1.0591507 -176.18333 -24.642361 103.99895
26300000000 -23.310127 86.644905 -1.0459747 -176.64861 -1.0561881 -176.74261 -24.562561 106.56104
26327500000 -24.200073 88.601585 -1.0505176 -177.24229 -1.0615927 -177.32161 -24.497475 103.7102
26355000000 -23.685509 89.671242 -1.043687 -177.77484 -1.0564423 -177.8609 -24.758898 99.853714
26382500000 -23.07284 85.553261 -1.0445904 -178.34569 -1.0582625 -178.40833 -24.708172 102.4484
26410000000 -23.907629 84.248589 -1.0482686 -178.89571 -1.0565113 -178.99895 -24.478886 101.71835
26437500000 -23.870556 87.680893 -1.0478311 -179.42876 -1.0545242 -179.53439 -24.754234 97.076523
26465000000 -23.021662 84.679039 -1.0536604 -179.99734 -1.0562809 179.89626 -24.971348 97.940872
26492500000 -23.677568 80.908684 -1.0460511 179.38625 -1.0601459 179.35143 -24.708836 98.646706
26520000000 -23.918238 84.642273 -1.0495652 178.87077 -1.0562829 178.83496 -24.429886 95.100685
26547500000 -23.26808 83.733253 -1.0488025 178.37469 -1.0489801 178.23384 -24.755049 93.318779
26575000000 -23.262516 79.174736 -1.0332917 177.78169 -1.0498909 177.69836 -24.639849 94.823753
26602500000 -24.073587 81.662094 -1.0370022 177.15079 -1.0649893 177.11993 -24.629343 91.20462
26630000000 -23.35203 82.908035 -1.047399 176.68388 -1.0563499 176.60298 -24.905176 90.006989
26657500000 -23.272083 77.839661 -1.0384585 176.06332 -1.056657 176.00258 -24.843956 92.575424
26685000000 -23.896149 76.866905 -1.0309119 175.54048 -1.0496782 175.35977 -24.616688 88.624748
26712500000 -23.963202 80.879311 -1.0531486 174.93567 -1.0675575 174.91019 -25.013178 87.340904
26740000000 -23.04866 76.695129 -1.0593839 174.42404 -1.0598174 174.2874 -25.172972 88.159813
26767500000 -23.588465 72.157211 -1.0402411 173.8447 -1.0525041 173.74741 -24.778149 85.861252
26795000000 -23.956356 78.18821 -1.0497817 173.27467 -1.0583876 173.17097 -25.005365 82.830284
26822500000 -23.26922 77.286972 -1.054848 172.72977 -1.0623871 172.69588 -25.282469 84.573013
26850000000 -23.26609 71.361275 -1.0438529 172.14833 -1.0413491 172.13383 -24.732092 81.918396
26877500000 -23.91185 72.40683 -1.0481602 171.5822 -1.0525018 171.4791 -25.10264 81.054779
26905000000 -23.360975 77.175049 -1.0484482 171.17001 -1.066137 171.01952 -25.250172 78.642998
26932500000 -23.063606 70.142769 -1.0540477 170.52144 -1.0615513 170.35873 -24.743597 79.865692
26960000000 -23.878233 68.728264 -1.0599301 169.86961 -1.0568494 169.76839 -24.911598 76.839798
26987500000 -23.778475 73.050468 -1.0478356 169.32349 -1.059938 169.30571 -25.325708 76.863548
27015000000 -23.224371 70.941788 -1.063539 168.89159 -1.0553975 168.77707 -25.100714 75.110939
27042500000 -23.620073 65.711082 -1.0539392 168.20598 -1.0555569 168.13234 -24.729422 75.10479
27070000000 -24.327562 68.863968 -1.0607628 167.75279 -1.0727117 167.72743 -25.284616 72.325615
27097500000 -23.231867 69.844757 -1.0579817 167.22861 -1.0597721 167.07616 -25.223654 73.080757
27125000000 -23.407961 64.414589 -1.0378413 166.61456 -1.0573159 166.44543 -24.527428 70.902039
27152500000 -24.086962 64.431938 -1.0430824 166.05077 -1.0701989 165.88329 -25.269451 67.176163
27180000000 -23.616032 69.060616 -1.0536515 165.41399 -1.0559312 165.41336 -25.087706 70.441208
27207500000 -23.276455 62.58075 -1.0326265 164.82007 -1.0500164 164.83961 -24.760977 68.905716
27235000000 -24.207172 61.229553 -1.0700704 164.38901 -1.0564734 164.34163 -25.332306 65.636765
27262500000 -23.880285 65.420311 -1.0497392 163.78253 -1.0586202 163.65276 -25.424646 66.147133
27290000000 -23.150297 62.323662 -1.0603659 163.25653 -1.0642533 163.12468 -24.808353 66.117226
27317500000 -23.840021 57.754196 -1.0501232 162.70743 -1.0630629 162.56693 -25.066351 61.155895
27345000000 -24.310717 61.036381 -1.0608163 162.14595 -1.0656487 161.95369 -25.791525 61.989071
27372500000 -23.294336 61.965725 -1.0613911 161.60985 -1.0505403 161.46887 -24.973701 62.286785
27400000000 -23.469852 57.38023 -1.0505788 160.95009 -1.0581492 160.84435 -24.699793 58.410809
27427500000 -24.515909 58.514561 -1.0553945 160.43298 -1.0522518 160.34059 -25.490711 56.418713
27455000000 -23.630028 60.250923 -1.0539764 159.90073 -1.0648147 159.83333 -24.980961 60.082909
27482500000 -23.35199 55.675781 -1.0546352 159.32108 -1.0484228 159.07437 -24.943069 57.01976
27510000000 -24.089298 52.795406 -1.0556349 158.74698 -1.0584408 158.60149 -25.370895 52.815567
27537500000 -23.938459 57.201855 -1.062029 158.09892 -1.0683357 158.0797 -25.255638 56.025806
27565000000 -23.153824 55.816589 -1.0366242 157.57802 -1.0525701 157.46654 -24.498056 54.56805
27592500000 -24.210173 50.510544 -1.0491446 157.13187 -1.0552682 157.05946 -24.926311 49.668083
27620000000 -24.410782 53.229309 -1.0516341 156.49733 -1.063122 156.46359 -25.440083 52.749268
27647500000 -23.373758 55.003666 -1.0368125 155.94432 -1.0460235 155.85733 -24.868748 51.753407
27675000000 -23.535149 49.02681 -1.0473191 155.32658 -1.0636045 155.29366 -24.73278 47.430141
27702500000 -24.664337 50.017246 -1.0477846 154.89592 -1.0532404 154.8204 -25.475105 45.375763
27730000000 -24.002562 53.239376 -1.0467316 154.40399 -1.0603216 154.22305 -24.838202 50.161751
27757500000 -23.672979 48.366917 -1.0615798 153.67526 -1.0534129 153.69673 -24.605185 44.753212
27785000000 -24.270548 45.237213 -1.0643976 153.14253 -1.0570951 153.05098 -24.960407 41.092987
27812500000 -24.065985 51.018394 -1.0497333 152.59543 -1.0531555 152.63268 -25.191332 46.122532
27840000000 -23.415257 47.079834 -1.0475971 152.05606 -1.0596172 151.93805 -24.562689 43.299538
27867500000 -23.990931 41.701771 -1.0426534 151.4808 -1.0620096 151.43686 -24.931456 36.877186
27895000000 -24.204834 46.344479 -1.0571007 150.89215 -1.0657741 150.79016 -25.060543 40.885441
27922500000 -23.477448 45.190838 -1.0538775 150.37479 -1.055015 150.16873 -24.785358 40.524368
27950000000 -23.668201 39.882175 -1.0490655 149.87875 -1.056612 149.7507 -24.808254 34.918541
27977500000 -24.20727 42.598186 -1.0459056 149.24792 -1.0648203 149.13965 -25.25038 37.287201
28005000000 -23.787081 44.995014 -1.0700326 148.69978 -1.0683185 148.64377 -24.682577 37.672916
28032500000 -23.782627 40.668388 -1.0509732 148.15611 -1.0552619 147.99931 -24.315092 30.318876
28060000000 -24.16674 36.125431 -1.0432917 147.50465 -1.0652841 147.38599 -25.154041 32.791725
28087500000 -24.352757 41.89156 -1.0595521 147.03337 -1.0574659 146.93182 -24.855721 33.651817
28115000000 -23.832972 36.96006 -1.0570637 146.49811 -1.0590543 146.25056 -24.663813 28.832817
28142500000 -23.942242 33.465046 -1.0476574 145.81029 -1.0556946 145.76318 -24.832941 27.735861
28170000000 -24.177101 37.961258 -1.0462085 145.29774 -1.0708917 145.27136 -24.729317 31.161642
28197500000 -23.726765 37.543304 -1.0656437 144.84253 -1.0648342 144.75867 -24.155056 26.391014
28225000000 -23.746229 31.706774 -1.03001 144.12851 -1.0693909 144.24068 -24.559139 23.31694
28252500000 -24.334545 33.55114 -1.0483197 143.65839 -1.0522165 143.54381 -24.882975 25.95188
28280000000 -23.966869 32.441826 -1.0507286 143.04263 -1.0598977 143.04378 -24.618549 24.798546
28307500000 -23.483067 30.607964 -1.0378237 142.59341 -1.0728068 142.52827 -24.344715 21.292271
28335000000 -24.340597 29.638699 -1.0465603 141.91173 -1.066359 141.91273 -25.079124 21.283669
28362500000 -24.030775 33.123909 -1.051293 141.32504 -1.0611911 141.35199 -24.461954 21.732958
28390000000 -23.670315 27.21903 -1.0548866 140.89455 -1.0627606 140.83847 -24.242802 17.082796
28417500000 -24.160063 27.8025 -1.0524859 140.28802 -1.0608625 140.1508 -24.790991 14.645846
28445000000 -24.279617 30.055979 -1.0516192 139.70352 -1.0580933 139.61632 -24.716108 17.848915
28472500000 -24.088974 27.249388 -1.0640906 139.20212 -1.0445005 139.10454 -24.205402 15.438697
28500000000 -24.289873 24.31819 -1.0631462 138.62524 -1.0737129 138.59187 -24.456072 14.579242
28527500000 -24.378412 27.675713 -1.0538069 138.02083 -1.061476 137.9688 -24.829359 12.878256
28555000000 -23.928766 24.36937 -1.0553777 137.59717 -1.0466344 137.51758 -24.13883 12.329692
28582500000 -23.832623 21.430084 -1.0430787 137.03555 -1.0612063 136.94586 -24.14979 10.083162
28610000000 -24.779058 23.432035 -1.0504371 136.41664 -1.0587292 136.29517 -24.927393 11.336339
28637500000 -24.144514 23.233902 -1.0453029 135.8511 -1.058598 135.83826 -24.203203 10.03434
28665000000 -23.949614 19.793688 -1.0403625 135.28223 -1.0509475 135.22946 -24.03224 6.7056832
28692500000 -24.588861 20.801054 -1.0650003 134.74779 -1.0468799 134.67918 -24.80331 6.5858688
28720000000 -24.403765 22.238979 -1.0483421 134.14076 -1.0583982 134.12308 -24.521757 6.9019656
28747500000 -24.264582 17.900467 -1.0286852 133.58984 -1.0360866 133.54567 -23.945681 5.1585274
28775000000 -24.518501 18.2096 -1.0421835 133.16734 -1.0611105 133.00562 -24.91427 1.603503
28802500000 -24.928896 17.885998 -1.04567 132.35741 -1.0680765 132.39516 -24.901356 3.6733303
28830000000 -23.714376 18.201073 -1.0397761 131.98488 -1.0469161 131.86382 -23.961918 3.2094321
28857500000 -24.633295 13.84875 -1.044511 131.34384 -1.0455327 131.25758 -24.391907 -0.54200101
28885000000 -24.508219 19.830153 -1.0406595 130.78055 -1.0304563 130.74419 -24.524359 -0.28370768
28912500000 -24.29545 15.000945 -1.0327667 130.39555 -1.0461324 130.2238 -23.954666 0.86838424
28940000000 -24.136526 14.207575 -1.0421368 129.64317 -1.050446 129.56424 -24.200869 -2.7839112
28967500000 -25.24066 16.101587 -1.054621 129.10794 -1.0385742 128.97142 -24.551746 -3.5192595
28995000000 -24.407433 15.835191 -1.038583 128.60364 -1.0599624 128.44586 -23.85248 -1.1697342
29022500000 -24.044334 12.175494 -1.0337111 127.97246 -1.0450487 127.89614 -24.118948 -4.8511295
29050000000 -25.017361 9.2657785 -1.0468805 127.37423 -1.0562611 127.35874 -24.564625 -6.8075829
29077500000 -24.827736 11.116446 -1.0385265 126.86556 -1.063373 126.80214 -24.102297 -6.3627167
29105000000 -23.973415 11.078158 -1.0597229 126.41843 -1.0358067 126.27895 -24.041473 -5.8764815
29132500000 -25.210752 7.9203687 -1.0484535 125.65705 -1.0566374 125.61566 -24.443188 -9.3635311
29160000000 -25.001097 9.222331 -1.0636522 125.18456 -1.0564258 125.13546 -24.116098 -8.4646034
29187500000 -24.224506 10.9513 -1.0331233 124.59167 -1.0501002 124.52875 -23.722765 -10.730733
29215000000 -24.765341 6.5262022 -1.038589 124.00169 -1.0510451 123.84283 -24.306408 -13.390456
29242500000 -25.774902 7.1702728 -1.0453522 123.54102 -1.0505459 123.41394 -24.055393 -11.731585
29270000000 -24.353836 6.1280384 -1.0302604 122.9558 -1.0504826 122.91302 -23.555395 -12.584607
29297500000 -25.063421 4.0379786 -1.0409194 122.40169 -1.0408977 122.12816 -24.134121 -15.802031
29325000000 -25.67424 2.5460331 -1.0483691 121.77252 -1.0494283 121.75484 -24.357542 -14.59868
29352500000 -25.006449 7.3160396 -1.0526456 121.25809 -1.0445969 121.24001 -23.906225 -15.873262
29380000000 -24.491541 0.54692787 -1.0398912 120.66468 -1.0448271 120.48876 -23.982733 -18.359249
29407500000 -25.68848 -1.3642364 -1.0440593 120.17158 -1.0462537 120.02673 -24.082508 -20.062387
29435000000 -25.431854 -0.21628478 -1.0533941 119.60293 -1.0681863 119.53536 -23.665407 -17.974636
29462500000 -24.548449 2.3758402 -1.0232856 118.96276 -1.0488279 118.84238 -23.943312 -21.197401
29490000000 -25.357004 -5.4691114 -1.0361971 118.53951 -1.0522218 118.27782 -24.162436 -22.974211
29517500000 -26.28105 -1.5010822 -1.0389185 117.88691 -1.0440438 117.86156 -23.858225 -22.903387
29545000000 -24.820335 1.4156178 -1.0413774 117.30044 -1.0353197 117.31328 -23.955832 -24.281822
29572500000 -25.422443 -4.7352571 -1.0450197 116.77425 -1.03844 116.65043 -24.103983 -26.236504
29600000000 -26.298845 -7.9319468 -1.0454527 116.21805 -1.0391463 116.09812 -24.083239 -23.903093
29627500000 -25.309872 3.5095925 -1.0319432 115.68562 -1.0420101 115.52692 -24.041002 -24.863581
29655000000 -25.13975 -6.140038 -1.0408905 115.05338 -1.0418562 114.9152 -24.113632 -29.633602
29682500000 -26.000034 -10.771872 -1.0407079 114.50542 -1.04861 114.39616 -24.162285 -27.648588
29710000000 -25.922749 -2.4115438 -1.0386902 113.9547 -1.0554833 113.91917 -23.843483 -27.226789
29737500000 -25.170877 -3.7357004 -1.0211391 113.32454 -1.0552477 113.13483 -23.945469 -32.961491
29765000000 -25.647806 -15.208168 -1.0563889 112.89545 -1.047121 112.71593 -24.220224 -31.36109
29792500000 -26.433847 -7.9437652 -1.057349 112.18578 -1.0436066 112.23321 -23.695902 -28.528807
29820000000 -25.681639 -4.4565067 -1.0310411 111.77108 -1.0401583 111.52612 -24.115612 -34.055717
29847500000 -25.627184 -16.465048 -1.0508611 111.09404 -1.0599079 110.97438 -24.038984 -35.500923
29875000000 -26.646605 -14.606115 -1.0312985 110.54549 -1.0473022 110.51081 -24.282249 -31.86216
29902500000 -26.010288 -5.9791069 -1.0349222 109.99664 -1.0347464 109.85424 -23.76852 -34.621422
29930000000 -25.806646 -15.575267 -1.0281315 109.45474 -1.0491291 109.2813 -24.361668 -38.025856
29957500000 -26.130417 -21.867685 -1.0535383 108.82452 -1.0647333 108.83118 -24.35656 -34.106873
29985000000 -26.864731 -7.745398 -1.0330881 108.29597 -1.025209 108.40083 -23.690205 -37.706001
30012500000 -25.634792 -14.556455 -1.0221413 107.70583 -1.0385318 107.55384 -23.900656 -41.565979
30040000000 -26.156027 -25.384636 -1.0430605 107.18801 -1.0478152 107.12565 -24.196136 -36.211384
30067500000 -26.849243 -14.334182 -1.0401057 106.56635 -1.0569059 106.6278 -23.692036 -38.728138
30095000000 -26.198929 -12.720056 -1.0375015 105.97964 -1.0432149 105.86891 -24.052395 -43.725445
30122500000 -25.66275 -25.9886 -1.050571 105.55602 -1.0561105 105.45668 -24.441898 -41.42548
30150000000 -27.067337 -23.24972 -1.0444211 104.8131 -1.0518411 104.80673 -23.89089 -39.253544
30177500000 -26.361794 -16.555159 -1.0137713 104.24101 -1.0471935 104.10908 -23.785162 -46.100655
30205000000 -26.099825 -27.477791 -1.0536944 103.76216 -1.0436629 103.60744 -24.092924 -44.099846
30232500000 -26.230631 -29.032768 -1.0457451 103.15273 -1.0529854 103.11309 -23.891251 -41.371651
30260000000 -27.907206 -16.839577 -1.0311478 102.72678 -1.0448024 102.50768 -23.726404 -48.020279
30287500000 -26.008278 -29.109396 -1.0377132 102.0584 -1.0641406 102.01785 -24.130306 -47.710758
30315000000 -26.286539 -33.352139 -1.0508542 101.62661 -1.0483279 101.42698 -24.250404 -46.138485
30342500000 -27.579741 -27.657381 -1.047521 100.86755 -1.0396899 100.79034 -23.382904 -49.795002
30370000000 -26.60952 -27.948191 -1.0373861 100.33797 -1.0566447 100.37321 -23.756859 -51.360447
30397500000 -25.703773 -35.630714 -1.0217116 99.817017 -1.0560894 99.663277 -24.370697 -49.409878
30425000000 -27.726179 -29.187199 -1.0501934 99.22522 -1.0482241 99.354843 -24.086128 -49.323895
30452500000 -27.091099 -31.552492 -1.0309017 98.552284 -1.0416287 98.603867 -23.427967 -54.8251
30480000000 -25.78021 -32.581005 -1.0541464 97.991806 -1.0579441 97.948784 -24.307732 -53.249825
30507500000 -27.965078 -35.948315 -1.0572426 97.631355 -1.0616479 97.500763 -23.971865 -54.495319
30535000000 -27.771248 -32.629921 -1.0452304 96.942871 -1.047263 97.022629 -23.53179 -57.23135
30562500000 -26.224079 -37.370949 -1.0588775 96.340324 -1.0763963 96.390129 -24.010107 -56.543766
30590000000 -27.124115 -40.183224 -1.0562032 95.750702 -1.0621986 95.738785 -24.269554 -54.982983
30617500000 -28.022402 -39.967274 -1.0484037 95.301682 -1.0600044 95.133011 -23.340151 -59.167095
30645000000 -26.77887 -40.575188 -1.069827 94.76989 -1.0542847 94.575699 -23.91411 -61.97142
30672500000 -26.445873 -41.052231 -1.0553427 94.175415 -1.0636574 94.000557 -24.360987 -59.275436
30700000000 -28.61175 -46.564777 -1.0548922 93.532639 -1.0727551 93.482674 -23.430447 -60.531269
30727500000 -28.31424 -39.191605 -1.0589314 93.007767 -1.056092 92.982117 -23.974264 -63.610809
30755000000 -26.349987 -44.750755 -1.0577551 92.351517 -1.0542547 92.396523 -24.352411 -63.578945
30782500000 -28.944386 -46.424614 -1.0641342 91.955154 -1.0755374 91.807442 -23.843946 -62.311146
30810000000 -27.782698 -46.290115 -1.0601432 91.366119 -1.064676 91.360634 -23.353985 -65.835938
30837500000 -27.215612 -44.927517 -1.0543777 90.650963 -1.0683899 90.719269 -24.160994 -68.708458
30865000000 -27.927135 -54.243538 -1.0551331 90.377235 -1.0654418 90.112961 -23.952429 -64.856453
30892500000 -29.256428 -52.986771 -1.0445119 89.790962 -1.0550017 89.586388 -23.654551 -68.35981
30920000000 -27.242413 -46.206478 -1.0372727 89.121216 -1.0658839 89.11377 -24.108513 -70.467606
30947500000 -28.30813 -50.680992 -1.0462899 88.568535 -1.0640919 88.505699 -24.239023 -69.099701
30975000000 -28.559584 -56.966827 -1.0455338 87.951439 -1.0470604 87.845901 -23.371964 -68.259132
31002500000 -28.252203 -56.275845 -1.0535465 87.564041 -1.054509 87.311264 -24.253408 -73.493401
31030000000 -27.231115 -50.499397 -1.0326478 86.834297 -1.0730852 86.760719 -24.509941 -74.374603
31057500000 -30.070787 -64.453758 -1.0484775 86.142708 -1.0390822 86.22348 -23.816099 -74.055801
31085000000 -28.49025 -57.988834 -1.0528647 85.799812 -1.0695686 85.818756 -23.69367 -76.792679
31112500000 -27.944401 -52.05978 -1.0460001 85.227028 -1.0587652 84.940208 -24.270252 -77.445404
31140000000 -29.047462 -63.795868 -1.0653863 84.660782 -1.0742314 84.522079 -23.616617 -73.481789
31167500000 -29.329988 -63.110588 -1.0436459 84.09539 -1.0493714 84.096123 -23.536709 -79.67025
31195000000 -28.704639 -52.565842 -1.0687405 83.585594 -1.0644451 83.338974 -24.320242 -80.101768
31222500000 -30.429575 -65.046982 -1.0601181 82.884583 -1.0720427 82.895676 -24.191854 -77.019196
31250000000 -29.364742 -71.078812 -1.0430975 82.423706 -1.0602533 82.366661 -23.593214 -81.384842
31277500000 -29.059 -59.474865 -1.0339328 81.934486 -1.05198 81.641823 -24.02051 -85.135536
31305000000 -29.641325 -60.628994 -1.0327624 81.278778 -1.0778688 81.20517 -23.901037 -84.004311
31332500000 -30.822525 -78.307281 -1.0626992 80.674271 -1.0720613 80.56044 -23.831369 -84.362282
31360000000 -29.583132 -62.069237 -1.0500547 80.236053 -1.0736778 80.09523 -24.543636 -86.46225
31387500000 -30.074049 -61.462326 -1.047092 79.54425 -1.0661678 79.399971 -24.455523 -87.242554
31415000000 -30.333664 -78.617424 -1.0661595 78.973717 -1.0600556 78.799438 -23.751459 -85.193413
31442500000 -29.576698 -73.937218 -1.036551 78.356209 -1.0593826 78.387604 -24.067043 -91.168564
31470000000 -30.273149 -67.273849 -1.0515342 77.967285 -1.0687038 77.861084 -24.508532 -92.694977
31497500000 -31.55266 -84.116104 -1.0600724 77.352051 -1.0616773 77.246956 -24.171902 -87.926155
31525000000 -30.201353 -78.995728 -1.0650995 76.761665 -1.0662733 76.654633 -24.210468 -90.122139
31552500000 -30.758791 -62.82357 -1.0547651 76.184906 -1.0496162 76.149658 -24.540359 -94.597031
31580000000 -31.943323 -85.84478 -1.0455782 75.546211 -1.0390552 75.611992 -24.319338 -91.464897
31607500000 -31.113451 -82.909012 -1.0519685 75.014839 -1.0597494 75.015007 -24.651783 -93.542374
31635000000 -31.426228 -66.426483 -1.0684988 74.561775 -1.0469671 74.530014 -24.27565 -100.27608
31662500000 -32.521145 -82.461678 -1.0450355 73.82431 -1.0490928 73.906517 -24.324816 -95.287483
31690000000 -30.356771 -92.656837 -1.0365171 73.326614 -1.0727985 73.303078 -24.23728 -95.587746
31717500000 -31.989483 -74.798935 -1.0556688 72.800041 -1.0673892 72.672752 -24.419996 -101.79977
31745000000 -33.078873 -94.04847 -1.0508654 72.259087 -1.0823804 72.148071 -24.697271 -100.80371
31772500000 -31.469021 -100.12669 -1.0469244 71.719818 -1.0577053 71.589516 -24.479176 -99.87352
31800000000 -33.599312 -91.187241 -1.0605655 71.111023 -1.0765151 70.981178 -24.80719 -105.43995
31827500000 -33.926693 -93.274796 -1.0587991 70.508621 -1.0575527 70.630264 -24.931601 -107.49528
31855000000 -32.133533 -109.38525 -1.0479025 69.803619 -1.0474343 69.799454 -24.370081 -103.68252
31882500000 -31.664536 -96.72802 -1.0319715 69.373001 -1.064375 69.297356 -24.722765 -108.36266
31910000000 -35.356075 -99.380959 -1.0692229 68.864937 -1.0676965 68.851891 -24.701286 -111.40689
31937500000 -31.659878 -115.96201 -1.0536072 68.488251 -1.0841414 68.242531 -24.866472 -107.17089
31965000000 -34.38287 -104.32292 -1.0586855 67.648178 -1.0633614 67.561333 -25.030743 -110.95007
31992500000 -35.745949 -104.80485 -1.061398 67.147621 -1.0723979 67.094917 -25.001755 -115.07619
32020000000 -33.401127 -115.39848 -1.0466077 66.492592 -1.0721269 66.374458 -25.133053 -112.44781
32047500000 -32.913582 -111.66855 -1.0535944 65.998672 -1.0524721 65.983688 -24.71777 -111.40882
32075000000 -36.559307 -121.31704 -1.0657003 65.393951 -1.0845282 65.281395 -25.191315 -119.53564
32102500000 -33.121067 -116.92603 -1.0552117 64.913712 -1.0684267 64.690239 -25.2019 -118.2056
32130000000 -32.870972 -121.2161 -1.0505542 64.355583 -1.0666085 64.310028 -24.986803 -115.92277
32157500000 -36.909935 -112.22715 -1.0345224 63.674721 -1.0567497 63.588036 -25.358772 -121.62115
32185000000 -33.119972 -138.09665 -1.0494481 63.192451 -1.0744164 63.18343 -24.905046 -120.39763
32212500000 -33.528748 -134.28874 -1.0639848 62.660011 -1.0825913 62.463905 -25.281912 -120.57982
32240000000 -34.283386 -140.29785 -1.0679301 62.230694 -1.0754167 61.9786 -24.723003 -125.79665
32267500000 -33.730988 -136.52582 -1.0617428 61.539398 -1.07886 61.312477 -25.518385 -122.64244
32295000000 -31.249193 -139.36813 -1.0692881 60.942574 -1.0823522 60.787327 -25.311604 -122.26197
32322500000 -34.86813 -141.56937 -1.0523705 60.435673 -1.0846807 60.337948 -25.073586 -128.6646
32350000000 -34.174332 -149.30115 -1.07122 59.719555 -1.0902849 59.673828 -25.453209 -129.62662
32377500000 -32.892735 -144.39261 -1.0506669 59.215111 -1.0743974 59.132225 -26.073532 -128.33037
32405000000 -32.221333 -152.01456 -1.084152 58.742973 -1.0717055 58.598824 -25.139101 -128.79868
32432500000 -34.058094 -161.76062 -1.0544146 58.048214 -1.0524632 58.06221 -25.939474 -138.36562
32460000000 -32.456703 -151.80695 -1.084803 57.473999 -1.078939 57.547752 -25.545549 -133.90352
32487500000 -32.48164 -158.42709 -1.0649549 56.930462 -1.0734512 56.893852 -25.379749 -133.01767
32515000000 -32.579315 -176.9711 -1.0554688 56.433689 -1.0830078 56.335609 -25.628094 -142.95918
32542500000 -32.024296 -159.88232 -1.0695548 55.840908 -1.0862417 55.642586 -26.13879 -139.26369
32570000000 -32.158489 -158.5589 -1.0710508 55.419273 -1.081678 55.177746 -25.831343 -136.69406
32597500000 -31.489882 -177.29408 -1.0528423 54.734577 -1.0671079 54.647171 -25.563051 -144.11763
32625000000 -32.414387 -176.43796 -1.0829208 54.19986 -1.0769446 53.996742 -25.837852 -145.86368
32652500000 -31.551435 -158.24724 -1.0891926 53.704105 -1.0970459 53.596565 -25.346685 -139.07877
32680000000 -31.178537 176.25154 -1.0646932 53.148808 -1.0795882 53.022087 -25.388798 -144.58072
32707500000 -30.59936 176.15794 -1.0728446 52.38393 -1.0917748 52.251793 -26.051891 -148.0284
32735000000 -32.806999 -172.31393 -1.0773082 51.811039 -1.086918 51.70406 -26.408453 -145.48376
32762500000 -30.317108 -177.95306 -1.0754561 51.441803 -1.1029661 51.23914 -25.377359 -147.44073
32790000000 -30.164898 172.00349 -1.0705138 50.752007 -1.1012282 50.559887 -25.628855 -155.41646
32817500000 -30.971102 -175.89796 -1.0458544 50.194874 -1.0784867 50.10564 -26.033829 -150.78828
32845000000 -30.759512 175.55644 -1.081597 49.655071 -1.0782115 49.582176 -26.124956 -149.75899
32872500000 -28.704483 167.07146 -1.0536733 49.022476 -1.072603 49.104946 -25.315992 -157.91331
32900000000 -30.896057 173.25337 -1.0880386 48.354538 -1.0944617 48.314098 -25.87211 -159.18896
32927500000 -30.382467 174.5274 -1.1029818 47.937679 -1.0878637 47.893105 -26.01461 -154.69817
32955000000 -28.819399 168.45622 -1.082219 47.442444 -1.0931287 47.379715 -25.809847 -157.12578
32982500000 -29.998041 164.77208 -1.0736573 46.771912 -1.081183 46.650795 -26.191153 -164.2567
33010000000 -30.876211 169.64833 -1.077535 46.201565 -1.0933944 46.161896 -26.392382 -159.82707
33037500000 -28.228125 162.42897 -1.0713172 45.685604 -1.0952874 45.70433 -26.015699 -164.30354
33065000000 -29.04385 161.73248 -1.0876149 45.110424 -1.0785397 44.998676 -25.928667 -168.40021
33092500000 -30.32214 159.37221 -1.0943997 44.594261 -1.089524 44.382565 -25.855165 -164.72984
33120000000 -28.244381 166.56284 -1.0751889 43.858253 -1.0926843 43.829128 -25.822668 -164.01064
33147500000 -27.691481 157.75157 -1.1058977 43.314468 -1.0897256 43.224403 -25.472521 -173.63963
33175000000 -29.865934 157.66335 -1.0873216 42.856869 -1.0726587 42.83345 -25.856083 -167.48096
33202500000 -28.344069 158.76851 -1.0706586 42.4245 -1.1020626 41.994232 -26.470873 -170.91859
33230000000 -27.604292 153.08282 -1.0998998 41.694378 -1.1060793 41.596737 -25.6514 -176.58331
33257500000 -29.105122 146.0307 -1.0831015 41.005165 -1.0977541 40.987438 -26.14238 -177.24529
33285000000 -28.375866 153.9238 -1.0811746 40.58033 -1.1105402 40.490482 -26.635199 -172.59991
33312500000 -27.098104 153.34872 -1.0643605 39.923656 -1.111411 40.02573 -25.804987 -177.27687
33340000000 -27.67198 141.04645 -1.0977064 39.429531 -1.1012633 39.284477 -25.814138 178.46359
33367500000 -28.549721 144.38544 -1.0896065 38.815567 -1.1059698 38.75613 -26.366922 -179.44891
33395000000 -27.677191 151.01389 -1.1048933 38.29945 -1.1004834 38.132622 -25.695604 178.69514
33422500000 -26.995783 141.52454 -1.1105164 37.644993 -1.1141098 37.757206 -25.549995 173.44597
33450000000 -27.580208 138.83577 -1.0953749 37.117504 -1.1138535 37.050632 -26.284109 177.3746
33477500000 -27.46195 148.44101 -1.1190175 36.55629 -1.0913911 36.640366 -25.068058 179.25433
33505000000 -26.343771 140.5645 -1.1067396 35.851749 -1.0932908 36.005783 -25.293419 167.52509
33532500000 -26.846533 129.49063 -1.1062243 35.449688 -1.1114247 35.511555 -26.155787 168.52925
33560000000 -28.099854 140.71988 -1.1038638 34.918919 -1.104701 34.792862 -25.513966 168.43646
33587500000 -26.482899 138.22156 -1.11596 34.415184 -1.1167212 34.1562 -25.056454 166.31523
33615000000 -26.204384 132.25371 -1.090566 33.823956 -1.1201136 33.712101 -26.680798 164.23492
33642500000 -27.459753 137.51038 -1.0945593 33.231236 -1.1117738 33.217239 -24.88759 166.74358
33670000000 -26.942978 137.22554 -1.0911314 32.681824 -1.1244348 32.568367 -24.827621 163.1104
33697500000 -25.747278 125.79841 -1.107874 32.113354 -1.1228472 31.938778 -25.59659 158.22252
33725000000 -26.958685 130.82607 -1.1278293 31.526606 -1.1079549 31.58984 -25.390923 162.20586
33752500000 -26.8258 129.01811 -1.1338381 30.760378 -1.1267078 30.857628 -25.246971 158.12378
33780000000 -25.132088 128.66121 -1.1199182 30.285412 -1.1177982 30.341715 -25.432701 157.17001
33807500000 -25.582008 120.40042 -1.1163294 29.936893 -1.1282254 29.645266 -25.601761 158.49138
33835000000 -26.487318 129.23419 -1.1173345 29.277445 -1.1324641 29.173384 -24.926277 155.44247
33862500000 -24.885189 128.03915 -1.1232157 28.628119 -1.1305598 28.681969 -25.410618 147.17807
33890000000 -25.124792 122.21676 -1.1339675 28.110109 -1.1315557 27.989717 -25.691694 151.64391
33917500000 -26.116745 117.41575 -1.1376687 27.602795 -1.1218802 27.395311 -25.08077 150.13606
33945000000 -25.27779 126.02747 -1.1282183 26.989862 -1.1323508 26.958776 -24.555634 143.65195
33972500000 -24.483679 118.09139 -1.1220702 26.496399 -1.1446934 26.353889 -24.964354 147.91313
34000000000 -25.947819 118.32078 -1.1329378 25.889292 -1.1276344 25.83045 -25.269457 143.73502
34027500000 -25.231298 120.0985 -1.1309357 25.199108 -1.1316013 25.138367 -24.088175 140.4574
34055000000 -24.035511 116.7461 -1.1472429 24.686924 -1.14491 24.665073 -24.553762 141.00877
34082500000 -24.786661 112.95428 -1.1359977 24.084436 -1.153459 23.942884 -25.253139 141.72617
34110000000 -24.744677 113.72446 -1.1407723 23.606171 -1.1401503 23.566925 -24.211506 134.46036
34137500000 -23.636265 113.16441 -1.1311519 23.086599 -1.1444458 23.055124 -24.475693 135.71315
34165000000 -24.126162 108.82468 -1.1522727 22.554729 -1.156369 22.424652 -24.354769 139.52692
34192500000 -24.332478 110.6858 -1.1531855 21.937763 -1.1747054 21.780876 -24.370012 134.35611
34220000000 -23.890411 114.03813 -1.1130199 21.375193 -1.1475016 21.214252 -24.032639 128.66611
34247500000 -23.651592 109.72155 -1.1255028 20.713051 -1.1574351 20.592857 -24.288755 130.32457
34275000000 -24.033472 105.22301 -1.1523645 20.206308 -1.1546521 20.276114 -24.941528 131.55774
34302500000 -23.74016 108.13872 -1.1408083 19.766172 -1.1673808 19.65164 -23.282059 124.49442
34330000000 -23.369913 106.70911 -1.1683502 19.076998 -1.1492759 18.921324 -24.829767 126.25927
34357500000 -23.4097 103.0407 -1.165574 18.558769 -1.1595516 18.461031 -24.030403 124.83742
34385000000 -23.272303 104.65545 -1.1536169 18.215811 -1.1524283 18.072044 -22.801695 122.62915
34412500000 -22.581375 106.28042 -1.1800466 17.414579 -1.1628369 17.351576 -24.072338 121.08428
34440000000 -22.754047 99.693298 -1.1432819 16.98847 -1.1532003 16.856461 -24.411314 121.48482
34467500000 -22.717693 103.16309 -1.1468644 16.21162 -1.1693517 16.243444 -23.455748 119.08489
34495000000 -22.832952 101.01435 -1.1671783 15.667619 -1.1671766 15.737988 -23.129755 115.54218
34522500000 -22.386885 101.24012 -1.1730664 15.201725 -1.1782032 15.006791 -24.42794 115.68185
34550000000 -22.688963 97.466637 -1.1577868 14.692823 -1.1803951 14.464485 -23.137266 115.68848
34577500000 -22.173779 102.63039 -1.1669334 14.306382 -1.1725574 14.135445 -22.82671 109.25323
34605000000 -21.885624 98.629097 -1.1585259 13.463574 -1.1806897 13.598214 -24.22353 110.83712
34632500000 -22.379225 96.097923 -1.1569201 13.244092 -1.1793656 12.839035 -23.275236 112.32629
34660000000 -22.088383 97.205284 -1.172088 12.490253 -1.1817429 12.495344 -22.500053 107.85443
34687500000 -21.824514 96.821449 -1.1891987 11.800449 -1.1799002 11.883096 -23.510464 109.60667
34715000000 -21.687656 92.71405 -1.1689579 11.371972 -1.1964709 11.197691 -23.623281 110.07497
34742500000 -22.256489 95.231659 -1.1824917 10.869597 -1.1788684 10.615332 -22.176071 105.28776
34770000000 -21.678255 97.080017 -1.1598001 10.211743 -1.1947756 10.203534 -22.598879 102.4324
34797500000 -21.64106 92.396233 -1.1784643 9.7353792 -1.1823356 9.488081 -23.502739 107.12079
34825000000 -21.620646 91.100662 -1.1583204 9.3682127 -1.183408 9.0078993 -22.128294 104.13295
34852500000 -21.409164 96.710663 -1.1663821 8.8197746 -1.1881585 8.5785522 -22.135365 98.263054
34880000000 -21.255585 90.956779 -1.1629407 7.9771342 -1.1707381 7.8928547 -23.375824 101.27979
34907500000 -21.55686 89.720337 -1.1420314 7.4050455 -1.1778213 7.3796906 -22.248049 102.75761
34935000000 -21.137579 92.054756 -1.175177 6.9983897 -1.1892903 6.8139396 -21.637253 100.60722
34962500000 -21.052757 90.591377 -1.1646667 6.1184859 -1.1775038 6.2343984 -22.783632 96.827942
34990000000 -21.079023 89.85199 -1.1501607 5.8807101 -1.1887783 5.7998962 -22.189352 98.414337
35017500000 -21.084654 88.842506 -1.1608067 5.3494506 -1.1681886 5.2403908 -21.109652 95.908203
35045000000 -20.523012 89.811714 -1.1783706 4.6089878 -1.1885241 4.4552794 -22.461994 92.938416
35072500000 -20.49119 84.302017 -1.1876934 4.0215397 -1.1796961 4.0884981 -22.278358 93.829796
35100000000 -20.467268 89.298393 -1.1954474 3.6138804 -1.1819125 3.571804 -21.00701 93.200661
35127500000 -20.534847 86.90712 -1.171311 3.0223119 -1.1902684 2.7958698 -21.345579 89.806587
35155000000 -20.265652 86.789848 -1.1626424 2.4532979 -1.1948172 2.4058175 -22.554964 90.301743
35182500000 -20.292896 84.374954 -1.2024347 1.9211066 -1.1808249 1.8992891 -20.985767 92.038834
35210000000 -20.333868 89.301483 -1.1698946 1.2059313 -1.1825304 1.1701776 -21.363955 88.622971
35237500000 -20.152956 82.664787 -1.16248 0.72198075 -1.1868217 0.51499444 -22.160494 87.008316
35265000000 -19.95343 83.57103 -1.2018615 0.19437137 -1.2075268 -0.071012989 -21.241714 87.93869
35292500000 -20.096531 85.137924 -1.1747335 -0.32818922 -1.1828117 -0.37926626 -20.735661 85.408958
35320000000 -19.532681 83.673729 -1.1676612 -0.89318681 -1.1698956 -1.0777464 -21.986555 81.777222
35347500000 -19.849737 81.865395 -1.1505008 -1.5493618 -1.2144918 -1.6811463 -21.26523 85.233643
35375000000 -19.957315 84.043587 -1.2022011 -2.0014369 -1.1966935 -2.2437739 -20.210169 84.145699
35402500000 -19.696543 81.683777 -1.1850547 -2.6819191 -1.1999829 -2.7091677 -21.212742 80.759735
35430000000 -19.364332 78.371597 -1.1936684 -3.2716551 -1.1999515 -3.3601971 -21.348251 80.272255
35457500000 -19.748827 83.364929 -1.2236369 -3.7533653 -1.2350323 -3.7083924 -20.211361 81.270088
35485000000 -19.599985 80.607643 -1.2150537 -4.1823416 -1.2100499 -4.5383167 -20.368168 79.862297
35512500000 -19.198542 77.163353 -1.1694225 -4.8288145 -1.240324 -5.0839186 -21.117172 77.602348
35540000000 -19.562914 75.993576 -1.2043086 -5.593442 -1.2430527 -5.6591792 -20.205154 79.886955
35567500000 -19.638191 81.644363 -1.1952865 -5.808569 -1.2363336 -6.0374441 -20.091026 74.720268
35595000000 -19.087809 74.288147 -1.2125796 -6.5535388 -1.2134333 -6.8070765 -20.859587 74.496414
35622500000 -19.291414 73.71125 -1.2157489 -7.0632672 -1.242847 -7.2781205 -20.303215 77.539536
35650000000 -19.47739 76.697731 -1.2327886 -7.6992488 -1.2104337 -7.8892717 -19.864296 74.765396
35677500000 -18.546721 74.451149 -1.2055204 -8.2673874 -1.2154077 -8.3098726 -20.090624 71.416161
35705000000 -18.663643 71.986244 -1.1996157 -8.6445007 -1.2022824 -8.883626 -20.151464 71.178383
35732500000 -19.238991 76.624588 -1.2260005 -9.1657362 -1.2177868 -9.45854 -19.72349 75.140411
35760000000 -18.866323 71.420242 -1.2130489 -9.8005457 -1.2095373 -9.9743938 -19.910488 67.678017
35787500000 -18.50296 69.271973 -1.2225336 -10.600327 -1.2467785 -10.483284 -20.08622 69.147552
35815000000 -19.217665 69.878426 -1.1983691 -10.924703 -1.2532392 -11.301837 -19.591396 71.339996
35842500000 -18.752901 72.287628 -1.218027 -11.774189 -1.2373811 -11.577127 -19.369387 66.156441
35870000000 -18.224205 67.787262 -1.2260987 -12.024562 -1.2315069 -12.056094 -19.904329 66.180481
35897500000 -18.943138 67.056328 -1.2391001 -12.640489 -1.2521598 -12.759295 -19.358677 71.137726
35925000000 -18.654005 69.957077 -1.1936744 -13.165161 -1.2511549 -13.479362 -19.13419 65.455254
35952500000 -18.24777 66.62265 -1.2582985 -13.808114 -1.2262604 -13.953201 -19.360043 63.260906
35980000000 -18.485107 64.230766 -1.231366 -14.499631 -1.2545587 -14.45019 -19.602604 62.764126
36007500000 -18.829422 68.635284 -1.2415948 -14.847595 -1.2680817 -15.009346 -19.350983 62.431091
36035000000 -18.327244 67.516846 -1.2237974 -15.391527 -1.1977521 -15.579694 -19.395744 61.906853
36062500000 -17.936373 62.797001 -1.2245716 -16.102654 -1.2600185 -16.150457 -19.632086 62.665955
36090000000 -18.796087 63.948509 -1.2640885 -16.682251 -1.2672048 -16.551445 -19.147146 61.331699
36117500000 -18.322758 64.009865 -1.237082 -17.04842 -1.2392226 -17.09581 -19.051735 58.915554
36145000000 -17.752043 62.794758 -1.2271748 -17.82967 -1.257111 -17.737192 -19.377687 60.500614
36172500000 -18.349157 60.869335 -1.2494149 -18.334469 -1.2496376 -18.306988 -19.150936 59.518181
36200000000 -18.417265 63.374996 -1.250474 -18.980072 -1.2579738 -18.979389 -18.893005 59.372116
36227500000 -17.748713 60.936737 -1.2073227 -19.299147 -1.2754341 -19.346088 -19.115225 57.152054
36255000000 -17.901352 55.29546 -1.2528782 -19.716724 -1.2272792 -19.95834 -18.97434 56.4869
36282500000 -18.326494 62.012333 -1.2579281 -20.406399 -1.2241887 -20.238844 -18.630667 54.99181
36310000000 -18.068195 59.710411 -1.2536403 -20.896275 -1.2577477 -20.900658 -18.468122 56.22747
36337500000 -17.64423 56.248833 -1.2430214 -21.608086 -1.2243469 -21.652267 -18.739044 52.891068
36365000000 -18.605967 56.092983 -1.2253336 -22.171629 -1.2695624 -21.887346 -18.290724 53.914295
36392500000 -17.953016 59.950523 -1.2688429 -22.512127 -1.2245442 -22.577765 -18.269014 52.238209
36420000000 -17.086918 55.881729 -1.2577493 -23.391396 -1.2511773 -23.305298 -18.32427 52.757126
36447500000 -18.096142 56.262203 -1.2276294 -23.736227 -1.2429793 -23.913445 -18.373415 51.450649
36475000000 -18.228107 56.626156 -1.2493535 -24.259001 -1.2495655 -24.251528 -18.2528 52.764038
36502500000 -17.162134 55.838371 -1.2514318 -25.141123 -1.2433095 -25.085686 -18.296686 48.596458
36530000000 -17.508362 52.619602 -1.2448007 -25.618008 -1.2833712 -25.540176 -18.469584 50.030731
36557500000 -18.275209 52.431438 -1.2085258 -25.820332 -1.2461014 -26.062899 -17.837786 49.190372
36585000000 -17.175415 52.156158 -1.253046 -26.590294 -1.2861418 -26.843426 -18.269581 47.425106
36612500000 -16.787956 52.38932 -1.2346129 -27.119226 -1.2464395 -27.175682 -18.081129 44.773617
36640000000 -18.086344 49.932865 -1.2348183 -27.534552 -1.2785122 -27.639437 -17.74288 47.641769
36667500000 -17.14423 52.058762 -1.2619627 -28.212843 -1.3003436 -28.381477 -17.750093 47.743465
36695000000 -16.701824 52.25034 -1.227854 -28.659931 -1.2911737 -28.791014 -17.349319 43.85302
36722500000 -17.779974 47.670296 -1.2835132 -29.390032 -1.260561 -29.450623 -17.514492 43.680073
36750000000 -17.445517 47.568787 -1.2409915 -30.036484 -1.2620174 -30.135477 -18.081717 44.889042
36777500000 -16.359726 49.348606 -1.2751855 -30.463234 -1.2569554 -30.558813 -17.538519 42.168594
36805000000 -17.258335 45.576893 -1.2608696 -30.929859 -1.2606783 -31.006878 -17.604357 41.619465
36832500000 -17.74522 45.546581 -1.2600745 -31.662148 -1.2858925 -31.803328 -17.72497 42.460819
36860000000 -16.334358 49.640289 -1.2818013 -31.832684 -1.2706579 -32.06649 -17.358063 38.044773
36887500000 -16.973377 44.977734 -1.2754639 -32.662601 -1.2790655 -32.743977 -17.237471 39.771889
36915000000 -17.527903 40.392658 -1.2745953 -33.268528 -1.2851028 -33.17548 -17.250235 40.659607
36942500000 -16.159407 47.486858 -1.297178 -33.803196 -1.3184706 -33.853245 -17.338326 38.435303
36970000000 -16.660532 44.180882 -1.2785258 -34.422173 -1.2629604 -34.272945 -17.090595 36.65818
36997500000 -17.107363 40.942848 -1.2752726 -34.967606 -1.289887 -35.031445 -17.06839 35.922058
37025000000 -16.729168 42.692795 -1.2828376 -35.485844 -1.2809206 -35.547916 -17.391747 36.516106
37052500000 -16.336088 46.2276 -1.2712951 -35.828907 -1.3068174 -36.08725 -16.777348 35.044292
37080000000 -17.199675 37.113831 -1.2585496 -36.458115 -1.2581294 -36.650669 -17.084595 34.187027
37107500000 -16.394838 40.820473 -1.2822958 -37.246162 -1.2890886 -37.250568 -17.131277 32.807304
37135000000 -16.409119 44.048477 -1.2473922 -37.646198 -1.2834784 -37.551907 -16.851273 33.162308
37162500000 -16.837101 35.723785 -1.2641128 -37.956955 -1.262538 -38.331635 -16.510233 33.304661
37190000000 -16.571404 37.374439 -1.2611898 -38.820126 -1.3170959 -39.039684 -17.052946 32.173477
37217500000 -16.223724 43.827492 -1.3076292 -39.289833 -1.3231916 -39.309254 -16.741274 31.908195
37245000000 -16.825069 37.079624 -1.2682161 -39.813316 -1.2665511 -39.67099 -16.326513 29.405584
37272500000 -16.45022 32.630878 -1.2308773 -40.198105 -1.2748516 -40.605057 -16.706116 29.473574
37300000000 -16.397125 40.280354 -1.2960535 -40.928528 -1.2887392 -41.044689 -16.819574 27.806141
37327500000 -16.414314 36.071552 -1.2568434 -41.512634 -1.2743086 -41.477711 -16.239891 28.864574
37355000000 -16.404312 30.974833 -1.2545669 -42.015804 -1.2687365 -42.017326 -16.551144 26.857868
37382500000 -16.047052 37.297604 -1.2756237 -42.505024 -1.3305674 -42.672104 -16.791491 27.09338
37410000000 -16.449492 37.787327 -1.2900141 -43.115566 -1.2863533 -43.169533 -16.490433 25.6612
37437500000 -16.124025 29.505474 -1.2545462 -43.497639 -1.2694203 -43.607239 -16.200045 25.330004
37465000000 -16.144819 35.166386 -1.2890924 -44.279369 -1.2621694 -44.306362 -16.807203 23.412298
37492500000 -16.316227 36.031357 -1.2953418 -44.720673 -1.2919439 -44.880077 -16.254189 25.511667
37520000000 -16.357058 29.80654 -1.2713811 -45.353432 -1.2580717 -45.290379 -16.32218 23.800865
37547500000 -15.951982 31.362215 -1.2820711 -46.081429 -1.2809912 -45.824604 -16.805735 21.353271
37575000000 -16.241743 35.784264 -1.2925881 -46.450054 -1.3022487 -46.539928 -16.479113 20.503096
37602500000 -15.922899 28.565954 -1.2724837 -46.925583 -1.2825469 -47.179859 -15.951463 23.565168
37630000000 -15.750235 30.312008 -1.2568324 -47.488331 -1.3066912 -47.579266 -16.352024 19.929647
37657500000 -16.277285 31.806849 -1.26841 -48.052361 -1.2885915 -47.927452 -16.521135 20.523499
37685000000 -15.994257 28.575617 -1.2661164 -48.68541 -1.3065453 -48.860764 -15.824847 20.519081
37712500000 -15.616669 26.398476 -1.287457 -49.326973 -1.2996355 -49.412804 -16.114252 18.174927
37740000000 -15.774001 29.030582 -1.3037568 -49.719002 -1.3085496 -49.651512 -16.285288 17.568775
37767500000 -15.948579 26.238462 -1.2888019 -50.368729 -1.2739087 -50.289539 -15.847856 19.676497
37795000000 -15.575521 25.40892 -1.2518935 -50.833534 -1.2645769 -50.995892 -15.936378 16.752201
37822500000 -15.886539 26.707573 -1.279901 -51.297508 -1.2833852 -51.510532 -16.202005 15.380406
37850000000 -16.020416 27.180208 -1.2739028 -51.830517 -1.2862455 -52.240448 -16.161354 17.477074
37877500000 -15.447914 23.619719 -1.3164445 -52.417957 -1.3237288 -52.783596 -15.830474 16.743326
37905000000 -15.698458 24.641867 -1.3022501 -53.098705 -1.2614099 -53.068001 -15.992903 12.247829
37932500000 -16.106377 23.802713 -1.3114189 -53.695232 -1.2842935 -53.593597 -15.934743 14.897638
37960000000 -15.465 22.231697 -1.2858313 -54.179512 -1.2675395 -54.305168 -15.65747 14.92861
37987500000 -15.818943 22.78153 -1.2687621 -54.601643 -1.3076065 -54.663647 -15.86555 11.535962
38015000000 -15.793969 22.931919 -1.276404 -55.243031 -1.2928928 -55.256248 -15.779017 11.281605
38042500000 -15.566498 21.246864 -1.2521318 -55.687462 -1.2913744 -56.101246 -15.678235 14.716105
38070000000 -15.419191 20.378582 -1.3025666 -56.222111 -1.2855831 -56.546028 -15.399982 10.292819
38097500000 -15.90627 22.955965 -1.272889 -56.833878 -1.283637 -56.711922 -16.11355 8.8312111
38125000000 -15.509279 20.788729 -1.2946607 -57.513157 -1.3013631 -57.608315 -15.630797 11.572132
38152500000 -15.606851 18.842125 -1.2911121 -58.046909 -1.3127545 -58.039528 -15.730254 9.50739
38180000000 -15.776567 19.381008 -1.2863865 -58.516487 -1.3319988 -58.455505 -15.478477 7.1609807
38207500000 -15.563051 20.444199 -1.2773172 -59.216141 -1.2489636 -59.168858 -15.877385 9.7990065
38235000000 -15.368682 17.681993 -1.3006088 -59.925247 -1.2999033 -59.836857 -15.4385 7.9538074
38262500000 -15.708468 15.77188 -1.2907611 -59.836426 -1.3021436 -60.370384 -15.675142 5.9541736
38290000000 -15.721169 18.098568 -1.2311193 -60.476707 -1.2779039 -60.767128 -16.031439 6.1576557
38317500000 -15.405075 15.62282 -1.2753056 -61.642452 -1.2843026 -61.437046 -15.570602 6.2438412
38345000000 -15.431183 16.790564 -1.2982726 -62.038727 -1.2820586 -61.777554 -15.436473 3.6434176
38372500000 -15.892388 15.632442 -1.3004383 -62.204453 -1.2941467 -62.360592 -15.717533 4.641305
38400000000 -14.996848 15.288503 -1.2308127 -63.186943 -1.2405581 -63.187386 -15.669481 3.4875326
38427500000 -15.662781 13.651442 -1.3047974 -63.495052 -1.3084583 -63.598618 -15.426203 2.8659408
38455000000 -15.405363 14.693636 -1.3145493 -64.016594 -1.2688925 -64.090126 -15.743169 2.6121275
38482500000 -15.427974 12.625072 -1.2889524 -64.766884 -1.301185 -64.907272 -15.758052 3.01388
38510000000 -15.157564 11.876678 -1.2798524 -65.303886 -1.2910472 -65.172768 -15.314034 1.4472811
38537500000 -15.989921 13.140104 -1.3342191 -65.727676 -1.2805107 -65.725586 -15.627388 0.8538596
38565000000 -15.41583 12.486248 -1.2749376 -66.160042 -1.2407448 -66.220337 -15.763527 -0.49024174
38592500000 -15.405854 11.344419 -1.2497028 -66.836807 -1.2976171 -66.946396 -15.43973 -1.456037
38620000000 -15.361282 8.7102413 -1.2851892 -67.380333 -1.3040568 -67.559425 -15.501393 -1.1333822
38647500000 -15.469273 11.953496 -1.257592 -68.01754 -1.2997528 -68.142433 -15.827699 -0.59515029
38675000000 -15.062202 8.3085003 -1.2903347 -68.845001 -1.277429 -68.638199 -15.455063 -3.2898803
38702500000 -15.407708 7.2242146 -1.2806678 -69.173271 -1.306245 -69.153442 -15.314698 -2.43121
38730000000 -15.585032 7.6590037 -1.2610589 -69.496651 -1.2945571 -69.662811 -15.664919 -2.5580096
38757500000 -15.194227 8.7717009 -1.2933937 -70.274864 -1.2448107 -70.414207 -15.393704 -6.0303297
38785000000 -15.449135 3.7965713 -1.3163836 -70.634155 -1.3036118 -70.771561 -15.184391 -4.2538681
38812500000 -15.726064 7.0506911 -1.2947482 -71.251846 -1.2575674 -71.291878 -15.41457 -4.6354904
38840000000 -15.139058 7.3729701 -1.2580529 -71.837219 -1.2510216 -71.836868 -15.60154 -4.8021426
38867500000 -14.961029 4.6672382 -1.3133909 -72.651382 -1.3003045 -72.569405 -15.075048 -5.3390894
38895000000 -15.930253 5.6618118 -1.2678446 -72.695557 -1.3504075 -72.718063 -15.426789 -6.1480379
38922500000 -15.476686 5.0031943 -1.2700073 -73.316597 -1.2747703 -73.434746 -15.687683 -9.1354265
38950000000 -14.908702 3.0637181 -1.2801788 -74.686279 -1.2925187 -74.377228 -15.244901 -7.2501674
38977500000 -15.563836 2.696661 -1.3406026 -74.197533 -1.340928 -74.751114 -15.105229 -7.6623306
39005000000 -15.753198 3.5648985 -1.2469783 -74.960388 -1.3081645 -75.272446 -15.686762 -8.9252005
39032500000 -14.944279 2.5569279 -1.2842257 -75.961853 -1.2753654 -75.959969 -15.251023 -8.9918671
39060000000 -15.297507 0.9892388 -1.3031257 -76.341904 -1.2975061 -76.475632 -15.238374 -8.2956076
39087500000 -15.904216 0.26188701 -1.2633773 -76.54496 -1.2884251 -76.781776 -15.789671 -10.119861
39115000000 -15.327744 1.5528455 -1.2723637 -77.603615 -1.2824885 -77.708527 -15.201251 -11.659451
39142500000 -15.080434 0.43045664 -1.262762 -78.291275 -1.2990811 -78.127159 -15.375003 -10.717337
39170000000 -16.002691 -3.5488138 -1.2973582 -78.343079 -1.3000224 -78.355293 -15.419431 -10.677943
39197500000 -15.117724 -0.034842692 -1.258653 -78.627769 -1.2642437 -79.151543 -15.227863 -14.650924
39225000000 -15.287248 -1.6281052 -1.2776062 -79.92334 -1.2707387 -79.753021 -15.299501 -12.888194
39252500000 -15.98805 -6.6273246 -1.315678 -80.120232 -1.297757 -80.375435 -15.646776 -13.274565
39280000000 -15.584669 -2.8091667 -1.247731 -80.735832 -1.26622 -80.69976 -15.322251 -15.32348
39307500000 -14.949947 -0.56054604 -1.2925323 -81.235878 -1.2744415 -81.518639 -15.010759 -15.234428
39335000000 -15.560792 -7.6110182 -1.2544515 -81.596756 -1.3118982 -81.905388 -15.268372 -14.406446
39362500000 -15.394267 -4.7468486 -1.2802753 -82.277344 -1.2923403 -82.501328 -15.73436 -16.035589
39390000000 -15.417956 -1.4558864 -1.2343839 -83.07618 -1.2694844 -83.086212 -15.159572 -16.275646
39417500000 -15.254355 -5.1630921 -1.2774405 -83.560249 -1.3160162 -83.82386 -15.232251 -15.969748
39445000000 -15.787282 -9.2439985 -1.271131 -84.046341 -1.3072224 -84.168266 -15.417921 -17.990721
39472500000 -15.05741 -0.0098817442 -1.246743 -84.820114 -1.2752512 -84.767136 -15.210206 -18.405844
39500000000 -15.605743 -7.0452151 -1.2485553 -85.266075 -1.2655516 -85.371155 -15.19123 -18.634254
39527500000 -15.12644 -10.980397 -1.2823107 -85.79966 -1.2803706 -85.736008 -15.593735 -18.77249
39555000000 -16.063101 -2.9735327 -1.2542235 -86.14518 -1.2537504 -85.998032 -15.094338 -20.021917
39582500000 -15.374201 -6.6517234 -1.2449934 -87.031067 -1.2552695 -87.245407 -15.302694 -21.529217
39610000000 -15.276939 -13.272869 -1.2530409 -87.242996 -1.2698239 -87.189651 -15.401288 -19.47924
39637500000 -15.42968 -8.2588501 -1.251265 -87.963333 -1.2620699 -87.762489 -15.168119 -22.335621
39665000000 -15.685967 -3.5501852 -1.2537588 -88.705948 -1.2272204 -88.387985 -15.2317 -21.21748
39692500000 -14.979291 -16.160845 -1.2460473 -88.863022 -1.2872074 -89.138573 -15.410151 -22.176495
39720000000 -15.8727 -9.6985111 -1.2496272 -89.666573 -1.2978823 -89.864548 -15.340834 -22.027771
39747500000 -15.86982 -7.8254929 -1.1940455 -90.10112 -1.2519518 -89.952248 -15.465569 -24.139738
39775000000 -15.572821 -14.104955 -1.2376858 -90.753342 -1.267228 -90.859245 -15.633698 -24.78878
39802500000 -15.182747 -14.093665 -1.2588997 -91.234482 -1.2795033 -91.447754 -15.387345 -24.408497
39830000000 -16.242046 -8.6140223 -1.2596531 -91.617722 -1.2398859 -91.884361 -15.031028 -26.395855
39857500000 -15.567143 -15.837525 -1.2525984 -92.506386 -1.257122 -92.475121 -15.42431 -27.308508
39885000000 -15.272516 -16.999361 -1.2969624 -93.003036 -1.2676799 -92.856491 -15.49277 -26.528505
39912500000 -16.262411 -11.270698 -1.2241554 -93.357384 -1.2499341 -93.246941 -15.24109 -26.819832
39940000000 -15.989466 -14.422633 -1.2083948 -94.151093 -1.2590408 -94.082596 -15.330931 -29.590706
39967500000 -15.174688 -16.49049 -1.2495227 -94.835678 -1.2809564 -94.949165 -15.794458 -28.234724
39995000000 -16.024446 -15.061977 -1.2884181 -95.213852 -1.279655 -95.570465 -15.389633 -28.335657
40022500000 -16.423231 -15.089992 -1.2045476 -95.751587 -1.2428663 -95.666504 -15.195706 -30.315071
40050000000 -15.090917 -19.547548 -1.2642721 -96.426979 -1.2388587 -96.428215 -15.670032 -30.392355
40077500000 -16.062555 -17.932339 -1.2403928 -97.309662 -1.225731 -96.742683 -15.447138 -28.9674
40105000000 -16.334976 -18.177399 -1.2507685 -97.527901 -1.2727523 -97.387283 -15.050442 -32.38694
40132500000 -15.462881 -18.500826 -1.2428548 -98.024429 -1.2700979 -97.96534 -15.730712 -33.120407
40160000000 -15.665119 -19.983679 -1.2673018 -98.571068 -1.2485923 -98.666412 -15.650457 -31.955105
40187500000 -17.068285 -20.066217 -1.2343082 -99.198975 -1.2678338 -98.880203 -15.298884 -33.309631
40215000000 -15.554903 -21.667559 -1.2250479 -99.470566 -1.239836 -99.567703 -15.466125 -33.93821
40242500000 -15.897512 -19.724319 -1.2291163 -100.21732 -1.2681264 -100.39427 -15.841055 -33.184479
40270000000 -16.703255 -20.268948 -1.2698637 -100.53965 -1.2134901 -100.74725 -15.333954 -33.608994
40297500000 -16.127665 -24.429205 -1.1957846 -101.38393 -1.2674488 -101.44441 -15.492877 -37.325012
40325000000 -15.546565 -20.745745 -1.2244107 -101.83185 -1.2468865 -101.79215 -15.915382 -35.549606
40352500000 -16.686705 -25.867764 -1.2642866 -102.51389 -1.2600198 -102.72225 -15.571371 -35.639698
40380000000 -16.692709 -24.144342 -1.2201118 -102.90683 -1.2305456 -103.20005 -15.399957 -38.71159
40407500000 -15.682835 -20.151085 -1.2502748 -103.71881 -1.2587422 -103.57611 -16.123863 -38.053539
40435000000 -16.812777 -23.358273 -1.2528582 -104.11739 -1.2734314 -104.27384 -15.958357 -37.08025
40462500000 -16.899399 -29.3454 -1.2547709 -104.88069 -1.2524198 -104.908 -15.469543 -39.192856
40490000000 -16.108458 -21.267227 -1.2171491 -105.06682 -1.2273623 -105.23102 -15.761752 -41.633194
40517500000 -16.393566 -26.251509 -1.2340101 -105.68362 -1.2700323 -106.1489 -16.208487 -38.767433
40545000000 -17.039797 -30.075294 -1.1905401 -106.45067 -1.2253078 -106.58214 -15.563536 -39.549858
40572500000 -16.217375 -23.44413 -1.2380881 -106.93474 -1.234817 -106.9457 -16.080032 -42.790836
40600000000 -16.639441 -24.844868 -1.2482879 -107.58694 -1.2359973 -107.55898 -16.471462 -40.637169
40627500000 -16.719427 -33.372044 -1.2131735 -108.11958 -1.2554963 -108.15669 -15.940701 -42.145493
40655000000 -16.328459 -27.163471 -1.2216971 -108.51763 -1.2261063 -108.72101 -15.849301 -44.437126
40682500000 -16.770819 -26.382763 -1.1991274 -109.18856 -1.2319838 -109.29434 -16.408812 -42.983601
40710000000 -16.344179 -34.330128 -1.218152 -109.94804 -1.2417939 -109.96733 -16.209026 -43.532455
40737500000 -17.165215 -31.022657 -1.2004453 -110.19703 -1.2135812 -110.37486 -15.992832 -46.313015
40765000000 -16.600872 -28.776909 -1.2267016 -110.92316 -1.2308488 -111.23884 -16.412504 -44.762665
40792500000 -16.746199 -30.472025 -1.1592081 -111.49432 -1.2381767 -111.5137 -16.469395 -45.373516
40820000000 -16.596876 -33.766144 -1.2140888 -112.13101 -1.240034 -112.30111 -15.868192 -46.075344
40847500000 -17.299492 -29.116577 -1.2132694 -112.68011 -1.2353477 -112.69411 -16.571274 -49.651943
40875000000 -16.342285 -34.370899 -1.2086598 -112.87623 -1.2309086 -113.19574 -16.810028 -43.904747
40902500000 -17.176689 -34.676529 -1.2178618 -114.03009 -1.2357954 -113.80053 -16.447828 -47.765564
40930000000 -17.23811 -32.498768 -1.2120079 -114.22412 -1.244658 -114.40977 -16.620331 -50.528095
40957500000 -17.505459 -32.181477 -1.2092172 -114.79459 -1.1892558 -114.82738 -17.023329 -49.706051
40985000000 -16.966331 -37.408554 -1.2398332 -115.5078 -1.2053939 -115.60748 -16.202766 -48.655109
41012500000 -17.603849 -34.485172 -1.2445636 -115.92068 -1.2328141 -116.09126 -16.553518 -51.352329
41040000000 -17.31179 -35.309612 -1.2032795 -116.55112 -1.2388208 -116.7462 -17.180845 -50.071667
41067500000 -17.079023 -35.236752 -1.1701539 -116.72224 -1.2140056 -117.17616 -16.798302 -48.580387
41095000000 -17.500252 -37.197548 -1.2280326 -117.84832 -1.2226735 -118.10046 -16.511852 -51.046005
41122500000 -17.900806 -33.254295 -1.2244326 -118.31114 -1.2028397 -118.37015 -17.089434 -52.417484
41150000000 -17.086218 -37.846588 -1.1988993 -118.97595 -1.2097964 -119.00158 -16.791418 -49.876579
41177500000 -17.620184 -36.231258 -1.1904887 -119.34434 -1.2398314 -119.52238 -17.023691 -55.436222
41205000000 -17.849937 -38.69183 -1.2545199 -119.95943 -1.2411524 -119.93336 -17.039898 -54.521233
41232500000 -17.293324 -39.329174 -1.2081087 -120.72221 -1.2125978 -120.68401 -17.072521 -51.319714
41260000000 -17.788168 -39.035042 -1.1869476 -121.19914 -1.2228643 -121.27199 -16.917397 -53.432095
41287500000 -18.104942 -40.292694 -1.2295592 -121.74553 -1.264225 -121.57468 -17.274199 -56.580349
41315000000 -17.828455 -41.46785 -1.2242844 -122.01603 -1.1999047 -122.24995 -17.690493 -52.620483
41342500000 -17.55249 -39.024704 -1.1796241 -122.77094 -1.1709002 -123.00115 -17.483067 -54.878841
41370000000 -18.32053 -41.861019 -1.1811843 -123.17953 -1.2245754 -123.54749 -17.257917 -54.873848
41397500000 -17.854721 -42.389725 -1.2585357 -123.56149 -1.2233573 -123.98962 -17.687029 -54.943981
41425000000 -17.725737 -40.322884 -1.1654476 -124.5209 -1.2057762 -124.39162 -17.693544 -54.326923
41452500000 -18.434795 -47.560608 -1.2053492 -125.08441 -1.1997823 -125.27875 -17.394958 -56.98188
41480000000 -18.069607 -40.793194 -1.2347784 -125.57626 -1.2603486 -125.57956 -17.834894 -59.228302
41507500000 -18.217531 -44.886677 -1.1707944 -126.13958 -1.2062745 -126.05058 -17.781946 -57.84412
41535000000 -18.387028 -45.798828 -1.1689062 -126.81506 -1.2176692 -126.60583 -17.794472 -59.57468
41562500000 -18.611397 -45.220581 -1.2742488 -127.29935 -1.2450014 -127.49078 -18.086842 -59.869156
41590000000 -18.761616 -45.180157 -1.2079247 -127.88126 -1.2310904 -127.83545 -18.19206 -56.368477
41617500000 -19.088808 -46.646149 -1.1534109 -128.24226 -1.2122073 -128.59671 -17.838337 -60.621132
41645000000 -18.208384 -47.19537 -1.1732213 -128.80621 -1.2547024 -129.31429 -18.458244 -61.90424
41672500000 -18.62981 -44.462929 -1.2153112 -129.21777 -1.2073292 -129.42554 -18.370132 -59.96788
41700000000 -18.685326 -46.231827 -1.1875433 -130.21716 -1.2019454 -130.32538 -18.065935 -60.165783
41727500000 -18.565619 -49.997601 -1.1646602 -131.01773 -1.2096149 -131.00267 -18.466896 -62.378464
41755000000 -19.45908 -44.881332 -1.2220854 -131.18504 -1.2058439 -131.00252 -18.811693 -61.037994
41782500000 -18.965307 -49.990253 -1.2011085 -131.70221 -1.1961184 -131.87543 -18.062603 -60.745403
41810000000 -19.142242 -49.608757 -1.1953437 -132.50459 -1.1927763 -132.31633 -18.341179 -67.788757
41837500000 -19.187988 -45.570004 -1.156513 -133.24278 -1.2171416 -132.93253 -18.896595 -63.292202
41865000000 -19.326136 -50.618919 -1.1666726 -133.46989 -1.1710523 -133.69695 -18.669235 -61.275616
41892500000 -19.476068 -52.407333 -1.1445006 -134.12416 -1.1900113 -133.98178 -19.071249 -62.180767
41920000000 -19.545998 -47.731709 -1.1863801 -134.64909 -1.131814 -135.08011 -19.685783 -64.667824
41947500000 -19.655605 -54.517357 -1.1689092 -134.97723 -1.2208048 -135.40616 -18.883387 -63.319767
41975000000 -19.882498 -52.350494 -1.1147344 -135.83044 -1.1972839 -135.55197 -18.435686 -67.257675
42002500000 -19.993286 -47.281712 -1.1800374 -136.64555 -1.2272224 -136.65327 -19.604956 -71.031319
42030000000 -20.155481 -48.349358 -1.2066938 -137.14438 -1.2319112 -137.10635 -19.817175 -66.64856
42057500000 -20.368433 -56.203583 -1.1558977 -137.17433 -1.1484699 -137.39597 -19.078772 -65.985649
42085000000 -20.589048 -51.455181 -1.141349 -138.18504 -1.1476034 -138.06964 -20.136374 -71.823753
42112500000 -20.669363 -50.732681 -1.1922626 -138.82213 -1.2023749 -138.91167 -20.12623 -67.223457
42140000000 -20.050034 -52.457741 -1.1895803 -139.20551 -1.1973255 -139.20735 -19.405754 -65.685547
42167500000 -21.322931 -51.364014 -1.1593795 -139.72832 -1.2050676 -139.81071 -19.88868 -72.914528
42195000000 -20.742617 -48.85812 -1.1587011 -140.60046 -1.2139988 -140.69099 -20.795933 -71.654083
42222500000 -20.711758 -55.446095 -1.1875188 -140.81941 -1.1728388 -140.87717 -19.522711 -65.75399
42250000000 -21.003656 -56.053829 -1.1478434 -141.42018 -1.1489279 -141.73785 -19.762838 -72.115662
42277500000 -22.250553 -51.642715 -1.176477 -142.3831 -1.1842709 -142.14378 -21.094475 -73.472656
42305000000 -20.585787 -55.208591 -1.1924194 -142.51129 -1.2208384 -143.22151 -19.998905 -64.982094
42332500000 -21.165972 -56.023792 -1.1560633 -143.23236 -1.1911771 -143.07808 -19.886236 -73.563423
42360000000 -23.779428 -55.436745 -1.1831813 -143.85954 -1.2249913 -144.13417 -21.306969 -77.589279
42387500000 -21.288824 -56.579372 -1.1655841 -144.55902 -1.1715029 -144.59528 -21.353601 -67.646835
42415000000 -21.026524 -60.242794 -1.2093157 -145.45583 -1.2085251 -145.02278 -20.652863 -72.149178
42442500000 -23.885714 -55.068199 -1.1202657 -145.68956 -1.1982412 -145.8593 -21.218161 -77.902496
42470000000 -21.874252 -61.029202 -1.167748 -145.93698 -1.1935661 -146.43268 -21.509375 -72.219208
42497500000 -22.413622 -54.929314 -1.2125992 -146.41945 -1.1654341 -146.9122 -20.407608 -69.073524
42525000000 -23.847639 -56.828724 -1.1730518 -147.32347 -1.1527017 -147.01227 -22.081781 -76.675606
42552500000 -23.43573 -52.133068 -1.1774539 -147.94609 -1.241202 -147.78563 -22.747665 -76.287788
42580000000 -21.558531 -61.703445 -1.213791 -148.32918 -1.2195401 -148.69989 -21.603048 -63.834137
42607500000 -23.894835 -57.356617 -1.1658211 -148.99794 -1.1852716 -148.80984 -21.663177 -75.79567
42635000000 -25.178057 -60.066448 -1.1608574 -149.60213 -1.1524664 -149.4819 -23.277147 -80.427528
42662500000 -21.982964 -51.16301 -1.2010196 -150.37276 -1.1906265 -150.39133 -22.163048 -67.957642
42690000000 -23.540941 -59.914223 -1.2187545 -151.02846 -1.1736372 -150.99667 -21.594378 -68.365845
42717500000 -24.857437 -68.73877 -1.194173 -150.71857 -1.2236184 -151.00996 -24.148674 -83.04248
42745000000 -23.064074 -55.656204 -1.2171594 -151.62831 -1.1846962 -152.05769 -23.826719 -65.051514
42772500000 -24.360008 -54.447113 -1.2154585 -152.09291 -1.1466035 -152.40237 -22.473347 -75.275154
42800000000 -26.083559 -75.655205 -1.1588451 -152.54276 -1.167287 -152.74518 -24.576513 -83.258583
42827500000 -25.554813 -50.098343 -1.1912457 -154.00125 -1.2242656 -153.88693 -23.225222 -68.013657
42855000000 -24.221565 -52.85667 -1.2030892 -154.41028 -1.2305433 -154.05142 -22.756079 -70.72966
42882500000 -26.244261 -61.915005 -1.1567957 -154.83276 -1.2144169 -154.63289 -23.905001 -83.279915
42910000000 -24.776316 -64.781067 -1.187448 -154.91273 -1.1654862 -155.12943 -24.611633 -76.927704
42937500000 -24.169924 -44.889141 -1.2042198 -156.32724 -1.1301854 -155.90694 -24.855587 -70.705711
42965000000 -26.027081 -66.838364 -1.1744655 -156.30437 -1.2729816 -156.39813 -24.05925 -85.463684
42992500000 -27.651608 -75.974472 -1.1221554 -157.10655 -1.2206221 -156.84138 -25.499861 -74.879349
43020000000 -26.011518 -42.455566 -1.1548595 -157.62102 -1.2282431 -157.8678 -24.597179 -65.175568
43047500000 -26.483248 -46.317776 -1.1767153 -158.19112 -1.2322192 -157.90436 -24.566168 -75.131866
43075000000 -27.778414 -75.650208 -1.1557127 -158.57031 -1.2274116 -158.3756 -25.873026 -97.409119
43102500000 -26.538559 -34.497929 -1.149989 -159.09517 -1.1556144 -159.16205 -25.39464 -69.489265
43130000000 -28.145891 -42.540276 -1.190605 -159.88232 -1.1967911 -159.54741 -26.184587 -72.982735
43157500000 -29.338264 -87.623756 -1.1675138 -159.88359 -1.2334306 -160.08095 -26.221468 -81.675156
43185000000 -28.972004 -56.080643 -1.1681595 -160.952 -1.2307433 -160.84447 -27.695623 -66.746887
43212500000 -28.328087 -36.795013 -1.1545826 -161.86568 -1.1536278 -161.65428 -26.124849 -73.233208
43240000000 -27.338345 -82.487755 -1.2057943 -162.22385 -1.1869054 -162.43378 -27.763851 -86.213272
43267500000 -31.198349 -52.499252 -1.2080796 -162.46017 -1.1156005 -162.90948 -28.106398 -82.510086
43295000000 -29.966457 -10.772799 -1.1720586 -162.8253 -1.1475335 -163.20717 -26.978233 -66.027863
43322500000 -29.747164 -78.598816 -1.1658288 -163.83151 -1.2591176 -163.79733 -29.264618 -78.759613
43350000000 -29.287867 -64.307076 -1.1882168 -164.46144 -1.2073066 -164.45726 -27.432011 -76.062347
43377500000 -31.504583 -16.983585 -1.1780596 -164.70628 -1.192899 -165.1254 -27.871538 -63.022827
43405000000 -30.778973 -55.64259 -1.1739651 -165.87816 -1.2346292 -165.50073 -29.00746 -67.78212
43432500000 -29.341534 -70.357712 -1.2355394 -165.43277 -1.2141385 -165.9465 -31.887924 -72.956512
43460000000 -35.070049 -43.529709 -1.2496238 -166.68404 -1.1909106 -166.59154 -30.658602 -40.139019
43487500000 -35.32428 -18.298687 -1.1631962 -167.05612 -1.1821911 -167.21703 -28.331148 -64.373619
43515000000 -30.532553 -65.924652 -1.1899157 -167.32442 -1.2400612 -167.99176 -31.298817 -81.822563
43542500000 -34.64045 2.5874548 -1.1959646 -168.30722 -1.2233778 -168.36832 -30.772148 -42.372906
43570000000 -34.064468 -1.1534767 -1.2375516 -169.14322 -1.1442277 -168.8828 -30.938192 -60.609257
43597500000 -30.577728 -50.261398 -1.2293857 -169.61676 -1.2209601 -169.56343 -37.612801 -92.268646
43625000000 -33.995522 -4.8919535 -1.1751257 -169.85751 -1.2195603 -169.94321 -31.279833 -41.168278
43652500000 -32.765316 28.304249 -1.194294 -170.68716 -1.2172817 -170.90009 -31.008261 -60.758331
43680000000 -32.107872 -46.007133 -1.261413 -171.1989 -1.2698855 -171.4702 -36.238083 -76.329117
43707500000 -35.141758 -25.252623 -1.1716223 -171.62413 -1.2099583 -171.37048 -33.712826 -59.736042
43735000000 -31.304441 37.620754 -1.1700494 -172.04643 -1.2336465 -172.4211 -33.061977 -37.230091
43762500000 -32.073864 -6.0693469 -1.2272609 -173.09969 -1.2037003 -173.06528 -36.838066 -71.912666
43790000000 -34.910675 -36.875332 -1.2157016 -173.61577 -1.2466271 -173.71176 -36.687508 -2.6675787
43817500000 -29.600895 45.747173 -1.2641855 -173.85928 -1.2564288 -174.11833 -36.82304 -19.844118
43845000000 -32.873901 13.409617 -1.2259253 -174.73114 -1.212813 -174.85378 -34.689228 -24.805555
43872500000 -31.413864 -4.848711 -1.1805263 -175.30089 -1.1924585 -175.85428 -38.676014 -6.2978387
43900000000 -33.463287 41.477318 -1.1696669 -175.66263 -1.2030063 -175.76384 -31.673988 3.5172348
43927500000 -31.761417 41.969505 -1.2082092 -176.52394 -1.1814415 -176.73497 -36.172905 -11.814428
43955000000 -32.256493 5.0330324 -1.1717029 -177.06241 -1.1816566 -177.07309 -34.616699 21.24711
43982500000 -31.536909 37.180588 -1.2158386 -177.85353 -1.2653974 -177.66992 -30.853672 -0.92227042
44010000000 -31.782381 52.795353 -1.1897856 -177.84341 -1.2374462 -178.40266 -34.742954 -24.048347
44037500000 -31.51955 17.711414 -1.1837174 -178.46078 -1.2518928 -178.94876 -33.387112 41.613987
44065000000 -30.186876 37.698784 -1.2761887 -179.36858 -1.2275844 -179.60699 -30.122017 20.753452
44092500000 -30.418694 58.803799 -1.1647296 -179.90372 -1.22922 179.94923 -31.399164 24.151873
44120000000 -29.603233 29.0382 -1.2230018 179.67589 -1.2541972 179.88422 -31.588751 30.374872
44147500000 -29.086752 23.39596 -1.2232146 179.07121 -1.275398 178.85699 -28.530277 40.535866
44175000000 -27.590153 62.996258 -1.2289133 178.6609 -1.1916652 178.35068 -29.335953 13.021236
44202500000 -28.383268 55.107822 -1.2018632 177.79636 -1.2347472 177.90529 -32.488388 20.028446
44230000000 -26.544012 39.00153 -1.2843739 176.79033 -1.2220569 176.94449 -29.09819 35.572632
44257500000 -26.968334 72.70462 -1.2362297 176.58246 -1.1863954 177.01424 -26.658701 15.230321
44285000000 -27.133905 50.49192 -1.2319759 176.52563 -1.2908751 175.69728 -29.998032 43.104633
44312500000 -26.406027 38.987309 -1.2401944 175.74126 -1.2358577 175.40941 -28.316536 40.812408
44340000000 -27.527857 49.838875 -1.2364615 174.83037 -1.2561879 174.85515 -26.155773 36.554901
44367500000 -25.158613 75.931915 -1.2479783 174.74011 -1.2593234 174.21371 -29.929327 23.237534
44395000000 -24.720676 38.290661 -1.2372724 173.71761 -1.2064239 173.56792 -27.434944 43.437214
44422500000 -26.800526 44.888371 -1.2570298 173.10144 -1.2259847 173.28725 -25.124371 30.805925
44450000000 -25.277615 61.323849 -1.2415555 173.06035 -1.2636099 172.58327 -27.81015 23.577835
44477500000 -24.812292 52.22142 -1.2040985 172.18057 -1.2456452 172.01244 -28.610245 48.287968
44505000000 -23.112526 45.742313 -1.2474585 171.48796 -1.2531842 171.82922 -23.805395 34.597637
44532500000 -25.593672 61.039749 -1.3181084 170.80058 -1.2461638 170.90375 -24.727022 22.178736
44560000000 -23.660128 48.738972 -1.1869744 170.57603 -1.2814449 170.48009 -27.372143 44.77515
44587500000 -24.342363 42.364189 -1.2112688 169.42538 -1.2776513 169.82458 -23.990862 45.765415
44615000000 -24.498592 55.061665 -1.2647521 169.55939 -1.2360252 169.18745 -23.587334 27.084421
44642500000 -24.505009 52.784393 -1.2694615 168.80276 -1.2657037 168.16368 -26.026707 40.779758
44670000000 -22.407187 40.914059 -1.292959 167.9212 -1.2947022 168.18156 -23.067583 43.313404
44697500000 -22.792965 53.368622 -1.2985864 167.46454 -1.2854136 167.17754 -22.78389 28.062925
44725000000 -23.810936 55.338226 -1.2598206 166.93378 -1.2737139 167.11685 -25.3769 31.258167
44752500000 -21.137526 46.737324 -1.3455341 166.66054 -1.2887514 166.49107 -23.452618 44.554947
44780000000 -22.603319 56.366306 -1.241006 165.95526 -1.3127323 165.99203 -21.333763 34.546284
44807500000 -22.116962 45.108936 -1.2916564 165.10086 -1.3007145 165.14594 -24.711983 26.167624
44835000000 -21.360657 49.140274 -1.2879912 164.92636 -1.3155206 164.73341 -23.423054 35.895592
44862500000 -21.387438 46.214832 -1.2721822 164.17587 -1.262289 163.93065 -21.073046 41.333866
44890000000 -22.522623 51.518646 -1.2710075 163.31999 -1.2797008 163.28566 -23.332989 28.122965
44917500000 -20.762911 46.100422 -1.2778609 163.20889 -1.307922 162.72728 -23.522221 38.104454
44945000000 -21.094099 49.692791 -1.3076911 162.86221 -1.3330543 162.36229 -20.939844 36.381275
44972500000 -20.868706 47.834846 -1.2242254 161.69705 -1.2945166 161.67087 -20.951674 24.933733
45000000000 -21.474325 46.291595 -1.2496055 161.4115 -1.3011193 161.48183 -22.689192 33.103737
