!Keysight Technologies,N5247B,MY61255062,A.19.80.06
!Date: Tuesday, May 26, 2026 11:40:43
!Correction: S11(C  2-Port  ) 
!S21(C  2-Port  ) 
!S12(C  2-Port  ) 
!S22(C  2-Port  ) 
!S2P File: Measurements: S11, S21, S12, S22:
# Hz S  dB   R 50
1000000000 -35.662361 -27.576851 -0.1226069 -14.369357 -0.12400531 -14.376844 -40.120159 -30.08264
1027500000 -35.938015 -32.361385 -0.13008411 -14.782608 -0.13047649 -14.779703 -40.443871 -35.709255
1055000000 -35.973057 -31.649199 -0.1342634 -15.165923 -0.1347456 -15.150167 -40.678478 -35.679832
1082500000 -36.193398 -32.73695 -0.13794884 -15.544971 -0.13941556 -15.538216 -41.027149 -37.073238
1110000000 -36.826183 -33.056145 -0.14962736 -15.888729 -0.15066734 -15.891439 -42.20208 -37.779297
1137500000 -36.344437 -32.650105 -0.15146604 -16.230959 -0.14986475 -16.230885 -42.913498 -32.155861
1165000000 -35.895493 -29.770582 -0.1459012 -16.596794 -0.14535592 -16.605778 -42.153198 -27.810127
1192500000 -35.737175 -31.130548 -0.14846575 -16.995125 -0.14851317 -16.990997 -42.25964 -27.087139
1220000000 -35.677521 -31.290539 -0.14913091 -17.376501 -0.14943954 -17.377478 -41.530907 -29.552101
1247500000 -35.923306 -31.196161 -0.15304458 -17.77812 -0.15206598 -17.774338 -41.175877 -31.47801
1275000000 -36.300045 -32.952408 -0.15907344 -18.161522 -0.1579289 -18.147346 -41.746075 -35.185238
1302500000 -36.581188 -33.396488 -0.16301249 -18.517363 -0.16208886 -18.52166 -42.20071 -37.595585
1330000000 -37.028847 -33.482269 -0.16615975 -18.873997 -0.16572459 -18.880871 -42.519112 -34.97683
1357500000 -37.012833 -33.032555 -0.16790615 -19.221846 -0.16653496 -19.219915 -43.131378 -31.105177
1385000000 -36.771133 -32.650009 -0.16748078 -19.577669 -0.16721256 -19.583179 -43.100288 -30.335035
1412500000 -36.854027 -32.039719 -0.16612129 -19.945219 -0.16512573 -19.935261 -42.28001 -25.528366
1440000000 -36.765278 -32.305462 -0.16527148 -20.314388 -0.16479421 -20.299807 -42.074013 -23.636841
1467500000 -36.29528 -34.221828 -0.16551591 -20.678009 -0.16497488 -20.667597 -42.298306 -24.548349
1495000000 -36.027668 -32.311859 -0.16390648 -21.037979 -0.16369949 -21.035595 -42.036125 -21.45488
1522500000 -35.817738 -31.13076 -0.16155659 -21.416243 -0.16094111 -21.404627 -41.302086 -19.612843
1550000000 -35.533257 -31.481455 -0.16080895 -21.793005 -0.15944132 -21.783354 -40.917301 -22.853455
1577500000 -35.391163 -31.929792 -0.15981917 -22.163343 -0.15846744 -22.172602 -40.787643 -24.43446
1605000000 -35.276642 -31.259071 -0.15801965 -22.554804 -0.15676373 -22.552151 -40.381657 -24.014101
1632500000 -35.198757 -32.261662 -0.15581433 -22.931643 -0.15645029 -22.936214 -40.246925 -26.615339
1660000000 -35.058899 -33.679333 -0.15672402 -23.32369 -0.1551106 -23.317375 -40.046463 -29.673456
1687500000 -34.870667 -33.877914 -0.15566407 -23.699392 -0.15350287 -23.706026 -39.972691 -26.880859
1715000000 -34.766754 -36.094162 -0.1540143 -24.089314 -0.15389737 -24.089121 -39.800301 -26.958773
1742500000 -34.491627 -36.406956 -0.15449657 -24.481575 -0.15187509 -24.480158 -39.620579 -30.361031
1770000000 -34.318554 -37.295757 -0.15395825 -24.868784 -0.15292044 -24.863655 -39.652222 -29.145941
1797500000 -34.281303 -37.572399 -0.15449147 -25.253521 -0.15354981 -25.24242 -39.299889 -28.637533
1825000000 -34.127151 -38.42651 -0.15523186 -25.635378 -0.15483241 -25.634802 -39.137333 -30.982496
1852500000 -34.046047 -38.813614 -0.15391615 -26.016064 -0.15337174 -26.021019 -39.00927 -31.874104
1880000000 -34.087486 -38.003044 -0.15474388 -26.395647 -0.15420367 -26.410524 -39.002464 -31.553326
1907500000 -34.0439 -39.797268 -0.15366539 -26.788269 -0.15326501 -26.788164 -38.734001 -32.700893
1935000000 -33.716869 -39.351429 -0.15349938 -27.181154 -0.15432115 -27.16757 -38.750896 -34.26606
1962500000 -33.930534 -39.547791 -0.15517311 -27.566807 -0.15410711 -27.556339 -38.545689 -34.556141
1990000000 -33.912254 -42.303452 -0.15581273 -27.948009 -0.15564932 -27.947824 -38.34082 -36.668533
2017500000 -33.777634 -43.183842 -0.15591066 -28.330462 -0.15625761 -28.333883 -38.294521 -38.288639
2045000000 -33.710777 -43.092728 -0.15655172 -28.710936 -0.15531261 -28.712074 -38.121868 -37.479408
2072500000 -33.651035 -44.494648 -0.15648356 -29.091087 -0.15594232 -29.102358 -38.141109 -39.810631
2100000000 -33.481815 -45.139126 -0.15414761 -29.487907 -0.15715477 -29.47794 -38.036999 -39.673985
2127500000 -33.549877 -45.602638 -0.15594071 -29.870367 -0.15641084 -29.876341 -38.044292 -41.115746
2155000000 -33.556236 -47.437004 -0.15673797 -30.252903 -0.15764678 -30.24695 -37.782207 -42.709221
2182500000 -33.256771 -47.797169 -0.15651093 -30.647951 -0.15707721 -30.650467 -37.837757 -42.651619
2210000000 -33.240891 -47.807552 -0.15705627 -31.023602 -0.15656568 -31.031742 -37.730644 -43.480721
2237500000 -33.376675 -49.822479 -0.15714779 -31.406719 -0.15817131 -31.412663 -37.645504 -45.99725
2265000000 -33.056652 -50.119164 -0.15822071 -31.79781 -0.1585743 -31.796406 -37.746147 -46.215897
2292500000 -32.898834 -49.351326 -0.15937902 -32.190659 -0.15859684 -32.180126 -37.441338 -45.94606
2320000000 -33.060566 -51.096348 -0.16108967 -32.573936 -0.16161005 -32.570374 -37.412533 -48.067749
2347500000 -32.785126 -52.069721 -0.16049279 -32.964436 -0.160889 -32.953182 -37.521656 -48.574635
2375000000 -32.585026 -51.352924 -0.16244034 -33.352615 -0.16179813 -33.350784 -37.552303 -47.464203
2402500000 -32.821186 -52.306118 -0.16221273 -33.736595 -0.16258813 -33.741158 -37.123604 -48.115414
2430000000 -32.813126 -55.060146 -0.16504775 -34.11409 -0.16333045 -34.119804 -37.246643 -50.124775
2457500000 -32.492538 -54.416267 -0.16514564 -34.504871 -0.16435516 -34.512409 -37.242165 -49.279434
2485000000 -32.772324 -54.684704 -0.16536559 -34.897823 -0.16562267 -34.88868 -36.949226 -49.635998
2512500000 -32.795155 -55.963444 -0.16816205 -35.277199 -0.16724055 -35.276726 -36.90229 -51.542904
2540000000 -32.490295 -56.889206 -0.16648465 -35.653427 -0.17161086 -35.661358 -36.848385 -51.195698
2567500000 -32.549953 -57.028168 -0.16936122 -36.036064 -0.1704272 -36.03511 -36.84631 -52.770706
2595000000 -32.83366 -57.533028 -0.17254433 -36.414066 -0.17029798 -36.418526 -36.79248 -53.65773
2622500000 -32.580444 -58.66003 -0.17161813 -36.801289 -0.17223001 -36.794296 -36.554295 -53.513893
2650000000 -32.38623 -59.616787 -0.17315041 -37.174305 -0.17409176 -37.178185 -36.527363 -55.817646
2677500000 -32.575958 -59.993748 -0.17268278 -37.555717 -0.17562033 -37.56525 -36.58215 -56.028976
2705000000 -32.426048 -60.145458 -0.17426097 -37.946716 -0.17385922 -37.940338 -36.418331 -57.319172
2732500000 -32.251072 -61.132107 -0.17463903 -38.32729 -0.17438304 -38.31139 -36.514702 -56.479424
2760000000 -32.320179 -61.693771 -0.17575349 -38.719334 -0.17546724 -38.711468 -36.371487 -60.000275
2787500000 -32.591465 -62.536251 -0.17745954 -39.090183 -0.1783538 -39.088184 -36.233932 -60.528481
2815000000 -32.255569 -62.316914 -0.17780121 -39.478596 -0.17790018 -39.476131 -36.243244 -60.292328
2842500000 -32.156635 -64.758636 -0.17946462 -39.868557 -0.18222049 -39.861935 -36.313942 -61.673691
2870000000 -32.18898 -64.246735 -0.17991571 -40.241714 -0.18176511 -40.24575 -36.311012 -62.608616
2897500000 -32.20797 -64.839973 -0.18346894 -40.624096 -0.18386266 -40.62854 -36.08889 -63.274445
2925000000 -32.086803 -65.795059 -0.1832459 -41.010258 -0.18536982 -41.005276 -36.1366 -63.589314
2952500000 -32.032925 -67.329445 -0.18463048 -41.374836 -0.1851683 -41.384937 -36.265011 -66.563797
2980000000 -31.978151 -65.494698 -0.18638732 -41.765316 -0.18668942 -41.747784 -36.15472 -65.735504
3007500000 -32.010872 -66.751213 -0.18793751 -42.142403 -0.18616143 -42.145695 -36.153576 -64.608315
3035000000 -32.063427 -68.326813 -0.18932037 -42.517639 -0.1877721 -42.514412 -36.276794 -66.999733
3062500000 -31.945925 -66.427849 -0.19029903 -42.892792 -0.18897319 -42.888451 -36.29184 -67.828812
3090000000 -32.039768 -66.95211 -0.18807133 -43.264072 -0.19024846 -43.270046 -36.256577 -65.482018
3117500000 -32.047367 -69.140274 -0.18786021 -43.645287 -0.19251949 -43.640465 -36.357601 -68.638062
3145000000 -32.047665 -68.471497 -0.19027036 -44.024017 -0.18961592 -44.031597 -36.232353 -68.917587
3172500000 -31.972641 -68.252747 -0.19216746 -44.397816 -0.19068092 -44.398293 -36.125607 -67.021324
3200000000 -31.920149 -70.284279 -0.19257145 -44.779434 -0.19235714 -44.774368 -36.172085 -66.676247
3227500000 -32.025005 -70.019478 -0.1921266 -45.168842 -0.19242775 -45.175869 -36.213928 -69.216042
3255000000 -31.882902 -69.64975 -0.19288372 -45.524914 -0.19421589 -45.533268 -35.96151 -68.852028
3282500000 -31.873604 -71.624428 -0.19485722 -45.924229 -0.19502266 -45.929703 -36.012794 -66.903313
3310000000 -31.92421 -72.104813 -0.19352621 -46.292881 -0.19522572 -46.299618 -36.195545 -70.80275
3337500000 -31.918571 -71.345123 -0.19591106 -46.665474 -0.19698793 -46.6633 -35.786663 -72.289497
3365000000 -32.008896 -73.621948 -0.19594601 -47.053806 -0.19838881 -47.030506 -35.84396 -69.298477
3392500000 -31.933493 -73.254868 -0.19626881 -47.420906 -0.19825768 -47.412441 -36.237694 -70.3545
3420000000 -31.854603 -73.216698 -0.19438183 -47.784687 -0.19640695 -47.786854 -35.942413 -73.939941
3447500000 -32.01046 -74.407196 -0.19519621 -48.171486 -0.19689989 -48.166569 -35.74527 -71.892738
3475000000 -31.845045 -75.498001 -0.19473188 -48.542736 -0.19299197 -48.545086 -35.92255 -69.626648
3502500000 -31.843334 -74.86322 -0.19419505 -48.919724 -0.19355436 -48.92131 -36.259388 -74.106888
3530000000 -31.867664 -74.581467 -0.19443056 -49.293652 -0.19704236 -49.312374 -35.803516 -74.387306
3557500000 -31.76284 -75.793961 -0.19413063 -49.68708 -0.19628614 -49.685867 -35.675426 -70.977783
3585000000 -31.612946 -75.777374 -0.19322796 -50.071129 -0.19531886 -50.066902 -35.914379 -71.888756
3612500000 -31.805267 -75.83606 -0.19293378 -50.455803 -0.19414687 -50.447521 -35.919746 -75.10611
3640000000 -31.657747 -76.847633 -0.19399771 -50.832962 -0.19581872 -50.825726 -35.496639 -74.021957
3667500000 -31.352362 -78.406204 -0.19469127 -51.210072 -0.19507681 -51.21368 -35.649429 -72.720772
3695000000 -31.691711 -77.377014 -0.19656375 -51.584362 -0.1953519 -51.59964 -35.727539 -76.363708
3722500000 -31.626558 -78.320099 -0.19585609 -51.983608 -0.19608736 -51.982201 -35.612591 -75.114464
3750000000 -31.288755 -80.562019 -0.19599637 -52.360775 -0.19542392 -52.359692 -35.476448 -73.137695
3777500000 -31.424154 -78.296288 -0.19855411 -52.741226 -0.19775808 -52.754738 -35.500202 -75.340004
3805000000 -31.650385 -79.46833 -0.19723903 -53.132809 -0.19860722 -53.134521 -35.612278 -76.848045
3832500000 -31.321257 -82.231773 -0.19877848 -53.508411 -0.19866358 -53.509682 -35.416363 -74.0672
3860000000 -31.099594 -80.402168 -0.19875138 -53.887615 -0.1988923 -53.885204 -35.353268 -75.691689
3887500000 -31.699844 -79.723961 -0.20073026 -54.276081 -0.19996555 -54.279942 -35.605602 -76.755051
3915000000 -31.324347 -83.506653 -0.19983897 -54.65168 -0.19914785 -54.649773 -35.302662 -75.321671
3942500000 -30.872431 -83.799438 -0.20057438 -55.017921 -0.20132728 -55.024494 -35.093178 -76.00338
3970000000 -31.284576 -79.874893 -0.20243829 -55.40411 -0.20255004 -55.394913 -35.487595 -77.078957
3997500000 -31.525763 -83.640945 -0.20355853 -55.782372 -0.20221102 -55.781738 -35.349949 -76.713661
4025000000 -30.977459 -86.198631 -0.20245348 -56.154556 -0.20050824 -56.155354 -34.976131 -77.699905
4052500000 -30.921619 -82.358147 -0.20097074 -56.526966 -0.20172887 -56.524429 -35.345047 -79.179718
4080000000 -31.446283 -82.520424 -0.2027152 -56.920959 -0.20079587 -56.909081 -35.218422 -78.226036
4107500000 -31.046749 -87.86734 -0.19980237 -57.293324 -0.19952293 -57.290951 -34.814369 -79.826019
4135000000 -30.7318 -86.122795 -0.200518 -57.662636 -0.19943838 -57.668442 -35.256821 -80.008057
4162500000 -31.114817 -83.710411 -0.20042068 -58.050091 -0.19972865 -58.049984 -35.174709 -78.775627
4190000000 -31.144091 -87.117828 -0.19933809 -58.441299 -0.20051962 -58.448067 -34.849251 -80.005699
4217500000 -30.767851 -88.029076 -0.19906248 -58.818981 -0.19876683 -58.826523 -34.921616 -79.92086
4245000000 -30.756168 -85.194275 -0.20052207 -59.208794 -0.20092791 -59.210438 -34.988655 -80.020233
4272500000 -31.056496 -86.525414 -0.20022902 -59.594406 -0.20092683 -59.599106 -35.011391 -80.830879
4300000000 -30.712175 -89.213333 -0.19982107 -59.967758 -0.20100735 -59.979847 -34.821644 -80.994301
4327500000 -30.617195 -87.243759 -0.20039764 -60.357967 -0.20127957 -60.356968 -34.851627 -81.613037
4355000000 -30.699995 -86.92466 -0.20289423 -60.742432 -0.20222078 -60.743816 -34.810177 -82.531227
4382500000 -30.707712 -89.021835 -0.20143519 -61.127728 -0.20251288 -61.126343 -34.802345 -81.508179
4410000000 -30.598021 -89.254837 -0.20220289 -61.503006 -0.20251884 -61.508171 -34.769962 -82.710022
4437500000 -30.551413 -88.160812 -0.20311746 -61.885094 -0.20288636 -61.886978 -34.967213 -82.391869
4465000000 -30.553425 -88.937866 -0.2050153 -62.273922 -0.20225957 -62.267612 -34.710445 -81.048836
4492500000 -30.583317 -89.830826 -0.20374952 -62.66357 -0.20297316 -62.650616 -34.676365 -82.553871
4520000000 -30.574404 -90.047417 -0.20345871 -63.025776 -0.20506251 -63.025372 -34.987705 -83.84153
4547500000 -30.485044 -89.844727 -0.20351134 -63.415699 -0.20367873 -63.412754 -34.617943 -82.346291
4575000000 -30.450508 -90.853447 -0.20481259 -63.795284 -0.2041478 -63.793053 -34.591801 -81.490852
4602500000 -30.463722 -91.026482 -0.20472331 -64.177147 -0.20529075 -64.181808 -34.80352 -84.890091
4630000000 -30.402458 -91.290337 -0.20550379 -64.563644 -0.20629229 -64.561882 -34.620239 -83.601105
4657500000 -30.35219 -91.728821 -0.20558332 -64.947311 -0.20777495 -64.942436 -34.391151 -82.655685
4685000000 -30.399044 -92.122459 -0.2070698 -65.329834 -0.2067527 -65.321754 -34.580544 -85.600227
4712500000 -30.385887 -92.192703 -0.20631157 -65.704094 -0.20623367 -65.703911 -34.466782 -84.046921
4740000000 -30.246161 -92.810303 -0.2069145 -66.080139 -0.20921817 -66.09671 -34.276897 -84.482796
4767500000 -30.269009 -93.171204 -0.20716429 -66.468971 -0.20797834 -66.477554 -34.27562 -85.594902
4795000000 -30.347897 -93.869896 -0.20770082 -66.842278 -0.20718084 -66.860924 -34.338718 -86.172409
4822500000 -30.143797 -93.294029 -0.20841719 -67.247147 -0.209721 -67.229996 -34.29258 -84.709557
4850000000 -30.126566 -94.419655 -0.20808777 -67.621193 -0.20891884 -67.625031 -34.349663 -86.115425
4877500000 -30.18527 -94.799416 -0.20901744 -68.006683 -0.21070237 -68.004684 -34.377941 -87.721413
4905000000 -30.064152 -94.232735 -0.21050103 -68.38253 -0.20968053 -68.39106 -34.174736 -85.530609
4932500000 -30.110216 -94.42511 -0.21018232 -68.777367 -0.21011221 -68.766853 -34.123524 -86.767159
4960000000 -30.051367 -95.639839 -0.2114986 -69.15728 -0.21098553 -69.153908 -34.278824 -88.164551
4987500000 -30.040203 -94.72171 -0.21188945 -69.530846 -0.21269079 -69.51767 -34.040821 -86.89666
5015000000 -30.01296 -94.911232 -0.21205688 -69.910065 -0.21309641 -69.911819 -33.998966 -85.818222
5042500000 -30.161671 -96.370956 -0.21189325 -70.296471 -0.21376856 -70.289688 -34.165283 -88.750671
5070000000 -30.053722 -95.836349 -0.21311273 -70.667175 -0.21529593 -70.674118 -34.017227 -87.225418
5097500000 -30.003483 -95.524132 -0.21429501 -71.049995 -0.21421643 -71.062576 -33.754631 -86.469177
5125000000 -30.072565 -97.444153 -0.21524452 -71.448853 -0.21426782 -71.440025 -33.980743 -89.219681
5152500000 -29.994616 -97.548141 -0.21488519 -71.830498 -0.21657866 -71.824715 -33.896172 -89.503288
5180000000 -29.921019 -96.95105 -0.21545424 -72.203232 -0.21622659 -72.186089 -33.724518 -87.309578
5207500000 -29.972786 -98.295776 -0.21653432 -72.594597 -0.2181876 -72.583015 -33.872311 -89.212479
5235000000 -29.919641 -98.508034 -0.21686138 -72.952187 -0.21803871 -72.959839 -33.755871 -90.825981
5262500000 -29.957413 -97.666969 -0.21967323 -73.342766 -0.21836317 -73.331078 -33.559143 -88.936752
5290000000 -30.093327 -98.449318 -0.21828178 -73.714096 -0.21947283 -73.725342 -33.739384 -89.307487
5317500000 -29.946541 -100.02172 -0.21904264 -74.098595 -0.2194102 -74.105911 -33.819771 -91.971855
5345000000 -29.843571 -99.067825 -0.2193062 -74.47831 -0.21813723 -74.490494 -33.438934 -90.537033
5372500000 -30.013815 -99.603386 -0.21941619 -74.859261 -0.21970072 -74.863312 -33.645374 -89.876823
5400000000 -29.87179 -101.73193 -0.21958691 -75.249504 -0.22194035 -75.252296 -33.747063 -93.489082
5427500000 -29.720552 -100.08295 -0.22042917 -75.613152 -0.22210628 -75.633034 -33.476654 -91.81459
5455000000 -29.91077 -100.19939 -0.22077778 -76.011948 -0.22283839 -76.007614 -33.385277 -90.690369
5482500000 -29.751945 -102.22225 -0.2211215 -76.390877 -0.22287245 -76.399551 -33.691761 -93.040268
5510000000 -29.73761 -101.33861 -0.22210164 -76.766556 -0.2229373 -76.781006 -33.5322 -94.333351
5537500000 -29.855347 -101.04046 -0.22265746 -77.145256 -0.22343573 -77.14933 -33.277847 -92.080978
5565000000 -29.830324 -103.31661 -0.22435805 -77.533867 -0.22312833 -77.533134 -33.439182 -92.887718
5592500000 -29.650831 -102.35125 -0.22394975 -77.900497 -0.22480403 -77.921272 -33.547211 -94.023445
5620000000 -29.829987 -101.2265 -0.22380093 -78.297157 -0.22488363 -78.293999 -33.233078 -92.636833
5647500000 -29.812567 -103.40163 -0.22365075 -78.674171 -0.22535528 -78.679054 -33.248505 -92.465744
5675000000 -29.568317 -103.40854 -0.22694182 -79.063759 -0.22575554 -79.056053 -33.419189 -94.244232
5702500000 -29.860573 -101.77023 -0.22604132 -79.435265 -0.22692192 -79.444946 -33.141224 -93.572311
5730000000 -29.901068 -103.59188 -0.2271584 -79.819908 -0.2289115 -79.831474 -33.163029 -94.007919
5757500000 -29.452808 -104.68513 -0.22808942 -80.206528 -0.22896308 -80.209091 -33.200756 -95.245346
5785000000 -29.698187 -102.70783 -0.22862254 -80.578636 -0.22994989 -80.583809 -33.153748 -95.489449
5812500000 -29.91362 -104.6374 -0.22965786 -80.968689 -0.23186277 -80.972099 -32.995369 -95.302826
5840000000 -29.583673 -106.09325 -0.22949466 -81.347839 -0.23154031 -81.352951 -33.134045 -95.166443
5867500000 -29.53134 -103.88972 -0.23174946 -81.719185 -0.23204681 -81.732559 -33.161873 -95.49781
5895000000 -29.835476 -105.4451 -0.23191574 -82.12262 -0.23429255 -82.112564 -32.92453 -96.442139
5922500000 -29.507927 -106.92978 -0.23301113 -82.486153 -0.23405105 -82.495453 -33.049919 -96.969025
5950000000 -29.478752 -105.27966 -0.23409858 -82.870766 -0.23654355 -82.866989 -33.073326 -96.482086
5977500000 -29.793289 -105.45694 -0.23567739 -83.246269 -0.23593375 -83.251816 -32.943069 -97.248833
6005000000 -29.433403 -107.45737 -0.23818998 -83.627403 -0.23671713 -83.623428 -32.864136 -97.72963
6032500000 -29.270584 -106.67796 -0.23770763 -83.993774 -0.23734836 -84.010178 -32.787193 -97.826866
6060000000 -29.661934 -105.18893 -0.24118477 -84.376297 -0.24054286 -84.37825 -32.848602 -98.128227
6087500000 -29.589928 -109.16726 -0.24022412 -84.7584 -0.24024054 -84.764374 -32.955017 -99.37812
6115000000 -29.152252 -108.16191 -0.23858431 -85.132248 -0.24125265 -85.144661 -32.772308 -99.573608
6142500000 -29.642963 -106.06587 -0.24177615 -85.506905 -0.24083836 -85.520317 -32.795876 -99.075928
6170000000 -29.817745 -110.72535 -0.24289894 -85.893044 -0.24340786 -85.901749 -32.919212 -100.16409
6197500000 -29.083984 -109.98184 -0.24296929 -86.278358 -0.24239472 -86.288933 -32.853203 -100.67456
6225000000 -29.403173 -107.09163 -0.2446291 -86.659546 -0.24393 -86.643936 -32.632439 -99.990379
6252500000 -29.98575 -109.89362 -0.2454209 -87.020248 -0.2472795 -87.025391 -32.942413 -99.305519
6280000000 -29.059772 -111.58165 -0.24733348 -87.392174 -0.24734007 -87.401718 -32.871326 -101.56699
6307500000 -29.196548 -106.55633 -0.24629395 -87.76104 -0.24627393 -87.755516 -32.63084 -100.34776
6335000000 -30.197998 -108.85703 -0.24684875 -88.130028 -0.24785718 -88.138664 -32.665382 -99.256416
6362500000 -29.400593 -113.50055 -0.24616764 -88.529892 -0.24727073 -88.525589 -32.729652 -101.2537
6390000000 -28.883095 -108.91553 -0.24622956 -88.899918 -0.2474705 -88.90049 -32.810627 -101.46204
6417500000 -29.988533 -106.59531 -0.24814469 -89.27137 -0.24886942 -89.272461 -32.651863 -99.92289
6445000000 -29.890772 -114.44352 -0.2496036 -89.647354 -0.25032282 -89.660393 -32.562515 -103.35241
6472500000 -28.83234 -112.4222 -0.24836259 -90.022896 -0.2480493 -90.024086 -32.539585 -103.03186
6500000000 -29.573431 -107.9903 -0.24883461 -90.389084 -0.25141981 -90.383598 -32.473721 -99.9785
6527500000 -30.077093 -111.65604 -0.24942593 -90.769531 -0.24858269 -90.769653 -32.419849 -103.19293
6555000000 -28.901169 -115.79023 -0.24859147 -91.146301 -0.24618025 -91.134567 -32.566486 -106.55669
6582500000 -29.097185 -110.84351 -0.24774483 -91.511436 -0.24745625 -91.536774 -32.083057 -102.02811
6610000000 -29.905832 -111.69882 -0.24751763 -91.904099 -0.24761985 -91.896698 -32.322952 -103.88593
6637500000 -29.331285 -116.35612 -0.24631339 -92.286522 -0.24887764 -92.286697 -32.771225 -107.25564
6665000000 -28.994627 -114.69972 -0.24756423 -92.656433 -0.24731156 -92.657089 -32.006615 -105.28185
6692500000 -29.576099 -112.36975 -0.24616382 -93.034233 -0.2485054 -93.042809 -31.986055 -104.37315
6720000000 -29.479193 -115.73296 -0.24534011 -93.414703 -0.24886557 -93.417526 -32.696266 -107.00815
6747500000 -29.027363 -116.45438 -0.24559949 -93.802376 -0.24592438 -93.792046 -32.320377 -108.16798
6775000000 -29.532354 -114.27349 -0.24819073 -94.167404 -0.24642983 -94.169548 -31.692366 -107.18191
6802500000 -29.502607 -116.27571 -0.24598931 -94.56723 -0.24862053 -94.563225 -32.599609 -106.04309
6830000000 -29.218962 -118.15637 -0.2477029 -94.952774 -0.24771495 -94.951492 -32.8592 -109.82299
6857500000 -29.382404 -116.23347 -0.24855529 -95.320328 -0.24761711 -95.317276 -31.942766 -108.81491
6885000000 -29.454599 -117.34698 -0.24673286 -95.709206 -0.24816251 -95.70797 -32.116383 -106.27043
6912500000 -29.302145 -117.82676 -0.24987887 -96.096092 -0.24963759 -96.09272 -32.81905 -107.56087
6940000000 -29.316961 -117.67896 -0.24975137 -96.45752 -0.25119546 -96.475853 -32.206287 -110.93346
6967500000 -29.488121 -118.79166 -0.25169301 -96.844063 -0.25056523 -96.836067 -31.842333 -108.78537
6995000000 -29.287012 -118.19918 -0.25295144 -97.202606 -0.25257143 -97.21524 -32.666641 -107.66324
7022500000 -29.311474 -118.73788 -0.25119025 -97.585846 -0.25307491 -97.596588 -32.576431 -111.63034
7050000000 -29.695259 -120.66002 -0.25231299 -97.976105 -0.2516804 -97.969711 -31.893862 -111.75025
7077500000 -29.365141 -119.79118 -0.25219393 -98.339478 -0.2524595 -98.346649 -32.306206 -108.05469
7105000000 -29.206551 -120.83755 -0.25253165 -98.733604 -0.25290781 -98.731277 -32.749088 -111.90441
7132500000 -29.543388 -120.72513 -0.25172812 -99.102539 -0.25325382 -99.121346 -31.850328 -113.23629
7160000000 -29.474161 -121.71187 -0.25420254 -99.489967 -0.25404033 -99.48761 -32.133335 -110.04181
7187500000 -29.151566 -122.43867 -0.25734848 -99.864723 -0.25519675 -99.877464 -32.846272 -111.76334
7215000000 -29.294323 -122.7364 -0.25736111 -100.23914 -0.25723422 -100.25232 -32.139797 -115.24026
7242500000 -29.499458 -122.34654 -0.25677559 -100.61663 -0.2598761 -100.62903 -31.896046 -111.48676
7270000000 -29.267557 -122.59618 -0.25781021 -100.9881 -0.25951445 -100.99565 -32.756424 -112.41185
7297500000 -29.293676 -125.1825 -0.25882503 -101.36646 -0.261345 -101.37256 -32.368824 -116.9707
7325000000 -29.529539 -124.63122 -0.25908443 -101.74002 -0.25849754 -101.74052 -31.725903 -113.78321
7352500000 -29.2773 -123.33964 -0.25897038 -102.09866 -0.25955734 -102.09932 -32.808754 -113.0779
7380000000 -29.440302 -125.6124 -0.25976205 -102.48119 -0.26065558 -102.47269 -32.618813 -118.20499
7407500000 -29.548878 -127.92759 -0.2584959 -102.83471 -0.25813764 -102.84187 -31.755859 -115.73909
7435000000 -29.227604 -125.19164 -0.2595304 -103.20849 -0.25754678 -103.21078 -32.642281 -113.21113
7462500000 -29.346531 -126.03349 -0.25762507 -103.59288 -0.25501776 -103.58853 -32.9394 -118.88837
7490000000 -29.649263 -130.01207 -0.25250503 -103.94637 -0.25414628 -103.97246 -31.746094 -119.13777
7517500000 -29.398117 -127.62054 -0.25430819 -104.32941 -0.25373542 -104.32328 -32.636227 -112.75329
7545000000 -29.184692 -127.26693 -0.25429502 -104.72677 -0.25073716 -104.72998 -33.373379 -119.74116
7572500000 -29.788822 -129.26643 -0.25139403 -105.08874 -0.25186557 -105.10246 -32.123646 -120.28706
7600000000 -29.695641 -129.51981 -0.25015169 -105.48203 -0.25258186 -105.47497 -32.360119 -112.46934
7627500000 -29.348289 -128.81494 -0.25080189 -105.86363 -0.24874771 -105.86728 -33.747089 -119.01222
7655000000 -29.695415 -129.5553 -0.24864547 -106.2524 -0.25057235 -106.26717 -32.146019 -122.71224
7682500000 -29.992098 -131.15889 -0.24821568 -106.63567 -0.25006479 -106.6436 -32.059498 -112.78179
7710000000 -29.373602 -130.63425 -0.24921127 -107.01095 -0.25019529 -107.0154 -33.87878 -118.01218
7737500000 -29.709629 -131.38544 -0.25188175 -107.41236 -0.24989176 -107.40926 -32.678543 -126.24519
7765000000 -30.061636 -131.34479 -0.25094479 -107.78395 -0.24880253 -107.79031 -31.847389 -113.87624
7792500000 -29.672396 -132.25505 -0.24941935 -108.16197 -0.2481965 -108.16113 -34.409687 -116.05174
7820000000 -29.763018 -133.35437 -0.25040096 -108.5638 -0.25359547 -108.5735 -33.105106 -131.84279
7847500000 -30.210085 -132.20161 -0.25076377 -108.95816 -0.25104982 -108.95601 -31.646572 -115.99705
7875000000 -29.80975 -134.83174 -0.25219724 -109.3329 -0.25140995 -109.33198 -34.621906 -110.22997
7902500000 -29.793768 -133.58766 -0.25423217 -109.75127 -0.25358394 -109.74503 -33.8699 -137.34917
7930000000 -30.274609 -131.74054 -0.25550231 -110.12807 -0.25420639 -110.12759 -31.047276 -118.53484
7957500000 -29.712225 -135.4232 -0.258733 -110.52081 -0.25877064 -110.51427 -34.147339 -100.02005
7985000000 -29.97509 -134.56955 -0.26615208 -110.92017 -0.26237276 -110.93406 -35.610619 -146.91077
8012500000 -30.674459 -129.3723 -0.27135852 -111.31419 -0.2694703 -111.33208 -30.068502 -126.78094
8040000000 -29.785551 -136.38437 -0.27790886 -111.72565 -0.27725846 -111.71637 -31.789137 -89.070862
8067500000 -30.299397 -138.64064 -0.29222968 -112.11852 -0.29291058 -112.08739 -41.258686 -170.85976
8095000000 -30.801237 -123.36498 -0.31029886 -112.48553 -0.31049293 -112.48503 -28.724556 -146.26208
8122500000 -29.675016 -136.77527 -0.32887936 -112.82613 -0.32930297 -112.80573 -27.708174 -89.801704
8150000000 -30.790222 -146.58759 -0.35823148 -113.07352 -0.35776937 -113.08646 -37.357273 9.5245571
8177500000 -29.790415 -115.69553 -0.38779184 -113.25896 -0.38469565 -113.2419 -27.579145 169.28575
8205000000 -29.29899 -137.48709 -0.40783033 -113.25112 -0.40828019 -113.25422 -23.017384 -118.28114
8232500000 -34.505394 -156.97269 -0.38886213 -113.07562 -0.39402965 -113.05196 -24.395378 -41.81189
8260000000 -27.145323 -120.93886 -0.33773616 -112.79854 -0.33823255 -112.79671 -25.66927 72.465012
8287500000 -28.620432 -145.22136 -0.21119314 -113.05879 -0.21020894 -113.08067 -22.037312 175.28661
8315000000 -35.151909 -99.331024 -0.095145956 -113.73811 -0.099100776 -113.71983 -20.695063 -112.8707
8342500000 -28.170919 -142.13771 -0.02453634 -114.67408 -0.023115972 -114.67518 -23.678162 -34.043236
8370000000 -30.801331 -154.43604 -0.027765326 -115.62464 -0.023653142 -115.64077 -29.11414 85.745865
8397500000 -30.165892 -114.84555 -0.050853424 -116.42514 -0.052377999 -116.42233 -24.755964 -165.0625
8425000000 -30.473486 -141.16222 -0.090796895 -116.99835 -0.090797946 -117.00886 -25.514107 -94.123917
8452500000 -32.336079 -143.93236 -0.11662443 -117.54723 -0.11760573 -117.54156 -34.282093 -17.782009
8480000000 -30.031336 -126.37859 -0.14081165 -117.93172 -0.13895503 -117.93665 -31.737152 177.45285
8507500000 -30.901033 -135.67159 -0.16000932 -118.30235 -0.1620096 -118.32703 -27.831642 -120.86917
8535000000 -32.345108 -138.01492 -0.17512009 -118.71796 -0.1724821 -118.69154 -32.679943 -68.237419
8562500000 -30.547169 -131.5126 -0.18089199 -119.04982 -0.18398364 -119.05527 -38.496822 -167.18239
8590000000 -30.857101 -136.87241 -0.1888791 -119.41654 -0.18891668 -119.43579 -29.961189 -132.38258
8617500000 -32.247032 -136.01854 -0.19464551 -119.7924 -0.19304204 -119.79385 -32.141415 -89.520271
8645000000 -30.941868 -132.07478 -0.19974382 -120.15181 -0.19839045 -120.15561 -40.948978 -128.0775
8672500000 -31.016834 -136.67331 -0.2031983 -120.52158 -0.20472303 -120.53193 -31.841778 -137.41165
8700000000 -32.308376 -134.14073 -0.20620543 -120.90107 -0.20445739 -120.90815 -32.120289 -101.10482
8727500000 -31.254639 -132.44096 -0.20772199 -121.27145 -0.20873931 -121.28202 -38.32967 -103.95058
8755000000 -31.177002 -135.51393 -0.20976093 -121.64774 -0.20952541 -121.65585 -33.445717 -137.73094
8782500000 -32.198044 -133.05774 -0.2107127 -122.02505 -0.21144126 -122.0301 -32.182594 -108.44959
8810000000 -31.647339 -131.51437 -0.21391919 -122.40132 -0.21053281 -122.40519 -36.558914 -99.20462
8837500000 -31.441441 -134.10683 -0.21391375 -122.79076 -0.21382457 -122.78632 -34.586964 -135.30609
8865000000 -32.214661 -132.7774 -0.21488737 -123.16005 -0.2133248 -123.14061 -32.386246 -113.6028
8892500000 -32.09761 -130.12396 -0.21569717 -123.52919 -0.21458928 -123.52743 -35.100189 -96.604187
8920000000 -31.4786 -133.08914 -0.21402633 -123.91518 -0.21510932 -123.9156 -35.533794 -127.91432
8947500000 -32.276932 -132.48575 -0.21514523 -124.2841 -0.2154858 -124.28664 -32.673382 -119.14178
8975000000 -32.609402 -130.0975 -0.21563323 -124.68105 -0.21689241 -124.67458 -34.164265 -99.355759
9002500000 -31.608582 -132.54526 -0.21444514 -125.07074 -0.21812907 -125.07866 -36.360149 -118.80594
9030000000 -32.204716 -132.0049 -0.2170105 -125.45056 -0.21727392 -125.4424 -33.174614 -120.86167
9057500000 -32.666 -128.94196 -0.21621925 -125.83546 -0.21952401 -125.84122 -33.576118 -101.28617
9085000000 -31.867077 -130.61829 -0.21936229 -126.21448 -0.21632753 -126.21955 -35.775181 -110.25267
9112500000 -32.189934 -132.09506 -0.21892449 -126.59721 -0.21775945 -126.61391 -33.70306 -121.86005
9140000000 -32.456848 -128.92413 -0.21874918 -126.98046 -0.21984559 -126.98045 -33.281002 -105.15921
9167500000 -32.190907 -129.47238 -0.22036381 -127.37051 -0.22136775 -127.37001 -35.296192 -104.10869
9195000000 -32.036945 -130.88658 -0.22018543 -127.759 -0.22325096 -127.76279 -34.210651 -119.68787
9222500000 -32.757603 -128.39146 -0.22297136 -128.14394 -0.21960652 -128.13713 -33.268684 -108.61125
9250000000 -32.481285 -129.11502 -0.22334197 -128.52237 -0.22221389 -128.5267 -34.631603 -102.27941
9277500000 -32.122341 -130.84038 -0.221535 -128.91917 -0.22244711 -128.9312 -34.536366 -118.17383
9305000000 -32.602444 -129.96771 -0.22276045 -129.30379 -0.22213706 -129.31364 -33.182724 -111.32668
9332500000 -32.505123 -128.69283 -0.22224005 -129.6833 -0.2252923 -129.69588 -33.944099 -100.60164
9360000000 -31.901669 -128.73061 -0.22735642 -130.09166 -0.22685865 -130.09396 -34.675076 -111.45052
9387500000 -32.589851 -128.40228 -0.2268641 -130.48045 -0.22942671 -130.4848 -33.330997 -113.92619
9415000000 -32.312527 -127.77132 -0.22935139 -130.84958 -0.2304868 -130.85809 -33.447678 -102.51597
9442500000 -31.97081 -126.13094 -0.23216479 -131.25249 -0.23357353 -131.24567 -34.276253 -107.47141
9470000000 -32.296165 -128.02464 -0.23407836 -131.6295 -0.23538825 -131.64619 -33.445282 -113.71331
9497500000 -32.371426 -127.72691 -0.23482834 -132.02711 -0.23630711 -132.02032 -33.082146 -104.95555
9525000000 -31.801205 -125.14844 -0.23822798 -132.40678 -0.23960096 -132.39351 -33.696732 -105.20435
9552500000 -32.038895 -125.87879 -0.23934218 -132.79433 -0.24439606 -132.78314 -33.398838 -111.60268
9580000000 -32.300571 -127.74179 -0.24216096 -133.16469 -0.24392287 -133.17265 -32.890873 -107.28109
9607500000 -31.813784 -126.08979 -0.24601889 -133.54222 -0.24754038 -133.54765 -33.060715 -104.44236
9635000000 -31.766497 -126.39873 -0.24972203 -133.92232 -0.25041988 -133.92224 -33.179081 -109.89714
9662500000 -31.871075 -127.56596 -0.2522082 -134.30455 -0.25214893 -134.29807 -32.681667 -110.2578
9690000000 -31.655598 -127.82411 -0.25446659 -134.66554 -0.25685027 -134.66338 -32.553978 -106.83249
9717500000 -31.42214 -126.25397 -0.26013279 -135.02878 -0.25905943 -135.03633 -32.737537 -111.41219
9745000000 -31.65522 -129.93204 -0.26291892 -135.40076 -0.26058275 -135.41168 -32.497528 -112.61406
9772500000 -31.75618 -129.30154 -0.26535925 -135.74449 -0.26525745 -135.76674 -32.308891 -111.43819
9800000000 -31.363163 -128.88513 -0.26686084 -136.10744 -0.26924446 -136.09795 -32.513172 -113.56778
9827500000 -31.619617 -133.78923 -0.26883879 -136.47137 -0.26760468 -136.45056 -32.641712 -117.74977
9855000000 -31.625874 -134.28795 -0.26762724 -136.78911 -0.26426613 -136.78575 -32.431629 -115.82352
9882500000 -31.943323 -132.83173 -0.26539502 -137.14003 -0.26721925 -137.1355 -32.563118 -115.69802
9910000000 -31.893612 -136.78085 -0.26142803 -137.5002 -0.26256856 -137.50125 -33.147072 -120.96915
9937500000 -32.025848 -138.16045 -0.25600779 -137.86026 -0.25723779 -137.87152 -33.247864 -121.18283
9965000000 -32.679852 -135.87007 -0.25557262 -138.22878 -0.25341928 -138.23427 -33.173809 -117.33909
9992500000 -32.605789 -137.02969 -0.24917947 -138.60304 -0.2494273 -138.61186 -33.920494 -119.36546
10020000000 -32.570435 -139.03281 -0.24197048 -138.99529 -0.2443725 -139.00291 -34.015499 -120.10661
10047500000 -33.191902 -135.74899 -0.2431152 -139.37833 -0.24084191 -139.38109 -33.647503 -115.70853
10075000000 -33.182663 -134.94574 -0.23908946 -139.78067 -0.2401984 -139.78746 -34.231724 -113.81573
10102500000 -33.050076 -137.80765 -0.23472561 -140.19699 -0.23713976 -140.19131 -34.835831 -116.37237
10130000000 -33.468601 -132.85645 -0.23652469 -140.57924 -0.23494665 -140.58698 -34.001476 -113.43457
10157500000 -33.607708 -127.96439 -0.23313294 -140.98268 -0.23657717 -140.98203 -33.766479 -108.76686
10185000000 -33.193584 -132.5722 -0.2354369 -141.3988 -0.23409256 -141.41701 -34.702461 -111.02696
10212500000 -33.384529 -131.75813 -0.2315384 -141.7991 -0.23191902 -141.77792 -33.796741 -110.31409
10240000000 -33.408295 -123.47974 -0.2338915 -142.18449 -0.23041254 -142.16841 -32.999794 -108.22733
10267500000 -33.210121 -126.17023 -0.23708236 -142.59302 -0.2343073 -142.60533 -34.011158 -108.26304
10295000000 -33.704292 -131.60651 -0.23599333 -142.98384 -0.23814869 -142.99506 -33.571926 -110.53906
10322500000 -33.483566 -122.92311 -0.23936024 -143.37158 -0.24157529 -143.37878 -32.487213 -107.98006
10350000000 -33.142948 -123.94336 -0.24301282 -143.7708 -0.24347083 -143.77711 -33.198074 -106.58438
10377500000 -33.683426 -129.63744 -0.24823487 -144.16144 -0.24822472 -144.17781 -33.418198 -111.70417
10405000000 -33.471951 -128.75006 -0.25234371 -144.52423 -0.24895413 -144.54126 -32.088249 -110.78151
10432500000 -32.611679 -124.04568 -0.25925642 -144.90451 -0.25503039 -144.91226 -32.45295 -109.35651
10460000000 -33.287636 -132.23421 -0.26002809 -145.28613 -0.26115313 -145.29422 -33.250103 -115.08154
10487500000 -33.349064 -134.63553 -0.26062533 -145.60449 -0.26378036 -145.6015 -32.174129 -115.74873
10515000000 -32.520599 -129.56049 -0.262997 -145.96095 -0.26548445 -145.98558 -32.38937 -114.50949
10542500000 -33.178936 -134.0854 -0.26108658 -146.30455 -0.26225454 -146.30605 -33.828297 -117.50846
10570000000 -34.236332 -137.88451 -0.25769815 -146.64604 -0.25478306 -146.65712 -33.162979 -121.7701
10597500000 -33.88747 -134.23392 -0.25231737 -147.01233 -0.25179863 -147.05911 -32.736298 -114.49294
10625000000 -33.949455 -133.84067 -0.24779525 -147.42613 -0.24984077 -147.43451 -34.417091 -114.87369
10652500000 -34.782757 -140.14496 -0.24429584 -147.80536 -0.24424325 -147.82829 -34.259869 -119.58128
10680000000 -34.68454 -132.976 -0.2445275 -148.21278 -0.24196883 -148.21184 -32.952061 -113.9762
10707500000 -34.359753 -130.87805 -0.24287321 -148.60327 -0.24381335 -148.60394 -34.405895 -111.02831
10735000000 -34.889217 -137.65715 -0.24274015 -149.01915 -0.24081975 -149.02371 -35.156601 -114.55208
10762500000 -34.808891 -130.37273 -0.2384164 -149.39995 -0.24142313 -149.40427 -33.263226 -111.52111
10790000000 -34.538101 -129.44717 -0.24176905 -149.80241 -0.24340759 -149.78471 -33.723408 -107.36624
10817500000 -34.431328 -132.71581 -0.24547404 -150.19688 -0.24173018 -150.19432 -35.045452 -109.71797
10845000000 -34.340591 -129.22729 -0.23945214 -150.58569 -0.24312972 -150.56111 -33.437477 -110.97768
10872500000 -34.17065 -123.71686 -0.24484628 -150.95074 -0.24307413 -150.97725 -32.914097 -106.31821
10900000000 -34.445377 -126.87222 -0.24359541 -151.36467 -0.24496432 -151.3625 -34.5578 -106.23628
10927500000 -34.257362 -129.15442 -0.24365044 -151.7471 -0.24163494 -151.73744 -33.562397 -109.36206
10955000000 -34.125225 -117.97836 -0.24477781 -152.14148 -0.24411757 -152.12277 -32.429531 -106.70494
10982500000 -34.435688 -122.50433 -0.24601533 -152.51938 -0.24658188 -152.52882 -33.879162 -105.01105
11010000000 -34.79871 -126.44042 -0.24660106 -152.91237 -0.24634627 -152.9135 -33.551651 -110.44974
11037500000 -33.909389 -119.5269 -0.24756615 -153.29027 -0.24867369 -153.30544 -32.037182 -107.44358
11065000000 -34.356636 -117.16827 -0.24872606 -153.68257 -0.25349036 -153.69379 -32.972797 -103.75632
11092500000 -34.776535 -125.1383 -0.25455716 -154.08519 -0.2535148 -154.08076 -33.638481 -110.56768
11120000000 -33.947521 -120.20364 -0.25589713 -154.46822 -0.25492993 -154.47083 -32.140266 -110.81294
11147500000 -34.382065 -115.6396 -0.25703016 -154.84676 -0.25963977 -154.85551 -32.251785 -107.5097
11175000000 -34.125698 -123.06394 -0.26674604 -155.23753 -0.26395503 -155.23505 -33.401615 -111.12794
11202500000 -33.982433 -128.2653 -0.27113891 -155.5779 -0.26923454 -155.58385 -32.210541 -115.17418
11230000000 -34.065655 -125.47455 -0.27428612 -155.88544 -0.27543443 -155.87943 -32.002903 -112.98776
11257500000 -34.649548 -130.96213 -0.26628035 -156.22079 -0.26801243 -156.22769 -34.204716 -113.46317
11285000000 -34.764709 -134.56825 -0.25650424 -156.59425 -0.25797173 -156.58382 -33.864017 -116.21741
11312500000 -34.318523 -126.11951 -0.25465816 -156.99992 -0.2538636 -156.99062 -32.949936 -109.42483
11340000000 -34.667709 -120.46305 -0.25439137 -157.41515 -0.2541773 -157.41423 -33.981941 -106.61977
11367500000 -34.812996 -123.18092 -0.25196788 -157.81473 -0.25089705 -157.78529 -34.056881 -110.64809
11395000000 -35.154339 -125.62453 -0.25051695 -158.1926 -0.25104353 -158.19057 -32.654484 -107.75087
11422500000 -33.604233 -121.6808 -0.2551811 -158.58603 -0.25050709 -158.59521 -33.520611 -102.04457
11450000000 -32.8867 -117.09573 -0.2545794 -158.98152 -0.25495243 -158.98431 -33.713474 -105.71144
11477500000 -34.670788 -108.64889 -0.25236046 -159.37488 -0.25443968 -159.36366 -32.127575 -109.69595
11505000000 -35.247852 -110.95488 -0.25394976 -159.74635 -0.25640485 -159.75139 -32.467556 -107.18663
11532500000 -34.437336 -117.72998 -0.25503865 -160.14503 -0.25513884 -160.13765 -33.654552 -107.40625
11560000000 -34.581902 -113.64524 -0.25357103 -160.53406 -0.25395936 -160.53093 -32.513466 -109.66129
11587500000 -35.083427 -115.97462 -0.25651634 -160.8943 -0.25734738 -160.89793 -32.490944 -106.30046
11615000000 -33.947365 -114.12177 -0.25974584 -161.28491 -0.25831485 -161.28688 -33.533993 -105.97351
11642500000 -34.113075 -116.57082 -0.2568942 -161.68216 -0.25944138 -161.67838 -32.534489 -110.73502
11670000000 -34.811626 -111.61221 -0.26110694 -162.04594 -0.26214096 -162.06659 -32.018257 -107.19839
11697500000 -34.106991 -114.68736 -0.26776627 -162.42293 -0.26723495 -162.43069 -33.085426 -106.81897
11725000000 -33.844364 -118.04089 -0.26678073 -162.80753 -0.26557583 -162.78339 -32.725151 -111.04684
11752500000 -34.704712 -113.30045 -0.26457426 -163.12163 -0.26556784 -163.13132 -31.946901 -110.49561
11780000000 -34.890575 -108.08767 -0.26123118 -163.52884 -0.26270413 -163.52959 -32.876945 -108.12526
11807500000 -35.230572 -108.1902 -0.25850359 -163.91335 -0.26041451 -163.94159 -33.261837 -111.8969
11835000000 -36.392483 -116.68557 -0.257112 -164.31946 -0.25871211 -164.30249 -32.529545 -110.73508
11862500000 -35.179199 -116.31009 -0.26023889 -164.69566 -0.26030704 -164.69307 -33.0504 -106.01105
11890000000 -33.952374 -112.59081 -0.26028672 -165.09174 -0.26102173 -165.08261 -33.591469 -107.50755
11917500000 -35.166931 -113.49682 -0.26171178 -165.4626 -0.25920284 -165.47336 -32.514782 -108.65446
11945000000 -35.212536 -116.85184 -0.2618286 -165.83012 -0.2638326 -165.84462 -32.725468 -105.24206
11972500000 -33.571205 -114.01498 -0.26360375 -166.23189 -0.26446423 -166.22847 -33.629578 -105.61397
12000000000 -34.153355 -112.16179 -0.26161417 -166.59769 -0.25880718 -166.6055 -32.550831 -107.5149
12027500000 -34.489044 -112.22934 -0.26580697 -166.98521 -0.2619859 -166.98512 -32.144905 -104.41167
12055000000 -33.723225 -107.44129 -0.26498476 -167.37982 -0.26324371 -167.36885 -32.991562 -104.58842
12082500000 -33.839584 -108.9948 -0.26376465 -167.75543 -0.26434758 -167.74844 -32.540115 -107.15501
12110000000 -34.354942 -112.51221 -0.26306027 -168.11844 -0.2649501 -168.12186 -31.738449 -105.30768
12137500000 -33.141247 -105.45152 -0.26373029 -168.52579 -0.26786485 -168.51793 -32.566814 -103.88401
12165000000 -33.590813 -103.70123 -0.26464966 -168.9016 -0.26836735 -168.90517 -32.366245 -106.50433
12192500000 -34.699814 -109.00474 -0.26263922 -169.28462 -0.26617494 -169.25584 -31.551859 -105.68283
12220000000 -33.521427 -107.20001 -0.26503098 -169.66946 -0.26725063 -169.66634 -32.346848 -103.53922
12247500000 -33.430084 -100.4345 -0.26574066 -170.04172 -0.26956505 -170.05928 -32.37862 -107.13752
12275000000 -34.132973 -107.02304 -0.26534796 -170.43346 -0.26741552 -170.43663 -31.526569 -106.21426
12302500000 -33.979778 -103.76789 -0.26801571 -170.81216 -0.26985592 -170.82137 -31.893871 -105.33707
12330000000 -33.099388 -97.278397 -0.26970637 -171.21214 -0.27083969 -171.21135 -32.584713 -108.84923
12357500000 -34.304413 -103.21107 -0.26877517 -171.593 -0.2678844 -171.59123 -31.616869 -108.6068
12385000000 -34.571022 -103.67245 -0.2707485 -171.9691 -0.27040631 -171.95731 -31.812956 -105.00864
12412500000 -33.484795 -99.308693 -0.27223459 -172.34845 -0.27118409 -172.36935 -32.582642 -106.9911
12440000000 -34.259563 -101.93291 -0.269835 -172.73938 -0.26983911 -172.74844 -31.994854 -108.12304
12467500000 -34.176498 -106.60797 -0.2701942 -173.11423 -0.27030548 -173.11488 -31.636053 -105.59158
12495000000 -33.629063 -99.264572 -0.27296609 -173.50977 -0.27121937 -173.50198 -32.472836 -105.86528
12522500000 -33.996468 -100.74846 -0.27314803 -173.88602 -0.2717151 -173.90186 -32.012077 -107.95864
12550000000 -33.942238 -109.44636 -0.27039805 -174.26828 -0.27210918 -174.25974 -31.334099 -105.12291
12577500000 -33.428158 -100.81474 -0.27462196 -174.65128 -0.27218854 -174.63945 -31.762945 -104.86936
12605000000 -32.805679 -99.938797 -0.27403244 -175.03572 -0.27475929 -175.00717 -32.000462 -106.47527
12632500000 -33.65979 -104.29246 -0.27563053 -175.41014 -0.27477199 -175.41132 -31.182255 -105.64038
12660000000 -33.218616 -101.43554 -0.27736717 -175.80699 -0.27584955 -175.78847 -31.509157 -105.43498
12687500000 -32.803799 -97.135086 -0.27755728 -176.18547 -0.27670169 -176.17381 -31.955208 -107.08852
12715000000 -33.187107 -100.73521 -0.27589449 -176.57727 -0.27509934 -176.55684 -31.2393 -107.40018
12742500000 -33.231823 -99.815002 -0.27912852 -176.97314 -0.2791923 -176.94034 -31.254694 -107.7737
12770000000 -32.85215 -92.565521 -0.28206691 -177.33923 -0.28211635 -177.33804 -31.849428 -107.52406
12797500000 -33.18063 -99.764664 -0.28229728 -177.73032 -0.28169981 -177.71895 -31.427813 -106.23655
12825000000 -32.618851 -98.393654 -0.284219 -178.0999 -0.28296584 -178.08627 -31.087233 -107.86685
12852500000 -32.778248 -89.716316 -0.28635859 -178.46169 -0.28825167 -178.44522 -31.716747 -108.71427
12880000000 -33.094242 -96.740112 -0.28794324 -178.84839 -0.28871837 -178.83705 -31.621647 -106.10982
12907500000 -32.544998 -100.66682 -0.2871705 -179.22321 -0.28670785 -179.21257 -31.097113 -107.65682
12935000000 -32.252083 -92.380455 -0.28886083 -179.57201 -0.28922826 -179.58401 -31.468552 -109.2161
12962500000 -32.749146 -92.653427 -0.28886777 -179.95978 -0.28921083 -179.94902 -31.511822 -107.42377
12990000000 -32.438828 -101.37382 -0.28711629 179.64609 -0.28865972 179.65402 -31.175314 -107.78023
13017500000 -32.203514 -94.892448 -0.28759944 179.28833 -0.29071102 179.29895 -31.275553 -110.1478
13045000000 -32.45866 -91.833168 -0.28933644 178.91112 -0.2913003 178.89583 -31.477432 -107.27011
13072500000 -32.848892 -101.2574 -0.28992862 178.50865 -0.29213166 178.51601 -31.184689 -106.40935
13100000000 -32.113277 -99.049347 -0.28994384 178.13605 -0.28941754 178.12296 -31.083576 -109.97233
13127500000 -32.481503 -92.3106 -0.29081783 177.75963 -0.2910988 177.7486 -31.270279 -107.7725
13155000000 -32.589439 -98.990814 -0.29191822 177.36232 -0.29170918 177.36386 -31.162985 -105.93367
13182500000 -32.022121 -99.485329 -0.29325756 176.9864 -0.29129061 176.97758 -31.026707 -110.32206
13210000000 -32.74157 -92.754585 -0.29394001 176.63054 -0.29344922 176.60884 -31.167227 -108.60742
13237500000 -32.318977 -98.715942 -0.29384446 176.2321 -0.29355863 176.22815 -31.163837 -105.47005
13265000000 -32.027508 -101.54971 -0.29393089 175.82277 -0.29575744 175.83096 -30.937696 -109.69664
13292500000 -32.276566 -92.616325 -0.29489821 175.46194 -0.29564217 175.48036 -31.077789 -110.22131
13320000000 -32.629555 -95.702408 -0.2977522 175.08263 -0.29565796 175.08086 -31.037369 -105.4886
13347500000 -31.818583 -99.194908 -0.2965658 174.67691 -0.29900211 174.68999 -30.974655 -109.15148
13375000000 -32.013859 -92.515022 -0.29796651 174.30475 -0.30099255 174.32288 -30.929878 -111.33958
13402500000 -32.382885 -90.765274 -0.30241325 173.94325 -0.30153054 173.95149 -31.094126 -106.59553
13430000000 -31.57082 -97.333809 -0.30427393 173.54691 -0.30485564 173.56238 -30.92312 -108.20012
13457500000 -31.413595 -90.730431 -0.30340415 173.19598 -0.30561128 173.19302 -30.838224 -112.96437
13485000000 -32.172531 -87.083649 -0.30471456 172.83797 -0.30724353 172.81769 -30.915682 -107.99003
13512500000 -31.522753 -94.698723 -0.30584317 172.44687 -0.30793288 172.42184 -31.011503 -107.10774
13540000000 -31.070782 -91.818466 -0.30871215 172.05029 -0.3107782 172.06029 -30.661087 -113.49812
13567500000 -31.836897 -85.332321 -0.30860904 171.70262 -0.31221855 171.70586 -30.852173 -109.9474
13595000000 -31.567919 -92.91407 -0.31172428 171.31081 -0.31210616 171.32146 -30.758909 -106.64649
13622500000 -30.742809 -93.700455 -0.31355333 170.94312 -0.3119162 170.94791 -30.694813 -111.689
13650000000 -31.474501 -87.82238 -0.31249669 170.58342 -0.31243104 170.59563 -30.673273 -111.18646
13677500000 -31.408928 -91.811783 -0.31333101 170.22314 -0.3118917 170.19806 -30.831327 -106.51188
13705000000 -30.572613 -94.629616 -0.31281996 169.81337 -0.31522614 169.82213 -30.602144 -111.32113
13732500000 -30.992683 -88.704491 -0.31060833 169.46318 -0.3119379 169.4621 -30.450762 -113.03121
13760000000 -31.546549 -90.318497 -0.31227833 169.0912 -0.31280494 169.10014 -30.702644 -106.63129
13787500000 -30.385963 -94.736969 -0.31194428 168.71277 -0.31115416 168.69754 -30.653097 -110.78378
13815000000 -30.550642 -90.864594 -0.31387889 168.34224 -0.31535363 168.32968 -30.325953 -113.96121
13842500000 -31.52619 -87.564911 -0.31376284 167.98386 -0.31250393 167.98518 -30.615953 -108.86545
13870000000 -30.283443 -96.14772 -0.3119137 167.57257 -0.31394204 167.59564 -30.620163 -110.1125
13897500000 -30.077929 -91.928238 -0.31203216 167.21181 -0.31602842 167.21294 -30.370651 -115.09255
13925000000 -31.096855 -87.634712 -0.3122586 166.84863 -0.31522086 166.85985 -30.452785 -110.48996
13952500000 -30.639845 -96.694763 -0.31394622 166.46382 -0.31735826 166.45155 -30.525723 -108.74433
13980000000 -29.647152 -93.300018 -0.31278378 166.07509 -0.31444156 166.08276 -30.270887 -115.44559
14007500000 -30.759449 -89.100998 -0.31259766 165.7135 -0.31259349 165.73604 -30.255337 -112.30871
14035000000 -30.802282 -95.616158 -0.31340504 165.34352 -0.31306255 165.35202 -30.435574 -108.86177
14062500000 -29.36813 -94.173477 -0.31486931 164.95035 -0.314468 164.95386 -30.208948 -114.9081
14090000000 -30.338221 -90.445404 -0.31226638 164.60582 -0.31384826 164.58635 -30.033173 -115.0591
14117500000 -30.714855 -93.178246 -0.31196487 164.22 -0.31325117 164.21953 -30.326553 -110.25054
14145000000 -29.468283 -94.752724 -0.31332517 163.82822 -0.31385383 163.82257 -30.125109 -115.39162
14172500000 -29.971006 -92.734604 -0.31282273 163.46642 -0.31557798 163.45094 -29.975969 -116.37173
14200000000 -30.571911 -93.485191 -0.31081519 163.09343 -0.3139042 163.08842 -30.170326 -111.14997
14227500000 -29.564987 -96.121208 -0.31314296 162.69746 -0.31513041 162.70764 -30.119293 -115.13789
14255000000 -29.712837 -93.678322 -0.31340808 162.32773 -0.31349239 162.33359 -29.899143 -117.75946
14282500000 -30.479422 -96.725266 -0.31071037 161.95784 -0.31598499 161.95677 -30.113884 -114.00622
14310000000 -29.699673 -94.77462 -0.31172457 161.5739 -0.31310454 161.57907 -30.162237 -114.34601
14337500000 -29.586435 -95.071259 -0.31102014 161.1813 -0.31444073 161.19695 -29.912718 -118.9912
14365000000 -30.747133 -97.897461 -0.31205887 160.81606 -0.31364626 160.82063 -30.175314 -115.21669
14392500000 -29.766602 -98.450798 -0.3117952 160.44753 -0.3124035 160.45042 -30.208477 -114.2432
14420000000 -29.32885 -95.330879 -0.31421226 160.07045 -0.31233871 160.06792 -29.800919 -118.40199
14447500000 -30.466135 -97.632095 -0.3125746 159.70543 -0.31303111 159.69183 -30.093876 -117.11944
14475000000 -29.823185 -101.01532 -0.31174931 159.31895 -0.31146896 159.31306 -30.100031 -115.17814
14502500000 -29.196209 -94.869621 -0.31170925 158.92781 -0.31290647 158.93355 -29.723875 -119.2539
14530000000 -30.0819 -98.109642 -0.30816326 158.56081 -0.31115806 158.55943 -29.980293 -117.71246
14557500000 -30.293737 -101.59545 -0.30789566 158.19334 -0.31020293 158.18932 -30.199787 -116.43896
14585000000 -28.961605 -96.129173 -0.30971336 157.78688 -0.3081955 157.79808 -29.719488 -119.75172
14612500000 -29.672636 -97.800308 -0.30929056 157.40578 -0.31139749 157.42618 -29.634874 -119.76349
14640000000 -30.054304 -100.88562 -0.30803877 157.04129 -0.30851564 157.05579 -30.161951 -117.63268
14667500000 -28.988373 -97.457825 -0.30852288 156.65154 -0.31040868 156.66058 -29.899561 -120.10803
14695000000 -29.407799 -96.987938 -0.3087166 156.26628 -0.30998552 156.26192 -29.674875 -121.09293
14722500000 -29.977264 -102.27448 -0.30779451 155.88303 -0.30939564 155.88202 -30.17894 -119.5006
14750000000 -29.195313 -99.643265 -0.30851233 155.50555 -0.30719519 155.50667 -30.128653 -121.03228
14777500000 -29.233763 -95.087418 -0.30898425 155.11728 -0.31093475 155.13751 -29.682686 -122.69556
14805000000 -29.940727 -104.7889 -0.30746996 154.73283 -0.30977562 154.73677 -30.216925 -120.91685
14832500000 -29.31476 -100.30252 -0.30720186 154.36253 -0.30815214 154.36717 -30.2913 -121.83565
14860000000 -28.98086 -95.451294 -0.30805573 154.01291 -0.3107062 154.00032 -29.797157 -122.71566
14887500000 -29.952778 -102.30804 -0.3089506 153.60419 -0.30856013 153.60785 -30.13888 -121.74161
14915000000 -29.393112 -100.2962 -0.30792123 153.23088 -0.30784732 153.23997 -30.449108 -121.86399
14942500000 -29.245987 -97.146729 -0.30703822 152.84158 -0.31173429 152.83653 -29.835142 -122.73859
14970000000 -29.8757 -101.69492 -0.30789927 152.47768 -0.30972087 152.46092 -30.110762 -121.9003
14997500000 -29.367142 -103.60396 -0.30655566 152.08052 -0.30815437 152.07689 -30.550964 -122.70861
15025000000 -29.64852 -96.733269 -0.30473235 151.6985 -0.30787927 151.70142 -29.976379 -123.69249
15052500000 -29.754478 -100.17107 -0.30637538 151.2926 -0.31016123 151.31793 -29.948259 -123.47549
15080000000 -29.523026 -104.9081 -0.30946428 150.89667 -0.31223634 150.92087 -30.82151 -123.51635
15107500000 -29.658476 -97.247086 -0.31040978 150.51433 -0.3091574 150.53978 -30.249874 -124.47281
15135000000 -29.834873 -98.17511 -0.31382322 150.16481 -0.31621134 150.14532 -29.980263 -122.41618
15162500000 -29.718172 -105.00504 -0.31662479 149.75803 -0.31860688 149.73911 -30.885258 -123.92777
15190000000 -29.355158 -96.549728 -0.32009968 149.40527 -0.31985727 149.39085 -30.670162 -122.20237
15217500000 -30.009394 -95.671547 -0.3235082 149.0455 -0.32339719 149.03552 -30.131435 -121.5848
15245000000 -29.460512 -103.02834 -0.32250074 148.65787 -0.32396027 148.65314 -30.754255 -121.72507
15272500000 -29.036661 -98.841408 -0.32348672 148.29749 -0.32409668 148.33539 -30.726795 -122.49296
15300000000 -29.706604 -91.497444 -0.32256764 147.95097 -0.32541642 147.95808 -29.886106 -120.20805
15327500000 -29.294226 -101.57346 -0.32192779 147.56236 -0.32620522 147.56047 -30.488953 -121.93877
15355000000 -28.841789 -99.80603 -0.32209674 147.21004 -0.32111329 147.22148 -30.666632 -123.70492
15382500000 -29.435284 -91.846832 -0.32167941 146.85408 -0.32280937 146.84064 -29.83127 -121.52487
15410000000 -28.903708 -102.76442 -0.32137975 146.46542 -0.31941089 146.4563 -30.192213 -121.89964
15437500000 -28.383024 -100.51617 -0.31868654 146.07512 -0.31764704 146.08058 -30.674614 -124.89165
15465000000 -28.906223 -96.492065 -0.31489298 145.69867 -0.31664234 145.72971 -29.894262 -123.03304
15492500000 -29.219894 -100.19324 -0.31610832 145.35049 -0.31854141 145.35699 -29.935745 -122.05427
15520000000 -28.149122 -104.6122 -0.31785482 144.94765 -0.31558329 144.94969 -30.620146 -125.76393
15547500000 -28.655128 -96.095734 -0.31215012 144.57605 -0.31126234 144.59044 -30.144617 -124.4867
15575000000 -29.659018 -98.758087 -0.31544912 144.21286 -0.31499264 144.22618 -29.824238 -122.31574
15602500000 -28.140026 -106.96185 -0.31411374 143.81302 -0.31593376 143.8111 -30.636658 -124.81741
15630000000 -28.658419 -99.887787 -0.31213287 143.44484 -0.30917048 143.45406 -30.353689 -125.13606
15657500000 -29.06217 -98.797234 -0.31355554 143.08904 -0.31164947 143.06923 -29.517466 -122.43471
15685000000 -28.744638 -106.617 -0.30887029 142.6794 -0.31276485 142.68506 -30.320251 -125.70661
15712500000 -28.273647 -101.61575 -0.31175905 142.3093 -0.31067812 142.30104 -30.702547 -126.2349
15740000000 -29.17382 -99.619072 -0.30838224 141.91803 -0.30685401 141.93628 -29.756783 -123.27219
15767500000 -28.93788 -104.3041 -0.30896756 141.55228 -0.31122479 141.54236 -30.120287 -125.66301
15795000000 -28.117634 -103.78009 -0.3081288 141.1763 -0.31054938 141.17535 -30.721796 -127.91543
15822500000 -29.469967 -100.71468 -0.3061851 140.80098 -0.31187418 140.77283 -30.026365 -124.87215
15850000000 -28.794001 -102.25888 -0.30880249 140.41348 -0.30710849 140.41032 -30.031151 -125.55247
15877500000 -28.293253 -104.5347 -0.30903429 140.0307 -0.31044483 140.02182 -30.640617 -128.06905
15905000000 -28.858234 -99.893074 -0.30782369 139.65192 -0.30947903 139.6478 -30.099039 -125.38856
15932500000 -29.032701 -102.9241 -0.30929834 139.29744 -0.31109855 139.28154 -30.074089 -126.19164
15960000000 -27.898262 -103.79359 -0.30617565 138.89697 -0.31038812 138.88126 -30.718901 -129.69911
15987500000 -28.492226 -100.30479 -0.30034229 138.5278 -0.30395824 138.52991 -30.371534 -128.53673
16015000000 -29.167072 -103.73185 -0.30403736 138.13867 -0.30345884 138.16261 -29.888861 -127.38359
16042500000 -27.920824 -102.95802 -0.30465099 137.71951 -0.30610844 137.73918 -30.556974 -130.96107
16070000000 -28.3568 -101.83097 -0.30054286 137.37328 -0.30312574 137.37961 -30.637003 -128.65135
16097500000 -29.36998 -103.61433 -0.30515027 136.99472 -0.30319846 136.99294 -30.097898 -127.54739
16125000000 -27.867468 -103.57446 -0.30184796 136.58511 -0.30174807 136.58562 -30.502502 -131.89227
16152500000 -28.283316 -101.64171 -0.30158547 136.22031 -0.30090016 136.24751 -30.874643 -130.52783
16180000000 -29.133848 -102.81368 -0.3011027 135.86476 -0.30532354 135.86404 -30.249611 -128.39139
16207500000 -28.255554 -105.83786 -0.30249068 135.4563 -0.30564073 135.49391 -30.426203 -130.96181
16235000000 -27.963257 -101.85986 -0.3023003 135.0985 -0.30258283 135.08168 -30.771 -133.05008
16262500000 -28.879894 -104.36662 -0.29864302 134.73354 -0.29912525 134.73042 -30.60025 -128.46172
16290000000 -28.733171 -107.77942 -0.30165428 134.3522 -0.30002496 134.33853 -30.714207 -131.28549
16317500000 -27.623358 -100.68102 -0.29935738 133.93945 -0.30039638 133.93246 -30.992922 -134.35774
16345000000 -29.407549 -103.36309 -0.29719055 133.54649 -0.29387078 133.56746 -30.851454 -128.19028
16372500000 -28.81599 -106.11176 -0.29744807 133.18619 -0.30086687 133.18355 -30.615713 -130.62408
16400000000 -28.053999 -101.74826 -0.29777327 132.78023 -0.29739875 132.79881 -31.052544 -133.94453
16427500000 -28.847513 -101.88322 -0.29951268 132.42001 -0.29786834 132.43347 -31.132885 -129.26604
16455000000 -28.87714 -107.48719 -0.29882187 132.06099 -0.29992899 132.03285 -30.698221 -130.39191
16482500000 -28.052872 -102.53448 -0.29908448 131.63158 -0.29861253 131.6736 -31.025826 -134.64175
16510000000 -28.358622 -100.924 -0.29610437 131.26978 -0.29768869 131.28325 -31.166912 -130.95218
16537500000 -29.0455 -108.7677 -0.29884157 130.91217 -0.29918709 130.89853 -30.869022 -131.11839
16565000000 -28.080948 -103.1144 -0.2962701 130.53073 -0.29700568 130.51398 -30.82268 -136.1291
16592500000 -27.972361 -101.9285 -0.29477271 130.13609 -0.29694912 130.15189 -31.298525 -132.15837
16620000000 -29.239742 -107.88254 -0.29502594 129.76926 -0.29543573 129.78845 -31.074471 -131.48007
16647500000 -27.958958 -105.17844 -0.29579401 129.39464 -0.29476219 129.37363 -30.852741 -136.26114
16675000000 -28.543825 -102.19756 -0.28970143 129.01347 -0.29409486 128.9774 -31.180092 -134.01453
16702500000 -28.925903 -108.13654 -0.29081452 128.60239 -0.29209957 128.6284 -31.27528 -131.02087
16730000000 -28.234726 -109.8555 -0.29213056 128.24297 -0.29268214 128.23738 -31.177744 -135.82895
16757500000 -28.298515 -99.886505 -0.29195088 127.82788 -0.29160538 127.83613 -31.312012 -136.35107
16785000000 -28.685581 -108.00497 -0.28633842 127.4518 -0.29243153 127.44632 -31.636135 -131.01907
16812500000 -28.747942 -109.50703 -0.2923432 127.0781 -0.28803426 127.06264 -31.451126 -136.47809
16840000000 -28.05121 -102.10313 -0.28941366 126.68657 -0.29353869 126.69533 -31.321981 -137.86517
16867500000 -28.893599 -106.985 -0.2892659 126.30618 -0.2881673 126.29819 -31.667589 -131.54132
16895000000 -28.575329 -110.97874 -0.29033017 125.94026 -0.2911478 125.92386 -31.519846 -136.21228
16922500000 -27.958508 -105.53885 -0.29220533 125.52251 -0.29102379 125.54184 -31.235632 -140.44627
16950000000 -28.846813 -100.89879 -0.28929743 125.14652 -0.28934449 125.15893 -31.871206 -131.57843
16977500000 -28.642458 -114.44533 -0.28843176 124.78153 -0.2891959 124.76062 -31.788067 -134.85469
17005000000 -28.155975 -106.97826 -0.28758231 124.40182 -0.28977558 124.40395 -31.451056 -140.46426
17032500000 -28.80212 -100.15989 -0.28580675 123.98425 -0.28575918 124.01136 -32.00021 -133.95058
17060000000 -28.646048 -115.47025 -0.28836039 123.62264 -0.28454152 123.61741 -32.109055 -133.06129
17087500000 -28.35478 -106.05133 -0.28841186 123.21912 -0.28465208 123.25101 -31.812284 -140.06201
17115000000 -28.759653 -100.71365 -0.28855985 122.84273 -0.28795958 122.83875 -32.292091 -135.86559
17142500000 -29.105984 -112.71273 -0.28410348 122.44367 -0.2871196 122.43856 -32.619675 -131.60513
17170000000 -28.098021 -110.56991 -0.2871044 122.07921 -0.28870121 122.06312 -31.877739 -140.36826
17197500000 -28.946037 -101.77156 -0.28912422 121.65928 -0.28419605 121.69749 -31.99708 -137.18768
17225000000 -29.157425 -111.34355 -0.28709942 121.29246 -0.28414574 121.31329 -32.441948 -130.38446
17252500000 -28.264442 -113.05771 -0.2879889 120.9413 -0.2878741 120.91226 -32.346687 -138.98982
17280000000 -28.615185 -101.89409 -0.28348696 120.50567 -0.28662819 120.54729 -31.854561 -139.42477
17307500000 -29.255522 -107.03499 -0.28244093 120.15865 -0.28354719 120.15739 -32.540997 -131.23027
17335000000 -28.453972 -115.64298 -0.28476486 119.77808 -0.28816897 119.76048 -32.298996 -137.20099
17362500000 -28.220198 -103.73005 -0.28544265 119.36918 -0.28605998 119.39679 -31.792261 -141.44922
17390000000 -29.476398 -106.96456 -0.28374118 119.01167 -0.28598672 119.02041 -32.709209 -131.68033
17417500000 -28.23213 -114.67805 -0.28501141 118.65387 -0.2830736 118.60999 -32.874371 -134.71045
17445000000 -28.168304 -105.59536 -0.28465402 118.25793 -0.28637797 118.2224 -32.3596 -142.95032
17472500000 -29.492365 -105.33804 -0.28599641 117.83661 -0.27921879 117.85128 -32.634407 -135.40938
17500000000 -28.323608 -113.77329 -0.28167495 117.45434 -0.28182271 117.46967 -33.298809 -131.78105
17527500000 -28.286991 -108.26299 -0.28243044 117.0838 -0.27874926 117.08066 -32.595699 -143.13577
17555000000 -29.778048 -104.61873 -0.28187078 116.69732 -0.28799304 116.69718 -32.902424 -139.07697
17582500000 -28.607435 -114.25085 -0.28349164 116.31985 -0.2821517 116.2955 -33.770184 -131.50783
17610000000 -27.984539 -110.98513 -0.28223762 115.92462 -0.28776982 115.92289 -32.855812 -140.4393
17637500000 -29.202923 -102.9761 -0.28076109 115.55937 -0.28033307 115.52837 -32.900043 -139.63441
17665000000 -29.19132 -111.18502 -0.2823647 115.14957 -0.28213486 115.15542 -33.861675 -130.70663
17692500000 -27.839008 -111.9417 -0.2795912 114.76318 -0.28165644 114.77238 -33.432999 -138.98489
17720000000 -29.025352 -103.72748 -0.28341484 114.37946 -0.2801075 114.36774 -33.024075 -141.97345
17747500000 -29.323385 -109.4231 -0.28089944 113.98006 -0.28128028 113.99831 -34.378223 -131.95839
17775000000 -27.919693 -112.11479 -0.28084448 113.60254 -0.28224701 113.60447 -34.124107 -136.64981
17802500000 -28.668987 -103.95609 -0.27777144 113.20538 -0.28336704 113.21197 -33.204922 -141.37225
17830000000 -29.313753 -107.06083 -0.27911335 112.81889 -0.2823959 112.83138 -34.19772 -131.53973
17857500000 -27.967871 -109.51128 -0.28547803 112.40942 -0.28748825 112.43752 -34.969387 -133.22736
17885000000 -28.649891 -105.04612 -0.28112754 112.03125 -0.27875781 112.02907 -33.931038 -140.65927
17912500000 -29.438713 -104.36546 -0.28286031 111.67064 -0.2846272 111.68314 -34.444065 -134.65997
17940000000 -28.175827 -108.57117 -0.28712651 111.28477 -0.28480133 111.23927 -35.315807 -126.92351
17967500000 -28.111458 -104.24939 -0.28618053 110.87933 -0.28317362 110.85182 -34.811829 -139.11517
17995000000 -29.682768 -103.10831 -0.28552529 110.49855 -0.28867936 110.50262 -34.50248 -135.85532
18022500000 -28.290476 -107.57784 -0.28568536 110.13538 -0.2881366 110.10729 -35.478142 -123.57434
18050000000 -27.991348 -103.40903 -0.2851944 109.71931 -0.28877369 109.71936 -35.572899 -134.16051
18077500000 -29.197412 -104.04082 -0.29240939 109.2994 -0.2874476 109.32916 -34.538937 -135.36156
18105000000 -28.73772 -105.90985 -0.28830975 108.93549 -0.28827795 108.96769 -35.348652 -121.09718
18132500000 -27.68722 -104.38181 -0.28982955 108.58921 -0.28676951 108.55372 -36.01984 -128.06473
18160000000 -29.061714 -104.92562 -0.28641361 108.15333 -0.28922108 108.16005 -34.738445 -131.9828
18187500000 -28.528297 -103.06255 -0.29010129 107.79745 -0.29309863 107.80714 -35.236813 -120.34115
18215000000 -27.705984 -103.0859 -0.29425746 107.40749 -0.29721025 107.41649 -36.264088 -117.3256
18242500000 -28.769106 -103.49178 -0.2929031 106.9861 -0.29317173 106.98171 -35.282131 -129.73355
18270000000 -28.609581 -104.11053 -0.2943497 106.63889 -0.29822516 106.63977 -35.110695 -119.81526
18297500000 -27.864021 -101.4974 -0.30189985 106.24403 -0.30078891 106.22624 -36.06028 -112.58319
18325000000 -28.243576 -100.90068 -0.30281264 105.82657 -0.2982052 105.83387 -35.55719 -122.54187
18352500000 -28.880032 -105.42314 -0.30700654 105.45154 -0.30127916 105.45399 -35.013752 -120.36826
18380000000 -27.782688 -100.92937 -0.30640399 105.09882 -0.30500835 105.08362 -35.859093 -106.66015
18407500000 -27.721601 -98.689758 -0.30698988 104.68853 -0.30667093 104.71157 -35.861355 -116.51858
18435000000 -28.984715 -105.8912 -0.31226695 104.29768 -0.31138194 104.29812 -34.956757 -118.98728
18462500000 -27.282825 -100.55199 -0.31073651 103.95914 -0.31373417 103.94665 -34.726517 -106.8884
18490000000 -27.741114 -98.019218 -0.31777629 103.56295 -0.31661922 103.55889 -35.74213 -109.22662
18517500000 -28.500959 -104.38061 -0.31634024 103.1344 -0.31886372 103.16354 -34.44857 -118.52747
18545000000 -27.419142 -103.56612 -0.31863251 102.81424 -0.31231561 102.8198 -34.797211 -106.52184
18572500000 -27.368191 -96.267296 -0.32147008 102.43034 -0.32616729 102.43571 -35.012299 -104.80984
18600000000 -27.904856 -103.25496 -0.32147816 102.04408 -0.32345521 102.02644 -34.477695 -115.69973
18627500000 -27.788082 -105.16429 -0.32874003 101.6853 -0.32703799 101.67694 -34.242748 -107.50814
18655000000 -27.097008 -95.960953 -0.32624903 101.29765 -0.32829806 101.30011 -34.117638 -102.18464
18682500000 -27.604588 -106.80691 -0.3263894 100.90069 -0.32769591 100.89619 -33.630505 -113.8195
18710000000 -27.606972 -103.70178 -0.33282855 100.57648 -0.33257452 100.55785 -33.805779 -110.46344
18737500000 -26.602739 -100.07379 -0.33426866 100.15643 -0.33348733 100.1618 -33.62553 -101.36475
18765000000 -27.534973 -100.90728 -0.33931533 99.783066 -0.33512059 99.805481 -33.794582 -107.74319
18792500000 -27.143499 -106.44753 -0.33757722 99.432495 -0.33976513 99.4534 -33.76725 -113.06179
18820000000 -26.952805 -101.34467 -0.34487537 99.093727 -0.3425087 99.092796 -33.105389 -100.41328
18847500000 -27.107552 -99.686882 -0.34068814 98.736687 -0.34529212 98.710732 -33.134407 -107.72149
18875000000 -26.699629 -109.81337 -0.34242103 98.34256 -0.34693375 98.337578 -33.20462 -114.71795
18902500000 -27.023745 -101.04581 -0.34483725 98.025337 -0.34654683 98.026695 -33.002476 -105.47902
18930000000 -26.584494 -101.54235 -0.34935418 97.643021 -0.34650564 97.650414 -32.668758 -105.53894
18957500000 -26.999561 -107.71084 -0.34752822 97.280495 -0.34860322 97.279396 -33.030876 -115.95496
18985000000 -26.945786 -107.39304 -0.3474783 96.980698 -0.34551439 96.962006 -32.755459 -109.78828
19012500000 -26.51996 -103.04312 -0.34443876 96.600708 -0.34771049 96.599731 -32.479305 -105.5148
19040000000 -27.112461 -108.04736 -0.34627911 96.195992 -0.34726462 96.247528 -32.66946 -117.46424
19067500000 -26.494886 -112.11528 -0.34199893 95.880257 -0.34421346 95.897301 -32.884296 -117.15865
19095000000 -27.139662 -103.11248 -0.34079957 95.526405 -0.34068394 95.533592 -32.533695 -109.57692
19122500000 -26.845772 -108.59911 -0.33986199 95.151566 -0.33702806 95.167374 -32.668579 -116.45867
19150000000 -26.703688 -114.88468 -0.33793342 94.790314 -0.33449653 94.834602 -32.730366 -122.50932
19177500000 -27.123163 -107.06253 -0.3319371 94.430466 -0.330538 94.458755 -32.503941 -111.03708
19205000000 -27.042675 -110.68113 -0.32897821 94.055595 -0.3286736 94.07357 -32.420647 -117.616
19232500000 -26.949919 -116.13624 -0.32308125 93.691826 -0.33094445 93.711349 -33.131382 -126.1758
19260000000 -27.466106 -111.08604 -0.31583327 93.330879 -0.32093185 93.342979 -32.936165 -116.41412
19287500000 -27.346527 -110.04992 -0.31301051 92.943146 -0.31982213 92.955414 -32.700302 -117.31637
19315000000 -27.161663 -115.04597 -0.31483063 92.588913 -0.31011647 92.585083 -33.423038 -127.69102
19342500000 -27.635551 -115.48742 -0.30527136 92.172066 -0.30728742 92.191086 -33.569633 -122.88487
19370000000 -27.8265 -109.16534 -0.30355182 91.759201 -0.30346131 91.794006 -33.130955 -117.3554
19397500000 -27.809969 -115.51806 -0.30542907 91.39386 -0.30462322 91.38681 -33.794445 -126.70088
19425000000 -27.492174 -118.59461 -0.30141842 90.98893 -0.30218348 91.014397 -34.401443 -127.2361
19452500000 -27.973598 -109.22434 -0.29281864 90.586716 -0.30090404 90.62571 -33.806293 -116.82374
19480000000 -28.032415 -112.87386 -0.29485971 90.217758 -0.29544765 90.213081 -34.458355 -124.57387
19507500000 -27.688116 -119.98154 -0.29077688 89.833336 -0.29258272 89.8265 -35.170162 -131.31026
19535000000 -28.421152 -109.74689 -0.28567567 89.424438 -0.28370056 89.407753 -34.443199 -115.17576
19562500000 -28.413887 -111.38199 -0.28378621 89.021652 -0.2861363 88.992966 -35.192749 -118.46528
19590000000 -28.010107 -117.17699 -0.28992224 88.612434 -0.28573152 88.595009 -36.360577 -127.98215
19617500000 -28.555038 -113.54504 -0.28475296 88.213165 -0.28591648 88.21653 -35.391563 -113.05593
19645000000 -28.381487 -107.65118 -0.2869592 87.774506 -0.28593171 87.775879 -34.826832 -110.74139
19672500000 -28.284433 -114.25507 -0.28907055 87.392204 -0.28700179 87.397354 -36.655804 -123.08865
19700000000 -28.308985 -114.85794 -0.28673273 86.996643 -0.2866362 87.013664 -36.141342 -111.90062
19727500000 -28.68306 -104.43656 -0.2884337 86.559761 -0.28621677 86.570015 -34.631775 -104.75729
19755000000 -28.11272 -112.14351 -0.28784394 86.190895 -0.29250076 86.192192 -36.570137 -112.31109
19782500000 -28.006451 -112.89698 -0.2917532 85.782219 -0.29216212 85.761093 -36.892254 -112.80231
19810000000 -28.634207 -104.67948 -0.29235843 85.388092 -0.29169813 85.368652 -34.44836 -98.366203
19837500000 -28.335617 -106.80674 -0.30045131 84.990303 -0.30515638 84.993469 -35.530571 -104.44048
19865000000 -27.961823 -115.07176 -0.3012664 84.580544 -0.3057982 84.582718 -36.894733 -108.09768
19892500000 -28.384871 -106.07191 -0.30301943 84.208038 -0.30269411 84.203758 -34.18087 -98.082436
19920000000 -28.264879 -105.11459 -0.31304389 83.840782 -0.31087777 83.815285 -34.117126 -99.08783
19947500000 -27.421682 -112.87328 -0.31579736 83.433456 -0.31379512 83.431679 -36.321529 -106.13828
19975000000 -27.989725 -107.76886 -0.31738722 83.059929 -0.3176724 83.093529 -34.11972 -97.838425
20002500000 -28.107712 -105.74812 -0.32066455 82.704872 -0.32112277 82.696045 -32.995506 -98.001877
20030000000 -27.567062 -110.29455 -0.32409975 82.334496 -0.32639164 82.321884 -35.433083 -104.81541
20057500000 -27.22147 -112.12518 -0.33136126 81.968803 -0.3331522 81.978371 -34.291851 -102.28109
20085000000 -27.997395 -104.77101 -0.3281582 81.609924 -0.33225006 81.586159 -32.201057 -96.599495
20112500000 -27.093752 -109.74446 -0.33241913 81.245522 -0.33808842 81.254929 -34.352753 -102.57669
20140000000 -26.79385 -112.11391 -0.33957312 80.88446 -0.3360222 80.880547 -34.305416 -105.80791
20167500000 -28.131493 -106.17851 -0.33260611 80.504852 -0.33086035 80.510429 -31.948126 -99.494469
20195000000 -27.123339 -112.2723 -0.3412585 80.165115 -0.33538064 80.170738 -33.362289 -105.14857
20222500000 -26.667652 -112.66744 -0.33746618 79.822075 -0.33965066 79.7966 -34.466057 -110.1323
20250000000 -27.758883 -110.80564 -0.3308855 79.471764 -0.33218133 79.493927 -32.131142 -103.37294
20277500000 -27.700386 -110.11293 -0.33601883 79.117767 -0.33907321 79.120827 -32.794384 -106.82925
20305000000 -26.703844 -114.25764 -0.33124587 78.725533 -0.33423063 78.736618 -34.994392 -113.05237
20332500000 -27.815363 -113.47591 -0.32405791 78.384911 -0.32593346 78.395973 -32.862671 -106.24998
20360000000 -28.092577 -111.13206 -0.32749492 78.022163 -0.3284128 78.029175 -32.472305 -104.32207
20387500000 -26.643276 -115.91032 -0.32395667 77.631081 -0.32597473 77.609848 -35.28698 -111.96799
20415000000 -27.700991 -113.76937 -0.32022953 77.283615 -0.32115817 77.29718 -34.104446 -108.59499
20442500000 -28.576332 -113.28581 -0.31621355 76.919388 -0.3184275 76.894455 -32.625042 -102.88741
20470000000 -26.915154 -115.69494 -0.31221104 76.533569 -0.31397599 76.529877 -35.161015 -111.54267
20497500000 -27.755419 -113.43338 -0.31316242 76.128891 -0.31593823 76.157799 -35.013027 -111.11931
20525000000 -29.001713 -119.74139 -0.30539659 75.740875 -0.30666873 75.740715 -32.873589 -104.00298
20552500000 -27.321684 -112.51539 -0.30535772 75.402069 -0.30629733 75.404793 -35.193878 -106.59229
20580000000 -27.507057 -115.56582 -0.30703101 74.951973 -0.30595207 74.966782 -35.709465 -109.83702
20607500000 -28.829878 -118.21946 -0.29744807 74.619934 -0.2996985 74.61071 -32.941277 -102.89609
20635000000 -27.895767 -114.47413 -0.30405125 74.256721 -0.29831666 74.248131 -34.332413 -102.95567
20662500000 -27.448105 -114.69273 -0.30122864 73.796417 -0.30233306 73.813988 -36.420174 -108.93331
20690000000 -28.731899 -116.92908 -0.29436687 73.453857 -0.29517084 73.467743 -33.708843 -101.06514
20717500000 -28.46735 -116.54745 -0.29650789 73.089836 -0.30072066 73.106644 -33.926888 -99.808945
20745000000 -27.543962 -112.04499 -0.29296678 72.664093 -0.29428461 72.657562 -36.874428 -104.67386
20772500000 -28.223373 -116.35583 -0.29067558 72.303398 -0.28992724 72.292984 -34.627678 -97.926033
20800000000 -29.389091 -117.8927 -0.29444638 71.914711 -0.29243901 71.90493 -33.520756 -97.738289
20827500000 -26.949987 -110.60491 -0.29015249 71.512703 -0.28792334 71.495117 -36.656357 -96.529877
20855000000 -28.702757 -114.16638 -0.29044363 71.105453 -0.28518611 71.126389 -35.228207 -95.233818
20882500000 -28.972021 -119.05798 -0.2855618 70.722809 -0.28386608 70.744995 -33.189262 -94.63826
20910000000 -27.628057 -112.10558 -0.28571135 70.35363 -0.28751537 70.352325 -35.259468 -95.732536
20937500000 -28.034794 -109.58432 -0.28814849 69.949173 -0.29067641 69.926651 -35.394749 -90.722839
20965000000 -29.081846 -120.98203 -0.28588524 69.540573 -0.2806752 69.523659 -32.966965 -90.294754
20992500000 -28.011524 -111.44263 -0.28687015 69.183426 -0.28924543 69.160019 -34.392281 -92.81604
21020000000 -27.81209 -107.9737 -0.29233325 68.779121 -0.29085162 68.749374 -35.604576 -90.102295
21047500000 -29.384302 -122.14909 -0.28313467 68.332481 -0.28531602 68.357841 -33.084045 -90.230209
21075000000 -28.180689 -112.51626 -0.28331536 68.011002 -0.28485331 67.995834 -33.286884 -90.294533
21102500000 -27.622164 -106.77717 -0.28550512 67.606148 -0.29340214 67.551277 -35.271202 -85.043983
21130000000 -29.318348 -115.73763 -0.2835823 67.217545 -0.28560767 67.187004 -33.219242 -85.127647
21157500000 -28.317257 -117.01067 -0.29137146 66.804565 -0.29217651 66.796028 -33.053299 -90.760193
21185000000 -27.712032 -104.82386 -0.28934449 66.416245 -0.28965688 66.405357 -34.64933 -86.96254
21212500000 -28.764215 -112.69411 -0.28834739 66.030426 -0.29265666 66.049934 -33.276058 -83.399353
21240000000 -28.807375 -119.18344 -0.29443753 65.611603 -0.28957608 65.60537 -32.248489 -88.795998
21267500000 -27.777987 -102.86509 -0.29216158 65.257004 -0.29202202 65.257622 -33.737919 -87.566109
21295000000 -28.365532 -111.08746 -0.29391453 64.888535 -0.29276383 64.876404 -33.451588 -80.748253
21322500000 -29.294579 -117.24857 -0.29293275 64.468094 -0.29475251 64.464684 -31.85692 -85.082458
21350000000 -27.80974 -108.76045 -0.28914747 64.124229 -0.29532573 64.113182 -33.144478 -89.199547
21377500000 -28.018143 -103.32515 -0.29826954 63.737148 -0.30044353 63.714226 -33.38549 -80.101799
21405000000 -29.219286 -118.2103 -0.29864413 63.282104 -0.29749188 63.288628 -31.74077 -83.337715
21432500000 -28.088934 -112.64243 -0.29659104 62.93227 -0.29608136 62.946239 -32.016434 -89.580727
21460000000 -27.992657 -99.618523 -0.30436304 62.530094 -0.30009985 62.532814 -33.105076 -84.052055
21487500000 -28.85947 -120.53029 -0.30050874 62.126801 -0.30193621 62.114765 -31.719519 -81.514954
21515000000 -28.208868 -109.82183 -0.30257201 61.776165 -0.30332226 61.780518 -31.369055 -87.843506
21542500000 -27.873707 -101.28035 -0.30377531 61.365112 -0.3081944 61.35524 -32.599209 -85.077667
21570000000 -28.764212 -113.36464 -0.30788928 61.026062 -0.30627677 61.022385 -31.597145 -80.715401
21597500000 -28.441931 -114.62096 -0.31626645 60.617588 -0.31123787 60.605839 -30.89451 -88.298141
21625000000 -27.621107 -106.06818 -0.31205887 60.250778 -0.31183025 60.221539 -32.036469 -89.893394
21652500000 -28.390905 -104.77935 -0.31469622 59.919823 -0.31766543 59.863762 -31.462692 -80.977745
21680000000 -27.707745 -119.81568 -0.3227472 59.450882 -0.32361668 59.456894 -30.373682 -87.27314
21707500000 -27.817997 -103.90225 -0.3201111 59.147751 -0.32144639 59.130703 -31.381948 -93.465248
21735000000 -27.591619 -103.49775 -0.32957134 58.783882 -0.32910249 58.791176 -31.740377 -85.782722
21762500000 -28.381071 -121.62453 -0.33145541 58.398727 -0.32823077 58.399731 -30.555176 -88.260117
21790000000 -27.305079 -107.70653 -0.32684514 58.060562 -0.32454938 58.07893 -31.032497 -97.190971
21817500000 -28.009403 -105.25963 -0.32829332 57.726807 -0.32730177 57.733269 -32.008442 -89.627853
21845000000 -27.986816 -117.58176 -0.32507885 57.356045 -0.32287323 57.357109 -31.051191 -87.805855
21872500000 -27.534418 -114.66182 -0.32652867 57.00058 -0.32863897 56.987282 -30.818388 -96.674759
21900000000 -28.083323 -107.01451 -0.32063335 56.617252 -0.32041124 56.630192 -32.614109 -94.054909
21927500000 -27.988806 -113.5836 -0.31092474 56.284584 -0.31254706 56.302433 -31.792343 -86.080421
21955000000 -27.969694 -122.79864 -0.31580877 55.911537 -0.32075208 55.912437 -31.184338 -95.582115
21982500000 -28.515114 -104.40701 -0.30895367 55.504452 -0.30460823 55.51889 -32.572865 -96.450928
22010000000 -28.029701 -114.74538 -0.30289063 55.171745 -0.30327117 55.156635 -32.448086 -83.331299
22037500000 -28.826416 -119.74666 -0.30595234 54.765667 -0.30307686 54.775719 -31.322254 -89.404877
22065000000 -28.371731 -107.12286 -0.29443806 54.347977 -0.29405218 54.342319 -32.207161 -94.566963
22092500000 -29.085205 -111.48391 -0.29508856 53.992596 -0.29249659 53.980717 -32.955246 -82.943199
22120000000 -28.148302 -118.5444 -0.29743975 53.570004 -0.29699653 53.555511 -31.136072 -85.482994
22147500000 -28.523441 -108.44707 -0.29244122 53.175179 -0.29165217 53.173473 -31.781244 -93.971458
22175000000 -29.572399 -107.7139 -0.29148826 52.788704 -0.29575577 52.770256 -32.723892 -82.244865
22202500000 -27.631554 -115.35012 -0.29566959 52.341019 -0.29373837 52.353512 -31.228157 -78.74324
22230000000 -28.892639 -112.18179 -0.29127872 52.002701 -0.29140466 52.040146 -30.983892 -91.525352
22257500000 -28.824869 -103.54433 -0.28742021 51.565929 -0.28942251 51.561203 -32.81221 -83.849144
22285000000 -28.30121 -116.8065 -0.29586938 51.184429 -0.29087043 51.205257 -31.50565 -75.344925
22312500000 -27.981129 -112.65116 -0.29683244 50.832569 -0.30133271 50.826855 -30.546206 -87.780739
22340000000 -28.939339 -102.56847 -0.29072872 50.403332 -0.28998923 50.380962 -32.022865 -84.972816
22367500000 -28.762173 -113.2244 -0.29231885 50.049301 -0.29053608 50.042313 -31.331345 -74.857498
22395000000 -27.333256 -113.25613 -0.30162516 49.627354 -0.30422783 49.646725 -29.845024 -83.280128
22422500000 -29.269569 -102.56032 -0.29350185 49.209095 -0.28753445 49.234169 -31.07349 -86.452644
22450000000 -28.902941 -108.52761 -0.29165605 48.887951 -0.29296431 48.875675 -31.106522 -76.969475
22477500000 -26.623465 -114.42546 -0.3053652 48.457714 -0.30551574 48.454014 -29.884577 -80.0802
22505000000 -29.019871 -99.447578 -0.29041928 48.058193 -0.29114002 48.049419 -30.351883 -87.85202
22532500000 -28.673302 -107.33807 -0.29094073 47.716274 -0.29303825 47.71225 -31.209097 -79.947006
22560000000 -27.360128 -110.92071 -0.30109105 47.295132 -0.30129248 47.30122 -29.62636 -78.91803
22587500000 -28.215828 -103.28537 -0.29927889 46.912376 -0.29719639 46.926365 -29.691858 -91.362183
22615000000 -29.600811 -106.45713 -0.29667667 46.535988 -0.30077145 46.524128 -30.832354 -85.959007
22642500000 -27.534475 -110.75952 -0.30213907 46.145706 -0.30091599 46.128227 -29.668236 -77.911652
22670000000 -27.332146 -106.941 -0.30896369 45.762928 -0.30803156 45.77076 -29.681108 -87.490349
22697500000 -29.759415 -103.99367 -0.30050734 45.359665 -0.30039054 45.376053 -30.714693 -88.725723
22725000000 -27.469664 -109.28884 -0.30059779 45.000153 -0.30702904 45.005753 -29.835726 -78.152939
22752500000 -26.552481 -107.27227 -0.31773895 44.615459 -0.31696004 44.631451 -29.163851 -86.171829
22780000000 -30.177641 -102.2123 -0.30335113 44.225883 -0.30357403 44.204063 -30.045723 -92.078369
22807500000 -27.488762 -113.66447 -0.31028163 43.870655 -0.30848008 43.893478 -29.881628 -79.626007
22835000000 -26.262566 -108.55481 -0.31834504 43.496838 -0.32182604 43.485725 -28.876307 -80.832001
22862500000 -28.489614 -99.89579 -0.30808628 43.111549 -0.30567181 43.095234 -29.2978 -90.763939
22890000000 -28.516741 -115.6984 -0.31182635 42.787449 -0.30735022 42.765503 -29.913914 -83.62075
22917500000 -26.140253 -107.96891 -0.32225564 42.364643 -0.31645468 42.385288 -28.685205 -80.713272
22945000000 -27.705179 -107.6054 -0.31138721 42.051407 -0.31463748 42.054352 -29.138718 -90.960304
22972500000 -29.39785 -111.66593 -0.30964914 41.674313 -0.30757138 41.681873 -29.8547 -89.449753
23000000000 -25.82004 -112.83562 -0.31624475 41.270111 -0.31579039 41.283459 -28.769945 -81.722725
23027500000 -27.542877 -106.57068 -0.31128877 40.958393 -0.30883554 40.935772 -29.03109 -90.761887
23055000000 -29.680527 -114.23811 -0.29533181 40.55542 -0.29639897 40.572552 -29.903261 -91.51403
23082500000 -26.802179 -116.84175 -0.29910833 40.181274 -0.30201781 40.144241 -28.884212 -81.2967
23110000000 -26.940653 -105.11958 -0.30520025 39.776756 -0.30270496 39.762932 -28.760529 -85.8004
23137500000 -30.391445 -115.98757 -0.28453213 39.372993 -0.28940424 39.361557 -29.683529 -92.662407
23165000000 -27.58563 -116.24262 -0.28686213 39.017265 -0.28814986 39.002357 -29.121569 -81.663902
23192500000 -26.691299 -102.57204 -0.30135211 38.591797 -0.2992065 38.579739 -28.20381 -83.608742
23220000000 -30.314264 -115.72399 -0.28148797 38.16272 -0.28252161 38.153271 -29.199896 -93.081932
23247500000 -28.240055 -116.78864 -0.27908382 37.819752 -0.2813344 37.826195 -28.9874 -83.899132
23275000000 -26.029449 -104.81076 -0.30352879 37.387829 -0.29894528 37.417263 -28.126068 -81.867035
23302500000 -29.875572 -106.21034 -0.28239009 36.940083 -0.28780606 36.968124 -28.886505 -93.349648
23330000000 -28.62233 -122.21878 -0.28311476 36.614178 -0.28864229 36.637173 -29.073988 -86.111595
23357500000 -26.757553 -104.73553 -0.29514506 36.207329 -0.29412228 36.211254 -27.817217 -81.973625
23385000000 -28.018389 -105.6172 -0.29303408 35.837063 -0.29921815 35.791985 -28.551786 -92.712593
23412500000 -29.81274 -121.16879 -0.28871199 35.418217 -0.29358354 35.435654 -28.79314 -89.660034
23440000000 -26.36211 -106.26588 -0.29782954 35.016129 -0.29543546 35.031288 -27.701895 -82.821587
23467500000 -27.669029 -103.03409 -0.29966301 34.652271 -0.2983979 34.659473 -27.952133 -91.039467
23495000000 -30.172464 -122.82085 -0.294586 34.227318 -0.29160067 34.198544 -28.612518 -93.977829
23522500000 -26.643438 -111.61686 -0.29635102 33.855297 -0.29657939 33.856514 -27.753035 -84.861
23550000000 -27.431372 -101.05108 -0.30276823 33.516918 -0.30877662 33.479019 -27.789692 -90.781609
23577500000 -29.375553 -118.26914 -0.29537365 33.045437 -0.29981554 33.069534 -28.638269 -97.435478
23605000000 -27.738907 -116.28439 -0.29671076 32.738503 -0.30357236 32.718197 -27.86005 -86.499619
23632500000 -26.742601 -99.079338 -0.31675649 32.317879 -0.31775957 32.334129 -27.677999 -90.027954
23660000000 -29.698254 -118.65208 -0.30666956 31.897865 -0.3103036 31.910641 -28.413715 -97.822052
23687500000 -28.098768 -119.0802 -0.30537188 31.630039 -0.30224869 31.613619 -27.844795 -89.742371
23715000000 -27.023754 -102.58848 -0.31222689 31.245161 -0.31261465 31.221468 -27.476366 -85.893326
23742500000 -29.054483 -109.93725 -0.3108961 30.786898 -0.30545965 30.789003 -28.314573 -97.112236
23770000000 -28.589834 -120.08932 -0.29777908 30.490635 -0.30390468 30.472284 -28.233894 -92.851334
23797500000 -27.422569 -106.09389 -0.31336635 30.063038 -0.31208557 30.075813 -27.312429 -86.610336
23825000000 -28.418444 -100.6889 -0.30975923 29.661781 -0.31153461 29.65782 -27.902569 -97.33075
23852500000 -29.015856 -125.8096 -0.30627093 29.26819 -0.3099227 29.268379 -28.256269 -95.338791
23880000000 -27.451246 -104.77013 -0.31081799 28.93124 -0.31361175 28.925079 -27.183264 -86.290695
23907500000 -28.256617 -100.45705 -0.31813112 28.51597 -0.31582603 28.51722 -27.796026 -96.135635
23935000000 -29.283623 -124.35705 -0.31173012 28.129473 -0.31347236 28.092218 -28.11676 -98.995605
23962500000 -27.2384 -110.56651 -0.3163912 27.807434 -0.31435612 27.772612 -27.209782 -87.786087
23990000000 -27.954901 -95.263458 -0.32207137 27.404943 -0.32404563 27.40905 -27.354849 -94.787888
24017500000 -29.356289 -121.56028 -0.31671026 26.974485 -0.31877652 26.943054 -27.866705 -103.03172
24045000000 -27.333557 -114.9875 -0.31787878 26.633564 -0.31466255 26.648176 -27.224081 -90.099457
24072500000 -28.11417 -93.976166 -0.32411981 26.266363 -0.32432678 26.280813 -27.172647 -93.329941
24100000000 -28.814175 -118.39538 -0.31739473 25.855206 -0.31902307 25.858723 -28.01314 -102.94917
24127500000 -27.327412 -119.95693 -0.31512067 25.507988 -0.31700319 25.535755 -27.395674 -92.191772
24155000000 -27.756802 -96.072227 -0.31968284 25.162889 -0.3183428 25.177229 -27.056494 -92.122032
24182500000 -28.981995 -109.78046 -0.31619072 24.740698 -0.31541237 24.730032 -27.8671 -103.34943
24210000000 -28.152668 -122.16219 -0.31887347 24.385595 -0.3152523 24.377678 -27.522139 -96.58493
24237500000 -27.440605 -100.36523 -0.31601924 24.022699 -0.32133907 24.02951 -27.049208 -90.188065
24265000000 -29.562952 -102.59132 -0.32059628 23.574097 -0.31862387 23.603088 -27.513477 -101.61919
24292500000 -27.58139 -122.29679 -0.31667966 23.190971 -0.31940365 23.213871 -27.544128 -99.793533
24320000000 -27.390387 -102.19566 -0.31950396 22.872976 -0.31558272 22.875799 -27.02076 -89.355263
24347500000 -29.196957 -96.951439 -0.31822777 22.490496 -0.32049263 22.488289 -27.431204 -100.0899
24375000000 -27.941622 -121.6307 -0.31865034 22.085794 -0.31998822 22.076488 -27.543751 -103.47864
24402500000 -27.266636 -105.98669 -0.31565788 21.722204 -0.3172541 21.744341 -27.061989 -90.993233
24430000000 -29.630577 -94.817001 -0.32047144 21.380405 -0.31817234 21.345928 -27.087206 -98.039474
24457500000 -28.205853 -117.81104 -0.31776932 20.939642 -0.31833333 20.920084 -27.385736 -105.87703
24485000000 -27.280384 -111.18784 -0.31463748 20.612612 -0.31729087 20.578047 -26.874624 -93.260529
24512500000 -28.930273 -89.670731 -0.31626979 20.23542 -0.31782362 20.243109 -26.995062 -96.49128
24540000000 -29.231956 -112.16149 -0.31660864 19.760925 -0.31328651 19.777506 -26.994389 -107.99114
24567500000 -27.018288 -112.53005 -0.31148928 19.428989 -0.31716332 19.448359 -27.132042 -98.014893
24595000000 -28.973747 -91.71344 -0.31726164 19.055283 -0.31906262 19.077679 -26.962156 -95.278351
24622500000 -29.259342 -107.00786 -0.31241632 18.633421 -0.31943932 18.637062 -27.072922 -107.65832
24650000000 -26.806166 -114.75804 -0.31537062 18.282261 -0.31724882 18.262539 -27.115423 -101.50045
24677500000 -28.007322 -94.935402 -0.31823361 17.914696 -0.31884646 17.917835 -27.190268 -94.351357
24705000000 -29.738958 -101.18613 -0.3137303 17.509132 -0.32113755 17.539593 -26.938168 -106.20229
24732500000 -27.212307 -113.55012 -0.32078552 17.151684 -0.32043466 17.13262 -27.133926 -104.95869
24760000000 -27.089596 -102.45929 -0.32742178 16.794256 -0.32132486 16.79668 -27.296085 -93.285751
24787500000 -30.313484 -94.45327 -0.32346106 16.382633 -0.32528475 16.42062 -26.996405 -103.17564
24815000000 -26.914928 -114.11372 -0.32366547 15.959371 -0.3222799 16.004116 -26.849966 -107.5904
24842500000 -26.906462 -103.90529 -0.32422972 15.656691 -0.31927994 15.661472 -27.147589 -96.114174
24870000000 -29.592991 -91.596909 -0.31714272 15.279579 -0.32443306 15.28517 -26.905659 -102.17779
24897500000 -27.960579 -111.20872 -0.31589842 14.871964 -0.32229719 14.873108 -26.798157 -110.56897
24925000000 -26.802868 -106.91941 -0.31709313 14.508143 -0.32101935 14.503016 -26.938984 -100.57384
24952500000 -29.577816 -95.138359 -0.31253231 14.145511 -0.31863862 14.125401 -27.027802 -99.453705
24980000000 -28.236322 -110.75664 -0.31523588 13.737393 -0.31485289 13.726381 -26.880762 -110.06179
25007500000 -26.769062 -108.01581 -0.31792918 13.366077 -0.31782445 13.407702 -27.029268 -102.03237
25035000000 -28.930763 -98.458832 -0.31652123 13.004595 -0.31433246 12.962903 -27.028099 -99.904388
25062500000 -30.22715 -103.88984 -0.31871718 12.614507 -0.32134601 12.604914 -26.951153 -110.09219
25090000000 -26.251389 -111.46369 -0.31373751 12.192435 -0.31528905 12.167782 -27.102657 -106.23853
25117500000 -28.781984 -99.700188 -0.31433693 11.822251 -0.3133761 11.860709 -27.388548 -100.64165
25145000000 -30.0714 -104.05752 -0.31234121 11.428565 -0.31875619 11.459454 -26.981724 -108.6428
25172500000 -27.047539 -112.38403 -0.31678489 11.038517 -0.31245273 11.034658 -26.875492 -107.8503
25200000000 -28.085356 -100.88046 -0.31736466 10.679669 -0.31909886 10.6484 -27.751331 -99.460388
25227500000 -30.044687 -107.92294 -0.31478417 10.257131 -0.31216097 10.251118 -27.181616 -106.12202
25255000000 -27.98167 -107.94633 -0.31079963 9.82304 -0.31654072 9.897727 -26.645195 -112.35452
25282500000 -27.208029 -105.24002 -0.31598136 9.5250416 -0.31462386 9.4945431 -27.632376 -101.50807
25310000000 -30.136772 -103.7085 -0.31609941 9.1025152 -0.31576785 9.1363392 -27.425774 -104.44173
25337500000 -28.441019 -106.88293 -0.31294152 8.7274027 -0.31748971 8.7419586 -26.701805 -111.61736
25365000000 -26.735628 -106.2191 -0.31613755 8.3712816 -0.3160145 8.3662853 -27.567097 -102.61565
25392500000 -29.79294 -100.65742 -0.31757408 7.941987 -0.31747216 7.9236531 -27.541714 -103.38348
25420000000 -28.659214 -109.6375 -0.32561871 7.5374355 -0.31666571 7.5384703 -26.585184 -111.55786
25447500000 -27.116596 -103.02525 -0.31930196 7.1868377 -0.32169613 7.1616383 -26.984322 -104.9376
25475000000 -28.928516 -102.16859 -0.31607687 6.789269 -0.31719339 6.8237619 -27.56922 -101.15945
25502500000 -29.842529 -108.07449 -0.31480002 6.4299264 -0.31968868 6.4121737 -26.70476 -112.10461
25530000000 -26.73242 -103.29703 -0.32270899 6.0472479 -0.31923842 6.0354872 -27.1353 -107.80308
25557500000 -28.585712 -100.6595 -0.31955019 5.6574497 -0.31819156 5.6955504 -27.569033 -100.66459
25585000000 -30.212454 -109.79376 -0.32491621 5.2886682 -0.32632244 5.2843423 -26.825073 -111.64522
25612500000 -27.253946 -102.06442 -0.32258493 4.9071679 -0.31997234 4.8426247 -26.723259 -109.9997
25640000000 -28.699467 -104.86187 -0.31771639 4.5283275 -0.32774085 4.5192876 -27.763762 -101.65463
25667500000 -29.973429 -108.48078 -0.32242629 4.166121 -0.3243095 4.1425519 -27.051495 -107.81255
25695000000 -28.25667 -106.7106 -0.32166854 3.7485104 -0.32210147 3.7647793 -26.607964 -112.2506
25722500000 -27.822187 -97.594994 -0.32860154 3.3893158 -0.32021031 3.3690565 -27.56131 -101.56771
25750000000 -30.10626 -114.04361 -0.31809464 3.0274019 -0.33022404 2.9535532 -27.340429 -106.58634
25777500000 -28.633547 -103.86056 -0.32131091 2.5660019 -0.31703189 2.6383016 -26.617695 -111.65996
25805000000 -27.568087 -101.15389 -0.32890561 2.2105212 -0.32782039 2.2505846 -27.471684 -106.43954
25832500000 -29.864315 -104.58041 -0.32763839 1.8729047 -0.3319726 1.8460211 -27.424938 -103.99786
25860000000 -29.291317 -111.6259 -0.32384145 1.4381678 -0.33482924 1.4430492 -26.512247 -113.33976
25887500000 -27.483047 -95.592964 -0.32657889 1.0960184 -0.32488692 1.0646508 -26.943502 -108.54956
25915000000 -29.160126 -100.14957 -0.32861915 0.68744183 -0.3309232 0.72041565 -27.625235 -104.29848
25942500000 -29.411625 -111.65969 -0.33174852 0.32220045 -0.32907009 0.31617936 -26.559172 -111.7153
25970000000 -27.787033 -93.68335 -0.32248008 0.004006797 -0.32742542 -0.070021473 -26.837299 -111.3146
25997500000 -28.366365 -101.96285 -0.32813194 -0.40598178 -0.33213606 -0.37137085 -27.783901 -102.74495
26025000000 -30.481472 -106.20752 -0.32921556 -0.79901499 -0.33018577 -0.82593602 -26.423138 -110.77275
26052500000 -27.984642 -100.2711 -0.32769731 -1.1684386 -0.32801247 -1.1940464 -26.619196 -113.22002
26080000000 -27.627367 -96.779594 -0.32584944 -1.5613309 -0.33004081 -1.544438 -27.559296 -104.61228
26107500000 -30.013189 -105.17889 -0.32854152 -1.8960069 -0.32989335 -1.919889 -26.741392 -109.18293
26135000000 -29.038685 -102.25063 -0.32585168 -2.2876751 -0.32547837 -2.3381624 -26.551966 -114.38375
26162500000 -27.47917 -92.569878 -0.32434994 -2.7064211 -0.33048072 -2.6929297 -27.51812 -106.80756
26190000000 -29.309488 -108.36244 -0.32851166 -3.1185803 -0.32965401 -3.0363576 -27.075695 -106.35685
26217500000 -29.304586 -102.82652 -0.32562009 -3.4569263 -0.32894498 -3.4299207 -26.213718 -115.05662
26245000000 -27.505461 -91.968903 -0.31880105 -3.8284483 -0.32538992 -3.8228531 -27.029058 -110.05949
26272500000 -29.337011 -104.43843 -0.32647842 -4.2140689 -0.32580006 -4.2270956 -26.992502 -106.69814
26300000000 -29.396101 -98.382172 -0.32667741 -4.5918412 -0.32741705 -4.6378264 -26.166996 -114.75136
26327500000 -28.655037 -96.70507 -0.322593 -4.9687762 -0.32198131 -4.9931803 -27.03265 -112.99442
26355000000 -27.705532 -96.56974 -0.32627833 -5.3924332 -0.32779473 -5.4231577 -27.361387 -107.92124
26382500000 -30.065876 -109.19489 -0.32809174 -5.7347274 -0.32342342 -5.756249 -26.398302 -112.7157
26410000000 -28.343994 -92.634819 -0.31715497 -6.1735497 -0.32355449 -6.1869617 -26.879356 -115.96066
26437500000 -28.422382 -95.849678 -0.32482526 -6.546289 -0.32512572 -6.537106 -27.623327 -109.12254
26465000000 -29.694845 -105.76423 -0.32697716 -6.9235187 -0.32891315 -6.9203029 -26.624161 -111.27327
26492500000 -28.826778 -100.46635 -0.32219768 -7.3172135 -0.32866466 -7.3594255 -26.715845 -116.82552
26520000000 -27.670424 -92.683395 -0.33073604 -7.6944866 -0.32777351 -7.7411847 -28.096319 -113.15062
26547500000 -29.11927 -103.83866 -0.33910483 -8.0967245 -0.33571064 -8.1610212 -26.643341 -110.18729
26575000000 -28.661991 -102.59117 -0.32370481 -8.3745279 -0.31998014 -8.4897413 -26.903795 -116.22086
26602500000 -28.21451 -88.590012 -0.31365043 -8.9006891 -0.32988274 -8.884366 -27.691031 -115.92606
26630000000 -28.264503 -98.577667 -0.3161487 -9.2101793 -0.34068424 -9.2501926 -26.95307 -110.94298
26657500000 -28.922043 -107.39135 -0.34070718 -9.5883131 -0.32804793 -9.5771189 -26.629448 -115.43839
26685000000 -27.98978 -88.312073 -0.32044023 -9.9823017 -0.3394396 -9.9812469 -27.885546 -115.64934
26712500000 -28.649216 -98.582039 -0.33193684 -10.393878 -0.33690777 -10.379127 -27.232105 -110.91794
26740000000 -28.62298 -100.0617 -0.33223748 -10.721172 -0.35255185 -10.753717 -26.104576 -118.62021
26767500000 -29.318419 -88.716545 -0.32806078 -11.246133 -0.33110955 -11.173632 -27.147453 -115.65046
26795000000 -28.80172 -92.925423 -0.33281177 -11.565392 -0.33969599 -11.536704 -27.02504 -112.38888
26822500000 -29.460737 -100.76669 -0.32777882 -11.892125 -0.33972204 -11.895656 -26.802088 -114.56812
26850000000 -27.589266 -92.772774 -0.33256975 -12.268131 -0.33347055 -12.350591 -27.599449 -119.9184
26877500000 -28.132217 -89.022202 -0.32836953 -12.641343 -0.33835146 -12.7407 -27.663099 -117.60112
26905000000 -28.31081 -100.64281 -0.33877543 -13.158602 -0.33792195 -13.086731 -26.575521 -115.02749
26932500000 -27.926895 -96.816597 -0.32773471 -13.463289 -0.33307645 -13.470194 -27.503445 -122.88107
26960000000 -29.654537 -83.368736 -0.33203575 -13.837501 -0.32929766 -13.741657 -27.179554 -116.20712
26987500000 -27.495541 -103.47203 -0.35333017 -14.202363 -0.34366569 -14.181069 -26.777241 -111.66657
27015000000 -28.56666 -96.974937 -0.34778932 -14.645911 -0.32545549 -14.662709 -27.026085 -118.96786
27042500000 -28.158285 -81.986572 -0.34251374 -14.900664 -0.35129541 -15.0272 -28.094763 -121.49133
27070000000 -28.501781 -102.38572 -0.34403273 -15.359082 -0.33548832 -15.434872 -26.885197 -114.65277
27097500000 -27.851744 -94.79245 -0.34773126 -15.852367 -0.32834414 -15.757051 -26.808739 -115.84885
27125000000 -28.656576 -89.786469 -0.35150674 -16.239635 -0.33474451 -16.121469 -27.843342 -124.25172
27152500000 -28.281109 -99.727142 -0.33373025 -16.558815 -0.36353773 -16.527731 -26.7694 -113.98357
27180000000 -26.960556 -92.863838 -0.35768279 -16.920982 -0.36372575 -16.901772 -26.889126 -117.67387
27207500000 -29.436026 -98.444382 -0.336171 -17.302618 -0.33498079 -17.23007 -27.848755 -120.16693
27235000000 -27.487823 -86.553093 -0.3349492 -17.580002 -0.35110623 -17.619755 -27.368822 -114.16026
27262500000 -26.649414 -99.621437 -0.36058676 -18.105328 -0.35083625 -17.992966 -26.969152 -117.75797
27290000000 -29.003796 -93.434196 -0.34976658 -18.399328 -0.33511221 -18.399139 -27.771883 -121.49863
27317500000 -27.423399 -90.919624 -0.35157719 -18.811844 -0.35683486 -18.874838 -26.898867 -117.53516
27345000000 -27.534891 -96.896729 -0.3301799 -19.179159 -0.36083683 -19.131378 -26.862646 -112.91487
27372500000 -28.105721 -90.80896 -0.3447271 -19.479195 -0.35717827 -19.527683 -27.231754 -119.3427
27400000000 -27.860891 -100.39954 -0.35633016 -19.779928 -0.3518492 -19.950624 -27.735924 -115.22556
27427500000 -26.507723 -86.682411 -0.36076453 -20.333391 -0.35001743 -20.32992 -26.91716 -114.44156
27455000000 -26.869688 -94.312767 -0.36174321 -20.682806 -0.35935441 -20.633337 -27.476025 -120.39863
27482500000 -29.419468 -94.408997 -0.36890963 -21.080929 -0.36125934 -21.054234 -27.748642 -116.53085
27510000000 -25.693611 -89.110329 -0.35997421 -21.490698 -0.36447677 -21.415943 -26.898029 -112.58794
27537500000 -26.987034 -96.546036 -0.35487595 -21.844887 -0.36460093 -21.80188 -26.749498 -119.3596
27565000000 -27.333786 -86.925079 -0.36361992 -22.21892 -0.36363202 -22.198936 -27.728054 -119.79282
27592500000 -26.386383 -91.791901 -0.36841565 -22.472631 -0.359754 -22.597692 -27.215717 -112.67883
27620000000 -26.512665 -85.563324 -0.36054176 -22.824173 -0.37180167 -22.961145 -27.020979 -119.25861
27647500000 -26.629005 -94.483429 -0.3830657 -23.340605 -0.35874513 -23.220976 -27.317688 -121.19888
27675000000 -27.612974 -89.33831 -0.37992543 -23.643816 -0.37131414 -23.639423 -27.460712 -115.34941
27702500000 -25.178331 -85.065681 -0.36139748 -23.989981 -0.36699122 -23.968987 -26.236677 -118.37943
27730000000 -27.168432 -96.234818 -0.37020192 -24.492485 -0.358385 -24.382767 -27.281532 -121.23063
27757500000 -26.823895 -83.048866 -0.37371489 -24.804441 -0.3730889 -24.764198 -27.621021 -115.40528
27785000000 -25.209251 -88.483376 -0.37489939 -25.037098 -0.36839819 -25.006903 -26.800838 -116.00072
27812500000 -27.226137 -91.199432 -0.3702831 -25.555294 -0.36774197 -25.509712 -27.328461 -118.21081
27840000000 -26.141897 -94.698883 -0.36193791 -25.858957 -0.37614998 -25.761543 -27.564018 -120.39683
27867500000 -25.870783 -88.082451 -0.35444593 -26.112036 -0.35177818 -26.310619 -26.411173 -113.76855
27895000000 -25.703104 -87.317635 -0.37394398 -26.572477 -0.36295992 -26.627264 -26.176779 -121.02946
27922500000 -27.003201 -96.965012 -0.37046775 -26.893494 -0.37617484 -27.015949 -27.556211 -122.81722
27950000000 -25.64953 -87.077881 -0.34814548 -27.374289 -0.34825179 -27.352037 -27.138504 -117.81974
27977500000 -25.142141 -87.563965 -0.34496394 -27.54105 -0.36214811 -27.601215 -26.793503 -119.22355
28005000000 -26.908867 -102.27711 -0.3669394 -28.081654 -0.35220486 -28.190258 -27.05151 -119.52123
28032500000 -25.589035 -87.473709 -0.34067947 -28.386168 -0.35857025 -28.372299 -26.574633 -113.91543
28060000000 -25.552107 -94.737625 -0.35721424 -28.680733 -0.33625743 -28.720987 -26.734747 -121.11034
28087500000 -27.200378 -89.93676 -0.35557574 -29.138216 -0.336597 -29.222952 -26.855244 -123.47384
28115000000 -25.482563 -103.35405 -0.33937103 -29.557051 -0.34944057 -29.485134 -27.032387 -117.24875
28142500000 -25.457264 -83.237587 -0.3508952 -29.871391 -0.33560297 -29.870354 -26.473743 -120.95702
28170000000 -26.290546 -96.946777 -0.34368557 -30.23946 -0.3325094 -30.31229 -27.003967 -126.75806
28197500000 -26.288622 -99.239784 -0.33727479 -30.762943 -0.36034459 -30.631538 -27.054728 -122.23159
28225000000 -25.698776 -82.520943 -0.32791588 -31.094429 -0.33919469 -31.04339 -26.634262 -119.38229
28252500000 -26.632053 -99.231705 -0.33666328 -31.483873 -0.3169347 -31.500757 -26.971354 -125.55811
28280000000 -26.427418 -101.40273 -0.32495192 -31.878607 -0.34381866 -31.802816 -27.697487 -127.58289
28307500000 -25.525526 -85.471367 -0.31003112 -32.298985 -0.30966693 -32.138115 -27.37644 -118.54855
28335000000 -26.277084 -94.951675 -0.33534682 -32.513824 -0.33501127 -32.690098 -26.57266 -127.42192
28362500000 -26.329063 -95.595009 -0.33336127 -33.045803 -0.31499708 -33.183994 -27.748169 -127.01126
28390000000 -25.580149 -89.201942 -0.31559637 -33.527744 -0.32104778 -33.469963 -27.505508 -123.7414
28417500000 -26.463291 -87.671227 -0.33287495 -33.855568 -0.32937279 -33.817558 -26.528713 -126.05266
28445000000 -26.236477 -106.21763 -0.32016489 -34.246742 -0.33342585 -34.367081 -27.349794 -127.87943
28472500000 -25.876217 -94.789619 -0.31341448 -34.739403 -0.33043969 -34.665699 -28.794579 -124.65244
28500000000 -26.687052 -88.101852 -0.3152743 -34.989491 -0.30874911 -35.112061 -27.159344 -127.19711
28527500000 -25.27397 -97.289368 -0.3135753 -35.42588 -0.35150871 -35.496048 -27.7551 -127.41885
28555000000 -26.52799 -94.850563 -0.32791308 -35.774792 -0.32961574 -35.816883 -28.96266 -124.83524
28582500000 -26.286308 -88.319237 -0.32770902 -36.061844 -0.33168116 -36.261581 -28.053555 -122.3859
28610000000 -26.254456 -92.848755 -0.3133736 -36.587864 -0.33129394 -36.667477 -27.412531 -125.90192
28637500000 -25.782869 -101.84549 -0.31927046 -37.053066 -0.35367754 -36.974319 -28.941454 -126.41663
28665000000 -25.636145 -81.172119 -0.3180019 -37.488728 -0.33618695 -37.504318 -28.084806 -124.65431
28692500000 -26.776228 -90.274803 -0.32549399 -37.780876 -0.34345526 -37.907604 -27.194836 -128.12779
28720000000 -25.303835 -98.763504 -0.33336017 -38.307682 -0.33846816 -38.138409 -28.396965 -124.50613
28747500000 -26.217604 -89.146706 -0.32044077 -38.541527 -0.33079052 -38.58374 -28.861341 -120.54135
28775000000 -25.530956 -87.254768 -0.33503756 -38.844013 -0.34618184 -38.786755 -27.22744 -123.28883
28802500000 -25.862137 -100.04356 -0.35173497 -39.390152 -0.35454565 -39.251503 -27.864954 -127.20609
28830000000 -25.307323 -86.639931 -0.33781561 -39.585098 -0.34647143 -39.620892 -29.443514 -122.24338
28857500000 -26.408735 -84.479134 -0.35735983 -39.927471 -0.33920196 -40.102093 -27.536963 -124.98566
28885000000 -25.164545 -93.674545 -0.35175741 -40.444489 -0.35682359 -40.441944 -27.941786 -127.74725
28912500000 -25.208706 -100.41396 -0.35678932 -40.806664 -0.35043973 -40.862793 -29.064011 -126.4062
28940000000 -25.366711 -80.79319 -0.35732722 -41.135193 -0.35457596 -41.250427 -28.023457 -123.22213
28967500000 -25.27317 -97.359459 -0.35426083 -41.607452 -0.35278994 -41.579411 -27.732706 -128.85582
28995000000 -25.582678 -89.976204 -0.35843447 -41.826855 -0.3624202 -41.854313 -28.608999 -127.78345
29022500000 -25.362429 -88.674698 -0.35954365 -42.296768 -0.34311992 -42.488155 -28.499863 -125.40465
29050000000 -25.753521 -91.809486 -0.3425709 -42.540398 -0.37111592 -42.727242 -27.09391 -128.94344
29077500000 -25.571903 -94.4543 -0.37149996 -43.021221 -0.35783821 -43.066906 -27.571056 -126.72704
29105000000 -24.594814 -89.989494 -0.34812725 -43.470734 -0.34961227 -43.309292 -27.971121 -125.61163
29132500000 -26.383427 -78.73317 -0.36283779 -43.680202 -0.35388002 -43.825184 -27.639509 -130.39287
29160000000 -24.013657 -101.60143 -0.35781097 -44.266941 -0.37159866 -44.236656 -28.640198 -129.84425
29187500000 -25.765949 -92.945938 -0.31689796 -44.425354 -0.35328186 -44.544426 -28.754181 -121.51057
29215000000 -25.374392 -84.744499 -0.3377482 -44.804787 -0.35647795 -44.972935 -28.140516 -128.28703
29242500000 -25.177906 -96.116547 -0.33693436 -45.137642 -0.37619656 -45.220196 -27.506559 -130.17003
29270000000 -25.19232 -94.660049 -0.33966213 -45.537964 -0.35587806 -45.707848 -28.792755 -121.96763
29297500000 -25.198875 -88.918541 -0.34200624 -46.075397 -0.34312496 -46.074585 -27.946629 -126.98537
29325000000 -25.519152 -98.02272 -0.33988971 -46.438793 -0.36697996 -46.38422 -26.887331 -128.22197
29352500000 -24.308493 -92.273567 -0.35422769 -46.788094 -0.35573393 -46.764458 -28.414362 -125.34869
29380000000 -26.986816 -95.102615 -0.35114777 -47.171101 -0.34744409 -47.285923 -27.991623 -128.83882
29407500000 -25.364855 -90.437271 -0.37193477 -47.541759 -0.36282036 -47.576218 -27.234247 -128.17274
29435000000 -24.054199 -103.83752 -0.36139944 -47.989365 -0.35602725 -47.949879 -27.960175 -131.81241
29462500000 -25.909435 -92.694946 -0.31817207 -48.394436 -0.36271003 -48.390881 -28.645864 -125.78859
29490000000 -25.172878 -89.90419 -0.35252744 -48.633263 -0.35374522 -48.750069 -27.305349 -130.85559
29517500000 -25.262947 -105.54167 -0.3555176 -48.9739 -0.35737136 -49.096905 -28.273863 -133.70926
29545000000 -24.503721 -88.693459 -0.34842342 -49.420212 -0.34311321 -49.521168 -28.960102 -129.22438
29572500000 -25.79491 -93.288811 -0.34382764 -49.857868 -0.355553 -49.880371 -28.197952 -130.06631
29600000000 -24.698019 -102.56641 -0.35370478 -50.320915 -0.33813095 -50.297749 -28.221066 -131.51201
29627500000 -23.164585 -97.382408 -0.34645712 -50.626537 -0.35272872 -50.631706 -28.454433 -130.76433
29655000000 -27.212585 -93.359413 -0.34462622 -50.980824 -0.33193544 -50.917828 -28.299391 -129.17316
29682500000 -23.768772 -96.099838 -0.32941133 -51.443756 -0.35127434 -51.385235 -27.64687 -133.68839
29710000000 -24.578114 -99.635002 -0.33200809 -51.638496 -0.32383925 -51.649319 -29.13883 -127.57738
29737500000 -26.275732 -89.048241 -0.35334083 -52.130127 -0.3322227 -52.166931 -28.358425 -128.89618
29765000000 -24.375048 -99.921532 -0.34066769 -52.486473 -0.36289519 -52.557247 -28.040403 -134.2664
29792500000 -24.674057 -98.749687 -0.33300853 -52.9151 -0.3442339 -52.829865 -28.171551 -132.71457
29820000000 -24.106989 -90.778542 -0.32019219 -53.272831 -0.33673516 -53.24305 -28.612532 -130.97578
29847500000 -26.404409 -100.28384 -0.32894164 -53.719746 -0.35672468 -53.622944 -28.600592 -139.13356
29875000000 -23.665934 -97.497009 -0.34731117 -53.97979 -0.33160684 -54.142689 -28.654255 -135.55562
29902500000 -24.688658 -101.21089 -0.34658104 -54.429024 -0.33084136 -54.347328 -29.449421 -126.87728
29930000000 -26.691236 -88.790581 -0.33953056 -54.883541 -0.3157222 -54.79491 -28.325253 -135.02435
29957500000 -23.401352 -101.14706 -0.346726 -55.167747 -0.30257618 -55.293335 -28.448523 -135.08717
29985000000 -24.995913 -98.98735 -0.32950908 -55.533203 -0.31988791 -55.597523 -29.225294 -129.75981
30012500000 -25.156364 -89.11544 -0.35084412 -56.063473 -0.3265281 -56.015778 -29.382629 -131.23039
30040000000 -25.089119 -101.64622 -0.33698079 -56.502243 -0.32050961 -56.405735 -29.071327 -130.53976
30067500000 -24.061106 -96.430771 -0.30363873 -56.728638 -0.33457649 -56.709541 -29.894783 -126.45885
30095000000 -25.434011 -91.863068 -0.33714303 -57.319359 -0.34310481 -57.101563 -28.184305 -132.11031
30122500000 -25.712133 -99.367897 -0.34958115 -57.552937 -0.32527024 -57.603588 -29.078707 -136.9066
30150000000 -23.323338 -98.193863 -0.33067152 -58.090275 -0.33802968 -57.903973 -28.798452 -142.65793
30177500000 -25.493937 -100.95511 -0.32537207 -58.298691 -0.34621826 -58.375694 -28.815819 -128.59056
30205000000 -26.610123 -87.678535 -0.33049163 -58.686947 -0.3333213 -58.595219 -29.013142 -134.56747
30232500000 -23.22225 -104.822 -0.32395023 -59.216007 -0.32768837 -59.016754 -29.37616 -139.97101
30260000000 -25.497883 -92.741615 -0.33995157 -59.529041 -0.33352563 -59.414082 -29.543209 -128.77904
30287500000 -25.202635 -94.36042 -0.33979592 -59.864826 -0.32223669 -59.804749 -29.231707 -132.30014
30315000000 -24.91293 -105.34193 -0.33903769 -60.076515 -0.30646345 -60.240959 -29.613968 -135.13702
30342500000 -23.962097 -90.310722 -0.33106261 -60.618549 -0.33264074 -60.627724 -29.705811 -124.7295
30370000000 -27.075239 -99.353348 -0.3442423 -61.01733 -0.33557221 -60.982948 -29.632824 -135.74126
30397500000 -24.282736 -98.792885 -0.32409805 -61.359421 -0.29923201 -61.425018 -30.352028 -135.09401
30425000000 -23.722307 -92.608215 -0.34700441 -61.722404 -0.31796539 -61.795422 -30.227808 -121.24979
30452500000 -27.460739 -101.22243 -0.35181522 -62.189419 -0.33241829 -62.282597 -30.046347 -129.94841
30480000000 -23.584978 -94.05336 -0.33031175 -62.550957 -0.32750776 -62.676048 -29.907522 -133.88203
30507500000 -24.459976 -99.628143 -0.33542177 -62.891781 -0.32562622 -62.926464 -29.902874 -130.59383
30535000000 -25.650751 -91.132309 -0.33316842 -63.420589 -0.34303701 -63.446487 -30.512598 -124.43393
30562500000 -25.484465 -97.717293 -0.32297918 -63.747913 -0.34513125 -63.640102 -29.845814 -141.94467
30590000000 -24.587011 -102.09546 -0.3308827 -64.136955 -0.32296023 -64.100372 -30.412455 -131.12083
30617500000 -23.715719 -93.553696 -0.33114138 -64.455261 -0.31882641 -64.421547 -29.755241 -119.28809
30645000000 -26.761744 -98.093552 -0.33572993 -64.838036 -0.3438971 -64.96228 -29.928608 -134.38509
30672500000 -22.95339 -94.421333 -0.33426893 -65.151459 -0.31231478 -65.271622 -29.566662 -129.91141
30700000000 -25.235687 -101.21373 -0.33229843 -65.497612 -0.31605959 -65.73867 -30.507793 -118.82832
30727500000 -25.639734 -96.226578 -0.33989838 -66.000504 -0.34224263 -66.099632 -29.939402 -133.14314
30755000000 -23.48774 -103.4598 -0.33740097 -66.461105 -0.34088835 -66.365257 -30.285631 -138.56514
30782500000 -24.832094 -89.830681 -0.34619921 -66.664589 -0.32107955 -66.897049 -31.063156 -112.93649
30810000000 -24.820103 -96.669334 -0.34920943 -67.032387 -0.35115254 -67.137581 -30.800758 -127.89912
30837500000 -26.429901 -96.262573 -0.33743903 -67.49192 -0.33781815 -67.515129 -30.390686 -136.38431
30865000000 -23.638708 -98.884636 -0.32643184 -67.944664 -0.34251067 -67.967545 -30.066715 -121.25764
30892500000 -25.088844 -101.98552 -0.33019695 -68.270302 -0.35632199 -68.322044 -29.959421 -121.41156
30920000000 -26.193731 -101.25918 -0.33115733 -68.698997 -0.34131002 -68.658607 -30.179964 -135.61484
30947500000 -22.939566 -102.96787 -0.32531738 -69.013718 -0.32946941 -69.092781 -30.338629 -127.54975
30975000000 -24.860302 -97.754341 -0.34935221 -69.459511 -0.33936709 -69.52478 -30.082993 -121.65691
31002500000 -26.427359 -89.56369 -0.33597857 -69.875412 -0.34096786 -69.821564 -30.265371 -127.32767
31030000000 -22.79125 -110.40878 -0.3399972 -70.232307 -0.33089694 -70.488304 -30.105524 -124.13585
31057500000 -23.844997 -84.150734 -0.36296022 -70.569389 -0.3373383 -70.69101 -30.584839 -107.54084
31085000000 -24.787445 -113.79599 -0.34467891 -71.006607 -0.35290673 -71.064415 -30.044056 -123.92936
31112500000 -23.414242 -94.33812 -0.32354584 -71.491508 -0.36289689 -71.396263 -31.094982 -130.93861
31140000000 -23.434219 -100.03954 -0.34179422 -71.67485 -0.32422024 -72.000755 -31.373379 -114.75322
31167500000 -25.372667 -98.588654 -0.34937802 -72.06057 -0.34333983 -72.07869 -30.72707 -122.04008
31195000000 -24.489916 -104.85192 -0.36048552 -72.438057 -0.36051926 -72.683357 -29.745199 -141.95758
31222500000 -22.950211 -99.171074 -0.35110483 -72.981033 -0.33548442 -72.945084 -30.93852 -121.04169
31250000000 -25.37673 -91.801559 -0.33386552 -73.292778 -0.3387855 -73.27272 -30.175886 -118.40063
31277500000 -24.538126 -107.84632 -0.35772046 -73.938309 -0.36264306 -73.6605 -29.557928 -134.01595
31305000000 -22.919252 -95.799568 -0.36200544 -74.168892 -0.35344446 -74.015457 -31.947224 -117.56939
31332500000 -24.945641 -94.179619 -0.36949387 -74.516777 -0.32567003 -74.462234 -30.354349 -114.29727
31360000000 -24.488018 -121.47176 -0.37800327 -74.687126 -0.35387775 -74.795654 -29.287928 -134.4156
31387500000 -22.416922 -94.897331 -0.3475655 -75.292114 -0.3640748 -75.2817 -30.805204 -135.88788
31415000000 -26.057238 -92.591278 -0.32820538 -75.454727 -0.34443426 -75.594879 -32.522831 -115.15312
31442500000 -24.926079 -116.62914 -0.36344147 -75.888863 -0.38193691 -75.931297 -30.645037 -134.93532
31470000000 -23.053871 -98.4907 -0.33970019 -76.373192 -0.36547405 -76.379654 -30.015612 -133.80609
31497500000 -24.893351 -95.010162 -0.36804119 -76.682724 -0.36545095 -76.616165 -32.377102 -120.84845
31525000000 -24.459394 -110.04885 -0.36921316 -76.997772 -0.37057263 -77.10585 -29.791945 -128.18861
31552500000 -23.102324 -109.6083 -0.34181103 -77.431511 -0.36559597 -77.540642 -29.22373 -134.38722
31580000000 -23.714317 -83.58387 -0.34008399 -77.930832 -0.34109133 -77.944954 -31.013981 -112.95303
31607500000 -25.060249 -117.06201 -0.34696236 -78.138252 -0.351749 -78.18129 -30.698328 -123.29849
31635000000 -23.83552 -110.83764 -0.35040885 -78.370041 -0.3546066 -78.570976 -30.450224 -138.59015
31662500000 -23.591442 -90.355873 -0.35234553 -78.896996 -0.34294793 -79.073036 -32.476406 -123.87693
31690000000 -25.822433 -116.08421 -0.35280678 -79.254723 -0.35444257 -79.370377 -30.57217 -122.66917
31717500000 -22.893866 -111.01875 -0.35933951 -79.739624 -0.38013676 -79.706413 -31.318834 -134.04881
31745000000 -24.224136 -89.388519 -0.35981643 -80.211456 -0.34829777 -80.353767 -32.212158 -127.68001
31772500000 -25.194715 -113.19098 -0.33687279 -80.391968 -0.33483428 -80.571205 -31.551954 -124.30802
31800000000 -23.237814 -112.2053 -0.39024305 -80.812119 -0.36172661 -80.857956 -31.270477 -133.70569
31827500000 -24.083138 -96.144295 -0.36346257 -81.102661 -0.34453571 -81.205757 -32.109245 -122.07449
31855000000 -25.60445 -102.41905 -0.34962183 -81.600456 -0.3561773 -81.656433 -32.394291 -117.83818
31882500000 -22.563496 -119.94685 -0.36517784 -81.90435 -0.34609801 -81.989784 -31.296988 -129.10306
31910000000 -23.634386 -96.614388 -0.34228265 -82.539177 -0.33929601 -82.547935 -31.697445 -131.52466
31937500000 -25.493765 -109.6453 -0.35367864 -82.811752 -0.35802487 -82.789642 -32.818729 -123.46883
31965000000 -23.659569 -113.87999 -0.34831181 -82.981888 -0.35607865 -83.286285 -32.092533 -128.65448
31992500000 -23.580132 -106.57794 -0.35285816 -83.586761 -0.3649675 -83.547035 -31.021519 -138.11002
32020000000 -25.304998 -93.851341 -0.35862815 -83.98925 -0.3673715 -83.949097 -33.792519 -114.174
32047500000 -24.167856 -117.40254 -0.33946031 -84.148338 -0.34514695 -84.259583 -31.654467 -123.39548
32075000000 -23.21615 -109.21169 -0.36497566 -84.68911 -0.36294219 -84.716133 -31.989458 -139.29111
32102500000 -26.297638 -97.797386 -0.33604318 -85.203033 -0.33376855 -85.143196 -33.856747 -126.98399
32130000000 -25.023987 -116.58698 -0.33903348 -85.410042 -0.34488741 -85.469284 -33.012886 -123.21329
32157500000 -22.141556 -114.20507 -0.33422142 -85.729362 -0.35904118 -85.855896 -31.775007 -136.88948
32185000000 -26.785162 -84.469566 -0.32839969 -86.384377 -0.33066118 -86.469597 -33.699806 -124.42957
32212500000 -23.574165 -117.80479 -0.33160323 -86.641663 -0.33691925 -86.594589 -32.536095 -112.76965
32240000000 -23.254356 -111.82167 -0.35470939 -87.024834 -0.33144563 -87.083382 -30.926468 -130.34552
32267500000 -24.336454 -104.16531 -0.36123261 -87.313477 -0.34935248 -87.507996 -33.172321 -134.90414
32295000000 -26.195505 -110.1106 -0.33384931 -87.777908 -0.35220516 -87.777779 -35.882465 -121.71582
32322500000 -22.617767 -111.9221 -0.34303728 -88.145508 -0.34281319 -88.034615 -32.591671 -121.0745
32350000000 -23.92379 -105.2967 -0.35451728 -88.397911 -0.34666321 -88.610474 -33.001419 -137.61295
32377500000 -26.583618 -111.24572 -0.33465979 -89.004845 -0.3381139 -89.076584 -34.591927 -125.88484
32405000000 -22.100719 -116.01586 -0.35053036 -89.389175 -0.34493423 -89.414543 -32.956524 -114.7109
32432500000 -23.910128 -99.211891 -0.34630463 -89.65345 -0.32941216 -89.677208 -32.682281 -115.95863
32460000000 -25.716946 -100.89494 -0.34979913 -90.333115 -0.32847396 -90.150467 -33.23687 -119.2836
32487500000 -22.906757 -121.64111 -0.35591403 -90.4701 -0.32818025 -90.425308 -34.153069 -118.0414
32515000000 -23.60462 -92.958115 -0.35540521 -90.94783 -0.34310088 -90.871429 -34.535629 -112.51227
32542500000 -24.964155 -112.96001 -0.34634918 -91.14785 -0.32692134 -91.32917 -34.204491 -120.77444
32570000000 -25.375 -111.91909 -0.3423667 -91.565453 -0.35787365 -91.696281 -34.109974 -111.91596
32597500000 -22.070967 -106.71616 -0.34679356 -91.850723 -0.32317328 -91.904488 -31.677036 -116.46399
32625000000 -25.98642 -100.17717 -0.330769 -92.364456 -0.33508927 -92.434959 -35.050446 -106.93158
32652500000 -24.238575 -107.18283 -0.32051185 -92.566643 -0.32328203 -92.68737 -33.325577 -91.204094
32680000000 -21.967594 -106.76159 -0.34477028 -92.904968 -0.33769643 -92.990715 -31.440285 -106.84499
32707500000 -26.203766 -97.60157 -0.36708474 -93.630852 -0.33243871 -93.646774 -33.980812 -111.5886
32735000000 -23.808119 -112.81615 -0.32179007 -93.702156 -0.34382257 -94.01902 -33.648617 -90.683144
32762500000 -23.7031 -111.06227 -0.34300172 -94.166992 -0.31990656 -94.401657 -31.970785 -109.18141
32790000000 -23.723455 -98.097656 -0.33740658 -94.63942 -0.36074343 -94.729179 -33.913685 -105.68253
32817500000 -25.908928 -124.71684 -0.32561731 -95.304169 -0.32847676 -95.170158 -33.349842 -98.192818
32845000000 -22.490135 -105.7608 -0.33266199 -95.439568 -0.34984794 -95.641617 -32.84341 -100.90977
32872500000 -23.304344 -108.58007 -0.33227438 -95.77375 -0.33028632 -95.981491 -33.30751 -110.1627
32900000000 -27.393837 -105.1252 -0.36633211 -96.278496 -0.33965763 -96.292877 -33.803661 -97.586235
32927500000 -22.423595 -109.58025 -0.31928748 -96.521561 -0.35844094 -96.678474 -32.065514 -95.573402
32955000000 -24.101101 -104.78635 -0.318396 -96.997101 -0.34953427 -97.175713 -31.62307 -103.72571
32982500000 -24.934055 -106.24036 -0.34636292 -97.293945 -0.35170323 -97.378937 -33.36544 -103.59119
33010000000 -23.926109 -115.16397 -0.37886524 -97.787788 -0.32407936 -97.958427 -31.127623 -95.139023
33037500000 -22.505938 -98.901443 -0.33317065 -98.309311 -0.33534235 -98.168846 -29.946051 -101.38615
33065000000 -24.605446 -115.74903 -0.33976457 -98.732483 -0.36309218 -98.552643 -32.572174 -101.98364
33092500000 -24.558109 -113.10674 -0.36378825 -98.914742 -0.35261559 -98.984512 -33.594486 -97.723846
33120000000 -22.657221 -103.35895 -0.35957572 -99.294952 -0.32440236 -99.309883 -29.998064 -97.331757
33147500000 -24.650068 -110.66199 -0.35238004 -99.807869 -0.36926022 -99.755562 -31.815241 -94.05455
33175000000 -24.567045 -109.74501 -0.34712639 -100.11147 -0.35914689 -99.968086 -32.511673 -92.524597
33202500000 -22.881714 -108.41666 -0.33133471 -100.41419 -0.36832774 -100.45389 -31.216927 -95.6138
33230000000 -24.212179 -99.389816 -0.32633919 -100.79883 -0.36508435 -100.69186 -33.190697 -98.497787
33257500000 -24.378801 -116.4906 -0.36365819 -101.32896 -0.34633124 -101.31544 -34.514561 -89.864128
33285000000 -23.753904 -108.19574 -0.35667917 -101.60242 -0.34563044 -101.56493 -31.072792 -96.413956
33312500000 -23.0322 -103.07715 -0.35896638 -101.87535 -0.35781911 -101.8292 -31.865417 -109.4716
33340000000 -25.424078 -112.56972 -0.36300579 -102.27789 -0.38035488 -102.3683 -33.134304 -99.482422
33367500000 -23.304567 -104.56705 -0.32546049 -102.71432 -0.33191589 -102.75906 -31.050253 -95.528496
33395000000 -23.561943 -103.19957 -0.34652412 -102.90453 -0.3634848 -103.05907 -30.056662 -100.69521
33422500000 -24.815187 -112.14081 -0.36859685 -103.65296 -0.34966755 -103.57285 -32.218948 -108.21349
33450000000 -23.9443 -108.01037 -0.35956645 -103.78206 -0.33945024 -104.12975 -31.982178 -94.599838
33477500000 -23.9186 -104.45253 -0.3661378 -104.13181 -0.33414873 -104.18077 -29.317354 -91.865578
33505000000 -23.787127 -111.27568 -0.35580528 -104.59528 -0.35455829 -104.78944 -32.159046 -104.05049
33532500000 -25.351915 -113.17546 -0.33894336 -105.05956 -0.35085785 -104.95427 -32.282818 -100.24336
33560000000 -23.209034 -105.00185 -0.35894305 -105.42619 -0.34810707 -105.49116 -29.489937 -99.785545
33587500000 -23.785175 -104.75981 -0.34489554 -105.87103 -0.35308194 -105.70785 -31.739553 -98.646751
33615000000 -25.43313 -113.61826 -0.3566443 -106.17473 -0.33955464 -106.04662 -32.011036 -93.611557
33642500000 -22.840736 -107.35605 -0.36122784 -106.56253 -0.34889129 -106.48248 -29.097744 -95.82045
33670000000 -24.022238 -105.24055 -0.35606182 -106.67618 -0.32568091 -106.97434 -31.580767 -110.54032
33697500000 -24.687387 -117.11446 -0.3438209 -107.37346 -0.35083458 -107.30244 -35.202229 -105.32273
33725000000 -24.95742 -108.22789 -0.35872656 -107.71556 -0.35228151 -107.71213 -30.174301 -96.957634
33752500000 -23.501814 -100.92233 -0.35057864 -108.08497 -0.32335845 -108.05252 -31.014631 -100.42488
33780000000 -25.243486 -116.35773 -0.33391866 -108.35545 -0.37995905 -108.30534 -32.491634 -81.089462
33807500000 -25.714539 -111.02377 -0.3319371 -108.87848 -0.36054429 -108.81404 -31.429348 -94.76532
33835000000 -24.370184 -108.01121 -0.3624033 -109.16316 -0.34357771 -109.31776 -29.961258 -97.705101
33862500000 -24.539206 -112.11552 -0.37118444 -109.46748 -0.3372944 -109.50744 -32.100029 -108.29832
33890000000 -25.253225 -117.04333 -0.35713863 -110.18478 -0.34430873 -110.06394 -31.548187 -101.46951
33917500000 -24.359879 -110.70541 -0.3387396 -110.29591 -0.36428395 -110.43921 -29.717789 -96.825531
33945000000 -24.795033 -107.533 -0.34248853 -110.63029 -0.33853617 -110.88912 -31.580704 -102.21629
33972500000 -24.405094 -129.68361 -0.36511785 -111.31744 -0.34312049 -111.17094 -31.825733 -89.738922
34000000000 -24.621481 -107.76099 -0.34304905 -111.54214 -0.34897685 -111.68342 -29.338717 -95.478745
34027500000 -24.403131 -112.0765 -0.35306144 -112.03734 -0.35851908 -111.87434 -30.582968 -116.26797
34055000000 -25.278576 -119.17473 -0.33068156 -112.3286 -0.37722617 -112.20509 -32.305485 -91.180626
34082500000 -24.172894 -117.51197 -0.3481065 -112.67866 -0.37058982 -112.90626 -29.138498 -91.058228
34110000000 -25.092241 -104.53541 -0.35790962 -113.16953 -0.3155382 -113.25697 -31.279009 -102.55917
34137500000 -24.585333 -116.71252 -0.35983527 -113.47446 -0.34471422 -113.43019 -32.521927 -104.72726
34165000000 -24.840572 -128.67213 -0.38062784 -113.98463 -0.36768928 -113.99535 -30.360439 -94.955177
34192500000 -24.92034 -97.074951 -0.34051511 -114.42389 -0.33188039 -114.16113 -31.107641 -100.66131
34220000000 -25.101578 -120.04096 -0.36500552 -114.60659 -0.35391539 -114.67772 -33.891445 -105.05953
34247500000 -24.926521 -128.12833 -0.34707817 -115.20793 -0.37487203 -115.08373 -29.497644 -94.113243
34275000000 -24.365433 -102.74508 -0.3309302 -115.59419 -0.37105164 -115.36964 -30.095615 -88.54644
34302500000 -24.979179 -121.57433 -0.34477502 -115.93485 -0.3633182 -115.99421 -33.519318 -110.49078
34330000000 -24.770971 -120.90443 -0.37265959 -116.21832 -0.34059995 -116.21081 -30.975342 -83.50618
34357500000 -25.214987 -101.69759 -0.36762759 -116.5365 -0.3652457 -116.75801 -28.243477 -89.820694
34385000000 -25.325428 -112.49846 -0.34858555 -116.83731 -0.34344742 -117.08857 -33.132801 -97.154411
34412500000 -24.566469 -116.07124 -0.3765884 -117.26089 -0.33740294 -117.39272 -31.229748 -88.409027
34440000000 -24.682188 -116.69926 -0.37765425 -117.65395 -0.34578544 -117.69022 -29.705593 -87.305862
34467500000 -25.937244 -107.68791 -0.34223029 -117.99132 -0.34886214 -118.3028 -32.176029 -97.498505
34495000000 -23.829687 -122.73496 -0.35220599 -118.47871 -0.38199541 -118.53556 -33.159924 -93.466484
34522500000 -26.822371 -116.03537 -0.35463271 -118.72243 -0.38752833 -118.80843 -28.370953 -89.238937
34550000000 -24.906042 -107.13609 -0.35156655 -119.35447 -0.36418486 -119.29537 -30.794785 -94.823212
34577500000 -24.967659 -120.02961 -0.39316806 -119.65235 -0.39093214 -119.4304 -32.688541 -96.456352
34605000000 -25.327871 -109.14542 -0.41110894 -120.10664 -0.37135193 -119.95947 -28.460417 -80.261467
34632500000 -25.953548 -106.53207 -0.36355039 -120.30026 -0.33483511 -120.34919 -29.6521 -86.666222
34660000000 -25.116947 -121.13251 -0.37589595 -120.69356 -0.41174042 -120.53146 -34.16494 -97.662468
34687500000 -24.423489 -109.79851 -0.36439994 -121.34412 -0.37903303 -121.18584 -29.033648 -81.68029
34715000000 -26.082647 -114.77339 -0.377868 -121.59199 -0.38136429 -121.52542 -28.564665 -85.224411
34742500000 -25.456741 -112.17937 -0.33602303 -122.0068 -0.37721911 -121.78014 -32.519127 -96.866806
34770000000 -23.415911 -117.52334 -0.38550293 -122.36217 -0.36751461 -122.08199 -29.88501 -84.141022
34797500000 -27.906628 -115.4519 -0.40028805 -122.57635 -0.34334403 -122.62743 -29.521799 -75.542244
34825000000 -24.248388 -106.94837 -0.36557233 -123.07751 -0.38111418 -123.235 -32.415363 -103.00858
34852500000 -24.983845 -119.16239 -0.3530724 -123.4984 -0.37393072 -123.27165 -31.682755 -90.805962
34880000000 -24.938025 -114.26696 -0.35718107 -123.71067 -0.3817662 -123.76968 -27.917038 -71.523262
34907500000 -25.905603 -117.45513 -0.36125821 -124.15224 -0.37794003 -124.1958 -30.829126 -81.967491
34935000000 -25.726406 -103.68524 -0.38928115 -124.28815 -0.38119671 -124.77369 -32.088619 -93.430527
34962500000 -24.187449 -121.01366 -0.3923803 -124.94753 -0.37018105 -124.92821 -27.367334 -73.057503
34990000000 -27.695274 -118.13622 -0.37789991 -125.39528 -0.35233149 -125.54305 -30.040089 -86.71476
35017500000 -23.400518 -108.67824 -0.3774097 -125.62504 -0.36539099 -125.71456 -30.438076 -92.816971
35045000000 -26.807781 -116.3794 -0.41105315 -126.01113 -0.38829255 -126.03774 -28.488726 -79.695648
35072500000 -25.492075 -120.37397 -0.37248361 -126.46377 -0.35645014 -126.36045 -28.723259 -83.147118
35100000000 -26.270967 -109.97971 -0.36814317 -127.01211 -0.34384695 -126.99033 -31.909155 -101.59564
35127500000 -24.355223 -104.28518 -0.37658134 -127.11147 -0.39240015 -127.35146 -28.337515 -75.944328
35155000000 -28.078503 -123.51906 -0.39327461 -127.549 -0.39054891 -127.76775 -28.220837 -68.08728
35182500000 -25.379904 -108.09439 -0.36934674 -128.14273 -0.36999616 -128.17809 -29.301682 -91.701599
35210000000 -25.282578 -99.756615 -0.38224417 -128.50134 -0.40513131 -128.42699 -28.857248 -85.595673
35237500000 -25.761269 -132.0779 -0.38648412 -129.04913 -0.36456659 -128.81586 -28.216143 -76.509644
35265000000 -25.474926 -104.84652 -0.34980249 -129.28941 -0.37909093 -129.26402 -30.273966 -94.008377
35292500000 -24.713478 -108.74383 -0.36626115 -129.6873 -0.37991384 -129.60461 -28.805027 -90.641235
35320000000 -27.00733 -115.11726 -0.38162345 -129.86407 -0.38295007 -130.10176 -27.337259 -73.718811
35347500000 -24.930092 -118.01859 -0.39446333 -130.51741 -0.3608357 -130.25883 -29.139606 -88.741074
35375000000 -25.471134 -113.46329 -0.3434169 -130.8261 -0.38793364 -130.70102 -29.867838 -95.866867
35402500000 -26.361204 -104.17228 -0.36912748 -131.1633 -0.36858699 -131.10739 -26.899912 -76.500191
35430000000 -26.483379 -126.49577 -0.41851127 -131.45818 -0.3930085 -131.58548 -28.544062 -81.365349
35457500000 -25.963188 -99.68708 -0.39123464 -132.0338 -0.35859162 -131.91273 -28.638557 -93.03009
35485000000 -24.776436 -107.24465 -0.38004267 -132.03746 -0.36802962 -132.07031 -27.623831 -80.514214
35512500000 -26.580067 -136.34827 -0.40445417 -132.70583 -0.38480654 -132.62688 -27.789011 -78.784416
35540000000 -23.363104 -100.11504 -0.37538451 -133.04463 -0.37781858 -132.98245 -29.388014 -99.808868
35567500000 -27.109127 -103.02789 -0.3776339 -133.37823 -0.37660563 -133.36259 -28.001936 -87.190811
35595000000 -24.327154 -120.91776 -0.38116279 -133.72067 -0.38043317 -133.74658 -27.318012 -76.666344
35622500000 -24.265549 -112.72092 -0.39387149 -134.11238 -0.37222752 -134.09082 -29.221857 -92.419968
35650000000 -25.21706 -96.542267 -0.38597709 -134.53909 -0.37399787 -134.31277 -28.452168 -89.254433
35677500000 -25.576103 -126.83157 -0.36363372 -134.72672 -0.37988985 -134.75362 -26.874086 -73.472572
35705000000 -23.803364 -114.68255 -0.36557853 -135.17191 -0.38228318 -135.30679 -28.949461 -89.520279
35732500000 -25.132732 -96.133224 -0.37687269 -135.64307 -0.36367986 -135.63841 -28.693373 -97.269348
35760000000 -25.480652 -121.70001 -0.41053018 -136.11244 -0.38095593 -136.17914 -27.171888 -81.227547
35787500000 -24.658897 -124.50835 -0.36628425 -136.32005 -0.39029092 -136.54857 -28.095982 -82.653946
35815000000 -23.570169 -100.76879 -0.37300822 -136.84331 -0.38440886 -136.59181 -27.986923 -96.781822
35842500000 -29.220253 -99.647369 -0.42438206 -137.21198 -0.41859365 -137.15424 -27.656237 -80.899391
35870000000 -23.701971 -125.50605 -0.36901164 -137.50804 -0.38805535 -137.69585 -27.209187 -80.447586
35897500000 -25.071699 -102.7617 -0.36510658 -137.88863 -0.39858812 -137.90042 -27.402048 -93.441978
35925000000 -26.579821 -89.359909 -0.37991527 -138.29152 -0.43049487 -138.29082 -28.348101 -77.521324
35952500000 -23.99247 -139.64732 -0.39601421 -138.97906 -0.42273742 -138.71802 -27.760975 -75.662468
35980000000 -24.314659 -96.374199 -0.36041436 -138.90675 -0.36037216 -139.22136 -28.018129 -89.21489
36007500000 -26.02206 -98.458138 -0.37911326 -139.26613 -0.37252197 -139.41022 -28.109615 -82.878479
36035000000 -26.096556 -118.97873 -0.37950844 -139.7317 -0.37654576 -139.86797 -27.437708 -78.18544
36062500000 -23.946053 -115.24458 -0.39609161 -140.26176 -0.37352699 -140.21169 -26.692917 -88.467247
36090000000 -26.261415 -96.982933 -0.38105708 -140.53024 -0.38709816 -140.53447 -27.953753 -89.326447
36117500000 -27.235855 -116.44382 -0.42892137 -141.05907 -0.39358863 -140.85799 -28.560381 -79.2901
36145000000 -23.383284 -118.3307 -0.40874404 -141.54799 -0.38825518 -141.13029 -26.603113 -84.275574
36172500000 -27.194859 -91.891457 -0.41376841 -141.8134 -0.39498496 -141.5253 -27.40596 -91.800568
36200000000 -26.463293 -113.18987 -0.38188574 -142.23827 -0.38316464 -141.80009 -27.035721 -84.118416
36227500000 -23.791655 -128.36694 -0.41790986 -142.82796 -0.40189666 -142.49612 -27.626966 -89.535545
36255000000 -24.270615 -92.395073 -0.38882929 -142.90297 -0.3656005 -142.61543 -26.731033 -87.088745
36282500000 -28.551233 -106.95961 -0.37221906 -143.16206 -0.38511485 -143.09273 -28.185673 -89.907196
36310000000 -23.982243 -127.28592 -0.38069367 -143.7899 -0.40069228 -143.84445 -25.760063 -87.868858
36337500000 -23.314823 -88.696709 -0.37511247 -144.29422 -0.3557741 -144.30829 -25.885227 -86.397507
36365000000 -29.258917 -115.7497 -0.37172949 -144.35883 -0.37071049 -144.49709 -27.052336 -83.607857
36392500000 -26.052109 -123.7665 -0.40316927 -144.88028 -0.37084723 -144.84212 -27.257267 -83.966843
36420000000 -22.356531 -112.2347 -0.37155917 -145.06232 -0.38940629 -145.4554 -27.540543 -89.471756
36447500000 -29.342295 -75.879318 -0.35311535 -145.69487 -0.41124782 -145.54483 -27.781481 -81.951042
36475000000 -24.859377 -129.88237 -0.39826664 -146.05273 -0.39862612 -146.20923 -26.872885 -86.784615
36502500000 -23.803976 -112.92905 -0.36977404 -146.20596 -0.41662723 -146.47951 -25.53471 -83.515411
36530000000 -26.950745 -84.895317 -0.39159554 -146.63637 -0.3971509 -146.85239 -26.474369 -86.984505
36557500000 -27.709578 -139.77536 -0.37465587 -146.96887 -0.36290562 -147.17799 -27.396605 -83.482391
36585000000 -24.094328 -110.95515 -0.39986172 -147.52896 -0.3892149 -147.52646 -25.42799 -91.607445
36612500000 -26.126135 -102.87217 -0.37452435 -147.92244 -0.40510145 -147.95534 -27.368916 -82.82663
36640000000 -32.69239 -137.71771 -0.38989106 -148.21698 -0.38769901 -148.14804 -26.223516 -83.067284
36667500000 -23.271448 -115.73277 -0.35318556 -148.58855 -0.38440886 -148.73891 -25.231531 -92.729477
36695000000 -26.26623 -101.2143 -0.41202986 -148.92838 -0.36205664 -149.12553 -26.175579 -85.265762
36722500000 -33.021214 -113.59509 -0.37794113 -149.28741 -0.37434265 -149.35417 -26.693195 -87.785225
36750000000 -22.66227 -125.61369 -0.39246929 -149.78535 -0.3203243 -149.87054 -24.640953 -94.950775
36777500000 -26.675814 -97.010933 -0.33402097 -150.21819 -0.3645604 -150.10385 -25.585505 -87.184998
36805000000 -29.0835 -97.221504 -0.41559052 -150.52472 -0.38224077 -150.58963 -27.507809 -85.908348
36832500000 -24.757959 -134.40926 -0.36796907 -150.94041 -0.37679222 -151.05994 -26.009232 -91.994751
36860000000 -23.735275 -94.261826 -0.40650094 -151.30086 -0.37740773 -151.2914 -24.946999 -86.595032
36887500000 -34.621067 -130.70868 -0.37369317 -151.88493 -0.34841615 -151.70792 -27.21804 -97.364761
36915000000 -25.031586 -123.48889 -0.37594506 -152.25827 -0.37974745 -151.93939 -27.818377 -96.293228
36942500000 -23.11606 -105.13985 -0.35455602 -153.02776 -0.38887939 -152.75745 -24.801153 -89.884209
36970000000 -30.377541 -104.12148 -0.3799229 -152.85123 -0.34929946 -152.53297 -26.717072 -93.207611
36997500000 -27.490623 -118.3959 -0.36478141 -153.3425 -0.38617033 -153.2561 -27.124128 -83.155617
37025000000 -23.504065 -124.07589 -0.39763653 -153.81905 -0.39080551 -153.69386 -24.316925 -95.769333
37052500000 -27.509804 -75.251488 -0.38261139 -154.24689 -0.35968342 -154.13017 -26.198469 -88.442741
37080000000 -27.644299 -158.73259 -0.37664118 -154.49617 -0.37713215 -154.22792 -26.596174 -85.296707
37107500000 -23.381109 -103.59023 -0.4175747 -155.05182 -0.35639647 -155.22476 -24.423271 -93.739265
37135000000 -27.100954 -86.64743 -0.37567326 -155.44391 -0.39957622 -155.40236 -25.955526 -88.144485
37162500000 -28.060854 -144.81905 -0.37677699 -155.58376 -0.40427065 -155.69937 -28.007093 -82.020874
37190000000 -23.418463 -101.98705 -0.40210679 -156.27412 -0.42128652 -155.97261 -24.835867 -95.478539
37217500000 -25.008636 -102.30312 -0.40198016 -156.59114 -0.41064912 -156.47115 -25.646246 -90.221375
37245000000 -33.688129 -118.57982 -0.3704049 -156.90213 -0.40894455 -156.68753 -28.675789 -93.306976
37272500000 -23.306377 -108.646 -0.39550126 -157.27118 -0.37914065 -157.12395 -24.883041 -94.135269
37300000000 -28.559036 -88.577736 -0.36483771 -157.74023 -0.36186561 -157.5542 -25.114122 -95.449432
37327500000 -27.469637 -116.93902 -0.40768018 -157.73752 -0.3757486 -157.63068 -27.355379 -83.803436
37355000000 -28.563011 -121.86462 -0.39822239 -158.38458 -0.38670653 -158.18909 -26.088858 -88.474457
37382500000 -23.791649 -94.622108 -0.37752718 -158.77434 -0.40056199 -158.96028 -23.305166 -95.262245
37410000000 -31.825771 -125.55202 -0.40299147 -158.97775 -0.40319002 -158.82806 -26.641666 -92.416145
37437500000 -26.567497 -128.06998 -0.40174192 -159.27168 -0.38941509 -159.5224 -25.817272 -84.618103
37465000000 -23.982491 -96.247421 -0.38934854 -160.07614 -0.40316585 -159.91562 -23.631361 -86.87146
37492500000 -29.381067 -109.90839 -0.38246635 -160.46405 -0.40901792 -160.2984 -27.294638 -89.326347
37520000000 -27.854652 -122.51332 -0.42724419 -160.58531 -0.3975035 -160.56474 -26.517469 -83.390877
37547500000 -23.570282 -95.937431 -0.40693444 -161.13857 -0.41300508 -161.07092 -24.311569 -96.927719
37575000000 -28.998545 -102.19992 -0.40155053 -161.26205 -0.37905139 -161.46724 -25.331909 -85.379173
37602500000 -27.713326 -118.33397 -0.40081209 -161.68744 -0.41898134 -161.56464 -27.760977 -85.891785
37630000000 -25.43651 -89.516426 -0.40295199 -162.23714 -0.39734209 -162.1362 -23.991182 -96.409431
37657500000 -27.093073 -98.994728 -0.39537394 -162.57922 -0.40567183 -162.36702 -24.200541 -90.190521
37685000000 -26.883207 -121.21233 -0.40389222 -162.57063 -0.34268209 -163.09299 -26.829535 -91.934639
37712500000 -24.928738 -93.883987 -0.42207953 -163.20256 -0.3797774 -163.15147 -25.083906 -92.777931
37740000000 -24.447462 -89.716759 -0.41423538 -163.65465 -0.46254626 -163.39211 -24.24765 -89.454651
37767500000 -28.028969 -126.38129 -0.39524493 -163.9709 -0.39648581 -163.83563 -25.415901 -89.596428
37795000000 -25.447355 -105.67059 -0.40062869 -164.22452 -0.39096668 -164.13155 -25.258362 -89.049507
37822500000 -26.108322 -77.804054 -0.4287225 -164.94925 -0.40504974 -164.74547 -23.201729 -94.123817
37850000000 -25.764708 -121.46156 -0.40918657 -164.9639 -0.43084306 -164.9576 -26.000031 -93.853027
37877500000 -26.287958 -94.943626 -0.38322347 -165.47476 -0.42571893 -165.49707 -25.64842 -93.197182
37905000000 -24.874077 -84.78067 -0.3789514 -165.80727 -0.41441166 -166.0168 -23.897211 -95.952499
37932500000 -27.313047 -111.00323 -0.40616181 -166.11217 -0.39825389 -166.11278 -24.017767 -95.243698
37960000000 -23.698984 -107.48895 -0.40446013 -166.55144 -0.37463582 -166.66145 -27.764372 -92.130432
37987500000 -27.219893 -68.07048 -0.42967406 -166.90282 -0.39621356 -167.28664 -23.6255 -98.469627
38015000000 -24.299976 -100.81776 -0.41341847 -167.15562 -0.40491989 -167.32121 -24.866207 -95.278908
38042500000 -27.218449 -113.3456 -0.36855879 -167.76637 -0.40525633 -167.80037 -25.230438 -101.84296
38070000000 -25.316101 -77.214867 -0.43262058 -168.3472 -0.42436409 -168.01616 -23.592909 -96.502327
38097500000 -25.959709 -92.754219 -0.40344366 -168.39828 -0.37901127 -168.51378 -23.45282 -98.70507
38125000000 -26.411953 -120.40207 -0.36901054 -168.82072 -0.38699517 -168.83018 -24.872702 -99.301361
38152500000 -24.25082 -84.327919 -0.40474713 -169.26891 -0.3698166 -169.13988 -25.201242 -97.564957
38180000000 -25.96961 -85.925255 -0.40152043 -169.44023 -0.40085581 -169.76367 -24.074825 -96.417465
38207500000 -26.123373 -116.06886 -0.39200604 -169.87419 -0.39291728 -169.96452 -24.967106 -99.76297
38235000000 -24.053343 -94.627861 -0.38549221 -170.40115 -0.37592643 -170.24294 -25.438032 -96.976021
38262500000 -27.74572 -70.52095 -0.4174664 -170.715 -0.37307677 -170.90433 -23.649569 -102.42116
38290000000 -23.905476 -114.54124 -0.38049814 -170.94975 -0.38904107 -171.2253 -24.569426 -101.62514
38317500000 -25.668848 -101.11114 -0.40337351 -171.50136 -0.39484462 -171.48619 -25.212259 -96.708366
38345000000 -25.502485 -70.764313 -0.38887572 -171.70361 -0.4028466 -172.04819 -24.717712 -99.68264
38372500000 -26.634892 -118.31688 -0.38921434 -172.27383 -0.36439261 -172.49329 -24.273731 -98.743729
38400000000 -24.471872 -100.01487 -0.38876843 -172.5106 -0.39803654 -172.68683 -24.425293 -99.838577
38427500000 -27.812792 -81.353043 -0.37829953 -173.05984 -0.37982655 -173.04558 -24.557806 -99.432457
38455000000 -25.901369 -97.221886 -0.37458476 -173.37204 -0.38542601 -173.6138 -23.673475 -104.57002
38482500000 -23.877331 -110.47527 -0.3987053 -173.86172 -0.35475716 -173.81024 -24.456224 -98.901695
38510000000 -26.392603 -82.314697 -0.40897271 -174.16113 -0.37030962 -174.3371 -25.361025 -100.89657
38537500000 -26.230219 -94.314812 -0.35547012 -174.66679 -0.40285426 -174.81416 -23.723921 -102.34692
38565000000 -24.002125 -110.82556 -0.35513523 -174.83969 -0.36607781 -174.89299 -23.849558 -106.12299
38592500000 -25.759752 -84.524353 -0.38489705 -175.54439 -0.38882816 -175.73711 -24.797651 -100.53512
38620000000 -26.729548 -100.11601 -0.38515869 -175.89993 -0.34816849 -175.82231 -24.883518 -105.77592
38647500000 -24.801725 -91.336174 -0.38838995 -176.16359 -0.39424732 -176.55339 -24.377888 -108.46145
38675000000 -24.029427 -106.60822 -0.34715274 -176.33571 -0.38671446 -176.57581 -25.624371 -99.076164
38702500000 -26.601536 -88.140495 -0.34048012 -176.79091 -0.37342092 -177.04074 -24.282658 -102.57983
38730000000 -24.194151 -99.257584 -0.38884202 -177.41275 -0.37090191 -177.34776 -24.567278 -113.17895
38757500000 -24.557529 -102.85626 -0.3537876 -177.63573 -0.42047396 -177.5585 -24.807732 -103.92364
38785000000 -28.720835 -91.419518 -0.36253133 -178.10133 -0.37267736 -177.88533 -24.696718 -100.40756
38812500000 -25.068882 -104.30835 -0.33085087 -178.42119 -0.37843847 -178.4501 -23.890955 -108.47028
38840000000 -23.336973 -97.078384 -0.38892299 -178.87891 -0.36081797 -178.80544 -24.065102 -106.80418
38867500000 -26.319321 -102.67657 -0.37837803 -179.05498 -0.3312903 -179.08766 -24.600706 -95.395164
38895000000 -26.589584 -100.48531 -0.37362039 -179.27037 -0.42445683 -179.85381 -24.04228 -101.90057
38922500000 -23.13471 -101.52637 -0.39002982 179.90434 -0.3497203 -179.94128 -23.37748 -110.23772
38950000000 -25.679674 -94.346054 -0.34869355 179.5726 -0.36601052 179.56895 -25.467033 -95.935234
38977500000 -26.69199 -82.098137 -0.36534902 179.26204 -0.34935081 179.42715 -24.427319 -102.53721
39005000000 -23.704271 -92.219299 -0.37060928 179.04024 -0.35551393 178.72374 -22.873543 -112.68666
39032500000 -25.040203 -94.492188 -0.40021399 178.80093 -0.402852 178.38727 -23.840462 -96.5578
39060000000 -27.772675 -100.17054 -0.41541421 178.07727 -0.33892405 177.86827 -24.152958 -111.70103
39087500000 -24.457239 -97.573036 -0.32092071 177.41069 -0.44645944 177.50877 -23.540993 -110.77379
39115000000 -24.091909 -89.278183 -0.38567013 177.62187 -0.39636046 177.51347 -23.579935 -107.51738
39142500000 -26.763649 -100.48697 -0.40226156 177.08099 -0.38558754 176.73082 -25.235769 -100.27711
39170000000 -25.483582 -93.964783 -0.37374902 176.52548 -0.35221779 176.48907 -24.341688 -115.28326
39197500000 -23.672577 -94.651993 -0.40935242 176.19116 -0.35704759 176.1434 -23.629093 -109.65126
39225000000 -27.322184 -93.719849 -0.40578836 176.03999 -0.38172889 175.83099 -25.317959 -109.26089
39252500000 -26.147846 -94.347572 -0.38337192 175.12396 -0.37712565 175.28589 -24.216776 -117.42038
39280000000 -23.235836 -91.297546 -0.35871476 175.04836 -0.38190696 174.64215 -23.8598 -102.50368
39307500000 -26.239801 -86.515556 -0.40647221 174.636 -0.36483574 174.56404 -24.330124 -102.23069
39335000000 -28.186277 -111.16351 -0.34988359 174.04301 -0.40374222 174.10185 -24.326086 -114.94668
39362500000 -22.398903 -79.458832 -0.37138039 173.46704 -0.35235226 174.05811 -22.765171 -113.51699
39390000000 -27.119902 -90.606987 -0.42234626 173.40515 -0.38932475 173.4122 -24.790651 -105.65322
39417500000 -25.785795 -94.91275 -0.36378402 173.17923 -0.40735805 172.94614 -24.699688 -106.87882
39445000000 -24.918171 -97.310287 -0.38109073 172.44707 -0.35669827 172.3494 -23.052111 -115.66983
39472500000 -24.672754 -87.472458 -0.39270815 172.26176 -0.36235914 172.26547 -22.793249 -98.573059
39500000000 -27.645235 -95.596771 -0.38218254 171.93875 -0.38586363 171.70988 -25.807716 -114.96331
39527500000 -24.027107 -96.166687 -0.41593549 171.4044 -0.36586547 171.24377 -23.193855 -118.03254
39555000000 -24.015648 -79.557205 -0.33609211 171.04903 -0.39848456 171.09111 -23.758482 -100.51378
39582500000 -27.61808 -106.2261 -0.3879993 170.47701 -0.43833467 170.80019 -25.115322 -100.87748
39610000000 -26.978828 -97.058594 -0.37381899 170.49191 -0.39430147 170.46796 -24.030579 -120.45518
39637500000 -22.134632 -89.765289 -0.35489845 169.55347 -0.37025547 169.90959 -23.198502 -109.4146
39665000000 -28.123659 -57.47295 -0.37698421 169.42526 -0.38301367 169.51872 -23.872162 -106.86416
39692500000 -25.16317 -115.0846 -0.41142595 169.03229 -0.41937476 169.10831 -24.229263 -113.61675
39720000000 -21.210045 -81.094131 -0.38542715 168.51317 -0.42440203 168.53961 -23.869909 -117.15758
39747500000 -27.362041 -76.626122 -0.39230892 168.33383 -0.41217703 168.33635 -25.132219 -99.686531
39775000000 -24.343004 -121.50104 -0.40036952 167.85686 -0.40561754 167.95964 -25.027742 -114.53843
39802500000 -23.091297 -74.734634 -0.365233 167.49867 -0.3989414 167.64754 -23.553364 -117.36567
39830000000 -26.252151 -62.471157 -0.40125611 167.36969 -0.42642081 167.22005 -24.912411 -109.75708
39857500000 -27.01494 -125.01801 -0.37927088 166.88779 -0.44542217 166.96352 -24.324389 -107.29027
39885000000 -24.107149 -79.062836 -0.4016133 166.51624 -0.41492146 166.40691 -23.332525 -118.42735
39912500000 -24.506142 -80.877647 -0.35908562 166.25899 -0.39815289 166.22343 -25.073551 -99.514084
39940000000 -28.605938 -121.96716 -0.42622977 165.49644 -0.40323347 165.83633 -24.586674 -103.56291
39967500000 -23.046114 -87.480865 -0.42019364 165.43776 -0.41414002 165.20128 -23.337675 -119.27117
39995000000 -23.97414 -78.841682 -0.40394476 165.06386 -0.4172484 164.73753 -23.96468 -116.46485
40022500000 -27.982813 -84.72966 -0.38926134 164.7796 -0.41349706 164.50578 -24.911053 -102.65804
40050000000 -22.279526 -115.87114 -0.43104944 164.02342 -0.4765338 164.08846 -23.011389 -123.40797
40077500000 -22.310411 -49.218582 -0.38218847 163.93881 -0.39893371 163.83195 -23.390659 -112.57619
40105000000 -26.606022 -115.61806 -0.40152895 163.66461 -0.37204251 163.68651 -24.982704 -97.24054
40132500000 -24.70542 -104.41402 -0.42650449 162.94904 -0.39342397 163.05949 -23.504356 -117.00192
40160000000 -22.441038 -67.545929 -0.39357784 162.64122 -0.42680034 162.48389 -22.30798 -121.21275
40187500000 -28.571659 -92.782715 -0.40750477 162.52496 -0.37806427 162.27084 -25.092176 -102.99349
40215000000 -24.200914 -118.85212 -0.46127513 161.73978 -0.46079874 161.81958 -23.221451 -109.77161
40242500000 -21.178972 -76.093521 -0.38755578 161.32776 -0.3974652 161.33513 -22.616119 -121.0979
40270000000 -31.927296 -60.694065 -0.32502499 161.14899 -0.39307198 161.28609 -23.868587 -104.10336
40297500000 -21.188805 -109.71322 -0.41445553 160.75652 -0.4171555 160.51561 -24.3473 -106.77307
40325000000 -24.990944 -74.518768 -0.39605334 160.42548 -0.3780095 160.19356 -21.969913 -123.04172
40352500000 -24.331135 -70.793617 -0.4384827 160.20934 -0.41602096 160.26997 -23.242624 -111.69605
40380000000 -24.920647 -110.94163 -0.39054185 159.58168 -0.4293617 159.62459 -24.045971 -108.18008
40407500000 -23.039042 -84.975235 -0.43892345 159.36536 -0.39828622 159.11784 -22.263243 -127.98106
40435000000 -22.987852 -60.379612 -0.38648835 158.95151 -0.4126339 158.99005 -23.996946 -122.7617
40462500000 -25.092979 -122.80026 -0.39080581 158.25861 -0.40634999 158.72218 -24.767569 -110.35139
40490000000 -20.815048 -79.181496 -0.41269052 157.92627 -0.34345582 158.02817 -23.359983 -119.97054
40517500000 -26.934427 -76.191788 -0.42204928 157.83221 -0.38036281 157.51048 -24.010929 -123.51903
40545000000 -25.411238 -93.126274 -0.42507657 157.26576 -0.40521172 157.6461 -24.22987 -108.96436
40572500000 -21.779676 -97.675362 -0.44631428 156.65428 -0.40783259 156.9828 -22.986443 -122.51649
40600000000 -25.423178 -70.590645 -0.41142195 156.67961 -0.4180806 156.87869 -24.273726 -125.60532
40627500000 -23.634848 -91.486946 -0.41900471 156.46521 -0.38731948 156.28746 -24.794346 -114.95313
40655000000 -22.325359 -102.81623 -0.41841465 155.94463 -0.38818866 155.71651 -24.380709 -120.618
40682500000 -24.606573 -63.505329 -0.39902169 155.3024 -0.3702831 155.49706 -22.891689 -127.86865
40710000000 -22.541138 -101.96355 -0.39525345 155.44414 -0.42224157 155.22169 -24.832203 -111.51375
40737500000 -24.137793 -93.307587 -0.40288922 154.88182 -0.3644855 154.68129 -24.273781 -117.03156
40765000000 -21.723713 -89.367538 -0.41923791 154.2626 -0.41118151 154.07985 -23.366306 -124.98637
40792500000 -27.961908 -65.45195 -0.40187708 154.08241 -0.39501727 154.07292 -24.499315 -123.03506
40820000000 -20.85935 -106.99744 -0.43047175 153.46664 -0.39597449 153.23175 -23.470152 -114.4924
40847500000 -21.821501 -71.772087 -0.36475551 153.38222 -0.3479239 153.01643 -23.147505 -124.8224
40875000000 -28.132727 -79.829239 -0.29092523 153.01312 -0.38350311 152.81313 -23.754976 -122.00996
40902500000 -20.675524 -90.341713 -0.41130984 152.22157 -0.39104712 152.51236 -24.832842 -117.96899
40930000000 -24.19054 -101.10999 -0.41065934 152.35262 -0.36673883 152.21877 -23.834549 -125.82806
40957500000 -24.277292 -68.112381 -0.39115676 151.46492 -0.3789531 151.67686 -24.285334 -128.04288
40985000000 -22.982422 -115.74796 -0.39256957 151.52139 -0.36806965 151.31844 -24.246548 -121.86097
41012500000 -21.346455 -80.42907 -0.38854054 151.04573 -0.36178881 150.84756 -23.219788 -116.90839
41040000000 -27.612097 -109.68998 -0.43809214 150.76965 -0.41525725 150.61281 -23.865219 -130.90053
41067500000 -24.286808 -88.827423 -0.40843147 149.96417 -0.40316984 150.27434 -23.937424 -117.59422
41095000000 -21.169052 -95.731163 -0.39443982 149.5649 -0.39076105 149.92583 -23.836851 -119.62308
41122500000 -26.453705 -85.521629 -0.36093161 149.48148 -0.36885467 149.38622 -24.042898 -130.65164
41150000000 -23.721586 -92.884392 -0.38326418 148.87704 -0.3547782 149.04359 -26.198652 -125.35712
41177500000 -20.664135 -89.359879 -0.4026086 148.42575 -0.40460476 148.22733 -22.881861 -123.95345
41205000000 -27.074329 -98.294395 -0.37022194 148.26149 -0.36671123 148.24275 -23.184504 -129.76976
41232500000 -22.158485 -93.890373 -0.36058593 147.66451 -0.35421365 147.70062 -24.29744 -131.56032
41260000000 -22.992424 -92.142128 -0.402877 147.34866 -0.39136666 147.37708 -24.918156 -116.47131
41287500000 -23.018147 -96.363037 -0.38410005 147.1812 -0.39271125 147.05322 -23.666136 -122.63644
41315000000 -25.635111 -108.82945 -0.37272081 146.90018 -0.39630401 146.68231 -24.984798 -130.97389
41342500000 -22.404154 -85.453033 -0.39719063 146.10957 -0.39435306 146.19746 -25.070053 -125.65905
41370000000 -21.831266 -99.096451 -0.40784085 145.71367 -0.41216052 145.91956 -22.951368 -125.54764
41397500000 -28.504375 -94.766243 -0.33016232 145.16704 -0.38018084 145.5679 -24.104183 -133.30881
41425000000 -21.109217 -85.182625 -0.39019436 144.99536 -0.35795489 145.07686 -25.549795 -120.43114
41452500000 -23.627254 -92.022209 -0.30784369 144.64513 -0.33869931 144.66254 -23.428295 -124.56063
41480000000 -24.063389 -103.65673 -0.44577643 144.47844 -0.43022677 144.18921 -24.58448 -144.16917
41507500000 -23.725092 -92.734467 -0.39414075 143.86073 -0.35120392 144.09241 -25.771961 -128.40076
41535000000 -22.449968 -85.634613 -0.36277223 143.36102 -0.38621703 143.43628 -24.177521 -120.14922
41562500000 -23.840425 -102.21136 -0.36540505 143.31462 -0.37815127 143.48364 -23.844509 -132.9888
41590000000 -23.069799 -89.615143 -0.42650819 142.73889 -0.37643906 142.6431 -25.927212 -136.46579
41617500000 -22.348534 -79.96991 -0.37678742 141.85858 -0.38778588 142.37463 -24.884926 -110.22205
41645000000 -21.245396 -100.4928 -0.40125611 141.93672 -0.41196954 142.0152 -22.445244 -129.28531
41672500000 -25.396959 -81.305183 -0.36726081 141.56 -0.39372352 141.54858 -25.427191 -138.14522
41700000000 -22.232458 -102.42618 -0.38490891 140.97435 -0.43322375 141.01463 -24.192638 -115.53354
41727500000 -22.736229 -103.02504 -0.45246726 140.68095 -0.37264156 140.4845 -23.013554 -124.59618
41755000000 -23.660852 -93.097923 -0.44385043 140.67888 -0.38791439 140.45148 -24.144716 -133.91846
41782500000 -25.111134 -98.258812 -0.36638394 140.26306 -0.37898868 140.31134 -27.183624 -118.40347
41810000000 -22.210617 -84.120094 -0.411167 139.49576 -0.36463866 139.23883 -23.413074 -130.16837
41837500000 -20.92886 -111.68384 -0.37677613 139.06926 -0.36362696 139.37558 -24.288029 -133.28967
41865000000 -23.832819 -82.514877 -0.36035922 138.57758 -0.43059379 138.76102 -26.722984 -136.5554
41892500000 -21.874617 -92.254028 -0.37682864 138.36568 -0.37656045 138.41269 -22.617867 -115.60233
41920000000 -21.950279 -96.60202 -0.40595007 138.0578 -0.45162302 138.14091 -23.976793 -135.82802
41947500000 -24.916527 -79.17231 -0.3395384 137.88687 -0.43426153 137.5096 -26.352247 -137.9753
41975000000 -21.49847 -103.55292 -0.44645083 137.39001 -0.41742679 137.40749 -25.557631 -125.24866
42002500000 -21.842026 -86.749008 -0.41863528 137.12457 -0.38104326 136.73851 -23.537413 -129.03743
42030000000 -23.788502 -106.30354 -0.40912372 136.81845 -0.41011736 136.39592 -24.715687 -135.82458
42057500000 -23.273228 -87.132523 -0.39651361 136.29436 -0.36704981 136.03781 -25.031927 -122.32791
42085000000 -19.942339 -95.881927 -0.41906345 135.97324 -0.39034078 135.48106 -22.874151 -125.98158
42112500000 -24.73061 -87.606941 -0.36319914 135.43193 -0.33956918 135.33809 -26.036594 -134.83057
42140000000 -23.778221 -98.123848 -0.39829701 134.94337 -0.37227687 135.1344 -26.51099 -131.17908
42167500000 -20.739441 -98.124939 -0.39325902 134.41901 -0.46897548 134.70352 -23.516954 -126.23179
42195000000 -22.989246 -82.550224 -0.400958 134.5334 -0.34516573 134.57053 -25.577929 -143.61389
42222500000 -25.245924 -104.76691 -0.3476519 133.53986 -0.45871273 133.54547 -27.789045 -128.89838
42250000000 -20.310688 -89.834335 -0.40705442 133.5889 -0.3988767 133.29259 -24.89571 -111.10975
42277500000 -22.836391 -84.114044 -0.4077476 133.43457 -0.39710382 133.27988 -23.971718 -144.50301
42305000000 -26.295975 -114.48977 -0.40031075 132.83473 -0.42525756 132.4731 -29.418324 -134.8819
42332500000 -19.717644 -87.420776 -0.40863398 132.72037 -0.32190409 132.56096 -26.07234 -115.35845
42360000000 -23.263298 -84.593651 -0.40153775 131.59859 -0.45356914 132.08426 -23.79081 -134.51242
42387500000 -25.478504 -90.811729 -0.41500548 131.39732 -0.39602894 131.62285 -27.767326 -137.61797
42415000000 -20.893084 -104.49012 -0.38438907 131.0992 -0.43737665 131.03938 -25.986935 -113.40278
42442500000 -21.224012 -72.540848 -0.46758831 130.55498 -0.43603417 131.00739 -23.307236 -131.32497
42470000000 -23.516542 -104.85944 -0.3913134 130.61353 -0.37774575 130.33186 -26.47011 -133.62726
42497500000 -22.265852 -102.64916 -0.45598418 130.10089 -0.39489564 130.32799 -27.887791 -114.54009
42525000000 -20.099743 -83.007614 -0.36196268 129.60988 -0.36521021 129.75836 -23.471794 -123.07796
42552500000 -24.803709 -97.21196 -0.47876221 128.992 -0.38487723 129.44241 -24.365274 -138.23225
42580000000 -23.914852 -114.82635 -0.45324215 129.10492 -0.39339137 128.85616 -27.333691 -128.38235
42607500000 -20.38204 -79.398949 -0.45528615 128.53079 -0.38484189 128.46948 -25.913107 -130.76848
42635000000 -25.261976 -106.86091 -0.46717119 128.05609 -0.4368602 128.17966 -23.73181 -139.76939
42662500000 -21.723566 -106.42638 -0.37818852 128.22081 -0.43286225 127.6306 -26.172304 -140.51903
42690000000 -20.463503 -86.66304 -0.38687292 127.14458 -0.41439915 127.30877 -25.701311 -132.11787
42717500000 -22.35976 -71.308228 -0.40928927 127.00547 -0.43383643 127.14355 -24.132853 -131.24979
42745000000 -21.82362 -122.98299 -0.43633384 126.65664 -0.41931659 126.58846 -27.301678 -133.7881
42772500000 -21.164175 -87.164841 -0.42252657 126.397 -0.41038308 126.35696 -27.704403 -122.52479
42800000000 -22.337463 -83.092194 -0.43180248 125.86666 -0.4003244 125.99934 -24.014296 -126.3883
42827500000 -23.345716 -126.1403 -0.43229488 125.21619 -0.4589262 125.9295 -27.344187 -143.12463
42855000000 -21.012518 -90.535431 -0.46622524 125.20744 -0.43941176 125.2254 -27.664715 -144.25894
42882500000 -22.640619 -78.327606 -0.36583927 124.68018 -0.37900251 124.70076 -25.070801 -127.74046
42910000000 -24.590349 -117.73144 -0.43305728 124.41136 -0.40889108 124.51214 -26.23052 -122.41058
42937500000 -19.659491 -105.77751 -0.38226339 124.01877 -0.4364672 124.12656 -28.19421 -154.92389
42965000000 -21.696291 -67.552788 -0.41809112 123.36753 -0.40252313 123.26429 -25.471619 -120.88374
42992500000 -23.708954 -114.93078 -0.41602495 123.09553 -0.47141671 123.20512 -24.787008 -134.52214
43020000000 -19.696058 -106.61667 -0.40601543 123.09015 -0.45423701 122.44132 -28.515963 -131.44441
43047500000 -22.638113 -68.887199 -0.43581122 122.15395 -0.46637365 122.65755 -25.544237 -127.99305
43075000000 -23.020617 -120.1327 -0.36805752 121.87901 -0.45832923 121.96828 -22.756252 -138.81952
43102500000 -21.942886 -115.42424 -0.51122761 121.66464 -0.41607708 121.67995 -30.028852 -140.99155
43130000000 -20.855526 -72.592499 -0.47203249 121.0053 -0.36387804 121.13526 -26.836401 -128.33133
43157500000 -22.747025 -112.69903 -0.41110608 120.77056 -0.41100422 120.70713 -24.132198 -135.22044
43185000000 -21.266716 -102.4246 -0.46428207 120.67778 -0.44028944 120.67158 -30.305212 -133.71275
43212500000 -19.430889 -95.226318 -0.458276 120.33801 -0.43954039 119.71565 -27.242884 -133.39896
43240000000 -26.945656 -75.160904 -0.42669725 119.31584 -0.47565022 119.36551 -23.929605 -139.54118
43267500000 -18.893332 -114.00633 -0.41966614 119.24151 -0.45094004 119.01131 -29.985025 -142.53265
43295000000 -21.884758 -103.37946 -0.47360641 118.85709 -0.44653374 119.12695 -29.691874 -135.05389
43322500000 -21.628649 -70.703117 -0.39272231 118.36781 -0.43609399 118.74736 -24.860512 -137.28439
43350000000 -21.879599 -126.38836 -0.49259806 117.75525 -0.34959432 117.8922 -27.202608 -139.12126
43377500000 -19.39226 -90.034843 -0.41157848 117.97032 -0.42357808 117.53547 -28.122009 -136.56119
43405000000 -22.776758 -81.597572 -0.38374487 117.39254 -0.44631428 117.83019 -24.763678 -134.75612
43432500000 -22.562176 -119.56039 -0.42405069 117.09644 -0.48463058 117.09309 -26.43549 -144.4852
43460000000 -17.863073 -99.247124 -0.448091 116.33978 -0.40268159 117.10336 -30.454966 -140.51155
43487500000 -25.228952 -79.766846 -0.41187504 115.6295 -0.3789463 116.10017 -25.434675 -134.77261
43515000000 -23.443098 -97.625084 -0.43337619 115.88069 -0.41114393 115.74965 -25.775843 -134.12546
43542500000 -18.732744 -110.88546 -0.43319571 115.22897 -0.39911902 115.45039 -29.664108 -145.54968
43570000000 -23.841003 -81.301231 -0.46556905 115.04776 -0.33715367 115.33218 -28.102486 -127.94667
43597500000 -21.908659 -100.48733 -0.42832825 114.86074 -0.41782892 114.58211 -25.128 -137.77747
43625000000 -19.424679 -111.91409 -0.42731473 114.36404 -0.48028365 114.25912 -31.717762 -147.02718
43652500000 -21.030754 -85.418808 -0.42829108 113.77454 -0.33194828 114.16777 -27.801559 -112.68355
43680000000 -23.702078 -95.508804 -0.4296329 113.91127 -0.44837224 113.55701 -24.041872 -143.81873
43707500000 -20.656471 -114.01111 -0.42761064 113.30855 -0.46180195 112.52844 -28.665659 -140.50824
43735000000 -18.582682 -102.04505 -0.44146132 112.65926 -0.387806 112.72874 -27.433344 -135.94533
43762500000 -26.647167 -51.175007 -0.40198895 111.93021 -0.42118612 112.71753 -27.272251 -126.33525
43790000000 -19.264723 -117.37295 -0.39903277 111.68165 -0.44252744 112.07245 -26.640726 -152.61499
43817500000 -19.646526 -97.437981 -0.38740635 111.77693 -0.39893344 111.6578 -29.606947 -132.82346
43845000000 -25.538513 -92.140289 -0.40620673 111.42573 -0.31925124 111.04177 -25.699734 -129.61046
43872500000 -21.639187 -112.41087 -0.50508797 110.97091 -0.44386303 110.9866 -26.705389 -157.17638
43900000000 -19.999018 -101.93549 -0.4679141 110.18661 -0.39195618 110.65608 -30.527649 -145.29576
43927500000 -23.348536 -94.713181 -0.44885358 110.00352 -0.39169243 110.21984 -26.472799 -132.85982
43955000000 -23.864841 -111.78977 -0.38574851 109.82504 -0.43246701 109.79943 -26.677595 -144.92256
43982500000 -19.35111 -100.04046 -0.44850972 109.20191 -0.44882804 109.25227 -31.454588 -145.36401
44010000000 -21.685947 -110.54779 -0.37595749 108.60226 -0.42884707 109.18492 -26.701546 -125.55499
44037500000 -26.639767 -98.658195 -0.39230749 108.37617 -0.44547525 108.156 -25.090904 -147.39771
44065000000 -18.793074 -109.64308 -0.39407414 108.63684 -0.49650255 108.11437 -31.084223 -169.01102
44092500000 -22.489801 -102.05488 -0.48080412 107.97791 -0.39334404 108.17309 -30.843855 -129.67763
44120000000 -26.89341 -92.372734 -0.45346829 107.67605 -0.3904362 107.10969 -25.10861 -145.76245
44147500000 -20.056175 -116.15643 -0.41503453 107.43685 -0.524221 107.04189 -29.022419 -176.37465
44175000000 -20.555021 -92.164352 -0.42149472 106.25462 -0.45648161 106.27645 -30.934595 -125.24224
44202500000 -26.205267 -102.44389 -0.47421759 106.29079 -0.37325704 106.1662 -25.57395 -125.03172
44230000000 -19.783161 -100.11472 -0.47686026 105.76041 -0.46682096 106.29333 -28.377438 -143.62297
44257500000 -19.965155 -96.116127 -0.42353499 105.58463 -0.48200461 105.28268 -37.852062 -129.31093
44285000000 -24.889977 -105.60402 -0.37985367 105.24975 -0.43199608 105.53974 -26.727957 -108.81509
44312500000 -22.283449 -89.073212 -0.44808954 104.45963 -0.36689207 104.80005 -27.206999 -144.45869
44340000000 -18.059563 -106.20559 -0.42081279 104.45193 -0.45654604 104.39346 -31.25531 -143.41591
44367500000 -28.749882 -92.938637 -0.41689306 103.72496 -0.39460847 104.09538 -31.770971 -93.670372
44395000000 -21.519756 -117.31571 -0.44806573 103.51808 -0.44296199 103.50481 -26.118698 -144.17604
44422500000 -18.787394 -99.304726 -0.45972553 102.87955 -0.431725 103.30322 -31.939926 -153.31557
44450000000 -26.377525 -99.306519 -0.42296711 103.04725 -0.39152274 102.66928 -31.216887 -117.5144
44477500000 -22.830965 -111.59534 -0.41580445 102.77967 -0.38302696 102.46665 -25.762947 -122.9052
44505000000 -20.461824 -99.228294 -0.41231963 102.26862 -0.46395341 101.94393 -29.22887 -179.07323
44532500000 -21.847475 -101.57034 -0.46832496 101.10108 -0.46660191 101.64095 -30.497782 -123.48585
44560000000 -22.609941 -131.25922 -0.44394216 101.45498 -0.39418724 101.4941 -26.078304 -138.41122
44587500000 -19.153084 -96.288124 -0.41276968 101.07162 -0.46384713 100.49503 -27.861465 -155.41344
44615000000 -20.988762 -101.10115 -0.43644431 101.09637 -0.46621141 100.93945 -34.07378 -100.14021
44642500000 -24.710251 -114.01051 -0.36569566 100.4755 -0.40230048 99.960327 -27.665096 -111.65311
44670000000 -19.848675 -104.07158 -0.41147918 99.640266 -0.44426817 99.777969 -31.675861 -158.45233
44697500000 -19.952517 -94.521729 -0.41774315 99.249588 -0.42224357 99.390633 -32.751472 -121.34442
44725000000 -23.678625 -116.20808 -0.38776806 99.057838 -0.42469546 99.056992 -29.52018 -99.094482
44752500000 -20.609818 -107.90572 -0.45610237 98.739952 -0.45116836 98.915733 -29.806242 -150.5137
44780000000 -23.075745 -86.5923 -0.40552774 98.193405 -0.52066708 98.04451 -34.170006 -176.1235
44807500000 -20.795843 -116.77393 -0.49580002 98.429558 -0.40432462 98.286278 -31.520666 -90.641678
44835000000 -24.643917 -120.47195 -0.43652961 97.974403 -0.47913739 97.644684 -27.021837 -140.11325
44862500000 -20.150131 -95.506805 -0.47218892 96.926903 -0.47305679 97.027771 -30.437017 179.09323
44890000000 -22.485365 -120.58276 -0.43303126 96.769524 -0.37729958 96.811447 -32.740574 -90.406242
44917500000 -22.736462 -116.90073 -0.46828371 96.191376 -0.40605181 96.480492 -27.478466 -125.66854
44945000000 -20.134851 -97.218712 -0.44412681 96.243828 -0.42749867 95.739975 -29.510567 -154.68059
44972500000 -21.594824 -103.03099 -0.44468656 95.713814 -0.45141593 95.776207 -30.809731 -91.557373
45000000000 -23.272423 -123.27214 -0.41462156 95.170647 -0.43150428 95.372231 -27.630243 -117.89793
