! Quiescent point : V1=-1.55280E-02 I1=+1.25123E-03 V2=-2.17641E-02 I2=-1.24173E-03
! Pulsed point : V1=-1.61527E-02 I1=+1.28892E-03 V2=-2.23304E-02 I2=-1.25758E-03
! Period : +2.00000E-04
! Input Supply timing : delay=+1.60000E-06 width=+2.20000E-06
! Output Supply timing : delay=+1.70000E-06 width=+2.00000E-06
! VNA timing : delay=+2.40000E-06 width=+1.10000E-06
# Hz S RI R 50
+2.70000E+10 -9.31718E-03 -8.68203E-02 -1.01192E+00 +4.29386E-02 -9.57570E-01 +3.61207E-03 -5.00773E-02 -9.28866E-02
+2.71000E+10 +1.13243E-01 -1.28198E-01 -9.48551E-01 -4.04312E-03 -9.10434E-01 +4.38071E-02 -2.41678E-02 -1.22372E-01
+2.72000E+10 +4.81822E-02 -1.04515E-01 -9.40742E-01 +6.64835E-02 -8.87696E-01 +5.35692E-02 -3.32262E-02 -1.27873E-01
+2.73000E+10 -1.98186E-03 -7.01029E-02 -9.01311E-01 +6.54886E-02 -9.45195E-01 +2.38390E-02 -3.32022E-03 -6.60662E-02
+2.74000E+10 +3.75646E-02 -1.13757E-01 -9.57574E-01 -5.78845E-03 -9.57786E-01 +9.74376E-02 -2.17022E-02 -5.95737E-02
+2.75000E+10 +4.34850E-02 -8.87605E-02 -9.97656E-01 +1.04070E-01 -9.17950E-01 +8.16953E-02 -3.96722E-02 -1.22812E-03
+2.76000E+10 -4.65381E-02 -6.52563E-02 -9.81478E-01 +2.96436E-02 -9.65157E-01 +4.47034E-02 -2.90323E-02 -1.26494E-01
+2.77000E+10 +4.07420E-02 -9.06250E-02 -9.74155E-01 +7.03836E-02 -9.66073E-01 +8.18700E-02 -3.50298E-02 -1.01345E-01
+2.78000E+10 -5.16703E-02 -8.66774E-02 -9.96811E-01 +2.12759E-02 -1.03297E+00 +1.05683E-01 +1.57058E-02 +2.91285E-03
+2.79000E+10 -1.34038E-03 -4.19761E-02 -9.80265E-01 +1.38802E-01 -9.46470E-01 +1.94613E-01 -9.67229E-02 -8.99260E-02
+2.80000E+10 -3.54515E-02 -5.61271E-02 -9.16846E-01 +1.80773E-01 -8.13563E-01 +7.69956E-02 +1.65374E-02 -1.87447E-01
+2.81000E+10 -3.61258E-02 -9.70166E-02 -9.33091E-01 +9.57974E-02 -9.00584E-01 +1.43973E-01 +3.47041E-03 -5.84607E-02
+2.82000E+10 +1.93634E-02 -9.74923E-02 -9.64473E-01 +1.22303E-01 -8.97285E-01 +1.19054E-01 -9.38931E-02 -1.64957E-01
+2.83000E+10 +5.13329E-03 -1.18387E-01 -9.70535E-01 +6.91774E-02 -9.28388E-01 +2.09918E-01 +1.76449E-02 -1.19303E-01
+2.84000E+10 -1.48093E-02 -7.85002E-02 -9.73546E-01 +7.14544E-02 -9.86909E-01 +1.23346E-01 -1.44166E-02 -1.48938E-02
+2.85000E+10 +4.70164E-02 -1.09049E-01 -8.70832E-01 +1.90217E-01 -1.00486E+00 +1.62429E-01 -5.10787E-02 -3.64796E-02
+2.86000E+10 +6.47547E-02 -1.69360E-01 -9.49208E-01 +8.57887E-02 -8.81340E-01 +1.88748E-01 -5.56083E-02 -6.77663E-02
+2.87000E+10 -4.59644E-03 -9.04945E-02 -9.01928E-01 +2.65694E-01 -9.14167E-01 +1.62720E-01 -5.60508E-02 -2.49308E-02
+2.88000E+10 +3.55794E-02 -1.42931E-01 -9.21132E-01 +2.61508E-01 -1.01121E+00 +2.38129E-01 +9.14132E-02 -1.66329E-01
+2.89000E+10 +1.85636E-02 -2.95905E-02 -8.97706E-01 +2.57522E-01 -9.28781E-01 +1.81053E-01 -8.92780E-02 -1.30576E-01
+2.90000E+10 -6.91070E-03 -1.00718E-01 -8.52575E-01 +2.24363E-01 -8.75876E-01 +2.79209E-01 +2.30365E-02 -7.45657E-02
+2.91000E+10 +7.39458E-02 -1.88406E-01 -9.05306E-01 +2.61597E-01 -9.19941E-01 +2.90352E-01 -7.93261E-02 -1.47127E-01
+2.92000E+10 +1.14958E-02 -1.40500E-01 -9.22011E-01 +2.49663E-01 -8.80255E-01 +2.21253E-01 -1.96972E-02 -1.67699E-01
+2.93000E+10 +8.01290E-02 -1.07959E-01 -9.51890E-01 +2.60469E-01 -9.19012E-01 +3.67167E-01 -7.56123E-02 -5.90549E-02
+2.94000E+10 +6.12394E-02 -1.19212E-01 -9.65523E-01 +2.96011E-01 -9.00491E-01 +2.49207E-01 -5.81049E-02 -1.16989E-01
+2.95000E+10 +5.11004E-02 -8.65993E-02 -9.20585E-01 +2.90503E-01 -9.05429E-01 +2.75289E-01 -1.90231E-02 -8.16858E-02
+2.96000E+10 -3.35610E-02 -8.16192E-02 -9.34336E-01 +2.86867E-01 -8.58516E-01 +3.13785E-01 -3.03573E-02 -5.50239E-02
+2.97000E+10 +2.45576E-02 -1.41004E-01 -9.19836E-01 +3.30154E-01 -9.07744E-01 +2.65461E-01 -3.50955E-02 -8.78036E-02
+2.98000E+10 +2.29371E-02 -1.07222E-01 -9.06052E-01 +3.74412E-01 -8.54771E-01 +3.50551E-01 -3.79102E-02 -8.17043E-02
+2.99000E+10 -5.41089E-03 -6.81041E-02 -9.52614E-01 +2.82745E-01 -9.46433E-01 +2.96465E-01 +6.73369E-03 -1.06059E-01
+3.00000E+10 +8.61453E-03 -1.48689E-01 -8.87236E-01 +3.33702E-01 -8.47013E-01 +2.65591E-01 -4.23408E-03 -3.01552E-02
+3.01000E+10 +1.26214E-02 -1.69148E-01 -8.36932E-01 +4.28792E-01 -8.64391E-01 +2.85097E-01 -3.48062E-02 -1.01795E-01
+3.02000E+10 +1.01345E-01 -1.58612E-01 -8.88806E-01 +3.73775E-01 -8.71852E-01 +3.95360E-01 +2.61523E-02 -8.70438E-02
+3.03000E+10 +7.56646E-02 -2.15470E-03 -9.05442E-01 +4.40590E-01 -9.37558E-01 +4.09228E-01 -2.59168E-02 -9.23179E-02
+3.04000E+10 -1.48882E-01 -1.22216E-01 -8.74397E-01 +3.89846E-01 -8.70093E-01 +4.17572E-01 +4.86035E-03 -1.69413E-01
+3.05000E+10 +4.42376E-02 -2.49568E-01 -8.24404E-01 +3.86691E-01 -9.21121E-01 +4.15124E-01 +3.46082E-02 -9.16428E-02
+3.06000E+10 -3.96945E-02 -2.79682E-02 -8.90827E-01 +4.55996E-01 -9.53577E-01 +3.90812E-01 +2.98366E-02 -2.22778E-01
+3.07000E+10 -3.80681E-02 -4.06626E-02 -8.62333E-01 +3.80329E-01 -8.40678E-01 +3.44036E-01 -3.55170E-02 +4.47350E-03
+3.08000E+10 -1.61202E-02 -8.45265E-02 -8.55551E-01 +4.15596E-01 -9.16528E-01 +4.35701E-01 -1.76777E-01 -8.81948E-02
+3.09000E+10 -1.32427E-01 -1.81410E-01 -7.89752E-01 +3.46422E-01 -8.15903E-01 +4.63824E-01 -2.72257E-03 -6.34893E-02
+3.10000E+10 -7.35433E-03 -9.58582E-02 -7.92257E-01 +3.92602E-01 -7.28228E-01 +4.13114E-01 -2.94451E-02 -7.58846E-02
+3.11000E+10 +4.51532E-02 -1.03033E-01 -9.33027E-01 +3.99537E-01 -7.95995E-01 +4.99094E-01 -7.85065E-02 -1.54767E-01
+3.12000E+10 +1.80755E-03 -3.99010E-02 -8.32871E-01 +4.64475E-01 -7.98918E-01 +3.79059E-01 -1.05440E-01 -1.15782E-01
+3.13000E+10 +2.34700E-02 -1.02255E-01 -8.54929E-01 +5.38148E-01 -8.19937E-01 +4.02686E-01 -3.26619E-02 -2.03574E-01
+3.14000E+10 +6.47492E-02 -1.54925E-01 -7.91366E-01 +4.34436E-01 -7.92711E-01 +4.75709E-01 -5.26743E-03 -1.26952E-01
+3.15000E+10 +1.38814E-02 -2.05666E-01 -8.34374E-01 +5.97006E-01 -8.39720E-01 +5.30340E-01 -2.18563E-02 -2.02790E-01
+3.16000E+10 +1.65041E-02 -1.10703E-01 -7.40578E-01 +4.67710E-01 -8.41576E-01 +4.85806E-01 -9.96868E-02 -1.13891E-01
+3.17000E+10 +3.18534E-02 -1.05006E-01 -8.62693E-01 +5.04734E-01 -7.63950E-01 +4.93466E-01 -6.58691E-02 -1.40689E-01
+3.18000E+10 -3.09235E-02 -6.16547E-02 -8.07307E-01 +5.04000E-01 -6.84388E-01 +3.70539E-01 -9.36491E-02 -6.23381E-02
+3.19000E+10 +1.18372E-02 -1.48650E-01 -7.50953E-01 +5.37357E-01 -7.90330E-01 +4.92881E-01 +8.46024E-03 -7.65934E-02
+3.20000E+10 +3.97917E-02 -1.09560E-01 -7.86410E-01 +5.39275E-01 -6.85473E-01 +5.91045E-01 -8.53106E-02 -9.59705E-02
+3.21000E+10 -3.39075E-02 -1.86880E-01 -7.32470E-01 +4.17206E-01 -7.62244E-01 +6.12491E-01 -8.65679E-02 -2.53949E-01
+3.22000E+10 -1.02239E-02 -1.39625E-01 -8.14729E-01 +6.11791E-01 -8.36046E-01 +5.18066E-01 -4.05587E-02 -6.39591E-02
+3.23000E+10 -9.10371E-02 -4.54287E-02 -7.79459E-01 +6.32210E-01 -7.65640E-01 +6.10470E-01 -1.00852E-02 -7.97157E-02
+3.24000E+10 +1.38119E-02 -1.38975E-01 -6.23951E-01 +6.31928E-01 -7.58626E-01 +5.94059E-01 -8.71137E-02 -1.31257E-01
+3.25000E+10 +1.00609E-02 -1.67208E-01 -7.44565E-01 +5.27743E-01 -7.58242E-01 +5.78418E-01 -9.43789E-03 -8.82782E-02
+3.26000E+10 -1.78459E-02 -2.45259E-02 -7.60895E-01 +6.16405E-01 -7.02469E-01 +5.33598E-01 -1.10292E-01 -2.26468E-01
+3.27000E+10 +2.72948E-02 -4.56808E-02 -7.18572E-01 +6.16464E-01 -7.57807E-01 +5.90400E-01 -1.61617E-01 +6.02204E-03
+3.28000E+10 +1.65403E-02 -1.14310E-01 -7.26888E-01 +6.38495E-01 -7.65550E-01 +6.48463E-01 -4.73694E-02 -8.37399E-02
+3.29000E+10 -2.66626E-02 -1.25149E-01 -7.88743E-01 +5.33951E-01 -7.39026E-01 +6.12183E-01 -8.36336E-02 -1.88911E-01
+3.30000E+10 +9.76759E-03 -1.04709E-01 -7.08717E-01 +4.97106E-01 -7.41940E-01 +7.00563E-01 -2.18203E-02 +4.96312E-03
+3.31000E+10 +2.95591E-02 -1.04873E-01 -7.58706E-01 +5.90893E-01 -7.27797E-01 +7.25526E-01 -5.54147E-02 -5.16505E-02
+3.32000E+10 -1.04897E-01 -1.13306E-01 -7.87185E-01 +5.13010E-01 -6.95692E-01 +6.43137E-01 -2.37128E-02 -1.08650E-01
+3.33000E+10 -2.62124E-02 +4.13577E-02 -8.13031E-01 +6.49276E-01 -7.37186E-01 +5.86598E-01 -7.66569E-02 -1.41881E-01
+3.34000E+10 -2.24333E-02 -7.94554E-02 -6.27939E-01 +7.17203E-01 -5.57312E-01 +6.06905E-01 -2.08016E-02 -5.73916E-02
+3.35000E+10 -9.58475E-02 -1.87166E-01 -7.94840E-01 +6.78462E-01 -6.23745E-01 +5.87282E-01 -1.95664E-02 -2.88190E-01
+3.36000E+10 -5.07744E-02 -2.87805E-02 -7.41009E-01 +6.37272E-01 -7.36006E-01 +6.52017E-01 -3.47076E-02 -8.73227E-02
+3.37000E+10 +4.35621E-02 -3.91550E-02 -7.93584E-01 +6.13170E-01 -6.15560E-01 +6.96105E-01 +6.29930E-02 -7.42594E-02
+3.38000E+10 -2.11173E-01 -1.54073E-01 -7.00917E-01 +5.12839E-01 -6.08971E-01 +7.12671E-01 +1.74898E-02 -1.87969E-02
+3.39000E+10 -1.54313E-03 -1.23211E-01 -5.46921E-01 +6.56672E-01 -6.59088E-01 +6.51444E-01 -5.80140E-02 -1.08629E-01
+3.40000E+10 +3.82466E-02 -1.63135E-01 -8.03277E-01 +6.12838E-01 -6.88289E-01 +7.68934E-01 +1.21952E-01 -1.92413E-01
+3.41000E+10 -1.44639E-01 -1.77104E-01 -5.56126E-01 +6.91508E-01 -5.77054E-01 +6.34662E-01 -5.13214E-02 +4.93561E-02
+3.42000E+10 +1.12115E-01 -1.25398E-01 -6.61792E-01 +6.68053E-01 -6.51701E-01 +6.48645E-01 +9.70249E-02 -6.96640E-02
+3.43000E+10 -4.48323E-02 -1.99686E-01 -7.01049E-01 +7.24579E-01 -6.51740E-01 +7.19236E-01 -6.11539E-02 -8.41234E-02
+3.44000E+10 -6.92353E-02 -1.51070E-01 -4.46051E-01 +7.57520E-01 -7.35433E-01 +7.19011E-01 -8.76835E-02 -3.35867E-02
+3.45000E+10 +3.41022E-03 -1.38774E-01 -6.18176E-01 +7.99856E-01 -6.76192E-01 +6.68192E-01 -3.65485E-02 -1.19347E-01
+3.46000E+10 +1.40825E-03 -6.54927E-02 -5.99379E-01 +7.22812E-01 -6.54342E-01 +7.41966E-01 -1.77093E-01 -1.30303E-01
+3.47000E+10 -7.65131E-02 -1.05715E-01 -5.41846E-01 +6.81514E-01 -4.85143E-01 +6.30120E-01 -2.33870E-01 +1.43307E-02
+3.48000E+10 -7.40721E-02 -1.37790E-01 -6.21228E-01 +7.13800E-01 -4.64709E-01 +8.95911E-01 -1.46183E-01 -1.36921E-01
+3.49000E+10 -7.43830E-02 -9.72715E-02 -6.11471E-01 +6.06650E-01 -6.04170E-01 +8.04215E-01 +6.47443E-02 +1.13779E-02
+3.50000E+10 -1.42667E-02 -1.43530E-01 -5.95941E-01 +6.40050E-01 -5.11930E-01 +6.78888E-01 -7.52738E-03 -1.98835E-01
+3.51000E+10 +2.11204E-02 -1.58087E-01 -5.20308E-01 +7.73521E-01 -5.74818E-01 +6.49130E-01 -6.33953E-02 -1.20774E-01
+3.52000E+10 -9.13245E-02 +1.01432E-01 -4.51653E-01 +7.83810E-01 -4.88798E-01 +7.57916E-01 -1.16346E-01 -3.57658E-02
+3.53000E+10 +1.90560E-02 -6.38642E-02 -5.29001E-01 +8.60019E-01 -4.81608E-01 +6.76749E-01 +7.89253E-03 -1.93964E-02
+3.54000E+10 +7.50101E-03 -1.56196E-01 -5.09097E-01 +7.82747E-01 -5.74860E-01 +7.09498E-01 +2.63564E-02 +1.40760E-02
+3.55000E+10 +1.37346E-02 -2.24688E-01 -5.58527E-01 +8.00860E-01 -5.36923E-01 +7.84853E-01 +6.51946E-02 -1.04387E-01
+3.56000E+10 -1.13472E-01 -1.78889E-01 -6.59385E-01 +9.10141E-01 -4.91269E-01 +7.12543E-01 +1.19508E-01 +3.47265E-02
+3.57000E+10 -8.29846E-02 -1.81329E-01 -5.27559E-01 +7.56454E-01 -6.45437E-01 +9.42156E-01 +3.43576E-02 -6.92579E-02
+3.58000E+10 -7.04033E-04 -4.21184E-02 -6.32575E-01 +6.95474E-01 -4.53925E-01 +8.55195E-01 -1.19052E-01 -3.65780E-02
+3.59000E+10 -5.12659E-02 -1.53484E-01 -4.90311E-01 +7.51245E-01 -4.76095E-01 +8.23270E-01 -1.00466E-01 -8.25270E-02
+3.60000E+10 -7.70066E-02 -7.28490E-02 -4.59621E-01 +8.24804E-01 -5.76792E-01 +8.19722E-01 -2.60067E-01 -9.99201E-02
+3.61000E+10 -1.32795E-01 -9.86268E-02 -4.07658E-01 +7.35790E-01 -2.47795E-01 +8.45612E-01 +5.94398E-02 +2.01874E-01
+3.62000E+10 -1.05756E-01 +5.86782E-03 -3.70931E-01 +6.34318E-01 -4.43616E-01 +8.02971E-01 +1.26334E-01 +1.80254E-02
+3.63000E+10 -1.29283E-01 -3.91193E-02 -4.53907E-01 +9.16532E-01 -4.32730E-01 +8.14168E-01 -2.76693E-02 -6.60314E-02
+3.64000E+10 -1.21841E-01 -1.73297E-01 -2.97918E-01 +9.05166E-01 -4.37360E-01 +8.64044E-01 -2.14588E-01 -2.47466E-01
+3.65000E+10 -3.98321E-02 -1.22996E-01 -4.95948E-01 +6.74135E-01 -4.09276E-01 +8.29976E-01 +1.15085E-01 -1.42234E-01
+3.66000E+10 +2.26320E-02 -9.84185E-02 -4.62874E-01 +1.04739E+00 -4.36018E-01 +9.20088E-01 +1.10970E-01 -8.38952E-02
+3.67000E+10 -1.53578E-01 -2.39711E-01 -4.03427E-01 +8.20677E-01 -2.99736E-01 +7.63065E-01 +8.13810E-02 -7.56961E-02
+3.68000E+10 -6.75224E-02 -9.57487E-02 -4.23792E-01 +1.01476E+00 -5.88056E-01 +6.86380E-01 +1.94351E-02 -2.60940E-01
+3.69000E+10 -3.01109E-02 -4.99131E-02 -3.33943E-01 +7.02516E-01 -4.53071E-01 +9.34817E-01 -5.77257E-03 -2.77447E-01
+3.70000E+10 -1.28179E-01 -4.95829E-02 -3.47003E-01 +8.86424E-01 -2.97892E-01 +7.44967E-01 -6.12609E-02 -1.93594E-01
+3.71000E+10 -1.32633E-01 -1.49194E-01 -3.35286E-01 +8.94263E-01 -3.54535E-01 +8.52307E-01 -4.93190E-02 -2.02991E-01
+3.72000E+10 -1.83805E-01 -1.15176E-01 -5.03744E-01 +1.06310E+00 -4.46979E-01 +1.00744E+00 +2.07129E-03 -1.35363E-01
+3.73000E+10 -1.49028E-01 -4.04856E-02 -3.59278E-01 +7.59704E-01 -3.33975E-01 +8.93950E-01 +5.66399E-02 +5.81849E-03
+3.74000E+10 -1.77955E-01 -7.42855E-02 -3.54327E-01 +8.05123E-01 -5.00128E-01 +1.01310E+00 -1.21508E-01 -1.55180E-01
+3.75000E+10 -1.43641E-02 -6.23461E-02 -2.61959E-01 +7.87762E-01 -3.03697E-01 +9.23848E-01 +4.22309E-02 -2.83231E-01
+3.76000E+10 -1.20337E-01 -3.85137E-02 -2.25457E-01 +9.56347E-01 -3.04881E-01 +7.79126E-01 -6.56045E-02 -1.97096E-02
+3.77000E+10 -1.85719E-01 -2.03708E-01 -1.87799E-01 +8.84745E-01 -2.76953E-01 +9.69381E-01 -8.07783E-02 -1.23025E-02
+3.78000E+10 -2.74720E-02 -1.96804E-01 -3.72497E-01 +9.28313E-01 -3.26492E-01 +6.92640E-01 -1.94020E-01 -1.46819E-01
+3.79000E+10 -7.28320E-02 -2.01125E-01 -4.15752E-01 +9.59262E-01 -2.52795E-01 +9.77888E-01 -2.15242E-02 -2.05797E-01
+3.80000E+10 -1.70483E-01 -1.05878E-01 -3.13950E-01 +8.83354E-01 -3.70161E-01 +9.97334E-01 -9.82966E-02 +2.14733E-02
+3.81000E+10 -1.13579E-01 -1.91171E-01 -2.65773E-01 +9.05333E-01 -2.78838E-01 +8.92477E-01 -2.52255E-01 -5.51642E-02
+3.82000E+10 -5.04480E-02 -2.09825E-01 -1.85005E-01 +9.07119E-01 -1.67062E-01 +1.05165E+00 +5.52200E-02 -6.61796E-03
+3.83000E+10 +8.18084E-02 -9.17455E-02 -3.33802E-01 +8.38859E-01 -1.47506E-01 +1.07965E+00 -3.56342E-01 -6.45435E-02
+3.84000E+10 +2.06381E-02 +7.51097E-03 -3.25149E-01 +8.98097E-01 -1.43178E-01 +9.34400E-01 -4.54784E-02 -2.05200E-01
+3.85000E+10 -5.05179E-02 -1.55344E-01 -1.32811E-01 +7.65149E-01 -3.12102E-01 +9.35854E-01 +3.50213E-02 -3.21524E-02
+3.86000E+10 +1.55143E-02 -1.69562E-01 -1.90050E-01 +9.61476E-01 -8.62543E-02 +1.04479E+00 -5.42489E-02 +1.65098E-03
+3.87000E+10 -1.18278E-01 +2.68027E-02 -2.39924E-01 +9.87199E-01 -1.90679E-01 +9.48367E-01 -5.07237E-02 +4.54426E-02
+3.88000E+10 -1.98962E-01 -7.36888E-02 -4.12994E-02 +7.26033E-01 -1.77470E-01 +8.56286E-01 -2.73338E-01 -1.14581E-02
+3.89000E+10 +3.52753E-02 -1.32912E-01 -1.40271E-01 +9.12298E-01 -5.24972E-02 +1.09227E+00 -3.93654E-02 -1.92058E-01
+3.90000E+10 +2.75518E-02 -3.24932E-02 -2.60366E-01 +1.03639E+00 -8.34277E-02 +1.02784E+00 +1.33556E-02 -1.28953E-01
+3.91000E+10 -2.81071E-02 -1.10192E-01 -3.26727E-02 +9.04929E-01 -2.84464E-01 +9.42121E-01 -2.14922E-01 -2.90713E-02
+3.92000E+10 -1.62953E-01 -5.29438E-03 +8.74272E-02 +9.17305E-01 -9.98605E-02 +1.16135E+00 -1.88261E-01 -3.07310E-01
+3.93000E+10 -1.08420E-01 -1.47593E-01 -2.93818E-04 +8.01794E-01 -2.18310E-01 +8.95365E-01 +4.17582E-02 -8.94734E-02
+3.94000E+10 +3.38927E-02 -1.24061E-01 -2.13635E-01 +9.38293E-01 -1.43009E-01 +9.23895E-01 -1.09427E-02 -1.86633E-01
+3.95000E+10 -2.29029E-01 +9.65031E-02 -2.26453E-01 +9.45154E-01 -2.89152E-02 +8.41372E-01 -1.74396E-01 -4.99426E-02
+3.96000E+10 -1.05650E-01 +5.37790E-02 -1.35765E-01 +1.00052E+00 -2.15383E-01 +9.43854E-01 +1.60930E-02 -1.47119E-01
+3.97000E+10 -1.08980E-01 -2.09488E-02 -1.03381E-01 +1.02112E+00 -8.20775E-02 +8.74886E-01 +7.17263E-02 -2.13607E-01
+3.98000E+10 -1.18908E-01 -2.21943E-01 -5.13623E-02 +9.73949E-01 -1.65657E-01 +1.03586E+00 +1.38281E-01 -2.47806E-01
+3.99000E+10 -1.74190E-01 -1.01379E-01 +1.26901E-01 +1.06612E+00 -9.97171E-02 +8.97254E-01 -1.26520E-01 -3.67522E-02
+4.00000E+10 -4.24692E-02 -7.93593E-03 +1.12937E-01 +9.62687E-01 +5.47345E-02 +1.09480E+00 -2.83198E-01 +2.20932E-01
