! Quiescent point : V1=-1.63289E-02 I1=+1.27576E-03 V2=-2.19057E-02 I2=-1.26040E-03
! Pulsed point : V1=-1.58003E-02 I1=+1.26430E-03 V2=-2.22388E-02 I2=-1.25258E-03
! Period : +2.00000E-04
! Input Supply timing : delay=+1.60000E-06 width=+2.20000E-06
! Output Supply timing : delay=+1.70000E-06 width=+2.00000E-06
! VNA timing : delay=+2.40000E-06 width=+1.10000E-06
# Hz S RI R 50
+2.70000E+10 +2.34768E-02 -7.95104E-02 -9.14208E-01 +1.89504E-02 -8.97161E-01 +5.81662E-02 +2.93158E-03 -7.39421E-02
+2.71000E+10 +2.22677E-02 -1.09388E-01 -1.01881E+00 +2.12012E-02 -9.21635E-01 +4.96770E-02 -4.43522E-02 -9.01848E-02
+2.72000E+10 +3.12232E-02 -5.18597E-02 -9.64937E-01 +6.39060E-02 -9.37482E-01 -3.20847E-02 -9.39909E-02 -8.29576E-02
+2.73000E+10 +4.70806E-02 -6.41450E-02 -9.93720E-01 +4.86955E-02 -9.06348E-01 +4.41159E-02 +1.91338E-02 -1.20234E-01
+2.74000E+10 +7.42061E-02 -4.06358E-02 -9.69590E-01 +6.56509E-02 -9.81146E-01 +5.75390E-02 -3.42099E-02 -8.76990E-02
+2.75000E+10 +5.42524E-03 -9.77613E-02 -9.38273E-01 +4.17913E-02 -9.29665E-01 +1.13120E-02 +4.05561E-03 -1.10780E-01
+2.76000E+10 -1.05768E-02 -7.60395E-02 -9.40689E-01 +7.96325E-02 -9.90245E-01 -3.39448E-02 -4.46978E-02 -2.46416E-02
+2.77000E+10 -4.31094E-02 -9.47722E-02 -9.05586E-01 +3.25636E-02 -8.89013E-01 +9.07548E-02 -7.20309E-02 -8.22242E-02
+2.78000E+10 +1.04191E-02 -8.70550E-02 -9.88844E-01 +5.69353E-02 -1.01259E+00 +1.46539E-01 -4.24433E-02 -7.09751E-02
+2.79000E+10 -1.29975E-02 -1.06322E-01 -9.87508E-01 +1.27808E-01 -9.19812E-01 +1.50754E-01 -7.30724E-03 -3.37654E-02
+2.80000E+10 -5.56883E-03 -9.05897E-02 -1.03636E+00 +1.70068E-01 -9.71703E-01 +7.47286E-02 +5.22006E-02 -1.52034E-01
+2.81000E+10 +2.87070E-02 -7.67939E-02 -1.00615E+00 +1.69423E-01 -9.33811E-01 +1.17677E-01 -4.99903E-02 -3.58102E-02
+2.82000E+10 +5.86119E-02 -5.94961E-02 -8.77427E-01 +1.41177E-01 -9.47910E-01 +1.12175E-01 -8.70948E-03 -9.56491E-02
+2.83000E+10 +1.32972E-02 -1.17006E-01 -9.43350E-01 +1.35287E-01 -8.86705E-01 +1.76215E-01 +1.91732E-02 -7.32505E-02
+2.84000E+10 -6.87703E-02 -1.30110E-02 -8.63256E-01 +2.03919E-01 -9.14698E-01 +1.18753E-01 -3.38840E-02 -1.29066E-01
+2.85000E+10 +3.14596E-02 -1.16161E-01 -9.09817E-01 +1.40735E-01 -9.18543E-01 +1.44062E-01 -6.59440E-02 -1.70070E-01
+2.86000E+10 +1.76195E-02 -4.29455E-02 -8.79199E-01 +2.05498E-01 -8.68294E-01 +1.67189E-01 -3.77188E-02 -1.28978E-01
+2.87000E+10 +1.52009E-02 -9.52961E-02 -9.23165E-01 +1.43538E-01 -8.92091E-01 +1.69949E-01 -5.48186E-02 +5.22551E-03
+2.88000E+10 -9.00059E-02 -7.19029E-02 -9.13948E-01 +2.66066E-01 -9.43927E-01 +2.11433E-01 -9.06210E-03 -6.30860E-02
+2.89000E+10 -3.63872E-03 -9.24947E-02 -9.68685E-01 +2.96462E-01 -9.02707E-01 +1.64956E-01 -3.08816E-02 -9.99465E-02
+2.90000E+10 +1.17832E-01 -1.17709E-01 -8.79511E-01 +1.87135E-01 -9.17831E-01 +2.27552E-01 +7.17025E-02 -5.45699E-02
+2.91000E+10 +1.09703E-02 +5.75260E-02 -9.18522E-01 +2.68546E-01 -9.68182E-01 +2.39278E-01 -9.58338E-03 -3.39899E-02
+2.92000E+10 -1.22898E-02 -5.23047E-02 -9.25918E-01 +2.37907E-01 -9.08375E-01 +2.65127E-01 -3.30680E-02 -8.08197E-02
+2.93000E+10 +5.57024E-02 -1.76212E-01 -9.28063E-01 +1.82924E-01 -9.48128E-01 +2.22769E-01 +6.33540E-02 -3.71711E-02
+2.94000E+10 +6.06052E-02 -3.78883E-02 -9.85594E-01 +2.79183E-01 -9.04266E-01 +2.33362E-01 -2.98864E-02 -1.18431E-01
+2.95000E+10 +3.28925E-02 -7.83831E-02 -8.56030E-01 +2.98766E-01 -9.99460E-01 +2.57286E-01 -2.83701E-02 -1.00348E-01
+2.96000E+10 +7.58629E-03 -1.07211E-01 -8.45112E-01 +2.34935E-01 -9.40972E-01 +2.25612E-01 +3.30713E-03 -5.72492E-02
+2.97000E+10 +2.68005E-02 -6.16019E-02 -9.15859E-01 +3.07515E-01 -8.75716E-01 +2.80931E-01 -8.79364E-02 -6.61448E-02
+2.98000E+10 -8.34921E-03 -1.02200E-01 -8.85874E-01 +4.31377E-01 -9.62860E-01 +3.68663E-01 -1.43154E-02 -2.13576E-02
+2.99000E+10 +5.93856E-02 -8.24126E-02 -9.45004E-01 +3.30919E-01 -8.06730E-01 +3.32568E-01 -3.44448E-02 -1.03803E-01
+3.00000E+10 +5.69664E-02 -1.65948E-01 -8.64358E-01 +2.90288E-01 -9.78053E-01 +3.04635E-01 -2.06174E-02 -1.17119E-01
+3.01000E+10 -3.57830E-03 -3.92801E-02 -9.60705E-01 +3.52388E-01 -8.55274E-01 +3.32505E-01 -7.50126E-02 -1.81747E-02
+3.02000E+10 -5.35700E-02 -1.74775E-01 -8.97927E-01 +3.98305E-01 -9.47539E-01 +3.68642E-01 -8.06152E-02 +5.97712E-03
+3.03000E+10 -5.74085E-02 -1.83474E-01 -9.15374E-01 +3.12768E-01 -8.62172E-01 +3.16056E-01 -5.49441E-02 -5.36045E-02
+3.04000E+10 -1.05616E-01 -1.80109E-01 -9.51104E-01 +3.21566E-01 -8.86256E-01 +3.54955E-01 -9.74137E-02 -3.02884E-02
+3.05000E+10 -4.52469E-02 -6.40730E-02 -8.29747E-01 +3.45828E-01 -8.81922E-01 +3.88090E-01 +1.80970E-02 -3.15731E-02
+3.06000E+10 -2.88495E-02 -1.11605E-01 -8.40252E-01 +4.03426E-01 -7.80772E-01 +4.37746E-01 -7.49472E-02 -4.82067E-02
+3.07000E+10 -3.72470E-02 -1.27369E-01 -8.84596E-01 +5.10265E-01 -8.61350E-01 +4.38797E-01 -4.39930E-02 -7.81051E-02
+3.08000E+10 +2.88291E-02 -1.64671E-01 -8.31870E-01 +3.44841E-01 -7.97265E-01 +4.61872E-01 -6.95566E-02 -4.77822E-02
+3.09000E+10 +7.00622E-02 -4.14690E-02 -8.65281E-01 +3.96416E-01 -7.06835E-01 +3.02399E-01 +1.20159E-01 -5.32584E-02
+3.10000E+10 +8.41036E-02 -9.13948E-02 -8.18383E-01 +3.81793E-01 -8.14089E-01 +3.92141E-01 -9.96047E-02 -8.53484E-02
+3.11000E+10 +4.46914E-02 -1.22182E-01 -9.52315E-01 +3.79840E-01 -8.61918E-01 +3.74815E-01 -1.07067E-02 -9.21294E-02
+3.12000E+10 +1.15460E-01 -8.46101E-02 -8.80914E-01 +5.39575E-01 -8.28695E-01 +4.23025E-01 -7.92804E-02 -4.42051E-02
+3.13000E+10 +1.13916E-02 -1.01351E-01 -8.09865E-01 +4.03710E-01 -8.73433E-01 +3.39101E-01 -4.16258E-02 -4.71906E-02
+3.14000E+10 +1.28098E-02 -1.44526E-01 -9.09146E-01 +3.49279E-01 -9.19714E-01 +4.15127E-01 -1.18729E-01 -7.33363E-02
+3.15000E+10 +3.25796E-02 -1.28538E-01 -7.72001E-01 +5.08620E-01 -7.74446E-01 +5.47127E-01 -9.45052E-02 -1.15341E-02
+3.16000E+10 -1.37337E-01 -1.44325E-01 -7.77210E-01 +4.61623E-01 -7.99718E-01 +4.51142E-01 +3.58878E-02 -9.76373E-02
+3.17000E+10 +2.05797E-02 -4.21149E-02 -7.35150E-01 +6.53125E-01 -8.56069E-01 +6.00187E-01 -2.09592E-02 -6.51698E-02
+3.18000E+10 -1.20289E-02 -1.62865E-01 -8.47051E-01 +5.58019E-01 -7.53157E-01 +5.74658E-01 -8.79186E-02 -6.82927E-02
+3.19000E+10 +1.28231E-01 -1.48961E-01 -7.77791E-01 +5.28497E-01 -7.57744E-01 +4.73382E-01 -2.76012E-02 -1.20865E-01
+3.20000E+10 +4.27574E-02 -1.11837E-01 -7.91103E-01 +5.63356E-01 -8.42817E-01 +5.25986E-01 -5.51844E-02 -5.08838E-02
+3.21000E+10 +8.21457E-03 -7.41367E-02 -8.01864E-01 +4.01122E-01 -7.83615E-01 +5.50665E-01 +4.09800E-02 -7.85329E-02
+3.22000E+10 -4.65453E-02 -2.16043E-01 -7.26503E-01 +4.76076E-01 -8.12846E-01 +5.71401E-01 -7.55543E-03 -8.19054E-02
+3.23000E+10 -4.53111E-02 -5.16295E-02 -6.88494E-01 +5.45509E-01 -8.77449E-01 +5.51309E-01 -3.93454E-02 -2.42124E-02
+3.24000E+10 +7.97811E-02 -2.55007E-02 -8.88304E-01 +4.86940E-01 -7.47602E-01 +5.74579E-01 -2.72413E-02 -5.18910E-02
+3.25000E+10 -2.36864E-02 -1.12360E-01 -7.66024E-01 +6.18652E-01 -7.15451E-01 +6.15448E-01 -1.55349E-02 -2.60823E-02
+3.26000E+10 +5.86957E-02 +1.90788E-02 -7.75032E-01 +4.44659E-01 -8.29753E-01 +5.87613E-01 -9.44334E-02 -6.74535E-02
+3.27000E+10 -1.22890E-02 -5.49271E-02 -6.83891E-01 +6.17199E-01 -8.90240E-01 +6.09955E-01 -1.26071E-02 -2.53298E-02
+3.28000E+10 -2.94857E-02 -1.68998E-01 -5.75885E-01 +7.08969E-01 -7.45601E-01 +7.07473E-01 -3.64125E-02 -8.29937E-02
+3.29000E+10 -1.95663E-03 -5.02051E-02 -7.64368E-01 +5.61654E-01 -7.39628E-01 +5.95909E-01 -2.44904E-02 -7.49298E-02
+3.30000E+10 +1.46106E-01 -2.23658E-01 -7.16654E-01 +5.94379E-01 -6.69714E-01 +5.51399E-01 -5.22263E-02 +4.75924E-03
+3.31000E+10 +4.95595E-02 -7.55705E-02 -7.05323E-01 +6.63962E-01 -6.58807E-01 +7.57796E-01 +6.90980E-02 -2.11238E-01
+3.32000E+10 +2.18946E-02 -1.68578E-01 -7.89446E-01 +6.85020E-01 -7.04316E-01 +7.83465E-01 +1.41672E-02 +3.69922E-03
+3.33000E+10 +8.55139E-02 -9.65135E-02 -7.12520E-01 +6.62806E-01 -6.52260E-01 +6.73973E-01 -1.48511E-02 -2.97317E-02
+3.34000E+10 +2.47023E-01 -1.36179E-01 -7.73896E-01 +7.05906E-01 -8.53165E-01 +6.58639E-01 -4.23459E-02 -1.55923E-01
+3.35000E+10 +4.70452E-02 -2.38363E-01 -6.90942E-01 +5.98574E-01 -6.48026E-01 +8.00222E-01 -1.30853E-01 -1.47391E-01
+3.36000E+10 +7.88477E-02 +1.17917E-01 -7.56744E-01 +6.37072E-01 -8.10265E-01 +6.88703E-01 +5.76711E-03 -6.57615E-03
+3.37000E+10 +1.47465E-01 -2.07638E-01 -7.48638E-01 +6.25887E-01 -7.66363E-01 +6.81411E-01 -1.78914E-02 +4.98611E-02
+3.38000E+10 +3.53262E-02 -8.68214E-02 -6.49105E-01 +6.66335E-01 -6.89576E-01 +5.92019E-01 -9.10634E-02 -1.49921E-02
+3.39000E+10 -1.98722E-02 -1.06083E-01 -6.88865E-01 +7.78268E-01 -7.36056E-01 +6.61324E-01 +3.62297E-02 -1.63080E-02
+3.40000E+10 +4.80051E-02 -1.84787E-01 -5.79028E-01 +8.78175E-01 -6.37186E-01 +7.45750E-01 -1.10526E-01 -9.78442E-02
+3.41000E+10 -3.25043E-02 -1.48661E-01 -6.98289E-01 +7.06833E-01 -6.93752E-01 +6.37275E-01 -1.15731E-02 -7.11862E-02
+3.42000E+10 +6.59358E-02 -1.28331E-01 -6.56142E-01 +7.43590E-01 -7.15059E-01 +7.85389E-01 -1.06880E-01 +4.55246E-02
+3.43000E+10 -2.29666E-02 -1.28299E-01 -5.61514E-01 +6.53269E-01 -5.60842E-01 +8.16329E-01 -5.65756E-02 +5.71485E-03
+3.44000E+10 +3.28777E-02 -1.21954E-01 -5.22965E-01 +7.46915E-01 -7.45859E-01 +8.35816E-01 +2.92100E-02 -3.15033E-02
+3.45000E+10 -8.69037E-02 -1.03842E-01 -6.52826E-01 +6.97234E-01 -6.11601E-01 +6.51171E-01 -1.29910E-02 +2.69307E-02
+3.46000E+10 +1.13706E-01 -1.97598E-01 -6.23935E-01 +7.75830E-01 -5.75008E-01 +6.29096E-01 -1.95550E-03 +3.59545E-02
+3.47000E+10 +3.51582E-02 -1.57370E-01 -7.73356E-01 +6.69260E-01 -5.84874E-01 +8.21418E-01 -1.11322E-01 -3.42370E-02
+3.48000E+10 +9.82906E-02 -6.18246E-02 -6.64703E-01 +7.32291E-01 -6.42324E-01 +7.72324E-01 +5.54484E-02 -5.61578E-02
+3.49000E+10 -1.04380E-02 -1.60202E-01 -4.81909E-01 +8.07307E-01 -6.60754E-01 +7.28830E-01 +6.27188E-02 -3.27681E-02
+3.50000E+10 +2.12043E-02 -1.13776E-01 -6.32648E-01 +7.42629E-01 -6.10104E-01 +6.45278E-01 -8.72583E-02 +8.68472E-02
+3.51000E+10 -8.34418E-02 -3.04186E-02 -5.08053E-01 +7.95360E-01 -4.34063E-01 +7.68815E-01 -3.55462E-02 -1.54957E-01
+3.52000E+10 +5.86157E-02 -9.57556E-02 -6.09467E-01 +8.28680E-01 -5.11894E-01 +8.22125E-01 +3.42195E-02 +1.44246E-01
+3.53000E+10 +1.31968E-01 -1.97685E-01 -4.41729E-01 +9.58966E-01 -6.22573E-01 +8.54087E-01 -6.59587E-02 +9.74274E-04
+3.54000E+10 -3.14899E-02 -1.22659E-01 -5.42158E-01 +7.66456E-01 -4.41496E-01 +9.10864E-01 -1.83458E-02 -1.77492E-01
+3.55000E+10 +6.50056E-02 -5.67580E-02 -5.55553E-01 +7.55732E-01 -4.55208E-01 +8.07172E-01 -2.17762E-02 -1.06480E-01
+3.56000E+10 +9.37268E-02 -9.80555E-02 -4.14642E-01 +9.19591E-01 -5.22314E-01 +8.39291E-01 +5.91982E-02 -1.01372E-01
+3.57000E+10 -4.08321E-02 -5.39612E-02 -5.21812E-01 +8.91668E-01 -3.67380E-01 +8.54911E-01 +8.55373E-02 +4.55768E-02
+3.58000E+10 -3.28181E-02 -7.90210E-02 -4.82895E-01 +6.76943E-01 -5.85109E-01 +7.61021E-01 -1.69198E-02 -7.48572E-02
+3.59000E+10 +2.64755E-02 -1.01803E-01 -4.39834E-01 +8.75545E-01 -5.89601E-01 +1.07319E+00 +5.65277E-02 -1.23911E-01
+3.60000E+10 -1.79964E-01 -1.40144E-01 -4.34725E-01 +1.00604E+00 -3.18457E-01 +8.51207E-01 -3.20169E-01 -1.96284E-01
+3.61000E+10 -1.04241E-01 -1.37647E-01 -3.93122E-01 +9.51075E-01 -3.14012E-01 +8.57728E-01 -9.57439E-02 +9.48166E-02
+3.62000E+10 +2.00202E-02 -1.10440E-01 -4.82691E-01 +7.06846E-01 -3.52514E-01 +7.38057E-01 +4.80128E-02 +4.42430E-03
+3.63000E+10 -1.57107E-01 -2.89434E-01 -3.77251E-01 +9.34068E-01 -5.55435E-01 +1.00182E+00 +2.78514E-02 -9.59879E-03
+3.64000E+10 -8.87364E-02 -2.03695E-01 -4.82624E-01 +1.04760E+00 -5.13482E-01 +7.22181E-01 -1.52486E-01 -1.62730E-01
+3.65000E+10 -3.26260E-02 -1.17873E-04 -5.27345E-01 +8.24308E-01 -4.86995E-01 +9.12367E-01 +1.16899E-01 -4.82139E-02
+3.66000E+10 -4.20176E-02 -2.55458E-01 -3.63769E-01 +7.59447E-01 -4.36772E-01 +8.53308E-01 +1.20500E-01 +1.51345E-02
+3.67000E+10 -3.18589E-01 -1.62390E-01 -2.91879E-01 +7.97484E-01 -3.46270E-01 +8.14811E-01 -1.64346E-01 -2.29072E-01
+3.68000E+10 -1.10663E-01 -1.71740E-02 -3.89274E-01 +8.50359E-01 -2.91521E-01 +8.34716E-01 -2.28311E-01 -1.69970E-02
+3.69000E+10 -1.94501E-01 -8.36019E-03 -3.91352E-01 +6.82272E-01 -3.16010E-01 +7.80976E-01 -6.31009E-02 +4.91857E-02
+3.70000E+10 +9.94314E-02 -1.60783E-01 -4.13618E-01 +7.59843E-01 -2.77400E-01 +8.66776E-01 -8.48810E-03 +4.64977E-02
+3.71000E+10 +6.28148E-02 -5.84631E-02 -4.85870E-01 +8.39509E-01 -4.29209E-01 +8.40806E-01 +5.72461E-02 +5.91447E-02
+3.72000E+10 -9.06919E-02 -3.89392E-03 -3.47701E-01 +9.25657E-01 -2.95348E-01 +8.97740E-01 +5.40089E-03 -1.98309E-01
+3.73000E+10 +4.49281E-02 +5.15552E-02 -3.51374E-01 +9.59760E-01 -2.59609E-01 +8.20920E-01 +4.02371E-02 -8.48082E-02
+3.74000E+10 +4.82742E-02 -2.50718E-01 -2.57441E-01 +9.32128E-01 -3.68505E-01 +8.89561E-01 -1.52830E-01 +8.15643E-02
+3.75000E+10 -4.74133E-03 -3.51276E-02 -2.87028E-01 +8.03736E-01 -4.20738E-01 +8.85666E-01 -6.37417E-02 +1.83252E-01
+3.76000E+10 -6.25094E-03 -8.68138E-02 -4.49684E-01 +9.23193E-01 -3.10003E-01 +9.13517E-01 +1.13298E-01 -1.63958E-01
+3.77000E+10 +8.64451E-02 -2.17981E-01 -4.63977E-01 +9.71512E-01 -2.80874E-01 +9.45526E-01 -3.49706E-02 -1.37515E-02
+3.78000E+10 +5.40856E-02 -3.18555E-04 -3.94996E-01 +8.89809E-01 -3.49849E-01 +9.04389E-01 -2.13536E-02 +5.18207E-03
+3.79000E+10 +3.69699E-02 -1.50797E-01 -2.46974E-01 +8.22553E-01 -2.49304E-01 +8.61987E-01 +5.25823E-02 -4.96755E-02
+3.80000E+10 -7.19739E-02 -1.75413E-01 -3.16995E-01 +9.18557E-01 -2.33394E-01 +1.06804E+00 -2.98406E-02 -9.20217E-02
+3.81000E+10 +8.45249E-02 -2.34663E-02 -1.99556E-01 +9.33350E-01 -3.05945E-01 +1.00393E+00 -1.03784E-01 +2.81841E-02
+3.82000E+10 +9.80995E-02 -2.25905E-01 +6.92345E-02 +8.63068E-01 -1.67204E-01 +8.70480E-01 -3.99842E-02 -1.35475E-01
+3.83000E+10 +1.00457E-01 -1.75629E-02 -2.64851E-01 +8.89150E-01 -3.26077E-01 +9.30737E-01 +1.78152E-01 +7.64915E-02
+3.84000E+10 +2.86509E-02 -3.25951E-01 -3.76272E-01 +9.36073E-01 -3.10771E-01 +1.09227E+00 +9.72265E-02 -3.20328E-02
+3.85000E+10 -8.95351E-02 -1.76751E-01 -1.64809E-01 +9.33178E-01 -2.16214E-01 +9.05172E-01 -2.37079E-01 -1.55829E-02
+3.86000E+10 +3.28992E-02 +2.41906E-02 -1.05742E-01 +7.71607E-01 -2.45239E-01 +1.04693E+00 +2.00605E-03 +2.00702E-01
+3.87000E+10 +4.05951E-02 -2.08056E-01 -2.17495E-01 +9.19799E-01 -1.86125E-01 +8.52583E-01 -1.08298E-03 -1.76335E-01
+3.88000E+10 +3.13701E-02 -8.09334E-02 -4.78210E-01 +8.63986E-01 -2.24552E-01 +6.72202E-01 +7.43029E-02 +8.46237E-03
+3.89000E+10 -1.22285E-01 +3.69710E-02 -1.07058E-01 +7.39621E-01 -1.71421E-01 +8.87602E-01 +1.58558E-01 +3.06241E-02
+3.90000E+10 +1.15241E-02 -1.50510E-01 -3.14473E-01 +1.06559E+00 -1.16071E-01 +8.94121E-01 +9.53495E-03 +8.34133E-03
+3.91000E+10 +2.32603E-01 -1.31910E-01 -1.21940E-02 +1.02304E+00 -2.56641E-01 +1.11760E+00 -1.16415E-01 +1.35286E-01
+3.92000E+10 +2.60678E-02 -3.18366E-01 -1.12165E-01 +7.94853E-01 -1.28645E-01 +9.37983E-01 +2.83214E-02 -1.02405E-01
+3.93000E+10 +2.05685E-01 -8.43420E-03 -8.20621E-02 +1.03877E+00 -6.89165E-02 +1.18866E+00 +4.42814E-02 +2.01477E-01
+3.94000E+10 -4.27662E-02 -1.22649E-01 -2.29236E-01 +9.13836E-01 -9.00859E-02 +8.77750E-01 -8.27841E-02 +3.51998E-02
+3.95000E+10 +1.44775E-01 -2.43017E-01 -3.55262E-02 +1.22544E+00 -5.56960E-02 +9.11963E-01 +1.29240E-01 -5.99830E-02
+3.96000E+10 -3.23492E-02 -1.30040E-01 -1.01412E-01 +8.33863E-01 -1.46739E-01 +6.81016E-01 -7.39094E-02 +1.24393E-01
+3.97000E+10 -6.60316E-02 -1.35867E-02 -3.20113E-01 +8.78049E-01 +3.85315E-02 +9.25913E-01 -1.05497E-01 -6.87506E-02
+3.98000E+10 +4.49237E-02 +1.90708E-02 -1.01689E-01 +1.00476E+00 -5.62237E-02 +8.98738E-01 -9.19223E-02 -1.49659E-01
+3.99000E+10 +1.56806E-01 -2.51999E-01 -1.11548E-01 +1.06415E+00 -9.99042E-02 +8.35232E-01 +1.15787E-01 -1.24426E-01
+4.00000E+10 +2.36147E-01 -1.51188E-01 +1.13435E-01 +1.04580E+00 -9.66406E-02 +9.71176E-01 +1.24127E-01 +4.97364E-02
