! Quiescent point : V1=-1.65691E-02 I1=+1.31515E-03 V2=-2.27301E-02 I2=-1.28967E-03
! Pulsed point : V1=-1.66812E-02 I1=+1.31656E-03 V2=-2.26876E-02 I2=-1.28755E-03
! Period : +2.00000E-04
! Input Supply timing : delay=+1.60000E-06 width=+2.20000E-06
! Output Supply timing : delay=+1.70000E-06 width=+2.00000E-06
! VNA timing : delay=+2.40000E-06 width=+1.10000E-06
# Hz S RI R 50
+2.70000E+10 +2.88457E-02 -9.51379E-02 -9.26226E-01 +8.29764E-02 -9.39417E-01 +2.97636E-02 -4.93921E-02 -1.58111E-01
+2.71000E+10 +3.27087E-03 -4.67646E-02 -8.98097E-01 +4.98076E-02 -9.38266E-01 +2.79528E-02 -1.40821E-02 -1.69249E-01
+2.72000E+10 +1.05813E-02 -1.56731E-01 -9.12773E-01 +2.51154E-02 -9.69569E-01 +1.43091E-02 -5.33673E-02 -1.36772E-01
+2.73000E+10 +2.53627E-02 -1.84305E-01 -9.25117E-01 +8.53574E-02 -9.69680E-01 +1.35973E-02 -3.78047E-02 -4.85556E-02
+2.74000E+10 -3.61291E-03 -7.89616E-02 -8.76659E-01 +1.06109E-01 -9.15972E-01 +5.53991E-02 +1.33549E-02 -5.82950E-02
+2.75000E+10 +1.44307E-03 -1.84791E-01 -9.01019E-01 +1.18114E-01 -9.69519E-01 +8.19779E-02 -9.42719E-02 -5.61782E-02
+2.76000E+10 +2.85983E-02 -8.04938E-02 -9.53789E-01 +7.63322E-02 -9.21630E-01 +4.28337E-02 +5.15875E-02 -1.51883E-01
+2.77000E+10 -2.69462E-03 -1.66756E-01 -1.00873E+00 +7.13582E-02 -9.42252E-01 +9.97720E-02 -4.65277E-02 -1.72088E-01
+2.78000E+10 -1.82461E-02 -8.49306E-02 -8.86451E-01 +5.56798E-02 -9.37653E-01 +1.60018E-01 -1.28480E-02 -1.31287E-01
+2.79000E+10 +6.77505E-03 -1.67581E-01 -9.52897E-01 +6.74785E-02 -9.32565E-01 +1.05058E-01 -2.81887E-02 -1.22908E-01
+2.80000E+10 -4.98977E-02 -9.96828E-02 -9.68387E-01 +8.14858E-02 -9.65534E-01 +1.67990E-01 -5.67567E-02 -1.33016E-01
+2.81000E+10 -8.08296E-02 -1.20299E-01 -8.98443E-01 +1.39717E-01 -8.72848E-01 +1.14305E-01 +7.12616E-03 -1.42657E-01
+2.82000E+10 +7.51166E-02 -5.87147E-02 -9.62784E-01 +1.46414E-01 -9.68664E-01 +2.11022E-01 -8.54649E-02 -2.14888E-01
+2.83000E+10 -6.73861E-03 -1.47030E-01 -8.90823E-01 +1.00080E-01 -9.39014E-01 +1.80462E-01 -4.16672E-02 -1.13961E-01
+2.84000E+10 -6.00760E-03 -4.12714E-02 -8.44523E-01 +1.51565E-01 -8.61328E-01 +8.31504E-02 -5.87704E-03 -1.73994E-01
+2.85000E+10 +3.18456E-02 -2.25589E-01 -8.71646E-01 +2.00238E-01 -1.01689E+00 +2.38793E-01 -6.64045E-02 -3.51124E-02
+2.86000E+10 +1.79534E-03 -1.84100E-01 -9.37693E-01 +1.69140E-01 -8.44020E-01 +2.01162E-01 -9.01257E-02 -6.63103E-02
+2.87000E+10 -2.36030E-02 -7.85359E-02 -9.90549E-01 +1.62976E-01 -8.79546E-01 +2.27919E-01 +7.17883E-04 -2.47217E-02
+2.88000E+10 +5.02856E-03 -1.07644E-01 -8.69831E-01 +1.80870E-01 -9.03298E-01 +2.21210E-01 -4.57339E-03 -1.35970E-01
+2.89000E+10 -3.38294E-03 -1.01130E-01 -9.00873E-01 +2.15795E-01 -9.09088E-01 +1.72787E-01 -2.77621E-02 -1.13496E-01
+2.90000E+10 +1.58642E-02 -1.60144E-01 -9.80707E-01 +2.73224E-01 -9.52689E-01 +1.86522E-01 +9.91685E-03 -1.28321E-01
+2.91000E+10 -3.80426E-03 -1.42253E-01 -8.65764E-01 +3.10709E-01 -9.56180E-01 +3.05118E-01 -3.35661E-02 -1.37833E-01
+2.92000E+10 +2.87804E-03 -1.58320E-01 -8.66213E-01 +2.61776E-01 -8.72942E-01 +2.81793E-01 -6.10363E-02 -9.91068E-02
+2.93000E+10 -2.76039E-02 -1.47740E-01 -9.15084E-01 +2.08938E-01 -9.40749E-01 +3.00591E-01 -1.03790E-01 -4.00448E-02
+2.94000E+10 -2.69330E-03 -1.42248E-01 -8.38203E-01 +3.10112E-01 -9.62739E-01 +2.51965E-01 -6.48366E-02 -6.74302E-02
+2.95000E+10 +3.70766E-02 -1.92506E-01 -8.83072E-01 +2.80841E-01 -8.60663E-01 +2.83518E-01 -6.38577E-02 -1.34942E-01
+2.96000E+10 -4.51366E-02 -7.02067E-02 -8.24053E-01 +2.50610E-01 -8.90514E-01 +3.00149E-01 -2.24293E-02 -1.45049E-01
+2.97000E+10 -1.13016E-01 -1.53196E-01 -8.16197E-01 +3.27850E-01 -8.73900E-01 +2.87703E-01 -6.91710E-03 -9.74988E-02
+2.98000E+10 -8.27787E-02 -7.89329E-02 -8.98860E-01 +2.42661E-01 -8.38107E-01 +3.09783E-01 +5.13439E-02 -9.46368E-02
+2.99000E+10 +3.14022E-02 -1.61453E-01 -8.75424E-01 +4.15442E-01 -8.84793E-01 +3.45617E-01 -1.30436E-01 -2.23796E-01
+3.00000E+10 +7.04187E-02 -1.55199E-01 -8.57698E-01 +3.55785E-01 -1.00370E+00 +4.32038E-01 -5.42690E-02 -1.12947E-01
+3.01000E+10 +7.19377E-03 -1.01797E-01 -8.40257E-01 +3.46382E-01 -9.64409E-01 +3.46816E-01 -1.89647E-02 -1.50119E-01
+3.02000E+10 -2.07744E-02 -1.70487E-01 -9.39248E-01 +3.31480E-01 -8.60508E-01 +3.25132E-01 -1.92715E-02 -2.10842E-01
+3.03000E+10 -7.51054E-02 +2.79406E-03 -8.68433E-01 +3.16617E-01 -8.01618E-01 +3.24072E-01 +4.02218E-02 -1.18783E-01
+3.04000E+10 +5.66744E-02 -1.60536E-01 -8.27415E-01 +3.36568E-01 -8.85521E-01 +3.07418E-01 -7.55448E-02 -1.56074E-01
+3.05000E+10 -6.30668E-02 -1.10262E-01 -7.83776E-01 +4.41113E-01 -8.50665E-01 +4.10351E-01 -2.87772E-02 -1.31238E-01
+3.06000E+10 -8.10539E-02 -1.03440E-01 -8.21483E-01 +4.29212E-01 -7.86317E-01 +3.25462E-01 -1.17048E-02 -1.55116E-01
+3.07000E+10 -1.39207E-01 -1.34496E-01 -7.46384E-01 +3.45464E-01 -8.38164E-01 +4.23926E-01 -6.37318E-02 -1.57194E-01
+3.08000E+10 -1.28481E-01 -1.39739E-01 -7.76960E-01 +2.92746E-01 -9.16323E-01 +3.18450E-01 -3.87834E-02 -1.10987E-01
+3.09000E+10 -1.14406E-02 -2.30042E-01 -8.94247E-01 +4.54570E-01 -9.09547E-01 +4.56175E-01 -8.44621E-02 -1.48122E-01
+3.10000E+10 -4.77664E-02 -1.55488E-01 -7.95691E-01 +3.81827E-01 -8.15934E-01 +3.99532E-01 +5.34361E-03 -1.76975E-01
+3.11000E+10 +1.51651E-03 -4.49881E-02 -8.71907E-01 +5.32698E-01 -8.40951E-01 +4.86822E-01 -7.33182E-02 -1.97651E-01
+3.12000E+10 -6.25299E-02 -2.57608E-01 -8.64064E-01 +5.78363E-01 -8.15568E-01 +4.84487E-01 -9.66298E-02 -2.38569E-01
+3.13000E+10 -9.51218E-02 -1.67903E-01 -8.05443E-01 +4.62558E-01 -8.80170E-01 +5.24177E-01 +8.62198E-02 -7.81547E-02
+3.14000E+10 -1.56762E-01 -8.90495E-02 -8.44311E-01 +4.66986E-01 -7.54138E-01 +4.73558E-01 +3.66652E-02 -1.98830E-01
+3.15000E+10 -2.36131E-02 -1.60342E-01 -8.96843E-01 +3.90034E-01 -8.99853E-01 +5.66572E-01 -7.77331E-02 -2.16863E-01
+3.16000E+10 +4.12126E-03 -6.87644E-02 -8.54408E-01 +5.31843E-01 -8.53436E-01 +4.37411E-01 -8.31672E-02 -1.60870E-01
+3.17000E+10 +3.57675E-02 -1.78897E-01 -7.99265E-01 +5.19414E-01 -8.21794E-01 +5.20930E-01 -4.94165E-02 -1.27393E-01
+3.18000E+10 -9.68861E-02 -1.50357E-01 -8.45772E-01 +4.77878E-01 -7.69381E-01 +4.76399E-01 -6.02725E-02 -9.50880E-02
+3.19000E+10 -3.28525E-02 -1.41995E-01 -8.08684E-01 +4.67825E-01 -7.82693E-01 +5.65915E-01 -7.87071E-02 -4.87141E-02
+3.20000E+10 -1.79458E-01 -1.88967E-01 -7.36399E-01 +5.50468E-01 -7.47147E-01 +5.49947E-01 -3.85435E-02 -1.66464E-01
+3.21000E+10 +3.90067E-02 -1.11921E-01 -8.05743E-01 +5.28383E-01 -8.47229E-01 +5.22481E-01 +2.47943E-02 -2.71062E-01
+3.22000E+10 -5.49310E-02 -1.56480E-01 -6.98419E-01 +5.33923E-01 -8.57112E-01 +5.67619E-01 -1.04908E-01 -1.76989E-01
+3.23000E+10 +2.17479E-02 -2.34838E-01 -7.97892E-01 +6.30163E-01 -6.86897E-01 +4.60258E-01 -1.11167E-01 -1.63708E-01
+3.24000E+10 +1.16944E-02 -2.29991E-01 -7.27341E-01 +5.09512E-01 -6.96891E-01 +5.64678E-01 -5.89704E-02 -2.06984E-01
+3.25000E+10 -9.13505E-02 -1.57553E-01 -8.06578E-01 +6.08414E-01 -7.68553E-01 +6.51781E-01 -7.80693E-02 -4.37910E-02
+3.26000E+10 -8.67789E-02 -1.85062E-01 -6.55620E-01 +6.13886E-01 -7.42883E-01 +5.77521E-01 -6.43044E-02 -1.56476E-01
+3.27000E+10 +8.57245E-02 -4.70844E-02 -7.79719E-01 +6.54794E-01 -6.45540E-01 +7.18250E-01 -2.71347E-02 -1.50007E-01
+3.28000E+10 -4.25614E-02 -6.24749E-02 -6.47513E-01 +5.41373E-01 -7.44338E-01 +7.28975E-01 -1.16196E-01 -2.14258E-01
+3.29000E+10 -3.27098E-02 -1.87951E-01 -7.40775E-01 +6.30402E-01 -8.38346E-01 +6.89375E-01 -2.16297E-01 -1.75396E-01
+3.30000E+10 -9.99058E-02 -1.27832E-01 -5.48511E-01 +4.72734E-01 -7.51651E-01 +7.72180E-01 -3.15002E-02 -2.31501E-01
+3.31000E+10 -2.26559E-02 -6.68260E-02 -6.78709E-01 +6.61657E-01 -6.80981E-01 +5.51443E-01 -1.21363E-01 -1.65903E-01
+3.32000E+10 -1.37419E-01 -2.11552E-01 -6.57059E-01 +5.43121E-01 -6.11590E-01 +5.89231E-01 -1.70528E-02 -1.97455E-01
+3.33000E+10 -4.58824E-02 -1.18501E-01 -7.36995E-01 +8.07811E-01 -7.45375E-01 +6.67806E-01 -7.97943E-02 -1.38377E-01
+3.34000E+10 -2.98694E-02 -1.68003E-01 -7.60130E-01 +6.02190E-01 -6.81795E-01 +6.26238E-01 +1.82098E-03 -9.71842E-02
+3.35000E+10 -6.25621E-02 -1.21269E-01 -6.34053E-01 +6.15498E-01 -5.68691E-01 +5.53934E-01 -1.00889E-01 -1.59785E-01
+3.36000E+10 -1.34103E-01 -1.47293E-01 -6.12134E-01 +6.13420E-01 -5.98405E-01 +6.02990E-01 -8.76626E-02 -1.95169E-01
+3.37000E+10 -1.81052E-01 -2.10916E-01 -6.91943E-01 +7.19355E-01 -6.30209E-01 +5.50507E-01 -1.18155E-01 -1.34392E-01
+3.38000E+10 -1.49904E-01 -1.16719E-01 -5.96708E-01 +5.50022E-01 -6.84726E-01 +6.46267E-01 -9.85909E-02 -2.55241E-01
+3.39000E+10 -1.94870E-01 -2.09138E-01 -6.40674E-01 +5.76762E-01 -5.95250E-01 +6.36266E-01 -4.60082E-02 -7.91472E-02
+3.40000E+10 -7.51840E-02 -1.61314E-01 -6.37458E-01 +6.86748E-01 -5.31671E-01 +7.41025E-01 -1.04410E-01 -2.42307E-01
+3.41000E+10 -1.04408E-01 -1.23746E-01 -6.02377E-01 +6.62151E-01 -6.31864E-01 +5.87558E-01 -9.02708E-02 -1.49375E-01
+3.42000E+10 -1.67200E-01 -1.46714E-01 -6.08655E-01 +7.69025E-01 -4.81102E-01 +6.96537E-01 -1.68405E-01 -1.60490E-01
+3.43000E+10 -9.02256E-02 -1.94733E-01 -6.09266E-01 +7.57701E-01 -5.12257E-01 +6.28413E-01 -4.64878E-02 -2.17157E-01
+3.44000E+10 -1.07209E-01 -3.00225E-02 -6.44928E-01 +6.24352E-01 -5.95893E-01 +7.97686E-01 -1.45992E-01 -1.71171E-01
+3.45000E+10 -2.32998E-01 -8.75758E-02 -5.09669E-01 +7.05567E-01 -6.30676E-01 +6.87108E-01 -1.48322E-01 -1.71913E-01
+3.46000E+10 -3.84963E-02 -3.85896E-02 -5.52094E-01 +7.30964E-01 -5.17038E-01 +7.26998E-01 -1.94566E-01 -1.67222E-01
+3.47000E+10 -9.86097E-02 -5.22857E-02 -4.36089E-01 +7.00294E-01 -6.11692E-01 +8.13567E-01 -1.00519E-01 -2.42315E-01
+3.48000E+10 -5.85944E-02 -1.84911E-01 -5.61302E-01 +7.43799E-01 -6.56070E-01 +7.64404E-01 -5.36357E-02 -9.14885E-02
+3.49000E+10 -8.31298E-02 -1.56437E-01 -6.59978E-01 +8.47753E-01 -4.87832E-01 +6.30487E-01 -1.46604E-01 -2.13100E-01
+3.50000E+10 -1.19989E-01 -1.78473E-01 -5.60291E-01 +7.99757E-01 -4.48299E-01 +7.61079E-01 -8.85939E-02 -8.84896E-02
+3.51000E+10 -1.25474E-01 -1.68772E-01 -3.91396E-01 +7.31650E-01 -5.34255E-01 +8.08107E-01 -1.59832E-01 -1.01468E-01
+3.52000E+10 -1.94448E-01 -2.97297E-02 -5.43343E-01 +8.98439E-01 -4.39796E-01 +6.09093E-01 -2.47398E-01 -1.52417E-01
+3.53000E+10 +2.71760E-02 -8.09706E-02 -5.59854E-01 +7.06785E-01 -5.08356E-01 +7.60558E-01 -1.43787E-01 -1.80409E-01
+3.54000E+10 -1.60298E-01 -1.43975E-01 -5.11334E-01 +7.53899E-01 -4.41435E-01 +7.78029E-01 -1.69270E-03 -2.16179E-01
+3.55000E+10 -1.09557E-01 -2.51113E-01 -4.43582E-01 +8.47761E-01 -4.88576E-01 +7.28409E-01 -2.31949E-02 -8.20589E-02
+3.56000E+10 -1.11982E-01 -1.06281E-01 -6.14851E-01 +8.81877E-01 -5.55450E-01 +8.78855E-01 +1.12655E-01 -1.04763E-01
+3.57000E+10 -1.25345E-01 -3.07125E-02 -4.79052E-01 +8.95912E-01 -4.71825E-01 +7.10373E-01 -7.51929E-02 -1.09509E-01
+3.58000E+10 -5.42825E-02 -1.39634E-01 -3.11229E-01 +7.15175E-01 -6.36208E-01 +7.87282E-01 -5.17072E-02 -3.08597E-01
+3.59000E+10 -4.85240E-02 -1.75864E-01 -5.43253E-01 +7.97071E-01 -5.22800E-01 +8.32573E-01 -1.19418E-01 -3.04558E-02
+3.60000E+10 -1.06185E-01 -1.80719E-01 -4.28427E-01 +8.69709E-01 -4.37431E-01 +7.99775E-01 -1.55450E-01 -1.67170E-01
+3.61000E+10 -2.95810E-01 -7.83254E-02 -4.34979E-01 +7.72078E-01 -2.81212E-01 +6.53008E-01 +1.17148E-02 -5.97431E-02
+3.62000E+10 +1.67799E-02 +2.72691E-02 -4.79416E-01 +7.95372E-01 -3.87880E-01 +8.02509E-01 -1.01978E-01 -1.21490E-01
+3.63000E+10 -1.10637E-01 -9.59374E-02 -5.49356E-01 +8.51788E-01 -4.30622E-01 +8.26451E-01 +2.69581E-01 -1.68004E-01
+3.64000E+10 -1.73428E-02 -3.81994E-02 -5.16297E-01 +9.00249E-01 -2.31925E-01 +7.68300E-01 -1.72143E-01 -2.60460E-01
+3.65000E+10 -8.40570E-02 -9.72377E-02 -3.94157E-01 +9.77176E-01 -3.25667E-01 +7.32140E-01 -1.20786E-01 -2.51716E-01
+3.66000E+10 +1.31524E-02 -2.02612E-01 -4.57105E-01 +8.37556E-01 -4.64230E-01 +9.41955E-01 +3.86092E-02 -1.76156E-01
+3.67000E+10 -1.21165E-01 -4.25273E-02 -5.05431E-01 +8.13855E-01 -3.71170E-01 +7.88453E-01 -4.97847E-02 -1.61767E-02
+3.68000E+10 -1.63747E-01 -5.23106E-02 -5.42484E-01 +7.21986E-01 -1.43925E-01 +9.59514E-01 -1.45082E-01 -2.09987E-01
+3.69000E+10 -1.32980E-01 -6.70068E-02 -3.21531E-01 +7.83909E-01 -2.96752E-01 +8.71839E-01 -1.29032E-01 -7.09830E-02
+3.70000E+10 +4.66765E-02 -3.55764E-01 -4.96124E-01 +1.12621E+00 -3.12658E-01 +7.68383E-01 -4.59323E-02 -1.55264E-01
+3.71000E+10 -1.60500E-01 -7.64511E-02 -3.32555E-01 +7.39487E-01 -3.45918E-01 +6.88952E-01 -1.29409E-01 -7.82896E-02
+3.72000E+10 -1.44507E-01 -8.36557E-02 -4.11750E-01 +7.83831E-01 -2.39243E-01 +8.11776E-01 -1.96435E-01 -2.01233E-01
+3.73000E+10 -1.58960E-01 -2.29492E-01 -2.35798E-01 +9.88988E-01 -1.84196E-01 +8.19208E-01 -2.91769E-01 -5.83106E-02
+3.74000E+10 -2.05565E-01 -5.80330E-02 -4.01555E-01 +7.63267E-01 -2.61371E-01 +9.24680E-01 +3.32312E-02 -2.95100E-01
+3.75000E+10 -6.02515E-02 -7.01353E-03 -2.38202E-01 +7.06458E-01 -3.12685E-01 +7.63852E-01 -1.74227E-02 -7.82541E-02
+3.76000E+10 -6.70081E-02 -1.85309E-01 -2.71185E-01 +7.65081E-01 -3.30074E-01 +1.01769E+00 -5.37749E-03 -1.90322E-01
+3.77000E+10 -2.43606E-01 -1.25135E-01 -4.19180E-01 +7.72836E-01 -2.77224E-01 +8.49073E-01 -1.85622E-01 -2.11945E-01
+3.78000E+10 -7.14321E-02 -1.05120E-02 -2.79905E-01 +8.56594E-01 -9.87304E-02 +9.34633E-01 +6.20022E-02 -3.35546E-01
+3.79000E+10 -1.96091E-01 -1.27807E-02 -3.71468E-01 +8.12795E-01 -2.00565E-01 +8.67490E-01 -2.81067E-01 -7.67120E-02
+3.80000E+10 -1.15879E-01 +7.69782E-02 -2.17304E-01 +9.11278E-01 -2.88350E-01 +1.12865E+00 -2.18940E-02 -2.91448E-01
+3.81000E+10 -3.48324E-02 +7.34405E-02 -7.49900E-02 +7.94375E-01 -2.47710E-01 +7.55411E-01 +8.85055E-02 -2.86523E-01
+3.82000E+10 -6.78302E-02 -9.66641E-02 -7.45474E-02 +8.97101E-01 -8.88725E-02 +7.55437E-01 -1.79949E-01 -2.09665E-01
+3.83000E+10 +1.20059E-01 -1.36774E-01 -3.78903E-01 +9.98504E-01 -3.22244E-01 +8.75232E-01 -1.27944E-01 -1.23763E-01
+3.84000E+10 -7.38223E-02 -1.50828E-01 -2.49449E-01 +1.03870E+00 -1.47949E-01 +9.23187E-01 -1.58752E-01 -2.71836E-01
+3.85000E+10 -1.20593E-01 -1.97856E-01 -1.96420E-01 +7.66764E-01 -3.90934E-01 +7.30836E-01 -1.05306E-01 +3.96223E-02
+3.86000E+10 +1.31088E-01 +5.63785E-02 -3.00437E-01 +8.72285E-01 -1.72509E-01 +1.09540E+00 -1.12247E-01 -2.80952E-01
+3.87000E+10 -1.49877E-01 -7.19346E-02 -2.07726E-01 +8.96574E-01 -6.69421E-02 +8.11917E-01 +4.25839E-02 -1.99236E-01
+3.88000E+10 -2.22944E-01 +1.05661E-01 -1.51262E-01 +8.79567E-01 -1.56344E-01 +1.10542E+00 -9.21823E-02 -1.14863E-01
+3.89000E+10 -1.01840E-01 +9.23919E-02 -1.96022E-01 +8.76263E-01 -1.49772E-01 +8.46601E-01 +3.60717E-02 -8.81693E-02
+3.90000E+10 -3.01932E-01 -3.58558E-02 -9.08435E-02 +9.18229E-01 -2.87647E-01 +9.06525E-01 -7.34764E-03 -2.18537E-01
+3.91000E+10 -2.68307E-01 -1.45497E-01 -2.36677E-01 +1.02210E+00 -1.04929E-01 +8.89081E-01 -2.40579E-01 +2.05045E-01
+3.92000E+10 -5.74330E-02 -1.55837E-02 -1.38822E-01 +1.00057E+00 -4.60467E-02 +1.04261E+00 -2.56668E-01 -3.21423E-01
+3.93000E+10 -7.98300E-02 -8.31702E-02 -1.77662E-01 +9.80443E-01 -1.46999E-01 +1.13180E+00 +6.46020E-02 -1.60464E-01
+3.94000E+10 -6.31710E-02 -1.15081E-01 -2.43905E-02 +9.11670E-01 +4.48517E-02 +1.02411E+00 -2.43580E-01 +9.48896E-02
+3.95000E+10 -2.35817E-01 +2.89653E-02 -8.06141E-02 +9.98107E-01 -2.27120E-01 +9.19642E-01 -3.73777E-01 -6.38618E-02
+3.96000E+10 -2.37939E-01 -1.97430E-01 -1.42718E-01 +1.10225E+00 -6.01386E-02 +8.19235E-01 -1.18838E-01 -1.24499E-01
+3.97000E+10 -1.22439E-01 +1.17350E-01 -2.36790E-01 +1.01720E+00 -1.36592E-02 +8.32734E-01 -1.66473E-01 -1.97588E-01
+3.98000E+10 -2.03316E-02 -6.16999E-02 -9.31266E-02 +9.37929E-01 -4.25857E-01 +8.83924E-01 -1.95316E-01 -2.51021E-01
+3.99000E+10 -7.85221E-02 +6.58193E-02 +2.49019E-01 +9.77755E-01 +7.37372E-02 +9.02113E-01 -6.35043E-02 -2.02780E-01
+4.00000E+10 -7.38490E-02 -2.75640E-03 +3.35152E-02 +8.68106E-01 +6.07955E-02 +9.67684E-01 -4.85019E-02 -5.12649E-02
