!Keysight Technologies,N5247B,MY61255062,A.19.80.06
!Date: Thursday, May 21, 2026 12:30:33
!Correction: S11(Cdelta 2-Port  ) 
!S21(Cdelta 2-Port  ) 
!S12(Cdelta 2-Port  ) 
!S22(Cdelta 2-Port  ) 
!S2P File: Measurements: S11, S21, S12, S22:
# Hz S  dB   R 50
1000000000 -25.460703 -18.177496 -0.47837725 -21.160177 -0.48077375 -21.177942 -25.674746 -18.145172
1027500000 -25.424849 -19.272997 -0.48096055 -21.726461 -0.48379856 -21.739424 -25.673441 -18.800673
1055000000 -25.433735 -20.007053 -0.48526096 -22.304474 -0.48902473 -22.318365 -25.697309 -20.059708
1082500000 -25.384687 -20.378748 -0.4888877 -22.865137 -0.49295473 -22.868629 -25.735382 -20.320395
1110000000 -25.426683 -21.516462 -0.49394596 -23.432575 -0.49693269 -23.442568 -25.819967 -21.183741
1137500000 -25.429142 -21.815207 -0.49874124 -23.960215 -0.50191402 -23.974796 -25.86652 -20.964361
1165000000 -25.302956 -21.828979 -0.49949104 -24.508572 -0.50293839 -24.522102 -25.821178 -21.349339
1192500000 -25.193413 -22.711206 -0.49960718 -25.062933 -0.50332671 -25.081236 -25.790302 -21.583578
1220000000 -25.121063 -23.577503 -0.49896425 -25.635473 -0.50410813 -25.646069 -25.737137 -22.508135
1247500000 -25.146629 -24.466272 -0.50185561 -26.210072 -0.50595546 -26.232895 -25.674011 -23.366693
1275000000 -25.180794 -24.976709 -0.50409126 -26.779791 -0.50790137 -26.792404 -25.64805 -24.121098
1302500000 -25.241045 -25.614716 -0.51382059 -27.355362 -0.51616824 -27.370127 -25.796957 -25.733463
1330000000 -25.206337 -25.626638 -0.51386136 -27.873831 -0.5167411 -27.892296 -25.745043 -25.270424
1357500000 -25.141518 -26.141502 -0.51254952 -28.42753 -0.51717585 -28.447298 -25.705198 -25.785349
1385000000 -25.06477 -27.17816 -0.51224369 -28.98872 -0.51624548 -29.012913 -25.692904 -26.508263
1412500000 -25.05731 -28.337545 -0.51451558 -29.556978 -0.52002746 -29.582136 -25.710886 -26.864721
1440000000 -25.04142 -28.743799 -0.51814729 -30.116142 -0.52152807 -30.133684 -25.653898 -27.159405
1467500000 -24.999611 -29.651873 -0.5177381 -30.680708 -0.52260703 -30.696075 -25.607389 -27.87678
1495000000 -24.987963 -30.348013 -0.52011937 -31.24332 -0.52449584 -31.261356 -25.558588 -28.515993
1522500000 -24.973427 -30.474863 -0.52041435 -31.788691 -0.52521271 -31.802704 -25.498337 -28.840181
1550000000 -24.916239 -31.091831 -0.52019083 -32.354786 -0.5232529 -32.376083 -25.456705 -29.75106
1577500000 -24.884466 -31.830206 -0.5241369 -32.94157 -0.52899605 -32.958595 -25.486032 -31.100653
1605000000 -24.868622 -32.130806 -0.52588522 -33.48251 -0.53000897 -33.509163 -25.463125 -31.295763
1632500000 -24.929806 -32.551273 -0.52907526 -34.044838 -0.53358811 -34.057724 -25.501112 -32.013203
1660000000 -24.827848 -33.302887 -0.52755272 -34.591499 -0.53275692 -34.606422 -25.4571 -32.500614
1687500000 -24.771856 -34.033573 -0.5281564 -35.154751 -0.5327912 -35.172962 -25.374346 -33.102295
1715000000 -24.778431 -34.791691 -0.52746856 -35.717014 -0.53282541 -35.737366 -25.374496 -33.889961
1742500000 -24.711489 -35.795353 -0.52808475 -36.279644 -0.53312218 -36.294598 -25.381578 -34.583862
1770000000 -24.670519 -36.545254 -0.52922028 -36.846054 -0.53507298 -36.862259 -25.356983 -35.224037
1797500000 -24.665932 -37.001823 -0.5320096 -37.41193 -0.53599423 -37.433933 -25.334311 -35.814472
1825000000 -24.637444 -37.70808 -0.53256321 -37.974949 -0.53782791 -37.990623 -25.337999 -36.506264
1852500000 -24.586395 -38.585346 -0.53321058 -38.537029 -0.53803623 -38.553295 -25.321693 -37.242496
1880000000 -24.585512 -39.320305 -0.53347898 -39.105278 -0.53918785 -39.125351 -25.316422 -38.01609
1907500000 -24.559992 -39.788296 -0.53525978 -39.679749 -0.5410285 -39.690849 -25.280478 -38.86422
1935000000 -24.476736 -40.499664 -0.53621268 -40.242802 -0.5409587 -40.260593 -25.261274 -39.447399
1962500000 -24.492908 -41.329704 -0.53716874 -40.812889 -0.54332662 -40.829834 -25.259254 -40.380402
1990000000 -24.558794 -42.0247 -0.54210645 -41.383446 -0.54706442 -41.402164 -25.295387 -41.308151
2017500000 -24.524124 -42.705414 -0.54390579 -41.930012 -0.5503453 -41.9506 -25.353569 -41.842037
2045000000 -24.49782 -43.520813 -0.54502726 -42.490517 -0.54995513 -42.506706 -25.335066 -42.28035
2072500000 -24.508852 -44.152428 -0.54710847 -43.05201 -0.55126274 -43.074406 -25.317263 -42.861771
2100000000 -24.449287 -44.727104 -0.54647201 -43.616676 -0.55261838 -43.624718 -25.298006 -43.379929
2127500000 -24.450403 -45.51992 -0.54771781 -44.181366 -0.5537498 -44.200783 -25.293699 -44.114998
2155000000 -24.458689 -46.2108 -0.54888636 -44.747406 -0.55585343 -44.763214 -25.291382 -44.912548
2182500000 -24.411705 -46.897758 -0.55038673 -45.306747 -0.55616534 -45.323223 -25.269627 -45.552208
2210000000 -24.382296 -47.540642 -0.55205339 -45.865822 -0.55732149 -45.891754 -25.24752 -46.08952
2237500000 -24.397707 -48.322338 -0.55376273 -46.431221 -0.56001258 -46.456879 -25.254705 -46.899578
2265000000 -24.379402 -48.901329 -0.55548924 -46.998383 -0.56191182 -47.018059 -25.274183 -47.611767
2292500000 -24.35075 -49.758274 -0.55647486 -47.562531 -0.56331146 -47.586964 -25.233126 -48.091888
2320000000 -24.397926 -50.429981 -0.55851209 -48.139572 -0.56470805 -48.144485 -25.234303 -48.957058
2347500000 -24.368158 -51.086685 -0.56259304 -48.679153 -0.56652468 -48.697033 -25.27265 -49.550064
2375000000 -24.304359 -51.710682 -0.56328851 -49.245865 -0.56890011 -49.268837 -25.256044 -50.313099
2402500000 -24.362652 -52.45031 -0.56394571 -49.813976 -0.57097566 -49.830795 -25.227987 -51.091362
2430000000 -24.368425 -53.179947 -0.56510723 -50.369335 -0.57140559 -50.387314 -25.235027 -51.544064
2457500000 -24.318739 -53.75761 -0.56793851 -50.93679 -0.57366639 -50.949123 -25.223743 -52.451942
2485000000 -24.341745 -54.576916 -0.56897599 -51.505604 -0.57595998 -51.518261 -25.19412 -53.224358
2512500000 -24.401316 -55.175522 -0.57158893 -52.064194 -0.57873625 -52.077015 -25.242929 -53.897007
2540000000 -24.324694 -56.07045 -0.5733639 -52.611828 -0.57913262 -52.630653 -25.265604 -54.783875
2567500000 -24.307493 -56.76606 -0.57559645 -53.173969 -0.58075976 -53.196434 -25.245798 -55.550674
2595000000 -24.362711 -57.248493 -0.57612878 -53.732712 -0.58350891 -53.750313 -25.25119 -55.870205
2622500000 -24.365696 -58.027752 -0.57714772 -54.292015 -0.58462763 -54.3036 -25.255678 -56.618145
2650000000 -24.307423 -59.009979 -0.57901311 -54.851963 -0.58394325 -54.868839 -25.269329 -57.538445
2677500000 -24.306139 -59.356621 -0.57948905 -55.403683 -0.58573008 -55.423279 -25.269638 -58.027088
2705000000 -24.314428 -59.744968 -0.58122075 -55.963631 -0.58836561 -55.993351 -25.292446 -58.691032
2732500000 -24.309563 -60.68721 -0.58274949 -56.53521 -0.58988649 -56.554783 -25.311548 -59.354473
2760000000 -24.28875 -61.365677 -0.58401287 -57.091885 -0.59115487 -57.12418 -25.32222 -59.9067
2787500000 -24.310997 -61.604477 -0.58616501 -57.662888 -0.59448469 -57.672173 -25.312849 -60.855232
2815000000 -24.343283 -62.398785 -0.58691019 -58.218758 -0.59514165 -58.23455 -25.354767 -61.301632
2842500000 -24.305941 -63.446678 -0.58959472 -58.777576 -0.59670645 -58.79216 -25.339798 -62.003025
2870000000 -24.334148 -63.517422 -0.59263521 -59.32798 -0.59717005 -59.349155 -25.326969 -62.809902
2897500000 -24.359421 -64.020012 -0.59382069 -59.901184 -0.59990257 -59.911388 -25.345818 -63.44698
2925000000 -24.32428 -65.372871 -0.59452713 -60.448761 -0.60144746 -60.463566 -25.394138 -63.767963
2952500000 -24.302925 -65.754356 -0.59684962 -61.010052 -0.60213697 -61.015892 -25.425999 -64.811028
2980000000 -24.337698 -66.000298 -0.59847212 -61.570313 -0.60414964 -61.583206 -25.405481 -65.745926
3007500000 -24.330551 -67.090347 -0.59974718 -62.124466 -0.60558587 -62.138096 -25.458632 -65.976784
3035000000 -24.344734 -67.760338 -0.60171413 -62.682102 -0.60703957 -62.693554 -25.461983 -66.72126
3062500000 -24.359066 -67.770287 -0.60245126 -63.236618 -0.60734415 -63.243538 -25.435364 -67.551483
3090000000 -24.372841 -68.864189 -0.60324949 -63.804165 -0.60946405 -63.816998 -25.478733 -67.698059
3117500000 -24.347004 -70.114777 -0.60502881 -64.359322 -0.61177069 -64.377846 -25.569368 -68.576347
3145000000 -24.353476 -69.985893 -0.6065377 -64.920174 -0.61139822 -64.927223 -25.546669 -69.784866
3172500000 -24.322575 -70.61705 -0.60946614 -65.465279 -0.61294144 -65.482155 -25.521349 -69.876236
3200000000 -24.326529 -71.920517 -0.61057103 -66.03051 -0.61605799 -66.043732 -25.641092 -70.175789
3227500000 -24.330839 -71.936684 -0.61216527 -66.580086 -0.61877888 -66.5979 -25.668032 -71.361282
3255000000 -24.302937 -72.529137 -0.61234593 -67.133644 -0.61967742 -67.161598 -25.582645 -71.848175
3282500000 -24.314974 -73.478287 -0.613671 -67.690758 -0.61854094 -67.70871 -25.719421 -71.677773
3310000000 -24.307413 -73.810455 -0.61549425 -68.25116 -0.62199038 -68.261528 -25.789833 -73.253845
3337500000 -24.285032 -74.427422 -0.6154629 -68.798889 -0.6224618 -68.810547 -25.666391 -74.286743
3365000000 -24.337763 -75.489174 -0.61799002 -69.361237 -0.62435782 -69.375931 -25.720427 -73.471016
3392500000 -24.290157 -75.557274 -0.61652994 -69.901978 -0.62439638 -69.915337 -25.899603 -73.891098
3420000000 -24.313469 -76.225365 -0.61805475 -70.455406 -0.62409568 -70.468765 -25.838604 -76.377235
3447500000 -24.407925 -77.079674 -0.61798972 -71.009926 -0.6234926 -71.028038 -25.703823 -75.935646
3475000000 -24.28208 -77.697845 -0.61869198 -71.564087 -0.62542224 -71.588058 -25.918579 -75.231995
3502500000 -24.319439 -78.408043 -0.61835355 -72.125587 -0.62488925 -72.149376 -25.980608 -77.358154
3530000000 -24.410114 -78.494331 -0.61705029 -72.700401 -0.62519807 -72.710167 -25.830738 -78.321144
3557500000 -24.309635 -79.497513 -0.61771542 -73.258163 -0.62510061 -73.273819 -25.868919 -77.368431
3585000000 -24.334654 -80.356903 -0.61890274 -73.821205 -0.62571287 -73.835899 -26.032709 -78.199387
3612500000 -24.420078 -80.342522 -0.61964816 -74.38414 -0.62644362 -74.403244 -26.029554 -80.302719
3640000000 -24.350203 -81.113174 -0.62074047 -74.952278 -0.62640506 -74.962219 -25.946629 -79.577354
3667500000 -24.312321 -82.337723 -0.62155133 -75.512527 -0.6278277 -75.53138 -25.989407 -79.831894
3695000000 -24.443016 -82.122154 -0.6211015 -76.070457 -0.6286118 -76.089676 -26.082975 -81.655014
3722500000 -24.403521 -82.799202 -0.62505573 -76.638481 -0.63030303 -76.636818 -26.061596 -81.821968
3750000000 -24.324293 -83.959061 -0.62658834 -77.194878 -0.63160574 -77.209641 -26.091398 -81.507027
3777500000 -24.421463 -83.741867 -0.62720621 -77.749718 -0.6333617 -77.762703 -26.161682 -83.04335
3805000000 -24.445427 -84.181007 -0.62833983 -78.305191 -0.63394308 -78.321747 -26.216858 -83.77961
3832500000 -24.368729 -85.564621 -0.6302495 -78.867729 -0.63556719 -78.882095 -26.176138 -83.366982
3860000000 -24.368332 -85.549423 -0.63138753 -79.41993 -0.63702613 -79.441788 -26.257734 -84.675949
3887500000 -24.47917 -85.317055 -0.63258845 -79.988205 -0.63925332 -80.009262 -26.348576 -85.393951
3915000000 -24.440205 -86.906303 -0.63561481 -80.535744 -0.63967443 -80.557564 -26.323156 -85.238518
3942500000 -24.314684 -87.631912 -0.63541287 -81.104378 -0.64218444 -81.107224 -26.320002 -86.183151
3970000000 -24.386576 -86.854652 -0.63616776 -81.65947 -0.64283961 -81.662521 -26.482567 -86.901253
3997500000 -24.518974 -87.988152 -0.63748538 -82.202118 -0.64239419 -82.216766 -26.440237 -87.082069
4025000000 -24.397945 -89.55323 -0.63726479 -82.770042 -0.64279699 -82.783661 -26.411757 -88.0298
4052500000 -24.375238 -88.929871 -0.63700366 -83.320137 -0.64371014 -83.339844 -26.602388 -88.52916
4080000000 -24.533726 -88.926697 -0.6366443 -83.885437 -0.64395666 -83.897301 -26.557953 -88.972176
4107500000 -24.490038 -91.139938 -0.63692331 -84.458664 -0.64469737 -84.458374 -26.571564 -89.979324
4135000000 -24.364395 -91.215378 -0.63958085 -85.00592 -0.64454031 -85.027748 -26.661465 -89.714088
4162500000 -24.463432 -90.508064 -0.63814586 -85.55751 -0.64558393 -85.580452 -26.663448 -90.47567
4190000000 -24.556492 -92.031258 -0.64028364 -86.135574 -0.64629638 -86.144318 -26.692009 -91.225876
4217500000 -24.450087 -92.991051 -0.64096791 -86.689392 -0.64718926 -86.709534 -26.752352 -90.874611
4245000000 -24.451103 -92.429047 -0.64049482 -87.25074 -0.64792424 -87.262039 -26.816683 -91.861397
4272500000 -24.56144 -93.139351 -0.64223152 -87.818657 -0.64850575 -87.829781 -26.86647 -92.711876
4300000000 -24.530008 -94.356956 -0.64496464 -88.378128 -0.6517418 -88.383728 -26.893215 -92.431534
4327500000 -24.520605 -94.421463 -0.64500427 -88.931107 -0.65242249 -88.952393 -26.970337 -93.386818
4355000000 -24.594538 -94.510765 -0.6480763 -89.49527 -0.65301663 -89.513885 -27.016743 -94.200218
4382500000 -24.618746 -95.501396 -0.64856499 -90.064156 -0.6541065 -90.065125 -27.024693 -94.148857
4410000000 -24.582762 -96.311951 -0.64929116 -90.617836 -0.65521681 -90.63224 -27.049751 -94.67778
4437500000 -24.628376 -96.097954 -0.65037137 -91.171951 -0.65698618 -91.186958 -27.137547 -95.502396
4465000000 -24.656364 -96.809021 -0.6508612 -91.737389 -0.65808731 -91.752724 -27.151569 -95.46489
4492500000 -24.647831 -97.797012 -0.65201008 -92.289627 -0.6589874 -92.309532 -27.232321 -96.015785
4520000000 -24.717051 -97.925735 -0.65396804 -92.852699 -0.66042113 -92.857292 -27.316067 -97.023422
4547500000 -24.703552 -98.105438 -0.65458411 -93.417595 -0.66169882 -93.417526 -27.28484 -96.925392
4575000000 -24.705486 -99.107437 -0.65606362 -93.971466 -0.66353393 -93.980156 -27.390751 -97.106155
4602500000 -24.737703 -99.549355 -0.65710968 -94.526978 -0.66316509 -94.542519 -27.480534 -98.458519
4630000000 -24.743555 -99.534027 -0.65770113 -95.080368 -0.66442102 -95.094276 -27.493042 -98.474335
4657500000 -24.748058 -100.38596 -0.65975606 -95.636261 -0.66578496 -95.655075 -27.47587 -98.515129
4685000000 -24.811522 -100.94732 -0.66115862 -96.204933 -0.66669273 -96.212852 -27.615473 -99.551819
4712500000 -24.829903 -101.1409 -0.66064656 -96.755951 -0.66787267 -96.768593 -27.627249 -99.775909
4740000000 -24.841246 -101.36676 -0.66199732 -97.316734 -0.66960979 -97.327118 -27.667019 -99.461823
4767500000 -24.901318 -102.54303 -0.66332674 -97.870255 -0.66845417 -97.886604 -27.77383 -100.69637
4795000000 -24.894926 -102.72711 -0.66489643 -98.438011 -0.6704489 -98.447449 -27.819084 -101.28984
4822500000 -24.914753 -102.88991 -0.66317171 -98.995926 -0.67310399 -99.002327 -27.835125 -100.97388
4850000000 -24.964458 -103.83916 -0.66717809 -99.54126 -0.67309761 -99.567856 -27.945793 -101.5927
4877500000 -25.001509 -104.14617 -0.66718775 -100.10571 -0.67355949 -100.11226 -28.005318 -102.4257
4905000000 -25.020107 -103.96226 -0.6676541 -100.66747 -0.67392832 -100.66915 -27.948391 -102.23841
4932500000 -25.036573 -104.87904 -0.66901791 -101.2248 -0.67562097 -101.24337 -28.072674 -102.31673
4960000000 -25.097017 -105.80581 -0.67237926 -101.78595 -0.67806381 -101.79433 -28.160824 -103.47919
4987500000 -25.097422 -105.60513 -0.67049116 -102.34053 -0.67812008 -102.35246 -28.170517 -103.49341
5015000000 -25.116304 -106.19987 -0.67103976 -102.89243 -0.67899352 -102.91226 -28.235216 -103.55255
5042500000 -25.188023 -107.1753 -0.67402899 -103.45226 -0.68091708 -103.4682 -28.429848 -104.68237
5070000000 -25.203072 -107.09709 -0.67470318 -104.00514 -0.68080139 -104.02694 -28.352657 -104.67027
5097500000 -25.239132 -107.5231 -0.67633629 -104.56543 -0.68190068 -104.58104 -28.405109 -104.48907
5125000000 -25.262125 -108.38753 -0.6778205 -105.13131 -0.68331653 -105.13486 -28.56933 -105.69478
5152500000 -25.275093 -108.21888 -0.67909157 -105.69552 -0.68415761 -105.69277 -28.530792 -105.74198
5180000000 -25.325182 -108.56987 -0.67803234 -106.24451 -0.68496102 -106.25449 -28.518875 -105.07304
5207500000 -25.332657 -109.46958 -0.68031424 -106.79755 -0.68699396 -106.81404 -28.753147 -106.19053
5235000000 -25.34553 -109.58733 -0.68061763 -107.35666 -0.68904638 -107.3747 -28.735441 -106.93703
5262500000 -25.383177 -109.93636 -0.68185467 -107.91782 -0.68986946 -107.92299 -28.696808 -106.40723
5290000000 -25.43136 -110.52025 -0.68301111 -108.4658 -0.69030768 -108.47642 -28.897881 -107.01862
5317500000 -25.440676 -110.91974 -0.68514532 -109.02827 -0.69041872 -109.03774 -29.006115 -108.06728
5345000000 -25.523245 -110.97242 -0.68608958 -109.57855 -0.69166338 -109.59995 -28.890726 -107.59267
5372500000 -25.568151 -111.77417 -0.68641639 -110.13168 -0.69286686 -110.15076 -29.046535 -107.41566
5400000000 -25.55093 -112.09528 -0.68706495 -110.69189 -0.69619989 -110.69842 -29.23918 -109.0684
5427500000 -25.639288 -112.35471 -0.68730658 -111.24814 -0.6960656 -111.25535 -29.084042 -109.06388
5455000000 -25.679792 -112.77567 -0.68906552 -111.80669 -0.69566298 -111.81567 -29.138601 -108.57214
5482500000 -25.658905 -113.45561 -0.69137412 -112.35838 -0.69640321 -112.37363 -29.455433 -109.25528
5510000000 -25.699625 -113.60468 -0.69156229 -112.91116 -0.69726294 -112.92385 -29.385424 -110.00825
5537500000 -25.796144 -113.88847 -0.6923188 -113.46646 -0.69858259 -113.48984 -29.353603 -109.44937
5565000000 -25.784155 -114.57835 -0.69298464 -114.01569 -0.69862241 -114.03362 -29.61488 -109.87146
5592500000 -25.819895 -115.06103 -0.69400078 -114.58641 -0.69932753 -114.58808 -29.708139 -110.8875
5620000000 -25.942301 -115.24218 -0.69422793 -115.14315 -0.70026422 -115.15938 -29.615152 -110.60234
5647500000 -25.884892 -115.5407 -0.69473094 -115.68801 -0.69969916 -115.70721 -29.747734 -110.90117
5675000000 -25.897484 -115.8383 -0.69621873 -116.24589 -0.70302498 -116.26336 -29.941408 -111.11069
5702500000 -26.050516 -116.32637 -0.69568187 -116.80036 -0.70138788 -116.81719 -29.899891 -111.17356
5730000000 -26.041241 -116.62843 -0.69804358 -117.36491 -0.70368177 -117.37894 -29.970724 -110.98837
5757500000 -26.01158 -116.85205 -0.69835639 -117.9166 -0.70227391 -117.92899 -30.205261 -111.9527
5785000000 -26.169857 -116.98946 -0.6990788 -118.47899 -0.70466751 -118.49195 -30.259636 -111.73018
5812500000 -26.208204 -117.46823 -0.69912046 -119.027 -0.70444161 -119.04597 -30.30089 -111.3806
5840000000 -26.141483 -117.81395 -0.70020521 -119.5866 -0.70508254 -119.60518 -30.453346 -112.23074
5867500000 -26.29323 -117.99112 -0.70022404 -120.14574 -0.70669997 -120.15807 -30.582384 -112.23334
5895000000 -26.382574 -118.727 -0.70170522 -120.69804 -0.70590627 -120.70981 -30.621708 -112.07886
5922500000 -26.298988 -118.85588 -0.70116127 -121.25315 -0.70792097 -121.26147 -30.717844 -112.66462
5950000000 -26.417767 -118.77688 -0.70178157 -121.80964 -0.70701677 -121.81834 -30.912622 -112.57021
5977500000 -26.545732 -119.36163 -0.70360357 -122.35751 -0.71009761 -122.37006 -31.02186 -111.94305
6005000000 -26.486862 -120.04588 -0.70474792 -122.91551 -0.70932889 -122.92976 -31.008169 -112.86555
6032500000 -26.483734 -119.68465 -0.70580757 -123.47168 -0.70918018 -123.47933 -31.230831 -112.67226
6060000000 -26.724546 -119.78204 -0.70659947 -124.0303 -0.71049821 -124.04421 -31.403255 -111.2097
6087500000 -26.653559 -120.57247 -0.70523262 -124.59025 -0.7110604 -124.59358 -31.347651 -112.23767
6115000000 -26.605644 -120.18706 -0.70569217 -125.14983 -0.71131808 -125.15491 -31.49497 -113.07798
6142500000 -26.891853 -120.32809 -0.70781678 -125.70765 -0.71179318 -125.71642 -31.739336 -110.7784
6170000000 -26.951048 -121.29215 -0.70711058 -126.26131 -0.71473855 -126.27016 -31.781002 -111.66962
6197500000 -26.727976 -121.23746 -0.70800233 -126.81979 -0.71425158 -126.82917 -31.89979 -113.04401
6225000000 -26.930265 -120.63527 -0.70987999 -127.36774 -0.71465772 -127.37746 -32.029438 -109.65425
6252500000 -27.187458 -121.61017 -0.70936239 -127.92207 -0.71552473 -127.93025 -32.065201 -109.60941
6280000000 -26.841408 -122.21175 -0.7093063 -128.46466 -0.71471202 -128.48701 -32.14703 -112.48757
6307500000 -26.949284 -120.68614 -0.7098437 -129.02814 -0.71677816 -129.03847 -32.271645 -109.23115
6335000000 -27.413559 -120.88453 -0.70939898 -129.57353 -0.71596307 -129.58711 -32.309628 -107.11467
6362500000 -27.143805 -122.56309 -0.70990556 -130.14151 -0.71600521 -130.1391 -32.536842 -110.97939
6390000000 -26.960388 -121.65479 -0.70820129 -130.68629 -0.71521771 -130.7095 -32.629803 -108.02495
6417500000 -27.475737 -120.25851 -0.71033269 -131.25046 -0.71369624 -131.26572 -32.553814 -105.08466
6445000000 -27.497702 -122.40471 -0.70936453 -131.81062 -0.71555281 -131.82378 -32.881813 -109.14024
6472500000 -27.073835 -122.93741 -0.7085371 -132.36362 -0.71531963 -132.38727 -32.771805 -107.67192
6500000000 -27.413996 -120.58547 -0.70925999 -132.92964 -0.71428633 -132.94508 -32.675953 -103.0118
6527500000 -27.693716 -121.39825 -0.70843017 -133.48331 -0.71434551 -133.50258 -33.204395 -106.21413
6555000000 -27.400772 -123.88979 -0.70616877 -134.04305 -0.71503824 -134.06042 -33.312042 -107.10674
6582500000 -27.360893 -121.60652 -0.70745116 -134.59656 -0.71308184 -134.63368 -32.681046 -102.2706
6610000000 -27.732433 -120.78531 -0.70714748 -135.16811 -0.71374261 -135.18294 -33.3349 -102.16922
6637500000 -27.678953 -123.40385 -0.70920515 -135.72536 -0.71612734 -135.73897 -33.615479 -105.68834
6665000000 -27.536615 -122.73434 -0.70911491 -136.29298 -0.7154997 -136.30048 -32.80714 -102.39131
6692500000 -27.683115 -120.67305 -0.70799685 -136.84224 -0.71305925 -136.86803 -33.061611 -98.328079
6720000000 -27.832026 -122.59713 -0.70813733 -137.39789 -0.71461558 -137.42273 -33.991863 -100.64639
6747500000 -27.705177 -122.8072 -0.7063089 -137.97395 -0.71332008 -137.98926 -33.305233 -102.67935
6775000000 -27.759729 -121.4278 -0.7090826 -138.52995 -0.71424973 -138.55058 -32.835754 -98.163261
6802500000 -27.929146 -121.86243 -0.71042627 -139.10274 -0.71518964 -139.12263 -33.753178 -95.21167
6830000000 -27.866995 -122.64208 -0.70873153 -139.67676 -0.71530682 -139.68849 -34.067749 -99.66851
6857500000 -27.848928 -121.97049 -0.71040124 -140.2347 -0.71599698 -140.26358 -33.191936 -98.087334
6885000000 -28.105309 -121.62323 -0.71073234 -140.78911 -0.71573412 -140.81703 -33.440891 -93.889328
6912500000 -28.045971 -121.62951 -0.71009547 -141.34924 -0.71665728 -141.37482 -34.138702 -95.043182
6940000000 -28.016268 -122.10406 -0.7118575 -141.93076 -0.71981651 -141.93777 -33.438713 -96.641991
6967500000 -28.209843 -121.22321 -0.71490461 -142.48289 -0.71915781 -142.49811 -33.114586 -93.065369
6995000000 -28.189388 -121.22728 -0.7140587 -143.03908 -0.71991485 -143.06502 -33.819748 -90.369995
7022500000 -28.126873 -122.01582 -0.71634555 -143.6098 -0.72296757 -143.63142 -33.80809 -92.999771
7050000000 -28.375179 -121.19764 -0.71664965 -144.18134 -0.72186244 -144.19859 -33.202705 -91.885399
7077500000 -28.316708 -120.63535 -0.71652478 -144.72395 -0.72540873 -144.75732 -33.495518 -87.449226
7105000000 -28.240639 -121.46605 -0.7166521 -145.28946 -0.72428614 -145.31476 -33.797916 -88.478584
7132500000 -28.445696 -120.74937 -0.71795774 -145.84166 -0.7268945 -145.87537 -33.180984 -89.213753
7160000000 -28.439226 -119.46127 -0.71945965 -146.42032 -0.72626752 -146.43884 -33.164223 -85.557121
7187500000 -28.277979 -120.50053 -0.71965331 -146.97992 -0.72840101 -147.00049 -33.533863 -84.227364
7215000000 -28.413523 -120.67438 -0.723647 -147.54973 -0.72934645 -147.56012 -33.223328 -86.376961
7242500000 -28.496231 -118.92895 -0.72336811 -148.10149 -0.73101246 -148.1225 -32.809017 -85.018379
7270000000 -28.364897 -119.5367 -0.72516584 -148.66454 -0.73101741 -148.66737 -33.342548 -82.552666
7297500000 -28.455481 -120.37717 -0.72618216 -149.22101 -0.73262584 -149.23822 -33.192234 -84.12426
7325000000 -28.592922 -118.89491 -0.727525 -149.77382 -0.73525882 -149.79707 -32.663029 -83.488396
7352500000 -28.459032 -118.58505 -0.72763425 -150.32884 -0.73456043 -150.35588 -32.950802 -80.421684
7380000000 -28.492842 -119.93687 -0.72946405 -150.90399 -0.73652965 -150.93448 -33.136944 -80.405174
7407500000 -28.644995 -118.68697 -0.72754943 -151.4593 -0.73569423 -151.48215 -32.561333 -81.632721
7435000000 -28.544704 -117.90773 -0.73116899 -152.0256 -0.73691362 -152.03815 -32.513474 -79.221962
7462500000 -28.437616 -118.96493 -0.73057848 -152.58862 -0.73811555 -152.60632 -32.736511 -78.134193
7490000000 -28.583706 -118.33038 -0.7330156 -153.13705 -0.74086118 -153.16565 -32.216972 -80.217049
7517500000 -28.596394 -116.79179 -0.7345745 -153.70731 -0.74123794 -153.729 -32.101734 -78.064293
7545000000 -28.484856 -117.95387 -0.7361809 -154.26685 -0.74256974 -154.2941 -32.434669 -76.639885
7572500000 -28.499542 -117.96719 -0.73925954 -154.8358 -0.74421996 -154.85675 -32.063484 -78.97596
7600000000 -28.600666 -116.51345 -0.74084556 -155.39803 -0.74698573 -155.40985 -31.810394 -78.253441
7627500000 -28.44593 -117.13145 -0.7411105 -155.95213 -0.74702966 -155.97772 -32.108433 -75.733093
7655000000 -28.426346 -117.47718 -0.74585605 -156.49217 -0.75205469 -156.52864 -31.899 -77.141853
7682500000 -28.580702 -116.45319 -0.74584806 -157.06606 -0.75342524 -157.0864 -31.552929 -77.815147
7710000000 -28.520857 -116.8343 -0.74676865 -157.60414 -0.75341171 -157.64088 -31.798126 -75.400581
7737500000 -28.407557 -117.59093 -0.75041044 -158.16898 -0.75619876 -158.18806 -31.750553 -76.298668
7765000000 -28.496758 -116.87394 -0.75147545 -158.72151 -0.75709879 -158.74136 -31.298592 -77.121925
7792500000 -28.563805 -116.32368 -0.75018954 -159.27773 -0.75800151 -159.30026 -31.572639 -74.440811
7820000000 -28.46343 -116.99902 -0.75279844 -159.83673 -0.75941586 -159.84897 -31.619812 -75.024086
7847500000 -28.488955 -116.58031 -0.75482672 -160.38356 -0.76181495 -160.39772 -31.084972 -76.218666
7875000000 -28.663061 -116.19962 -0.75487202 -160.93419 -0.76076651 -160.96037 -31.147169 -74.443367
7902500000 -28.527067 -116.49004 -0.75575882 -161.50191 -0.76118785 -161.52448 -31.467529 -73.706497
7930000000 -28.399916 -116.06553 -0.75456154 -162.05783 -0.76183128 -162.06778 -30.797794 -74.93441
7957500000 -28.660099 -115.38831 -0.75695676 -162.61026 -0.76555985 -162.61836 -30.918955 -73.722069
7985000000 -28.612587 -115.55813 -0.7599203 -163.1657 -0.76503062 -163.18129 -31.188488 -72.817169
8012500000 -28.392593 -115.75311 -0.75851595 -163.72014 -0.76636112 -163.7464 -30.579014 -74.33007
8040000000 -28.637924 -115.32983 -0.75888246 -164.28203 -0.76707208 -164.30186 -30.453691 -72.567108
8067500000 -28.649878 -114.89817 -0.76119494 -164.83319 -0.76728183 -164.84782 -31.025463 -72.385429
8095000000 -28.349623 -114.90269 -0.76269084 -165.39737 -0.76973534 -165.40489 -30.363338 -73.98217
8122500000 -28.551182 -114.98235 -0.76402527 -165.94699 -0.76961637 -165.97832 -30.016537 -72.154236
8150000000 -28.711561 -113.76622 -0.76428854 -166.50175 -0.77128273 -166.51607 -30.760275 -71.142914
8177500000 -28.36862 -113.96897 -0.7666496 -167.07442 -0.77236867 -167.09608 -30.183767 -74.840202
8205000000 -28.442682 -114.58236 -0.76804513 -167.62128 -0.77365685 -167.66013 -29.410158 -71.308578
8232500000 -28.742708 -113.69806 -0.76876318 -168.18227 -0.77426386 -168.21156 -30.50177 -68.769409
8260000000 -28.330339 -112.56327 -0.77022767 -168.76102 -0.77704263 -168.78436 -30.277246 -76.493172
8287500000 -28.319328 -113.96056 -0.77529478 -169.32565 -0.7799871 -169.3456 -28.745857 -72.608421
8315000000 -28.73782 -112.80794 -0.77760208 -169.88985 -0.78307492 -169.8873 -29.997316 -64.977798
8342500000 -28.276167 -111.63113 -0.78219056 -170.45702 -0.78613049 -170.4673 -30.792263 -77.93869
8370000000 -28.142546 -113.48647 -0.78527373 -171.00632 -0.79380882 -171.02623 -28.061689 -75.679771
8397500000 -28.769585 -112.28583 -0.79381073 -171.56187 -0.79998398 -171.58548 -28.698458 -60.598839
8425000000 -28.101986 -110.45999 -0.80559069 -172.10262 -0.81064594 -172.13847 -32.395172 -72.841629
8452500000 -28.021261 -113.68491 -0.81279349 -172.62094 -0.81716377 -172.6523 -27.838497 -87.419449
8480000000 -28.717915 -110.01946 -0.82748497 -173.10312 -0.83391052 -173.11821 -25.992844 -61.930878
8507500000 -27.72274 -109.67594 -0.84430373 -173.53363 -0.84962302 -173.55515 -31.870522 -34.553055
8535000000 -28.238672 -115.33788 -0.83725256 -173.90678 -0.84543484 -173.93495 -31.494423 -115.79063
8562500000 -28.165125 -106.24698 -0.81913358 -174.19783 -0.82535076 -174.2128 -23.722023 -88.691185
8590000000 -27.403656 -115.04216 -0.7803542 -174.57228 -0.78798574 -174.59543 -23.909719 -45.582748
8617500000 -28.995794 -113.24799 -0.73069394 -175.20549 -0.7396794 -175.22466 -31.25351 -7.1413054
8645000000 -27.399992 -109.01817 -0.70177644 -176.0231 -0.70943767 -176.06516 -29.883003 -123.74871
8672500000 -27.93634 -116.56178 -0.69385982 -176.79466 -0.69846159 -176.83635 -24.155783 -86.345886
8700000000 -28.560539 -107.61626 -0.70135504 -177.4975 -0.70747858 -177.51726 -25.336733 -49.00853
8727500000 -27.565733 -111.20573 -0.72183985 -178.20612 -0.72784084 -178.21916 -32.711796 -62.927464
8755000000 -28.122797 -114.19994 -0.72867286 -178.80708 -0.73450434 -178.84384 -27.463964 -94.682335
8782500000 -28.045126 -108.02737 -0.74133587 -179.35536 -0.74341565 -179.37285 -25.510408 -68.585411
8810000000 -27.64901 -110.33453 -0.75342864 -179.92479 -0.75941306 -179.93896 -28.577501 -59.669243
8837500000 -27.973579 -112.69725 -0.75611991 179.49907 -0.76203525 179.45987 -28.878143 -85.78772
8865000000 -27.833799 -108.98595 -0.75831866 178.97565 -0.76350367 178.94272 -26.156525 -76.168694
8892500000 -27.595791 -109.20016 -0.76452744 178.43169 -0.77096218 178.41249 -27.215023 -64.66835
8920000000 -27.76572 -111.46591 -0.76789528 177.86069 -0.7752521 177.83206 -28.585859 -77.407654
8947500000 -27.648836 -109.40261 -0.76972145 177.3152 -0.77371687 177.28305 -26.700857 -78.810295
8975000000 -27.521921 -108.33733 -0.77204585 176.76984 -0.77658725 176.75034 -26.609358 -68.931664
9002500000 -27.630121 -110.43353 -0.77400708 176.20512 -0.78217566 176.18797 -27.985617 -74.061859
9030000000 -27.520098 -110.2209 -0.77563924 175.65175 -0.78239447 175.6373 -26.950895 -80.157913
9057500000 -27.387794 -108.40669 -0.77588993 175.10457 -0.78202564 175.07553 -26.256918 -72.405792
9085000000 -27.440313 -109.9927 -0.78048927 174.55241 -0.78357095 174.52881 -27.335415 -72.953606
9112500000 -27.362286 -110.24129 -0.78073186 173.98639 -0.78620863 173.95641 -26.997236 -79.700226
9140000000 -27.262632 -108.44085 -0.78080684 173.44708 -0.78710657 173.41634 -26.125858 -75.52829
9167500000 -27.290689 -109.05178 -0.78346276 172.89613 -0.78860056 172.86702 -26.720598 -73.218399
9195000000 -27.232637 -110.32411 -0.78682697 172.3286 -0.79013735 172.30063 -26.922747 -79.230263
9222500000 -27.140079 -108.84789 -0.78682113 171.79192 -0.78983182 171.7475 -26.122238 -77.459564
9250000000 -27.103689 -108.73589 -0.78771758 171.22231 -0.79267681 171.19212 -26.192709 -74.509949
9277500000 -27.071621 -110.13448 -0.78678668 170.65303 -0.79321963 170.62926 -26.654961 -78.161446
9305000000 -27.004675 -109.00521 -0.78585875 170.11778 -0.79318577 170.08582 -26.094564 -79.449165
9332500000 -26.994734 -108.07898 -0.78881913 169.55925 -0.79546028 169.52934 -25.895065 -76.410744
9360000000 -26.914656 -109.76511 -0.79169238 169.00464 -0.79531294 168.97055 -26.262487 -78.010468
9387500000 -26.818775 -109.78203 -0.79036993 168.44218 -0.79457092 168.40776 -25.990728 -80.011559
9415000000 -26.817755 -108.39133 -0.78889829 167.88274 -0.79788435 167.85539 -25.695021 -78.128922
9442500000 -26.780342 -109.26604 -0.79208285 167.31876 -0.79680884 167.30045 -25.898956 -78.791016
9470000000 -26.699858 -109.97848 -0.79276818 166.7729 -0.79897606 166.7466 -25.879416 -80.825378
9497500000 -26.69376 -108.5038 -0.79508257 166.21826 -0.7992785 166.18948 -25.52874 -79.77832
9525000000 -26.642334 -109.18304 -0.79521686 165.66542 -0.80238163 165.65071 -25.568592 -79.546127
9552500000 -26.542768 -110.33692 -0.79689592 165.11302 -0.80229533 165.08315 -25.705078 -81.32653
9580000000 -26.531557 -109.40559 -0.79783303 164.54625 -0.80320001 164.51401 -25.438894 -81.278397
9607500000 -26.507048 -109.13805 -0.79883134 164.00203 -0.80277956 163.97505 -25.29961 -80.587349
9635000000 -26.34156 -110.25266 -0.79977387 163.43976 -0.80380177 163.41882 -25.453295 -81.982994
9662500000 -26.369526 -109.89266 -0.79933387 162.88382 -0.80435687 162.86646 -25.308367 -82.634377
9690000000 -26.322626 -109.00568 -0.80097407 162.32634 -0.8074038 162.29832 -25.095428 -82.225365
9717500000 -26.177052 -109.85332 -0.80167949 161.77637 -0.80702317 161.75078 -25.147045 -82.914192
9745000000 -26.174337 -110.47428 -0.80251491 161.21173 -0.80784899 161.18973 -25.203518 -83.417694
9772500000 -26.215952 -109.6662 -0.8028481 160.65623 -0.81032711 160.63893 -24.949907 -83.611282
9800000000 -26.031118 -109.93935 -0.8047049 160.10048 -0.80983329 160.06992 -24.858286 -84.102791
9827500000 -25.96007 -110.87054 -0.8030113 159.54099 -0.8093698 159.53006 -24.999441 -84.820076
9855000000 -26.051739 -109.97989 -0.80514604 158.99379 -0.81038731 158.9716 -24.804323 -84.692207
9882500000 -25.913782 -110.19241 -0.80642843 158.42601 -0.81256348 158.40002 -24.629848 -84.962051
9910000000 -25.769985 -111.07959 -0.80791104 157.88292 -0.81041163 157.86176 -24.821325 -85.611336
9937500000 -25.901358 -110.65258 -0.80801266 157.33127 -0.81308758 157.29189 -24.704132 -85.996986
9965000000 -25.804739 -110.2323 -0.80813396 156.75914 -0.81436044 156.73227 -24.453533 -86.22406
9992500000 -25.632744 -111.44718 -0.80784708 156.22247 -0.81255412 156.19273 -24.535109 -86.704651
10020000000 -25.72488 -111.36713 -0.80943221 155.66158 -0.81353617 155.63962 -24.635941 -87.060326
10047500000 -25.667507 -110.64793 -0.80953264 155.09921 -0.81571484 155.07422 -24.322552 -87.664383
10075000000 -25.464329 -111.59975 -0.80975503 154.54498 -0.8162874 154.53328 -24.298162 -88.15435
10102500000 -25.556349 -112.0648 -0.81172085 154.01118 -0.81592941 153.96231 -24.462116 -88.387207
10130000000 -25.562536 -111.25681 -0.81171489 153.44957 -0.8163293 153.40915 -24.199312 -88.686295
10157500000 -25.334641 -111.97309 -0.81258565 152.88074 -0.81589413 152.85953 -24.121849 -89.086876
10185000000 -25.314365 -112.89053 -0.81133986 152.34035 -0.81822592 152.29787 -24.394114 -89.681854
10212500000 -25.45558 -111.94306 -0.81221551 151.76501 -0.81713217 151.74098 -24.154766 -89.959969
10240000000 -25.17778 -112.24566 -0.81530225 151.20641 -0.81978977 151.1768 -23.887238 -90.529205
10267500000 -25.132013 -113.30746 -0.81319529 150.66895 -0.8185578 150.61858 -24.120405 -90.571579
10295000000 -25.311346 -112.88 -0.81405908 150.08748 -0.82019246 150.06506 -24.043873 -90.892914
10322500000 -25.142496 -112.93289 -0.81580043 149.53778 -0.82126158 149.49669 -23.793766 -91.764236
10350000000 -24.960482 -113.46537 -0.81437886 148.98776 -0.81913263 148.96242 -23.967556 -91.824989
10377500000 -25.128363 -113.49091 -0.81469953 148.42792 -0.82211423 148.40433 -23.937393 -92.53196
10405000000 -25.049564 -113.7512 -0.81698442 147.86882 -0.82207984 147.8246 -23.639606 -92.890427
10432500000 -24.786547 -114.2024 -0.8175109 147.30597 -0.82376426 147.25946 -23.659475 -92.917824
10460000000 -24.910166 -114.47047 -0.81977129 146.74519 -0.82505906 146.70862 -23.821669 -93.740524
10487500000 -24.932158 -114.42403 -0.81996858 146.17377 -0.82612687 146.13255 -23.530447 -94.12381
10515000000 -24.679876 -115.05147 -0.82240856 145.62646 -0.8268621 145.58669 -23.481436 -94.442062
10542500000 -24.672319 -115.08567 -0.82090509 145.07355 -0.82757145 145.04289 -23.688675 -94.847176
10570000000 -24.778128 -115.49158 -0.82199192 144.51295 -0.82832414 144.48993 -23.475737 -95.309738
10597500000 -24.572412 -115.51974 -0.82352644 143.94376 -0.8303175 143.92029 -23.302429 -95.758362
10625000000 -24.456768 -115.63072 -0.82477075 143.39621 -0.8292709 143.37601 -23.497231 -96.116264
10652500000 -24.656961 -116.42032 -0.82296824 142.84273 -0.83108729 142.80322 -23.405476 -96.724419
10680000000 -24.550367 -116.51108 -0.82506877 142.28445 -0.83308947 142.24757 -23.153505 -97.011307
10707500000 -24.354225 -116.41152 -0.82665163 141.7135 -0.83210486 141.69986 -23.328619 -97.443977
10735000000 -24.461586 -116.75002 -0.82915431 141.14778 -0.8345021 141.12517 -23.398655 -98.004997
10762500000 -24.506855 -117.36384 -0.82951277 140.59563 -0.83708495 140.57294 -23.061119 -98.454208
10790000000 -24.211443 -117.01881 -0.82974684 140.04068 -0.83375996 140.00439 -23.102787 -98.887894
10817500000 -24.26166 -117.45638 -0.83129728 139.49416 -0.83830583 139.46783 -23.283669 -99.098747
10845000000 -24.350437 -118.23764 -0.83066475 138.94649 -0.83978146 138.88956 -23.015043 -99.633278
10872500000 -24.166142 -117.74846 -0.83355266 138.38361 -0.83916682 138.35327 -22.946587 -100.23204
10900000000 -24.070925 -118.05149 -0.83591461 137.8316 -0.83904219 137.78403 -23.195 -100.46241
10927500000 -24.222059 -119.61237 -0.8350938 137.27132 -0.84171849 137.24071 -22.987663 -101.23524
10955000000 -24.054138 -118.93695 -0.83523434 136.71747 -0.84244376 136.68387 -22.77269 -101.58736
10982500000 -23.91531 -118.90361 -0.83671802 136.15598 -0.8434276 136.12592 -22.956417 -101.80712
11010000000 -24.079243 -120.45591 -0.83886665 135.61833 -0.84546882 135.56285 -22.947412 -102.41029
11037500000 -24.027334 -120.21014 -0.84179646 135.05161 -0.8472476 135.01521 -22.682808 -103.14114
11065000000 -23.786585 -119.62614 -0.84062797 134.48981 -0.8474949 134.46219 -22.767504 -103.1852
11092500000 -23.905647 -121.23257 -0.84166163 133.93704 -0.84932774 133.90677 -22.857994 -103.46613
11120000000 -23.997679 -121.52431 -0.84505683 133.38626 -0.85005498 133.35751 -22.575645 -104.53101
11147500000 -23.720451 -120.76989 -0.84389943 132.83231 -0.85102755 132.79558 -22.598404 -104.95976
11175000000 -23.695065 -121.85894 -0.84519362 132.26692 -0.85317159 132.24071 -22.745874 -104.91393
11202500000 -23.834978 -122.98196 -0.84699088 131.71086 -0.85365933 131.68376 -22.512604 -105.86356
11230000000 -23.702049 -121.65218 -0.84687388 131.16304 -0.85330009 131.13025 -22.419453 -106.39589
11257500000 -23.575426 -122.58115 -0.84650201 130.59123 -0.85472316 130.57805 -22.62998 -106.30649
11285000000 -23.677736 -124.03246 -0.84898406 130.06015 -0.85540712 130.02333 -22.495798 -106.91769
11312500000 -23.596289 -122.91254 -0.85008013 129.4901 -0.85440296 129.46449 -22.280695 -108.05771
11340000000 -23.439707 -122.95804 -0.84988558 128.94394 -0.85690653 128.90306 -22.439711 -107.81464
11367500000 -23.513384 -124.78314 -0.85193044 128.38615 -0.85630369 128.35594 -22.477461 -108.19869
11395000000 -23.586819 -124.04108 -0.85369903 127.83718 -0.85910773 127.79686 -22.262728 -109.2327
11422500000 -23.355215 -123.6627 -0.85209805 127.27153 -0.86042821 127.2525 -22.376337 -109.63068
11450000000 -23.346378 -125.55866 -0.85604769 126.73582 -0.86125576 126.69846 -22.423401 -109.72597
11477500000 -23.412857 -125.7142 -0.85671234 126.17817 -0.86292076 126.14307 -22.157677 -110.91522
11505000000 -23.287804 -124.77524 -0.85711402 125.61084 -0.86246485 125.58148 -22.193521 -111.42719
11532500000 -23.230965 -126.30954 -0.85918754 125.07117 -0.86526877 125.03521 -22.326307 -111.33192
11560000000 -23.324501 -127.01315 -0.86030203 124.51859 -0.86522102 124.47689 -22.089912 -112.21742
11587500000 -23.258228 -126.21221 -0.86069393 123.9685 -0.86610985 123.91471 -22.066473 -112.91984
11615000000 -23.111095 -127.11563 -0.86091739 123.39726 -0.86559796 123.3667 -22.227921 -112.94991
11642500000 -23.177528 -128.06947 -0.86148494 122.854 -0.86780357 122.81877 -22.113192 -113.47133
11670000000 -23.224346 -127.39314 -0.86330092 122.28156 -0.86895376 122.26646 -21.966436 -114.36404
11697500000 -23.054468 -127.74029 -0.86324066 121.74275 -0.86853319 121.70774 -22.124607 -114.50839
11725000000 -23.085972 -129.19835 -0.86467326 121.17732 -0.87077731 121.15826 -22.046089 -114.91125
11752500000 -23.155523 -129.26193 -0.86549306 120.64331 -0.87280422 120.60406 -21.912428 -115.74089
11780000000 -23.014481 -128.96989 -0.86619264 120.0762 -0.87456512 120.05556 -22.017387 -116.39737
11807500000 -22.925484 -130.34221 -0.86729562 119.53407 -0.87521964 119.50474 -22.004696 -116.56809
11835000000 -23.043177 -130.80336 -0.86770749 118.98637 -0.87542546 118.96007 -21.813683 -117.20444
11862500000 -22.931454 -130.45987 -0.86798662 118.42062 -0.87468988 118.39365 -21.893438 -117.99438
11890000000 -22.80521 -130.91252 -0.87060177 117.89318 -0.87636924 117.86294 -21.96022 -118.04619
11917500000 -22.929741 -132.0312 -0.87064224 117.33356 -0.87644178 117.306 -21.799965 -118.81501
11945000000 -22.920744 -131.84152 -0.8697598 116.77017 -0.8757602 116.74233 -21.809895 -119.35556
11972500000 -22.71207 -132.01892 -0.87160522 116.23571 -0.87952477 116.19524 -21.943359 -120.05533
12000000000 -22.752901 -132.83122 -0.87289852 115.68118 -0.87892514 115.63796 -21.751869 -120.40897
12027500000 -22.862734 -132.87917 -0.87152427 115.12104 -0.87834138 115.10017 -21.746103 -121.28203
12055000000 -22.665094 -132.76846 -0.87529373 114.55361 -0.88118696 114.53915 -21.922129 -121.91682
12082500000 -22.616264 -133.86902 -0.87324542 114.01019 -0.87965792 113.99443 -21.752438 -122.24032
12110000000 -22.748774 -134.51598 -0.87392724 113.46254 -0.88199848 113.44717 -21.670973 -122.73297
12137500000 -22.6369 -133.92007 -0.87521803 112.92701 -0.88155705 112.88309 -21.820812 -123.76609
12165000000 -22.518576 -134.61977 -0.87495333 112.35014 -0.88228649 112.3222 -21.762808 -124.03944
12192500000 -22.69817 -135.97717 -0.87645411 111.80817 -0.88091367 111.79053 -21.574423 -124.10421
12220000000 -22.610395 -135.80351 -0.87601924 111.25694 -0.88182086 111.22095 -21.743254 -125.25698
12247500000 -22.46278 -135.89374 -0.87476051 110.7075 -0.88089269 110.68438 -21.749807 -125.72762
12275000000 -22.596611 -137.2274 -0.87533712 110.16695 -0.88279426 110.12556 -21.517561 -125.73417
12302500000 -22.611942 -137.44032 -0.8773858 109.59841 -0.88151896 109.58044 -21.691576 -126.45212
12330000000 -22.459101 -137.19061 -0.87864053 109.06255 -0.88285679 109.0183 -21.806488 -127.5653
12357500000 -22.508591 -138.4742 -0.87641931 108.49786 -0.88290721 108.46179 -21.506453 -127.25632
12385000000 -22.551058 -139.04318 -0.87689346 107.9388 -0.88130844 107.90656 -21.574251 -127.85081
12412500000 -22.443695 -138.44814 -0.87716275 107.38908 -0.88227946 107.34995 -21.806639 -129.03763
12440000000 -22.422977 -139.55321 -0.87856036 106.84721 -0.88275588 106.79633 -21.600611 -129.53966
12467500000 -22.491449 -140.569 -0.87843138 106.28455 -0.88322568 106.25712 -21.509863 -129.56093
12495000000 -22.416765 -139.95496 -0.87772411 105.7412 -0.88645959 105.70725 -21.802845 -130.86134
12522500000 -22.329865 -140.50327 -0.87804413 105.17263 -0.88559103 105.13905 -21.645964 -131.10899
12550000000 -22.403044 -141.84306 -0.8760224 104.61681 -0.88452661 104.59266 -21.486872 -131.42491
12577500000 -22.382996 -141.52179 -0.87940246 104.06081 -0.8853898 104.03888 -21.767494 -132.52599
12605000000 -22.305635 -141.2758 -0.87815064 103.51345 -0.88804978 103.48777 -21.762922 -133.3073
12632500000 -22.348455 -142.97543 -0.87583333 102.96899 -0.88498545 102.91435 -21.488827 -133.05205
12660000000 -22.356756 -143.1064 -0.87960309 102.41694 -0.88723177 102.38301 -21.664942 -134.12585
12687500000 -22.313753 -142.6176 -0.87872261 101.84834 -0.88543046 101.8279 -21.780106 -135.04677
12715000000 -22.318018 -144.0287 -0.87605411 101.29657 -0.88519651 101.28085 -21.542624 -134.82845
12742500000 -22.339148 -144.88869 -0.87867665 100.72856 -0.88500327 100.7216 -21.626492 -135.72528
12770000000 -22.340723 -144.41457 -0.88046372 100.18105 -0.88626373 100.17552 -21.834524 -136.66151
12797500000 -22.286516 -145.27765 -0.87943381 99.631432 -0.88732767 99.607635 -21.641205 -136.67868
12825000000 -22.348873 -146.51134 -0.87803465 99.084801 -0.88617671 99.051865 -21.578129 -137.13278
12852500000 -22.336096 -145.85396 -0.87959707 98.526741 -0.88743752 98.505272 -21.824894 -138.36285
12880000000 -22.301699 -146.67258 -0.87960213 97.966232 -0.88704157 97.946587 -21.7458 -138.10803
12907500000 -22.306496 -148.23306 -0.87980944 97.422134 -0.88652909 97.379837 -21.615522 -138.90533
12935000000 -22.358335 -147.60213 -0.88134617 96.856041 -0.88551992 96.845039 -21.776049 -140.19196
12962500000 -22.349564 -147.80611 -0.88068408 96.316238 -0.88880193 96.288483 -21.840014 -139.92302
12990000000 -22.30522 -149.55466 -0.88094532 95.750084 -0.8856923 95.729431 -21.702703 -140.07588
13017500000 -22.390917 -149.42842 -0.8805728 95.204079 -0.88734132 95.169952 -21.79372 -141.74243
13045000000 -22.391302 -148.90797 -0.8821463 94.652596 -0.88762391 94.616043 -21.943007 -141.92856
13072500000 -22.319494 -150.38348 -0.87935013 94.091461 -0.88648844 94.065079 -21.799847 -141.81258
13100000000 -22.410667 -151.21535 -0.87993622 93.503906 -0.8870768 93.49781 -21.803204 -143.46246
13127500000 -22.490871 -150.4594 -0.88058579 92.964622 -0.88631988 92.955757 -21.991898 -143.65106
13155000000 -22.343601 -151.74475 -0.881558 92.424034 -0.88600564 92.391243 -21.916267 -143.53426
13182500000 -22.405123 -152.5851 -0.88079792 91.866585 -0.88808155 91.834412 -21.854845 -144.94562
13210000000 -22.49111 -152.12709 -0.88009822 91.299301 -0.88872123 91.284813 -21.995972 -145.83603
13237500000 -22.406969 -152.6041 -0.87978786 90.743568 -0.88681197 90.725731 -22.04764 -145.12775
13265000000 -22.387564 -154.01808 -0.87798017 90.192169 -0.88740766 90.163872 -21.916582 -146.29108
13292500000 -22.573135 -153.70137 -0.88147968 89.640816 -0.88756138 89.616287 -22.024124 -147.51543
13320000000 -22.489719 -153.91902 -0.88041812 89.084648 -0.88602084 89.056625 -22.137074 -146.96255
13347500000 -22.427658 -155.24956 -0.88068062 88.516708 -0.88467383 88.50753 -22.021233 -147.63281
13375000000 -22.596317 -155.31848 -0.88022947 87.974136 -0.88697678 87.947205 -22.043467 -149.01807
13402500000 -22.599182 -155.38135 -0.87884587 87.412865 -0.88936228 87.395821 -22.179344 -148.7327
13430000000 -22.4723 -156.28752 -0.88073671 86.863075 -0.88807076 86.822525 -22.117596 -149.19066
13457500000 -22.632078 -156.9603 -0.88024974 86.289215 -0.88649356 86.2705 -22.069197 -150.57275
13485000000 -22.708462 -156.68828 -0.88203877 85.746788 -0.88706535 85.710281 -22.253811 -150.37808
13512500000 -22.606136 -157.30984 -0.88175207 85.188705 -0.88697171 85.157776 -22.271158 -150.38733
13540000000 -22.657097 -158.40498 -0.88296682 84.624817 -0.88816094 84.599709 -22.140215 -152.06827
13567500000 -22.79871 -158.32616 -0.8825348 84.077156 -0.89001387 84.046906 -22.25247 -152.1541
13595000000 -22.68784 -158.60547 -0.88059056 83.525986 -0.88882858 83.47731 -22.392347 -151.65288
13622500000 -22.669453 -160.00465 -0.88346428 82.963173 -0.88931018 82.935135 -22.24798 -153.4754
13650000000 -22.817215 -160.18976 -0.88231277 82.404617 -0.89067519 82.379181 -22.301653 -154.19414
13677500000 -22.830376 -159.86981 -0.88169974 81.844116 -0.89262456 81.812042 -22.484756 -153.66411
13705000000 -22.698822 -160.9646 -0.88295513 81.293571 -0.88783574 81.25399 -22.382883 -154.7191
13732500000 -22.917253 -161.87946 -0.88410962 80.744995 -0.89236957 80.704506 -22.32642 -155.82965
13760000000 -22.933767 -161.57294 -0.88182974 80.171288 -0.88788366 80.166634 -22.549511 -155.20674
13787500000 -22.786337 -162.21529 -0.88281584 79.625008 -0.88924694 79.58432 -22.510515 -156.2028
13815000000 -22.949116 -163.49884 -0.88405061 79.049522 -0.89064753 79.029572 -22.411064 -157.58199
13842500000 -23.050266 -163.26381 -0.88320541 78.515427 -0.89027762 78.476952 -22.625465 -157.32047
13870000000 -22.911053 -162.93076 -0.88314611 77.948433 -0.88784111 77.908607 -22.609718 -157.58208
13897500000 -22.978258 -164.80305 -0.88580817 77.400093 -0.89181393 77.365173 -22.49999 -159.28648
13925000000 -23.164885 -164.96117 -0.88395065 76.835159 -0.88981754 76.804771 -22.625284 -159.2522
13952500000 -23.092321 -164.80173 -0.88254464 76.28125 -0.89001387 76.246986 -22.800257 -159.22353
13980000000 -23.000315 -166.11028 -0.88445103 75.721306 -0.89163721 75.666786 -22.58029 -160.7122
14007500000 -23.20435 -166.68127 -0.88415086 75.161446 -0.89121318 75.121803 -22.705467 -160.84848
14035000000 -23.220936 -165.81888 -0.88385576 74.592972 -0.89000088 74.564445 -22.927914 -160.9373
14062500000 -23.09148 -167.03262 -0.88494134 74.03479 -0.89243603 73.99987 -22.736107 -161.93515
14090000000 -23.242508 -167.95996 -0.88556373 73.493195 -0.89298671 73.441658 -22.749798 -162.4801
14117500000 -23.368231 -167.5648 -0.88574594 72.905792 -0.89185083 72.890007 -23.032869 -162.41951
14145000000 -23.258204 -167.97873 -0.88744164 72.361801 -0.8919754 72.322914 -22.899975 -163.53996
14172500000 -23.279753 -169.57237 -0.88916469 71.80619 -0.89507109 71.779434 -22.820942 -164.36183
14200000000 -23.486265 -169.43384 -0.88803262 71.261978 -0.89278734 71.222458 -23.089706 -164.17249
14227500000 -23.394537 -169.14185 -0.88838643 70.713783 -0.89695877 70.66671 -23.047365 -164.86015
14255000000 -23.359825 -171.11162 -0.89056838 70.15168 -0.89751196 70.128517 -22.956915 -166.29352
14282500000 -23.503935 -171.48407 -0.89100438 69.595589 -0.89660621 69.555328 -23.191347 -166.0349
14310000000 -23.549969 -170.67397 -0.88872123 69.041496 -0.8963666 68.991943 -23.222279 -166.98923
14337500000 -23.465019 -172.13701 -0.88961422 68.486099 -0.89716822 68.442574 -23.05286 -167.69005
14365000000 -23.563921 -173.65894 -0.8901397 67.93985 -0.89700335 67.894226 -23.307301 -167.97923
14392500000 -23.658617 -172.63272 -0.8886618 67.381844 -0.89512515 67.32782 -23.453381 -168.78169
14420000000 -23.616167 -173.09195 -0.89095706 66.811333 -0.89765358 66.764534 -23.268978 -169.50464
14447500000 -23.70726 -175.02776 -0.89200115 66.259285 -0.89599556 66.205116 -23.43511 -169.80911
14475000000 -23.828953 -174.61386 -0.89024842 65.68145 -0.89454973 65.66877 -23.666531 -170.40822
14502500000 -23.823524 -174.21944 -0.89110261 65.130295 -0.89534366 65.103508 -23.434933 -171.04121
14530000000 -23.796143 -176.32303 -0.88891309 64.583061 -0.89746737 64.546196 -23.559034 -171.4791
14557500000 -23.980711 -176.38956 -0.88973111 64.008659 -0.8975116 63.978172 -23.855574 -171.9769
14585000000 -23.998861 -175.2056 -0.89148146 63.448837 -0.89620268 63.420963 -23.679689 -172.29445
14612500000 -23.93792 -176.97252 -0.89003551 62.89465 -0.89744192 62.849064 -23.688126 -172.88635
14640000000 -24.104589 -178.22467 -0.89030081 62.334049 -0.899324 62.306313 -24.030989 -173.57425
14667500000 -24.199871 -176.998 -0.89486748 61.765354 -0.89834529 61.734459 -23.930212 -173.61615
14695000000 -24.091543 -177.7157 -0.89359814 61.220783 -0.90158153 61.167717 -23.844063 -173.97746
14722500000 -24.19978 -179.55766 -0.89454049 60.655945 -0.90385073 60.603695 -24.211557 -175.04913
14750000000 -24.407143 -178.74104 -0.89436144 60.087181 -0.89922082 60.045368 -24.143408 -175.28058
14777500000 -24.395948 -178.43068 -0.89505357 59.524349 -0.9015519 59.512123 -23.985205 -175.23227
14805000000 -24.335121 179.08173 -0.89852709 58.976227 -0.90245646 58.932621 -24.36207 -176.58913
14832500000 -24.530214 179.58647 -0.89676279 58.424252 -0.90389502 58.378986 -24.408695 -176.88066
14860000000 -24.633818 -179.64503 -0.89888144 57.850529 -0.90615177 57.811993 -24.199907 -176.42549
14887500000 -24.44956 178.4081 -0.89801711 57.299091 -0.90785861 57.257633 -24.514566 -177.95309
14915000000 -24.626993 178.06577 -0.90096831 56.734673 -0.9054352 56.703373 -24.662727 -178.84064
14942500000 -24.796169 179.26633 -0.90177971 56.182941 -0.90795308 56.14817 -24.422279 -177.94435
14970000000 -24.67758 177.93285 -0.90200841 55.626846 -0.90964055 55.573399 -24.664 -179.00436
14997500000 -24.698112 176.67505 -0.90323335 55.070747 -0.91014105 55.008842 -24.913145 179.57669
15025000000 -25.017054 177.84923 -0.90347052 54.496773 -0.90793806 54.462032 -24.752729 -179.38387
15052500000 -24.966114 177.33858 -0.9059974 53.94035 -0.90992463 53.903622 -24.871618 -179.86272
15080000000 -24.842356 175.99995 -0.90831137 53.389919 -0.9144401 53.334373 -25.255976 178.14598
15107500000 -25.224976 176.96806 -0.90880853 52.810059 -0.91284335 52.774944 -25.075087 179.19264
15135000000 -25.251345 176.66422 -0.91038525 52.258247 -0.91584432 52.226635 -25.03076 179.52696
15162500000 -24.958715 175.45338 -0.91342282 51.678593 -0.91795564 51.656879 -25.461861 176.91953
15190000000 -25.287537 176.32034 -0.9148261 51.142933 -0.92165077 51.092014 -25.419216 177.86217
15217500000 -25.522366 176.57256 -0.91958433 50.578983 -0.92581224 50.535564 -25.232838 179.18576
15245000000 -25.146639 175.21301 -0.9208926 50.025551 -0.92699742 49.981819 -25.609015 176.22426
15272500000 -25.283436 175.05733 -0.92375857 49.48941 -0.93147904 49.435871 -25.646997 176.18719
15300000000 -25.693672 175.26135 -0.92656964 48.950069 -0.93206769 48.921673 -25.356525 177.97513
15327500000 -25.262407 174.16219 -0.92703879 48.409351 -0.93301553 48.371071 -25.612249 175.62213
15355000000 -25.268551 173.40211 -0.92652732 47.876411 -0.93505692 47.836067 -25.924637 174.01225
15382500000 -25.797918 173.55458 -0.92736405 47.32267 -0.93411827 47.283226 -25.575396 176.27243
15410000000 -25.557032 172.44971 -0.92480385 46.767338 -0.93063962 46.740955 -25.786886 174.11176
15437500000 -25.382877 171.86421 -0.92827463 46.230068 -0.93236029 46.195347 -26.132645 171.16058
15465000000 -25.952496 171.56769 -0.92413831 45.682369 -0.93214601 45.616879 -25.920263 173.5235
15492500000 -26.00979 170.91537 -0.92360902 45.136143 -0.9314813 45.097919 -25.995398 173.13773
15520000000 -25.581238 170.8134 -0.924187 44.56443 -0.93343723 44.524868 -26.437546 169.55467
15547500000 -26.05978 170.75575 -0.92250347 44.012802 -0.92857242 43.967102 -26.377686 171.32051
15575000000 -26.398046 170.22914 -0.92295229 43.461151 -0.9314152 43.427132 -26.265615 172.24008
15602500000 -25.919262 169.81459 -0.92347866 42.899548 -0.93220663 42.860306 -26.695694 168.25833
15630000000 -26.235392 169.55884 -0.92485958 42.369381 -0.92993218 42.317047 -26.819311 168.37219
15657500000 -26.693333 168.42805 -0.92334098 41.790459 -0.92996615 41.747623 -26.553066 170.97089
15685000000 -26.284504 168.47975 -0.92312294 41.232204 -0.93037277 41.181099 -26.875458 167.29916
15712500000 -26.334625 168.73535 -0.92580712 40.674694 -0.93075383 40.645676 -27.210039 166.61423
15740000000 -26.986776 167.3288 -0.92365032 40.1054 -0.93404865 40.093243 -27.045723 169.01772
15767500000 -26.756916 167.84004 -0.92549574 39.572807 -0.93259966 39.540806 -27.183582 166.81865
15795000000 -26.59391 168.13892 -0.92545921 38.998337 -0.93286282 38.978233 -27.632425 164.40192
15822500000 -27.256969 166.0498 -0.92528623 38.449371 -0.93172538 38.396111 -27.493423 167.19623
15850000000 -27.189913 166.47723 -0.92851698 37.892246 -0.93197018 37.855217 -27.493647 166.43539
15877500000 -26.900698 167.88599 -0.92511582 37.328911 -0.93386215 37.300446 -28.022141 163.34015
15905000000 -27.380737 165.5231 -0.92707402 36.762688 -0.93480718 36.731636 -28.057564 164.76962
15932500000 -27.620964 165.31027 -0.9269942 36.218208 -0.93377101 36.187763 -27.896572 165.59514
15960000000 -27.24642 167.08627 -0.93034261 35.661964 -0.93672734 35.610035 -28.221254 162.05399
15987500000 -27.544758 165.19751 -0.92902702 35.097233 -0.93614286 35.071667 -28.586292 162.94733
16015000000 -27.963018 163.2598 -0.93076247 34.549599 -0.93592125 34.497131 -28.313101 164.77753
16042500000 -27.680128 165.9258 -0.93215305 34.000744 -0.93808609 33.959049 -28.561613 161.66165
16070000000 -27.766621 164.87776 -0.93357778 33.439171 -0.93492693 33.389244 -29.00388 161.44719
16097500000 -28.251451 162.62619 -0.93220055 32.87973 -0.94095892 32.843025 -28.887484 163.19562
16125000000 -28.131092 164.66113 -0.93287432 32.334976 -0.94140804 32.296818 -28.842232 160.83174
16152500000 -28.046066 164.71613 -0.93453848 31.786461 -0.93914962 31.756313 -29.380281 159.4328
16180000000 -28.426064 161.65332 -0.93438822 31.208887 -0.94114733 31.192217 -29.515078 161.06857
16207500000 -28.572992 163.15628 -0.93232727 30.686764 -0.94263577 30.638296 -29.221495 159.93901
16235000000 -28.394695 163.95892 -0.93639171 30.113598 -0.94203889 30.075727 -29.779072 158.61124
16262500000 -28.708052 161.56535 -0.93454266 29.569334 -0.94363546 29.53079 -30.109184 159.37636
16290000000 -29.053762 161.9046 -0.93431729 29.002298 -0.94263899 28.957943 -29.815853 158.47916
16317500000 -28.885643 163.12158 -0.93625075 28.46681 -0.94655728 28.425621 -30.147467 156.1944
16345000000 -28.977083 160.74791 -0.93499786 27.898785 -0.94345468 27.864738 -30.701805 156.39616
16372500000 -29.423958 160.51595 -0.93656033 27.345806 -0.94533265 27.314131 -30.375629 157.21471
16400000000 -29.319881 161.90251 -0.93937463 26.800121 -0.94705051 26.744383 -30.523544 155.55714
16427500000 -29.315105 161.36012 -0.93692708 26.256517 -0.94781291 26.195599 -31.332306 155.62306
16455000000 -29.711287 159.74724 -0.93987435 25.685926 -0.947725 25.658079 -31.18948 156.07813
16482500000 -30.019936 160.95282 -0.94171929 25.132587 -0.9495604 25.082588 -31.084595 155.14514
16510000000 -29.671349 160.95387 -0.94109941 24.568993 -0.94645655 24.555235 -31.887653 154.45139
16537500000 -30.078821 158.37245 -0.94161767 24.02342 -0.94731802 23.993301 -31.949795 154.90991
16565000000 -30.571535 158.94687 -0.94251162 23.451296 -0.94901603 23.435646 -31.650614 154.14525
16592500000 -30.161665 160.90602 -0.94001418 22.924263 -0.94901443 22.877478 -32.38327 153.89041
16620000000 -30.314032 159.19012 -0.94239551 22.35915 -0.95028073 22.321053 -32.77755 153.70509
16647500000 -31.041462 158.69991 -0.94061655 21.809822 -0.94906467 21.774876 -32.303375 152.69867
16675000000 -30.817457 160.42686 -0.94195014 21.263226 -0.95076078 21.232088 -33.099754 152.74039
16702500000 -30.656698 159.61975 -0.94241452 20.717152 -0.9499231 20.677309 -33.715401 151.89903
16730000000 -31.573288 157.48061 -0.941809 20.170591 -0.95023751 20.10108 -33.116341 151.96234
16757500000 -31.408615 159.54254 -0.94613791 19.602119 -0.95172399 19.564503 -33.645439 152.94637
16785000000 -31.004238 160.5183 -0.94561684 19.051208 -0.95121574 19.00445 -34.669861 152.29929
16812500000 -31.893122 157.88669 -0.94396937 18.503355 -0.95274055 18.461103 -34.052299 151.7361
16840000000 -32.287605 158.59261 -0.94540119 17.938194 -0.95458257 17.891958 -34.160606 153.34288
16867500000 -31.620085 162.14809 -0.94468427 17.379335 -0.95441878 17.338182 -35.859104 151.73993
16895000000 -32.373672 157.87666 -0.94490564 16.847565 -0.95406049 16.798235 -35.189445 151.16075
16922500000 -32.970268 156.63026 -0.94500184 16.289557 -0.9520756 16.236719 -34.998566 151.74478
16950000000 -32.257759 161.79703 -0.94395298 15.728777 -0.95249557 15.689223 -36.45293 154.42108
16977500000 -32.562859 160.49492 -0.94805825 15.174857 -0.95490378 15.140904 -36.477341 152.14531
17005000000 -33.371086 156.98866 -0.95072407 14.625158 -0.95458579 14.570936 -35.961273 151.43347
17032500000 -32.975964 162.95561 -0.94993049 14.07158 -0.95372772 14.013695 -37.412373 154.73419
17060000000 -32.937862 162.62006 -0.95046562 13.501876 -0.9561128 13.467134 -37.948685 153.11502
17087500000 -34.135002 156.90031 -0.94847012 12.990215 -0.955226 12.930517 -36.451729 152.7688
17115000000 -33.939606 162.18471 -0.9479121 12.417789 -0.95618147 12.370597 -38.2043 155.39787
17142500000 -33.511574 166.10696 -0.95020145 11.863164 -0.95848072 11.814833 -39.629967 158.16159
17170000000 -34.424171 158.39896 -0.95016021 11.305811 -0.95767546 11.270042 -38.071098 155.52815
17197500000 -34.748615 161.70456 -0.94764769 10.757433 -0.95761544 10.707376 -39.183968 157.68433
17225000000 -33.959969 167.86388 -0.955805 10.200234 -0.9602325 10.160292 -41.02116 161.11862
17252500000 -34.85273 161.05861 -0.95011997 9.6797628 -0.95866859 9.6137743 -39.528694 156.82959
17280000000 -35.559933 161.16866 -0.95302105 9.1187506 -0.95569277 9.0392036 -40.176743 157.0358
17307500000 -34.938175 170.88995 -0.95100081 8.5568304 -0.95692003 8.5126362 -42.905704 166.62064
17335000000 -35.572582 165.6179 -0.95241338 8.0122728 -0.95699036 7.9575214 -42.491501 164.92789
17362500000 -36.390327 160.06082 -0.9473235 7.455184 -0.95762414 7.4140825 -41.136181 159.17972
17390000000 -35.936329 173.07335 -0.94965637 6.9158802 -0.95657378 6.8540473 -45.208591 173.85832
17417500000 -35.908062 172.64851 -0.95179939 6.3389044 -0.9567048 6.3132343 -45.186008 172.67792
17445000000 -37.1213 161.92627 -0.94731319 5.7835441 -0.95713264 5.7669139 -43.173183 168.44846
17472500000 -37.249245 175.97368 -0.95150805 5.2408681 -0.95538956 5.1939216 -47.004719 -179.78622
17500000000 -36.618496 177.8295 -0.95121962 4.6824121 -0.95591599 4.6390553 -49.165897 -161.87526
17527500000 -37.410347 168.0079 -0.94426632 4.1509109 -0.95561343 4.0986433 -46.016273 176.35997
17555000000 -38.012848 178.91547 -0.94826597 3.5665839 -0.95674771 3.5288827 -49.329857 -161.4268
17582500000 -37.50087 -172.20328 -0.94775814 3.0089369 -0.9523502 2.9674067 -48.706318 -121.44099
17610000000 -37.696632 175.4201 -0.94949758 2.4789057 -0.95307231 2.4309161 -47.065872 -151.97562
17637500000 -39.16613 -178.97336 -0.94448155 1.9065515 -0.95388156 1.862177 -48.517525 -139.42395
17665000000 -38.060024 -163.77455 -0.94627762 1.3750461 -0.95324314 1.3234636 -46.15237 -100.71004
17692500000 -37.956341 -176.242 -0.94911456 0.80552006 -0.95270413 0.7718091 -46.297302 -118.14692
17720000000 -39.01902 -174.64792 -0.94910556 0.25182015 -0.95164144 0.19113249 -47.706085 -120.49272
17747500000 -38.38385 -156.11316 -0.944552 -0.30621481 -0.95307261 -0.36265457 -44.271973 -83.648453
17775000000 -38.259884 -165.36436 -0.94632941 -0.85499918 -0.9587577 -0.90738678 -43.146847 -94.713585
17802500000 -39.011292 -167.99281 -0.94770277 -1.4306988 -0.95163727 -1.459329 -45.36734 -106.18694
17830000000 -39.535389 -146.7049 -0.94576102 -1.9500449 -0.95212781 -2.0197704 -42.999832 -81.675774
17857500000 -38.803917 -151.25601 -0.94662011 -2.5426986 -0.95261842 -2.5668108 -41.21236 -86.954651
17885000000 -38.931107 -161.47284 -0.94528377 -3.0917881 -0.95399117 -3.118907 -42.58173 -97.754272
17912500000 -39.285294 -140.21521 -0.94470841 -3.6338565 -0.95231122 -3.6874814 -41.338837 -82.221626
17940000000 -38.39846 -136.57414 -0.94180644 -4.1997876 -0.95431721 -4.2458177 -39.452793 -77.11467
17967500000 -38.735115 -153.65831 -0.94522423 -4.7442408 -0.95306683 -4.7685204 -40.374836 -85.48774
17995000000 -39.318645 -135.8856 -0.94598407 -5.3113503 -0.95407891 -5.3501 -40.580822 -82.646408
18022500000 -38.208687 -128.53096 -0.94744039 -5.8604813 -0.95162696 -5.9271488 -37.690647 -75.18087
18050000000 -37.887001 -141.07144 -0.94126016 -6.4326067 -0.95283633 -6.454968 -37.887154 -82.224434
18077500000 -38.41016 -134.79633 -0.94705886 -6.9853916 -0.95496541 -7.0150146 -38.948563 -81.343094
18105000000 -37.546921 -119.26818 -0.94475698 -7.5262427 -0.95293111 -7.5636978 -36.85424 -74.239052
18132500000 -37.101509 -132.8015 -0.94335687 -8.0907679 -0.95605695 -8.1227055 -36.338604 -78.076134
18160000000 -37.509674 -131.17445 -0.94809371 -8.6678162 -0.9533025 -8.6774521 -37.706585 -83.496857
18187500000 -36.832283 -114.50562 -0.94582379 -9.1858406 -0.95189095 -9.2388334 -36.269295 -74.848221
18215000000 -36.355831 -120.8587 -0.94752473 -9.7540503 -0.9495362 -9.8241091 -34.896404 -76.103775
18242500000 -37.055393 -126.8281 -0.94615495 -10.296853 -0.95265418 -10.372472 -36.048595 -82.758362
18270000000 -36.660122 -110.57569 -0.94527119 -10.858963 -0.95447069 -10.892134 -35.605297 -77.367012
18297500000 -35.855206 -112.87254 -0.94722146 -11.424095 -0.95408952 -11.485846 -33.94286 -75.136055
18325000000 -36.044701 -120.51256 -0.94579965 -11.955755 -0.95243305 -12.020891 -34.720001 -81.603989
18352500000 -36.292969 -110.77946 -0.94619811 -12.51267 -0.9550938 -12.576894 -34.822712 -77.755516
18380000000 -35.040401 -107.29697 -0.94256663 -13.096075 -0.95160055 -13.144866 -33.248978 -75.663712
18407500000 -35.044319 -115.61871 -0.94346625 -13.615244 -0.94820446 -13.676798 -33.240707 -81.066994
18435000000 -35.584332 -111.5455 -0.94728392 -14.198171 -0.95551276 -14.262305 -33.989521 -80.310966
18462500000 -34.470882 -104.5984 -0.94316101 -14.773199 -0.95142168 -14.811882 -32.508152 -76.236542
18490000000 -34.161491 -110.81734 -0.94472611 -15.308274 -0.94646394 -15.347608 -32.291927 -79.203911
18517500000 -34.711315 -111.13833 -0.94634068 -15.887232 -0.95400149 -15.937618 -33.164959 -81.659721
18545000000 -33.81715 -102.32227 -0.94367987 -16.424074 -0.95081782 -16.477846 -32.278961 -77.657562
18572500000 -33.257553 -106.49384 -0.94632846 -16.98127 -0.95136464 -17.025303 -31.464634 -79.41172
18600000000 -33.931473 -110.78498 -0.94861054 -17.554117 -0.95564795 -17.591526 -32.21534 -83.176979
18627500000 -33.630447 -102.42316 -0.94381946 -18.074299 -0.95152867 -18.155581 -31.763817 -80.171082
18655000000 -32.651035 -103.5559 -0.94184536 -18.643314 -0.94911557 -18.696194 -30.653923 -80.266319
18682500000 -32.88752 -108.7323 -0.9465245 -19.19858 -0.95291692 -19.258656 -31.252192 -84.322113
18710000000 -32.990562 -105.0752 -0.94254506 -19.77817 -0.95149356 -19.804964 -31.425341 -82.523399
18737500000 -32.079948 -101.57928 -0.9411518 -20.302811 -0.95027363 -20.362514 -30.255384 -80.949837
18765000000 -32.204334 -106.63795 -0.94392335 -20.853313 -0.9483816 -20.924902 -30.267952 -84.736122
18792500000 -32.599518 -107.3012 -0.94647139 -21.420452 -0.95163435 -21.476223 -30.772259 -84.766136
18820000000 -31.671772 -101.02167 -0.94038576 -22.017361 -0.94806695 -22.054716 -29.640623 -82.939186
18847500000 -31.400303 -105.69755 -0.9411431 -22.523735 -0.95059514 -22.580708 -29.474449 -83.854355
18875000000 -31.755264 -107.10529 -0.94562453 -23.121677 -0.95348948 -23.167164 -30.250313 -86.789589
18902500000 -31.357573 -101.60355 -0.94086468 -23.65464 -0.94806951 -23.703543 -29.433365 -84.380058
18930000000 -30.81876 -102.85259 -0.94046962 -24.198545 -0.94559944 -24.25885 -28.967974 -85.880371
18957500000 -31.234201 -108.51969 -0.94741106 -24.772711 -0.9495188 -24.816835 -29.448885 -88.137428
18985000000 -30.905247 -103.62547 -0.93862009 -25.331181 -0.94916868 -25.375664 -29.00602 -87.00486
19012500000 -30.386202 -101.76801 -0.93871844 -25.879036 -0.94506395 -25.928745 -28.395168 -86.502335
19040000000 -30.60741 -107.99993 -0.94242352 -26.441938 -0.94918191 -26.499163 -28.706665 -89.031494
19067500000 -30.655003 -105.89351 -0.94052655 -26.996099 -0.94921505 -27.034609 -28.691751 -89.464706
19095000000 -30.067867 -102.33012 -0.93948579 -27.545097 -0.94607449 -27.612877 -27.93923 -87.8508
19122500000 -29.904028 -108.17988 -0.93978852 -28.123627 -0.9475888 -28.130552 -28.128014 -89.886635
19150000000 -29.969685 -108.68229 -0.94391567 -28.669901 -0.94920218 -28.719654 -28.270119 -91.533524
19177500000 -29.58127 -102.67861 -0.93958735 -29.235123 -0.94523191 -29.302874 -27.572838 -89.993958
19205000000 -29.381073 -107.44464 -0.94403338 -29.78846 -0.9483397 -29.83637 -27.46554 -91.336372
19232500000 -29.444824 -109.57573 -0.94117916 -30.351728 -0.94938517 -30.388584 -27.868826 -92.514839
19260000000 -29.455242 -104.28216 -0.93854332 -30.908646 -0.9434585 -30.957033 -27.317411 -91.477081
19287500000 -29.000393 -106.42589 -0.93672603 -31.459063 -0.94475955 -31.488819 -26.914808 -92.494545
19315000000 -28.779718 -111.70168 -0.94199163 -32.015869 -0.94708073 -32.072781 -27.384562 -94.614021
19342500000 -28.993158 -106.8293 -0.93560207 -32.582855 -0.9443596 -32.622116 -27.045086 -93.926468
19370000000 -28.592707 -106.60252 -0.93596655 -33.149677 -0.94472933 -33.191864 -26.522753 -93.469429
19397500000 -28.30345 -112.29226 -0.93973517 -33.688084 -0.9489764 -33.748554 -26.920425 -96.402992
19425000000 -28.661591 -108.79337 -0.93453878 -34.238674 -0.94386065 -34.295353 -26.753761 -96.198128
19452500000 -28.51792 -107.68597 -0.93601376 -34.79549 -0.94309378 -34.854427 -26.134687 -95.232948
19480000000 -27.835217 -113.19028 -0.94134247 -35.362156 -0.94543433 -35.40313 -26.36536 -97.326485
19507500000 -28.008245 -112.21014 -0.9391802 -35.919975 -0.94525057 -35.959465 -26.526146 -98.253311
19535000000 -28.244883 -108.80879 -0.93423766 -36.497906 -0.94314265 -36.546627 -25.803949 -97.573105
19562500000 -27.481899 -112.87859 -0.93653655 -37.032845 -0.94549644 -37.090706 -25.803783 -98.484711
19590000000 -27.477951 -114.21898 -0.93721843 -37.601223 -0.94459093 -37.64661 -26.2451 -100.02567
19617500000 -28.031225 -110.92867 -0.93515581 -38.161411 -0.94317901 -38.216568 -25.666866 -99.50396
19645000000 -27.193663 -113.89169 -0.93656999 -38.733624 -0.94827145 -38.785065 -25.389698 -100.35865
19672500000 -26.879913 -115.5963 -0.93587887 -39.294945 -0.94099522 -39.34042 -25.876389 -101.42846
19700000000 -27.646198 -113.34694 -0.93230963 -39.838745 -0.94128972 -39.883556 -25.520193 -101.14297
19727500000 -27.159986 -114.9305 -0.93272644 -40.416779 -0.94278049 -40.471992 -24.997131 -101.76586
19755000000 -26.408136 -116.58928 -0.93857449 -40.98193 -0.94362837 -41.018536 -25.397373 -103.473
19782500000 -27.21472 -115.44959 -0.9334051 -41.517807 -0.94343084 -41.580879 -25.335999 -103.06803
19810000000 -27.090744 -116.10282 -0.9346171 -42.109112 -0.94135916 -42.167534 -24.655861 -103.48478
19837500000 -26.057335 -117.98196 -0.93853074 -42.658607 -0.94581252 -42.694996 -25.019922 -104.74807
19865000000 -26.612936 -117.69453 -0.93601376 -43.20866 -0.9425438 -43.264336 -25.165342 -105.70458
19892500000 -26.885462 -117.63739 -0.93460429 -43.785252 -0.94007719 -43.842796 -24.52936 -104.89661
19920000000 -25.771179 -118.71413 -0.93973196 -44.31554 -0.9467923 -44.374588 -24.628513 -106.28921
19947500000 -26.042921 -119.02206 -0.93837911 -44.883484 -0.94100422 -44.945694 -24.973206 -107.91404
19975000000 -26.638731 -120.15706 -0.93502611 -45.430729 -0.94062459 -45.512886 -24.39666 -106.52855
20002500000 -25.624329 -120.21748 -0.94115371 -46.030827 -0.94474024 -46.080109 -24.187611 -107.48966
20030000000 -25.551598 -119.8659 -0.93390578 -46.587906 -0.94271874 -46.631077 -24.663015 -109.10959
20057500000 -26.362089 -121.88696 -0.9357726 -47.126736 -0.94119328 -47.175419 -24.289289 -108.72594
20085000000 -25.535824 -121.70309 -0.93988496 -47.709366 -0.94262546 -47.76244 -23.843132 -109.29317
20112500000 -25.017168 -121.18465 -0.93800706 -48.267376 -0.94528216 -48.312618 -24.38426 -111.2109
20140000000 -25.957897 -123.6008 -0.9317283 -48.793259 -0.94450021 -48.844872 -24.18033 -110.53699
20167500000 -25.452753 -124.50023 -0.93813944 -49.36528 -0.94353575 -49.435287 -23.55793 -110.51113
20195000000 -24.666636 -121.88284 -0.94014019 -49.913891 -0.94834489 -50.005352 -24.024675 -112.46999
20222500000 -25.324972 -124.0539 -0.93637598 -50.525043 -0.94519848 -50.560055 -24.184219 -113.54354
20250000000 -25.440529 -126.12793 -0.93635446 -51.066048 -0.94134951 -51.119881 -23.38748 -112.42226
20277500000 -24.458475 -123.04153 -0.93937844 -51.63184 -0.94614947 -51.67511 -23.610012 -113.83197
20305000000 -24.919497 -124.33421 -0.93499976 -52.200813 -0.94585693 -52.262859 -23.991583 -114.88744
20332500000 -25.241022 -128.27971 -0.92985684 -52.749458 -0.94121063 -52.823009 -23.373388 -114.14569
20360000000 -24.419542 -124.8505 -0.94070911 -53.335526 -0.94778717 -53.373775 -23.296654 -115.16606
20387500000 -24.376781 -125.20096 -0.9376145 -53.877319 -0.94321018 -53.93985 -23.853222 -116.5324
20415000000 -25.004442 -129.7639 -0.93444377 -54.446625 -0.9402141 -54.479862 -23.361256 -116.05408
20442500000 -24.334829 -127.29173 -0.94224536 -55.04002 -0.94753212 -55.084217 -23.017263 -116.18478
20470000000 -24.104084 -125.97404 -0.93820369 -55.599789 -0.94577873 -55.634861 -23.550335 -118.80126
20497500000 -24.583641 -130.70604 -0.93892598 -56.130463 -0.94961226 -56.201664 -23.378359 -118.35469
20525000000 -24.360487 -130.02187 -0.93967795 -56.715431 -0.95020336 -56.777649 -22.84399 -117.72484
20552500000 -23.810106 -126.34441 -0.943528 -57.247135 -0.95144808 -57.331455 -23.321684 -120.04282
20580000000 -24.190895 -131.10498 -0.94530565 -57.855213 -0.95108044 -57.889957 -23.372978 -120.06602
20607500000 -24.123596 -131.6217 -0.94444072 -58.409512 -0.94664294 -58.461918 -22.714882 -118.78926
20635000000 -23.714687 -127.80971 -0.9462657 -58.959511 -0.95564115 -59.014671 -23.020018 -121.37862
20662500000 -23.832111 -130.65764 -0.94744003 -59.551811 -0.95368999 -59.597248 -23.280787 -122.28191
20690000000 -23.985001 -134.05043 -0.94330412 -60.097687 -0.95046437 -60.152767 -22.698305 -120.55948
20717500000 -23.679131 -129.69064 -0.95147258 -60.653542 -0.95550632 -60.710842 -22.722382 -122.1734
20745000000 -23.54804 -131.05309 -0.94771051 -61.227055 -0.95654994 -61.280811 -23.165548 -123.78449
20772500000 -23.707705 -134.9239 -0.94613111 -61.792927 -0.95644993 -61.841381 -22.692627 -122.49514
20800000000 -23.560431 -131.65697 -0.95554376 -62.371487 -0.9620344 -62.411682 -22.448702 -123.26784
20827500000 -23.283979 -130.26141 -0.95492572 -62.904812 -0.96132183 -62.959011 -22.886738 -125.20021
20855000000 -23.330563 -135.6601 -0.95615828 -63.473289 -0.96281338 -63.519768 -22.648172 -124.17625
20882500000 -23.452642 -134.04466 -0.95577598 -64.055939 -0.96632856 -64.119865 -22.292126 -124.21741
20910000000 -23.062042 -130.87675 -0.95912153 -64.597206 -0.96531558 -64.643974 -22.613537 -126.51796
20937500000 -23.109903 -135.27437 -0.96330971 -65.1688 -0.9705807 -65.21505 -22.599621 -126.06945
20965000000 -23.213247 -135.92834 -0.96471751 -65.755028 -0.96901596 -65.786186 -22.171257 -125.45026
20992500000 -22.979279 -132.34723 -0.96175694 -66.252213 -0.97432762 -66.315773 -22.306725 -128.17448
21020000000 -22.836918 -134.94482 -0.97149616 -66.842545 -0.97836643 -66.88343 -22.466082 -127.8434
21047500000 -22.964001 -137.55759 -0.96668297 -67.381096 -0.97471803 -67.472084 -22.054953 -126.89596
21075000000 -22.927526 -133.74991 -0.97358614 -67.921379 -0.97838426 -67.972733 -22.064716 -128.991
21102500000 -22.55213 -135.20204 -0.97549212 -68.475418 -0.98110932 -68.546585 -22.306589 -130.25148
21130000000 -22.626162 -138.77934 -0.97477019 -69.034286 -0.97848642 -69.089355 -22.000555 -128.33966
21157500000 -22.743933 -136.77307 -0.97973508 -69.594063 -0.98244083 -69.651176 -21.760998 -130.83427
21185000000 -22.37491 -135.27934 -0.97806454 -70.159996 -0.98414969 -70.18013 -22.03614 -131.78525
21212500000 -22.401125 -139.71814 -0.97925955 -70.668076 -0.98437601 -70.713745 -21.884722 -130.97206
21240000000 -22.538614 -139.78528 -0.98322892 -71.266197 -0.98788792 -71.299194 -21.546352 -132.26506
21267500000 -22.237312 -137.23224 -0.97796959 -71.776947 -0.98522913 -71.821487 -21.710272 -134.2657
21295000000 -22.146748 -139.88214 -0.98312604 -72.30072 -0.98729616 -72.354645 -21.781685 -132.98308
21322500000 -22.299904 -142.33878 -0.97707057 -72.898743 -0.98668665 -72.949699 -21.427845 -133.60101
21350000000 -22.185347 -139.06601 -0.97650039 -73.383286 -0.98449939 -73.449814 -21.498182 -136.41376
21377500000 -21.891998 -140.6597 -0.98129201 -73.963799 -0.98710382 -74.012924 -21.612801 -135.89207
21405000000 -22.075033 -143.91119 -0.97775394 -74.53511 -0.98105055 -74.598114 -21.320265 -135.31863
21432500000 -22.1374 -141.95619 -0.97585571 -75.053482 -0.98103207 -75.100014 -21.375147 -138.36353
21460000000 -21.818897 -142.05414 -0.9752562 -75.614746 -0.98320067 -75.662865 -21.523056 -138.4639
21487500000 -21.864414 -145.45113 -0.97268772 -76.184433 -0.97805518 -76.239929 -21.339659 -137.4409
21515000000 -22.090942 -145.20454 -0.97666436 -76.732628 -0.98284364 -76.794731 -21.210247 -140.38449
21542500000 -21.790751 -143.13606 -0.97220266 -77.273499 -0.98148865 -77.360626 -21.427685 -140.98798
21570000000 -21.781199 -146.79729 -0.9693405 -77.859032 -0.9784044 -77.884308 -21.368063 -139.69336
21597500000 -21.953583 -147.64833 -0.97338438 -78.431656 -0.98167616 -78.481651 -21.097349 -141.54166
21625000000 -21.875717 -145.27164 -0.97089529 -78.986549 -0.97809923 -79.051201 -21.266069 -143.62048
21652500000 -21.590197 -147.25732 -0.96856135 -79.533371 -0.97867483 -79.588135 -21.323799 -141.60326
21680000000 -21.891188 -150.1404 -0.97638565 -80.127975 -0.98328477 -80.189758 -21.105839 -142.93834
21707500000 -21.839451 -147.49434 -0.96953952 -80.646606 -0.97583562 -80.700241 -21.074961 -145.70819
21735000000 -21.603617 -148.12822 -0.97140127 -81.188461 -0.9756344 -81.271301 -21.261663 -144.08261
21762500000 -21.672281 -151.26227 -0.97112644 -81.797218 -0.97718596 -81.844009 -21.095772 -144.39993
21790000000 -21.832193 -150.66139 -0.97107691 -82.320099 -0.97871441 -82.377914 -20.895271 -147.54283
21817500000 -21.566948 -149.58612 -0.97098398 -82.903458 -0.98017102 -82.96283 -21.173756 -146.44299
21845000000 -21.532282 -152.62944 -0.97006214 -83.469116 -0.97821826 -83.542282 -21.022545 -146.0663
21872500000 -21.788589 -153.10498 -0.97877699 -84.02108 -0.97962868 -84.09259 -20.752731 -148.99826
21900000000 -21.603086 -151.63354 -0.97285777 -84.573898 -0.97974122 -84.649635 -21.02376 -149.12746
21927500000 -21.387823 -153.59456 -0.97093898 -85.152908 -0.97942013 -85.244247 -21.039785 -147.73994
21955000000 -21.701908 -155.46643 -0.97741449 -85.703194 -0.9842633 -85.781395 -20.683338 -150.41071
21982500000 -21.632719 -153.8463 -0.97297692 -86.267967 -0.9814198 -86.332634 -20.849752 -151.49985
22010000000 -21.286118 -154.69553 -0.97078651 -86.829857 -0.9790079 -86.896103 -21.009691 -149.58565
22037500000 -21.527843 -156.97263 -0.97782433 -87.432327 -0.98349577 -87.477676 -20.630205 -151.82996
22065000000 -21.657648 -156.28523 -0.97472644 -87.95134 -0.98052919 -88.006699 -20.702541 -153.64001
22092500000 -21.303177 -155.82747 -0.9748739 -88.509804 -0.98130596 -88.56443 -20.974554 -151.6626
22120000000 -21.316708 -158.36475 -0.97719181 -89.127037 -0.98319292 -89.161003 -20.649817 -152.93683
22147500000 -21.661503 -159.15367 -0.9781028 -89.638199 -0.98454225 -89.677689 -20.504436 -155.85347
22175000000 -21.33087 -157.97406 -0.97649354 -90.199509 -0.98640627 -90.252548 -20.959141 -154.22597
22202500000 -21.160524 -159.72368 -0.97714055 -90.80584 -0.9878369 -90.850586 -20.642128 -154.3407
22230000000 -21.513321 -161.4483 -0.97997767 -91.311874 -0.98616683 -91.368248 -20.356941 -157.48387
22257500000 -21.348774 -159.83296 -0.97754419 -91.912498 -0.98927122 -91.93541 -20.783218 -157.10338
22285000000 -21.050177 -160.44237 -0.97571635 -92.498894 -0.98731178 -92.541573 -20.722008 -156.03522
22312500000 -21.382425 -163.28606 -0.98251808 -93.016426 -0.99388987 -93.075035 -20.24955 -158.66028
22340000000 -21.358387 -162.42035 -0.98259306 -93.602234 -0.99238241 -93.627655 -20.594677 -159.37976
22367500000 -21.049658 -161.72916 -0.98349839 -94.158424 -0.9896698 -94.205994 -20.733309 -158.22197
22395000000 -21.156906 -165.11761 -0.98714507 -94.717407 -0.99233103 -94.76796 -20.217653 -159.61653
22422500000 -21.374872 -164.87262 -0.98956645 -95.282806 -0.99011749 -95.32444 -20.44836 -161.76613
22450000000 -21.049223 -163.09534 -0.98545516 -95.838898 -0.99119031 -95.91539 -20.755123 -160.09171
22477500000 -21.006607 -166.03636 -0.99193645 -96.410591 -0.99621892 -96.477165 -20.262186 -160.7756
22505000000 -21.275661 -167.97514 -0.99239475 -96.945656 -0.9973489 -97.006439 -20.277098 -163.67238
22532500000 -21.048256 -164.81323 -0.99400896 -97.527176 -0.99847364 -97.572052 -20.64846 -162.99002
22560000000 -20.940166 -167.03014 -0.99614561 -98.109695 -1.0030489 -98.171005 -20.346422 -162.03595
22587500000 -21.115112 -169.98926 -0.99140722 -98.624939 -1.0027586 -98.668747 -20.038475 -164.82788
22615000000 -21.113819 -167.44003 -1.0000685 -99.196846 -1.0048461 -99.257179 -20.569597 -165.19615
22642500000 -20.833078 -167.83537 -0.99589396 -99.778397 -1.0055225 -99.841835 -20.442196 -163.75282
22670000000 -20.936949 -171.85899 -0.99449843 -100.30309 -1.0085934 -100.34464 -19.945086 -165.95459
22697500000 -20.988638 -169.99068 -1.0026286 -100.894 -1.0109832 -100.93321 -20.421942 -167.68423
22725000000 -20.871473 -168.86224 -1.0019621 -101.46667 -1.0092446 -101.52964 -20.510153 -165.98134
22752500000 -20.739243 -172.80365 -1.0065553 -101.97314 -1.0127897 -102.03146 -19.928465 -166.92285
22780000000 -20.873913 -172.5363 -1.0041395 -102.57354 -1.0122054 -102.60712 -20.183952 -169.73308
22807500000 -20.849028 -170.19641 -1.0048031 -103.1115 -1.0139512 -103.18705 -20.48411 -168.47481
22835000000 -20.609537 -173.79237 -1.013099 -103.67723 -1.0184822 -103.72112 -20.013271 -168.13016
22862500000 -20.678947 -174.8992 -1.0121367 -104.22906 -1.0174092 -104.29933 -19.999788 -171.59721
22890000000 -20.829426 -172.18652 -1.015335 -104.79809 -1.0209361 -104.86203 -20.43775 -171.17038
22917500000 -20.553493 -174.34209 -1.0187633 -105.35558 -1.0239521 -105.39795 -20.083235 -169.76938
22945000000 -20.466782 -176.85771 -1.0197489 -105.89905 -1.0235146 -105.96793 -19.820335 -172.44804
22972500000 -20.80872 -174.28426 -1.016822 -106.44276 -1.0247288 -106.52682 -20.328596 -173.71468
23000000000 -20.538059 -175.4593 -1.016867 -107.05648 -1.0270898 -107.09804 -20.199413 -171.92719
23027500000 -20.292093 -178.50299 -1.0192612 -107.54284 -1.0281124 -107.6041 -19.731918 -173.44737
23055000000 -20.710091 -177.25093 -1.0273211 -108.13487 -1.0343421 -108.20358 -20.202248 -176.35988
23082500000 -20.570141 -176.79047 -1.0247124 -108.70956 -1.031747 -108.74169 -20.265175 -173.92131
23110000000 -20.150681 -179.53935 -1.027788 -109.19581 -1.0307442 -109.26447 -19.763912 -174.45958
23137500000 -20.4951 -179.82736 -1.0301006 -109.83278 -1.0332015 -109.85378 -19.957052 -178.05222
23165000000 -20.574493 -178.92964 -1.0299966 -110.39069 -1.0354604 -110.40599 -20.266659 -176.36816
23192500000 -20.026871 179.10019 -1.0369132 -110.90094 -1.0376083 -110.93513 -19.82103 -176.05028
23220000000 -20.225813 178.22032 -1.0357988 -111.46178 -1.0401534 -111.51858 -19.777397 -179.37267
23247500000 -20.578545 179.24689 -1.0331712 -112.03954 -1.0381553 -112.07803 -20.23559 -179.00525
23275000000 -20.001595 178.4328 -1.0409974 -112.59823 -1.0469348 -112.6274 -19.970854 -177.75343
23302500000 -20.009172 176.75847 -1.0358704 -113.12096 -1.0407543 -113.18523 -19.647432 179.30597
23330000000 -20.590769 176.86887 -1.0375534 -113.68218 -1.0466546 -113.74567 -20.165232 178.11562
23357500000 -20.050102 176.66013 -1.0438367 -114.24085 -1.0531114 -114.3009 -19.966154 -179.45505
23385000000 -19.794434 175.47803 -1.0380607 -114.78362 -1.0470077 -114.82798 -19.618992 177.82544
23412500000 -20.387297 174.71326 -1.0425456 -115.37331 -1.0479764 -115.38695 -19.969986 175.50488
23440000000 -20.148447 175.30206 -1.0475717 -115.93839 -1.0513389 -116.01408 -20.084467 177.77904
23467500000 -19.659111 174.33069 -1.0451442 -116.40176 -1.050804 -116.48635 -19.657042 176.82233
23495000000 -20.15089 172.65483 -1.0523952 -116.99258 -1.0566945 -117.05361 -19.877504 173.81612
23522500000 -20.248817 172.38426 -1.046147 -117.58007 -1.0538346 -117.63471 -20.132492 174.86113
23550000000 -19.640469 173.02191 -1.0527275 -118.08065 -1.0599247 -118.13531 -19.721251 175.26538
23577500000 -19.904177 170.56267 -1.0538435 -118.67556 -1.0603312 -118.74858 -19.703453 172.07343
23605000000 -20.231592 170.15057 -1.0520549 -119.2151 -1.0586727 -119.28838 -20.115486 172.60242
23632500000 -19.664492 171.42261 -1.0587325 -119.75755 -1.0646714 -119.80747 -19.880167 173.00055
23660000000 -19.661549 169.33881 -1.056993 -120.32954 -1.0596817 -120.36101 -19.663544 170.74753
23687500000 -20.166059 167.35558 -1.0553628 -120.89372 -1.0665394 -120.9382 -20.034721 170.14337
23715000000 -19.794127 169.35252 -1.0623282 -121.43515 -1.0675534 -121.46399 -19.954721 171.04211
23742500000 -19.606905 167.98401 -1.058785 -122.00777 -1.0650005 -122.03837 -19.665516 169.2305
23770000000 -19.977041 165.41031 -1.0603157 -122.5094 -1.0669914 -122.58887 -19.921896 167.67429
23797500000 -19.92482 166.86374 -1.0632854 -123.08737 -1.0708245 -123.16405 -20.09329 169.09569
23825000000 -19.505602 167.11351 -1.0593333 -123.60592 -1.0681909 -123.6548 -19.732933 167.45816
23852500000 -19.804993 163.65639 -1.0658121 -124.20212 -1.0759367 -124.24075 -19.842434 165.7108
23880000000 -19.959793 164.21313 -1.0661556 -124.76148 -1.073766 -124.8384 -20.153496 166.89684
23907500000 -19.604525 165.40492 -1.0687941 -125.30381 -1.0755241 -125.37556 -19.760008 166.07063
23935000000 -19.648403 161.66609 -1.072791 -125.86901 -1.076409 -125.9445 -19.737675 163.75188
23962500000 -19.905052 161.339 -1.0665579 -126.42257 -1.0708109 -126.4778 -20.190233 164.62216
23990000000 -19.723608 163.80582 -1.0748752 -126.95791 -1.0802029 -127.02962 -19.853382 164.26408
24017500000 -19.531773 161.04634 -1.0730898 -127.54301 -1.0870619 -127.56321 -19.634865 162.05292
24045000000 -19.810892 158.93008 -1.0695822 -128.04597 -1.0755105 -128.13089 -20.07906 162.38408
24072500000 -19.832479 161.48796 -1.078141 -128.64168 -1.0863532 -128.67415 -19.90522 162.73689
24100000000 -19.484184 160.13879 -1.0796055 -129.17734 -1.0846989 -129.22812 -19.650705 160.04753
24127500000 -19.721298 157.26628 -1.0770023 -129.70757 -1.0852025 -129.75797 -19.943361 160.34441
24155000000 -19.902119 158.67432 -1.0782275 -130.28304 -1.0857531 -130.33492 -20.002266 160.77571
24182500000 -19.581158 159.0162 -1.0832404 -130.83542 -1.0931716 -130.87067 -19.577974 158.58675
24210000000 -19.52565 155.78821 -1.0826106 -131.36543 -1.0922161 -131.43767 -19.793373 158.22127
24237500000 -19.861696 155.97945 -1.0802447 -131.93091 -1.0870486 -132.00259 -20.079784 158.29799
24265000000 -19.711702 157.30716 -1.0886292 -132.44624 -1.0904016 -132.52458 -19.654722 157.02705
24292500000 -19.437382 154.53548 -1.0886664 -133.0322 -1.0964971 -133.07471 -19.681938 155.63806
24320000000 -19.769749 153.39188 -1.0823967 -133.57234 -1.0948664 -133.6445 -20.096285 156.77339
24347500000 -19.849455 154.87219 -1.0846398 -134.14293 -1.0927747 -134.20435 -19.690233 155.47115
24375000000 -19.46454 153.1375 -1.091645 -134.66873 -1.0955136 -134.7531 -19.543804 153.69307
24402500000 -19.622471 151.19753 -1.0893453 -135.26266 -1.092082 -135.27977 -20.147623 154.39803
24430000000 -19.931051 152.6261 -1.0876853 -135.7748 -1.0964375 -135.80368 -19.828985 153.71411
24457500000 -19.530323 151.87434 -1.0928377 -136.31238 -1.0984098 -136.39516 -19.426447 151.72769
24485000000 -19.592093 149.35408 -1.0913974 -136.88084 -1.0953877 -136.94077 -20.009195 152.02267
24512500000 -19.922604 149.59354 -1.0897934 -137.4254 -1.0953377 -137.47101 -19.934454 151.72041
24540000000 -19.643812 150.16318 -1.0952804 -137.94952 -1.1022247 -138.06042 -19.404291 149.98737
24567500000 -19.427816 147.79877 -1.091426 -138.49785 -1.1007429 -138.5788 -19.863119 149.37509
24595000000 -19.877008 146.85536 -1.0890217 -139.05078 -1.095281 -139.11739 -19.993532 149.71208
24622500000 -19.789114 148.01924 -1.0987861 -139.62021 -1.1015188 -139.6935 -19.404501 147.98895
24650000000 -19.4417 146.6669 -1.102213 -140.15799 -1.1014093 -140.22789 -19.654556 146.71632
24677500000 -19.692553 144.59457 -1.0941347 -140.73984 -1.0998224 -140.7948 -20.106487 147.29414
24705000000 -19.915932 145.54712 -1.0985075 -141.28526 -1.1011548 -141.32674 -19.496243 146.10835
24732500000 -19.500786 145.10013 -1.1011431 -141.83678 -1.1039851 -141.89981 -19.499184 144.46358
24760000000 -19.609705 142.5836 -1.0947129 -142.33522 -1.1005912 -142.45413 -20.117615 144.30069
24787500000 -19.93338 142.3428 -1.0970542 -142.91336 -1.1040074 -142.98972 -19.594343 144.5632
24815000000 -19.635418 143.25591 -1.1017936 -143.48254 -1.1077528 -143.52988 -19.356392 142.58649
24842500000 -19.460142 141.15984 -1.0963745 -144.01825 -1.102569 -144.07268 -20.09881 141.45679
24870000000 -19.906342 140.13605 -1.094848 -144.53717 -1.1048199 -144.62492 -19.769779 142.76845
24897500000 -19.777918 141.36845 -1.1031823 -145.15303 -1.1075934 -145.20656 -19.30184 140.77728
24925000000 -19.490791 139.97804 -1.0955839 -145.6898 -1.1035502 -145.71112 -20.011105 138.77563
24952500000 -19.78982 137.52898 -1.0956415 -146.21213 -1.1047792 -146.26122 -19.891485 139.91872
24980000000 -19.92584 138.72278 -1.0989525 -146.76956 -1.1064177 -146.83577 -19.320755 139.27725
25007500000 -19.538733 138.2258 -1.0997144 -147.29633 -1.1054479 -147.40919 -19.730707 136.44882
25035000000 -19.710611 135.74916 -1.0966287 -147.84067 -1.1019468 -147.92561 -20.091686 136.71626
25062500000 -19.956951 136.19847 -1.0948653 -148.43712 -1.106266 -148.47446 -19.399601 137.31543
25090000000 -19.707037 136.01398 -1.096074 -149.03004 -1.1052847 -149.04652 -19.541061 134.65956
25117500000 -19.537155 133.95149 -1.1003647 -149.51462 -1.1003417 -149.59261 -20.165905 133.10597
25145000000 -19.884644 133.3047 -1.0935795 -150.09782 -1.1051077 -150.17348 -19.570118 135.42622
25172500000 -19.821512 134.20074 -1.0973818 -150.6745 -1.105875 -150.73402 -19.45262 133.01613
25200000000 -19.544132 132.33943 -1.1012305 -151.19209 -1.1033252 -151.24521 -20.093109 130.45502
25227500000 -19.86237 130.60707 -1.096893 -151.77763 -1.1036739 -151.81226 -19.8381 133.0446
25255000000 -19.871647 131.90987 -1.1048193 -152.33498 -1.1090472 -152.42004 -19.376556 131.34883
25282500000 -19.496487 130.42116 -1.0998558 -152.85022 -1.1056359 -152.89548 -20.008904 127.85415
25310000000 -19.701445 128.74426 -1.0975049 -153.4106 -1.1026074 -153.45796 -19.990955 129.82837
25337500000 -19.957352 129.32288 -1.1042043 -153.99162 -1.1132493 -154.03748 -19.422806 130.18576
25365000000 -19.607353 129.12579 -1.1015942 -154.5289 -1.1057488 -154.59583 -19.822239 125.28969
25392500000 -19.614088 126.62705 -1.0996571 -155.06502 -1.1056483 -155.11415 -20.144512 127.37094
25420000000 -19.920988 126.3742 -1.1116381 -155.65921 -1.1127805 -155.69824 -19.518566 128.56445
25447500000 -19.722643 127.16153 -1.1028063 -156.18646 -1.1105793 -156.23746 -19.710159 124.03618
25475000000 -19.588728 124.77223 -1.1000725 -156.74422 -1.1081389 -156.79959 -20.151445 123.26631
25502500000 -19.875473 123.6091 -1.1078142 -157.29541 -1.1133906 -157.35362 -19.676208 126.74181
25530000000 -19.873652 124.41447 -1.1053952 -157.83109 -1.1125025 -157.88521 -19.655699 122.83627
25557500000 -19.547005 123.27447 -1.1023334 -158.37021 -1.1060593 -158.44235 -20.116594 120.2543
25585000000 -19.850357 120.63156 -1.1041108 -158.94479 -1.1119167 -159.02544 -19.908836 123.79953
25612500000 -19.881819 122.1606 -1.109242 -159.50482 -1.1180024 -159.56915 -19.551113 121.67773
25640000000 -19.597248 121.73492 -1.1060363 -160.03383 -1.1173321 -160.05176 -19.989023 117.50198
25667500000 -19.691835 119.07713 -1.1119645 -160.57561 -1.1189924 -160.67383 -20.091076 120.14681
25695000000 -19.898895 119.42575 -1.1113459 -161.1716 -1.1195002 -161.22569 -19.651773 120.64513
25722500000 -19.679621 120.35239 -1.1061555 -161.69797 -1.1184341 -161.75465 -19.921673 115.59141
25750000000 -19.654741 117.22573 -1.1024786 -162.25911 -1.1189934 -162.30612 -20.065918 117.05418
25777500000 -19.886568 116.20593 -1.1134839 -162.80882 -1.1179978 -162.87634 -19.760374 118.53551
25805000000 -19.819241 118.47159 -1.1132667 -163.38528 -1.125653 -163.40335 -19.784647 114.16745
25832500000 -19.599995 115.32269 -1.1045979 -163.91238 -1.112237 -163.97186 -20.061783 112.9614
25860000000 -19.806116 112.99039 -1.1149312 -164.46007 -1.125049 -164.50618 -19.933443 116.85106
25887500000 -19.938929 115.68872 -1.1157002 -165.03185 -1.122385 -165.08131 -19.779615 112.89615
25915000000 -19.68969 113.97578 -1.1083652 -165.58551 -1.1178421 -165.60909 -19.963877 110.27122
25942500000 -19.670162 111.1808 -1.1159861 -166.09221 -1.1223491 -166.15094 -20.078001 113.61626
25970000000 -19.987158 112.8504 -1.1195655 -166.69554 -1.1221517 -166.72899 -19.770931 111.67368
25997500000 -19.755499 112.55599 -1.1138391 -167.18457 -1.1181622 -167.23724 -20.016634 107.6227
26025000000 -19.648262 108.48024 -1.1183376 -167.74886 -1.116302 -167.82408 -20.083054 110.39346
26052500000 -19.95648 109.53933 -1.1176833 -168.27502 -1.1208507 -168.36157 -19.807606 110.63315
26080000000 -19.968443 111.06528 -1.1122072 -168.81073 -1.119393 -168.8858 -19.897179 105.20523
26107500000 -19.584686 106.60258 -1.1207998 -169.41666 -1.1223586 -169.46008 -20.141727 106.9585
26135000000 -19.870733 106.80941 -1.117758 -169.96648 -1.1215481 -169.99258 -19.999851 108.18291
26162500000 -20.058517 108.87274 -1.1171412 -170.50403 -1.1239748 -170.56755 -19.922894 103.70796
26190000000 -19.631733 106.21714 -1.1121203 -171.00542 -1.1162472 -171.07834 -20.138945 103.40228
26217500000 -19.685396 103.67224 -1.1183608 -171.55408 -1.122013 -171.63438 -20.060785 106.04888
26245000000 -20.180414 106.16135 -1.1206349 -172.1474 -1.1223156 -172.20648 -19.91967 102.12175
26272500000 -19.818876 104.65766 -1.1162465 -172.69296 -1.1177095 -172.7728 -20.0907 100.3559
26300000000 -19.568365 101.63508 -1.1117444 -173.20216 -1.1221255 -173.28842 -20.14242 102.8585
26327500000 -20.16227 103.00072 -1.1110243 -173.82671 -1.1276428 -173.8891 -19.980917 100.77216
26355000000 -19.869513 102.9157 -1.1143005 -174.3676 -1.1210303 -174.40993 -20.085028 97.879341
26382500000 -19.503538 99.659447 -1.112846 -174.86447 -1.1227645 -174.924 -20.230949 99.888153
26410000000 -20.107018 99.429955 -1.1106645 -175.45755 -1.111275 -175.50714 -20.085455 98.65789
26437500000 -20.109346 100.90852 -1.1059538 -176.01286 -1.1198027 -176.07596 -20.072824 95.860229
26465000000 -19.49748 98.272804 -1.1108173 -176.53644 -1.1173599 -176.60571 -20.299047 96.921532
26492500000 -19.989513 96.414436 -1.112543 -177.1344 -1.1123463 -177.15994 -20.117313 96.696815
26520000000 -20.16551 97.704117 -1.1286222 -177.72588 -1.1222526 -177.69408 -20.056581 93.615944
26547500000 -19.599646 97.03363 -1.1126473 -178.25999 -1.1145136 -178.27597 -20.247637 93.564041
26575000000 -19.696682 94.121689 -1.1078292 -178.7352 -1.110973 -178.7995 -20.2227 93.994896
26602500000 -20.332636 95.177994 -1.1238444 -179.31064 -1.119777 -179.39433 -20.010193 91.682816
26630000000 -19.847586 96.253441 -1.1146177 -179.93297 -1.1156363 -179.9697 -20.485037 91.245888
26657500000 -19.790949 92.569473 -1.1073602 179.47025 -1.1311157 179.53195 -20.234657 92.484543
26685000000 -20.262066 91.478577 -1.1067934 178.95363 -1.1074752 178.77484 -20.166842 89.169922
26712500000 -20.173563 93.4832 -1.1054853 178.42859 -1.1189773 178.45349 -20.443283 88.236732
26740000000 -19.76989 90.944824 -1.1023065 177.97101 -1.1209158 177.91656 -20.351286 90.428871
26767500000 -20.098339 88.616463 -1.1125778 177.4091 -1.1206024 177.29083 -20.131571 88.041458
26795000000 -20.236452 90.315361 -1.1106534 176.77269 -1.1265615 176.6783 -20.331825 85.785347
26822500000 -19.881401 90.31221 -1.1205428 176.19116 -1.1168263 176.22438 -20.521948 88.09478
26850000000 -20.005899 86.538445 -1.1171072 175.6116 -1.1187748 175.61067 -20.236423 85.899673
26877500000 -20.430952 86.431931 -1.1202348 175.07738 -1.1184328 175.08908 -20.486219 83.899902
26905000000 -19.920609 89.712448 -1.1199856 174.61902 -1.1288927 174.48322 -20.711157 83.750595
26932500000 -19.934538 85.015938 -1.1017302 174.06886 -1.1110228 173.93924 -20.340248 84.076401
26960000000 -20.409195 84.092812 -1.1261214 173.46071 -1.1165631 173.41824 -20.475519 82.536247
26987500000 -20.254416 85.741425 -1.1140516 172.87952 -1.124004 172.89746 -20.803667 80.78849
27015000000 -19.877359 83.845276 -1.1262153 172.38565 -1.1195257 172.35304 -20.351093 81.472229
27042500000 -20.323582 80.215919 -1.1099732 171.85483 -1.1266752 171.68442 -20.400524 79.675858
27070000000 -20.453411 83.814903 -1.1181893 171.37912 -1.1222717 171.24031 -20.653603 79.073662
27097500000 -19.950434 82.140831 -1.111387 170.69136 -1.1212736 170.73058 -20.572063 78.696022
27125000000 -20.166092 78.7397 -1.1126738 170.10892 -1.118126 170.06758 -20.276089 77.174568
27152500000 -20.594065 79.895638 -1.1094261 169.59985 -1.1241837 169.50266 -20.773777 75.475479
27180000000 -20.078522 80.977425 -1.1224983 169.14473 -1.1199689 169.03412 -20.701227 76.494797
27207500000 -20.107697 76.98735 -1.115217 168.51843 -1.1172806 168.45828 -20.26082 75.990829
27235000000 -20.694679 77.117653 -1.113355 167.93503 -1.1208199 167.89371 -20.793844 72.92334
27262500000 -20.431562 78.984978 -1.1311774 167.42177 -1.1328787 167.31961 -20.978718 73.339081
27290000000 -20.005001 75.178764 -1.1129857 166.91417 -1.1253374 166.80951 -20.560265 73.749802
27317500000 -20.60194 74.110123 -1.1152592 166.25912 -1.1246157 166.24889 -20.610529 70.336624
27345000000 -20.65823 75.7938 -1.1213661 165.72083 -1.1208299 165.63133 -21.007565 70.472672
27372500000 -20.235889 74.365601 -1.1128681 165.18539 -1.1063626 165.08757 -20.537081 71.213982
27400000000 -20.387232 71.956306 -1.1190898 164.68187 -1.1092784 164.6371 -20.467138 68.433167
27427500000 -21.001089 73.575974 -1.1100953 164.04691 -1.1209121 164.01846 -21.085289 67.453941
27455000000 -20.399908 72.554222 -1.1051004 163.54205 -1.1313229 163.39191 -20.633753 69.883354
27482500000 -20.307604 69.70105 -1.1259879 162.91852 -1.1074939 162.83652 -20.455606 67.279305
27510000000 -20.969601 68.8601 -1.1142279 162.40195 -1.1248618 162.29189 -21.030622 65.14901
27537500000 -20.685913 70.691483 -1.1102235 161.88031 -1.119405 161.74614 -21.007757 66.652344
27565000000 -20.296354 68.059639 -1.1150312 161.29605 -1.1128811 161.19223 -20.582354 64.119537
27592500000 -20.891283 65.434235 -1.1196721 160.73506 -1.1218135 160.67841 -20.98143 60.767517
27620000000 -20.936916 67.869057 -1.1306857 160.12625 -1.1228818 160.13164 -20.977758 63.136269
27647500000 -20.274614 66.864731 -1.1194818 159.57587 -1.1155201 159.57857 -20.722483 62.834503
27675000000 -20.787624 64.912811 -1.1166043 159.08124 -1.1328619 159.16476 -20.9186 58.724163
27702500000 -21.243614 64.509415 -1.1198061 158.5125 -1.1199903 158.52634 -21.150732 59.127201
27730000000 -20.603134 65.506676 -1.1230843 157.97804 -1.1283526 157.94528 -20.867462 60.163311
27757500000 -20.642918 61.849442 -1.1164631 157.47809 -1.127529 157.38737 -20.865793 56.140175
27785000000 -21.172583 60.790821 -1.1173595 156.85268 -1.1274105 156.76666 -21.268202 54.818119
27812500000 -20.763733 62.76226 -1.121356 156.2917 -1.1280646 156.25507 -21.073259 57.643848
27840000000 -20.532606 60.273571 -1.0992683 155.81291 -1.1318126 155.81061 -20.725582 54.670841
27867500000 -21.260382 57.049438 -1.1241777 155.27646 -1.1193428 155.0466 -21.289824 51.52338
27895000000 -21.136976 61.024044 -1.1181951 154.59586 -1.1285124 154.67516 -21.391722 54.103859
27922500000 -20.628466 58.088902 -1.1058209 154.15567 -1.1297902 154.06679 -20.810675 53.836983
27950000000 -21.160686 54.833469 -1.1174791 153.59946 -1.1116792 153.57664 -21.122892 49.136631
27977500000 -21.350477 57.250847 -1.1134197 153.03444 -1.1280857 153.13055 -21.419664 51.415081
28005000000 -20.891073 57.575108 -1.1161039 152.52435 -1.1241263 152.43808 -21.103792 51.066216
28032500000 -21.092144 52.254627 -1.1264931 152.02708 -1.1171879 151.88493 -21.046286 46.53685
28060000000 -21.533268 52.052162 -1.1208011 151.43073 -1.1295877 151.39841 -21.529015 48.276329
28087500000 -21.083042 57.12648 -1.1250795 150.84444 -1.1131707 150.5737 -21.238413 49.180782
28115000000 -21.164036 50.425224 -1.1149051 150.27672 -1.1188159 150.21288 -20.969151 45.456608
28142500000 -21.563107 48.747429 -1.1231966 149.69557 -1.0925301 149.79895 -21.439459 43.53598
28170000000 -21.235916 51.487846 -1.1336993 149.24451 -1.1199729 149.10846 -21.5366 47.476032
28197500000 -21.067871 50.452049 -1.1112127 148.71758 -1.1159841 148.59103 -21.030584 44.096188
28225000000 -21.350828 45.929298 -1.0966014 147.96635 -1.1160982 147.98055 -21.377766 40.995693
28252500000 -21.501631 48.968552 -1.1075569 147.50899 -1.1177791 147.45181 -21.448742 43.467968
28280000000 -21.061888 48.244892 -1.1053214 146.97708 -1.1241478 146.94322 -21.17683 43.315754
28307500000 -21.09749 43.753887 -1.0900869 146.49634 -1.1103419 146.39941 -21.29517 39.245106
28335000000 -21.61895 45.328224 -1.0947841 145.81458 -1.1174667 145.74539 -21.776752 41.306519
28362500000 -21.329979 47.396648 -1.1009657 145.27414 -1.1019404 145.1935 -21.231022 41.141052
28390000000 -21.211271 41.786819 -1.0769635 144.82062 -1.1070179 144.74458 -21.195602 37.681248
28417500000 -21.565676 44.413994 -1.1087551 144.1882 -1.1135632 144.17267 -21.949982 36.363571
28445000000 -21.425053 45.960278 -1.1053394 143.67522 -1.1013659 143.56227 -21.7388 38.09885
28472500000 -21.314169 42.204605 -1.0855623 143.10535 -1.1153923 143.06993 -21.368105 34.975338
28500000000 -21.592697 40.436073 -1.0913081 142.51846 -1.1205431 142.46078 -21.64925 34.667027
28527500000 -21.786335 42.565742 -1.1016169 141.81532 -1.0905668 141.88248 -21.902695 37.010918
28555000000 -21.17342 39.912651 -1.0907834 141.53839 -1.0949919 141.33803 -21.389261 33.912788
28582500000 -21.382256 36.523476 -1.0950032 140.94023 -1.1112007 140.80667 -21.463594 32.392124
28610000000 -21.973341 39.573895 -1.0873016 140.34795 -1.0815771 140.1787 -21.986784 34.644566
28637500000 -21.384251 38.525753 -1.0882714 139.82822 -1.0949329 139.76213 -21.359118 31.378839
28665000000 -21.237631 34.273453 -1.0921342 139.20746 -1.0951512 139.11111 -21.436886 29.993807
28692500000 -22.088892 34.838638 -1.0854865 138.50806 -1.1094114 138.54646 -22.057188 30.918846
28720000000 -21.624474 37.40012 -1.0834616 138.0887 -1.1042577 137.99344 -21.830652 29.210304
28747500000 -21.572126 32.521687 -1.0920051 137.52594 -1.0810232 137.3407 -21.46921 27.884266
28775000000 -21.786932 33.094833 -1.0898328 136.89835 -1.0960306 136.93231 -22.258581 28.029856
28802500000 -22.029291 34.253807 -1.0788132 136.31471 -1.0906665 136.29659 -22.146036 28.013168
28830000000 -21.309561 31.235418 -1.0867192 135.84576 -1.0853802 135.76636 -21.516935 25.467863
28857500000 -21.849888 28.930418 -1.0922561 135.27193 -1.0931023 135.19269 -22.033823 24.45141
28885000000 -22.068296 32.479614 -1.077334 134.69417 -1.0827707 134.57944 -22.277115 24.546307
28912500000 -21.806261 29.614017 -1.0766464 134.12787 -1.0986362 134.09816 -21.703587 23.873724
28940000000 -21.761021 26.118261 -1.0724112 133.55896 -1.0754859 133.44038 -22.033154 22.378815
28967500000 -22.330578 29.545094 -1.0763054 133.03062 -1.0954269 132.84319 -22.564745 21.604689
28995000000 -21.858805 27.606354 -1.0784402 132.43839 -1.086774 132.36659 -21.824493 20.988018
29022500000 -21.539595 23.827492 -1.0688806 131.89687 -1.0689753 131.81688 -21.929647 19.333311
29050000000 -22.299797 24.873741 -1.0657079 131.32593 -1.087281 131.23215 -22.54599 18.738075
29077500000 -22.236917 25.369507 -1.0700173 130.74666 -1.0946921 130.64226 -21.886711 18.220221
29105000000 -21.632414 23.491705 -1.0721838 130.23943 -1.082497 130.05902 -21.747972 16.720186
29132500000 -22.357288 21.961031 -1.0725968 129.65144 -1.0955466 129.59773 -22.642849 15.984774
29160000000 -22.417 22.350866 -1.094905 129.1237 -1.087424 128.93103 -22.260292 17.970703
29187500000 -21.670921 22.405201 -1.0681711 128.58267 -1.0795646 128.4231 -21.979534 13.768044
29215000000 -22.2087 19.13262 -1.0867331 127.97494 -1.0914429 127.9169 -22.631687 13.630266
29242500000 -22.735685 18.857891 -1.0934386 127.3893 -1.1022167 127.35753 -22.277966 12.912904
29270000000 -22.002756 17.856218 -1.0769181 126.91833 -1.0859519 126.85323 -22.188293 11.207692
29297500000 -22.049522 17.632998 -1.0709826 126.21146 -1.0783632 126.10865 -22.419533 9.5900688
29325000000 -22.774818 15.213208 -1.0839055 125.74651 -1.1090615 125.65666 -22.568886 10.234363
29352500000 -22.346355 17.701176 -1.0784339 125.18485 -1.0899312 125.09261 -22.600328 9.1131334
29380000000 -22.075222 14.707742 -1.0802184 124.48845 -1.0755652 124.40101 -22.5821 4.9878736
29407500000 -22.60902 11.969339 -1.0886828 124.12643 -1.094978 124.05009 -22.690441 6.3654261
29435000000 -22.659519 12.140204 -1.0812958 123.63675 -1.0963625 123.52473 -22.559511 5.715405
29462500000 -22.256393 13.608552 -1.0762603 122.92457 -1.0874503 122.82543 -22.772429 3.1098316
29490000000 -22.673624 9.3039169 -1.0771602 122.41347 -1.0938202 122.38447 -23.173672 3.6883759
29517500000 -23.287958 10.457662 -1.0775832 121.868 -1.099296 121.73889 -22.954113 3.2568586
29545000000 -22.472933 10.835028 -1.0798507 121.29621 -1.0789254 121.26527 -22.644547 1.5173103
29572500000 -22.67334 6.7702088 -1.0914366 120.78979 -1.1033739 120.64308 -23.256948 -0.42460513
29600000000 -23.753775 4.6210775 -1.0969713 120.272 -1.0961295 120.0981 -22.961388 1.8778855
29627500000 -23.035763 10.927971 -1.078797 119.64445 -1.0951092 119.64552 -22.601778 -0.83899999
29655000000 -22.550838 4.921977 -1.075681 118.92393 -1.0855387 118.92817 -23.230236 -3.7167671
29682500000 -23.466948 2.6731086 -1.0796366 118.57693 -1.0854018 118.43985 -23.227921 -2.5122786
29710000000 -22.866768 5.9877119 -1.0718453 118.12229 -1.0923733 117.98717 -22.995426 -2.2886961
29737500000 -22.988123 4.0501785 -1.061996 117.32742 -1.0700678 117.3525 -23.442575 -7.0441394
29765000000 -23.50178 -1.5359582 -1.0841929 116.89273 -1.06183 116.72398 -23.588449 -4.0919847
29792500000 -23.634344 2.0181322 -1.0626634 116.35068 -1.0806663 116.27621 -23.095547 -3.734391
29820000000 -23.116217 4.6876717 -1.0610027 115.76099 -1.06961 115.55122 -23.677607 -9.027607
29847500000 -23.21932 -4.0900087 -1.0692279 115.17624 -1.0777255 115.08115 -23.411367 -9.0051241
29875000000 -24.22188 -2.566849 -1.0695444 114.58649 -1.0754074 114.57757 -23.386749 -5.7882562
29902500000 -23.629955 1.2750885 -1.0695448 113.97053 -1.0757947 113.98064 -23.338146 -13.528279
29930000000 -23.553709 -4.9364877 -1.0745294 113.48544 -1.0834574 113.37419 -23.82486 -12.681776
29957500000 -24.265316 -7.6718335 -1.0744306 112.9629 -1.0753169 112.86682 -23.563812 -9.098691
29985000000 -24.111256 0.1447372 -1.0734793 112.39695 -1.0627736 112.3628 -23.35495 -12.033027
30012500000 -23.75238 -7.0984893 -1.0678802 111.84131 -1.0597962 111.72187 -23.955404 -15.623224
30040000000 -24.131676 -9.9127998 -1.0690216 111.24728 -1.0933554 111.12535 -23.813618 -11.192851
30067500000 -24.201906 -5.5344005 -1.0593016 110.62732 -1.071393 110.69956 -23.743099 -14.699983
30095000000 -24.277225 -4.8216338 -1.0506867 110.03388 -1.080424 109.87067 -23.841736 -20.127069
30122500000 -23.808008 -13.435756 -1.0593479 109.67273 -1.0743766 109.45529 -24.094984 -14.358794
30150000000 -25.023243 -9.6659927 -1.0662661 109.02943 -1.0729762 108.91989 -23.952274 -14.713198
30177500000 -24.176323 -8.4837132 -1.0544381 108.36429 -1.0544497 108.28569 -24.057085 -21.483999
30205000000 -23.903463 -16.076321 -1.0562954 107.88026 -1.0747728 107.74839 -24.001232 -18.156515
30232500000 -24.222441 -15.787971 -1.0560032 107.32938 -1.0654323 107.30215 -24.059855 -17.232088
30260000000 -25.1238 -10.057755 -1.0556912 106.67535 -1.0629967 106.51448 -24.205727 -23.251965
30287500000 -24.080709 -17.857012 -1.0695114 106.04076 -1.0663812 106.10555 -24.317886 -21.926369
30315000000 -24.345865 -19.742582 -1.0535367 105.55678 -1.074728 105.45802 -24.49338 -21.12998
30342500000 -25.304207 -15.379303 -1.0543612 104.94666 -1.0627911 104.90247 -23.866312 -26.793962
30370000000 -24.342262 -19.034813 -1.0610454 104.34135 -1.0606498 104.37296 -24.357697 -26.696135
30397500000 -24.264652 -24.672075 -1.066368 103.81304 -1.0812839 103.80554 -24.777407 -24.040005
30425000000 -25.585468 -18.968838 -1.0755911 103.38712 -1.077624 103.28215 -24.149464 -25.546686
30452500000 -24.864391 -20.89031 -1.0496386 102.67688 -1.0626949 102.62286 -23.938433 -30.634766
30480000000 -24.22562 -24.08757 -1.0935179 102.27939 -1.0901438 102.09902 -24.912712 -27.472572
30507500000 -25.579721 -23.575712 -1.0567949 101.63018 -1.0745404 101.53418 -24.396774 -27.376156
30535000000 -25.667221 -24.9571 -1.0626892 101.04318 -1.0717146 100.97032 -24.163515 -32.712627
30562500000 -24.398495 -25.873999 -1.0474461 100.5103 -1.0915059 100.49181 -25.020973 -32.275703
30590000000 -25.417038 -29.289686 -1.0677276 99.956169 -1.0746571 99.900673 -24.932503 -30.71825
30617500000 -26.128059 -27.612551 -1.0534463 99.422646 -1.0665748 99.335243 -24.115646 -35.88625
30645000000 -24.551659 -30.69788 -1.0763781 98.847511 -1.0644128 98.696358 -25.011412 -36.280331
30672500000 -24.982212 -33.408653 -1.0611333 98.138618 -1.0792102 98.16259 -25.110035 -34.052734
30700000000 -26.383659 -34.616562 -1.0628023 97.586304 -1.0816993 97.578423 -24.378601 -35.896431
30727500000 -25.203747 -32.221962 -1.0707639 97.149452 -1.0819966 96.980659 -24.956936 -41.549286
30755000000 -24.421642 -36.508144 -1.0748593 96.491325 -1.0729431 96.401619 -25.326994 -37.626827
30782500000 -26.054377 -33.469383 -1.0836214 96.182793 -1.081778 95.801994 -24.621168 -41.42971
30810000000 -25.424738 -36.269611 -1.0832314 95.429779 -1.0835347 95.366821 -24.682898 -43.709061
30837500000 -24.770693 -37.900417 -1.0786041 94.947525 -1.0657277 94.749847 -25.742996 -45.164883
30865000000 -26.344316 -40.389732 -1.057845 94.304733 -1.0813124 94.169922 -25.084932 -43.145573
30892500000 -26.361589 -39.349857 -1.072006 93.713974 -1.0688962 93.541328 -24.509075 -47.577328
30920000000 -25.267443 -39.849045 -1.0720162 92.980011 -1.0849428 93.173843 -25.740442 -47.204426
30947500000 -25.775114 -45.023224 -1.0704569 92.576935 -1.0814253 92.408714 -25.49218 -46.647423
30975000000 -27.209391 -44.01754 -1.0838649 92.090652 -1.0844018 91.965866 -24.650143 -47.483894
31002500000 -25.753567 -43.377586 -1.0611068 91.600906 -1.0612615 91.488457 -25.676353 -49.446934
31030000000 -25.633657 -47.578949 -1.0781592 90.98333 -1.0562531 90.90889 -26.04142 -49.255451
31057500000 -27.374954 -51.068169 -1.0809844 90.440819 -1.0702823 90.260559 -24.882986 -51.508915
31085000000 -25.727829 -46.196384 -1.0720083 89.866341 -1.0939152 89.874344 -26.008324 -54.586735
31112500000 -25.629372 -47.31229 -1.0686237 89.131844 -1.0859542 89.048706 -26.362093 -55.3433
31140000000 -27.140116 -54.355263 -1.076004 88.639626 -1.0806289 88.634544 -24.861397 -52.22995
31167500000 -26.840326 -51.482246 -1.0605559 88.107933 -1.090417 88.129814 -25.717159 -58.927162
31195000000 -26.199657 -49.985126 -1.0768521 87.476883 -1.0761805 87.483963 -26.905117 -62.285446
31222500000 -27.648312 -56.713364 -1.0858226 86.942871 -1.0791258 86.799995 -25.393108 -58.461815
31250000000 -27.605423 -58.534409 -1.0784452 86.324661 -1.0877193 86.372185 -25.51289 -63.559303
31277500000 -26.656815 -52.126427 -1.0635417 85.800896 -1.088726 85.864861 -26.84775 -65.526405
31305000000 -27.055143 -58.955364 -1.0631686 85.284882 -1.0681883 85.287666 -25.962931 -64.912445
31332500000 -28.167265 -66.173958 -1.0609459 84.607956 -1.0720119 84.576195 -25.75511 -65.512474
31360000000 -27.034407 -53.479668 -1.0597949 84.289368 -1.089696 84.137276 -27.193699 -69.223518
31387500000 -27.34836 -58.969265 -1.0603896 83.623512 -1.0849316 83.556778 -26.470022 -72.007347
31415000000 -28.443169 -68.823326 -1.0828882 83.004387 -1.0941896 83.036179 -26.017082 -66.135864
31442500000 -27.474655 -61.616611 -1.0957791 82.538223 -1.0854616 82.443611 -27.0033 -76.026871
31470000000 -27.93244 -62.743279 -1.0790651 81.85379 -1.0903571 81.822266 -27.381817 -76.401169
31497500000 -27.995649 -74.364212 -1.0876331 81.370354 -1.080348 81.348785 -26.616545 -71.180527
31525000000 -28.957151 -69.361176 -1.07692 80.749374 -1.0916955 80.739677 -27.263025 -77.725349
31552500000 -28.268578 -61.620647 -1.0586866 80.27739 -1.074919 80.171387 -27.181847 -81.946823
31580000000 -28.313463 -78.019455 -1.0826943 79.588783 -1.0694803 79.488091 -26.890223 -75.149025
31607500000 -28.344471 -76.746651 -1.0727657 79.164459 -1.0930557 79.03717 -26.847057 -80.51178
31635000000 -28.762177 -65.192558 -1.0864658 78.522392 -1.0700382 78.478874 -27.641783 -90.088875
31662500000 -29.048819 -77.295052 -1.0664824 77.936157 -1.0763552 77.805511 -26.89382 -84.397774
31690000000 -28.808449 -84.683258 -1.0781306 77.441559 -1.0994366 77.29483 -26.89839 -83.894104
31717500000 -29.801785 -70.19812 -1.0748434 76.883942 -1.0995187 76.917503 -27.763641 -92.351944
31745000000 -29.494698 -84.01786 -1.0893776 76.323425 -1.0845617 76.221786 -27.548367 -89.107346
31772500000 -28.878489 -87.694412 -1.0660113 75.7733 -1.0855793 75.730392 -27.483278 -85.64534
31800000000 -30.141983 -84.276222 -1.0983515 75.149078 -1.0892885 75.118889 -27.211527 -98.180374
31827500000 -30.30315 -81.522507 -1.0757921 74.56797 -1.0783765 74.525841 -27.782 -97.086678
31855000000 -29.207043 -98.294243 -1.077503 74.089943 -1.0893464 74.008987 -27.290413 -93.859955
31882500000 -30.360067 -91.921959 -1.0964401 73.476555 -1.1127225 73.429817 -27.258831 -101.99493
31910000000 -31.595503 -91.462753 -1.0918427 72.878654 -1.0911697 72.898186 -28.23892 -105.56119
31937500000 -29.543779 -101.47089 -1.0987008 72.428619 -1.1118163 72.138176 -27.827566 -96.685257
31965000000 -30.805193 -103.67483 -1.0969266 71.812233 -1.0889592 71.675056 -27.993156 -108.07711
31992500000 -31.457073 -92.981895 -1.0839829 71.17263 -1.102214 71.082397 -28.509192 -117.69252
32020000000 -30.299648 -103.19297 -1.0986141 70.693481 -1.0945187 70.622406 -28.08396 -103.37746
32047500000 -30.261965 -107.49651 -1.0729198 70.006371 -1.088728 70.063133 -27.745733 -107.00814
32075000000 -32.867573 -111.34884 -1.0980657 69.547012 -1.0869639 69.449829 -28.668655 -118.30407
32102500000 -30.22003 -110.99255 -1.0818136 68.937431 -1.0961396 68.895416 -28.098742 -116.86881
32130000000 -30.116348 -115.47507 -1.096621 68.481201 -1.1106567 68.316757 -27.890007 -114.76167
32157500000 -31.920975 -121.07996 -1.0868648 67.993553 -1.1024262 67.850662 -28.124517 -121.80912
32185000000 -30.817762 -121.81505 -1.0892795 67.365585 -1.099484 67.1707 -28.494555 -120.77879
32212500000 -30.631416 -121.51063 -1.0825056 66.809265 -1.101416 66.546349 -28.668913 -119.71252
32240000000 -31.26269 -128.51505 -1.099712 66.265755 -1.0991782 66.073051 -27.314341 -129.14069
32267500000 -31.315264 -129.84937 -1.104892 65.692078 -1.1027873 65.513649 -28.344034 -128.26727
32295000000 -29.619568 -125.90465 -1.0831115 65.053314 -1.0912858 64.996513 -28.225294 -124.39962
32322500000 -30.935909 -133.80228 -1.0944264 64.467361 -1.1171523 64.401276 -28.260777 -133.09451
32350000000 -30.712948 -137.78304 -1.0905002 63.876156 -1.1051538 63.865829 -28.220388 -138.20937
32377500000 -30.443674 -130.27174 -1.1021407 63.25613 -1.1235459 63.23172 -28.871151 -132.93181
32405000000 -29.826996 -142.93793 -1.1080772 62.813488 -1.100338 62.739845 -28.113823 -133.49014
32432500000 -30.704975 -149.68657 -1.0913484 62.18795 -1.0880086 62.061714 -28.361059 -145.27373
32460000000 -30.590107 -144.64276 -1.1018447 61.58205 -1.1189566 61.636871 -29.238916 -139.69246
32487500000 -29.445009 -146.4162 -1.1075734 61.215572 -1.1066351 61.025925 -28.562946 -136.65895
32515000000 -30.150497 -158.82101 -1.096799 60.570332 -1.1120456 60.423878 -27.851362 -150.93497
32542500000 -29.652718 -152.54436 -1.1009231 60.005829 -1.1087972 59.790848 -28.803637 -153.45621
32570000000 -29.776701 -150.59366 -1.1027405 59.460369 -1.1215839 59.354412 -29.072294 -145.31891
32597500000 -29.258699 -159.32047 -1.101411 58.888 -1.1248367 58.6558 -27.39851 -152.0323
32625000000 -30.162611 -163.65936 -1.0994279 58.270271 -1.1027025 58.137875 -28.421412 -158.9182
32652500000 -29.733837 -157.79312 -1.0833228 57.683422 -1.10726 57.665417 -28.17527 -151.66309
32680000000 -28.864529 -172.08521 -1.0898358 57.194191 -1.1104944 57.178047 -27.312857 -155.605
32707500000 -28.576694 -170.6062 -1.1103823 56.495037 -1.1199394 56.55788 -28.416784 -165.77829
32735000000 -29.83164 -165.59879 -1.105342 56.034462 -1.1188039 55.981827 -29.098856 -157.61546
32762500000 -27.996918 -168.39845 -1.1075236 55.619526 -1.1169498 55.384075 -28.018934 -156.64171
32790000000 -27.788467 -174.29214 -1.0991409 54.96273 -1.1080861 54.914959 -27.469259 -173.13898
32817500000 -29.207132 -170.28993 -1.0942125 54.332928 -1.1208433 54.244339 -28.36447 -168.7991
32845000000 -28.210247 -172.68321 -1.1084704 53.809334 -1.1245861 53.793041 -27.984589 -164.41803
32872500000 -27.51502 -177.95204 -1.0951438 53.152828 -1.1230524 53.141258 -27.091581 -173.42155
32900000000 -28.752926 -175.72496 -1.1190263 52.676003 -1.1159064 52.622658 -27.733856 -178.22044
32927500000 -28.208677 -176.50832 -1.1214056 52.101963 -1.125798 51.921444 -27.962692 -168.60052
32955000000 -27.360149 177.15512 -1.1227105 51.584377 -1.1382524 51.610882 -27.276121 -177.57658
32982500000 -28.244125 174.63792 -1.1162759 50.927567 -1.1389236 50.736195 -27.729927 172.51932
33010000000 -28.593607 179.47357 -1.1229012 50.429878 -1.1209291 50.283138 -28.177689 -177.2762
33037500000 -26.887857 174.23976 -1.1231929 49.781914 -1.1271266 49.640888 -27.297325 -179.43463
33065000000 -27.022169 172.29015 -1.1377569 49.257912 -1.1333716 49.131519 -26.921936 173.88895
33092500000 -28.053627 172.13925 -1.1127433 48.623344 -1.1256205 48.609158 -27.604553 177.8129
33120000000 -26.199646 174.2538 -1.1172066 47.928185 -1.1124758 48.157345 -27.079554 179.20404
33147500000 -26.379782 167.17912 -1.1433229 47.648785 -1.1392111 47.513523 -26.23724 169.05902
33175000000 -27.944626 165.62947 -1.1109042 47.038342 -1.122504 46.898384 -27.157295 173.62531
33202500000 -26.755074 167.26523 -1.1320642 46.384285 -1.122094 46.291664 -26.973665 171.31992
33230000000 -25.953985 165.31223 -1.1173532 45.821957 -1.1326811 45.750546 -25.974546 165.41812
33257500000 -26.644299 158.67284 -1.1417682 45.175617 -1.1198623 45.230263 -26.257296 162.75015
33285000000 -26.37892 161.12578 -1.1372752 44.807419 -1.1488574 44.653915 -26.880226 166.5488
33312500000 -24.94418 162.83421 -1.1224809 44.222488 -1.1382056 44.099331 -26.055319 162.7021
33340000000 -26.044207 154.41809 -1.117538 43.628723 -1.1401557 43.572098 -25.795086 157.62172
33367500000 -26.275574 157.59744 -1.126322 43.009647 -1.1331031 43.058304 -26.288502 161.54558
33395000000 -25.860275 161.25714 -1.1349443 42.481731 -1.1585064 42.419178 -26.016695 162.02057
33422500000 -26.041021 153.45598 -1.1577108 41.977684 -1.1692064 41.923378 -25.548185 153.61259
33450000000 -25.718973 152.36916 -1.1491367 41.229286 -1.1574347 41.356762 -25.76351 152.84866
33477500000 -25.291283 156.39854 -1.1832687 40.733799 -1.1512536 40.751228 -25.659222 156.42082
33505000000 -24.967428 150.53636 -1.1579403 40.24781 -1.1397582 40.117832 -24.678856 153.70045
33532500000 -25.562317 143.0728 -1.149392 39.62516 -1.1467228 39.387455 -25.662291 149.377
33560000000 -25.497276 151.58047 -1.1502043 39.008476 -1.1645069 38.958984 -24.931774 152.58569
33587500000 -24.705824 148.12196 -1.161199 38.438622 -1.1742033 38.473164 -24.513971 147.15411
33615000000 -24.511307 142.04471 -1.1443615 37.973755 -1.1529249 38.063675 -25.164772 145.25977
33642500000 -24.854958 143.85031 -1.1332654 37.353268 -1.1598498 37.200809 -24.812162 149.99602
33670000000 -24.75876 147.22324 -1.1644626 37.004757 -1.1888427 36.8064 -23.979191 146.03651
33697500000 -23.929562 137.92189 -1.15596 36.324753 -1.1629912 36.221378 -24.662022 141.95015
33725000000 -24.760605 141.66711 -1.151016 35.499592 -1.1765517 35.712448 -24.67964 147.58598
33752500000 -24.421789 139.0627 -1.1684262 35.129421 -1.1637603 35.180309 -24.190468 144.52327
33780000000 -23.683855 135.54466 -1.1616864 34.532673 -1.1774285 34.645962 -24.15947 138.32503
33807500000 -23.910219 132.00252 -1.1592075 33.976234 -1.162778 33.946445 -24.062038 142.68785
33835000000 -24.638123 138.26357 -1.1598781 33.5933 -1.1480851 33.352398 -23.683535 141.68454
33862500000 -23.540459 135.07925 -1.172967 32.912071 -1.1764451 32.932655 -23.418295 134.30336
33890000000 -23.355152 130.98473 -1.1796774 32.381512 -1.1811347 32.384914 -23.723742 137.25848
33917500000 -23.928959 130.5144 -1.1675311 31.709099 -1.1770982 31.796324 -23.50967 135.37943
33945000000 -23.593725 134.6452 -1.1886986 30.99268 -1.1736456 31.061037 -23.01499 130.44817
33972500000 -22.585491 127.47897 -1.1782422 30.821066 -1.1970062 30.576056 -22.949133 132.68027
34000000000 -23.421967 128.75537 -1.1701016 30.175196 -1.1874708 30.042662 -23.596186 134.86357
34027500000 -23.387905 130.52023 -1.1908915 29.702314 -1.2088389 29.3965 -22.662861 127.41042
34055000000 -22.317673 126.37969 -1.1864519 29.006704 -1.1921009 29.100517 -22.817749 125.90304
34082500000 -23.135738 123.64387 -1.1785567 28.482969 -1.1951897 28.229546 -23.550827 129.54788
34110000000 -23.365585 124.56422 -1.1823499 27.799582 -1.1928306 27.830345 -21.908615 128.30659
34137500000 -22.219755 121.97512 -1.1970471 27.357981 -1.1829678 27.385202 -22.56517 123.89013
34165000000 -22.364222 116.08819 -1.1848645 26.855316 -1.1800941 26.780272 -22.68574 128.95593
34192500000 -22.986496 120.43781 -1.164557 26.161736 -1.2085066 26.215029 -22.312677 125.34509
34220000000 -21.961287 121.34987 -1.1875269 25.790813 -1.1996351 25.512537 -21.695093 117.95114
34247500000 -21.901423 118.53551 -1.1837867 24.991234 -1.2081435 24.971531 -22.816048 124.99446
34275000000 -22.306175 116.71922 -1.2091433 24.581888 -1.2134675 24.545189 -22.341892 123.39789
34302500000 -21.928768 118.79633 -1.2010729 24.06897 -1.1812493 23.987617 -21.259224 116.25406
34330000000 -21.317064 114.94748 -1.190129 23.581886 -1.2030213 23.291483 -22.106098 118.11298
34357500000 -22.171686 113.38381 -1.2063931 22.864231 -1.1912262 22.778822 -21.709419 120.36182
34385000000 -21.716206 116.78465 -1.1965739 22.31106 -1.2030087 22.188364 -20.736336 117.18726
34412500000 -21.049255 113.90898 -1.1968145 21.827965 -1.2183553 21.793621 -21.62731 112.86686
34440000000 -21.070147 110.2448 -1.2366652 21.131983 -1.2293578 21.238022 -22.39513 119.18859
34467500000 -21.3894 111.94849 -1.1946232 20.677134 -1.1891061 20.515491 -20.762665 113.6522
34495000000 -20.76679 112.46051 -1.1879401 20.136618 -1.2103009 20.173763 -20.66818 109.03001
34522500000 -20.454088 109.43287 -1.1995127 19.621078 -1.2067519 19.470495 -21.644037 114.10863
34550000000 -21.283543 106.9614 -1.1753446 19.020437 -1.2129189 18.924116 -20.533808 111.83542
34577500000 -20.606562 110.21764 -1.2092099 18.482727 -1.2085305 18.277557 -20.238533 106.98592
34605000000 -20.116974 107.46913 -1.1757392 18.003925 -1.2264653 17.779179 -21.295717 107.77994
34632500000 -20.838306 103.52308 -1.1873868 17.244923 -1.2314317 17.267319 -20.624599 110.79719
34660000000 -20.358061 107.35913 -1.2253716 16.841782 -1.2172225 16.780752 -19.797335 105.55494
34687500000 -19.97286 105.99442 -1.1994274 16.11034 -1.2216542 16.181608 -20.830339 105.99348
34715000000 -20.22028 101.03758 -1.1892287 15.696666 -1.211537 15.635694 -21.043718 109.15566
34742500000 -20.2349 105.16658 -1.2395195 15.231052 -1.2082494 14.951271 -19.663162 105.64558
34770000000 -19.779305 104.2076 -1.2214618 14.387785 -1.2441195 14.449067 -20.03145 104.51938
34797500000 -19.729851 99.847137 -1.2438437 13.902908 -1.209555 13.950012 -20.965664 108.20139
34825000000 -20.021494 100.02143 -1.205399 13.357034 -1.2332252 13.192227 -19.643879 104.70703
34852500000 -19.652468 104.19799 -1.2581861 12.969383 -1.2566366 12.89792 -19.41003 100.14661
34880000000 -19.442591 98.028374 -1.2145237 12.406057 -1.2483672 12.197533 -20.730095 103.00954
34907500000 -19.617277 97.436119 -1.2038615 11.762989 -1.2248499 11.614833 -19.627762 102.1272
34935000000 -19.451349 100.02182 -1.2366023 11.172777 -1.2385901 11.186969 -19.283722 99.496681
34962500000 -19.175972 98.643867 -1.2454342 10.496577 -1.2476468 10.446578 -20.069143 98.034843
34990000000 -19.188889 94.871689 -1.2029909 10.046304 -1.2023416 10.01289 -19.640043 100.15653
35017500000 -19.304453 97.42775 -1.2299405 9.5517063 -1.2687784 9.3154755 -18.638184 98.135681
35045000000 -18.927248 97.217621 -1.2322749 9.0491457 -1.2543862 8.7375002 -19.619755 95.45491
35072500000 -18.63731 91.075455 -1.2362685 8.4338312 -1.2530761 8.3560438 -19.600569 96.388504
35100000000 -18.864431 95.263245 -1.250232 7.8313489 -1.2412496 7.8248458 -18.557943 93.890923
35127500000 -19.00893 96.002419 -1.263996 7.4963121 -1.2449949 7.2613416 -19.017263 92.612526
35155000000 -18.439716 91.84391 -1.2366446 6.9068589 -1.2184461 6.7013855 -19.637831 91.537704
35182500000 -18.459454 91.42495 -1.253965 6.2072001 -1.2348714 6.1250672 -18.528399 94.164154
35210000000 -18.617298 95.863953 -1.2615674 5.581635 -1.2412179 5.482132 -18.668093 91.511765
35237500000 -17.986708 90.845093 -1.2100916 4.9756031 -1.2491975 4.9038596 -19.365147 89.265953
35265000000 -18.130709 89.474922 -1.2417239 4.4867597 -1.2463174 4.4826112 -18.786535 92.816597
35292500000 -18.559891 90.995514 -1.2571315 3.7447486 -1.2530692 3.9778566 -18.219593 90.165543
35320000000 -17.836761 90.846909 -1.2390509 3.2229357 -1.2666447 3.4170725 -19.030468 85.870872
35347500000 -17.908007 87.797813 -1.2240181 2.8123589 -1.2546682 2.7931533 -18.714186 88.761147
35375000000 -18.135324 88.33329 -1.2469572 2.155664 -1.2631241 2.218931 -18.036394 88.511887
35402500000 -17.954638 89.044838 -1.2448407 1.5196348 -1.2650226 1.5092639 -18.633364 83.531166
35430000000 -17.43232 86.047844 -1.2544031 1.2161686 -1.2788236 0.89252359 -18.727316 86.264145
35457500000 -18.104887 87.58474 -1.2384435 0.45007548 -1.2915571 0.41527656 -17.713465 86.207756
35485000000 -17.773094 85.930115 -1.2559048 -0.23706514 -1.2676016 0.063051201 -17.922752 82.123947
35512500000 -17.155321 84.384804 -1.2715001 -0.59238368 -1.2650008 -0.72056967 -18.471754 81.465599
35540000000 -17.619303 82.875336 -1.2801179 -1.0521436 -1.2960413 -1.2072725 -17.631134 84.442406
35567500000 -17.667431 85.059593 -1.2833955 -1.5794951 -1.2721027 -1.8392825 -17.71183 80.45446
35595000000 -17.195353 82.088913 -1.2671808 -2.2250273 -1.2476168 -2.4512284 -18.315994 79.939888
35622500000 -17.331085 80.999016 -1.2937804 -2.8787878 -1.2978007 -2.9944332 -17.669823 81.943977
35650000000 -17.660004 80.859314 -1.2793043 -3.3040509 -1.3129523 -3.6519089 -17.214586 79.114571
35677500000 -16.917791 81.636864 -1.2692056 -3.8903532 -1.2872146 -4.0962138 -17.902184 76.837677
35705000000 -16.857073 78.729843 -1.270831 -4.6144423 -1.2797797 -4.720562 -17.59692 77.371635
35732500000 -17.41568 79.581963 -1.2984537 -5.0813456 -1.3247563 -5.1515799 -17.373129 78.328979
35760000000 -17.253546 77.854286 -1.2716812 -5.4723539 -1.288494 -5.6102805 -17.404854 75.145332
35787500000 -16.603716 78.184883 -1.2985277 -6.1901708 -1.3263839 -6.4182959 -17.349293 76.239883
35815000000 -17.192787 76.657822 -1.2941623 -6.6478796 -1.3227454 -6.9672275 -17.29039 76.738167
35842500000 -17.179733 77.386909 -1.2921503 -7.1553402 -1.3030992 -7.2561874 -17.432373 72.503044
35870000000 -16.516352 75.639679 -1.318181 -7.8991566 -1.3108256 -7.8760638 -17.161985 72.981842
35897500000 -16.917877 74.602646 -1.3076797 -8.4513226 -1.3486757 -8.4828043 -16.77034 74.687988
35925000000 -16.879715 73.913033 -1.3225693 -8.9046783 -1.3271962 -8.8694477 -16.814226 71.102768
35952500000 -16.387283 73.868706 -1.3146626 -9.5641165 -1.3204591 -9.3721018 -16.974182 71.344429
35980000000 -16.387445 72.086319 -1.3074934 -9.9723043 -1.3189806 -10.394558 -16.813988 71.278648
36007500000 -16.729898 71.938972 -1.3474778 -10.398132 -1.3343496 -10.579637 -16.876301 69.520836
36035000000 -16.362165 73.180557 -1.3095882 -11.098162 -1.3126515 -11.368359 -16.575073 68.454559
36062500000 -16.229107 70.149391 -1.3180817 -11.917716 -1.3446467 -11.531667 -16.893726 69.230782
36090000000 -16.712467 68.998085 -1.3375047 -11.991068 -1.367532 -12.137292 -16.563898 69.813499
36117500000 -16.261618 70.10585 -1.3132998 -12.587553 -1.3127807 -12.896461 -16.478437 66.526878
36145000000 -15.874846 70.522881 -1.3274152 -13.327386 -1.3849237 -13.281761 -16.716883 66.851189
36172500000 -16.317774 69.366486 -1.3253944 -13.575267 -1.344388 -13.612023 -16.651665 66.405769
36200000000 -16.368671 67.555672 -1.3365099 -14.221752 -1.3623959 -14.365808 -16.3137 64.174316
36227500000 -15.960927 67.572624 -1.3149362 -15.015675 -1.3644415 -14.904711 -16.58115 64.273964
36255000000 -15.967663 64.694839 -1.3386528 -15.504354 -1.3605709 -15.578038 -16.334106 66.032555
36282500000 -16.378735 66.012856 -1.3792417 -16.10519 -1.3574404 -15.918142 -16.174553 62.905727
36310000000 -15.96624 64.718559 -1.3274802 -16.596201 -1.384292 -16.666889 -15.882961 64.345314
36337500000 -15.799856 62.777561 -1.3479992 -17.127447 -1.3707975 -17.247358 -16.160158 62.221794
36365000000 -16.150408 63.320511 -1.3477001 -17.499128 -1.3529807 -17.721308 -16.112438 62.139156
36392500000 -15.858232 64.747253 -1.339625 -18.125479 -1.3612894 -18.132542 -15.993341 61.719456
36420000000 -15.403282 62.160179 -1.3635159 -18.889156 -1.3373117 -18.881062 -16.100508 60.696873
36447500000 -15.952514 61.584805 -1.3678139 -19.348164 -1.3823606 -19.373663 -15.91498 60.682461
36475000000 -16.052414 61.24279 -1.3606133 -19.903605 -1.3471056 -20.084051 -15.77752 62.642078
36502500000 -15.547248 61.145405 -1.3647625 -20.319229 -1.3710626 -20.438179 -15.855381 59.031311
36530000000 -15.515378 60.250343 -1.3799733 -20.823023 -1.3799399 -21.045877 -15.876708 58.779709
36557500000 -16.0504 59.284805 -1.3665816 -21.281786 -1.3825734 -21.402185 -15.498558 57.901031
36585000000 -15.405721 58.99778 -1.3977978 -22.134892 -1.3865966 -22.169216 -15.70251 57.090534
36612500000 -15.243489 57.674042 -1.3720027 -22.574202 -1.3351934 -22.65049 -15.665169 55.579575
36640000000 -15.832741 56.665901 -1.3873365 -22.966909 -1.3898903 -22.985853 -15.392695 56.697021
36667500000 -15.281627 56.818287 -1.4013268 -23.767042 -1.3951191 -23.740139 -15.602963 57.203384
36695000000 -15.134843 57.711201 -1.3532671 -24.297726 -1.4017165 -24.184034 -15.38901 54.689232
36722500000 -15.515882 53.971218 -1.3437394 -24.980061 -1.3865435 -24.852751 -15.304263 54.843525
36750000000 -15.451847 53.779182 -1.3944491 -25.332161 -1.4045779 -25.617643 -15.40634 54.665955
36777500000 -14.707286 55.050083 -1.3596064 -25.769419 -1.3711365 -25.760647 -15.261313 52.454964
36805000000 -15.233633 52.144321 -1.423458 -26.300926 -1.3566256 -26.550163 -15.080263 51.493
36832500000 -15.381063 51.489708 -1.3699518 -27.052677 -1.372546 -26.976463 -15.235807 54.032108
36860000000 -14.485976 54.010609 -1.3860074 -27.088694 -1.3726788 -27.401884 -14.967435 51.464172
36887500000 -15.093946 51.96455 -1.3990644 -28.267099 -1.3886817 -28.028482 -15.024948 49.191906
36915000000 -15.23132 48.635132 -1.3767219 -28.698315 -1.4168005 -28.6154 -15.008817 50.817551
36942500000 -14.492075 51.59613 -1.4079466 -29.271284 -1.401799 -29.231771 -15.290474 50.063759
36970000000 -14.749689 48.248119 -1.3305399 -29.377474 -1.368026 -29.73152 -14.980171 48.748516
36997500000 -15.005302 47.085144 -1.3640198 -30.300066 -1.3937005 -30.105476 -14.907928 49.377415
37025000000 -14.666764 47.757633 -1.4082179 -30.639133 -1.405773 -30.997944 -14.965999 48.55341
37052500000 -14.437374 49.355103 -1.34746 -31.232023 -1.3962821 -31.245882 -14.728276 47.128799
37080000000 -14.901291 44.382977 -1.3538108 -31.811008 -1.3615158 -31.989796 -14.468636 46.732388
37107500000 -14.43047 46.381966 -1.4103138 -32.395054 -1.4042215 -32.504375 -15.196019 45.893753
37135000000 -14.265268 48.565197 -1.3664632 -32.990463 -1.3926848 -33.082737 -14.684778 45.083122
37162500000 -14.645605 43.583012 -1.3773215 -33.239742 -1.3963741 -33.622837 -14.374372 44.897511
37190000000 -14.740772 43.29678 -1.4064788 -34.138924 -1.4007099 -34.256901 -14.932973 45.239201
37217500000 -14.055232 47.517113 -1.4247417 -34.668041 -1.4589343 -34.690449 -14.781189 44.924706
37245000000 -14.396245 42.676941 -1.4122068 -35.216862 -1.411899 -35.023617 -14.413685 43.203804
37272500000 -14.374445 39.890804 -1.4144175 -35.48325 -1.4016006 -35.973583 -14.652064 43.249157
37300000000 -14.275389 45.414509 -1.4053363 -36.300026 -1.3933883 -36.165546 -14.653982 41.94276
37327500000 -13.987563 41.512161 -1.3915128 -36.840851 -1.3878859 -36.772411 -14.158553 41.757381
37355000000 -14.248387 38.559834 -1.3791147 -37.335529 -1.4302896 -37.332211 -14.468376 40.313927
37382500000 -14.044219 42.088989 -1.4017578 -37.938385 -1.4197372 -38.11982 -14.633941 40.816521
37410000000 -14.120383 41.911057 -1.3970069 -38.349243 -1.3981004 -38.320816 -14.206481 39.116291
37437500000 -14.194657 36.273724 -1.4136866 -39.194675 -1.3927137 -38.977718 -14.213583 37.909737
37465000000 -14.152593 39.45882 -1.4083482 -39.456909 -1.389298 -39.665771 -14.476749 38.082043
37492500000 -13.951861 40.726727 -1.4032066 -39.773739 -1.3873222 -39.876621 -14.225128 37.663738
37520000000 -13.988905 35.992165 -1.3808807 -40.65139 -1.4201802 -40.717262 -14.093124 37.650978
37547500000 -13.999119 35.604443 -1.3978457 -41.203812 -1.4139669 -41.473236 -14.605927 35.862629
37575000000 -14.046456 39.818348 -1.4206146 -41.586739 -1.4092112 -41.581093 -14.169022 35.294781
37602500000 -13.715851 33.954891 -1.3942614 -42.265465 -1.4220351 -42.289188 -13.923955 35.466408
37630000000 -13.83169 32.49902 -1.397679 -42.940636 -1.4171033 -42.913326 -14.191535 34.284405
37657500000 -14.106092 37.374874 -1.3801974 -43.387402 -1.4547083 -43.441025 -14.173355 35.80801
37685000000 -13.746473 34.21452 -1.3896209 -43.744789 -1.3744705 -43.946861 -13.710155 35.222927
37712500000 -13.64692 30.532547 -1.3867508 -44.369305 -1.4060346 -44.525509 -13.684855 30.295107
37740000000 -13.787903 34.938927 -1.4009744 -44.990185 -1.4584675 -45.139221 -14.346612 31.534658
37767500000 -13.863518 32.826656 -1.399585 -45.474537 -1.4305559 -45.642773 -13.77419 33.097752
37795000000 -13.575738 29.733183 -1.3973675 -46.015724 -1.3885505 -46.131882 -13.800213 31.223766
37822500000 -14.039461 31.328312 -1.4172361 -46.817169 -1.4302889 -46.780128 -14.205154 29.209677
37850000000 -13.804571 33.275337 -1.4046258 -47.162281 -1.4116492 -47.330944 -13.795924 30.980604
37877500000 -13.55621 28.653481 -1.4041185 -47.646175 -1.4088838 -47.757092 -13.653019 28.555662
37905000000 -13.700227 29.575491 -1.4100928 -48.453144 -1.4155054 -48.317669 -13.798979 27.089521
37932500000 -13.819697 29.997101 -1.4351572 -48.676186 -1.4254742 -48.805092 -13.886471 28.439697
37960000000 -13.286048 27.157341 -1.4406787 -49.299442 -1.3991327 -49.284351 -13.536161 27.646872
37987500000 -13.5353 27.314026 -1.3922161 -50.080414 -1.4371159 -50.111935 -13.908782 24.595278
38015000000 -13.719459 28.026428 -1.4214059 -50.203773 -1.4319725 -50.293892 -13.794017 26.831188
38042500000 -13.478486 26.954229 -1.4058267 -51.124912 -1.4226544 -51.044514 -13.609797 26.802685
38070000000 -13.191835 25.628815 -1.4212645 -51.493851 -1.4774423 -51.489422 -13.500479 23.088968
38097500000 -13.693799 25.334312 -1.4150074 -52.028664 -1.441823 -51.880009 -13.740635 24.791149
38125000000 -13.37433 26.815851 -1.4125712 -52.597225 -1.4213988 -52.650356 -13.693492 24.324707
38152500000 -13.186044 23.212746 -1.4034512 -53.146545 -1.4284383 -53.258339 -13.584846 21.493181
38180000000 -13.553306 22.775879 -1.4012425 -53.690681 -1.425467 -53.700855 -13.668394 20.60627
38207500000 -13.378914 24.879259 -1.4132791 -54.131752 -1.4269603 -54.229027 -13.614783 22.927227
38235000000 -13.149117 22.652931 -1.3960036 -54.855938 -1.4319531 -54.999611 -13.377783 21.343966
38262500000 -13.238246 21.20546 -1.4273059 -55.437355 -1.4350423 -55.698292 -13.637116 19.863796
38290000000 -13.490098 22.639277 -1.4204319 -55.682682 -1.4216279 -55.922924 -13.644445 20.829288
38317500000 -13.19253 21.988367 -1.3748225 -56.52626 -1.3962613 -56.718433 -13.38297 19.812021
38345000000 -12.997467 20.525169 -1.4556029 -57.021 -1.4624307 -57.007042 -13.472529 18.236897
38372500000 -13.572242 20.566257 -1.4374034 -57.516552 -1.4506664 -57.439079 -13.669145 18.85564
38400000000 -13.307567 20.383591 -1.3899121 -58.129021 -1.4056833 -58.122009 -13.370481 17.629854
38427500000 -13.135 18.348139 -1.4458501 -58.547153 -1.4487544 -58.906952 -13.310462 14.862308
38455000000 -13.235336 17.068058 -1.3950115 -59.105145 -1.4269272 -58.97913 -13.604035 17.245754
38482500000 -13.269141 17.700548 -1.4494281 -59.579002 -1.4371302 -59.857277 -13.587704 17.273863
38510000000 -12.767988 16.350456 -1.4472439 -60.389862 -1.439317 -60.564976 -13.348962 14.850224
38537500000 -13.070805 16.491264 -1.436331 -60.686047 -1.4489962 -60.613285 -13.50673 14.506312
38565000000 -13.216015 16.409988 -1.4287703 -61.12537 -1.3817791 -61.519161 -13.611775 14.704078
38592500000 -13.131786 16.086321 -1.4290445 -61.865582 -1.463977 -61.965443 -13.302954 12.883828
38620000000 -12.871449 13.333186 -1.42962 -62.509647 -1.4280863 -62.291515 -13.297955 12.347104
38647500000 -13.2033 15.268517 -1.4386799 -62.925461 -1.4240903 -62.927967 -13.459237 13.333673
38675000000 -13.009686 14.352907 -1.4267924 -63.475052 -1.4378432 -63.597305 -13.155139 12.37803
38702500000 -12.80098 12.48783 -1.4438568 -63.993164 -1.4566852 -64.647713 -13.179076 11.698018
38730000000 -13.301071 11.998001 -1.4146104 -64.234222 -1.418517 -64.684319 -13.435253 12.589023
38757500000 -12.956944 12.570516 -1.4122294 -65.24762 -1.4000095 -65.290955 -13.210764 9.0890093
38785000000 -12.872799 11.370752 -1.4344594 -65.91378 -1.4402117 -65.562355 -13.081805 9.4803743
38812500000 -12.989343 10.479412 -1.4483595 -66.21521 -1.4392885 -65.908905 -13.338319 9.6073523
38840000000 -13.158279 11.632115 -1.4357711 -66.79689 -1.3988744 -66.835373 -13.378701 9.0229864
38867500000 -12.764132 11.018012 -1.3942107 -67.504135 -1.4061356 -67.526314 -13.037445 8.8630657
38895000000 -12.993056 9.7966242 -1.4322799 -67.774948 -1.4416555 -67.894844 -13.182408 8.9782143
38922500000 -13.184463 8.4332886 -1.4377769 -68.508629 -1.3972225 -68.562775 -13.516505 6.8373504
38950000000 -12.914318 9.5119972 -1.3937087 -69.320549 -1.4175016 -69.360558 -13.168291 6.7310023
38977500000 -12.765088 8.9574614 -1.4110355 -69.561531 -1.4935279 -69.710663 -13.041715 6.5931554
39005000000 -13.198662 6.2132492 -1.4252592 -69.716187 -1.4221967 -70.064018 -13.509528 6.6387048
39032500000 -12.793139 7.8724008 -1.4204983 -70.608124 -1.3991327 -70.633408 -13.165146 4.977046
39060000000 -12.701509 7.9845004 -1.4213431 -71.162537 -1.4497068 -71.14093 -13.244493 5.3116102
39087500000 -13.28209 4.8461804 -1.4520676 -71.723457 -1.4328574 -71.555313 -13.421557 4.6556659
39115000000 -13.01852 7.0556684 -1.4611477 -72.429672 -1.4318447 -72.313347 -13.082114 3.5978243
39142500000 -12.761415 5.9803958 -1.4352252 -73.088699 -1.4126031 -73.008324 -13.095345 4.0780573
39170000000 -13.021957 2.9819508 -1.4671686 -73.091537 -1.4544477 -73.06852 -13.241212 3.4619308
39197500000 -12.980503 2.7752876 -1.4014015 -73.76757 -1.4334482 -73.962334 -13.118183 1.0545275
39225000000 -12.928108 4.6290655 -1.4210943 -74.70546 -1.3837861 -74.830627 -12.928149 1.5025716
39252500000 -13.085227 1.4394447 -1.4374456 -74.684624 -1.4653095 -75.163361 -13.308832 1.4041532
39280000000 -13.039338 1.6299715 -1.4536059 -75.265366 -1.4581965 -75.578758 -13.349928 -0.36894223
39307500000 -12.979306 4.8957009 -1.3822767 -76.234879 -1.4037334 -76.007317 -13.020477 -0.26418361
39335000000 -12.848009 0.81552958 -1.4105656 -76.540199 -1.503792 -76.563248 -13.190917 1.5374308
39362500000 -12.904768 -0.31606627 -1.4282876 -77.105759 -1.4519584 -77.07 -13.246591 -0.85111427
39390000000 -12.775607 1.9627193 -1.39426 -77.479446 -1.3959982 -77.975899 -12.867856 -1.8872417
39417500000 -12.885574 0.92357159 -1.4736108 -78.105309 -1.4396014 -78.237503 -13.184444 -1.2632291
39445000000 -12.908947 -2.6807282 -1.452315 -78.591042 -1.4915195 -78.920563 -13.321192 -2.3707395
39472500000 -12.866535 0.72081435 -1.4264508 -79.137428 -1.4025286 -79.553581 -12.869613 -3.4277439
39500000000 -13.04489 -1.1861837 -1.4244906 -79.760674 -1.4663111 -80.000702 -12.988737 -3.5051539
39527500000 -12.828083 -3.8932996 -1.4846386 -80.435471 -1.4600844 -80.773964 -13.194915 -3.2491143
39555000000 -12.907892 -1.8052331 -1.3975772 -80.84024 -1.4056897 -80.817047 -12.913805 -4.5353532
39582500000 -12.950878 -2.3573749 -1.3969115 -81.601196 -1.3735832 -81.451149 -12.945338 -4.9113026
39610000000 -12.864648 -6.735682 -1.4290948 -82.023643 -1.4548038 -82.140053 -13.114551 -4.9665017
39637500000 -12.64723 -3.5746481 -1.4402506 -82.473877 -1.4226328 -82.43972 -13.000313 -5.7157917
39665000000 -13.041059 -1.8567843 -1.3673074 -83.134964 -1.4092222 -83.218849 -12.937033 -6.5386686
39692500000 -12.699607 -7.7157764 -1.4429113 -83.345116 -1.4196244 -83.793327 -13.155322 -6.7103524
39720000000 -12.755978 -6.622684 -1.4536616 -84.054832 -1.4935231 -84.494514 -13.167673 -5.1551938
39747500000 -13.292789 -4.5764709 -1.357404 -84.638199 -1.4131705 -84.878365 -12.920575 -9.1166315
39775000000 -12.904968 -8.0561676 -1.405221 -85.613892 -1.4757549 -85.266525 -13.215002 -9.2683039
39802500000 -12.659476 -8.6104326 -1.4353715 -85.939621 -1.4996784 -86.040306 -13.154346 -8.011961
39830000000 -13.265848 -4.5011559 -1.4259946 -86.360901 -1.3916247 -86.39019 -12.779319 -10.593372
39857500000 -13.012647 -8.9891062 -1.4185486 -87.035393 -1.4217176 -87.066605 -13.215456 -11.129524
39885000000 -12.840992 -10.2017 -1.4104134 -87.647514 -1.4034691 -87.483047 -13.149533 -9.6490717
39912500000 -13.079635 -8.1582136 -1.4240835 -87.99057 -1.4273725 -87.854263 -12.87111 -10.626451
39940000000 -13.237845 -10.196369 -1.4047238 -88.4832 -1.4085677 -88.68792 -12.992414 -12.935793
39967500000 -12.606451 -11.181199 -1.378233 -89.153023 -1.4727575 -89.092148 -13.322329 -11.61386
39995000000 -13.065615 -10.521578 -1.437393 -89.410583 -1.4314715 -89.680588 -12.957599 -11.575467
40022500000 -13.339747 -10.645896 -1.3791316 -90.203598 -1.3812376 -90.125282 -12.883494 -14.879562
40050000000 -12.666191 -12.844318 -1.4269582 -90.594582 -1.3994124 -90.937523 -13.290189 -13.497724
40077500000 -12.935465 -11.763916 -1.410705 -91.254364 -1.4348114 -91.350655 -13.05307 -13.109422
40105000000 -13.39493 -12.811809 -1.3843063 -91.74456 -1.4019227 -91.555931 -12.743958 -16.111191
40132500000 -12.82775 -13.449211 -1.4287081 -92.42968 -1.4100033 -92.555214 -13.47701 -16.088982
40160000000 -12.96301 -14.148767 -1.4094908 -93.069023 -1.4291581 -93.304924 -13.167164 -15.698573
40187500000 -13.758176 -15.805912 -1.366855 -93.285294 -1.4148123 -93.238091 -12.949062 -17.668335
40215000000 -12.938565 -15.408615 -1.370454 -93.935387 -1.3752137 -94.23156 -12.970579 -18.172375
40242500000 -12.82443 -14.733306 -1.3941501 -94.380051 -1.4224507 -94.731461 -13.23012 -16.176033
40270000000 -13.548901 -15.621578 -1.3792396 -94.910904 -1.4138436 -95.071869 -12.853247 -17.671587
40297500000 -13.212403 -18.011305 -1.4146202 -95.481644 -1.4155922 -95.746696 -13.156118 -20.52746
40325000000 -12.665246 -17.30961 -1.3637352 -96.075302 -1.3540568 -96.297913 -13.369686 -18.643984
40352500000 -13.450668 -19.283463 -1.3921098 -96.570084 -1.3832215 -97.05925 -13.124317 -20.257645
40380000000 -13.524658 -18.546173 -1.4010191 -97.430817 -1.3906209 -97.40139 -13.176786 -21.46174
40407500000 -12.840444 -17.451862 -1.3957897 -97.786682 -1.4094313 -97.822716 -13.565605 -21.545492
40435000000 -13.363417 -19.785566 -1.3948689 -98.564873 -1.388975 -98.38517 -13.390111 -19.952406
40462500000 -13.590755 -21.811695 -1.396632 -98.740044 -1.3674777 -98.954178 -13.117547 -22.88954
40490000000 -13.047475 -18.889008 -1.3951837 -99.391998 -1.3850027 -99.381775 -13.501795 -23.721285
40517500000 -13.35867 -21.243893 -1.3183707 -99.912331 -1.3703777 -100.18619 -13.335663 -21.349524
40545000000 -13.660846 -23.844917 -1.3859009 -100.52692 -1.3669684 -100.65389 -13.288809 -24.190325
40572500000 -13.336442 -20.844021 -1.3515339 -101.15122 -1.3550484 -101.09835 -13.479097 -25.238985
40600000000 -13.208675 -22.398937 -1.3923106 -101.94344 -1.3639736 -101.70658 -13.805847 -22.200254
40627500000 -13.624358 -25.742203 -1.373298 -102.25716 -1.3379824 -102.26067 -13.328633 -25.458405
40655000000 -13.343214 -22.61088 -1.3562917 -102.5372 -1.365213 -102.90953 -13.266751 -27.225046
40682500000 -13.288926 -22.716452 -1.3586766 -103.60607 -1.3552213 -103.58918 -13.813213 -25.398298
40710000000 -13.358154 -27.554729 -1.3289138 -103.7551 -1.361317 -103.96626 -13.569788 -25.137217
40737500000 -13.74594 -25.417198 -1.3721682 -104.36458 -1.3665929 -104.58113 -13.392841 -28.766787
40765000000 -13.410235 -23.4853 -1.331664 -105.06841 -1.3508537 -104.85347 -13.876811 -26.665745
40792500000 -13.375389 -27.859808 -1.3213356 -105.67847 -1.3262156 -105.76847 -13.657481 -26.351421
40820000000 -13.637613 -29.636324 -1.3560398 -105.81973 -1.3485836 -106.1615 -13.461656 -29.802961
40847500000 -13.789754 -24.340328 -1.3694828 -106.66599 -1.4227017 -106.54937 -13.957246 -29.555061
40875000000 -13.228065 -28.632788 -1.4123495 -107.17426 -1.3745415 -107.25664 -14.067241 -28.711145
40902500000 -14.03931 -29.499802 -1.3503143 -107.96773 -1.3470944 -108.04971 -13.605646 -30.021742
40930000000 -13.708514 -26.877525 -1.3753043 -108.30917 -1.3601319 -108.30874 -13.719286 -32.943237
40957500000 -13.521531 -30.054445 -1.3014892 -108.72234 -1.3161547 -108.94141 -14.01679 -31.69552
40985000000 -13.592286 -32.862865 -1.3246334 -109.26841 -1.2993041 -109.94267 -13.396004 -31.867573
41012500000 -14.081255 -28.373199 -1.3338915 -110.21989 -1.3286959 -110.25089 -13.841823 -34.661495
41040000000 -13.52243 -28.930164 -1.3662026 -110.43893 -1.320003 -110.49064 -14.387985 -31.888477
41067500000 -13.719749 -32.190636 -1.2956282 -111.26904 -1.338811 -110.91496 -13.60159 -32.116066
41095000000 -14.227598 -31.246897 -1.3266317 -111.82716 -1.3552015 -111.88934 -13.692716 -34.606209
41122500000 -13.998734 -28.783773 -1.3200908 -112.38176 -1.3359538 -112.45421 -14.486765 -34.530796
41150000000 -13.507611 -35.436832 -1.3000339 -112.93349 -1.3396147 -112.92463 -13.980576 -32.693172
41177500000 -14.229281 -34.278809 -1.3525697 -113.67008 -1.3183655 -113.36392 -13.983346 -37.663052
41205000000 -14.108874 -33.466358 -1.3322859 -113.8142 -1.3450869 -114.023 -14.31396 -36.028786
41232500000 -13.370496 -35.606728 -1.3234283 -114.28912 -1.3352579 -114.29351 -14.277399 -36.061291
41260000000 -14.167327 -36.056747 -1.3145126 -115.1084 -1.315562 -115.25979 -14.1759 -36.793819
41287500000 -14.572766 -35.055408 -1.3562276 -115.71843 -1.3052543 -115.96149 -14.539031 -38.324314
41315000000 -13.66263 -35.831165 -1.3455683 -116.15292 -1.3252785 -116.22045 -14.612025 -34.989765
41342500000 -14.156632 -38.807423 -1.2602531 -116.43309 -1.3302712 -116.98791 -14.215789 -37.641148
41370000000 -14.693519 -36.062935 -1.2853761 -117.37492 -1.3247344 -117.55082 -14.422276 -38.727898
41397500000 -13.968146 -36.105461 -1.3338045 -117.69043 -1.3639091 -118.09053 -14.772117 -37.881874
41425000000 -14.075003 -37.432167 -1.2913661 -118.52167 -1.2715497 -118.5915 -14.445635 -37.244438
41452500000 -14.782738 -40.042686 -1.3290565 -118.80981 -1.3080102 -119.23623 -14.572162 -41.422482
41480000000 -14.470625 -35.558636 -1.2984673 -119.67446 -1.3913131 -119.54874 -14.981744 -41.541462
41507500000 -14.117407 -40.286068 -1.2850127 -120.14954 -1.3097398 -120.28129 -14.465631 -39.211834
41535000000 -14.718943 -42.462719 -1.2989928 -120.80676 -1.2648418 -120.99934 -14.450353 -42.345253
41562500000 -14.900492 -38.809925 -1.3936673 -120.94634 -1.331964 -121.54355 -15.060479 -42.673893
41590000000 -14.491158 -37.412251 -1.2662078 -122.08579 -1.3006475 -122.10668 -14.878464 -39.924919
41617500000 -14.715716 -44.486088 -1.2572403 -122.39095 -1.3111703 -122.58952 -14.632338 -43.498993
41645000000 -15.073401 -42.30497 -1.2666759 -122.90356 -1.3102967 -123.27915 -15.070344 -45.241673
41672500000 -14.779767 -38.981201 -1.2727724 -123.14217 -1.2937808 -123.50774 -15.370984 -41.119503
41700000000 -14.670664 -43.879951 -1.268333 -124.05823 -1.2729522 -124.09998 -14.790222 -45.600452
41727500000 -15.129582 -45.941849 -1.2618716 -124.7004 -1.28238 -125.15207 -15.269531 -46.680267
41755000000 -15.190594 -41.219147 -1.300199 -125.48327 -1.3062823 -125.58165 -15.134008 -42.061245
41782500000 -14.764507 -46.358398 -1.2807683 -126.09267 -1.2770774 -125.75957 -14.887169 -45.793613
41810000000 -15.278542 -47.163055 -1.2967786 -126.94328 -1.2776906 -126.41618 -15.184929 -48.392799
41837500000 -15.189463 -41.154854 -1.3024527 -127.28423 -1.2807888 -127.12806 -15.635853 -45.677341
41865000000 -14.816742 -44.168678 -1.2754015 -127.42236 -1.3013117 -127.56575 -14.923297 -44.834793
41892500000 -15.404089 -48.403244 -1.2618803 -128.14458 -1.2434949 -128.155 -15.159318 -47.935593
41920000000 -15.984306 -43.375656 -1.2764857 -128.66054 -1.2896682 -128.68239 -16.202602 -47.917328
41947500000 -15.32084 -46.035896 -1.250831 -129.00504 -1.3126431 -129.41234 -15.730372 -43.885448
41975000000 -15.189613 -48.983253 -1.2616023 -129.42577 -1.2400161 -129.61282 -15.34508 -48.620117
42002500000 -16.238781 -46.60585 -1.2694403 -130.43903 -1.2931885 -130.76949 -16.164093 -47.500164
42030000000 -15.847971 -43.327293 -1.2588 -130.34996 -1.2576041 -130.9987 -16.186928 -47.436382
42057500000 -15.429562 -48.90657 -1.2403436 -131.29881 -1.2359661 -131.50165 -15.355808 -48.970131
42085000000 -15.832427 -47.868591 -1.2033707 -132.48953 -1.254003 -132.31087 -16.017643 -54.89402
42112500000 -16.003761 -45.074055 -1.2454779 -132.50465 -1.2770362 -132.79494 -16.569994 -48.069782
42140000000 -15.438129 -47.526436 -1.2885985 -133.37563 -1.2450517 -133.22029 -15.652228 -49.241421
42167500000 -16.308361 -51.242146 -1.2826982 -133.83646 -1.2885094 -133.82147 -16.019531 -54.069942
42195000000 -16.506718 -46.27272 -1.2674685 -134.11377 -1.2952828 -133.97765 -16.820309 -51.202168
42222500000 -15.790508 -47.698242 -1.2585461 -134.87292 -1.3058614 -135.05064 -16.084635 -48.68874
42250000000 -16.033506 -51.252251 -1.2740802 -135.6245 -1.2968811 -135.54663 -15.974794 -54.31591
42277500000 -17.104069 -49.925488 -1.2698339 -136.32951 -1.2569284 -136.00342 -16.629923 -51.822186
42305000000 -16.361481 -48.606503 -1.2777292 -136.55685 -1.3191556 -136.80861 -16.054726 -47.71896
42332500000 -16.110743 -52.512909 -1.2487675 -136.83241 -1.2969394 -137.28465 -16.085123 -53.368713
42360000000 -17.145292 -51.480518 -1.2509028 -137.58388 -1.2793268 -137.74716 -17.150023 -55.581337
42387500000 -16.724314 -51.024509 -1.2362483 -138.40437 -1.2520086 -138.79367 -16.622772 -49.647144
42415000000 -15.997179 -51.717796 -1.2215928 -138.71637 -1.2799976 -138.87186 -16.240402 -52.971626
42442500000 -17.685526 -57.471786 -1.259696 -138.89888 -1.2724882 -139.36748 -17.015875 -58.287762
42470000000 -17.198471 -51.972874 -1.2322199 -139.64922 -1.2492437 -140.16269 -17.62784 -53.588837
42497500000 -16.635626 -48.907654 -1.2776124 -140.24579 -1.3232759 -140.73582 -16.488157 -53.708805
42525000000 -17.05838 -54.851158 -1.2276782 -140.9362 -1.2866757 -141.17796 -17.580103 -59.729904
42552500000 -18.023693 -53.166962 -1.2766725 -141.77774 -1.2087528 -141.59532 -17.818867 -55.387295
42580000000 -16.749815 -54.726078 -1.293066 -142.08325 -1.3302892 -142.36906 -16.984898 -52.594769
42607500000 -17.504843 -57.55241 -1.2745016 -142.75905 -1.3056074 -142.88153 -17.098913 -59.093048
42635000000 -18.030394 -57.863285 -1.2442939 -143.41367 -1.2571995 -143.63219 -17.770597 -61.676384
42662500000 -17.173794 -53.230461 -1.2503214 -143.93027 -1.232482 -144.20695 -17.403484 -53.631184
42690000000 -17.678408 -58.462917 -1.255245 -144.3822 -1.2833879 -144.53194 -17.462481 -56.611252
42717500000 -18.207296 -60.253872 -1.2732652 -145.02434 -1.2609285 -145.38692 -18.432407 -63.725677
42745000000 -17.430855 -54.901276 -1.238282 -145.54955 -1.2451414 -145.67679 -18.033157 -56.744373
42772500000 -17.614092 -53.491436 -1.2372029 -145.95973 -1.2320588 -145.9771 -17.242159 -59.643959
42800000000 -18.44351 -62.056004 -1.2113861 -146.70653 -1.2741323 -146.66039 -18.767153 -63.734116
42827500000 -18.553915 -58.269302 -1.2114077 -147.47087 -1.2791787 -147.35164 -17.936407 -57.007347
42855000000 -18.259476 -53.235306 -1.1987157 -147.91451 -1.2637208 -148.28008 -17.638245 -59.644512
42882500000 -18.619146 -59.616295 -1.2450176 -148.74634 -1.2701079 -147.99313 -18.954393 -63.487823
42910000000 -18.906836 -61.328419 -1.2782719 -148.56833 -1.1530558 -149.37386 -18.55925 -62.69154
42937500000 -18.153841 -49.984154 -1.2292315 -149.69121 -1.2632415 -149.27197 -18.867346 -57.344105
42965000000 -19.248636 -61.407047 -1.2086325 -150.56984 -1.2328126 -150.50804 -18.745451 -66.510017
42992500000 -19.183249 -65.93541 -1.1876893 -150.83481 -1.271906 -150.98663 -19.45359 -61.767082
43020000000 -19.916031 -54.174648 -1.1904746 -151.45967 -1.2090093 -151.55498 -18.943592 -55.058342
43047500000 -19.519466 -59.866199 -1.272591 -151.99274 -1.2271556 -152.23047 -18.76861 -64.450249
43075000000 -19.630407 -66.118301 -1.2546319 -152.37773 -1.2410886 -152.2858 -20.011505 -69.757286
43102500000 -19.680597 -53.021774 -1.24151 -152.88225 -1.2452221 -153.20667 -19.616655 -56.109344
43130000000 -20.335846 -57.954052 -1.2499403 -154.00478 -1.2379966 -153.81561 -18.594179 -62.696342
43157500000 -20.035957 -66.046989 -1.2300144 -154.06197 -1.2576269 -154.01186 -19.966803 -68.889091
43185000000 -20.723372 -59.909508 -1.2135452 -155.11488 -1.2148072 -154.54637 -20.31731 -58.629353
43212500000 -20.115559 -52.329384 -1.2627332 -155.33748 -1.2303519 -155.59898 -19.571312 -63.047768
43240000000 -19.274984 -69.052681 -1.3188978 -155.20433 -1.2122227 -156.1055 -21.465593 -66.759384
43267500000 -20.903515 -52.992085 -1.2100065 -156.41859 -1.2213534 -157.08904 -21.06284 -64.223389
43295000000 -22.153437 -51.030258 -1.265075 -157.00011 -1.1967947 -157.03604 -20.093168 -60.167706
43322500000 -20.841866 -67.024635 -1.2501312 -157.62668 -1.2119726 -157.50032 -20.997826 -63.179153
43350000000 -21.434515 -65.231613 -1.1632711 -158.17789 -1.2688651 -158.28722 -20.943151 -64.874603
43377500000 -22.328823 -53.743908 -1.3141261 -158.94427 -1.2295864 -158.82455 -21.397799 -57.736561
43405000000 -20.967781 -66.150124 -1.2180722 -159.44214 -1.2308623 -158.81587 -21.920687 -64.39933
43432500000 -21.587282 -66.284355 -1.2899901 -160.06161 -1.2579178 -160.07343 -21.249765 -66.391891
43460000000 -23.080364 -57.607105 -1.2548597 -160.75143 -1.2258075 -160.32172 -21.910757 -53.474232
43487500000 -21.895254 -56.841301 -1.2110022 -161.11566 -1.2362103 -161.13496 -21.071121 -65.564247
43515000000 -21.551399 -66.388748 -1.2502596 -161.49983 -1.2572894 -161.93771 -22.38265 -73.563553
43542500000 -23.920572 -55.534203 -1.2225984 -162.55383 -1.2323633 -162.50339 -21.908972 -59.939629
43570000000 -22.625273 -51.761879 -1.3445715 -162.95737 -1.2344509 -163.17174 -22.119852 -59.93161
43597500000 -21.983192 -62.296345 -1.2280446 -163.19101 -1.3082201 -163.37001 -24.669735 -67.851913
43625000000 -24.263889 -60.792625 -1.2363391 -163.53362 -1.2609696 -164.27289 -22.300774 -57.328857
43652500000 -25.896961 -53.057365 -1.1997846 -164.38615 -1.2144994 -164.26329 -22.774107 -63.856346
43680000000 -22.821629 -59.746986 -1.2898601 -165.42265 -1.2314142 -165.01895 -24.275764 -74.176193
43707500000 -23.656532 -54.963024 -1.2372046 -165.69725 -1.1588281 -165.72029 -23.535797 -61.986568
43735000000 -25.936424 -47.749432 -1.2434446 -165.9474 -1.2133998 -166.61765 -23.723152 -64.799591
43762500000 -22.77879 -59.632095 -1.248153 -166.90974 -1.2671101 -166.8293 -24.960955 -71.806274
43790000000 -23.161757 -63.514004 -1.2126604 -166.88565 -1.2083534 -167.37589 -24.889912 -56.007343
43817500000 -27.13254 -35.896259 -1.2518708 -168.15533 -1.2070417 -167.69386 -23.531918 -57.94165
43845000000 -24.689774 -55.720814 -1.1637082 -168.92395 -1.2398965 -168.77643 -25.162649 -69.835136
43872500000 -24.34717 -49.792973 -1.2335846 -169.34877 -1.1730938 -168.86836 -26.476542 -63.800018
43900000000 -27.777016 -39.167152 -1.3009073 -169.81636 -1.231487 -169.63728 -25.303089 -50.066597
43927500000 -26.052114 -47.377525 -1.2178361 -170.35728 -1.2017868 -170.59184 -25.616083 -69.681145
43955000000 -24.235502 -60.247639 -1.2276053 -170.58749 -1.2587969 -171.05905 -27.97576 -60.440483
43982500000 -29.121716 -46.553802 -1.2589035 -171.32861 -1.264201 -171.31039 -24.996613 -44.219437
44010000000 -26.845169 -33.78606 -1.2077452 -171.95302 -1.2354256 -171.91795 -25.205492 -65.920189
44037500000 -23.873762 -46.269737 -1.2495983 -172.55666 -1.2829076 -172.46971 -28.353907 -69.409431
44065000000 -27.235317 -43.454002 -1.3128277 -173.01344 -1.1865261 -172.89978 -26.701534 -38.607506
44092500000 -28.434008 -30.383085 -1.2592715 -173.64684 -1.2599274 -173.68103 -27.069391 -60.926407
44120000000 -25.58869 -42.636303 -1.2391745 -174.13699 -1.2376218 -174.69098 -29.171339 -54.272854
44147500000 -26.990362 -47.635265 -1.210614 -175.24986 -1.2861052 -175.21568 -26.732996 -38.368114
44175000000 -30.590868 -13.342819 -1.2608873 -175.29504 -1.2641494 -175.4303 -25.846601 -45.146614
44202500000 -27.424009 -34.277554 -1.2857826 -176.10881 -1.2681098 -176.2453 -29.34654 -57.662254
44230000000 -26.441139 -28.274248 -1.2656102 -176.59286 -1.2411455 -176.72202 -28.707911 -26.848711
44257500000 -32.536091 -1.2375089 -1.2545621 -177.12852 -1.2853715 -177.14445 -26.121443 -30.303247
44285000000 -26.803205 -20.033335 -1.1806278 -177.56012 -1.2521646 -177.98492 -28.929344 -46.196163
44312500000 -27.450706 -21.045918 -1.2636989 -178.50832 -1.2826506 -178.68416 -32.098644 -27.05942
44340000000 -28.701664 -23.764523 -1.1768242 -178.8613 -1.2980624 -179.19186 -27.68729 -10.427762
44367500000 -28.760496 4.4042659 -1.2923253 -179.22452 -1.2501833 -179.63815 -29.747812 -41.324551
44395000000 -26.71932 -19.448885 -1.3005999 179.98589 -1.2455579 179.67761 -35.12487 -29.579742
44422500000 -31.730989 -16.674936 -1.1801206 178.91943 -1.2423676 179.27419 -27.611698 10.135286
44450000000 -27.731913 15.025561 -1.1694574 179.05548 -1.2658634 178.70004 -27.660896 -36.741318
44477500000 -27.113312 -10.064773 -1.2500087 178.07005 -1.2537757 177.93227 -36.460876 -15.42595
44505000000 -29.802013 11.415421 -1.2893021 177.2872 -1.2721711 177.40062 -27.728638 8.2293768
44532500000 -29.745232 28.380398 -1.3072392 176.77968 -1.2913034 177.22005 -26.903053 -14.568411
44560000000 -25.615623 0.73841834 -1.2854999 176.75887 -1.256375 176.11987 -35.669758 -12.94875
44587500000 -25.874748 -1.4836713 -1.2048459 175.81836 -1.2332728 175.44806 -27.830175 25.391985
44615000000 -28.242962 24.851479 -1.2613608 175.33478 -1.2413905 175.21799 -26.13113 -3.8273716
44642500000 -26.909285 12.154518 -1.2033403 174.49142 -1.2702334 174.48865 -31.228306 -22.660074
44670000000 -25.430735 2.7911153 -1.2218294 174.37173 -1.2499335 174.20496 -28.118242 31.87401
44697500000 -27.832888 25.341511 -1.254491 173.31418 -1.2553545 173.45975 -25.415361 6.6650124
44725000000 -25.784832 22.046026 -1.3138305 172.76187 -1.3391182 172.88705 -29.541157 -15.209309
44752500000 -23.857365 11.470083 -1.2715806 172.46167 -1.2640321 172.47302 -27.997663 31.942606
44780000000 -28.044521 18.3881 -1.3022518 171.96986 -1.3006108 171.4575 -24.609819 25.078127
44807500000 -25.122297 29.954844 -1.3066729 171.13872 -1.2825427 171.15062 -27.146603 2.5794826
44835000000 -23.58489 20.485828 -1.2948782 170.47182 -1.2102795 170.56856 -28.063534 23.305357
44862500000 -25.36109 25.052273 -1.2512574 170.35938 -1.2890248 169.65488 -23.515871 29.151077
44890000000 -25.006374 31.645712 -1.3343701 169.48674 -1.2942181 169.39102 -25.154367 9.4716768
44917500000 -22.536781 23.375772 -1.3000363 168.75885 -1.2659001 168.67586 -29.942225 33.098408
44945000000 -24.857508 23.456734 -1.3258044 168.45602 -1.3305948 168.29047 -23.912773 39.184319
44972500000 -24.683552 37.607727 -1.2036825 167.56213 -1.3075113 167.67111 -23.98436 11.646855
45000000000 -22.590073 28.053078 -1.3153374 167.69489 -1.278776 167.55663 -25.865829 20.665964
