! Quiescent point : V1=-1.85712E-02 I1=+1.45512E-03 V2=-2.43790E-02 I2=-1.40423E-03
! Pulsed point : V1=-1.80026E-02 I1=+1.44484E-03 V2=-2.38785E-02 I2=-1.42689E-03
! Period : +2.00000E-04
! Input Supply timing : delay=+1.60000E-06 width=+2.20000E-06
! Output Supply timing : delay=+1.70000E-06 width=+2.00000E-06
! VNA timing : delay=+2.40000E-06 width=+1.10000E-06
# Hz S RI R 50
+2.70000E+10 +3.00183E-01 -6.28766E-01 +4.48811E-01 +9.58580E-02 +4.17474E-01 +1.41975E-01 +4.64665E-01 -2.71762E-01
+2.71000E+10 +2.73305E-01 -5.84252E-01 +4.93425E-01 +1.56107E-01 +4.51245E-01 +9.10347E-02 +5.00068E-01 -2.82443E-01
+2.72000E+10 +2.63792E-01 -6.60717E-01 +4.21013E-01 +7.66221E-02 +4.80628E-01 +7.43758E-02 +5.04392E-01 -2.12602E-01
+2.73000E+10 +2.78400E-01 -5.87963E-01 +4.49360E-01 +6.47415E-02 +4.88360E-01 +1.23399E-01 +5.53775E-01 -2.50611E-01
+2.74000E+10 +2.23364E-01 -6.73411E-01 +4.14482E-01 +1.61453E-01 +5.38081E-01 +6.38088E-02 +5.53768E-01 -3.20969E-01
+2.75000E+10 +1.69129E-01 -5.99906E-01 +5.23507E-01 +9.00043E-02 +5.32481E-01 -3.64757E-03 +4.55910E-01 -2.72137E-01
+2.76000E+10 +1.79030E-01 -6.08170E-01 +5.03825E-01 +6.55890E-02 +4.86870E-01 +8.18923E-02 +5.89849E-01 -2.71497E-01
+2.77000E+10 +1.58941E-01 -6.37539E-01 +5.68450E-01 +9.35068E-02 +4.23002E-01 +5.49328E-02 +4.83945E-01 -2.68680E-01
+2.78000E+10 +1.33443E-01 -6.57185E-01 +4.62719E-01 +2.50305E-03 +4.15393E-01 +4.20610E-02 +5.85258E-01 -2.48419E-01
+2.79000E+10 +1.33889E-01 -6.87319E-01 +5.06782E-01 +1.40397E-01 +4.45243E-01 +1.27084E-01 +4.35293E-01 -2.52357E-01
+2.80000E+10 +4.85306E-02 -7.32488E-01 +4.95672E-01 +8.52724E-02 +4.86724E-01 +7.74096E-02 +6.01629E-01 -3.06740E-01
+2.81000E+10 -7.45513E-03 -5.55620E-01 +5.39449E-01 +7.18354E-02 +5.16579E-01 -4.76566E-02 +4.13811E-01 -2.51680E-01
+2.82000E+10 +3.72180E-02 -7.58056E-01 +4.86386E-01 +1.93764E-03 +5.76272E-01 +4.59566E-02 +5.09261E-01 -2.33079E-01
+2.83000E+10 +6.69959E-02 -6.63583E-01 +4.62280E-01 +9.19790E-02 +5.71903E-01 -1.90323E-02 +5.36621E-01 -2.02641E-01
+2.84000E+10 -4.49599E-02 -7.51206E-01 +4.88551E-01 -2.68946E-02 +5.18158E-01 -2.64900E-02 +4.35474E-01 -3.23906E-01
+2.85000E+10 +2.27229E-02 -7.34489E-01 +4.53247E-01 +2.73811E-02 +4.46338E-01 -5.14378E-02 +5.41925E-01 -2.60298E-01
+2.86000E+10 -8.58691E-02 -7.03386E-01 +4.46359E-01 -3.52065E-03 +6.00497E-01 +4.21296E-02 +5.21059E-01 -3.14160E-01
+2.87000E+10 -1.15458E-01 -6.69991E-01 +4.38823E-01 -6.78110E-02 +5.05032E-01 -1.60173E-02 +4.69153E-01 -2.29240E-01
+2.88000E+10 -1.46420E-01 -6.85978E-01 +3.64645E-01 +1.06124E-01 +5.19341E-01 -3.65369E-02 +4.56941E-01 -3.52132E-01
+2.89000E+10 -1.88306E-01 -7.11668E-01 +5.55362E-01 +1.17739E-03 +4.70732E-01 -6.28579E-03 +4.51414E-01 -2.37763E-01
+2.90000E+10 -2.31782E-01 -6.35378E-01 +5.05473E-01 -6.59096E-02 +5.11678E-01 -5.38570E-02 +4.78494E-01 -2.80016E-01
+2.91000E+10 -3.05164E-01 -6.07491E-01 +4.59878E-01 -5.25863E-02 +6.15256E-01 -7.28287E-02 +4.91634E-01 -2.57154E-01
+2.92000E+10 -2.32561E-01 -6.70954E-01 +5.17203E-01 -1.42445E-01 +5.35382E-01 -9.20060E-02 +4.82738E-01 -2.76720E-01
+2.93000E+10 -2.81245E-01 -6.64464E-01 +5.50748E-01 -7.67981E-02 +5.42368E-01 -9.12329E-02 +4.43569E-01 -2.08032E-01
+2.94000E+10 -2.10020E-01 -5.88271E-01 +5.51635E-01 -1.13818E-01 +5.00784E-01 -1.62450E-01 +4.46668E-01 -1.89784E-01
+2.95000E+10 -2.70476E-01 -5.94051E-01 +5.29174E-01 -5.64943E-02 +4.75820E-01 -1.01828E-01 +5.13109E-01 -2.52530E-01
+2.96000E+10 -3.37232E-01 -5.71201E-01 +5.24659E-01 -6.78027E-02 +4.87886E-01 -1.90680E-01 +4.63827E-01 -3.08320E-01
+2.97000E+10 -3.41785E-01 -5.06051E-01 +5.00400E-01 -6.08135E-02 +4.87647E-01 -3.74949E-02 +4.35348E-01 -3.53250E-01
+2.98000E+10 -4.50044E-01 -5.03814E-01 +5.21935E-01 -1.20262E-01 +5.87055E-01 -1.57611E-01 +4.42195E-01 -1.82094E-01
+2.99000E+10 -3.29314E-01 -6.00275E-01 +4.79737E-01 -1.67337E-01 +4.44962E-01 -8.46125E-02 +4.97724E-01 -2.80835E-01
+3.00000E+10 -4.03620E-01 -5.89698E-01 +4.16769E-01 -1.94681E-01 +4.93080E-01 -8.60986E-02 +5.78459E-01 -2.73828E-01
+3.01000E+10 -3.61621E-01 -5.90298E-01 +5.10672E-01 -1.70672E-01 +4.23198E-01 -1.65491E-01 +4.87694E-01 -1.70537E-01
+3.02000E+10 -4.83118E-01 -5.29794E-01 +4.76706E-01 -1.53847E-01 +5.71778E-01 -1.04000E-01 +5.31465E-01 -3.13960E-01
+3.03000E+10 -5.54774E-01 -5.29841E-01 +3.99770E-01 -1.48598E-01 +4.91190E-01 -1.43546E-01 +6.20054E-01 -3.28937E-01
+3.04000E+10 -4.94726E-01 -4.35611E-01 +3.67107E-01 -1.59745E-01 +6.47505E-01 -2.27020E-01 +5.28898E-01 -3.77776E-01
+3.05000E+10 -3.98344E-01 -4.65878E-01 +4.69838E-01 -1.40449E-01 +5.05737E-01 -2.66090E-01 +4.94484E-01 -3.43114E-01
+3.06000E+10 -4.93643E-01 -4.36027E-01 +3.76249E-01 -1.61819E-01 +5.18690E-01 -1.70339E-01 +4.19760E-01 -2.65158E-01
+3.07000E+10 -4.30315E-01 -3.97920E-01 +5.04510E-01 -1.79686E-01 +3.98391E-01 -2.23124E-01 +4.29409E-01 -3.41027E-01
+3.08000E+10 -5.21961E-01 -4.07419E-01 +5.33572E-01 -3.29211E-01 +5.27906E-01 -7.42754E-02 +5.27244E-01 -2.63220E-01
+3.09000E+10 -4.32832E-01 -3.84401E-01 +5.13430E-01 -1.50943E-01 +4.33005E-01 -2.34345E-01 +3.68368E-01 -3.30975E-01
+3.10000E+10 -5.09837E-01 -3.67270E-01 +4.44722E-01 -2.03448E-01 +3.26365E-01 -1.41683E-01 +4.75525E-01 -3.77894E-01
+3.11000E+10 -5.81213E-01 -4.11391E-01 +4.00487E-01 -2.26986E-01 +4.37517E-01 -2.31737E-01 +5.17890E-01 -3.37646E-01
+3.12000E+10 -5.30217E-01 -2.91834E-01 +4.70509E-01 -2.40877E-01 +5.40029E-01 -2.99507E-01 +4.96094E-01 -3.44464E-01
+3.13000E+10 -5.44663E-01 -2.84594E-01 +5.19154E-01 -2.64965E-01 +4.79932E-01 -2.70295E-01 +5.44224E-01 -3.22997E-01
+3.14000E+10 -4.67725E-01 -2.82313E-01 +4.09717E-01 -4.22964E-01 +5.63184E-01 -2.79289E-01 +5.06402E-01 -3.72534E-01
+3.15000E+10 -6.20671E-01 -2.85057E-01 +3.67087E-01 -2.60394E-01 +4.29962E-01 -2.51344E-01 +4.27947E-01 -3.21988E-01
+3.16000E+10 -5.55138E-01 -2.67599E-01 +3.90514E-01 -4.02383E-01 +3.80077E-01 -3.58482E-01 +4.78026E-01 -4.39498E-01
+3.17000E+10 -5.58479E-01 -1.97554E-01 +4.20403E-01 -3.39631E-01 +4.92117E-01 -3.62354E-01 +4.35783E-01 -4.00479E-01
+3.18000E+10 -5.14271E-01 -1.02151E-01 +4.75259E-01 -4.81289E-01 +4.62492E-01 -3.18030E-01 +5.04823E-01 -2.56615E-01
+3.19000E+10 -5.62512E-01 -1.82647E-01 +4.59310E-01 -4.07958E-01 +3.97522E-01 -3.54308E-01 +3.56639E-01 -2.79091E-01
+3.20000E+10 -4.44994E-01 -8.71791E-02 +4.28027E-01 -3.69316E-01 +4.89188E-01 -3.39015E-01 +4.38313E-01 -3.03903E-01
+3.21000E+10 -5.85114E-01 -1.31746E-01 +3.61634E-01 -4.36575E-01 +5.14697E-01 -4.31837E-01 +4.02236E-01 -3.29549E-01
+3.22000E+10 -6.42969E-01 -8.09590E-02 +3.56529E-01 -3.72744E-01 +4.31012E-01 -2.88512E-01 +3.61570E-01 -3.99242E-01
+3.23000E+10 -5.20779E-01 -8.36756E-02 +4.76191E-01 -3.93314E-01 +4.82407E-01 -3.45722E-01 +4.23452E-01 -4.23379E-01
+3.24000E+10 -5.77166E-01 -1.48061E-02 +4.06933E-01 -3.97301E-01 +4.23990E-01 -4.50832E-01 +4.72221E-01 -3.25037E-01
+3.25000E+10 -5.72392E-01 -4.20277E-02 +3.71388E-01 -5.00736E-01 +3.64171E-01 -4.47299E-01 +3.62897E-01 -2.59882E-01
+3.26000E+10 -5.14577E-01 +6.25834E-02 +4.81588E-01 -4.88284E-01 +4.62287E-01 -4.44631E-01 +4.01821E-01 -3.55708E-01
+3.27000E+10 -4.90633E-01 +1.26322E-01 +4.04796E-01 -3.98161E-01 +4.58965E-01 -4.92057E-01 +2.52437E-01 -2.56552E-01
+3.28000E+10 -4.65731E-01 +1.63306E-01 +1.86453E-01 -4.94602E-01 +4.04985E-01 -4.54615E-01 +4.29887E-01 -2.29375E-01
+3.29000E+10 -3.68621E-01 +1.39015E-01 +3.90225E-01 -4.95996E-01 +3.50173E-01 -4.88483E-01 +3.52483E-01 -4.14507E-01
+3.30000E+10 -4.76755E-01 +4.72426E-02 +3.25255E-01 -4.19487E-01 +3.85230E-01 -4.80162E-01 +4.45654E-01 -2.77077E-01
+3.31000E+10 -4.01139E-01 +1.55541E-01 +2.12871E-01 -5.85125E-01 +2.80855E-01 -6.05635E-01 +4.42935E-01 -2.27069E-01
+3.32000E+10 -4.41510E-01 +1.57423E-01 +2.95726E-01 -4.30818E-01 +2.36359E-01 -4.99705E-01 +3.43881E-01 -2.92902E-01
+3.33000E+10 -3.46903E-01 +1.60800E-01 +2.58112E-01 -5.19079E-01 +3.23553E-01 -5.42953E-01 +5.13622E-01 -2.26476E-01
+3.34000E+10 -4.10229E-01 +1.47095E-01 +2.81743E-01 -4.90094E-01 +2.42227E-01 -5.44841E-01 +3.79130E-01 -2.13333E-01
+3.35000E+10 -4.19676E-01 +2.52996E-01 +3.86888E-01 -6.56256E-01 +2.50918E-01 -4.61815E-01 +4.64362E-01 -3.82243E-01
+3.36000E+10 -3.64698E-01 +2.79928E-01 +2.67239E-01 -5.43049E-01 +2.67440E-01 -4.94349E-01 +4.20456E-01 -2.26616E-01
+3.37000E+10 -1.98672E-01 +2.42469E-01 +2.44636E-01 -6.33654E-01 +2.42284E-01 -5.29826E-01 +3.31626E-01 -2.78933E-01
+3.38000E+10 -3.76547E-01 +3.00363E-01 +2.73919E-01 -5.35245E-01 +8.51941E-02 -5.79640E-01 +3.16460E-01 -3.24591E-01
+3.39000E+10 -2.04381E-01 +2.63691E-01 +3.38577E-01 -6.13606E-01 +2.44121E-01 -5.79144E-01 +4.10102E-01 -2.93580E-01
+3.40000E+10 -2.53580E-01 +3.07540E-01 +2.27759E-01 -5.70837E-01 +2.44230E-01 -7.29567E-01 +4.16952E-01 -1.79071E-01
+3.41000E+10 -2.19181E-01 +4.29775E-01 +1.87421E-01 -4.51653E-01 +1.76065E-01 -5.77377E-01 +4.55192E-01 -3.68909E-01
+3.42000E+10 -1.60803E-01 +3.11360E-01 +2.38000E-01 -5.79094E-01 +2.92008E-01 -6.46914E-01 +3.15278E-01 -2.79803E-01
+3.43000E+10 -2.53729E-01 +3.19941E-01 +7.20009E-02 -6.05226E-01 -5.35417E-02 -7.21945E-01 +4.52133E-01 -2.79262E-01
+3.44000E+10 -1.18921E-01 +4.10371E-01 +2.47504E-01 -5.04443E-01 +2.99167E-01 -5.73629E-01 +4.04033E-01 -1.94151E-01
+3.45000E+10 -1.72607E-01 +4.40045E-01 +2.58226E-02 -5.05529E-01 +2.85184E-01 -6.56745E-01 +2.76366E-01 -1.28233E-01
+3.46000E+10 -1.21517E-01 +3.97407E-01 +1.34881E-01 -7.18274E-01 +8.56290E-02 -7.01600E-01 +1.99779E-01 -3.10140E-01
+3.47000E+10 +6.63916E-02 +3.35829E-01 -1.72621E-02 -6.12747E-01 +2.06672E-01 -6.53627E-01 +5.21019E-01 -2.21099E-01
+3.48000E+10 -4.53330E-03 +3.48922E-01 -1.02679E-01 -6.02626E-01 +1.26700E-01 -7.34913E-01 +5.23117E-01 -2.12651E-01
+3.49000E+10 +1.16111E-01 +4.03074E-01 +8.31288E-02 -3.93632E-01 +8.31016E-02 -6.69101E-01 +6.00003E-01 -3.15843E-01
+3.50000E+10 -1.65694E-02 +4.83189E-01 +1.50517E-01 -6.08521E-01 +2.72119E-02 -8.15482E-01 +4.33994E-01 -3.13835E-01
+3.51000E+10 +8.41124E-03 +3.50868E-01 +1.21223E-01 -7.38411E-01 +1.06515E-02 -5.30399E-01 +4.74041E-01 -2.09141E-01
+3.52000E+10 +2.72786E-01 +3.94046E-01 +3.95632E-04 -7.06743E-01 +7.96089E-02 -6.06669E-01 +5.03142E-01 -2.35134E-01
+3.53000E+10 +1.24477E-01 +3.71306E-01 +4.66388E-02 -6.89489E-01 +1.45498E-02 -7.37228E-01 +4.20172E-01 -2.76417E-01
+3.54000E+10 +9.45617E-04 +3.88822E-01 +5.01569E-03 -6.73036E-01 -1.32444E-01 -5.74974E-01 +6.12992E-01 -2.04867E-01
+3.55000E+10 +2.26916E-01 +2.77003E-01 -2.90796E-02 -6.35740E-01 +1.85480E-02 -5.39188E-01 +4.18133E-01 -1.82586E-01
+3.56000E+10 +2.84511E-01 +2.93113E-01 -5.63460E-02 -6.49302E-01 -6.09015E-02 -7.03247E-01 +4.24672E-01 -2.32417E-01
+3.57000E+10 +2.31872E-01 +2.80916E-01 -2.06503E-01 -6.83121E-01 -1.89210E-02 -6.41768E-01 +5.27019E-01 -2.96478E-01
+3.58000E+10 +3.33170E-01 +2.06366E-01 -2.61364E-02 -6.65681E-01 -1.59582E-01 -6.30876E-01 +4.17793E-01 -2.36130E-01
+3.59000E+10 +3.32070E-01 +1.71930E-01 -7.12060E-02 -6.14945E-01 -7.87477E-02 -6.56881E-01 +5.12663E-01 -3.43230E-01
+3.60000E+10 +3.72791E-01 +2.65239E-01 -4.64308E-02 -6.07363E-01 -1.67053E-01 -6.80721E-01 +4.89995E-01 -1.40864E-01
+3.61000E+10 +3.04950E-01 +3.47150E-01 -1.81059E-01 -6.21433E-01 -2.49533E-01 -7.40273E-01 +4.02900E-01 -2.39976E-01
+3.62000E+10 +4.12535E-01 +1.15366E-01 -5.11042E-02 -5.50327E-01 -1.87528E-01 -7.34819E-01 +4.86913E-01 -1.14101E-01
+3.63000E+10 +3.36876E-01 +9.16639E-02 -1.88349E-01 -7.01192E-01 -2.45643E-01 -5.85087E-01 +3.92990E-01 -2.10652E-01
+3.64000E+10 +5.05301E-01 +2.13386E-01 -1.02639E-01 -4.80506E-01 -3.15128E-01 -5.33232E-01 +5.64701E-01 -2.09744E-01
+3.65000E+10 +5.50877E-01 +3.43485E-01 -4.13426E-01 -5.04464E-01 -2.59380E-01 -5.87155E-01 +4.96794E-01 -1.18982E-01
+3.66000E+10 +4.82053E-01 +7.52007E-02 -2.77408E-01 -6.20442E-01 -1.76247E-01 -5.91022E-01 +4.49651E-01 -2.54442E-01
+3.67000E+10 +4.99388E-01 +1.49270E-01 -8.68981E-02 -5.78739E-01 -2.22263E-01 -4.90674E-01 +4.20713E-01 -1.67087E-01
+3.68000E+10 +5.29922E-01 +2.54618E-02 -2.58559E-01 -8.11512E-01 -3.76906E-01 -4.99683E-01 +4.91207E-01 -1.98661E-01
+3.69000E+10 +5.39540E-01 -7.09624E-02 -4.21620E-01 -6.14825E-01 -2.18719E-01 -5.38298E-01 +5.16716E-01 -4.32615E-01
+3.70000E+10 +5.18619E-01 -2.19777E-04 -1.36019E-01 -6.17343E-01 -2.40826E-01 -5.87897E-01 +5.97433E-01 -3.19580E-01
+3.71000E+10 +4.36057E-01 +7.38840E-03 -3.81263E-01 -7.07348E-01 -7.70103E-02 -4.80088E-01 +6.51467E-01 -2.89545E-01
+3.72000E+10 +5.36328E-01 -1.14017E-01 -1.62265E-01 -4.26398E-01 -3.54514E-01 -4.61884E-01 +6.93139E-01 -2.96772E-01
+3.73000E+10 +4.29592E-01 -5.30818E-02 -2.07449E-01 -6.65102E-01 -1.73242E-01 -5.43893E-01 +4.85474E-01 -5.95984E-02
+3.74000E+10 +5.82801E-01 -5.80629E-02 -4.24703E-01 -5.90523E-01 -3.73644E-01 -6.38994E-01 +5.71348E-01 -2.02729E-01
+3.75000E+10 +6.51241E-01 -2.70559E-01 -2.85185E-01 -3.42863E-01 -1.54167E-01 -5.13644E-01 +6.23571E-01 -3.90347E-01
+3.76000E+10 +4.35364E-01 -2.93421E-01 -3.16538E-01 -7.50990E-01 -3.13934E-01 -3.70808E-01 +4.73199E-01 -4.74210E-01
+3.77000E+10 +5.03903E-01 -1.07464E-01 -2.86198E-01 -3.49811E-01 -4.49542E-01 -5.13966E-01 +6.03275E-01 -1.97635E-01
+3.78000E+10 +3.07653E-01 -3.82203E-01 -2.72813E-01 -5.31425E-01 -3.40665E-01 -5.94384E-01 +3.47318E-01 -3.92997E-01
+3.79000E+10 +4.69072E-01 -3.54760E-01 -2.86607E-01 -5.37565E-01 -2.20762E-01 -5.29288E-01 +4.74169E-01 -3.53507E-01
+3.80000E+10 +5.04249E-01 -2.42193E-01 -3.83922E-01 -3.70754E-01 -4.23227E-01 -3.64207E-01 +5.92332E-01 -9.19596E-02
+3.81000E+10 +6.35297E-01 -3.55108E-01 -2.71144E-01 -5.88628E-01 -2.66876E-01 -5.38915E-01 +5.41890E-01 -3.38375E-01
+3.82000E+10 +5.44749E-01 -2.55158E-01 -3.77823E-01 -4.51715E-01 -3.32910E-01 -5.28323E-01 +6.90156E-01 -2.22270E-01
+3.83000E+10 +4.12813E-01 -3.58671E-01 -4.85166E-01 -6.95342E-01 -4.36747E-01 -3.80421E-01 +6.54013E-01 -3.67461E-01
+3.84000E+10 +2.46145E-01 -3.95918E-01 -3.99344E-01 -5.34932E-01 -4.85326E-01 -3.54924E-01 +4.20241E-01 -4.15009E-01
+3.85000E+10 +6.15451E-01 -5.69439E-01 -5.21589E-01 -1.75673E-01 -2.43462E-01 -1.74045E-01 +5.57421E-01 -2.48904E-01
+3.86000E+10 +4.37817E-01 -4.44463E-01 -5.63010E-01 -4.13440E-01 -3.89298E-01 -6.02295E-01 +4.65849E-01 -2.21841E-01
+3.87000E+10 +3.95110E-01 -3.57311E-01 -4.42594E-01 -3.67238E-01 -3.60577E-01 -5.92096E-01 +5.92127E-01 -3.35338E-01
+3.88000E+10 +3.32311E-01 -5.43899E-01 -4.87739E-01 -4.49414E-01 -4.85286E-01 -4.31307E-01 +4.69725E-01 -4.82225E-01
+3.89000E+10 +4.01543E-01 -7.84381E-01 -4.88951E-01 -1.75254E-01 -3.44818E-01 -2.72353E-01 +3.83508E-01 -3.38206E-01
+3.90000E+10 +5.00871E-01 -6.19562E-01 -5.40265E-01 -2.77411E-01 -5.56575E-01 -4.39737E-01 +6.33029E-01 -3.43576E-01
+3.91000E+10 +3.98646E-01 -7.08820E-01 -5.66776E-01 -3.02239E-01 -5.87100E-01 -4.51685E-01 +5.20182E-01 -2.75652E-01
+3.92000E+10 +5.20912E-01 -7.43087E-01 -6.41630E-01 -3.66639E-01 -4.89394E-01 -2.43405E-01 +4.53143E-01 -2.60690E-01
+3.93000E+10 +3.87533E-01 -6.59083E-01 -2.50227E-01 -1.24009E-01 -5.05917E-01 -3.12711E-01 +4.66158E-01 -4.40796E-01
+3.94000E+10 +1.65391E-01 -6.85538E-01 -5.35708E-01 -5.09131E-01 -5.34284E-01 -2.37237E-01 +4.96049E-01 -3.90291E-01
+3.95000E+10 +3.15334E-01 -7.19045E-01 -3.32725E-01 -2.93176E-01 -3.57686E-01 -4.81745E-01 +6.70106E-01 -4.51661E-01
+3.96000E+10 +4.04167E-01 -6.55248E-01 -5.38144E-01 -3.97639E-01 -5.25226E-01 -2.64618E-01 +5.13264E-01 -3.95239E-01
+3.97000E+10 +3.23461E-01 -4.44034E-01 -4.49794E-01 -1.67824E-01 -3.76561E-01 -2.17220E-01 +6.17250E-01 -1.34218E-01
+3.98000E+10 +1.00386E-01 -6.38664E-01 -5.06775E-01 -3.22151E-01 -4.64801E-01 -3.43462E-01 +5.53730E-01 -3.97208E-01
+3.99000E+10 +2.11231E-01 -6.08261E-01 -4.30503E-01 -2.28793E-01 -6.50414E-01 -1.38867E-01 +6.65868E-01 -3.89749E-01
+4.00000E+10 +1.69925E-01 -8.11897E-01 -4.85976E-01 -2.67985E-01 -4.58868E-01 -3.90648E-01 +4.00326E-01 -5.18515E-01
