!Keysight Technologies,N5247B,MY61255062,A.19.80.06
!Date: Monday, May 18, 2026 13:09:53
!Correction: S11(Cdelta 2-Port  ) 
!S21(Cdelta 2-Port  ) 
!S12(Cdelta 2-Port  ) 
!S22(Cdelta 2-Port  ) 
!S2P File: Measurements: S11, S21, S12, S22:
# Hz S  dB   R 50
1000000000 -23.938332 26.431614 -0.40666667 -18.715155 -0.40017223 -18.694504 -24.174284 26.090014
1100000000 -23.526403 26.300999 -0.41565663 -20.533558 -0.41011423 -20.531977 -23.763105 26.372225
1200000000 -23.155365 26.315588 -0.42733243 -22.337238 -0.42204699 -22.32345 -23.399187 26.917011
1300000000 -22.783129 26.654375 -0.43279991 -24.162489 -0.42933169 -24.14975 -23.007013 26.528549
1400000000 -22.435822 26.279892 -0.44209036 -25.94319 -0.43874103 -25.916061 -22.649706 26.933933
1500000000 -22.142141 26.190622 -0.44716898 -27.729162 -0.44249761 -27.725365 -22.209806 26.322876
1600000000 -21.790152 25.642164 -0.45122781 -29.528814 -0.44887024 -29.511229 -21.928871 25.151308
1700000000 -21.497629 25.077957 -0.45526317 -31.318262 -0.45080251 -31.307297 -21.552139 24.797613
1800000000 -21.154955 24.022371 -0.45964321 -33.118366 -0.45525452 -33.110233 -21.243805 23.863834
1900000000 -20.888226 23.032028 -0.46138883 -34.930611 -0.45782354 -34.926773 -20.963295 22.66769
2000000000 -20.629833 22.210339 -0.46743178 -36.741379 -0.46415791 -36.745575 -20.700871 21.420525
2100000000 -20.410917 21.286459 -0.47104797 -38.560375 -0.46805191 -38.544781 -20.450851 20.305687
2200000000 -20.234396 20.518307 -0.47508705 -40.362862 -0.47101161 -40.355915 -20.217541 19.099968
2300000000 -20.005489 19.388275 -0.47878131 -42.183914 -0.47593126 -42.168713 -19.982059 18.078674
2400000000 -19.798155 18.203833 -0.48328441 -43.969357 -0.48178652 -43.974197 -19.738602 16.860205
2500000000 -19.578201 17.04635 -0.4886345 -45.781586 -0.48668537 -45.788475 -19.541708 15.473848
2600000000 -19.436529 15.665806 -0.49613807 -47.615902 -0.49250644 -47.588127 -19.40218 14.386878
2700000000 -19.302063 14.829174 -0.50397962 -49.415264 -0.49959818 -49.398861 -19.303905 13.063104
2800000000 -19.163538 13.724574 -0.51063502 -51.195045 -0.50612676 -51.175774 -19.139935 11.707585
2900000000 -19.028889 13.048182 -0.51486063 -52.982193 -0.51163614 -52.979298 -18.981003 9.8987703
3000000000 -18.830698 11.677592 -0.51907867 -54.757618 -0.51597142 -54.736031 -18.811493 8.910655
3100000000 -18.711496 10.740111 -0.52124262 -56.550858 -0.51851684 -56.54565 -18.603313 7.6770148
3200000000 -18.51263 9.1830788 -0.5258975 -58.342377 -0.52220386 -58.3228 -18.466631 6.7502804
3300000000 -18.515919 7.8608885 -0.53014088 -60.127392 -0.52369386 -60.101463 -18.359112 5.0518618
3400000000 -18.412939 6.9473295 -0.53198999 -61.939148 -0.52989233 -61.917774 -18.32555 3.8479712
3500000000 -18.328175 5.6566291 -0.54069424 -63.720085 -0.53543663 -63.694614 -18.186726 2.2935345
3600000000 -18.191441 4.303124 -0.54337239 -65.455818 -0.53843796 -65.466568 -18.106653 0.80558568
3700000000 -18.11586 2.3968518 -0.54354048 -67.258926 -0.53908938 -67.22982 -17.905598 -0.83857197
3800000000 -18.043587 1.2778794 -0.54261529 -69.035889 -0.5373041 -69.036232 -17.827068 -2.5396779
3900000000 -17.898821 -0.37129423 -0.54244959 -70.860435 -0.53800195 -70.833549 -17.727097 -3.7783258
4000000000 -17.862265 -1.7044791 -0.54685396 -72.684402 -0.5430547 -72.66069 -17.7307 -5.1580338
4100000000 -17.733534 -3.2531004 -0.55524564 -74.472893 -0.55097002 -74.457062 -17.619255 -6.1112909
4200000000 -17.733391 -4.2795296 -0.56046873 -76.217537 -0.5566473 -76.206116 -17.540131 -8.4075851
4300000000 -17.625494 -5.4758964 -0.56190151 -77.978355 -0.55627739 -77.967438 -17.490221 -9.9013119
4400000000 -17.6189 -6.6575484 -0.56125987 -79.754662 -0.557383 -79.747955 -17.416965 -11.268254
4500000000 -17.564554 -7.9458461 -0.5612914 -81.531471 -0.55665874 -81.529541 -17.38179 -12.604455
4600000000 -17.566124 -9.4200649 -0.55881327 -83.326645 -0.55887097 -83.319771 -17.349415 -14.166265
4700000000 -17.593054 -10.732306 -0.5589602 -85.131073 -0.55871671 -85.099808 -17.370842 -16.112726
4800000000 -17.568031 -12.021864 -0.56153268 -86.914032 -0.55694717 -86.903221 -17.330723 -17.846844
4900000000 -17.547407 -13.466265 -0.56320417 -88.711533 -0.56095296 -88.703476 -17.30942 -19.861498
5000000000 -17.502338 -14.720977 -0.56375623 -90.498596 -0.5611465 -90.503159 -17.190168 -21.478895
5100000000 -17.434937 -16.286264 -0.56553 -92.304909 -0.56314969 -92.276405 -17.129251 -22.944429
5200000000 -17.447243 -17.631733 -0.56484216 -94.0924 -0.56185848 -94.07357 -17.135973 -23.686571
5300000000 -17.460764 -19.371548 -0.56367666 -95.878761 -0.56228775 -95.854164 -17.212978 -25.173481
5400000000 -17.603312 -20.64929 -0.56434661 -97.697021 -0.56097209 -97.672646 -17.346642 -26.756144
5500000000 -17.607763 -21.910175 -0.56676537 -99.483841 -0.56071937 -99.459854 -17.409201 -29.392365
5600000000 -17.703373 -23.47761 -0.56822413 -101.28008 -0.56601274 -101.25837 -17.415579 -31.444992
5700000000 -17.618073 -24.72658 -0.57200855 -103.06503 -0.56712669 -103.04468 -17.259933 -33.644955
5800000000 -17.688894 -26.546858 -0.56916982 -104.83762 -0.56497985 -104.81795 -17.235695 -34.591118
5900000000 -17.714434 -27.597332 -0.57051545 -106.62707 -0.56682348 -106.60751 -17.228994 -35.347092
6000000000 -17.823202 -29.63653 -0.56775326 -108.41225 -0.56425583 -108.3944 -17.49571 -36.421825
6100000000 -17.955029 -30.536732 -0.56558603 -110.21132 -0.56288797 -110.17102 -17.675161 -38.033905
6200000000 -18.013472 -32.090351 -0.56242096 -111.99642 -0.56062335 -111.98891 -17.821972 -40.78532
6300000000 -18.135923 -32.777782 -0.56431067 -113.8315 -0.55887598 -113.8033 -17.712223 -43.253716
6400000000 -18.190931 -34.401443 -0.56848466 -115.60042 -0.56514436 -115.57835 -17.725399 -45.583439
6500000000 -18.439812 -35.711864 -0.56690073 -117.4186 -0.56344587 -117.38677 -17.791956 -45.510445
6600000000 -18.554392 -37.354843 -0.56981945 -119.2028 -0.56614691 -119.19495 -17.918179 -46.188507
6700000000 -18.770479 -38.514473 -0.57286143 -120.99126 -0.56957328 -120.97284 -18.223703 -47.503464
6800000000 -18.674128 -39.553875 -0.57083547 -122.77319 -0.56791198 -122.75619 -18.405334 -50.245205
6900000000 -18.710499 -41.627106 -0.57141531 -124.59518 -0.56997466 -124.56021 -18.45166 -52.532753
7000000000 -18.799673 -42.568253 -0.57090396 -126.33807 -0.5669232 -126.3192 -18.420317 -54.610889
7100000000 -18.97077 -43.711254 -0.56657398 -128.15651 -0.56387854 -128.119 -18.483 -54.818703
7200000000 -19.142279 -44.527615 -0.56102955 -129.93266 -0.55887419 -129.88992 -18.630365 -55.287708
7300000000 -19.333672 -45.982494 -0.55377507 -131.76202 -0.55275953 -131.73907 -19.043684 -56.695652
7400000000 -19.498581 -47.39341 -0.55529863 -133.66031 -0.55325347 -133.62883 -19.280725 -59.870678
7500000000 -19.675089 -48.452274 -0.55754161 -135.41261 -0.55696571 -135.39159 -19.388321 -63.142017
7600000000 -19.717428 -49.21973 -0.55758226 -137.2495 -0.55437416 -137.22375 -19.232296 -64.933105
7700000000 -19.886156 -50.927155 -0.56220615 -139.03992 -0.55879062 -139.01367 -19.189659 -65.129601
7800000000 -20.061672 -52.642078 -0.55951315 -140.86942 -0.55669671 -140.83258 -19.477085 -64.250259
7900000000 -20.371122 -54.528816 -0.56136328 -142.70403 -0.55717582 -142.66331 -20.037727 -65.196732
8000000000 -20.745546 -55.892803 -0.57072502 -144.48289 -0.56644654 -144.4444 -20.623215 -69.503502
8100000000 -21.139118 -56.300095 -0.56655979 -146.22496 -0.56233257 -146.19058 -20.847721 -74.200279
8200000000 -21.342077 -55.753456 -0.55756515 -148.01979 -0.55234444 -147.9924 -20.640751 -76.671059
8300000000 -21.483047 -57.530766 -0.5496431 -149.87666 -0.5473237 -149.84393 -20.407696 -74.445984
8400000000 -21.863686 -58.960831 -0.55091596 -151.74245 -0.54510242 -151.70099 -20.92347 -70.256371
8500000000 -22.381683 -59.951897 -0.56251526 -153.65002 -0.55734062 -153.61224 -22.604992 -67.403046
8600000000 -22.623192 -58.408085 -0.62523329 -155.4767 -0.62343585 -155.47467 -26.828243 -73.80159
8700000000 -23.396479 -64.667389 -0.64280719 -156.17638 -0.63909107 -156.16531 -42.792629 -18.580889
8800000000 -23.546686 -59.078987 -0.47517601 -158.43941 -0.47920302 -158.42453 -34.07122 -50.897507
8900000000 -23.557594 -62.898296 -0.51130128 -160.7267 -0.50824618 -160.69173 -27.928617 -96.712257
9000000000 -24.070433 -64.195442 -0.54153872 -162.61232 -0.53760701 -162.59497 -24.277512 -103.8783
9100000000 -24.346025 -62.186081 -0.55380654 -164.39107 -0.54925591 -164.35168 -22.93746 -99.266167
9200000000 -24.578667 -62.092594 -0.55493242 -166.17415 -0.54925591 -166.15854 -22.597704 -91.404526
9300000000 -25.026833 -61.295841 -0.55942392 -167.99014 -0.55216187 -167.96376 -23.658421 -84.412331
9400000000 -25.644918 -63.723499 -0.55775827 -169.77667 -0.55540216 -169.74391 -24.959343 -82.525307
9500000000 -26.341034 -63.005505 -0.55919957 -171.59741 -0.55737036 -171.56715 -26.794941 -86.960785
9600000000 -26.708094 -62.708973 -0.56235731 -173.44363 -0.55489123 -173.39629 -27.135481 -96.137596
9700000000 -27.120707 -61.001526 -0.56200933 -175.2457 -0.55695832 -175.22444 -27.112701 -100.82586
9800000000 -27.378351 -59.575958 -0.56626457 -177.07948 -0.56190062 -177.05403 -27.000204 -98.717255
9900000000 -28.289276 -58.936604 -0.56839556 -178.89574 -0.56440264 -178.88156 -27.855762 -93.681511
10000000000 -29.173306 -56.305828 -0.57125264 179.26183 -0.56767362 179.2997 -29.283644 -87.858582
10100000000 -29.92005 -52.609428 -0.57593161 177.43503 -0.57357037 177.4832 -31.989294 -90.845612
10200000000 -30.259054 -45.812447 -0.58141136 175.61382 -0.57827312 175.66083 -33.716648 -101.15511
10300000000 -30.307192 -42.423874 -0.58315599 173.78711 -0.58141106 173.81624 -33.92054 -115.28138
10400000000 -30.696589 -38.73103 -0.59195197 171.96019 -0.58471352 172.00221 -33.381069 -112.81145
10500000000 -31.182775 -36.412106 -0.5967837 170.14482 -0.59219581 170.20328 -33.411469 -103.06617
10600000000 -31.937569 -29.000643 -0.60185772 168.34453 -0.59545338 168.38341 -34.520512 -82.681801
10700000000 -31.763393 -21.423317 -0.60462177 166.54964 -0.59742582 166.59268 -36.877312 -56.302807
10800000000 -31.474873 -10.975019 -0.60786664 164.77614 -0.60518265 164.81175 -38.739582 -19.159473
10900000000 -30.331511 -5.5658603 -0.61175251 162.97447 -0.60732359 163.01031 -40.034023 19.774237
11000000000 -30.146086 -2.5347955 -0.61755699 161.18111 -0.61356217 161.21559 -39.441696 38.682144
11100000000 -29.96892 0.91417068 -0.62223119 159.36761 -0.61845618 159.40956 -39.926193 45.835358
11200000000 -29.923708 3.5839586 -0.62698251 157.5887 -0.62128729 157.62778 -38.876179 35.822624
11300000000 -29.103485 8.9322882 -0.62893581 155.78146 -0.62173289 155.82768 -36.276836 28.21579
11400000000 -28.277359 10.16628 -0.63086784 154.00847 -0.62938672 154.03552 -33.68861 20.583183
11500000000 -27.402136 12.283827 -0.63407427 152.20612 -0.62948519 152.22559 -31.761017 23.588736
11600000000 -26.890575 12.765909 -0.63647133 150.41553 -0.63100165 150.43874 -29.779816 28.16371
11700000000 -26.45665 14.164934 -0.63911867 148.60588 -0.63553154 148.63106 -28.790327 31.190172
11800000000 -26.06019 15.348904 -0.64206886 146.81715 -0.63889372 146.83304 -27.894983 32.322033
11900000000 -25.561224 16.244303 -0.647012 145.00264 -0.6440317 145.03914 -27.450741 33.294651
12000000000 -25.006968 16.666933 -0.65280002 143.20912 -0.64795727 143.21675 -26.961203 30.521749
12100000000 -24.422508 15.957301 -0.65829873 141.41763 -0.65498233 141.45132 -26.646051 28.932159
12200000000 -24.154867 14.115579 -0.66196626 139.63062 -0.6587407 139.65205 -26.072609 26.162552
12300000000 -23.7243 13.384829 -0.66895479 137.80914 -0.66137058 137.86955 -25.418972 23.922516
12400000000 -23.38986 12.785658 -0.67051923 136.06927 -0.66597295 136.08192 -24.697287 23.339401
12500000000 -22.865173 13.28124 -0.67565668 134.3013 -0.67124009 134.30606 -24.256989 22.95883
12600000000 -22.622171 12.198461 -0.68004966 132.49391 -0.67472649 132.53381 -23.859468 21.41926
12700000000 -22.27191 11.981173 -0.68210965 130.73674 -0.67825204 130.76974 -23.585205 20.763594
12800000000 -22.209812 9.9807835 -0.68260038 128.96402 -0.67524087 128.99374 -23.063383 18.093031
12900000000 -21.877411 8.8639231 -0.68000758 127.179 -0.67855829 127.20983 -22.754683 18.092489
13000000000 -21.582361 6.5223312 -0.68207061 125.41099 -0.675686 125.41879 -22.424763 16.596691
13100000000 -21.437117 7.0972199 -0.67993426 123.62007 -0.67807168 123.64172 -22.409544 15.58815
13200000000 -21.098444 5.9221778 -0.68224597 121.82278 -0.67868751 121.83128 -22.186205 13.028327
13300000000 -21.091106 6.2370887 -0.67885488 120.02016 -0.67444497 120.05373 -21.881205 9.1354446
13400000000 -20.601797 4.7187486 -0.67980838 118.24052 -0.67163527 118.26376 -21.375708 7.5815048
13500000000 -20.529821 4.5890098 -0.67843151 116.43226 -0.67355978 116.47021 -20.779482 6.8942919
13600000000 -20.13723 3.3657424 -0.68150002 114.60062 -0.67651051 114.63139 -20.284918 6.334733
13700000000 -20.017929 1.5872129 -0.69394946 112.82979 -0.68950933 112.87567 -20.212179 5.6103172
13800000000 -19.799641 0.99749833 -0.69009191 111.06383 -0.68653888 111.10268 -20.122072 5.4607062
13900000000 -19.719181 -0.89738625 -0.68915743 109.24252 -0.68865836 109.28486 -20.154879 2.4406948
14000000000 -19.29784 -0.61889565 -0.69436401 107.45248 -0.68843937 107.4978 -19.86622 0.30226293
14100000000 -19.262203 -1.8866227 -0.69421214 105.65517 -0.69085544 105.7135 -19.673794 -2.6527412
14200000000 -19.041927 -1.8466448 -0.68982244 103.90038 -0.69174051 103.91831 -19.21715 -3.6395142
14300000000 -18.961252 -3.9269092 -0.68957669 102.05761 -0.68667197 102.12165 -19.108757 -4.6953745
14400000000 -18.767092 -4.1403894 -0.6872105 100.24769 -0.68717319 100.27757 -18.723408 -5.7462945
14500000000 -18.459084 -6.8729358 -0.6998384 98.35585 -0.6970858 98.426491 -18.551226 -7.026865
14600000000 -18.345131 -8.2500896 -0.71635777 96.716202 -0.71409166 96.767159 -18.355339 -8.3063679
14700000000 -18.21508 -9.4826784 -0.70313603 94.948318 -0.69835031 94.99308 -18.347031 -8.9981556
14800000000 -18.152411 -9.88237 -0.70071805 93.119278 -0.69646764 93.164085 -18.254095 -8.4334135
14900000000 -18.038574 -12.710345 -0.69828677 91.307014 -0.69658464 91.342346 -18.434162 -9.6439447
15000000000 -18.020187 -13.799034 -0.6991244 89.465996 -0.69843239 89.521935 -18.336792 -13.235047
15100000000 -17.734741 -15.926446 -0.71070522 87.63443 -0.70434844 87.667732 -18.191233 -16.404373
15200000000 -17.771425 -17.000711 -0.73218399 85.860832 -0.72481316 85.907326 -17.77165 -20.359093
15300000000 -17.619385 -18.377815 -0.71736348 84.181747 -0.71386129 84.222649 -17.553991 -20.534651
15400000000 -17.671801 -20.075878 -0.71664476 82.280212 -0.7131511 82.321571 -17.341116 -19.573477
15500000000 -17.426168 -23.190504 -0.72805971 80.49028 -0.72660106 80.554482 -17.41227 -20.147446
15600000000 -17.590296 -25.920464 -0.7399829 78.664864 -0.73438907 78.717911 -17.72872 -20.351616
15700000000 -17.366051 -26.581947 -0.73945963 76.897522 -0.73866755 76.94239 -17.946661 -24.613544
15800000000 -17.552639 -28.070976 -0.75272852 75.18351 -0.75120586 75.21772 -17.988039 -29.126314
15900000000 -17.485075 -27.870958 -0.75397795 73.479721 -0.74937367 73.530235 -17.743404 -32.991516
16000000000 -17.756926 -30.291637 -0.74597591 71.775955 -0.74202305 71.809113 -17.529682 -33.969463
16100000000 -17.667034 -30.675173 -0.73811954 70.010971 -0.73844081 70.044807 -17.320559 -34.455235
16200000000 -17.702055 -34.554844 -0.7338177 68.230988 -0.73247045 68.278091 -17.379671 -32.649342
16300000000 -17.615122 -34.150265 -0.72975129 66.452339 -0.72633791 66.508118 -17.410913 -34.635342
16400000000 -17.470091 -36.184147 -0.72719014 64.650238 -0.72501749 64.691872 -17.649952 -34.765759
16500000000 -17.492004 -34.558037 -0.72113442 62.843246 -0.72106749 62.877983 -17.708246 -38.790493
16600000000 -17.430523 -36.206291 -0.72219777 61.012959 -0.71902466 61.063087 -17.604483 -40.180344
16700000000 -17.690365 -36.886654 -0.72390723 59.190037 -0.72064942 59.246147 -17.408293 -43.050797
16800000000 -17.620211 -40.221447 -0.71992463 57.39983 -0.71809733 57.455902 -17.346373 -42.562664
16900000000 -17.755192 -42.617889 -0.72060966 55.603809 -0.71971625 55.651752 -17.225227 -44.018021
17000000000 -17.351789 -44.095551 -0.71811563 53.773113 -0.71872407 53.829304 -17.460329 -44.460564
17100000000 -17.409765 -44.14896 -0.72060966 51.994228 -0.721286 52.045998 -17.412384 -46.62014
17200000000 -17.343336 -43.412949 -0.72574097 50.200077 -0.72513771 50.215813 -17.608641 -49.249233
17300000000 -17.747459 -45.051121 -0.73031414 48.415245 -0.72680151 48.438065 -17.373913 -50.835278
17400000000 -17.976595 -47.665291 -0.73077971 46.593414 -0.72907883 46.656494 -17.425129 -50.406277
17500000000 -18.180885 -52.720829 -0.73355871 44.787651 -0.73219258 44.837246 -17.415483 -50.161118
17600000000 -17.943195 -54.284615 -0.73351336 42.981354 -0.73349369 43.056789 -17.832907 -50.89056
17700000000 -17.897339 -55.811916 -0.73968673 41.183258 -0.73713017 41.265759 -18.318558 -53.159389
17800000000 -18.003986 -53.507538 -0.74483478 39.413578 -0.74019259 39.451298 -18.671572 -58.480476
17900000000 -18.509581 -54.535904 -0.75404632 37.642059 -0.74843401 37.662628 -18.465378 -62.877308
18000000000 -19.088324 -56.028717 -0.75161552 35.901524 -0.74877512 35.930672 -18.189869 -64.78846
18100000000 -19.118559 -60.824913 -0.73969567 34.126362 -0.73470575 34.126251 -17.802803 -61.888958
18200000000 -18.92276 -63.02449 -0.74591964 32.347145 -0.73624504 32.427113 -17.863791 -58.504322
18300000000 -18.600304 -64.958771 -0.72859943 30.595194 -0.7309981 30.647612 -18.547873 -56.756481
18400000000 -19.015224 -63.819561 -0.73202157 28.768393 -0.72835112 28.78668 -19.69425 -58.452576
18500000000 -19.237244 -63.834137 -0.728495 26.878523 -0.72440541 26.968052 -20.494789 -68.658752
18600000000 -19.703545 -63.975342 -0.72700197 25.061081 -0.7215125 25.075399 -19.871387 -76.846306
18700000000 -19.635557 -67.864227 -0.72812825 23.22533 -0.72304982 23.257248 -18.910234 -78.924744
18800000000 -19.785164 -70.568405 -0.72281134 21.426514 -0.72174078 21.499012 -18.138746 -74.179092
18900000000 -19.631952 -72.515488 -0.72098649 19.67791 -0.71482706 19.735857 -18.287664 -68.710251
19000000000 -20.040432 -74.325058 -0.71960199 17.962833 -0.71579701 17.99682 -19.435123 -63.209698
19100000000 -20.309515 -72.971451 -0.72002667 16.178745 -0.71672386 16.221247 -20.488234 -65.617233
19200000000 -20.673252 -73.755524 -0.72392404 14.359139 -0.72313851 14.406064 -22.022612 -74.999184
19300000000 -20.912743 -73.380592 -0.72083122 12.52473 -0.72346169 12.600559 -20.950916 -83.661919
19400000000 -21.259176 -76.51429 -0.72580612 10.752011 -0.72453421 10.81263 -20.680918 -83.515175
19500000000 -21.836189 -78.817123 -0.72376472 8.9450426 -0.71869135 8.9846115 -20.015394 -81.064636
19600000000 -21.804588 -82.624435 -0.72069007 7.148262 -0.71921831 7.2000604 -20.556105 -75.078537
19700000000 -22.003113 -82.993835 -0.71925646 5.3244824 -0.71169895 5.4131188 -21.286856 -73.247017
19800000000 -22.148111 -81.500786 -0.72076768 3.5848384 -0.71855849 3.629364 -22.764069 -76.936935
19900000000 -22.862497 -78.843964 -0.71627229 1.8126012 -0.71439284 1.8302177 -22.848787 -81.338783
20000000000 -23.956429 -80.286522 -0.72018617 -0.030604623 -0.71539044 0.012839912 -23.032305 -86.055511
20100000000 -25.296703 -83.525925 -0.71819568 -1.8681448 -0.7150389 -1.8158404 -22.766453 -81.598984
20200000000 -25.432074 -91.593399 -0.72036338 -3.6438198 -0.71776903 -3.5801523 -23.367544 -76.198318
20300000000 -25.350628 -95.176208 -0.71615845 -5.439908 -0.71354735 -5.3837352 -24.599676 -72.18531
20400000000 -25.252144 -90.010323 -0.71286035 -7.2583585 -0.71379721 -7.2278934 -26.409336 -78.556389
20500000000 -25.966356 -81.267242 -0.71553576 -9.1086378 -0.71250564 -9.0501814 -27.155643 -90.103142
20600000000 -26.988506 -77.307869 -0.7151832 -10.92781 -0.71108484 -10.894619 -25.852907 -95.220528
20700000000 -29.128204 -83.611717 -0.70679897 -12.743696 -0.70538735 -12.735515 -25.201586 -87.852768
20800000000 -30.259729 -92.190353 -0.70610148 -14.585586 -0.7044946 -14.520639 -24.426285 -77.433685
20900000000 -30.537292 -101.49178 -0.70172101 -16.349436 -0.69698727 -16.317154 -25.334335 -60.33453
21000000000 -30.508982 -95.355415 -0.70288771 -18.155107 -0.70329738 -18.12738 -27.893429 -50.988102
21100000000 -30.848993 -78.178993 -0.70879006 -20.010698 -0.70690286 -19.955423 -30.873905 -49.32975
21200000000 -31.655237 -62.267132 -0.72018707 -21.948494 -0.7175504 -21.883398 -35.536121 -64.978142
21300000000 -32.473221 -55.285824 -0.73139417 -23.769474 -0.72762656 -23.714233 -31.570248 -88.390312
21400000000 -35.407059 -60.377029 -0.73351151 -25.460171 -0.7295562 -25.43758 -28.917765 -78.257431
21500000000 -36.64637 -82.485847 -0.70941633 -27.322765 -0.70950139 -27.284601 -26.39925 -74.621635
21600000000 -40.12114 -76.260078 -0.7044127 -29.174734 -0.70004338 -29.121004 -25.725208 -52.850426
21700000000 -37.022064 -49.027897 -0.6996727 -30.964745 -0.69654691 -30.944595 -25.623501 -32.381729
21800000000 -33.885792 -16.272133 -0.70346355 -32.748837 -0.70636767 -32.687996 -26.874056 -11.461756
21900000000 -31.481915 -4.2636814 -0.71927452 -34.520096 -0.71388543 -34.483852 -27.575178 -0.18196237
22000000000 -30.41185 12.730448 -0.74182165 -36.420845 -0.73499453 -36.391201 -31.902056 -0.054004218
22100000000 -30.481878 15.476751 -0.75834054 -38.267651 -0.75006032 -38.214363 -30.123728 -33.003418
22200000000 -31.841665 21.113733 -0.76537734 -40.042065 -0.76174802 -39.980556 -28.175562 -35.309036
22300000000 -31.705482 14.618249 -0.76223421 -41.826538 -0.76436508 -41.794456 -24.086418 -32.202442
22400000000 -29.418957 12.095144 -0.74002773 -43.50119 -0.73478913 -43.491837 -23.614813 -17.279375
22500000000 -26.473091 11.512531 -0.73471004 -45.439526 -0.73293471 -45.413338 -22.632017 -1.8938179
22600000000 -24.849445 15.718301 -0.75411779 -47.20903 -0.75491726 -47.199238 -24.03907 5.3735366
22700000000 -24.440844 22.543037 -0.77551639 -48.945164 -0.77026635 -48.865921 -24.341421 0.54983795
22800000000 -25.639673 27.884031 -0.78114551 -50.662182 -0.77595615 -50.658524 -25.788555 -13.247545
22900000000 -26.109772 27.150675 -0.76595968 -52.5084 -0.76783198 -52.499271 -22.910709 -18.27132
23000000000 -25.269705 12.573903 -0.7884165 -54.355228 -0.78179044 -54.367737 -21.85367 -15.194238
23100000000 -23.275713 8.1838408 -0.77926379 -56.137646 -0.77661419 -56.11338 -20.280186 -5.4899325
23200000000 -21.815535 10.02898 -0.77601558 -57.898216 -0.77054763 -57.90226 -21.097975 2.8307881
23300000000 -21.233818 17.202206 -0.77833688 -59.732285 -0.77846509 -59.659279 -21.867149 8.1460648
23400000000 -21.813139 21.465546 -0.77549255 -61.554657 -0.77222306 -61.513824 -23.27816 -6.158577
23500000000 -22.797535 24.577431 -0.77542603 -63.30698 -0.77136499 -63.254383 -22.29748 -18.655447
23600000000 -22.877939 16.908749 -0.77958685 -65.134758 -0.77314651 -65.08242 -19.894897 -26.194532
23700000000 -21.776873 8.6620579 -0.77723211 -66.894173 -0.77576274 -66.84552 -18.252737 -14.978532
23800000000 -20.544643 3.9917569 -0.78391355 -68.724678 -0.78380102 -68.677734 -18.218206 -5.6415706
23900000000 -19.740191 7.7316461 -0.79101771 -70.54821 -0.78996778 -70.562065 -18.309896 3.0043907
24000000000 -19.527618 9.5958948 -0.78485376 -72.491196 -0.78636378 -72.441841 -21.062355 2.562216
24100000000 -20.241598 12.700233 -0.78414112 -74.297989 -0.77389199 -74.250359 -21.652933 -14.438897
24200000000 -20.501019 10.327865 -0.77802348 -76.102936 -0.77341497 -76.034554 -20.179058 -28.428041
24300000000 -20.378057 4.783597 -0.77054358 -77.917786 -0.77131027 -77.846619 -17.93158 -32.754517
24400000000 -19.1166 -0.83210814 -0.78410149 -79.601242 -0.77812785 -79.571533 -16.523928 -23.198776
24500000000 -18.486326 -2.3686035 -0.79490507 -81.332451 -0.78972095 -81.326942 -16.322504 -15.714611
24600000000 -17.952761 -0.17595661 -0.80577427 -83.191048 -0.80552369 -83.102875 -16.884954 -9.3193703
24700000000 -18.225761 0.27008718 -0.80870771 -84.996117 -0.80358404 -84.959084 -18.297861 -10.810532
24800000000 -18.665676 1.2904117 -0.81046778 -86.930328 -0.80789137 -86.885628 -19.339798 -20.978275
24900000000 -18.850843 -4.0830793 -0.80404752 -88.746742 -0.80371892 -88.685036 -18.270517 -31.556963
25000000000 -18.336311 -7.5632496 -0.80386126 -90.527016 -0.80208486 -90.463173 -16.943344 -37.248096
25100000000 -17.471628 -12.502337 -0.81023288 -92.213066 -0.81074762 -92.157951 -15.825741 -30.743135
25200000000 -17.091667 -10.448012 -0.81645489 -93.896835 -0.80936015 -93.871002 -15.671375 -28.572334
25300000000 -16.753727 -10.361691 -0.83313274 -95.649399 -0.82984614 -95.587723 -16.06875 -24.274965
25400000000 -17.306196 -8.2303991 -0.83589107 -97.484467 -0.83207071 -97.497063 -16.872719 -30.969242
25500000000 -17.256647 -10.689039 -0.83923531 -99.234245 -0.84119189 -99.259781 -16.75136 -29.957521
25600000000 -17.474611 -16.090275 -0.8514958 -101.15431 -0.84404624 -101.09723 -16.83238 -40.691872
25700000000 -17.029509 -18.350767 -0.8474943 -102.90918 -0.84315914 -102.87464 -15.695702 -38.535034
25800000000 -16.728653 -20.150284 -0.84806508 -104.64494 -0.85203123 -104.6038 -15.871283 -39.900593
25900000000 -16.281809 -19.39344 -0.8442896 -106.37459 -0.84554774 -106.37595 -15.21104 -39.188869
26000000000 -16.417574 -20.591755 -0.8508147 -108.09028 -0.84609687 -108.11014 -15.617064 -39.059311
26100000000 -16.457973 -20.327501 -0.85268265 -109.99066 -0.85602689 -109.89468 -15.53264 -41.217243
26200000000 -16.421368 -21.269875 -0.86404061 -111.68583 -0.86609501 -111.64697 -15.610122 -41.2826
26300000000 -16.372683 -23.986242 -0.87640125 -113.44379 -0.87707752 -113.40663 -16.017172 -46.668106
26400000000 -16.440403 -27.304176 -0.87496567 -115.29273 -0.87286401 -115.16226 -15.286455 -46.878056
26500000000 -16.347589 -29.204588 -0.86765403 -116.92291 -0.86318314 -116.90446 -15.497165 -48.59502
26600000000 -16.094109 -29.728241 -0.88298905 -118.63889 -0.86248565 -118.79863 -14.888803 -49.592976
26700000000 -16.019112 -28.643269 -0.85797751 -120.53565 -0.85856545 -120.44524 -14.919586 -48.015198
26800000000 -16.086645 -30.013357 -0.866898 -122.27455 -0.85936552 -122.28347 -15.182564 -49.362827
26900000000 -16.208588 -31.877254 -0.86210805 -124.16383 -0.86283582 -123.99531 -15.428743 -50.067802
27000000000 -16.11878 -35.098209 -0.86101937 -125.82116 -0.86478478 -125.90321 -16.221128 -52.330181
27100000000 -16.149363 -38.60957 -0.84979677 -127.6272 -0.86670393 -127.5088 -15.586129 -59.925251
27200000000 -16.195253 -37.932961 -0.85513419 -129.39642 -0.85584372 -129.44113 -15.334604 -61.492222
27300000000 -16.333382 -39.793865 -0.84944361 -131.18881 -0.84509802 -131.07065 -14.665965 -58.885635
27400000000 -16.319899 -40.166275 -0.85058075 -132.85345 -0.85014844 -132.98567 -15.119155 -58.80328
27500000000 -16.501888 -42.900017 -0.8740561 -134.85512 -0.87419629 -134.82513 -15.422418 -56.935307
27600000000 -16.646181 -44.007404 -0.85784912 -136.60297 -0.8530153 -136.59908 -16.727829 -62.896946
27700000000 -16.367708 -46.066681 -0.84596354 -138.44299 -0.85950685 -138.37234 -16.431105 -67.377136
27800000000 -16.615751 -45.362843 -0.83690637 -140.25723 -0.84112245 -140.23482 -15.92032 -73.753632
27900000000 -16.719177 -47.215755 -0.85659879 -142.06551 -0.85519844 -141.87573 -14.722402 -70.58046
28000000000 -17.189762 -46.803215 -0.86499768 -143.75688 -0.8632195 -143.58438 -15.310604 -70.875061
28100000000 -16.705631 -51.426437 -0.86065859 -145.52888 -0.83763897 -145.26688 -15.683468 -66.888138
28200000000 -17.051279 -50.637775 -0.8688361 -147.41685 -0.86797488 -147.35503 -16.677044 -71.445511
28300000000 -16.43701 -52.005276 -0.86153919 -149.2758 -0.85016012 -149.19864 -16.755537 -78.605782
28400000000 -16.589945 -53.951431 -0.84389567 -151.16177 -0.84551096 -151.14227 -16.049788 -86.916626
28500000000 -16.838594 -52.658642 -0.83885121 -152.89633 -0.82598847 -152.84415 -15.30033 -78.628281
28600000000 -16.986664 -54.409866 -0.83455735 -154.57021 -0.84700221 -154.63922 -15.210612 -80.513786
28700000000 -17.112444 -54.301964 -0.85095292 -156.25716 -0.83928806 -156.25072 -16.00305 -71.143822
28800000000 -17.760078 -56.955814 -0.87173623 -158.29736 -0.89302486 -158.26534 -17.933378 -78.224472
28900000000 -17.308014 -53.392555 -0.88170195 -159.89949 -0.86494809 -159.88649 -17.603718 -86.893753
29000000000 -17.051851 -60.860844 -0.89698106 -161.97667 -0.89443201 -161.86259 -16.63306 -93.283569
29100000000 -17.049995 -59.784073 -0.89594787 -164.02667 -0.90345329 -163.96889 -14.943524 -92.483299
29200000000 -17.021109 -60.189758 -0.8786884 -165.46182 -0.87250835 -165.42084 -15.186093 -85.170601
29300000000 -17.217199 -58.202461 -0.86179709 -167.15298 -0.83899194 -167.16615 -15.705209 -75.572571
29400000000 -17.503225 -60.252316 -0.85135633 -168.71228 -0.84869921 -168.58264 -18.426571 -76.173271
29500000000 -18.803335 -62.945694 -0.82977188 -170.60341 -0.85367221 -170.5233 -19.289703 -83.24765
29600000000 -18.702019 -66.240677 -0.86932182 -172.32079 -0.86228454 -172.46561 -19.18585 -102.29778
29700000000 -19.076872 -69.555336 -0.87957358 -174.25488 -0.88129985 -174.30537 -17.569012 -99.136147
29800000000 -18.106939 -68.737427 -0.90728283 -176.02397 -0.88618052 -176.0761 -16.696507 -101.90935
29900000000 -18.518717 -69.361847 -0.86666757 -177.81769 -0.86177725 -177.88205 -16.070564 -87.025558
30000000000 -19.133354 -61.796726 -0.88153195 -179.6205 -0.86459237 -179.52161 -17.978003 -86.356567
30100000000 -20.229189 -63.148735 -0.87846369 178.5535 -0.8436684 178.65929 -19.70709 -81.14061
30200000000 -20.340725 -62.392216 -0.8725422 176.75211 -0.85221994 176.88853 -22.132332 -97.848259
30300000000 -20.639082 -79.038994 -0.86863536 175.08763 -0.84673983 175.07648 -21.370813 -101.44833
30400000000 -20.217457 -75.928123 -0.85251886 173.3577 -0.86209136 173.32262 -18.929998 -115.32838
30500000000 -19.702906 -76.191238 -0.8762213 171.50424 -0.83914798 171.58353 -19.203308 -101.37727
30600000000 -20.129602 -70.7024 -0.85325509 169.65813 -0.83193648 169.60181 -19.091608 -101.32428
30700000000 -20.63043 -73.294983 -0.84577829 167.98866 -0.84675968 167.96423 -20.483545 -89.358032
30800000000 -21.760607 -63.880047 -0.85472757 166.02536 -0.84235609 166.16548 -24.02877 -101.85366
30900000000 -21.718451 -69.87532 -0.85279763 164.29149 -0.84130877 164.47052 -23.218838 -96.08783
31000000000 -22.84276 -64.987 -0.83497643 162.35605 -0.85804784 162.35159 -23.207716 -115.30605
31100000000 -21.703222 -84.352875 -0.83832967 160.5166 -0.85688162 160.44707 -21.184906 -112.37798
31200000000 -21.717499 -81.115112 -0.8109417 158.57759 -0.82522994 158.68466 -21.267767 -98.091881
31300000000 -20.83412 -75.648651 -0.8359322 156.7296 -0.80220103 156.84123 -22.243206 -104.94585
31400000000 -21.509768 -58.977619 -0.79891193 155.08627 -0.80932492 155.23911 -23.522312 -92.441307
31500000000 -22.501307 -55.158207 -0.78971416 153.37309 -0.83051872 153.34808 -28.364998 -83.679337
31600000000 -26.445135 -50.427841 -0.84661055 151.53236 -0.84020674 151.4297 -28.204481 -119.90996
31700000000 -26.382715 -68.940659 -0.85456371 149.75215 -0.84613085 149.78461 -28.473158 -114.67903
31800000000 -25.106619 -75.679642 -0.84633875 147.74562 -0.86940247 147.71468 -24.872444 -121.09691
31900000000 -21.472725 -68.523788 -0.81679976 145.70204 -0.82517016 145.70868 -24.739849 -97.594521
32000000000 -22.695425 -56.57093 -0.83153492 144.11127 -0.82028341 144.05798 -25.028404 -94.044144
32100000000 -22.748344 -28.902498 -0.81756651 142.1561 -0.80980086 142.28529 -24.86558 -52.001743
32200000000 -26.987413 -18.449438 -0.81512266 140.49574 -0.81823587 140.67857 -31.370159 -33.31942
32300000000 -27.727573 -23.998314 -0.84365171 138.644 -0.8399561 138.61507 -30.139761 -26.002911
32400000000 -26.975578 -53.30357 -0.85917115 136.72169 -0.8519119 136.95479 -36.934853 102.17106
32500000000 -23.809879 -45.666176 -0.86236757 134.75768 -0.84968787 134.98372 -34.351101 -128.72093
32600000000 -23.052841 -43.204681 -0.85072964 133.01982 -0.84052366 133.1416 -30.738998 -100.52444
32700000000 -21.959698 -16.799862 -0.82315224 131.25487 -0.86111563 131.20093 -25.661341 -75.708702
32800000000 -22.660864 -19.17548 -0.84072161 129.41527 -0.83302671 129.49232 -22.071522 -41.111656
32900000000 -25.081305 -12.031944 -0.84522504 127.75589 -0.86871409 127.81226 -22.534233 -18.336796
33000000000 -25.634348 -25.202244 -0.86721689 126.01514 -0.84553325 126.05057 -23.755564 3.9396036
33100000000 -23.782331 -27.512663 -0.87575829 124.23855 -0.89119732 124.15313 -27.007566 32.606258
33200000000 -22.022871 -33.169079 -0.85848153 122.39911 -0.86611176 122.33287 -29.68092 -39.27652
33300000000 -22.514668 -24.841631 -0.90518808 120.40143 -0.87535703 120.5147 -29.985588 -34.382263
33400000000 -22.57728 -16.710802 -0.84771359 118.74957 -0.84826869 118.7326 -22.353722 -47.491901
33500000000 -22.445248 -21.628811 -0.86525708 116.80079 -0.86288542 116.96999 -21.844988 -31.365261
33600000000 -22.178888 -21.2008 -0.84696007 115.35139 -0.84015524 115.19648 -21.581629 -24.478729
33700000000 -21.741898 -24.025711 -0.85699546 113.30513 -0.86527508 113.47157 -21.930708 -13.942272
33800000000 -21.721405 -21.719143 -0.90896839 111.34282 -0.88821179 111.53582 -24.226673 -21.214956
33900000000 -22.503649 -17.80221 -0.89168394 109.62505 -0.92704904 109.58777 -22.281576 -35.976246
34000000000 -20.711048 -18.979187 -0.87236685 107.96512 -0.8921299 107.96433 -20.515287 -21.121195
34100000000 -20.279972 -22.218239 -0.89846277 105.99178 -0.91287339 106.08218 -20.858425 -32.229923
34200000000 -19.104795 -16.799549 -0.90831715 104.54362 -0.85563439 104.3495 -18.246664 -10.695313
34300000000 -19.72789 -18.016266 -0.90712839 102.62138 -0.90229458 102.36951 -21.736464 -24.718393
34400000000 -18.906353 -14.978048 -0.95065767 100.72715 -0.90293252 100.77242 -20.621979 -15.468176
34500000000 -19.352232 -21.485548 -0.97636098 98.621613 -0.94770342 98.878349 -20.127632 -35.469063
34600000000 -18.706703 -18.896812 -0.90540713 96.765709 -0.96075046 97.020233 -18.163736 -29.988642
34700000000 -18.017599 -18.447023 -0.91941571 95.35891 -0.93763894 95.149765 -16.98093 -30.622696
34800000000 -18.108583 -16.585516 -0.92849547 93.244804 -0.92372268 93.449066 -16.783285 -14.028171
34900000000 -18.183546 -20.232445 -0.94454688 91.423515 -0.90881872 91.830437 -17.788151 -8.0174341
35000000000 -17.875397 -19.278755 -0.95392895 89.962837 -0.9705739 89.877426 -19.493151 3.049047
35100000000 -16.609064 -23.29228 -0.97593641 87.923882 -0.97715127 88.131271 -19.415802 -23.78661
35200000000 -16.501631 -20.432884 -0.96704972 86.227257 -0.94555181 86.427727 -19.262751 -33.605263
35300000000 -16.213799 -25.026445 -0.98788339 84.552101 -1.0103724 84.579124 -15.185667 -35.822067
35400000000 -17.137302 -20.665157 -0.99272627 82.815331 -0.95820343 82.881012 -15.143373 -32.725159
35500000000 -16.461723 -22.092499 -0.99062282 81.099724 -1.015924 81.13253 -15.767944 -25.165255
35600000000 -17.627005 -28.591494 -1.0012184 79.132736 -0.96228993 79.214134 -17.117786 -15.834899
35700000000 -16.826872 -34.060772 -0.96416867 77.426491 -0.97404486 77.343079 -17.898043 -25.861063
35800000000 -16.339403 -32.169357 -0.97481394 75.601944 -0.95734531 75.80825 -17.180323 -37.433247
35900000000 -15.81394 -29.882645 -0.9818154 73.661552 -0.96922982 73.561737 -17.10132 -52.296211
36000000000 -15.705328 -31.121439 -1.0025316 72.25457 -1.0129678 72.134361 -14.688354 -39.5443
36100000000 -16.041882 -28.527962 -0.98232722 69.956879 -0.97184032 70.199158 -15.631352 -40.540264
36200000000 -16.962372 -34.700924 -1.0376705 68.358543 -1.0149866 68.478691 -15.72191 -36.444439
36300000000 -18.173801 -32.57695 -1.0284903 66.268051 -1.02626 66.464462 -17.298048 -46.027393
36400000000 -18.166512 -42.612938 -1.0045356 64.51165 -1.0138985 64.48526 -16.606741 -54.695717
36500000000 -16.203339 -41.514832 -0.98747844 62.742153 -1.0206628 63.100029 -15.50533 -61.529686
36600000000 -14.568475 -41.724033 -0.97192091 61.417145 -0.93198496 61.482002 -13.140701 -47.526829
36700000000 -14.607995 -32.70792 -0.9737047 59.577145 -1.0100118 59.664307 -13.723844 -52.846558
36800000000 -14.646855 -29.091822 -1.0436573 58.147442 -1.0175116 58.205193 -13.806009 -35.000656
36900000000 -17.729597 -29.153143 -1.0557765 56.266953 -1.0750738 55.916992 -16.352148 -44.881096
37000000000 -16.752382 -42.88369 -1.0673019 54.21682 -1.0521505 54.257935 -18.094986 -52.873978
37100000000 -15.774586 -60.777512 -1.0341663 51.641266 -1.035048 51.652874 -15.877567 -71.612251
37200000000 -14.070024 -49.919411 -0.9990232 50.171768 -0.95450324 50.070694 -14.237623 -70.32016
37300000000 -13.45777 -43.305595 -0.96347451 48.529507 -0.94925886 48.356449 -11.741526 -61.883659
37400000000 -13.387214 -38.301342 -0.92789894 46.954872 -0.96741164 46.860977 -11.882893 -51.953609
37500000000 -15.110003 -44.084286 -0.96808416 45.183449 -0.98315459 45.405594 -13.139468 -48.147175
37600000000 -16.698423 -53.292351 -1.0099183 43.309509 -0.96720463 43.321659 -15.254937 -39.721581
37700000000 -15.513627 -61.601437 -0.99818921 41.663166 -1.0218829 41.969467 -17.509207 -53.713768
37800000000 -14.263391 -56.378601 -1.0139476 39.768375 -1.0119021 39.95932 -15.742427 -73.910751
37900000000 -13.239875 -54.92691 -1.014986 37.875175 -1.0267849 38.023785 -14.915569 -82.885803
38000000000 -14.397932 -50.243 -0.99418372 35.916832 -0.98542982 35.906273 -11.953763 -71.951134
38100000000 -15.253965 -55.798328 -0.96825272 34.623642 -1.0087799 34.595016 -12.630365 -61.822639
38200000000 -15.545444 -59.403118 -1.0115538 32.765144 -1.0000604 32.321529 -12.35764 -55.081387
38300000000 -15.214938 -62.437275 -0.97109699 30.843998 -0.9684009 31.26515 -15.99988 -46.539543
38400000000 -14.279898 -65.362427 -0.95785296 29.234655 -0.95209271 29.165232 -18.749254 -64.901413
38500000000 -14.342288 -65.139198 -0.94192702 27.241636 -0.98177743 27.446367 -16.464457 -82.828735
38600000000 -16.053772 -55.982071 -0.91092926 25.641586 -0.96329159 25.709461 -13.954703 -82.111885
38700000000 -14.699071 -60.690186 -1.0050337 23.69433 -1.0019284 23.757708 -12.857526 -82.916107
38800000000 -15.848059 -65.952721 -0.96249253 22.425533 -0.98433769 21.797276 -13.793634 -63.904057
38900000000 -16.043455 -65.058495 -0.95263159 20.209728 -1.0227602 20.064943 -15.477918 -66.217705
39000000000 -16.456665 -66.417221 -0.96577662 18.86318 -0.98332667 18.48008 -18.037407 -63.476711
39100000000 -16.020514 -69.851746 -0.96974111 16.261923 -0.95678222 16.152975 -16.475657 -100.19642
39200000000 -15.273531 -76.211296 -0.97041267 14.321679 -1.0030688 14.837149 -15.243801 -89.223808
39300000000 -14.58808 -66.487801 -0.96559846 12.762145 -1.0193905 13.102074 -12.995908 -88.046623
39400000000 -16.566286 -65.960663 -0.94120002 11.356317 -1.0026677 11.387084 -13.758674 -71.50592
39500000000 -18.745323 -54.505161 -0.99115741 9.1990194 -0.96738386 9.2987165 -15.652448 -72.989876
39600000000 -17.859657 -78.961571 -1.0692945 7.3732996 -1.0055349 7.3558893 -19.803892 -56.845398
39700000000 -17.221439 -87.418045 -0.96395534 5.1518712 -0.98645109 5.3793564 -20.938894 -117.14116
39800000000 -14.374499 -85.687103 -0.97601324 3.6266956 -0.97933257 3.6511161 -16.709034 -106.9538
39900000000 -15.465839 -66.920708 -0.97808367 1.6078798 -0.96031839 1.8615611 -13.734458 -112.89874
40000000000 -15.614552 -64.503868 -0.93221784 -0.095096953 -0.91226429 0.10538712 -12.252591 -86.148811
40100000000 -20.951899 -63.679165 -0.99540758 -1.7211945 -0.987225 -1.5941584 -14.143071 -70.968369
40200000000 -21.287699 -88.162987 -0.99657154 -3.4178567 -0.98332959 -3.5880027 -16.46759 -59.506447
40300000000 -18.584545 -109.29651 -0.98468351 -5.3773251 -1.0438249 -5.4242291 -19.684446 -64.358391
40400000000 -16.149582 -91.00338 -1.0320132 -6.8912697 -0.99459052 -7.0972219 -21.055727 -124.46793
40500000000 -16.126581 -74.428596 -0.97527921 -9.0681114 -0.99796414 -8.8180914 -16.77857 -123.57956
40600000000 -16.109959 -65.406387 -0.99635237 -10.642866 -0.94823056 -10.300415 -15.256773 -106.67247
40700000000 -20.728973 -83.554962 -1.0315503 -12.742647 -1.0104357 -12.655447 -14.135789 -99.532776
40800000000 -21.465704 -85.150673 -1.0007679 -14.29693 -0.99640644 -13.909247 -15.768599 -73.395859
40900000000 -18.493807 -101.70104 -0.96793246 -15.755278 -0.97886813 -15.7745 -20.430098 -65.499184
41000000000 -15.875381 -95.116577 -0.96387589 -18.120548 -0.94924277 -17.931067 -20.080999 -68.322197
41100000000 -17.492222 -92.113853 -1.0241828 -19.656872 -1.0427891 -19.332346 -20.255337 -129.74564
41200000000 -19.250006 -67.757164 -0.96319139 -20.974331 -1.0418795 -21.182196 -19.936298 -110.11149
41300000000 -20.504524 -86.149727 -1.0569412 -22.615576 -1.0593476 -23.129688 -18.867266 -112.08444
41400000000 -21.711479 -92.649147 -0.97716421 -24.953987 -0.9891789 -24.447025 -18.415419 -79.59713
41500000000 -20.64636 -99.501663 -0.97870141 -26.79225 -0.97049391 -26.493027 -18.103828 -83.473312
41600000000 -19.808304 -77.513847 -0.96655524 -28.181114 -0.9170031 -28.018877 -21.263672 -70.018227
41700000000 -20.462856 -87.304092 -0.96772867 -30.009754 -1.0219157 -30.229288 -20.796394 -90.586235
41800000000 -22.174009 -82.884468 -1.0548968 -31.509985 -0.95464677 -31.501816 -23.279959 -88.76207
41900000000 -21.814556 -95.4841 -0.96640325 -33.719604 -1.0768275 -33.711876 -20.44989 -112.10402
42000000000 -22.327999 -71.504639 -0.98009187 -34.963169 -0.95600373 -35.330822 -20.808195 -80.67115
42100000000 -20.011257 -74.231094 -0.98050421 -36.968788 -0.96745175 -37.484497 -20.717461 -87.913872
42200000000 -23.602308 -62.843853 -0.89589822 -39.460052 -0.92560369 -39.152832 -20.184723 -51.174351
42300000000 -25.493406 -51.993378 -0.97427028 -41.399902 -0.98466241 -41.194168 -21.046118 -77.336823
42400000000 -30.065939 -96.000908 -1.0183697 -42.936806 -1.0031874 -42.624149 -28.551266 -44.101719
42500000000 -21.453207 -80.109489 -0.97117501 -44.350636 -0.91880667 -44.752213 -28.871542 -118.01566
42600000000 -19.265768 -74.055916 -0.93096161 -46.110016 -0.94820511 -46.166634 -26.571569 -71.989792
42700000000 -21.855949 -42.771038 -0.94070911 -49.091003 -0.93598229 -48.591766 -18.873722 -105.7299
42800000000 -22.941578 -15.695078 -1.0475072 -50.334579 -1.0344915 -50.224812 -21.682117 -85.251862
42900000000 -22.322033 22.827709 -0.99537629 -52.21336 -0.98650533 -52.38686 -18.701344 -56.110218
43000000000 -43.199596 -44.984978 -0.96620536 -54.059433 -1.0108755 -53.767048 -17.552849 -47.017185
43100000000 -25.883139 -109.16507 -0.93811792 -56.260735 -0.94073546 -56.049267 -22.632328 -3.0699019
43200000000 -20.793816 -78.549232 -0.92867756 -57.653812 -0.90110433 -57.667095 -27.047817 -7.9484901
43300000000 -20.208302 -40.923538 -0.98535091 -58.986389 -0.95914763 -59.240376 -38.839588 -145.19261
43400000000 -19.147619 -14.612535 -0.91298521 -61.089443 -0.97622973 -60.875351 -23.195456 -81.587639
43500000000 -20.014414 0.94596189 -0.95088708 -62.579586 -1.0257043 -62.801964 -20.390682 -90.125374
43600000000 -25.142172 20.150854 -0.90964597 -64.937859 -1.0264112 -65.192322 -17.32472 -51.942818
43700000000 -30.675354 -19.868471 -1.0094882 -66.467178 -1.0209967 -67.136108 -17.668957 -34.54388
43800000000 -23.78689 -70.406258 -0.98914188 -68.961906 -0.99873883 -68.448219 -18.469204 -11.111616
43900000000 -22.17943 -41.675442 -1.0706967 -70.524834 -1.0029961 -70.425735 -26.447731 10.565412
44000000000 -18.759373 -26.647837 -0.92771178 -71.963089 -0.94861346 -72.461891 -26.814898 -24.095947
44100000000 -19.386354 -11.558798 -0.89974624 -73.818954 -0.98665673 -74.003799 -19.581253 -52.349716
44200000000 -18.973675 9.351368 -1.0739151 -75.27636 -0.98175538 -76.085083 -20.22274 -50.729248
44300000000 -22.338076 -14.553962 -0.90806222 -77.680847 -1.0026853 -77.705292 -17.130077 -33.275898
44400000000 -25.576233 -44.146187 -1.0111225 -79.527817 -1.1375635 -78.906883 -17.772511 -15.907948
44500000000 -20.167242 -51.577709 -1.0410234 -81.278252 -1.0416762 -81.277054 -19.272318 -34.188557
44600000000 -19.084074 -35.24218 -1.099717 -82.322586 -1.0689597 -82.87471 -22.870653 -8.6785116
44700000000 -16.069452 -16.28558 -1.1544229 -84.293922 -1.067297 -84.485619 -19.039446 -54.89505
44800000000 -20.266026 -11.931971 -1.0237359 -86.545647 -1.0386107 -86.15799 -14.783819 -36.239178
44900000000 -20.727713 -8.9310188 -1.0401467 -88.090775 -1.0213487 -87.872353 -14.75277 -42.29377
45000000000 -20.503233 -15.85804 -0.99781168 -90.024078 -1.0414584 -89.431953 -15.994025 -13.393316
