!Keysight Technologies,N5247B,MY61255062,A.19.80.06
!Date: Monday, May 18, 2026 13:12:10
!Correction: S11(Cdelta 2-Port  ) 
!S21(Cdelta 2-Port  ) 
!S12(Cdelta 2-Port  ) 
!S22(Cdelta 2-Port  ) 
!S2P File: Measurements: S11, S21, S12, S22:
# Hz S  dB   R 50
1000000000 -23.875191 25.773176 -0.40651968 -18.700287 -0.40188503 -18.693413 -24.194946 26.453781
1100000000 -23.453094 25.734087 -0.41644773 -20.525908 -0.41184714 -20.510628 -23.793688 26.927292
1200000000 -23.099535 25.660173 -0.42749438 -22.312355 -0.42309123 -22.300556 -23.411726 27.608173
1300000000 -22.725813 25.951025 -0.43318257 -24.135145 -0.43108088 -24.133629 -23.01935 27.320477
1400000000 -22.35088 25.544859 -0.4428049 -25.909929 -0.43748316 -25.891733 -22.653446 27.644207
1500000000 -22.046822 25.250765 -0.44893253 -27.712854 -0.44280434 -27.697432 -22.220604 27.19706
1600000000 -21.696697 24.65085 -0.4524374 -29.5107 -0.44663876 -29.49271 -21.952404 26.163088
1700000000 -21.391935 23.952192 -0.4543083 -31.302372 -0.449662 -31.28285 -21.552847 25.698481
1800000000 -21.044765 22.823339 -0.46007863 -33.105377 -0.45335421 -33.084316 -21.258244 24.792408
1900000000 -20.785419 21.892176 -0.46111998 -34.912815 -0.45628667 -34.903454 -21.002117 23.796902
2000000000 -20.526915 21.09864 -0.46765521 -36.730198 -0.462825 -36.721256 -20.724819 22.600298
2100000000 -20.291775 19.963196 -0.47216466 -38.540756 -0.46838117 -38.536438 -20.480543 21.645823
2200000000 -20.103397 19.120348 -0.47456062 -40.349648 -0.47193956 -40.329609 -20.25218 20.485136
2300000000 -19.880894 17.968964 -0.48011565 -42.158855 -0.47481993 -42.149761 -20.006187 19.55278
2400000000 -19.662838 16.699272 -0.48363161 -43.955147 -0.48198724 -43.939678 -19.771568 18.58057
2500000000 -19.416668 15.468742 -0.48957002 -45.772129 -0.48561674 -45.762257 -19.565411 17.272903
2600000000 -19.284393 14.012623 -0.49420178 -47.580814 -0.49240381 -47.563583 -19.422369 16.165934
2700000000 -19.125202 13.062315 -0.50312793 -49.383411 -0.50028014 -49.362545 -19.344713 14.976344
2800000000 -18.991137 11.952495 -0.5090366 -51.171028 -0.50739336 -51.159782 -19.171902 13.725514
2900000000 -18.874279 11.204906 -0.51577526 -52.96175 -0.51059574 -52.943939 -19.013971 11.956113
3000000000 -18.655626 9.6468515 -0.5189153 -54.733845 -0.51577902 -54.71714 -18.829332 11.240874
3100000000 -18.531851 8.6796818 -0.52537745 -56.530849 -0.51875949 -56.497242 -18.61949 9.9052715
3200000000 -18.341623 7.0681114 -0.52724469 -58.30518 -0.52160746 -58.28598 -18.493048 9.2380352
3300000000 -18.303526 5.6490784 -0.5294168 -60.108078 -0.52267069 -60.083817 -18.368202 7.637219
3400000000 -18.208344 4.7567225 -0.53333056 -61.901665 -0.5285762 -61.888435 -18.330458 6.4763498
3500000000 -18.114544 3.2813952 -0.54275256 -63.695728 -0.53384072 -63.680237 -18.18051 4.9730992
3600000000 -17.969921 1.9133002 -0.54394186 -65.448708 -0.53775996 -65.419312 -18.10898 3.6360056
3700000000 -17.895245 -0.0042037051 -0.54362702 -67.209846 -0.53869027 -67.205925 -17.887266 2.06335
3800000000 -17.812231 -1.2427343 -0.54229736 -69.008049 -0.53624696 -68.996483 -17.812963 0.35209396
3900000000 -17.662539 -3.0081565 -0.54330111 -70.812263 -0.53669506 -70.79525 -17.696972 -0.80596703
4000000000 -17.608921 -4.4050641 -0.54776388 -72.642845 -0.54276431 -72.626701 -17.706793 -2.0488505
4100000000 -17.480988 -5.9737835 -0.55720085 -74.433258 -0.55165863 -74.409676 -17.584991 -2.9177434
4200000000 -17.457399 -7.1812868 -0.5626561 -76.17318 -0.55768263 -76.169014 -17.5093 -5.0294762
4300000000 -17.357876 -8.2895899 -0.56287593 -77.938538 -0.55512154 -77.925964 -17.453064 -6.4673023
4400000000 -17.326693 -9.5852394 -0.56212014 -79.716194 -0.55588496 -79.71727 -17.376099 -7.7845392
4500000000 -17.267506 -11.011008 -0.56415296 -81.501564 -0.55611646 -81.483101 -17.338779 -8.9050207
4600000000 -17.242399 -12.553915 -0.5619719 -83.288872 -0.55943894 -83.272583 -17.282814 -10.49463
4700000000 -17.259178 -13.946533 -0.56210685 -85.08506 -0.55950665 -85.064819 -17.293356 -12.279002
4800000000 -17.222521 -15.345534 -0.5623461 -86.858452 -0.5594734 -86.857666 -17.246122 -13.87816
4900000000 -17.209999 -16.887981 -0.5631361 -88.679436 -0.56116712 -88.654404 -17.240114 -15.841722
5000000000 -17.146915 -18.168335 -0.56701255 -90.463371 -0.56379718 -90.441254 -17.115061 -17.299253
5100000000 -17.077484 -19.731642 -0.56778747 -92.26062 -0.56505239 -92.226143 -17.047667 -18.707121
5200000000 -17.063084 -21.246952 -0.56692672 -94.031281 -0.56448781 -94.016586 -17.031933 -19.486668
5300000000 -17.071709 -23.019905 -0.56670052 -95.826492 -0.56409872 -95.798737 -17.102285 -20.774042
5400000000 -17.185406 -24.375462 -0.56989616 -97.621834 -0.56322217 -97.60112 -17.224207 -22.155306
5500000000 -17.202269 -25.717091 -0.56854868 -99.414925 -0.56568038 -99.399132 -17.280237 -24.604136
5600000000 -17.261635 -27.43047 -0.57155204 -101.22664 -0.56834716 -101.1991 -17.2864 -26.700485
5700000000 -17.17173 -28.679535 -0.57285434 -102.99055 -0.57069141 -102.97078 -17.101549 -28.791115
5800000000 -17.209625 -30.618731 -0.57357687 -104.77905 -0.56950569 -104.74634 -17.069504 -29.765951
5900000000 -17.236759 -31.719263 -0.57405251 -106.55875 -0.56864727 -106.52957 -17.057337 -30.411383
6000000000 -17.318941 -33.838192 -0.5707767 -108.34231 -0.56730336 -108.30647 -17.299501 -31.18886
6100000000 -17.447001 -34.803795 -0.56905001 -110.12821 -0.56553531 -110.09991 -17.471756 -32.749115
6200000000 -17.484472 -36.40609 -0.56749928 -111.93254 -0.56351805 -111.89751 -17.603254 -35.120777
6300000000 -17.600601 -37.17421 -0.5663923 -113.74373 -0.56206328 -113.7206 -17.497177 -37.639412
6400000000 -17.631794 -38.755039 -0.56772524 -115.51121 -0.56767833 -115.50607 -17.515503 -39.820068
6500000000 -17.826832 -40.320076 -0.5690093 -117.34041 -0.5640527 -117.3103 -17.538391 -39.610645
6600000000 -17.925638 -42.002575 -0.57006973 -119.13217 -0.5672338 -119.10457 -17.634842 -40.243755
6700000000 -18.115971 -43.211769 -0.57401645 -120.92413 -0.5696196 -120.90147 -17.880617 -41.258808
6800000000 -17.996756 -44.389832 -0.57253712 -122.72124 -0.56934071 -122.69035 -18.055712 -43.812321
6900000000 -18.004433 -46.458763 -0.57280624 -124.52819 -0.57086027 -124.50421 -18.0732 -46.071793
7000000000 -18.105774 -47.617474 -0.57537478 -126.27252 -0.57299674 -126.22975 -18.053722 -48.349228
7100000000 -18.241076 -48.832886 -0.56833154 -128.05139 -0.56648725 -128.02892 -18.084013 -48.395561
7200000000 -18.396332 -49.786709 -0.56525284 -129.85272 -0.56276453 -129.8138 -18.182209 -48.667122
7300000000 -18.537567 -51.523384 -0.55919397 -131.68605 -0.55522597 -131.65746 -18.5474 -49.75386
7400000000 -18.686779 -52.727631 -0.55670083 -133.57066 -0.55472147 -133.53891 -18.764204 -52.620209
7500000000 -18.871021 -54.30658 -0.56542182 -135.31497 -0.56334209 -135.29286 -18.89854 -56.087788
7600000000 -18.878889 -54.865829 -0.56163722 -137.1608 -0.55843437 -137.13182 -18.698723 -57.838997
7700000000 -18.997633 -56.729683 -0.56744349 -138.95241 -0.56322539 -138.93506 -18.634317 -58.202145
7800000000 -19.126629 -58.502434 -0.56274921 -140.75359 -0.55910325 -140.74138 -18.827427 -57.207218
7900000000 -19.411318 -60.489632 -0.56332034 -142.59451 -0.56226772 -142.56984 -19.327673 -57.657867
8000000000 -19.701664 -61.909752 -0.57376093 -144.40518 -0.56767154 -144.3671 -19.888529 -61.117634
8100000000 -20.025814 -63.205109 -0.57780415 -146.1526 -0.57420051 -146.11598 -20.116905 -66.010193
8200000000 -20.284397 -62.990013 -0.56792819 -147.88954 -0.56568426 -147.85815 -19.969719 -68.814461
8300000000 -20.41074 -64.554817 -0.55549186 -149.72232 -0.55331844 -149.69037 -19.705187 -67.020859
8400000000 -20.723646 -66.038162 -0.55189407 -151.58315 -0.54727733 -151.54951 -20.031012 -63.095375
8500000000 -21.149033 -67.470329 -0.56300795 -153.49908 -0.55918866 -153.46658 -21.352915 -59.510197
8600000000 -21.377878 -66.323517 -0.62609792 -155.3463 -0.62280959 -155.32635 -25.000772 -61.238705
8700000000 -21.928415 -72.233963 -0.6428504 -156.06721 -0.63937926 -156.04591 -33.164661 -23.768633
8800000000 -22.222202 -68.169853 -0.48359573 -158.3051 -0.4841435 -158.27475 -29.259964 -40.034943
8900000000 -22.170208 -71.237976 -0.51423579 -160.56645 -0.50873184 -160.56313 -26.384863 -79.62291
9000000000 -22.545774 -72.731239 -0.53673548 -162.46358 -0.5359872 -162.44301 -23.460255 -91.292091
9100000000 -22.679564 -71.632187 -0.55129951 -164.28764 -0.54950887 -164.25751 -21.972277 -88.681259
9200000000 -23.056635 -72.489143 -0.55676764 -166.0215 -0.55327463 -166.00948 -21.550104 -82.934044
9300000000 -23.457205 -72.074547 -0.5588342 -167.85692 -0.55546981 -167.81978 -22.251974 -75.979736
9400000000 -23.949781 -74.523659 -0.56011713 -169.64232 -0.55644512 -169.60831 -23.234823 -73.621559
9500000000 -24.543531 -74.786224 -0.56164581 -171.46187 -0.56019336 -171.41882 -24.76182 -76.125336
9600000000 -24.828571 -75.091377 -0.56240505 -173.29079 -0.55779183 -173.25076 -25.18294 -83.771973
9700000000 -25.176653 -74.257957 -0.56476259 -175.11145 -0.55844909 -175.06841 -25.240648 -88.521515
9800000000 -25.475853 -73.526497 -0.56602806 -176.92123 -0.56142485 -176.89783 -25.025297 -87.535439
9900000000 -26.234581 -74.36554 -0.56767774 -178.76283 -0.56111437 -178.70595 -25.477522 -83.315758
10000000000 -27.003969 -73.169754 -0.57027191 179.41876 -0.56273741 179.43646 -26.37006 -79.185501
10100000000 -27.761557 -72.560204 -0.57198429 177.59117 -0.56993186 177.64209 -28.230259 -79.725761
10200000000 -28.222004 -68.143005 -0.57625556 175.77623 -0.57432902 175.81363 -29.56148 -85.333183
10300000000 -28.485113 -65.678223 -0.5827741 173.91893 -0.58067244 173.97716 -30.040674 -95.362518
10400000000 -28.948824 -63.104439 -0.58737302 172.11653 -0.58609599 172.15767 -29.616888 -96.203438
10500000000 -29.522707 -63.282276 -0.59412611 170.28931 -0.58967865 170.33861 -29.307508 -90.859154
10600000000 -30.514635 -59.129425 -0.59687424 168.48872 -0.59286845 168.54207 -29.865837 -79.108803
10700000000 -31.044346 -52.964218 -0.59970021 166.70625 -0.59447664 166.77647 -31.354776 -68.120941
10800000000 -31.566992 -43.82312 -0.60513592 164.91609 -0.5982154 164.95952 -33.367443 -53.630901
10900000000 -31.134363 -34.32719 -0.60964191 163.12967 -0.60376233 163.17847 -37.087029 -43.79007
11000000000 -31.07354 -31.075233 -0.61403918 161.33994 -0.60757816 161.37935 -39.365879 -35.159519
11100000000 -31.249203 -26.513729 -0.61716008 159.53958 -0.61495262 159.56412 -41.698078 -39.757366
11200000000 -31.377548 -23.511885 -0.61955237 157.74055 -0.61704671 157.77449 -39.900711 -35.523933
11300000000 -30.889221 -14.601826 -0.62497264 155.93076 -0.62060815 155.97147 -37.709442 -25.35383
11400000000 -29.995958 -10.580035 -0.62693673 154.15247 -0.62313825 154.18054 -34.974216 -14.336229
11500000000 -29.224506 -5.9430008 -0.62716281 152.34335 -0.62437212 152.40379 -33.683212 -3.1884589
11600000000 -28.573919 -3.974649 -0.63007832 150.55655 -0.62435091 150.58771 -31.988503 9.0598669
11700000000 -28.129839 -1.250067 -0.6327855 148.7625 -0.62894571 148.78195 -31.094553 16.421389
11800000000 -27.747477 1.1233919 -0.6341725 146.96306 -0.63129175 147.0011 -30.153477 20.654705
11900000000 -27.128843 3.0523438 -0.6396693 145.15642 -0.63745362 145.20219 -29.720787 23.354952
12000000000 -26.563057 4.4821954 -0.64684194 143.37 -0.64334327 143.3987 -29.121727 21.752588
12100000000 -25.849293 4.4693699 -0.65365392 141.56836 -0.64900321 141.60597 -28.748077 21.736872
12200000000 -25.481123 2.9873397 -0.65763944 139.79753 -0.65316224 139.82912 -27.979813 19.392706
12300000000 -24.975163 2.5147786 -0.65675193 138.00703 -0.65626055 138.03558 -27.096987 18.491425
12400000000 -24.612385 2.5837731 -0.66474617 136.23825 -0.66093951 136.26222 -26.270058 18.760077
12500000000 -24.002895 3.6486466 -0.66604418 134.46364 -0.66517335 134.48819 -25.843004 19.418072
12600000000 -23.70713 3.0675926 -0.66735613 132.67194 -0.66753155 132.7153 -25.351217 18.693838
12700000000 -23.337074 3.2690716 -0.6722523 130.9212 -0.66782981 130.96074 -25.033419 18.695066
12800000000 -23.169664 1.4233477 -0.67123401 129.14282 -0.66547811 129.16692 -24.348728 16.588341
12900000000 -22.841248 0.60698074 -0.67037004 127.34608 -0.66765893 127.39467 -24.027338 17.230005
13000000000 -22.473913 -1.3871845 -0.66786182 125.5816 -0.6640777 125.60235 -23.650888 16.56188
13100000000 -22.254705 -0.30143902 -0.66685599 123.7967 -0.66276222 123.82312 -23.596338 15.955228
13200000000 -21.871735 -1.2042818 -0.66774499 121.96837 -0.66046935 122.01112 -23.31419 13.853669
13300000000 -21.75511 -0.5329107 -0.66175282 120.16605 -0.65895098 120.19651 -22.961784 10.117516
13400000000 -21.205273 -1.5897368 -0.66198736 118.33965 -0.65741354 118.38349 -22.339155 8.9109249
13500000000 -21.072933 -1.6125715 -0.6619997 116.52374 -0.65792042 116.57144 -21.609835 8.6366339
13600000000 -20.579285 -2.700135 -0.66484964 114.68208 -0.66281772 114.73069 -20.961695 8.191349
13700000000 -20.358795 -5.133523 -0.68819791 112.85394 -0.68467373 112.90041 -20.807245 7.4982767
13800000000 -20.281961 -6.3893876 -0.69134289 111.23072 -0.69132584 111.2797 -20.84132 6.8727555
13900000000 -20.214567 -7.5282021 -0.68123198 109.44031 -0.6788125 109.48274 -20.940767 4.6576066
14000000000 -19.75082 -6.3332911 -0.67555475 107.62925 -0.67218822 107.67558 -20.592379 3.1990092
14100000000 -19.645391 -7.288712 -0.67459375 105.78685 -0.67339414 105.84784 -20.308887 0.45407984
14200000000 -19.357527 -7.2755647 -0.67018878 103.99364 -0.67074311 104.03703 -19.772253 -0.41249937
14300000000 -19.224113 -9.3641596 -0.67257476 102.14786 -0.66925132 102.20332 -19.581343 -1.2661755
14400000000 -18.987637 -9.5692654 -0.67506939 100.32033 -0.67297101 100.37013 -19.143656 -2.3284712
14500000000 -18.649538 -12.322321 -0.68479133 98.45768 -0.68449306 98.497597 -18.936632 -3.6279595
14600000000 -18.306683 -13.591842 -0.71221006 96.681763 -0.71291709 96.732231 -18.533394 -4.9851704
14700000000 -18.35778 -14.943072 -0.70166081 95.073242 -0.69809616 95.139977 -18.692656 -5.9704285
14800000000 -18.286459 -15.260586 -0.69443113 93.240845 -0.68839693 93.290504 -18.5303 -4.9237671
14900000000 -18.103449 -17.773924 -0.69165307 91.40963 -0.68639451 91.452583 -18.657921 -5.8797917
15000000000 -18.059622 -18.935816 -0.69391209 89.565941 -0.68972903 89.617889 -18.567785 -9.5687208
15100000000 -17.747786 -20.617693 -0.70002514 87.748947 -0.69620049 87.79805 -18.421284 -12.595151
15200000000 -17.709118 -21.193766 -0.71533978 85.925194 -0.70923865 85.974922 -17.928551 -16.350012
15300000000 -17.518486 -23.492353 -0.72559685 84.253357 -0.72143328 84.293381 -17.62167 -17.479855
15400000000 -17.565712 -24.863861 -0.71289241 82.391457 -0.70887297 82.445648 -17.410847 -16.051264
15500000000 -17.229034 -27.57373 -0.72635597 80.577393 -0.72263247 80.626694 -17.392473 -16.621054
15600000000 -17.381739 -30.403061 -0.73514384 78.741493 -0.7313568 78.787048 -17.688364 -16.457808
15700000000 -17.148655 -31.09889 -0.74152529 77.005531 -0.740704 77.042305 -17.897833 -20.720509
15800000000 -17.316948 -32.314301 -0.75263435 75.268013 -0.74873203 75.333382 -17.963352 -25.149227
15900000000 -17.21357 -32.141438 -0.75415778 73.583878 -0.75009292 73.614388 -17.705948 -29.080925
16000000000 -17.448866 -34.745365 -0.74822825 71.877701 -0.7455911 71.902885 -17.42276 -30.367708
16100000000 -17.395691 -34.969387 -0.74165028 70.142815 -0.74054593 70.159286 -17.21166 -30.947433
16200000000 -17.368393 -38.516514 -0.73417819 68.36808 -0.73275083 68.404137 -17.210388 -28.935083
16300000000 -17.258129 -38.08807 -0.72594655 66.585159 -0.72549987 66.635147 -17.188736 -30.886311
16400000000 -17.062557 -39.854759 -0.72910917 64.784904 -0.72701848 64.804543 -17.384983 -31.032616
16500000000 -17.054007 -38.231285 -0.72098529 62.956963 -0.72220296 63.016434 -17.454992 -34.956821
16600000000 -16.997732 -39.772469 -0.72248912 61.128986 -0.71823871 61.179001 -17.297924 -36.298573
16700000000 -17.234993 -40.235912 -0.72412837 59.343143 -0.71995276 59.355076 -17.122438 -39.462074
16800000000 -17.125029 -43.490849 -0.72403049 57.535248 -0.72030503 57.582634 -17.002096 -39.092884
16900000000 -17.227444 -45.839035 -0.7236855 55.734558 -0.72311771 55.749916 -16.854225 -40.571117
17000000000 -16.842995 -47.121342 -0.72397113 53.93264 -0.72374058 53.96487 -17.028902 -41.262123
17100000000 -16.851919 -46.955151 -0.72413874 52.156414 -0.72488934 52.181808 -16.988642 -43.616268
17200000000 -16.768847 -46.130272 -0.73002839 50.331322 -0.72880328 50.392391 -17.128393 -46.092445
17300000000 -17.123682 -47.620682 -0.73277932 48.523838 -0.73054785 48.599998 -16.878613 -47.973106
17400000000 -17.292315 -50.036716 -0.73109889 46.756039 -0.72979504 46.805065 -16.878902 -47.728962
17500000000 -17.428823 -54.794849 -0.73095334 44.957169 -0.73115796 45.024075 -16.828466 -47.588753
17600000000 -17.150839 -56.135365 -0.73675227 43.184956 -0.72874391 43.227962 -17.209681 -48.256107
17700000000 -17.097998 -57.173542 -0.73938811 41.388432 -0.73449606 41.436676 -17.600382 -50.578121
17800000000 -17.161991 -55.000546 -0.74275649 39.57428 -0.73708785 39.640038 -17.899372 -55.52195
17900000000 -17.530893 -55.787304 -0.74049467 37.770271 -0.73553663 37.809238 -17.656675 -59.796135
18000000000 -17.928144 -57.577682 -0.7457583 35.963654 -0.74655718 35.992542 -17.222525 -62.092991
18100000000 -17.965715 -62.363892 -0.75039107 34.186287 -0.7436024 34.222065 -16.826532 -60.752369
18200000000 -17.834925 -64.769356 -0.75208551 32.500191 -0.74514794 32.500175 -16.913847 -58.716991
18300000000 -17.657766 -66.309578 -0.74473244 30.721603 -0.74185419 30.784346 -17.68627 -57.203629
18400000000 -17.969313 -64.245308 -0.73632413 28.961655 -0.73136628 28.969038 -18.745564 -58.438492
18500000000 -18.142099 -63.750458 -0.73633885 27.068844 -0.72935688 27.120934 -19.322889 -67.762558
18600000000 -18.528446 -63.907478 -0.73382229 25.224178 -0.73224986 25.244881 -18.783203 -75.549164
18700000000 -18.363834 -67.202339 -0.73311156 23.427765 -0.72895789 23.454941 -17.86371 -77.877731
18800000000 -18.45331 -69.318382 -0.730905 21.622965 -0.72586334 21.664043 -17.114832 -74.116623
18900000000 -18.283186 -71.145599 -0.72890431 19.877377 -0.72527534 19.90921 -17.218782 -69.515266
19000000000 -18.571079 -72.761917 -0.72756445 18.141798 -0.72386777 18.210449 -18.214994 -65.355949
19100000000 -18.730478 -71.438278 -0.7286377 16.386806 -0.72270435 16.438358 -19.100412 -68.285919
19200000000 -19.029356 -71.730774 -0.73247141 14.579869 -0.7303769 14.627516 -20.386591 -77.268311
19300000000 -19.216534 -71.598007 -0.73036039 12.74262 -0.72635841 12.821142 -19.382357 -84.92292
19400000000 -19.433783 -74.053482 -0.73505127 10.99417 -0.72985631 11.029263 -19.120079 -85.482567
19500000000 -19.855536 -75.639008 -0.72611362 9.1775646 -0.72223967 9.2171793 -18.548735 -83.800285
19600000000 -19.863977 -78.825508 -0.71960014 7.4016557 -0.71977675 7.4346924 -19.072962 -79.474167
19700000000 -19.959875 -78.925423 -0.7186923 5.6280227 -0.71394706 5.663537 -19.722254 -79.245575
19800000000 -20.007257 -77.826469 -0.72205836 3.828795 -0.71554124 3.8518114 -20.8936 -83.562119
19900000000 -20.456882 -75.249352 -0.71423566 2.0003521 -0.71389365 2.0586126 -20.95886 -88.560135
20000000000 -21.284431 -75.469002 -0.71553791 0.16127503 -0.71454298 0.24777947 -20.961624 -92.875725
20100000000 -22.229044 -77.546188 -0.72113621 -1.6545056 -0.71265203 -1.5998662 -20.877579 -89.974808
20200000000 -22.296938 -83.082428 -0.72488439 -3.4395304 -0.71614259 -3.3674083 -21.417772 -86.429733
20300000000 -22.142969 -85.104881 -0.72097397 -5.1731024 -0.71814466 -5.1556196 -22.59024 -85.847046
20400000000 -21.886845 -81.866997 -0.71458906 -6.980907 -0.71258861 -6.9738107 -23.648954 -94.345459
20500000000 -22.171366 -76.219482 -0.71343267 -8.8190861 -0.7063579 -8.7931299 -23.863052 -104.83922
20600000000 -22.775703 -73.347443 -0.70564437 -10.680289 -0.70126468 -10.611609 -22.795929 -107.68072
20700000000 -24.090515 -76.460678 -0.69937891 -12.486826 -0.69512129 -12.439059 -22.629555 -103.22474
20800000000 -24.770897 -80.970345 -0.6987474 -14.326442 -0.68977845 -14.286264 -22.485197 -95.797058
20900000000 -24.932257 -85.061638 -0.69486368 -16.126007 -0.69200581 -16.097946 -24.132761 -84.859291
21000000000 -24.659594 -81.623383 -0.6976189 -17.920353 -0.69370526 -17.918831 -26.848389 -86.157593
21100000000 -24.432657 -73.667671 -0.70347631 -19.776718 -0.69867134 -19.74338 -28.914179 -97.278496
21200000000 -24.753624 -65.94249 -0.71318436 -21.706812 -0.70997113 -21.650023 -29.676044 -123.07539
21300000000 -25.25358 -63.611252 -0.72291774 -23.547871 -0.71707249 -23.534657 -27.003733 -124.54309
21400000000 -26.128067 -64.601463 -0.73329973 -25.355316 -0.7320112 -25.290239 -26.589022 -112.20414
21500000000 -25.949276 -73.384293 -0.72424245 -27.068871 -0.72399622 -27.035641 -24.720675 -102.87707
21600000000 -26.782787 -73.574066 -0.70633811 -28.837011 -0.70291024 -28.783039 -25.982735 -86.329407
21700000000 -26.198902 -67.253799 -0.69685143 -30.647154 -0.69544852 -30.611317 -28.260748 -66.336411
21800000000 -25.952795 -55.269405 -0.70338869 -32.452812 -0.69712043 -32.398102 -34.088005 -47.040337
21900000000 -25.727774 -46.753853 -0.71223146 -34.244698 -0.70671761 -34.211994 -39.441547 -19.137909
22000000000 -26.408333 -37.231564 -0.72793329 -36.117523 -0.72145408 -36.077534 -42.264458 -162.44077
22100000000 -26.757113 -38.406994 -0.73484308 -37.980324 -0.72564673 -37.933449 -34.68745 -111.74481
22200000000 -27.772587 -39.819561 -0.74534243 -39.826416 -0.73901033 -39.792458 -33.648766 -94.864494
22300000000 -26.987171 -41.237064 -0.74795151 -41.694324 -0.73988378 -41.649136 -28.941362 -54.981415
22400000000 -25.445564 -37.213619 -0.74883199 -43.353939 -0.74348754 -43.317955 -29.133427 -26.200459
22500000000 -24.282862 -29.956089 -0.72841877 -45.173615 -0.72422832 -45.142014 -27.993502 3.6382005
22600000000 -23.699095 -21.523537 -0.74389982 -46.94817 -0.7384997 -46.936012 -30.117708 26.398085
22700000000 -23.978809 -14.971737 -0.75510883 -48.732925 -0.74973112 -48.683159 -30.78537 22.81192
22800000000 -25.260204 -16.399841 -0.77138233 -50.524544 -0.75957251 -50.457954 -35.581085 -0.84237349
22900000000 -25.407207 -21.844585 -0.76695782 -52.303696 -0.76579726 -52.29689 -28.641315 -16.298229
23000000000 -23.800489 -28.145868 -0.77327609 -54.138477 -0.76649761 -54.132687 -26.931465 -9.8733587
23100000000 -22.074966 -24.967373 -0.77610165 -55.96233 -0.76990348 -55.91251 -23.849268 5.762795
23200000000 -21.093258 -19.718792 -0.77039307 -57.71505 -0.76976717 -57.695847 -24.410004 21.247034
23300000000 -21.191357 -12.537293 -0.77246022 -59.473984 -0.77150971 -59.470211 -24.99847 32.294006
23400000000 -22.148731 -10.72172 -0.7717824 -61.265747 -0.76730561 -61.218884 -28.374119 19.271549
23500000000 -23.358177 -12.941977 -0.77202451 -63.056122 -0.76617861 -63.011562 -27.494469 -4.1208215
23600000000 -22.767452 -20.290638 -0.77614743 -64.86705 -0.76740879 -64.86338 -23.890574 -20.376112
23700000000 -21.308992 -23.177334 -0.77781725 -66.643913 -0.76676846 -66.599922 -21.058811 -5.4890485
23800000000 -20.008247 -23.749182 -0.78229374 -68.459175 -0.7797665 -68.428291 -20.488327 7.973702
23900000000 -19.677794 -18.220024 -0.78676307 -70.279129 -0.77834183 -70.271011 -20.050426 19.859406
24000000000 -19.705635 -16.172625 -0.77615333 -72.227448 -0.77223879 -72.171402 -23.270536 28.740583
24100000000 -20.599825 -15.261016 -0.76361042 -74.012825 -0.76437253 -73.991249 -25.427464 10.017281
24200000000 -20.829227 -18.513136 -0.76441574 -75.766884 -0.75575912 -75.772812 -24.11487 -13.848655
24300000000 -20.338312 -23.621565 -0.76165271 -77.621346 -0.75470662 -77.61055 -20.869568 -23.36018
24400000000 -18.864454 -24.902416 -0.76441914 -79.322327 -0.76035327 -79.306847 -18.599936 -12.377166
24500000000 -18.264977 -25.152876 -0.77262008 -81.105637 -0.7747038 -81.053612 -17.992876 -2.6488204
24600000000 -17.936369 -21.748817 -0.78610879 -82.913101 -0.78560096 -82.882149 -18.237293 6.4257808
24700000000 -18.361874 -21.913469 -0.79520071 -84.764618 -0.78463328 -84.710548 -19.856274 8.0218792
24800000000 -18.862944 -22.415195 -0.79092455 -86.659584 -0.7896871 -86.680779 -21.484358 -0.3834132
24900000000 -18.731203 -28.003199 -0.78517419 -88.471428 -0.77705038 -88.429466 -20.633821 -15.599575
25000000000 -18.138739 -29.918097 -0.78163767 -90.321281 -0.78041184 -90.244705 -19.137093 -25.112103
25100000000 -17.166887 -32.456253 -0.79049134 -92.01516 -0.78719932 -91.936188 -17.427057 -18.59762
25200000000 -16.932423 -29.703987 -0.79984826 -93.688568 -0.79523891 -93.670807 -17.043629 -15.905813
25300000000 -16.694206 -29.104622 -0.80910659 -95.431282 -0.80944216 -95.387917 -17.2164 -9.633955
25400000000 -17.39328 -28.03121 -0.81797779 -97.288155 -0.81242239 -97.290779 -18.279203 -15.420207
25500000000 -17.286886 -30.402637 -0.81896162 -99.04213 -0.82205039 -99.010925 -18.027863 -14.54642
25600000000 -17.234421 -35.967007 -0.82767481 -100.99973 -0.8213923 -100.93443 -18.449322 -26.309807
25700000000 -16.729431 -37.402275 -0.82604045 -102.69956 -0.81735718 -102.68173 -17.005957 -25.509598
25800000000 -16.445976 -37.939812 -0.82724917 -104.43216 -0.82453257 -104.44511 -17.177515 -26.640322
25900000000 -16.077152 -36.766151 -0.82665199 -106.23655 -0.82114309 -106.21503 -16.246365 -26.74947
26000000000 -16.233238 -37.917805 -0.82753825 -107.96248 -0.83323121 -107.96713 -16.654556 -25.444498
26100000000 -16.305758 -37.786678 -0.83756399 -109.8374 -0.83309537 -109.78757 -16.509451 -28.499325
26200000000 -16.284803 -38.433422 -0.84594905 -111.60238 -0.83841604 -111.55277 -16.49177 -27.865131
26300000000 -16.148062 -40.745884 -0.85807621 -113.37714 -0.85217047 -113.32527 -17.128412 -33.181923
26400000000 -16.041677 -44.183506 -0.86107904 -115.15587 -0.8527022 -115.11071 -16.175463 -34.22089
26500000000 -16.008768 -45.560047 -0.85183442 -116.87656 -0.85322326 -116.9103 -16.310093 -35.771912
26600000000 -15.853412 -45.211876 -0.85630053 -118.64327 -0.8505159 -118.57146 -15.624856 -37.908592
26700000000 -15.736668 -45.130833 -0.852808 -120.42403 -0.84434873 -120.37646 -15.555995 -36.156872
26800000000 -15.794438 -46.981895 -0.85406673 -122.20815 -0.85870486 -122.20672 -15.793099 -37.514191
26900000000 -15.998137 -48.54649 -0.87544984 -124.01758 -0.86862302 -124.06401 -16.078093 -36.785557
27000000000 -15.853032 -51.415668 -0.87696159 -125.84425 -0.84956545 -125.7735 -16.881927 -37.806751
27100000000 -15.797258 -53.998371 -0.87568039 -127.42078 -0.86507416 -127.3702 -16.3372 -47.539314
27200000000 -15.969656 -52.137569 -0.86002117 -129.18973 -0.86635315 -129.0929 -15.930043 -50.502235
27300000000 -15.870328 -54.868298 -0.86324918 -130.8862 -0.85908061 -130.81351 -15.105351 -47.880585
27400000000 -15.946385 -54.370701 -0.85468096 -132.80161 -0.84937686 -132.76451 -15.488999 -47.557137
27500000000 -16.119167 -57.554356 -0.88957036 -134.56589 -0.85556978 -134.66435 -15.732133 -43.73521
27600000000 -16.062279 -58.100368 -0.84343761 -136.52238 -0.85194117 -136.40643 -17.114378 -49.788704
27700000000 -15.788404 -60.43404 -0.8317945 -138.24605 -0.84335059 -138.16058 -16.842121 -54.981014
27800000000 -16.126759 -59.532948 -0.82786489 -140.07846 -0.85792482 -139.99609 -16.447289 -62.223858
27900000000 -16.142723 -60.980522 -0.84443361 -141.81163 -0.8373276 -141.77402 -15.134621 -60.827232
28000000000 -16.639647 -61.265759 -0.83047169 -143.55295 -0.86159635 -143.43001 -15.662082 -60.199886
28100000000 -16.289974 -63.50787 -0.84764498 -145.16589 -0.85615206 -145.34534 -15.766991 -57.045296
28200000000 -16.381792 -64.144226 -0.86321062 -147.03481 -0.8685329 -147.07625 -16.721823 -59.389336
28300000000 -15.709983 -64.960922 -0.86175227 -148.88246 -0.83233124 -148.97281 -16.796177 -67.071373
28400000000 -16.046423 -66.394524 -0.84823972 -150.91338 -0.83808953 -150.83382 -16.364651 -75.978722
28500000000 -16.246513 -65.705795 -0.82644403 -152.59572 -0.81373411 -152.52888 -15.407095 -70.007729
28600000000 -16.343403 -66.976204 -0.83358085 -154.42967 -0.83789766 -154.32362 -15.118654 -70.890907
28700000000 -16.617018 -66.823891 -0.84197712 -156.0125 -0.83054066 -156.0428 -15.836504 -61.915558
28800000000 -17.122589 -70.628914 -0.8786177 -157.95265 -0.89690977 -157.95056 -17.70433 -67.400513
28900000000 -16.828081 -65.584137 -0.89082354 -159.84563 -0.86124599 -159.78671 -17.418455 -75.828102
29000000000 -16.35458 -73.365692 -0.89442343 -161.92122 -0.89279628 -161.75821 -16.655117 -84.992386
29100000000 -16.504227 -70.783287 -0.87642211 -163.7849 -0.86565894 -163.73824 -14.940615 -84.854027
29200000000 -16.278778 -71.534256 -0.86751336 -165.37619 -0.86024648 -165.33017 -14.925992 -78.442833
29300000000 -16.887968 -68.093987 -0.8612892 -167.0096 -0.8582592 -166.98982 -15.287758 -68.038818
29400000000 -16.722998 -71.222458 -0.88169116 -168.58582 -0.85279667 -168.40146 -17.838463 -66.928223
29500000000 -17.905483 -74.287468 -0.86151963 -170.48277 -0.85667765 -170.17145 -18.746685 -72.761505
29600000000 -17.739161 -78.0252 -0.87971717 -172.2709 -0.86083883 -172.24557 -19.078648 -93.893066
29700000000 -17.736542 -80.188095 -0.89392793 -173.97792 -0.89216423 -173.96034 -17.46833 -92.383217
29800000000 -17.087894 -79.183777 -0.89112675 -175.86966 -0.89319241 -175.82245 -16.570257 -95.112358
29900000000 -17.499582 -80.298889 -0.86847788 -177.67148 -0.86243296 -177.64819 -15.660539 -82.047119
30000000000 -18.072529 -73.668831 -0.86628425 -179.40303 -0.86099821 -179.3629 -17.313646 -80.905647
30100000000 -19.003956 -75.089851 -0.87155747 178.94398 -0.8801949 178.98767 -18.597645 -74.821198
30200000000 -19.318861 -74.011383 -0.86408132 177.06659 -0.85427123 177.13852 -21.420156 -89.975151
30300000000 -18.862591 -87.497787 -0.85233897 175.15083 -0.85855854 175.36044 -20.541641 -94.912094
30400000000 -18.874216 -86.758247 -0.84886914 173.38002 -0.85220164 173.49792 -18.781147 -109.89735
30500000000 -18.258152 -84.46843 -0.84736717 171.63887 -0.82276708 171.74785 -18.535864 -96.771492
30600000000 -18.643856 -80.037544 -0.85395896 169.87822 -0.86038029 169.95494 -18.197708 -97.87793
30700000000 -19.251131 -82.349869 -0.81520981 168.26227 -0.83380228 168.21399 -19.238531 -87.358467
30800000000 -20.446554 -74.31118 -0.83814383 166.36559 -0.83893037 166.45468 -22.449203 -98.587517
30900000000 -20.162395 -80.716187 -0.84632397 164.49916 -0.85692924 164.57417 -21.863131 -95.290474
31000000000 -21.043421 -76.95517 -0.83811402 162.69621 -0.84780896 162.78133 -21.977182 -111.64039
31100000000 -19.919914 -90.726624 -0.83863866 160.72115 -0.83918315 160.73225 -20.297314 -111.35057
31200000000 -19.985062 -88.618668 -0.82263947 158.92752 -0.82272452 159.0385 -20.065289 -97.675804
31300000000 -19.037123 -84.337578 -0.83589673 156.94978 -0.81703877 157.18669 -21.008404 -107.10104
31400000000 -20.011011 -69.938187 -0.8051579 155.30002 -0.80848628 155.66042 -22.089851 -96.117401
31500000000 -20.802435 -68.121353 -0.80563468 153.69333 -0.82088131 153.57474 -26.445084 -90.492912
31600000000 -23.814056 -68.775909 -0.83115715 151.83867 -0.82094073 151.81299 -25.487173 -119.16556
31700000000 -23.824312 -81.409309 -0.84538889 150.05582 -0.83667004 150.0321 -26.224367 -120.91977
31800000000 -22.088993 -86.616837 -0.84008896 147.88985 -0.817949 147.88968 -22.85408 -124.38492
31900000000 -19.624756 -79.367004 -0.80493701 145.97928 -0.83011818 146.1656 -23.221136 -105.48904
32000000000 -20.925215 -67.620842 -0.84564835 144.40218 -0.81626743 144.41949 -23.624666 -104.35408
32100000000 -22.025887 -48.798504 -0.80859143 142.37044 -0.81129271 142.53081 -25.100723 -66.11364
32200000000 -26.073696 -46.052681 -0.80263758 140.71764 -0.83000726 140.85414 -32.534683 -64.239281
32300000000 -25.902662 -54.675373 -0.82425654 138.90552 -0.83459312 139.1702 -34.002773 -49.172176
32400000000 -23.842339 -74.109337 -0.83346862 137.01379 -0.84499454 136.95825 -32.784676 147.32053
32500000000 -21.879467 -63.299877 -0.84852892 135.18529 -0.85916483 135.10248 -29.701036 -148.51878
32600000000 -21.31287 -60.577538 -0.80991346 133.31026 -0.82446969 133.46796 -28.606083 -127.41994
32700000000 -21.875818 -33.219685 -0.84363598 131.45308 -0.86508489 131.51654 -25.901247 -97.483879
32800000000 -22.272715 -39.478306 -0.83429885 129.99689 -0.84671468 129.90292 -24.299633 -50.917759
32900000000 -24.786839 -35.208572 -0.83556128 127.96793 -0.84666437 128.19293 -25.045696 -21.549044
33000000000 -24.42053 -51.409149 -0.85909164 126.30014 -0.86506468 126.21798 -26.360218 15.244658
33100000000 -22.801689 -49.776054 -0.85164636 124.52892 -0.88347572 124.48442 -29.233318 60.835793
33200000000 -20.829042 -47.314754 -0.85769933 122.72238 -0.86124879 122.60313 -38.423836 -70.3629
33300000000 -21.998129 -43.145306 -0.86896861 120.71378 -0.87583113 120.79714 -39.1264 -56.804527
33400000000 -21.463127 -35.497353 -0.85703617 118.82362 -0.8466332 118.88289 -25.252142 -54.618149
33500000000 -21.413193 -41.614849 -0.86144733 117.30648 -0.85110533 117.25494 -24.446695 -29.702778
33600000000 -21.269823 -40.736771 -0.82288283 115.40018 -0.81702691 115.30663 -24.116701 -21.478306
33700000000 -21.060368 -42.668056 -0.90353358 113.535 -0.86149913 113.59505 -24.371147 0.47612801
33800000000 -20.961542 -40.517376 -0.89803588 111.75916 -0.88061941 111.68295 -27.233957 -2.3143024
33900000000 -21.950481 -40.970654 -0.90665472 109.53701 -0.90508223 109.85724 -25.429276 -32.394623
34000000000 -19.876362 -38.445034 -0.88127673 108.17982 -0.88190651 108.03341 -22.880886 -11.184962
34100000000 -19.768492 -40.737938 -0.88633162 106.21053 -0.89787096 106.08871 -23.937733 -24.057695
34200000000 -18.756277 -33.384068 -0.86565989 104.62168 -0.87832963 104.59538 -19.558378 0.33566013
34300000000 -19.157585 -35.226524 -0.89900941 102.51093 -0.91188556 102.74043 -23.99852 -12.458388
34400000000 -19.124975 -32.988907 -0.91101128 100.96506 -0.92209792 101.18782 -22.506441 1.0147048
34500000000 -19.013006 -36.016357 -0.94416946 98.921028 -0.95450777 98.987717 -22.560156 -24.89308
34600000000 -18.164152 -32.251144 -0.9405998 97.242958 -0.93738484 97.232376 -19.558466 -20.728027
34700000000 -17.660103 -33.188671 -0.94497126 95.230049 -0.93409771 95.328964 -18.108097 -21.991327
34800000000 -18.032642 -31.262144 -0.96728003 93.548134 -0.93636024 93.649063 -17.326027 -3.1970484
34900000000 -17.798845 -35.526791 -0.95176488 91.906288 -0.98188353 91.904312 -18.215309 3.1738095
35000000000 -17.897568 -34.764091 -0.9689467 90.043098 -0.93324757 90.286522 -19.585987 18.355711
35100000000 -16.539442 -34.657955 -0.97678983 88.173317 -0.95115936 88.413933 -21.018476 -9.9111624
35200000000 -16.665354 -32.81295 -0.94856513 86.608543 -0.95353556 86.356682 -20.692327 -22.692337
35300000000 -16.273109 -36.729057 -1.0207908 84.817543 -0.99075973 84.540268 -16.033947 -28.897919
35400000000 -17.217829 -35.440983 -0.95044953 83.112442 -0.98512357 83.029144 -15.81924 -26.201311
35500000000 -16.437366 -34.528118 -1.0124397 81.39975 -0.99827296 81.314728 -16.137129 -16.906803
35600000000 -17.771744 -42.791775 -0.9794454 79.504288 -0.96174043 79.444283 -17.565136 -5.2936912
35700000000 -16.956636 -45.411705 -0.95171916 77.58387 -0.96195978 77.756958 -18.557703 -16.156698
35800000000 -16.359684 -43.188171 -0.982261 76.1745 -0.95257002 75.825081 -18.502422 -27.015553
35900000000 -15.947495 -40.114994 -0.98244441 73.882347 -0.94924212 73.847664 -18.86681 -42.045082
36000000000 -15.680078 -39.575199 -0.98578811 72.427711 -0.99350357 72.450188 -15.633172 -29.864283
36100000000 -15.971752 -35.152405 -0.98148149 70.465752 -0.98779333 70.714653 -16.255596 -32.178146
36200000000 -16.713293 -44.119183 -0.98521906 68.80497 -0.97874779 68.83461 -16.383654 -27.910572
36300000000 -17.515705 -42.598251 -1.0381188 66.70211 -1.0034775 66.559113 -18.555 -34.993889
36400000000 -17.182106 -52.608612 -0.98150516 64.710243 -1.0052263 64.392853 -17.860136 -44.004391
36500000000 -15.524089 -50.558029 -0.94135529 62.672928 -0.97506082 62.860054 -16.252598 -53.96069
36600000000 -13.904507 -50.613873 -0.95137042 61.567387 -0.92301536 61.234203 -13.53682 -41.820454
36700000000 -14.336547 -42.295551 -0.9788636 59.653255 -0.97781199 59.810398 -14.422402 -44.469479
36800000000 -14.721829 -37.924515 -0.97137606 58.306492 -0.99151063 58.273945 -14.077045 -27.115667
36900000000 -17.689119 -39.607151 -1.0732734 56.207279 -1.0496627 56.010723 -16.606915 -34.064194
37000000000 -16.15769 -51.979416 -1.1302928 54.228859 -1.0523853 54.309536 -18.559841 -40.763748
37100000000 -15.150239 -68.895561 -1.0549773 51.751141 -1.0262295 51.752705 -16.620169 -62.922359
37200000000 -13.613921 -56.272194 -1.0163629 50.11179 -0.98871702 50.144485 -14.681188 -64.104416
37300000000 -13.056942 -50.007339 -0.95471418 48.492924 -0.97913986 48.710537 -11.958193 -57.169266
37400000000 -13.250039 -43.417145 -0.99807912 47.000175 -0.97505373 46.947289 -12.109284 -47.292347
37500000000 -15.003333 -51.694504 -0.98769909 45.692909 -1.0035479 45.602337 -12.866114 -42.666401
37600000000 -16.317265 -60.758835 -1.0095401 43.85046 -0.99564004 43.747242 -15.314526 -32.728413
37700000000 -14.961249 -68.771614 -0.97450942 41.966652 -1.0451992 41.803059 -17.368921 -41.415134
37800000000 -13.986435 -63.19054 -1.0402142 40.11895 -0.99183136 40.409004 -16.0105 -67.969261
37900000000 -13.094511 -58.645855 -1.0655792 38.18116 -0.99718732 38.081322 -15.337019 -78.365448
38000000000 -14.051582 -57.206135 -1.0147421 36.108261 -0.9886117 36.319637 -12.100687 -68.466324
38100000000 -14.761081 -61.249928 -0.96918583 34.692276 -0.97544253 34.582844 -12.465555 -57.778046
38200000000 -15.104362 -65.411171 -0.97129673 32.896072 -1.0295097 32.845123 -12.421575 -51.598927
38300000000 -14.628689 -67.088181 -0.99802834 31.113087 -0.97237974 31.362432 -15.599714 -41.22942
38400000000 -13.776745 -70.162834 -0.94191122 29.314806 -1.030306 29.341434 -18.314289 -56.297432
38500000000 -13.895703 -69.880798 -1.004885 27.481115 -1.0485705 27.644842 -16.57235 -76.208267
38600000000 -15.290183 -62.857365 -0.96914119 25.884298 -0.968584 26.092474 -14.305346 -77.728828
38700000000 -14.321545 -66.377197 -1.0081898 23.980766 -1.0625765 24.108253 -12.899876 -79.173424
38800000000 -15.614626 -70.945984 -0.98223859 22.573517 -0.97364151 22.150251 -13.800857 -59.683777
38900000000 -15.537434 -68.974983 -0.95729208 20.690577 -0.99601179 20.686871 -15.46001 -62.698883
39000000000 -15.881612 -72.236336 -1.0027667 19.032162 -0.9635126 18.734531 -17.760355 -60.400757
39100000000 -15.360138 -73.677704 -0.96476567 16.411728 -1.0013235 17.084553 -16.531513 -98.91082
39200000000 -14.584366 -78.444717 -0.94688886 15.288334 -0.95585984 15.082643 -15.277751 -87.188919
39300000000 -13.980074 -67.499382 -0.94453335 12.729893 -0.9614284 13.131791 -12.877666 -88.63427
39400000000 -15.876129 -69.495407 -1.0063906 11.430285 -0.94981968 11.4967 -13.740045 -71.099625
39500000000 -18.142422 -60.665249 -0.96685535 9.2730646 -1.0187624 9.3829813 -15.512607 -70.519569
39600000000 -17.067295 -80.837776 -0.96688479 7.5949359 -1.0100431 7.6720409 -19.153038 -55.006378
39700000000 -16.378305 -92.552452 -0.9593969 5.2876468 -1.0279498 5.4185452 -20.900524 -118.09508
39800000000 -13.943554 -87.531441 -0.99869645 4.0322852 -0.99990821 3.7760458 -16.396074 -105.15455
39900000000 -14.780992 -69.684212 -1.0284982 1.8214866 -1.0031714 1.8693024 -13.710847 -108.92102
40000000000 -14.795671 -66.959053 -0.91647977 0.3460317 -0.93225926 0.24652544 -12.203698 -86.981972
40100000000 -19.675535 -69.390717 -0.98273975 -1.2141783 -1.0121654 -1.4168736 -14.09226 -70.874657
40200000000 -20.441591 -86.543808 -1.0009224 -3.2339423 -0.99646407 -3.386586 -16.457443 -60.580734
40300000000 -17.424036 -106.14156 -0.97207958 -4.9386983 -0.97145307 -5.2047987 -20.111078 -67.481331
40400000000 -15.112354 -91.823624 -1.0545051 -7.1658359 -0.96845233 -6.6763787 -20.284929 -126.28152
40500000000 -15.413364 -77.75235 -0.99385566 -8.9179649 -1.0434276 -8.2748985 -16.462048 -123.74389
40600000000 -15.515357 -63.84906 -1.0145197 -10.716862 -1.0072405 -10.31639 -15.0301 -109.80555
40700000000 -19.596195 -82.11869 -1.0036392 -12.570221 -1.019238 -12.367714 -13.894601 -100.51228
40800000000 -19.903751 -81.041519 -0.98201954 -13.591076 -1.0206808 -13.730381 -15.767906 -77.712578
40900000000 -17.47402 -96.457306 -0.95160246 -15.637351 -0.98720455 -15.197005 -20.499121 -67.913681
41000000000 -15.116679 -91.918198 -0.93520719 -17.429922 -0.95495123 -17.303078 -20.228031 -71.539185
41100000000 -16.637482 -89.993896 -1.0187807 -19.381878 -1.0133932 -19.309772 -19.653095 -131.85072
41200000000 -18.185246 -68.70433 -1.002562 -21.018616 -1.0317762 -20.690165 -19.624121 -113.45591
41300000000 -19.010494 -83.078621 -1.0695561 -22.642056 -1.0106808 -22.49312 -18.332962 -116.93922
41400000000 -19.622671 -87.926132 -1.0253935 -24.643343 -0.96825755 -24.311943 -17.942671 -85.150955
41500000000 -18.989378 -94.881447 -1.0557319 -26.379042 -1.0267347 -26.259779 -18.545223 -91.41703
41600000000 -17.959053 -78.941071 -0.9766472 -28.060766 -0.98336136 -28.203417 -21.808554 -78.351593
41700000000 -17.805628 -79.915977 -0.97158033 -29.567974 -1.093799 -30.078962 -21.581766 -99.593079
41800000000 -19.368233 -81.167404 -1.0742288 -31.883453 -1.0062159 -31.330286 -24.034103 -103.23692
41900000000 -19.563688 -86.536324 -1.0465922 -34.038536 -1.0502126 -33.363792 -20.108023 -122.47337
42000000000 -19.740417 -68.285957 -1.022941 -35.220695 -1.0669653 -34.848198 -21.377531 -91.486526
42100000000 -18.191742 -71.284676 -1.0877678 -36.774014 -1.001964 -37.397423 -20.820841 -98.334084
42200000000 -20.796059 -66.246796 -0.96490729 -38.977249 -0.99080944 -38.349121 -22.546135 -58.111736
42300000000 -23.25948 -63.950802 -0.98628312 -40.710098 -1.0380186 -40.296349 -22.29121 -89.019035
42400000000 -25.309055 -99.476372 -1.0088263 -42.776844 -1.0645213 -42.273689 -34.81765 -84.965996
42500000000 -18.172253 -80.60202 -0.94548583 -44.08643 -0.96564984 -43.813904 -28.830671 -151.80263
42600000000 -17.461227 -79.351387 -0.96652031 -45.945869 -0.95320642 -45.881546 -33.499489 -102.2923
42700000000 -18.082071 -50.097698 -1.0356506 -48.452721 -0.98805302 -47.854839 -19.930483 -112.82342
42800000000 -19.955898 -33.333656 -1.0640794 -50.153122 -1.0354396 -50.01812 -23.187111 -103.76717
42900000000 -22.606264 3.6789393 -1.0045284 -51.530525 -1.0850179 -51.597778 -20.893827 -62.029224
43000000000 -28.575703 -67.662453 -0.950378 -53.976509 -1.0467349 -53.350098 -18.335724 -43.145817
43100000000 -22.689981 -93.836533 -0.9905324 -55.621735 -0.96968091 -55.133907 -24.28091 11.506305
43200000000 -17.556246 -75.177528 -0.97494352 -57.274078 -0.96105474 -56.797539 -30.524111 27.296312
43300000000 -17.56171 -47.415539 -0.95256424 -58.619457 -1.0369861 -58.908634 -34.622963 159.97682
43400000000 -17.802202 -22.532949 -1.0739112 -59.818394 -0.96737933 -60.231792 -26.429874 -85.697868
43500000000 -19.54661 -6.643394 -0.98580593 -62.663887 -1.085236 -62.07737 -21.532106 -98.314926
43600000000 -24.888144 -7.1659946 -1.09495 -63.93198 -0.96237069 -64.599854 -19.16563 -48.780891
43700000000 -25.049704 -43.738392 -1.0208111 -66.080551 -1.0259 -66.066025 -19.145979 -31.60305
43800000000 -20.475655 -75.023262 -1.0037236 -68.356476 -0.96607536 -67.723618 -19.720984 -7.8707676
43900000000 -19.025696 -52.277374 -1.090848 -70.003654 -1.0863395 -69.705444 -26.579367 37.147919
44000000000 -16.907318 -29.567141 -1.0055548 -71.865646 -0.97538942 -71.306175 -30.216661 -6.9080844
44100000000 -17.764618 -24.195141 -0.91067988 -73.355011 -0.99561757 -73.39743 -21.521219 -46.139614
44200000000 -18.733719 -8.4530067 -1.0460314 -74.685684 -1.0360324 -75.514397 -21.672508 -48.248127
44300000000 -20.229765 -35.164143 -0.92655361 -77.131737 -1.0115498 -76.790802 -19.004414 -27.345617
44400000000 -20.770481 -54.719147 -0.93030578 -78.803284 -1.029675 -79.013016 -18.43643 -6.8402233
44500000000 -17.383762 -63.110142 -1.062476 -80.781723 -1.0266725 -80.000053 -21.345865 -29.51096
44600000000 -16.540722 -48.764076 -1.0935366 -82.522812 -1.0913388 -82.355659 -23.202929 10.771815
44700000000 -14.821849 -30.212759 -1.0445251 -84.953072 -1.0580729 -84.133911 -20.765347 -45.943279
44800000000 -19.157837 -25.077517 -1.015093 -86.406166 -1.0020504 -86.214958 -15.437758 -30.765108
44900000000 -19.347477 -31.256815 -1.0629259 -87.914536 -1.0180299 -88.068359 -16.200844 -38.379902
45000000000 -19.549168 -35.625027 -1.0264376 -89.636093 -1.0908939 -89.657646 -15.877187 -4.0363655
