!Keysight Technologies,N5247B,MY61255062,A.19.80.06
!Date: Monday, May 18, 2026 13:02:03
!Correction: S11(Cdelta 2-Port  ) 
!S21(Cdelta 2-Port  ) 
!S12(Cdelta 2-Port  ) 
!S22(Cdelta 2-Port  ) 
!S2P File: Measurements: S11, S21, S12, S22:
# Hz S  dB   R 50
1000000000 -26.832169 -12.158987 -0.41174155 -21.098806 -0.4044897 -21.08511 -27.217085 -13.829925
1100000000 -26.764677 -14.307821 -0.42180139 -23.154585 -0.41585487 -23.138096 -27.209959 -15.242025
1200000000 -26.672546 -15.840725 -0.43232632 -25.163931 -0.42540202 -25.147228 -27.214666 -16.036846
1300000000 -26.648991 -17.317646 -0.43674284 -27.221792 -0.43094224 -27.207104 -27.087132 -18.092409
1400000000 -26.531277 -19.267778 -0.44166392 -29.23609 -0.43445036 -29.203676 -27.041523 -19.342552
1500000000 -26.524302 -21.517399 -0.44488671 -31.27636 -0.4378728 -31.266792 -26.852419 -21.446684
1600000000 -26.417505 -23.627653 -0.44683126 -33.317799 -0.44170803 -33.295742 -26.728994 -24.582085
1700000000 -26.371885 -26.083227 -0.44895893 -35.361458 -0.44277737 -35.345039 -26.633858 -26.096802
1800000000 -26.199423 -28.304247 -0.45085189 -37.420471 -0.44482279 -37.394806 -26.532352 -28.443977
1900000000 -26.153786 -30.759897 -0.45316026 -39.479225 -0.4479779 -39.463295 -26.446117 -31.130627
2000000000 -26.164934 -32.992924 -0.4599376 -41.531742 -0.45304045 -41.526455 -26.391251 -33.876984
2100000000 -26.152739 -35.697872 -0.4627893 -43.589897 -0.45678931 -43.57806 -26.339212 -36.261288
2200000000 -26.264393 -38.345104 -0.46573964 -45.644245 -0.46047953 -45.641499 -26.269249 -39.104111
2300000000 -26.205427 -40.702995 -0.47025347 -47.703335 -0.46401045 -47.690842 -26.256516 -41.289055
2400000000 -26.192579 -43.200764 -0.47284812 -49.748756 -0.46985194 -49.743362 -26.218586 -43.068008
2500000000 -26.108429 -45.247128 -0.47725028 -51.8181 -0.4743458 -51.800179 -26.222763 -45.827675
2600000000 -26.160978 -48.285652 -0.48649195 -53.883308 -0.48182353 -53.853752 -26.337399 -48.60146
2700000000 -26.305037 -50.82827 -0.49403995 -55.920383 -0.48596993 -55.894981 -26.409071 -52.459148
2800000000 -26.389872 -53.544132 -0.50048494 -57.951149 -0.49364665 -57.930973 -26.439127 -55.041061
2900000000 -26.630417 -56.172333 -0.50280327 -59.994778 -0.49771291 -59.95969 -26.285591 -58.106285
3000000000 -26.522453 -58.073925 -0.50649732 -62.010872 -0.50031763 -61.992859 -26.360846 -59.587727
3100000000 -26.680676 -60.434975 -0.50954127 -64.045555 -0.5034982 -64.029221 -26.344793 -61.102776
3200000000 -26.575035 -62.510273 -0.5111376 -66.096634 -0.50617623 -66.070213 -26.52729 -63.273331
3300000000 -26.72069 -66.930634 -0.51563036 -68.145996 -0.50785828 -68.103302 -26.559275 -66.402199
3400000000 -27.011351 -69.706787 -0.52089095 -70.183693 -0.51299053 -70.16185 -26.742527 -70.161827
3500000000 -26.979683 -72.606003 -0.52678084 -72.207924 -0.51833308 -72.179779 -26.713173 -72.232819
3600000000 -27.017614 -74.693115 -0.52636617 -74.221809 -0.52129662 -74.206787 -26.674597 -75.34729
3700000000 -26.91062 -78.222115 -0.52812892 -76.266068 -0.52247828 -76.223129 -26.601255 -76.705795
3800000000 -27.121103 -80.858864 -0.52915305 -78.29393 -0.52276963 -78.289978 -26.593426 -79.725777
3900000000 -27.061075 -82.636513 -0.53061795 -80.356026 -0.52370435 -80.34021 -26.781887 -81.800835
4000000000 -27.259344 -85.811302 -0.53484166 -82.425034 -0.52897877 -82.406067 -26.921598 -85.581322
4100000000 -27.229692 -87.957726 -0.54172313 -84.480972 -0.53730583 -84.457283 -27.186319 -87.139893
4200000000 -27.458557 -91.214012 -0.54918689 -86.484306 -0.5410077 -86.460754 -26.931787 -90.316948
4300000000 -27.60701 -93.023537 -0.55165249 -88.501511 -0.54426634 -88.474785 -27.046797 -93.41864
4400000000 -27.823206 -96.740646 -0.55291682 -90.520874 -0.54543638 -90.505585 -27.199577 -95.812004
4500000000 -27.995914 -99.433479 -0.55194139 -92.559006 -0.54642415 -92.540176 -27.405214 -98.453537
4600000000 -28.121601 -103.11988 -0.55279011 -94.612854 -0.55022866 -94.576904 -27.484718 -101.43076
4700000000 -28.370073 -107.19285 -0.55528653 -96.643677 -0.55043906 -96.626068 -27.386522 -105.78094
4800000000 -28.56296 -110.37978 -0.55898136 -98.681854 -0.55287093 -98.674507 -27.40679 -108.34457
4900000000 -28.653915 -113.34714 -0.56030881 -100.7323 -0.5561868 -100.70726 -27.326223 -110.75024
5000000000 -28.853579 -114.94608 -0.56463993 -102.78322 -0.55698746 -102.73813 -27.435047 -111.45557
5100000000 -29.015989 -116.72723 -0.56607556 -104.82077 -0.56063575 -104.77718 -27.582642 -113.48582
5200000000 -29.144564 -120.73014 -0.56947118 -106.84154 -0.56301886 -106.82167 -28.146902 -116.45896
5300000000 -29.187731 -124.5672 -0.5694502 -108.89732 -0.56553119 -108.85873 -28.42252 -121.41369
5400000000 -29.363287 -130.72906 -0.57300764 -110.94571 -0.56898981 -110.91708 -28.505564 -127.71234
5500000000 -29.614416 -133.89008 -0.57858574 -112.9823 -0.5703631 -112.96099 -28.078381 -131.05972
5600000000 -29.648355 -137.92036 -0.58262044 -115.01772 -0.57641166 -114.9886 -27.908224 -133.21257
5700000000 -30.059042 -138.7282 -0.58610219 -117.03323 -0.57751405 -117.01501 -27.898054 -131.06636
5800000000 -29.998074 -142.46515 -0.58592856 -119.0639 -0.58079171 -119.0383 -28.370089 -133.16138
5900000000 -30.379553 -147.06667 -0.58998257 -121.09491 -0.58295792 -121.05837 -29.204653 -136.53986
6000000000 -30.123163 -151.72258 -0.58943641 -123.11827 -0.58275276 -123.08415 -29.593187 -146.16745
6100000000 -30.475412 -158.86893 -0.5888921 -125.15224 -0.58216369 -125.12329 -29.557163 -152.97681
6200000000 -30.751305 -161.25459 -0.58762878 -127.18559 -0.58145577 -127.15929 -28.979759 -155.69579
6300000000 -31.155014 -167.77599 -0.58701301 -129.26201 -0.58123082 -129.22897 -28.917025 -154.46672
6400000000 -31.46063 -171.07686 -0.59674567 -131.27483 -0.58907115 -131.25746 -28.894424 -154.97369
6500000000 -31.132057 -177.56557 -0.59389132 -133.35867 -0.58706337 -133.31264 -30.191763 -160.36517
6600000000 -31.311754 177.4115 -0.59974867 -135.38043 -0.59493083 -135.35934 -30.951376 -166.15158
6700000000 -31.234018 172.26529 -0.607086 -137.41241 -0.60153931 -137.37897 -30.863886 -175.49554
6800000000 -32.098732 171.64748 -0.60821444 -139.45015 -0.60314572 -139.43253 -30.1616 -177.77414
6900000000 -32.133747 171.66122 -0.61062348 -141.49876 -0.60236293 -141.45537 -30.203985 -177.27597
7000000000 -32.545422 166.98924 -0.61727887 -143.5293 -0.61479664 -143.48834 -30.321421 -175.54575
7100000000 -32.37878 159.4669 -0.61730635 -145.51825 -0.61128855 -145.474 -31.599461 177.54605
7200000000 -32.557552 151.2585 -0.61544323 -147.53346 -0.60881418 -147.49585 -32.454704 169.26566
7300000000 -32.429874 147.60146 -0.6084336 -149.60176 -0.60483366 -149.56592 -31.610079 159.09193
7400000000 -32.55088 140.80167 -0.61183178 -151.69794 -0.60457957 -151.65584 -30.990269 157.97368
7500000000 -33.015347 138.12767 -0.62268049 -153.74294 -0.61581725 -153.68474 -30.611732 161.53801
7600000000 -33.527519 132.60411 -0.61997509 -155.76622 -0.61474055 -155.73055 -31.650709 164.13341
7700000000 -33.481499 129.64017 -0.62056035 -157.79185 -0.61483181 -157.7753 -33.623756 158.70163
7800000000 -33.251972 127.24479 -0.62256455 -159.84697 -0.61521566 -159.81537 -34.719856 139.86272
7900000000 -32.607365 123.01165 -0.62317228 -161.89598 -0.61855024 -161.86835 -32.965073 126.43746
8000000000 -32.579399 115.09566 -0.62671751 -163.94324 -0.62201607 -163.89458 -31.309349 128.04482
8100000000 -32.710144 109.16418 -0.62840599 -165.96989 -0.62394387 -165.93608 -31.200312 134.31583
8200000000 -33.087761 102.88881 -0.62920332 -168.03079 -0.6220457 -167.97867 -32.580746 142.58315
8300000000 -33.178921 103.16654 -0.63037127 -170.07437 -0.62367553 -170.03711 -36.327911 132.52635
8400000000 -32.313599 100.10696 -0.63568974 -172.16631 -0.6297425 -172.11848 -35.655029 91.307266
8500000000 -31.595203 93.884659 -0.65439993 -174.26942 -0.64828485 -174.24704 -29.924074 85.005981
8600000000 -31.785809 84.422775 -0.71732748 -176.35457 -0.7119121 -176.31017 -25.363916 99.292847
8700000000 -30.575602 92.446114 -0.7527045 -177.29678 -0.74318862 -177.2791 -20.518023 99.655449
8800000000 -31.042332 76.515724 -0.58596057 -179.62704 -0.57702714 -179.59038 -21.663694 93.74147
8900000000 -31.950298 77.109924 -0.61097717 177.83447 -0.60127831 177.86508 -24.921879 106.19795
9000000000 -31.862673 74.073196 -0.63526273 175.7278 -0.62821269 175.76433 -28.621473 124.85796
9100000000 -31.799492 64.22316 -0.64580888 173.68059 -0.63981235 173.73267 -34.124386 133.15472
9200000000 -32.138138 62.833145 -0.650482 171.66925 -0.64610922 171.69945 -42.918304 89.7789
9300000000 -31.579449 59.546322 -0.65886933 169.64493 -0.6536485 169.68964 -35.127491 46.074558
9400000000 -31.708441 59.926865 -0.66178143 167.63795 -0.65497088 167.67702 -32.163227 49.134277
9500000000 -31.298981 56.431805 -0.66142333 165.62587 -0.65906543 165.66289 -30.955282 60.613232
9600000000 -31.697092 48.823193 -0.66457874 163.56561 -0.66006792 163.62485 -32.340969 68.650841
9700000000 -31.567068 44.525093 -0.66692299 161.51628 -0.66135305 161.58472 -33.95015 68.062973
9800000000 -31.514072 39.177547 -0.66819781 159.47665 -0.66349471 159.54456 -35.29871 48.474937
9900000000 -31.363472 40.587868 -0.67162681 157.43207 -0.66473985 157.48309 -33.547009 33.586529
10000000000 -30.962095 37.630028 -0.67251521 155.39308 -0.66879535 155.44101 -31.690392 29.854378
10100000000 -30.923449 33.769711 -0.67700696 153.34433 -0.67116666 153.39684 -30.890099 38.981819
10200000000 -30.513884 27.333475 -0.6825946 151.31012 -0.67697793 151.35172 -31.61146 42.460529
10300000000 -30.848143 21.165344 -0.68701547 149.25932 -0.67870933 149.31097 -33.52523 43.227489
10400000000 -30.957209 19.317663 -0.691369 147.21532 -0.68366098 147.27107 -35.178722 25.850334
10500000000 -31.519583 16.845387 -0.69300532 145.18402 -0.68905485 145.22826 -34.341011 3.8848145
10600000000 -31.29847 16.806637 -0.69737875 143.14575 -0.69033951 143.20839 -31.790306 -2.3056929
10700000000 -30.752649 11.376949 -0.7032721 141.15225 -0.69575018 141.18434 -30.452942 0.47881314
10800000000 -30.481318 8.0300646 -0.70142198 139.14423 -0.69972861 139.19327 -29.83469 6.3572598
10900000000 -29.942276 3.2239802 -0.70715994 137.1208 -0.69927889 137.17863 -30.694204 11.318811
11000000000 -30.623579 -1.1079589 -0.7102229 135.11328 -0.70530939 135.15878 -31.622625 8.6276655
11100000000 -30.978319 -3.4194069 -0.71296471 133.08684 -0.70770496 133.13634 -33.048771 -0.58396792
11200000000 -31.399956 -7.3901701 -0.71635747 131.05847 -0.70925546 131.12117 -32.693737 -14.320049
11300000000 -30.920795 -8.7512131 -0.71905518 129.05226 -0.71289086 129.10172 -31.940256 -21.307545
11400000000 -30.644875 -14.349989 -0.7196191 127.04105 -0.71279019 127.08213 -30.64677 -26.166105
11500000000 -30.522684 -18.211946 -0.72321922 125.01772 -0.71200359 125.06651 -30.281807 -27.280033
11600000000 -30.720568 -23.25091 -0.72093451 122.99863 -0.7141158 123.06497 -30.206543 -24.76763
11700000000 -31.001579 -26.582434 -0.71996528 120.97662 -0.71549362 121.04443 -30.471605 -26.330858
11800000000 -31.299093 -29.179642 -0.71999675 118.96295 -0.7154448 119.01046 -30.636868 -28.64263
11900000000 -31.30311 -32.345081 -0.72376078 116.94926 -0.71711493 116.99587 -31.269081 -34.076591
12000000000 -31.409397 -37.002941 -0.72321159 114.92456 -0.71845281 114.97501 -31.135868 -42.319576
12100000000 -31.32089 -41.948349 -0.72507131 112.90807 -0.71866661 112.98038 -31.388113 -49.501144
12200000000 -31.502922 -50.648514 -0.72508782 110.90993 -0.71939856 110.96457 -30.884529 -54.986179
12300000000 -31.685326 -52.327591 -0.72440606 108.8968 -0.71654129 108.94 -30.6024 -58.588177
12400000000 -31.944302 -57.922607 -0.72368979 106.88697 -0.71796536 106.9332 -30.760593 -58.465649
12500000000 -32.431667 -56.097263 -0.719028 104.85717 -0.71341008 104.92113 -31.164576 -62.585037
12600000000 -32.533741 -64.111511 -0.71601862 102.84761 -0.70752245 102.90213 -31.104151 -67.723694
12700000000 -33.080185 -67.257362 -0.713256 100.79884 -0.70510721 100.87132 -31.509624 -74.626335
12800000000 -32.647926 -77.270241 -0.70578355 98.768944 -0.70086801 98.812698 -31.053322 -76.171257
12900000000 -32.991436 -81.899986 -0.70720166 96.705826 -0.70015532 96.763069 -31.765457 -81.224907
13000000000 -32.572086 -83.859734 -0.70332325 94.687653 -0.69662446 94.711342 -31.764494 -85.289772
13100000000 -33.879227 -91.163574 -0.70149803 92.610283 -0.69586903 92.648071 -31.720766 -94.676811
13200000000 -33.88232 -89.913132 -0.70098054 90.539078 -0.6940794 90.604645 -31.020052 -97.570045
13300000000 -34.481731 -101.34666 -0.69825089 88.494453 -0.69303322 88.536003 -29.976698 -100.39695
13400000000 -34.225601 -95.224159 -0.70291233 86.431778 -0.69194144 86.497322 -30.122503 -99.198776
13500000000 -34.372974 -107.67959 -0.7002508 84.377434 -0.6968326 84.427086 -30.599188 -97.680267
13600000000 -34.993053 -106.62105 -0.70234966 82.317398 -0.69728881 82.365631 -31.108286 -95.74765
13700000000 -34.263741 -113.72269 -0.71069515 80.215317 -0.70666981 80.272194 -31.373066 -104.06126
13800000000 -34.037376 -117.82418 -0.73464996 78.191505 -0.72636241 78.250359 -31.367064 -112.42162
13900000000 -32.994232 -128.8136 -0.72835541 76.296417 -0.72042543 76.386971 -29.974915 -124.7417
14000000000 -35.613468 -132.85739 -0.71577471 74.26078 -0.70921642 74.330017 -30.376919 -126.39822
14100000000 -35.009808 -142.32249 -0.71257728 72.183746 -0.70850909 72.257729 -29.819984 -126.56633
14200000000 -35.906933 -152.8671 -0.70870292 70.123337 -0.70305783 70.201782 -30.685686 -125.00112
14300000000 -34.7262 -155.54608 -0.70914936 68.040894 -0.70589101 68.113846 -30.624397 -130.24193
14400000000 -35.028717 -163.58453 -0.7118929 65.978996 -0.70943403 66.037315 -31.170763 -130.37833
14500000000 -34.603714 -159.27368 -0.71680963 63.919868 -0.71082014 63.981503 -31.262167 -137.47609
14600000000 -35.370289 -164.45465 -0.72293824 61.869663 -0.71628118 61.932869 -32.527287 -141.77507
14700000000 -34.622051 -165.20615 -0.72953415 59.810177 -0.72485536 59.865639 -32.092964 -147.39665
14800000000 -33.012604 -175.8188 -0.74595743 57.821957 -0.74254113 57.89019 -31.86109 -160.40245
14900000000 -32.237057 177.99944 -0.73187482 55.870571 -0.72532427 55.938755 -30.508821 -173.65681
15000000000 -31.953934 169.134 -0.72853142 53.779121 -0.7227031 53.838799 -29.840002 -170.34468
15100000000 -32.795601 168.65633 -0.73815179 51.715317 -0.73148608 51.776344 -29.207195 -168.64375
15200000000 -31.586468 159.20735 -0.74159104 49.714016 -0.73359638 49.804703 -29.529888 -165.0287
15300000000 -32.509037 158.785 -0.73760289 47.663784 -0.73268008 47.743839 -31.175861 -170.37886
15400000000 -30.571913 157.16745 -0.73711914 45.556244 -0.73329788 45.637157 -32.344948 174.4097
15500000000 -31.101818 155.53326 -0.74467343 43.530025 -0.74026626 43.616241 -31.611153 160.76985
15600000000 -29.652315 153.05675 -0.75332028 41.472893 -0.74835128 41.53352 -29.400127 151.32811
15700000000 -30.667843 140.09657 -0.75380862 39.468502 -0.74953145 39.509132 -28.221687 158.11792
15800000000 -30.024879 136.38521 -0.75806499 37.413658 -0.75194824 37.507282 -27.643917 161.75609
15900000000 -30.128849 126.59642 -0.76022249 35.390392 -0.75545049 35.45805 -28.160275 165.24768
16000000000 -29.222466 132.23418 -0.76163328 33.369137 -0.75445837 33.43993 -29.209482 161.68658
16100000000 -28.939449 125.31848 -0.76869857 31.342642 -0.76085752 31.415028 -30.277412 156.2464
16200000000 -28.986591 129.29071 -0.76712739 29.319462 -0.76488495 29.380629 -29.917442 139.53654
16300000000 -28.810606 120.50933 -0.7741707 27.288363 -0.76858366 27.373867 -29.458099 139.14188
16400000000 -29.491682 116.62372 -0.77844775 25.276699 -0.77247816 25.329834 -28.193251 132.42847
16500000000 -28.450529 107.24638 -0.77718753 23.241184 -0.77717823 23.30801 -27.84207 137.04881
16600000000 -28.418798 104.29944 -0.7822637 21.202505 -0.77678353 21.293798 -28.16781 133.18965
16700000000 -27.173986 104.87287 -0.78983587 19.164173 -0.78227299 19.255739 -28.68576 133.31804
16800000000 -27.269335 106.06886 -0.78844446 17.184502 -0.78274351 17.239452 -28.859373 122.661
16900000000 -27.072895 106.3036 -0.79280174 15.136902 -0.78866667 15.201262 -29.040262 118.70313
17000000000 -28.02956 97.986137 -0.79225588 13.10904 -0.79296017 13.207371 -27.87034 114.06065
17100000000 -27.561697 91.762131 -0.79897326 11.109581 -0.79266006 11.176631 -27.785965 112.1041
17200000000 -26.563873 83.981567 -0.8023355 9.0706215 -0.80001879 9.1441097 -27.272394 112.12035
17300000000 -25.732567 87.163239 -0.80163497 7.0575757 -0.79585141 7.1175423 -28.122608 107.44898
17400000000 -25.235249 89.846512 -0.8027606 5.0172849 -0.79910517 5.0812192 -27.5702 96.479507
17500000000 -25.487162 94.509254 -0.80537599 2.9944746 -0.80366474 3.0802741 -27.120651 88.309464
17600000000 -26.026974 87.743591 -0.80906165 0.96687025 -0.80397904 1.0631351 -25.797806 88.091019
17700000000 -26.153086 80.298584 -0.81314969 -1.0345167 -0.80831546 -0.9731313 -25.023952 90.16748
17800000000 -25.156816 70.535675 -0.81665885 -3.0265872 -0.81143498 -3.0108697 -24.964054 95.525665
17900000000 -24.509296 72.433464 -0.82082218 -5.0960255 -0.80991656 -5.0037894 -25.894497 95.621513
18000000000 -24.04401 75.553123 -0.81925952 -7.1321111 -0.81319338 -7.065424 -27.387917 88.478302
18100000000 -24.836769 79.138077 -0.81527132 -9.119916 -0.80628633 -9.0594234 -27.69179 70.245369
18200000000 -24.909548 76.092117 -0.8178131 -11.123112 -0.81678849 -11.048646 -25.87385 61.144367
18300000000 -25.298666 67.890213 -0.81884289 -13.165195 -0.81456339 -13.072501 -23.973488 63.280045
18400000000 -24.232201 62.073326 -0.82411069 -15.185799 -0.82008177 -15.118768 -22.806906 70.52314
18500000000 -23.878258 57.02153 -0.82763124 -17.226667 -0.82388663 -17.153198 -23.307436 80.610649
18600000000 -23.772764 58.299839 -0.81976539 -19.284775 -0.81113267 -19.216854 -25.298615 84.445152
18700000000 -24.464808 57.71542 -0.81598252 -21.313179 -0.80817854 -21.231558 -28.099695 74.467773
18800000000 -24.760199 59.292198 -0.80694395 -23.35137 -0.80496627 -23.295801 -27.995701 43.472023
18900000000 -24.596457 53.957428 -0.80815578 -25.342966 -0.800641 -25.264784 -25.28858 34.624081
19000000000 -24.407616 51.499149 -0.81069618 -27.329929 -0.80337381 -27.25598 -22.853941 41.151176
19100000000 -23.555216 46.277969 -0.80925971 -29.295864 -0.80705684 -29.225864 -22.735556 47.625862
19200000000 -23.701094 43.257568 -0.81880474 -31.326307 -0.81062442 -31.242079 -23.044191 59.366837
19300000000 -23.442778 42.342621 -0.81488442 -33.381863 -0.81102186 -33.325123 -25.546589 56.003559
19400000000 -23.622526 42.774975 -0.81519485 -35.440666 -0.80702192 -35.335922 -25.926754 45.921471
19500000000 -23.395134 44.257397 -0.80664223 -37.457821 -0.80453694 -37.395115 -25.789543 28.720806
19600000000 -23.782478 40.059059 -0.80698043 -39.499409 -0.80069673 -39.441719 -23.776148 26.50828
19700000000 -23.825897 36.235306 -0.80613452 -41.524792 -0.80368215 -41.434597 -23.114231 27.718929
19800000000 -23.306067 29.327829 -0.80773705 -43.556835 -0.8086338 -43.515373 -22.991749 34.945099
19900000000 -22.70046 28.387331 -0.81129771 -45.597931 -0.80666655 -45.521629 -23.51897 31.917446
20000000000 -22.311096 31.122189 -0.81664699 -47.643803 -0.80941474 -47.598206 -24.260376 27.750614
20100000000 -22.307653 33.351948 -0.81676632 -49.714272 -0.80895782 -49.615158 -23.567104 18.497099
20200000000 -23.012415 31.950054 -0.82383686 -51.722828 -0.81699097 -51.627449 -22.721235 16.217022
20300000000 -23.782803 24.378105 -0.83428377 -53.71806 -0.82483149 -53.656849 -22.196844 18.157118
20400000000 -23.534319 15.397571 -0.83665746 -55.73452 -0.82556146 -55.638145 -22.960909 22.400612
20500000000 -23.027264 11.491701 -0.83285987 -57.705544 -0.82555771 -57.649036 -24.19577 22.262842
20600000000 -22.841274 14.420621 -0.82627934 -59.719631 -0.81656295 -59.663628 -25.412876 9.1017876
20700000000 -23.246855 20.272446 -0.81290776 -61.769718 -0.8043949 -61.738468 -24.537035 -2.2999463
20800000000 -23.64259 21.368006 -0.80949801 -63.857693 -0.80136663 -63.766209 -23.165373 -10.33027
20900000000 -24.351946 17.439369 -0.80308104 -65.891571 -0.79739481 -65.806473 -21.870544 -4.3470526
21000000000 -24.266144 7.1262851 -0.80954885 -67.888351 -0.7965557 -67.838562 -22.174845 2.6079679
21100000000 -23.718151 0.79403007 -0.81137133 -69.944481 -0.80264664 -69.895782 -22.989761 6.6512785
21200000000 -23.465105 1.5825917 -0.81467456 -72.071976 -0.80896688 -72.01973 -24.957331 6.2803555
21300000000 -23.975153 2.5814338 -0.81441569 -74.1959 -0.80756372 -74.127045 -26.577066 -12.372848
21400000000 -24.450193 7.8888884 -0.83169824 -76.239471 -0.82748657 -76.145355 -25.19808 -26.121643
21500000000 -25.783567 0.25902864 -0.8239699 -78.223183 -0.81823462 -78.159805 -23.815544 -39.460266
21600000000 -25.82254 1.4589673 -0.80598897 -80.225426 -0.80428022 -80.128731 -22.265928 -30.823708
21700000000 -24.82094 -9.792716 -0.80118042 -82.216866 -0.79522032 -82.132179 -21.709982 -22.015644
21800000000 -24.128504 -10.407191 -0.80115741 -84.186089 -0.79850221 -84.133553 -22.570641 -13.464012
21900000000 -23.791599 -11.073986 -0.81686509 -86.226707 -0.80676472 -86.15686 -23.520845 -11.489415
22000000000 -24.548725 -4.4750695 -0.82650542 -88.291946 -0.82458079 -88.247162 -26.910341 -23.960365
22100000000 -25.184929 -4.9693847 -0.84007484 -90.325157 -0.83042562 -90.281654 -25.623262 -47.46381
22200000000 -27.044952 -6.9814177 -0.83341748 -92.361801 -0.82302958 -92.278641 -24.962988 -52.960316
22300000000 -26.402822 -12.204226 -0.81794369 -94.472794 -0.81084251 -94.423294 -22.257685 -47.310719
22400000000 -25.361574 -21.414274 -0.81795496 -96.476372 -0.80506694 -96.407471 -22.286848 -38.775349
22500000000 -24.3563 -20.566036 -0.80857426 -98.499664 -0.80034655 -98.443031 -22.669859 -28.485962
22600000000 -24.57613 -16.436039 -0.81080568 -100.48448 -0.80707896 -100.43517 -25.388948 -33.036739
22700000000 -25.773592 -5.760622 -0.81648517 -102.52703 -0.81656826 -102.44189 -26.173428 -43.552277
22800000000 -28.01446 -7.9767699 -0.82974529 -104.52307 -0.82071775 -104.47243 -26.011589 -68.740013
22900000000 -29.496498 -19.9013 -0.82076687 -106.65015 -0.81239057 -106.59015 -23.821474 -62.13982
23000000000 -27.195126 -37.932964 -0.82649571 -108.69777 -0.81819713 -108.64662 -23.540833 -58.79694
23100000000 -26.228781 -37.246689 -0.82164723 -110.76715 -0.81298047 -110.72502 -23.701584 -43.550415
23200000000 -25.62892 -27.040909 -0.81945491 -112.83279 -0.8110016 -112.78678 -26.546503 -45.184132
23300000000 -27.168816 -10.370505 -0.82170945 -114.9311 -0.81879252 -114.84093 -30.915283 -61.384735
23400000000 -29.824957 0.2345309 -0.82098013 -116.95238 -0.81829 -116.87791 -27.58913 -96.525459
23500000000 -34.934238 -6.1847396 -0.82533169 -118.95768 -0.82005519 -118.86704 -25.172062 -97.596687
23600000000 -34.214226 -42.116447 -0.82974529 -121.01411 -0.82390696 -120.96107 -22.753828 -84.864456
23700000000 -30.236368 -54.754459 -0.82844347 -123.06325 -0.82445842 -122.95985 -23.669912 -64.882645
23800000000 -29.459234 -50.006416 -0.83727205 -125.09452 -0.83456928 -125.02261 -26.908882 -53.926113
23900000000 -31.477522 -24.711132 -0.84860796 -127.2045 -0.84077561 -127.12724 -33.096012 -39.612644
24000000000 -32.856785 3.1891863 -0.84416103 -129.3259 -0.83512551 -129.25729 -30.919558 -156.8864
24100000000 -36.337456 42.453167 -0.83563221 -131.36844 -0.83281475 -131.27937 -25.898544 -143.30313
24200000000 -41.45327 49.538067 -0.83295274 -133.35847 -0.82789874 -133.27954 -23.976482 -127.29942
24300000000 -47.191257 -67.518669 -0.82840931 -135.37477 -0.82057363 -135.28609 -22.947657 -107.53722
24400000000 -36.625942 -51.197834 -0.8257643 -137.31172 -0.82409692 -137.22337 -25.465488 -85.59243
24500000000 -38.307468 -38.364643 -0.84170437 -139.33537 -0.83379447 -139.24878 -30.44169 -75.430733
24600000000 -35.127609 26.358213 -0.84867275 -141.37291 -0.85078287 -141.31317 -47.193916 -149.73286
24700000000 -34.183327 61.735771 -0.85221076 -143.46188 -0.84958714 -143.35881 -30.223429 168.33167
24800000000 -31.418983 82.47451 -0.85964632 -145.60229 -0.85257494 -145.51895 -25.887426 -179.0023
24900000000 -35.948528 93.068665 -0.8476302 -147.59866 -0.83548975 -147.53882 -25.485338 -159.4247
25000000000 -36.51918 84.371025 -0.84000069 -149.62488 -0.83746445 -149.58948 -25.137203 -139.58395
25100000000 -39.84959 29.919716 -0.84235424 -151.59019 -0.82729894 -151.55241 -29.999552 -128.47057
25200000000 -32.590733 56.699078 -0.84888142 -153.54659 -0.83902991 -153.47887 -33.958145 -145.17329
25300000000 -29.890612 50.940506 -0.85793906 -155.51231 -0.85050297 -155.45061 -32.968006 145.31715
25400000000 -27.703514 74.034447 -0.85530722 -157.66501 -0.85310256 -157.60455 -27.860928 161.46973
25500000000 -27.684978 72.632523 -0.86676115 -159.64815 -0.85872382 -159.58365 -27.667566 148.20178
25600000000 -29.977827 84.38826 -0.86831415 -161.77406 -0.85937876 -161.76109 -26.106085 170.2587
25700000000 -29.335146 73.339447 -0.85973495 -163.84581 -0.84757328 -163.76456 -29.970549 167.63651
25800000000 -28.943495 67.359665 -0.86050177 -165.83615 -0.85154682 -165.78902 -27.999033 157.07428
25900000000 -26.536871 59.629307 -0.85526937 -167.91756 -0.85824877 -167.80408 -31.252455 140.66609
26000000000 -26.22748 58.851177 -0.86615819 -169.93291 -0.85263038 -169.83394 -27.716702 125.1998
26100000000 -25.198732 64.886787 -0.86170781 -171.95044 -0.85276926 -171.87634 -28.236788 121.22738
26200000000 -24.740829 63.72818 -0.86611676 -173.97386 -0.86543459 -173.90788 -26.584187 114.44135
26300000000 -24.68788 66.507538 -0.88045835 -176.0567 -0.87880057 -175.98022 -25.508383 124.92755
26400000000 -24.489458 65.374069 -0.89046258 -178.15063 -0.8782745 -178.05156 -27.164181 114.92197
26500000000 -24.133703 64.687035 -0.88811964 179.85622 -0.87806445 179.94342 -26.028643 110.2008
26600000000 -23.112333 58.237293 -0.90377235 177.79214 -0.88755119 177.95782 -27.45319 102.11695
26700000000 -22.61408 53.441864 -0.90876675 175.78981 -0.88766456 175.84639 -25.510883 88.770187
26800000000 -21.98992 56.308357 -0.89693332 173.76357 -0.89063859 173.87357 -24.19364 86.089241
26900000000 -21.85832 58.011421 -0.91432667 171.77417 -0.90542215 171.77281 -22.84374 87.702934
27000000000 -21.71661 56.094124 -0.90620822 169.64871 -0.90459543 169.82228 -21.745283 92.588936
27100000000 -22.086943 49.785587 -0.90924126 167.85327 -0.90435374 167.7556 -23.498158 95.610954
27200000000 -20.956041 51.414124 -0.92201722 165.79524 -0.91748333 165.83318 -24.333895 90.598457
27300000000 -20.883368 49.595425 -0.92221153 163.74384 -0.91760039 163.83772 -23.835716 68.385681
27400000000 -20.464102 46.522049 -0.94194245 161.74303 -0.91268528 161.77736 -22.516453 67.251846
27500000000 -20.460766 48.304733 -0.9263944 159.50937 -0.91842222 159.58923 -20.893673 66.072556
27600000000 -20.357191 44.46944 -0.92004436 157.60098 -0.90993708 157.58266 -20.084341 78.047226
27700000000 -20.138762 40.868313 -0.91095477 155.68579 -0.91804582 155.68883 -20.672136 78.547112
27800000000 -19.344055 38.544575 -0.92563379 153.46706 -0.92163956 153.69574 -22.047899 79.0896
27900000000 -19.489542 36.440212 -0.92702276 151.50858 -0.92712528 151.62677 -23.397894 57.42276
28000000000 -18.948467 35.602749 -0.94580507 149.32721 -0.93014961 149.47847 -21.616762 56.967171
28100000000 -19.588001 33.424526 -0.93324304 147.55746 -0.9494164 147.57321 -19.931767 49.866024
28200000000 -19.240665 30.246372 -0.97139448 145.43279 -0.95690095 145.43976 -19.605663 59.173435
28300000000 -19.028858 21.937454 -0.95506924 143.25 -0.93275112 143.43153 -20.575993 62.443932
28400000000 -19.320385 23.217766 -0.95220906 141.30759 -0.9397397 141.40765 -22.540144 63.220314
28500000000 -18.721432 22.862871 -0.95830643 139.42593 -0.92810345 139.50963 -21.564886 38.528229
28600000000 -18.572109 20.508682 -0.93573761 137.39529 -0.92397183 137.48926 -21.364878 33.484482
28700000000 -18.311371 19.67168 -0.95811856 135.43906 -0.93354315 135.55005 -18.583187 33.181419
28800000000 -18.789331 21.603992 -0.97600514 133.42711 -0.97400659 133.39297 -18.725906 46.22686
28900000000 -17.870867 18.155083 -0.99387908 131.30276 -0.97695452 131.43301 -19.833357 46.360954
29000000000 -19.300928 12.839251 -1.0115116 129.19559 -0.9889192 129.11502 -22.208487 43.219517
29100000000 -18.992435 13.947895 -0.98176479 127.02025 -0.9864248 127.05778 -23.491285 12.829983
29200000000 -18.231081 10.212715 -0.95993608 125.19128 -0.94500703 125.02676 -19.902084 9.3512135
29300000000 -17.325397 14.357896 -0.94108784 123.18926 -0.92506969 123.16197 -16.960155 12.528776
29400000000 -17.283222 8.9767675 -0.953493 121.1576 -0.93327421 121.36738 -16.73234 26.915581
29500000000 -17.891373 14.540812 -0.97203749 119.10581 -0.95086002 119.36958 -17.358574 31.050859
29600000000 -18.334242 9.3665867 -1.0037279 117.17612 -0.97611886 117.18645 -19.587179 36.85257
29700000000 -18.485363 7.7463388 -0.98299909 115.13008 -0.99001896 115.27668 -20.421249 17.452013
29800000000 -17.740185 0.96831185 -1.0152601 112.85742 -1.00058 113.0242 -21.33457 5.3164902
29900000000 -17.73098 0.10243431 -0.99537081 111.12256 -0.97401536 111.08337 -17.48542 -6.4480534
30000000000 -16.501333 3.3090389 -0.99897695 108.94014 -1.002937 108.94215 -17.21944 4.271873
30100000000 -16.749247 2.7103114 -0.99067354 107.16496 -0.97899067 107.29174 -16.116926 9.0790796
30200000000 -16.836998 2.3598011 -1.004878 105.23478 -1.0010884 105.18367 -17.539261 21.415062
30300000000 -18.213936 -5.4771671 -0.98151326 103.11314 -0.97819072 103.21584 -18.290398 13.42892
30400000000 -18.587643 -8.2322235 -0.98412079 101.04331 -0.97088206 101.15917 -21.562376 4.4705076
30500000000 -17.861151 -14.650225 -1.0085627 99.032494 -0.97198826 99.145622 -18.662533 -6.1107183
30600000000 -17.336285 -16.116945 -0.99479496 97.172401 -0.94106823 97.117493 -18.880024 -11.961011
30700000000 -17.622663 -16.539913 -0.97554141 95.114807 -0.95742017 95.241768 -17.096582 -7.0500832
30800000000 -17.482166 -10.752078 -1.013839 93.16877 -0.97127634 93.176422 -18.319887 1.4885699
30900000000 -17.936291 -14.528187 -1.0033303 91.032341 -1.0038763 91.296974 -17.95256 -2.9102097
31000000000 -17.911806 -13.343106 -1.0168089 88.970398 -0.99500751 88.98761 -20.010256 -5.3314385
31100000000 -19.394548 -26.268793 -0.99350941 86.740677 -0.97228843 86.856331 -20.089006 -18.781134
31200000000 -18.637383 -31.124752 -0.97158289 84.701469 -0.94807112 84.750183 -18.030499 -26.567772
31300000000 -17.941019 -34.976517 -0.9568271 82.641647 -0.94319475 82.835907 -19.070221 -24.406713
31400000000 -16.912519 -26.507215 -0.95835644 80.847336 -0.96359116 80.827461 -17.562271 -22.126532
31500000000 -17.632099 -24.090544 -0.97419578 78.909996 -0.95419365 79.123375 -17.982164 -11.36571
31600000000 -19.37134 -17.856571 -0.97167647 76.960213 -0.9876793 76.980225 -20.038979 -17.640509
31700000000 -20.592407 -26.086838 -0.96869981 74.874847 -0.96866846 74.940331 -20.239906 -20.161922
31800000000 -19.942753 -37.680565 -1.0116367 72.629791 -0.94221932 72.574883 -21.052364 -39.511784
31900000000 -17.713715 -45.518143 -0.95527631 70.561684 -0.93256789 70.56797 -18.862854 -41.486336
32000000000 -18.088266 -40.225548 -0.9500668 68.502342 -0.9598828 68.633522 -18.408699 -43.367603
32100000000 -18.374407 -27.926245 -0.95429915 66.570206 -0.93781495 66.722359 -17.052992 -32.62878
32200000000 -20.896193 -24.782352 -0.92989498 64.499519 -0.95389056 64.735954 -19.274908 -28.805845
32300000000 -21.910315 -27.372561 -0.96558487 62.60714 -0.96046114 62.724033 -19.350048 -27.317282
32400000000 -21.689653 -51.33643 -0.95340627 60.350883 -0.96466774 60.641159 -24.943874 -26.560398
32500000000 -20.683136 -50.759727 -0.9370119 58.326305 -0.95402086 58.610737 -23.438789 -61.076653
32600000000 -20.153971 -52.194351 -0.95987087 56.362511 -0.96236813 56.523029 -21.671259 -69.358505
32700000000 -20.849316 -27.405737 -0.97931731 54.413673 -0.9173516 54.288773 -19.420673 -67.760666
32800000000 -20.916042 -36.560165 -0.94470102 52.332615 -0.94548166 52.313534 -17.90053 -54.401154
32900000000 -24.64094 -34.129013 -0.97102219 50.013855 -0.9206267 50.393997 -19.693594 -41.390865
33000000000 -24.417923 -53.779392 -0.94353509 48.172009 -0.96048957 48.302967 -22.019161 -33.436821
33100000000 -23.916481 -56.030228 -0.97337818 46.220367 -0.96337169 46.361404 -29.783731 -41.36227
33200000000 -22.820257 -50.666656 -0.93457216 44.20887 -0.95523083 44.041416 -23.806324 -88.01371
33300000000 -24.225592 -50.385918 -0.94021088 42.207855 -0.95733368 42.049309 -24.426424 -91.992577
33400000000 -25.149523 -39.737793 -0.8932274 40.035332 -0.93274504 40.001614 -20.29311 -77.078964
33500000000 -25.997242 -45.010925 -0.90237486 38.007641 -0.90900511 38.030159 -21.907854 -73.31752
33600000000 -26.069019 -43.963253 -0.90320021 35.957279 -0.94419616 36.006226 -22.664261 -67.165718
33700000000 -25.423183 -53.601135 -0.93303865 34.101192 -0.91653603 34.049644 -25.591143 -59.532402
33800000000 -26.318428 -56.319721 -0.93186015 31.937559 -0.93241102 31.908018 -27.73572 -88.29438
33900000000 -29.347563 -66.328636 -0.94226271 29.549601 -0.95966101 29.632919 -24.099447 -95.316307
34000000000 -27.919529 -49.824146 -0.94934392 27.673943 -0.92389464 27.675976 -26.994644 -71.432549
34100000000 -28.394598 -57.097549 -0.95542437 25.434948 -0.915479 25.487597 -25.056715 -90.833336
34200000000 -27.072046 -26.493462 -0.95209235 23.85256 -0.92346138 23.748558 -26.911039 -26.182922
34300000000 -29.874811 -35.917095 -0.96600199 21.331425 -0.94240069 21.46632 -29.858803 -108.37401
34400000000 -29.52182 -19.541357 -0.96635348 19.538067 -0.96184027 19.550003 -37.121681 -91.084969
34500000000 -32.698914 -51.550385 -0.99816513 17.206015 -0.97730297 17.352007 -27.927807 -110.6834
34600000000 -33.236996 -25.035992 -0.99566996 15.303343 -0.99402064 15.42997 -27.645744 -74.512756
34700000000 -31.964493 -16.497894 -0.97948176 13.296304 -0.96972495 13.147202 -27.209467 -58.684685
34800000000 -31.617044 34.193081 -0.98619348 11.253394 -0.96240467 11.171138 -29.084301 6.5274372
34900000000 -31.892643 28.433891 -0.9885906 9.2314787 -0.95338535 9.0114183 -29.37155 57.513931
35000000000 -29.417255 48.372887 -0.99077988 7.0854449 -0.94987416 7.1289902 -24.008095 98.820915
35100000000 -26.550488 18.169764 -0.99861628 4.8760881 -0.97841865 4.9949555 -28.865154 140.71115
35200000000 -26.043293 29.841558 -1.0044063 2.8860528 -0.98667526 3.2234087 -28.778843 160.66629
35300000000 -25.866922 26.691637 -1.0365052 0.65458882 -1.055043 0.90074319 -32.057774 -38.82156
35400000000 -25.298409 54.410484 -1.0159593 -0.9367975 -1.0091188 -0.86694682 -30.948011 -5.5490756
35500000000 -22.706902 43.133484 -1.0353739 -3.003557 -1.0437232 -2.8815527 -27.244904 47.463711
35600000000 -26.109423 56.088818 -1.0441906 -4.9399009 -0.99053794 -5.1389928 -22.487089 74.946808
35700000000 -25.718622 46.34676 -1.027081 -7.0648985 -0.97955406 -6.932303 -24.641863 91.640923
35800000000 -24.024948 38.274288 -0.98714375 -9.0346193 -1.0313635 -9.0460424 -25.214264 105.25114
35900000000 -21.826147 41.555954 -0.97735423 -11.365303 -1.0097586 -11.484066 -26.297586 125.62605
36000000000 -21.252371 32.752293 -0.97176844 -13.174435 -1.036271 -13.116344 -25.892065 56.464531
36100000000 -19.437925 43.157108 -1.0193886 -15.477504 -1.0681132 -15.549132 -23.832569 65.199631
36200000000 -20.216192 42.679085 -1.0699128 -17.639059 -1.0378237 -17.293547 -21.740974 67.463051
36300000000 -20.234266 50.885159 -1.0643688 -19.791567 -1.0243224 -19.777294 -21.939266 79.314445
36400000000 -22.119879 50.595596 -1.0161942 -21.971851 -1.0602344 -21.943396 -24.673126 87.452454
36500000000 -23.402189 21.523468 -1.0533235 -24.338367 -1.0498582 -24.040764 -28.090012 72.042984
36600000000 -20.659927 10.627327 -0.94028157 -25.902765 -0.97719795 -25.891857 -21.168535 20.885006
36700000000 -18.075348 24.098402 -1.065167 -27.4744 -1.0780476 -27.538784 -21.858301 30.36907
36800000000 -16.776819 30.981161 -1.0751193 -29.096272 -1.0540844 -29.164021 -16.650505 39.182613
36900000000 -17.343634 48.85482 -1.1040505 -31.506144 -1.0987822 -31.806894 -18.308296 58.011379
37000000000 -19.152925 41.911762 -1.1604253 -34.069466 -1.102487 -33.854256 -18.746557 71.523216
37100000000 -24.545494 24.185699 -1.1118457 -36.447266 -1.0941013 -36.638184 -24.454443 64.732101
37200000000 -19.620062 13.302818 -1.0785027 -38.571766 -1.0811049 -38.501354 -24.850845 25.881144
37300000000 -16.511061 16.075073 -0.99484217 -40.801128 -1.0234128 -40.620094 -19.027809 -5.0534372
37400000000 -14.83434 19.724051 -1.0469365 -42.41375 -0.99342746 -42.048088 -15.87251 10.181209
37500000000 -16.211039 32.174587 -1.0861979 -44.438248 -1.0826102 -43.976242 -15.438651 19.272396
37600000000 -17.458374 35.054909 -1.1091841 -45.859386 -1.0933967 -45.740379 -14.660453 38.798981
37700000000 -18.633656 22.709639 -1.1646129 -48.10136 -1.1675762 -47.978085 -15.86546 49.332767
37800000000 -16.968313 8.8643494 -1.1302083 -50.237965 -1.1256652 -50.412514 -19.781298 40.290554
37900000000 -15.601596 3.8673787 -1.1718392 -52.330074 -1.1785794 -52.451591 -22.617208 37.061489
38000000000 -15.083205 15.292067 -1.14494 -54.468113 -1.1433425 -54.397285 -17.715885 -8.5622025
38100000000 -15.529212 18.163544 -1.1557559 -56.138313 -1.1356146 -55.820843 -15.205544 6.5618067
38200000000 -15.892076 18.875998 -1.1446664 -58.590355 -1.1593359 -58.499435 -13.425783 5.6638498
38300000000 -14.972687 8.2249298 -1.1727734 -60.197723 -1.1602697 -60.225338 -12.854892 30.125595
38400000000 -15.495983 -1.3379276 -1.1199692 -62.452114 -1.1078644 -61.875416 -15.029141 40.584232
38500000000 -15.112906 -0.93258947 -1.1696645 -64.004211 -1.1970959 -64.281448 -17.367912 30.710236
38600000000 -14.250817 8.8563833 -1.1437899 -66.25988 -1.1445491 -65.894615 -17.527319 7.8918066
38700000000 -13.657815 2.9215691 -1.1792386 -68.007751 -1.1653349 -67.958412 -16.31008 -7.5747671
38800000000 -14.863609 1.7254478 -1.179943 -69.608299 -1.1946348 -69.984428 -13.075336 4.930017
38900000000 -14.384452 3.7817605 -1.169696 -72.167458 -1.1479536 -71.934242 -14.088752 12.134273
39000000000 -14.707785 -1.1645166 -1.1940452 -73.934669 -1.1956533 -73.982605 -13.233425 18.897705
39100000000 -14.861132 -5.2865949 -1.1759835 -76.447372 -1.1941847 -75.950676 -18.268948 16.049223
39200000000 -15.252817 -14.015973 -1.1835896 -77.984245 -1.1804131 -77.965225 -15.991466 1.1348315
39300000000 -13.37665 -12.2933 -1.1778287 -80.513214 -1.1561086 -79.950668 -15.356897 -23.020611
39400000000 -13.46541 -4.0714297 -1.1968858 -82.102585 -1.2418118 -82.138977 -12.334678 -8.0690861
39500000000 -13.539617 5.7345405 -1.2417849 -84.176636 -1.2454745 -84.103844 -13.374086 -3.6698735
39600000000 -15.305497 -6.14399 -1.2538928 -85.877327 -1.2237711 -85.994255 -12.510734 11.491757
39700000000 -17.006493 -21.345509 -1.1925747 -88.421539 -1.1636423 -88.293793 -18.083649 16.982668
39800000000 -15.005796 -30.799967 -1.120126 -90.331635 -1.1860298 -89.893967 -17.154785 -10.488235
39900000000 -13.132972 -16.901987 -1.1577331 -92.572914 -1.1736379 -91.907867 -17.370556 -42.9007
40000000000 -13.044999 -15.686117 -1.1272367 -94.165985 -1.1034554 -94.484688 -12.231936 -36.104244
40100000000 -14.155046 0.033929445 -1.1581876 -96.498955 -1.2044377 -96.276756 -11.534353 -22.629036
40200000000 -15.542539 -4.9005446 -1.1891776 -98.304375 -1.2167871 -97.910927 -11.692985 -9.5272894
40300000000 -18.34026 -26.419556 -1.1364126 -100.7058 -1.2179776 -100.31534 -13.250028 -5.0821657
40400000000 -15.006842 -37.024372 -1.1705395 -102.47717 -1.1557961 -102.59103 -18.616161 -3.7304368
40500000000 -13.667351 -27.846022 -1.1559836 -104.31437 -1.1858723 -104.06248 -18.469015 -37.151012
40600000000 -12.423419 -20.917614 -1.1492875 -106.21783 -1.1288286 -105.95992 -15.469404 -44.759876
40700000000 -15.437722 -14.465222 -1.2218312 -108.89533 -1.2047536 -108.5391 -13.474379 -48.192184
40800000000 -14.900335 -17.364971 -1.1955087 -110.21344 -1.103948 -109.93369 -11.98472 -29.473845
40900000000 -15.621572 -35.669449 -1.1328992 -112.36847 -1.0872936 -112.43156 -13.344754 -15.168515
41000000000 -13.803345 -46.004906 -1.111528 -114.51314 -1.0908862 -114.35962 -13.376451 -18.935354
41100000000 -14.906436 -41.601643 -1.2355752 -116.40292 -1.2446035 -116.06129 -17.900137 -31.001945
41200000000 -13.72191 -25.284422 -1.1449383 -118.10123 -1.1760361 -117.90295 -16.180935 -32.850441
41300000000 -14.704077 -32.910091 -1.2037272 -119.8979 -1.1963853 -120.03597 -16.081209 -47.009445
41400000000 -16.342089 -29.893997 -1.1674563 -121.87514 -1.0973685 -122.2561 -13.347888 -38.668358
41500000000 -15.660497 -40.717194 -1.1702355 -124.02161 -1.1305003 -124.01419 -13.14297 -43.766399
41600000000 -14.098943 -39.205933 -1.1867176 -126.27363 -1.171307 -126.22937 -14.025932 -31.853493
41700000000 -14.457368 -47.184116 -1.2091686 -128.4351 -1.2008353 -128.17905 -14.752353 -45.241131
41800000000 -15.616461 -44.567333 -1.2055658 -130.00459 -1.1485367 -130.10364 -15.202123 -39.908871
41900000000 -15.736917 -46.924873 -1.1559103 -132.10487 -1.1753962 -132.13635 -15.809917 -57.822197
42000000000 -14.923096 -47.617561 -1.1022681 -134.01132 -1.1632632 -134.35809 -14.611512 -51.199184
42100000000 -13.576868 -45.17263 -1.226832 -136.31023 -1.1216637 -135.93539 -14.612265 -59.197052
42200000000 -15.565603 -46.980896 -1.0827581 -138.49364 -1.1212877 -138.27628 -14.076108 -43.557152
42300000000 -16.767881 -39.216953 -1.165189 -140.11159 -1.1081082 -139.81955 -14.522097 -58.148632
42400000000 -19.296673 -57.051579 -1.0268433 -142.31335 -1.1013227 -142.04524 -17.563099 -44.635658
42500000000 -15.441019 -65.361038 -1.0580028 -144.18655 -1.0352103 -144.533 -19.735836 -67.148033
42600000000 -14.236736 -67.158699 -1.1006508 -146.34607 -1.1323723 -146.17746 -19.281864 -65.416168
42700000000 -15.500483 -47.300362 -1.064859 -148.80067 -1.0878996 -148.82919 -14.915726 -88.313438
42800000000 -16.711866 -38.784954 -1.1602119 -150.72908 -1.0637202 -150.19409 -16.277941 -79.584213
42900000000 -20.724276 -21.416109 -1.0884377 -152.85742 -1.0826043 -152.37563 -14.646893 -62.471199
43000000000 -22.516563 -60.938301 -1.1126095 -155.33582 -1.0973679 -155.01517 -14.452009 -54.96085
43100000000 -19.672094 -97.663124 -1.0712887 -157.63538 -1.0534284 -157.07883 -20.179281 -25.08066
43200000000 -16.281691 -81.362114 -1.0680618 -159.29083 -1.0321616 -159.44957 -23.194361 -51.831837
43300000000 -16.358284 -52.11237 -1.1245865 -161.46916 -1.1232932 -160.86324 -24.009813 -108.52464
43400000000 -17.573498 -33.476875 -1.0430024 -163.06042 -0.96837497 -162.89964 -18.468248 -91.170387
43500000000 -19.175179 -17.351664 -1.0630833 -164.7776 -1.1768347 -164.82184 -16.25021 -101.28957
43600000000 -26.539543 -36.071911 -1.0720328 -167.04156 -1.0357968 -166.80034 -16.017733 -70.809769
43700000000 -28.029053 -85.790611 -1.0656785 -169.63419 -1.1256419 -169.33369 -17.543518 -58.798054
43800000000 -21.042643 -93.234177 -1.0554658 -172.32312 -1.0810727 -171.7417 -21.628336 -32.246967
43900000000 -21.933157 -68.807304 -1.0523243 -173.60501 -1.0495667 -173.18591 -37.605694 -109.78824
44000000000 -19.989853 -37.671215 -1.1520962 -175.43855 -0.99307245 -175.40521 -27.474493 -115.59064
44100000000 -22.782553 -22.873911 -1.0963845 -177.85915 -1.1092356 -177.32115 -20.434978 -93.844994
44200000000 -20.880337 11.348595 -1.0235298 179.51921 -1.1087701 -179.95847 -21.577085 -103.28777
44300000000 -30.529968 -53.643818 -1.0510857 177.96922 -1.1049298 178.25212 -22.111166 -55.033924
44400000000 -30.332512 -90.228767 -1.0878091 176.30791 -1.136656 176.6951 -25.755737 -29.176498
44500000000 -23.469368 -93.698875 -1.1454248 173.7639 -1.0893863 174.37331 -31.906929 -77.029221
44600000000 -23.385546 -41.663242 -1.1355114 171.7718 -1.001047 171.90326 -28.470119 111.4775
44700000000 -19.468668 -26.614717 -1.143742 169.79839 -1.0822117 169.73457 -26.006277 -119.32433
44800000000 -27.195393 27.688038 -1.0572592 167.68636 -1.1042931 167.58849 -24.090691 -39.938931
44900000000 -29.517731 19.104084 -1.1201642 165.47992 -1.0690929 165.88901 -23.65992 -43.605934
45000000000 -28.305019 57.618793 -1.1454003 163.94775 -1.1576279 164.10521 -21.392036 28.804043
