!Keysight Technologies,N5247B,MY61255062,A.19.80.06
!Date: Monday, May 18, 2026 13:05:47
!Correction: S11(Cdelta 2-Port  ) 
!S21(Cdelta 2-Port  ) 
!S12(Cdelta 2-Port  ) 
!S22(Cdelta 2-Port  ) 
!S2P File: Measurements: S11, S21, S12, S22:
# Hz S  dB   R 50
1000000000 -26.968052 -16.77611 -0.40725201 -21.272984 -0.40220818 -21.25551 -27.290306 -18.727997
1100000000 -26.891541 -19.277964 -0.41771805 -23.334564 -0.41348681 -23.324026 -27.302845 -20.598558
1200000000 -26.810362 -21.155111 -0.42499921 -25.367001 -0.42301476 -25.346807 -27.252943 -21.897415
1300000000 -26.834322 -23.033546 -0.43121409 -27.44269 -0.42928228 -27.437336 -27.125921 -24.416742
1400000000 -26.691692 -25.27174 -0.43666184 -29.474682 -0.43091452 -29.454201 -27.094826 -26.081892
1500000000 -26.689278 -28.07888 -0.43912363 -31.533224 -0.43423405 -31.521797 -26.88624 -28.294815
1600000000 -26.601326 -30.26227 -0.44180232 -33.607288 -0.43674201 -33.583855 -26.74872 -31.70775
1700000000 -26.557621 -33.1492 -0.4442203 -35.66671 -0.4372716 -35.646843 -26.638062 -33.640079
1800000000 -26.400204 -35.528065 -0.44722664 -37.739502 -0.44029117 -37.725044 -26.562176 -36.184948
1900000000 -26.342449 -38.450771 -0.4499718 -39.813084 -0.44313914 -39.812805 -26.462679 -39.15802
2000000000 -26.371048 -40.96452 -0.45473912 -41.87907 -0.4491685 -41.898937 -26.357754 -42.082165
2100000000 -26.329966 -43.760166 -0.45672432 -43.962452 -0.45322031 -43.945496 -26.311172 -44.663177
2200000000 -26.434973 -46.876118 -0.46011403 -46.031868 -0.45491418 -46.022518 -26.199398 -47.803646
2300000000 -26.42865 -49.577007 -0.46378058 -48.111519 -0.45994914 -48.101402 -26.217293 -50.180737
2400000000 -26.388147 -52.432621 -0.46783799 -50.176815 -0.46447682 -50.175262 -26.177019 -52.430222
2500000000 -26.328064 -54.530018 -0.47375423 -52.25972 -0.47041675 -52.258549 -26.096178 -55.331558
2600000000 -26.32752 -58.057148 -0.47868419 -54.356838 -0.4756346 -54.323479 -26.203978 -58.414768
2700000000 -26.478247 -60.911766 -0.48820639 -56.406174 -0.48293954 -56.38736 -26.22884 -62.431427
2800000000 -26.598972 -64.069061 -0.49526441 -58.458687 -0.48980209 -58.44313 -26.196552 -65.269508
2900000000 -26.787886 -66.990463 -0.49733642 -60.518925 -0.49503317 -60.500431 -26.009274 -68.139366
3000000000 -26.710733 -68.792213 -0.50093722 -62.55616 -0.49674925 -62.541401 -26.131649 -70.250816
3100000000 -26.871031 -71.838135 -0.50418454 -64.611092 -0.5002389 -64.600281 -26.074965 -71.87944
3200000000 -26.772608 -73.943436 -0.50728017 -66.660316 -0.50154442 -66.651634 -26.267925 -74.588127
3300000000 -26.866226 -78.500206 -0.5116449 -68.73661 -0.50439566 -68.707932 -26.17915 -77.603645
3400000000 -27.100136 -81.605804 -0.51453364 -70.791611 -0.51032001 -70.799393 -26.296131 -81.797997
3500000000 -27.075233 -84.595268 -0.52243304 -72.849388 -0.51506287 -72.824013 -26.25614 -83.699959
3600000000 -27.107271 -87.260643 -0.52323306 -74.883904 -0.51846957 -74.861366 -26.234362 -86.712769
3700000000 -26.983507 -90.516861 -0.5263992 -76.929077 -0.51919186 -76.902161 -26.131533 -87.801476
3800000000 -27.181166 -93.680893 -0.524804 -78.988869 -0.52032918 -78.978806 -26.063442 -90.989815
3900000000 -27.1336 -95.539581 -0.52697664 -81.065987 -0.52105582 -81.05468 -26.271658 -93.589272
4000000000 -27.255941 -99.076866 -0.53160232 -83.164688 -0.52668035 -83.143921 -26.351814 -97.315483
4100000000 -27.307854 -100.65018 -0.53884614 -85.222092 -0.53512597 -85.212852 -26.561874 -99.33947
4200000000 -27.447742 -104.05244 -0.54546869 -87.241364 -0.54133987 -87.233635 -26.30374 -102.1666
4300000000 -27.656115 -106.52266 -0.54922891 -89.254456 -0.54410267 -89.257004 -26.359083 -105.10201
4400000000 -27.824858 -110.18754 -0.54995924 -91.311668 -0.54356337 -91.30368 -26.49332 -107.434
4500000000 -27.98094 -113.39893 -0.54981142 -93.360619 -0.54543906 -93.358261 -26.643126 -110.38786
4600000000 -28.03203 -117.16885 -0.55051839 -95.434196 -0.55036235 -95.4188 -26.675201 -113.16592
4700000000 -28.167963 -121.12518 -0.55368716 -97.481209 -0.54803139 -97.490128 -26.55558 -116.87391
4800000000 -28.383429 -124.44157 -0.55479324 -99.548393 -0.55381274 -99.536346 -26.626944 -119.43517
4900000000 -28.462372 -127.52206 -0.56030411 -101.61335 -0.55630362 -101.59274 -26.484308 -121.87519
5000000000 -28.646225 -129.83424 -0.5604375 -103.67065 -0.55798519 -103.63364 -26.645243 -122.91782
5100000000 -28.773199 -131.5909 -0.56735116 -105.72064 -0.56096476 -105.69154 -26.807125 -124.67631
5200000000 -28.918106 -135.53918 -0.56587827 -107.78069 -0.56125015 -107.76989 -27.255486 -128.22075
5300000000 -28.926102 -139.40726 -0.56784618 -109.84354 -0.56573051 -109.81094 -27.323498 -132.79102
5400000000 -28.970919 -145.1819 -0.57220697 -111.89893 -0.56807071 -111.88857 -27.359556 -138.16727
5500000000 -29.264767 -148.58467 -0.57567418 -113.95547 -0.5721733 -113.94088 -27.013767 -140.74884
5600000000 -29.214243 -152.52196 -0.57979345 -116.02007 -0.57816607 -115.98877 -26.881628 -142.6499
5700000000 -29.613853 -153.49915 -0.5839048 -118.05639 -0.57888681 -118.03063 -26.993168 -141.04738
5800000000 -29.473713 -156.95296 -0.58394742 -120.10356 -0.57701439 -120.06511 -27.425762 -143.45372
5900000000 -29.803528 -161.4478 -0.58740413 -122.14348 -0.58252066 -122.12733 -28.099525 -146.89241
6000000000 -29.588007 -165.10312 -0.58773017 -124.1688 -0.58233035 -124.16734 -28.228985 -155.25734
6100000000 -29.807009 -171.95772 -0.58687073 -126.23293 -0.58248341 -126.20792 -28.156326 -161.19691
6200000000 -30.117512 -174.72479 -0.58644259 -128.28162 -0.58065557 -128.28162 -27.711411 -163.33391
6300000000 -30.271074 178.5419 -0.58727729 -130.37758 -0.58203882 -130.35457 -27.836052 -162.45012
6400000000 -30.592365 175.57619 -0.5925827 -132.42401 -0.58839583 -132.41197 -27.832155 -162.98267
6500000000 -30.187143 170.43613 -0.59331381 -134.50153 -0.58809882 -134.49266 -28.928221 -168.41455
6600000000 -30.302505 166.23064 -0.59978312 -136.56409 -0.59532154 -136.55508 -29.50919 -173.82678
6700000000 -30.270674 161.99086 -0.6056686 -138.59891 -0.60017008 -138.59784 -29.344473 178.63472
6800000000 -31.189924 160.59442 -0.60566801 -140.65714 -0.60275668 -140.64554 -28.936468 177.03409
6900000000 -31.34218 159.9761 -0.6077916 -142.71042 -0.60223925 -142.70145 -29.047985 176.91364
7000000000 -31.912079 155.47838 -0.61227679 -144.79663 -0.61004764 -144.78474 -29.492739 178.68616
7100000000 -31.481991 152.61076 -0.62603992 -146.82495 -0.62288964 -146.8031 -30.167074 174.4256
7200000000 -31.227129 143.19247 -0.61922425 -148.77939 -0.61403203 -148.75468 -30.782862 165.1765
7300000000 -31.309452 138.15898 -0.6117999 -150.86478 -0.60529244 -150.86563 -30.258497 156.0224
7400000000 -31.535059 132.65372 -0.61083084 -152.96504 -0.60872841 -152.97054 -29.860031 156.02669
7500000000 -32.055962 128.84343 -0.61640108 -155.04341 -0.61109871 -155.0257 -29.768219 158.22035
7600000000 -32.573399 124.67748 -0.61557567 -157.10643 -0.61394054 -157.06818 -30.691887 159.95638
7700000000 -32.667671 121.63324 -0.62061292 -159.14838 -0.61503822 -159.12828 -32.354595 154.48524
7800000000 -32.419201 119.93633 -0.61985034 -161.22433 -0.61705595 -161.20343 -33.258926 139.13051
7900000000 -31.899403 116.39036 -0.62321115 -163.27666 -0.61992407 -163.25871 -31.999393 127.58284
8000000000 -31.839008 108.99162 -0.62673426 -165.34015 -0.62235367 -165.32426 -30.740108 127.76798
8100000000 -32.060135 103.88413 -0.62674475 -167.41776 -0.62466687 -167.38472 -30.727663 133.87477
8200000000 -32.444153 98.168579 -0.62903333 -169.47192 -0.62336355 -169.45113 -32.139393 140.37895
8300000000 -32.708782 97.997681 -0.63189948 -171.53773 -0.62751424 -171.51785 -35.489967 131.00049
8400000000 -31.88448 95.139755 -0.63554263 -173.6378 -0.63019711 -173.61356 -34.867924 94.632004
8500000000 -31.319847 89.271759 -0.65482366 -175.76276 -0.6500662 -175.75272 -29.840038 86.583702
8600000000 -31.503654 81.240791 -0.71635199 -177.87949 -0.71187156 -177.81392 -25.295835 99.602867
8700000000 -30.278212 88.576553 -0.7405358 -178.84476 -0.73880291 -178.79497 -20.770309 99.489418
8800000000 -30.961954 72.276108 -0.57787657 178.80171 -0.57166392 178.82103 -21.884888 93.397179
8900000000 -31.867914 74.111877 -0.60664845 176.24049 -0.60194933 176.25386 -25.237856 105.50905
9000000000 -31.784853 70.582298 -0.63272411 174.14221 -0.62994361 174.14684 -29.03229 124.61497
9100000000 -31.821695 61.752457 -0.64584249 172.07059 -0.64142817 172.11296 -34.562073 131.84546
9200000000 -32.182976 59.873936 -0.64804143 170.03079 -0.64590979 170.06412 -42.980019 86.689507
9300000000 -31.770786 56.762875 -0.65496814 167.99951 -0.65156192 168.02017 -35.453159 44.436447
9400000000 -31.870586 57.638321 -0.65807855 165.97208 -0.65546453 165.99632 -32.530945 45.414761
9500000000 -31.572763 53.17347 -0.65879518 163.93471 -0.65629995 163.95386 -31.500889 57.462257
9600000000 -32.01775 46.720253 -0.66217124 161.88799 -0.65890336 161.90106 -32.984058 64.824585
9700000000 -31.941387 41.475639 -0.66125059 159.82149 -0.65740752 159.84871 -34.808029 62.550041
9800000000 -31.980495 36.62458 -0.66551644 157.74341 -0.66078943 157.76697 -35.856327 40.278873
9900000000 -31.813122 37.798569 -0.67013806 155.67683 -0.66270792 155.70631 -33.860081 26.531286
10000000000 -31.420927 34.861179 -0.67328596 153.61833 -0.66738784 153.65215 -31.997869 23.383511
10100000000 -31.370049 31.179777 -0.67501706 151.55704 -0.66910607 151.60692 -31.357525 32.428493
10200000000 -31.173485 24.363239 -0.67933464 149.50282 -0.67343831 149.52655 -32.235939 35.187313
10300000000 -31.437305 18.610977 -0.68023735 147.41895 -0.68036145 147.47859 -34.226559 33.686363
10400000000 -31.703199 16.280573 -0.68870783 145.3669 -0.68258762 145.39259 -35.460297 12.014038
10500000000 -32.12735 14.773952 -0.69048822 143.30504 -0.68702704 143.3371 -34.10997 -7.6358175
10600000000 -32.002838 15.250716 -0.69469631 141.26683 -0.6886214 141.33716 -31.472551 -10.824373
10700000000 -31.55657 9.573061 -0.69834602 139.24675 -0.69551778 139.29041 -30.253363 -7.0709238
10800000000 -31.252914 5.9288974 -0.70390159 137.21419 -0.69679463 137.25931 -29.801863 -2.0713615
10900000000 -30.75589 0.75757599 -0.70596349 135.18253 -0.70068699 135.22919 -30.637051 2.5223985
11000000000 -31.498135 -3.3440764 -0.70770955 133.13875 -0.70392287 133.1727 -31.606401 -1.6796222
11100000000 -31.876709 -4.8310246 -0.71173739 131.12401 -0.70797402 131.14151 -32.757477 -12.881955
11200000000 -32.345829 -8.395896 -0.71348393 129.05969 -0.71088386 129.10204 -32.074501 -24.896301
11300000000 -31.876211 -9.9689417 -0.71433395 127.03554 -0.71394402 127.06589 -31.282707 -30.747387
11400000000 -31.520035 -15.737864 -0.71685237 125.00357 -0.71197158 125.05023 -29.862337 -34.998249
11500000000 -31.587673 -19.44965 -0.71684903 122.99162 -0.71285027 123.01221 -29.509464 -36.039688
11600000000 -31.884995 -24.685928 -0.71855426 120.94951 -0.71365017 120.9727 -29.519735 -33.400764
11700000000 -32.115635 -27.162489 -0.71943521 118.90002 -0.71597528 118.95644 -29.800722 -35.128174
11800000000 -32.612423 -30.137156 -0.71857166 116.88373 -0.71573049 116.91074 -30.001974 -37.666271
11900000000 -32.61021 -33.4571 -0.71961057 114.84125 -0.71698427 114.86048 -30.347208 -43.490631
12000000000 -32.87466 -37.170185 -0.72124964 112.78565 -0.71992004 112.83675 -30.062365 -50.26506
12100000000 -32.774418 -42.188202 -0.72383964 110.75743 -0.71992159 110.80641 -30.024502 -56.592758
12200000000 -33.052158 -50.225548 -0.71965212 108.7391 -0.71889234 108.7691 -29.560749 -61.156025
12300000000 -33.44252 -52.39967 -0.72025281 106.70249 -0.71656322 106.72391 -29.263216 -63.596199
12400000000 -33.745872 -55.393024 -0.71989501 104.67033 -0.71511334 104.69344 -29.468758 -64.436195
12500000000 -34.293728 -53.161938 -0.71509165 102.62372 -0.71080917 102.64642 -29.699093 -67.804008
12600000000 -34.566189 -60.529308 -0.71047229 100.58401 -0.70683491 100.6208 -29.554926 -71.245293
12700000000 -35.172661 -63.064667 -0.70710057 98.508804 -0.70392621 98.556351 -29.716011 -76.920624
12800000000 -34.948959 -74.783379 -0.70419198 96.461479 -0.69902194 96.477234 -29.424582 -78.085358
12900000000 -35.325054 -78.019287 -0.70116401 94.37925 -0.69909614 94.414948 -29.946844 -82.150795
13000000000 -34.875259 -80.06041 -0.70208555 92.308098 -0.69886988 92.344673 -29.86426 -84.349541
13100000000 -36.952404 -84.743958 -0.70111382 90.229095 -0.69864702 90.262825 -29.810751 -91.996742
13200000000 -36.661774 -82.200478 -0.7005024 88.169403 -0.69754958 88.186028 -29.216677 -94.089203
13300000000 -37.898884 -93.593071 -0.69959664 86.090279 -0.69576693 86.096802 -28.378832 -96.62442
13400000000 -37.456703 -85.505638 -0.69991869 84.020493 -0.69734353 84.039253 -28.444275 -95.881416
13500000000 -38.104477 -99.324249 -0.70143169 81.957008 -0.69721192 81.968391 -28.819511 -95.133751
13600000000 -38.683708 -95.672272 -0.70335001 79.875603 -0.69787544 79.90493 -29.169598 -93.041573
13700000000 -38.530628 -105.43382 -0.70585388 77.787117 -0.70528108 77.809883 -29.512825 -100.04685
13800000000 -39.592556 -104.82597 -0.71259594 75.666161 -0.7093063 75.739143 -29.922853 -104.72395
13900000000 -37.892639 -108.02782 -0.72512639 73.558067 -0.72246158 73.62236 -28.767317 -110.64434
14000000000 -38.906479 -106.82664 -0.7469762 71.544159 -0.74131346 71.603447 -28.302197 -111.886
14100000000 -37.468742 -134.06891 -0.7542277 69.678322 -0.75121695 69.716011 -27.466122 -116.99912
14200000000 -39.398884 -158.00479 -0.7322523 67.723633 -0.73444605 67.753075 -28.351667 -118.36315
14300000000 -38.995766 -164.26117 -0.72134531 65.612289 -0.7172423 65.635635 -28.658495 -122.19975
14400000000 -40.46093 -179.21066 -0.71689206 63.495255 -0.71571004 63.532413 -29.229406 -121.62871
14500000000 -40.525402 -166.27678 -0.71993226 61.368336 -0.71779561 61.411018 -29.427336 -125.7141
14600000000 -42.160789 -170.36983 -0.73755473 59.260902 -0.7336427 59.321247 -30.142485 -126.91801
14700000000 -38.919884 -178.11327 -0.74964285 57.358536 -0.7421754 57.407196 -29.792114 -135.26886
14800000000 -37.573944 161.12184 -0.73348576 55.311153 -0.72964102 55.352531 -30.95396 -145.8273
14900000000 -37.462421 161.1042 -0.73030192 53.233017 -0.72758621 53.266994 -30.156639 -155.12613
15000000000 -36.466282 151.08801 -0.72944075 51.153339 -0.73089182 51.193722 -29.311987 -153.06584
15100000000 -38.174145 145.64272 -0.73663545 49.065933 -0.73353356 49.1189 -28.712608 -152.82359
15200000000 -36.266472 139.58018 -0.74442643 47.007515 -0.74285936 47.042442 -28.731575 -147.52184
15300000000 -37.201996 133.96414 -0.74095577 44.979942 -0.73541856 45.024776 -30.214777 -149.6347
15400000000 -34.78299 138.5192 -0.74036205 42.899445 -0.73651493 42.929344 -31.915709 -159.29259
15500000000 -35.993176 134.49898 -0.74637491 40.811459 -0.74005908 40.849045 -32.099297 -172.34659
15600000000 -33.970623 134.14101 -0.74939948 38.717018 -0.74807018 38.783787 -30.5366 173.20642
15700000000 -34.817932 114.51865 -0.75564975 36.684074 -0.75119144 36.713753 -29.011007 176.31796
15800000000 -33.589539 110.19381 -0.75740546 34.628704 -0.75821662 34.676311 -28.291931 179.80136
15900000000 -33.222057 98.816208 -0.76022649 32.581535 -0.75630385 32.642517 -28.619553 -175.539
16000000000 -32.88467 109.61063 -0.75979078 30.535376 -0.75624377 30.588078 -29.662868 -176.40974
16100000000 -32.263012 101.08761 -0.76706994 28.538603 -0.76221758 28.547491 -31.022669 -178.81786
16200000000 -32.790333 108.1951 -0.76575589 26.461477 -0.76777881 26.49402 -31.828987 164.4872
16300000000 -32.064697 94.751862 -0.77081007 24.422758 -0.76916611 24.479403 -31.417959 162.99303
16400000000 -32.902679 88.942497 -0.77933812 22.38946 -0.77600753 22.416574 -30.28793 151.67891
16500000000 -30.818077 80.615334 -0.78036815 20.31234 -0.77990347 20.365261 -29.54917 156.04301
16600000000 -30.895441 78.755524 -0.78129148 18.279705 -0.7812351 18.320581 -30.140646 152.41476
16700000000 -29.595669 82.629356 -0.78680217 16.237247 -0.78443635 16.277679 -30.69383 155.32585
16800000000 -30.392292 82.769897 -0.78625739 14.215275 -0.78558701 14.197929 -31.54541 144.67915
16900000000 -29.987461 84.322174 -0.79200828 12.168642 -0.7891494 12.16982 -32.032742 139.89812
17000000000 -30.718122 70.317337 -0.78929317 10.098808 -0.79462498 10.149081 -30.790533 130.94992
17100000000 -29.680376 66.233803 -0.79257649 8.0813885 -0.7921176 8.1162395 -30.924219 128.87285
17200000000 -28.453497 59.166424 -0.79996282 6.0198784 -0.79858029 6.0582452 -30.173897 127.99048
17300000000 -27.882633 67.502853 -0.79892188 4.0137992 -0.7986061 4.0347476 -31.391611 123.7843
17400000000 -27.50189 70.540894 -0.8026821 1.953267 -0.8009336 1.9832033 -31.293007 108.71362
17500000000 -28.296871 75.017349 -0.80872333 -0.098693825 -0.8036778 -0.043093987 -30.976749 96.832825
17600000000 -28.407803 64.651802 -0.81010813 -2.115025 -0.8032645 -2.0892408 -29.200691 95.266594
17700000000 -28.456623 56.903767 -0.8137247 -4.1530361 -0.80785924 -4.1042886 -27.938467 97.465614
17800000000 -26.660362 49.473957 -0.81654733 -6.2039275 -0.81186062 -6.1807551 -27.665049 104.78561
17900000000 -26.460194 52.664753 -0.81628615 -8.2525768 -0.80914211 -8.2151499 -29.060106 107.08613
18000000000 -26.223278 57.597469 -0.81625277 -10.293116 -0.81352895 -10.283765 -31.293861 101.74837
18100000000 -27.380808 60.259945 -0.81109738 -12.339831 -0.80878693 -12.312826 -32.370369 73.766724
18200000000 -27.519009 57.034805 -0.81593472 -14.355005 -0.81031024 -14.299824 -29.590397 60.108536
18300000000 -27.479733 46.217113 -0.81789184 -16.370995 -0.81347185 -16.336405 -27.008421 63.500145
18400000000 -26.085003 42.415627 -0.81965405 -18.443718 -0.81616622 -18.419212 -25.414948 73.353455
18500000000 -25.681633 38.347931 -0.81994951 -20.519855 -0.81970376 -20.462957 -25.968349 86.215706
18600000000 -25.559778 39.741447 -0.82098418 -22.599289 -0.81504744 -22.521189 -28.318834 93.541725
18700000000 -26.554291 37.891659 -0.80919671 -24.636847 -0.80909348 -24.601646 -32.823799 85.27269
18800000000 -26.824356 38.862144 -0.80608749 -26.678381 -0.80396622 -26.612364 -32.851078 35.861736
18900000000 -26.493828 33.507217 -0.8053863 -28.692453 -0.79883385 -28.610651 -28.526262 26.472343
19000000000 -26.185091 32.200672 -0.80377531 -30.711464 -0.80092084 -30.623991 -25.463009 37.901432
19100000000 -25.232599 27.760435 -0.80628258 -32.714104 -0.80686355 -32.654461 -25.303568 46.286251
19200000000 -25.188862 25.626251 -0.81359798 -34.754738 -0.80877537 -34.702499 -25.626139 62.470524
19300000000 -25.020296 24.006716 -0.80806756 -36.811413 -0.80640036 -36.775204 -29.104937 59.478237
19400000000 -25.285685 25.981489 -0.80744773 -38.878269 -0.80479926 -38.826946 -29.450274 46.565411
19500000000 -25.114204 26.579744 -0.80128688 -40.964851 -0.7990616 -40.897179 -29.200382 22.538036
19600000000 -25.437117 23.135128 -0.79917485 -43.015526 -0.79898942 -42.959682 -26.450893 22.30982
19700000000 -25.076056 18.620062 -0.79973745 -45.028297 -0.7995016 -44.999302 -25.488842 24.177759
19800000000 -24.537279 13.046483 -0.80692714 -47.105385 -0.80211633 -47.066105 -25.402704 34.059216
19900000000 -23.773836 13.531895 -0.80916208 -49.167339 -0.8025865 -49.117413 -25.991772 30.043114
20000000000 -23.765535 16.423353 -0.80914462 -51.263687 -0.80607563 -51.201923 -26.863232 26.238689
20100000000 -23.752346 20.022532 -0.80996245 -53.307716 -0.80722827 -53.27626 -25.970236 14.533004
20200000000 -24.417046 16.331938 -0.81691283 -55.397491 -0.81063032 -55.338825 -24.978851 12.414252
20300000000 -24.962168 8.3807726 -0.81904727 -57.416416 -0.81685382 -57.412338 -24.278564 16.20487
20400000000 -24.229063 -0.015909217 -0.8251977 -59.519176 -0.82068181 -59.465008 -25.015314 21.211777
20500000000 -23.5271 -2.6528573 -0.83095688 -61.569908 -0.83332342 -61.510685 -26.054697 20.700981
20600000000 -23.411833 -1.2197762 -0.84204185 -63.606281 -0.83532035 -63.549549 -27.335878 3.314707
20700000000 -24.342695 2.4098313 -0.84094465 -65.54866 -0.83225662 -65.519928 -26.16198 -10.567084
20800000000 -25.084856 2.2664223 -0.83891088 -67.547989 -0.82897949 -67.520981 -24.665739 -19.090826
20900000000 -25.701071 -2.3364332 -0.82314909 -69.542778 -0.819278 -69.526215 -23.500252 -10.587604
21000000000 -25.291889 -10.404902 -0.81271517 -71.582054 -0.80630314 -71.552849 -24.073879 -1.1684062
21100000000 -24.435312 -15.207623 -0.81046903 -73.659462 -0.8055976 -73.663498 -24.906898 3.903842
21200000000 -24.269165 -13.95541 -0.81909513 -75.835167 -0.81364572 -75.838074 -27.023874 4.516346
21300000000 -24.84705 -13.360975 -0.82568169 -77.985321 -0.81740588 -77.958344 -28.656122 -20.547543
21400000000 -25.685175 -9.7588148 -0.83375776 -79.958855 -0.83338988 -79.931633 -26.991974 -34.236294
21500000000 -26.668234 -15.789984 -0.81338072 -82.077347 -0.81335855 -82.001022 -25.2563 -45.486847
21600000000 -26.282436 -16.570736 -0.80838341 -84.087486 -0.79983145 -84.045052 -23.54495 -34.301781
21700000000 -25.181534 -24.572544 -0.80161786 -86.10865 -0.79747593 -86.082298 -22.861113 -23.916281
21800000000 -24.35565 -24.603645 -0.80248964 -88.137451 -0.80034965 -88.085617 -23.877295 -14.403563
21900000000 -24.318861 -24.165136 -0.81222332 -90.148529 -0.80931741 -90.109833 -24.86412 -12.413825
22000000000 -24.953238 -18.249502 -0.83419722 -92.305672 -0.82834136 -92.257446 -28.564211 -25.791693
22100000000 -25.733097 -21.199739 -0.84110582 -94.383148 -0.83645314 -94.343803 -26.664747 -50.636894
22200000000 -27.013123 -25.355854 -0.85535735 -96.360565 -0.84583741 -96.338776 -25.868704 -56.883228
22300000000 -26.638712 -32.608006 -0.83790302 -98.406929 -0.83381081 -98.400116 -23.215593 -49.721592
22400000000 -25.30974 -34.405357 -0.81988072 -100.40046 -0.82007521 -100.41206 -23.438004 -39.654591
22500000000 -24.341349 -34.576408 -0.81490284 -102.49883 -0.81508207 -102.47948 -23.571999 -27.556137
22600000000 -24.940414 -28.558792 -0.81875819 -104.44112 -0.81948215 -104.44688 -26.513662 -32.621086
22700000000 -26.07066 -21.156403 -0.81476259 -106.50296 -0.81586069 -106.50154 -27.362286 -42.398518
22800000000 -28.204966 -26.452755 -0.82530975 -108.61686 -0.81910104 -108.61373 -26.923603 -68.292877
22900000000 -28.284142 -39.595261 -0.82468563 -110.71529 -0.81667167 -110.69809 -24.5068 -60.138245
23000000000 -26.432039 -51.802567 -0.82976282 -112.79808 -0.82308906 -112.76003 -24.240328 -57.26405
23100000000 -25.376186 -47.740822 -0.81954151 -114.90391 -0.82348049 -114.88157 -24.257893 -40.958897
23200000000 -25.452579 -40.448162 -0.82765192 -116.96368 -0.82291287 -116.95528 -27.101759 -41.977783
23300000000 -27.206743 -26.690775 -0.82181394 -119.06218 -0.82547098 -119.02712 -31.402653 -54.195644
23400000000 -30.101015 -26.953058 -0.82569641 -121.10732 -0.82602233 -121.10128 -28.568523 -92.563103
23500000000 -33.247059 -43.896156 -0.83065283 -123.14395 -0.826388 -123.12273 -26.089815 -93.029121
23600000000 -30.477486 -65.736458 -0.83780473 -125.25275 -0.83358622 -125.19923 -23.288538 -80.414185
23700000000 -28.223494 -67.10778 -0.8384515 -127.26558 -0.83950883 -127.21227 -23.996819 -59.18264
23800000000 -27.519922 -63.166088 -0.84798706 -129.32733 -0.84602833 -129.29828 -26.973833 -46.873135
23900000000 -30.074839 -49.956795 -0.85034174 -131.40735 -0.85242999 -131.41104 -31.728859 -28.79353
24000000000 -32.759922 -33.113735 -0.8467049 -133.59265 -0.84375292 -133.53236 -34.011898 -151.21538
24100000000 -38.706642 -33.432415 -0.84139013 -135.63118 -0.84421194 -135.57683 -27.820265 -137.14394
24200000000 -39.31226 -63.103771 -0.84264588 -137.68121 -0.83586067 -137.58542 -25.232542 -119.87691
24300000000 -34.302761 -88.486023 -0.83268207 -139.71277 -0.8305065 -139.65648 -23.646347 -99.028671
24400000000 -31.538261 -73.764908 -0.83217132 -141.66238 -0.83623469 -141.59125 -25.547703 -74.858612
24500000000 -32.933144 -70.683907 -0.84467322 -143.66016 -0.8439799 -143.63858 -29.429182 -56.180393
24600000000 -37.151093 -35.933453 -0.85435349 -145.75534 -0.85356319 -145.73575 -41.513451 -26.387419
24700000000 -43.211983 5.3698516 -0.86476964 -147.84244 -0.86000663 -147.79918 -35.682915 165.10152
24800000000 -42.111401 83.631088 -0.85920304 -149.98122 -0.85930586 -149.95802 -28.946234 -173.94615
24900000000 -50.099045 -173.08485 -0.84995639 -151.98274 -0.84500116 -151.95966 -28.000517 -147.09021
25000000000 -48.838604 -101.5396 -0.84268671 -154.10242 -0.848894 -154.04727 -26.813072 -125.13686
25100000000 -39.612915 -69.82653 -0.84200794 -156.04333 -0.84330779 -155.99001 -31.235126 -99.059456
25200000000 -40.353661 5.826858 -0.85051244 -158.00334 -0.84634787 -157.97824 -36.077583 -88.622284
25300000000 -36.516243 30.804781 -0.86028528 -160.05841 -0.85580683 -160.00732 -42.397659 99.89579
25400000000 -33.057499 68.386147 -0.86836028 -162.13528 -0.86507255 -162.13509 -33.290222 164.96805
25500000000 -33.86887 74.31089 -0.87303871 -164.16838 -0.8634342 -164.16713 -33.676697 139.12262
25600000000 -37.296913 93.192207 -0.86679494 -166.32677 -0.86310077 -166.32358 -30.618082 178.36659
25700000000 -37.40329 74.457336 -0.86457628 -168.39774 -0.8612327 -168.40839 -38.795353 -174.394
25800000000 -34.872643 63.563908 -0.86485898 -170.39822 -0.86030865 -170.4113 -35.014557 159.37463
25900000000 -31.551611 49.030136 -0.85942072 -172.45242 -0.85662842 -172.44606 -42.15728 104.7644
26000000000 -30.69029 54.744339 -0.86450583 -174.48218 -0.86318445 -174.45311 -33.131351 98.598732
26100000000 -29.666723 60.60302 -0.87371737 -176.60385 -0.86440855 -176.55093 -33.948479 91.761673
26200000000 -28.891537 64.513008 -0.87823588 -178.67799 -0.87388957 -178.65892 -31.321777 86.706963
26300000000 -28.545725 65.619301 -0.89400142 179.32518 -0.88480175 179.33562 -30.522751 109.13665
26400000000 -28.698198 66.504852 -0.8960411 177.16151 -0.89059794 177.2498 -32.299995 84.536537
26500000000 -27.533819 64.179993 -0.89976978 175.16876 -0.89197892 175.21069 -30.574842 85.138969
26600000000 -26.507658 54.163879 -0.89573437 173.20541 -0.88897914 173.12683 -31.434666 62.279442
26700000000 -25.676508 53.713112 -0.91008967 171.06285 -0.88558692 171.13971 -27.300434 57.419846
26800000000 -25.454739 54.963524 -0.88939023 169.0546 -0.8919999 169.0316 -26.410889 62.039471
26900000000 -24.744246 58.896851 -0.91635352 166.95154 -0.9081046 166.94568 -25.199585 64.028206
27000000000 -24.935959 54.84433 -0.90844095 164.84064 -0.89922786 165.03957 -24.191711 74.380241
27100000000 -25.044498 52.257809 -0.91498172 163.00754 -0.90674466 163.00092 -27.256186 73.911926
27200000000 -23.247093 49.901726 -0.91365921 160.86002 -0.92238986 160.93941 -27.336212 61.279694
27300000000 -23.449736 48.218533 -0.93852913 158.91774 -0.92651325 158.90359 -25.34129 38.864784
27400000000 -22.806725 44.588905 -0.93453592 156.78551 -0.92896032 156.87738 -23.826508 43.925087
27500000000 -23.29866 45.982754 -0.93519914 154.72357 -0.94309568 154.79388 -22.256241 45.160805
27600000000 -22.900345 44.028481 -0.93035293 152.66904 -0.92347836 152.8046 -22.340185 60.534588
27700000000 -22.778008 39.323967 -0.89938033 150.72685 -0.91302735 150.70004 -23.601255 60.622219
27800000000 -21.713797 37.547882 -0.92961085 148.53217 -0.91944164 148.71985 -24.888548 55.476959
27900000000 -21.947615 34.60667 -0.88469511 146.58452 -0.91693825 146.58505 -24.884035 27.326138
28000000000 -21.337044 37.4757 -0.92222339 144.46196 -0.93632782 144.47227 -22.976259 33.332371
28100000000 -21.802866 31.34129 -0.9518503 142.64951 -0.94229615 142.55797 -21.299423 28.922228
28200000000 -21.69385 30.806053 -0.954184 140.44997 -0.94279242 140.3679 -21.336044 38.368259
28300000000 -21.389536 21.105957 -0.94115341 138.26704 -0.9340021 138.37123 -22.480839 39.936275
28400000000 -21.659021 24.135515 -0.95837355 136.16501 -0.9412598 136.28506 -24.810774 35.989807
28500000000 -20.715345 22.748371 -0.94249362 134.32045 -0.90912062 134.44052 -21.999664 14.989858
28600000000 -20.781086 20.42832 -0.9154371 132.22676 -0.92231011 132.1897 -21.820238 8.2556362
28700000000 -20.145975 20.685493 -0.93442774 130.38422 -0.93117493 130.32883 -18.947088 15.879005
28800000000 -20.787388 21.7332 -0.9668172 128.03082 -0.96201342 128.14952 -20.001745 28.944036
28900000000 -19.816973 19.556026 -0.98691046 126.21004 -0.95630926 126.04411 -21.037416 26.070534
29000000000 -21.288147 14.199563 -0.98897898 123.78345 -0.99866223 123.88929 -23.218113 15.258985
29100000000 -20.271782 13.950656 -0.99334997 121.74554 -0.98158437 121.84922 -22.272501 -13.539372
29200000000 -20.092499 9.341465 -0.97166902 119.84785 -0.93695152 119.77599 -19.311485 -9.4197655
29300000000 -18.700264 13.433459 -0.96065909 117.84721 -0.94068885 118.00705 -17.149992 -2.6435869
29400000000 -18.93689 8.7311239 -0.9563002 116.10937 -0.95209366 116.12613 -17.493937 12.507502
29500000000 -19.248859 15.484333 -0.95609117 114.02609 -0.95147616 114.10625 -18.437433 14.604873
29600000000 -20.024366 10.126884 -0.96915215 111.95684 -0.95980757 112.06418 -21.075607 16.151293
29700000000 -20.200695 10.876536 -0.97524166 109.76308 -0.9731499 109.68367 -21.131283 -3.8202999
29800000000 -19.119547 0.48023334 -0.99122411 107.78312 -0.98313481 107.81167 -21.192919 -18.598671
29900000000 -19.115238 2.1417267 -0.994102 105.57218 -0.97516388 105.68698 -17.290606 -21.965508
30000000000 -17.891621 4.1670465 -0.98098177 103.65868 -0.97766644 103.67382 -17.378681 -10.837827
30100000000 -18.308428 5.9724107 -0.98880833 101.55869 -0.96658987 101.53948 -16.543255 -6.5422573
30200000000 -18.158131 2.5046504 -0.99067712 99.524284 -0.97786129 99.558235 -18.722313 3.8183143
30300000000 -20.155884 -3.36199 -0.98161131 97.465775 -0.98315328 97.676895 -19.116579 -4.2913189
30400000000 -19.425694 -6.5616913 -0.96454877 95.436913 -0.96750998 95.41571 -21.74881 -21.531366
30500000000 -19.418037 -12.728019 -0.9580934 93.395844 -0.97794104 93.544876 -18.589951 -24.739443
30600000000 -18.567116 -11.569044 -0.95687646 91.400665 -0.9654879 91.393372 -18.643503 -30.527411
30700000000 -18.978245 -14.4208 -0.98524272 89.425079 -0.97242123 89.316475 -17.296894 -22.891607
30800000000 -18.491867 -7.068439 -1.0058151 87.333633 -0.97876334 87.632172 -19.027927 -15.832597
30900000000 -19.196489 -12.21379 -0.974558 85.251282 -0.99020565 85.469078 -18.348883 -20.173737
31000000000 -19.146196 -9.5622892 -0.99573082 83.221832 -0.99032921 83.383247 -19.938931 -24.513676
31100000000 -20.523577 -23.925745 -0.96507055 80.828552 -0.96182865 81.153214 -19.658356 -38.369583
31200000000 -20.004036 -26.691164 -0.97649521 79.076057 -0.97774744 79.185524 -17.730791 -40.457752
31300000000 -18.669437 -31.832571 -0.95299006 76.734932 -0.95515794 76.989464 -18.525562 -40.489155
31400000000 -17.893492 -23.433653 -0.96404135 75.125404 -0.9771198 75.192375 -17.391491 -37.1045
31500000000 -18.163477 -20.851019 -0.97977918 73.201729 -0.98696315 73.18737 -18.412874 -26.970026
31600000000 -20.246113 -14.176416 -1.0073061 70.944107 -0.99599487 71.073273 -20.134394 -35.267933
31700000000 -21.249184 -23.82313 -0.99526989 68.924263 -1.0002823 68.952049 -20.157572 -38.862816
31800000000 -20.680466 -33.545994 -1.0123155 66.874786 -1.0091894 66.78653 -20.005857 -55.379253
31900000000 -18.393089 -41.972843 -0.97426963 64.602615 -0.99364871 64.721031 -18.16567 -53.598038
32000000000 -18.547314 -36.661274 -0.96854353 62.789001 -0.97049069 62.653618 -17.787807 -55.549885
32100000000 -18.735168 -24.718966 -0.95651412 60.601379 -0.95810115 60.793575 -16.95867 -45.815582
32200000000 -21.080019 -18.986881 -0.97428453 58.746704 -0.96651679 58.663845 -19.098606 -43.668743
32300000000 -21.857767 -24.636459 -0.98167717 56.542866 -0.97543442 56.639217 -19.345575 -43.027912
32400000000 -22.390995 -45.4613 -0.98140585 54.433105 -0.9779073 54.480957 -23.844734 -50.774185
32500000000 -21.043592 -43.712414 -0.94527441 52.32251 -0.95884871 52.30999 -21.479937 -76.326637
32600000000 -20.583046 -46.454662 -0.98358214 50.429653 -0.98246092 50.426197 -20.212341 -81.382927
32700000000 -20.729158 -21.906363 -0.96712059 48.221161 -0.96263242 48.04002 -18.18169 -78.392418
32800000000 -21.647392 -31.222708 -0.97157806 46.273956 -0.96497971 46.398338 -17.354843 -64.986366
32900000000 -24.012079 -24.765133 -0.9877966 44.241772 -0.9532696 44.297314 -19.460386 -54.461441
33000000000 -24.123041 -45.92548 -0.9706279 42.203014 -0.9844926 42.259251 -21.762228 -49.354984
33100000000 -24.078817 -47.57468 -0.99363047 40.096249 -1.0077814 40.238144 -27.361227 -72.481392
33200000000 -21.967796 -46.126976 -0.96838957 38.083424 -0.98439127 38.040508 -21.662802 -95.169991
33300000000 -23.763292 -37.587437 -0.9860788 35.884483 -1.0085343 36.001633 -22.465679 -97.77739
33400000000 -23.32893 -33.785152 -0.98159927 33.944595 -0.95144647 33.9519 -19.486574 -83.906441
33500000000 -25.186451 -37.292168 -0.94106531 32.104954 -0.94858545 32.034046 -20.977072 -78.437805
33600000000 -23.964172 -39.117851 -0.95787328 29.964149 -0.95980012 29.870678 -21.764118 -78.277504
33700000000 -24.011253 -45.865696 -0.97157192 28.032661 -0.93993765 27.965321 -24.624874 -72.799751
33800000000 -24.7421 -48.091675 -1.0028261 25.949995 -0.99087387 25.866711 -25.09453 -94.266586
33900000000 -26.41308 -55.612305 -0.98751158 23.538448 -0.97955567 23.398638 -22.200304 -98.54351
34000000000 -26.067329 -43.776325 -0.96757078 21.729086 -0.9683103 21.658089 -25.120266 -82.813644
34100000000 -25.704414 -52.003212 -0.97391593 19.367964 -0.94016939 19.389612 -23.47184 -95.434761
34200000000 -25.380003 -30.582197 -0.9307307 17.607416 -0.96475887 17.502741 -26.371639 -49.575264
34300000000 -26.589775 -35.27478 -0.99063581 15.286163 -0.99434251 15.195812 -26.63348 -107.65936
34400000000 -27.054562 -29.775723 -1.0116132 13.381748 -1.0023996 13.399652 -29.865227 -94.967842
34500000000 -28.667778 -50.391975 -1.0202116 11.040647 -1.0237172 11.207469 -24.907104 -108.4388
34600000000 -29.292986 -34.925022 -0.99873585 9.0921116 -0.993801 9.1869154 -25.811113 -82.09948
34700000000 -29.317989 -27.856379 -0.9998548 6.9912605 -0.98781449 6.9022331 -25.441687 -71.976433
34800000000 -31.191528 -4.6388164 -1.0065168 4.8295541 -1.0129764 4.9877291 -29.570669 -12.805356
34900000000 -30.22785 3.0699804 -0.96501267 2.8684483 -0.98732215 2.9000823 -33.068226 46.714382
35000000000 -29.270552 14.055055 -0.99009931 0.71862334 -0.99946374 0.92642027 -26.18717 94.341843
35100000000 -26.449612 1.1862081 -1.0152369 -1.4110302 -1.0217906 -1.4066529 -30.484058 164.34367
35200000000 -25.663326 12.120848 -0.99128133 -3.3876214 -0.99115449 -3.4034398 -31.6243 -178.52579
35300000000 -26.70356 9.7369757 -1.0432538 -5.4052134 -1.0407444 -5.5170693 -28.93247 -55.098763
35400000000 -26.062788 39.396358 -1.020646 -7.5238008 -1.0021985 -7.4309983 -28.741695 -25.695732
35500000000 -23.792664 28.47249 -1.0448165 -9.3863916 -1.0587873 -9.4398603 -27.887875 30.153343
35600000000 -27.450201 38.653862 -1.0402641 -11.512341 -1.0223488 -11.583432 -24.188898 65.72673
35700000000 -25.862173 20.168135 -1.0298886 -13.428406 -1.0588295 -13.740891 -27.496576 72.498184
35800000000 -24.541904 20.92988 -1.0661218 -15.754875 -1.0462458 -15.44964 -30.07847 86.964203
35900000000 -22.684074 23.277737 -1.0390782 -17.825325 -1.0433199 -17.576651 -33.758915 125.87057
36000000000 -22.39452 24.87735 -1.0558269 -19.60462 -1.0571779 -19.385393 -26.775288 25.556419
36100000000 -20.794477 30.865988 -1.025646 -21.800573 -1.0664738 -21.477543 -27.295544 38.349285
36200000000 -22.455139 35.457867 -1.0521981 -24.00569 -1.0675826 -23.909573 -24.096962 45.317135
36300000000 -21.809248 41.211788 -1.0850067 -26.004549 -1.0561987 -26.212795 -25.193121 66.496758
36400000000 -25.219141 38.625732 -1.0299811 -28.213362 -1.0558929 -28.30595 -29.486372 63.788311
36500000000 -24.011663 14.794582 -1.0111254 -30.505404 -1.0389786 -30.444681 -32.938374 25.273779
36600000000 -21.312439 -1.9712749 -0.95348078 -32.213608 -0.96488142 -32.195202 -21.121155 2.4445193
36700000000 -19.524998 20.411922 -1.0148683 -33.963661 -1.072109 -34.102345 -22.743668 9.0583963
36800000000 -17.916517 24.342245 -1.0331322 -36.074089 -1.0778364 -35.86655 -17.444597 28.84474
36900000000 -18.799057 47.482204 -1.1596631 -38.53344 -1.1012002 -38.232109 -19.605116 43.971725
37000000000 -20.2197 34.720974 -1.1377041 -40.323696 -1.1317697 -40.472221 -20.933077 57.605782
37100000000 -25.795496 15.898232 -1.1317499 -43.317612 -1.1078941 -43.328148 -27.252762 32.888367
37200000000 -20.535126 4.3727694 -1.047946 -45.328568 -1.0679282 -45.149445 -24.944868 -6.0505362
37300000000 -18.132006 12.419926 -1.0540794 -47.588703 -1.0348125 -47.209888 -18.036966 -21.910801
37400000000 -15.717087 18.58222 -1.0714126 -49.372242 -0.9969548 -49.042297 -16.087709 -2.4159944
37500000000 -17.593681 28.066696 -1.0689051 -50.782703 -1.0698415 -51.132019 -15.522908 7.3651876
37600000000 -18.478079 31.606688 -1.1093041 -52.900902 -1.0745261 -52.982624 -15.455651 27.705265
37700000000 -19.702497 17.241535 -1.0999929 -54.772255 -1.1559846 -54.852074 -17.2262 36.228737
37800000000 -17.72897 5.1753898 -1.1082987 -57.046989 -1.1529083 -57.32069 -20.96257 19.088881
37900000000 -16.360474 2.4601567 -1.1406437 -59.345795 -1.1383109 -59.221745 -23.119802 7.8681669
38000000000 -16.102133 13.895331 -1.121413 -61.467934 -1.153074 -61.275856 -16.847368 -23.817936
38100000000 -16.30549 17.383448 -1.1175126 -63.226227 -1.167202 -63.294624 -14.920852 -6.3902578
38200000000 -16.617701 15.197139 -1.1327571 -65.467796 -1.1352845 -65.43856 -13.604079 -5.5072112
38300000000 -16.159958 6.2422628 -1.1355484 -67.178383 -1.1200141 -67.275223 -13.817128 18.93704
38400000000 -16.00185 -1.0248164 -1.1020432 -69.304901 -1.1370374 -68.956184 -16.32712 22.330027
38500000000 -15.982703 -4.4701147 -1.1947626 -71.061859 -1.1555444 -71.351578 -18.318222 7.9697628
38600000000 -15.102914 10.285107 -1.1088232 -72.959877 -1.1489559 -73.263466 -17.093306 -12.153014
38700000000 -14.670864 0.084128968 -1.1860185 -75.074043 -1.1563137 -75.367188 -16.10565 -22.346989
38800000000 -15.903359 4.4432597 -1.1920365 -76.911339 -1.181167 -77.110321 -13.29772 -8.4151878
38900000000 -15.281649 1.2366245 -1.1442231 -79.026337 -1.1900501 -79.017014 -14.464615 -3.2513599
39000000000 -15.910501 0.19552809 -1.2268198 -81.247566 -1.1723309 -81.335609 -14.196552 7.6589608
39100000000 -15.7061 -7.9071941 -1.2156177 -83.253876 -1.1487727 -83.450394 -19.200407 -9.3656473
39200000000 -16.227278 -11.011827 -1.1842695 -85.359161 -1.2347904 -85.430275 -15.721589 -19.366629
39300000000 -13.923139 -10.641555 -1.2032791 -87.183418 -1.2148246 -87.652519 -14.417297 -36.3988
39400000000 -14.741784 -2.2445004 -1.1862407 -89.225708 -1.2035913 -89.351517 -12.251795 -20.977377
39500000000 -13.716361 6.4239736 -1.2760651 -91.150864 -1.1712253 -91.622078 -13.467153 -18.376291
39600000000 -16.220774 -8.7530155 -1.1990569 -93.2248 -1.1987956 -93.522163 -13.584925 -1.5209839
39700000000 -17.433174 -15.224771 -1.2253799 -95.884346 -1.1824263 -95.775642 -19.42198 -7.8267694
39800000000 -15.896769 -32.076759 -1.1715107 -97.468704 -1.1585186 -97.633911 -17.037155 -31.060555
39900000000 -13.876695 -13.813821 -1.200475 -99.820023 -1.1925368 -99.870422 -15.636925 -59.831966
40000000000 -13.421274 -14.387191 -1.1183772 -101.73653 -1.1809669 -101.35303 -11.681361 -47.714111
40100000000 -14.89851 2.25823 -1.2078669 -103.8285 -1.1821364 -103.6375 -11.448818 -33.951241
40200000000 -16.11047 -6.3783326 -1.2144555 -105.59079 -1.185056 -105.40431 -11.945433 -22.486294
40300000000 -19.014784 -24.768532 -1.1283664 -108.00699 -1.2067895 -107.9726 -13.781352 -20.146053
40400000000 -15.725525 -33.657009 -1.2033126 -109.77715 -1.1541524 -109.71825 -18.945244 -29.377384
40500000000 -14.172671 -26.441895 -1.1670841 -111.50883 -1.1798193 -111.8011 -17.143129 -56.873409
40600000000 -13.046511 -20.586201 -1.131899 -113.64439 -1.1431155 -113.87527 -14.556392 -60.184437
40700000000 -16.076666 -12.405259 -1.1512907 -116.10284 -1.1646935 -116.39629 -12.842184 -62.069107
40800000000 -15.766767 -15.836163 -1.2177559 -117.952 -1.1367011 -117.91529 -12.184982 -42.907211
40900000000 -16.658491 -32.679871 -1.166332 -119.75782 -1.1856804 -119.95444 -14.023723 -28.690586
41000000000 -14.49906 -44.584904 -1.1797134 -122.2086 -1.1572732 -121.70126 -13.878038 -33.13179
41100000000 -15.219888 -38.59536 -1.2005023 -124.28611 -1.2332652 -123.76263 -17.842009 -55.305058
41200000000 -13.91657 -24.319792 -1.1430967 -125.93269 -1.2251356 -125.621 -16.16951 -54.162449
41300000000 -15.586929 -27.06517 -1.130677 -127.66608 -1.2156708 -127.82874 -15.695642 -65.618202
41400000000 -16.098873 -29.555229 -1.134793 -129.79825 -1.130535 -129.98709 -13.407921 -51.20647
41500000000 -16.868078 -39.427238 -1.3348062 -132.21553 -1.1885405 -131.99182 -13.164426 -57.729218
41600000000 -14.616944 -38.021225 -1.117139 -134.18581 -1.1403842 -134.29036 -14.479005 -45.832207
41700000000 -15.827827 -43.912296 -1.248528 -135.98598 -1.1475177 -135.77032 -15.049202 -61.983887
41800000000 -16.060699 -37.194736 -1.1898217 -137.68103 -1.1748598 -137.6938 -15.708344 -54.888592
41900000000 -16.446758 -45.150208 -1.22558 -139.98892 -1.2438706 -139.93414 -15.663489 -76.1213
42000000000 -15.746462 -38.559692 -1.1520952 -142.07434 -1.2398697 -142.51344 -14.963861 -65.207024
42100000000 -14.987698 -44.919964 -1.2460662 -143.92224 -1.2269591 -144.14171 -14.454684 -72.894897
42200000000 -16.054253 -34.234444 -1.138062 -146.45735 -1.1274166 -145.99591 -14.75972 -56.679863
42300000000 -17.407923 -37.967602 -1.1752838 -148.14618 -1.1950244 -148.00877 -14.797113 -70.945824
42400000000 -20.399683 -50.085732 -1.1584049 -150.47118 -1.2761585 -149.64172 -18.97694 -65.521156
42500000000 -16.0541 -56.767704 -1.1776484 -152.36543 -1.1483667 -152.28973 -18.587919 -86.639633
42600000000 -15.16275 -60.353012 -1.1344393 -154.49574 -1.1502086 -153.84811 -18.327932 -80.691727
42700000000 -15.338459 -42.963531 -1.1275669 -155.86525 -1.1204808 -157.08542 -14.3077 -97.435135
42800000000 -17.050022 -33.418232 -1.1736141 -159.17061 -1.1078216 -158.36203 -15.7107 -92.629204
42900000000 -18.446028 -9.9944334 -1.1528324 -160.92853 -1.1864247 -160.53355 -15.012686 -73.593231
43000000000 -22.816017 -53.653831 -1.118337 -162.83374 -1.0811158 -162.62462 -15.180803 -67.832367
43100000000 -21.902723 -82.587769 -1.0846491 -165.21494 -1.1221969 -165.13921 -22.221144 -50.255604
43200000000 -16.950411 -69.570305 -1.2021828 -167.32944 -1.1060643 -167.40784 -23.371956 -83.931465
43300000000 -16.98671 -45.89098 -1.0807474 -168.80214 -1.0065827 -169.03461 -22.268223 -129.83304
43400000000 -17.631382 -25.007935 -1.1273715 -170.56213 -1.0611006 -170.84682 -18.481146 -107.67237
43500000000 -18.131845 -12.655261 -1.1136715 -173.18939 -1.1859624 -173.20093 -15.745631 -111.83726
43600000000 -25.39921 -10.490768 -1.0217277 -174.80612 -1.0896478 -175.05099 -16.454636 -78.424927
43700000000 -27.742859 -60.972538 -1.1012913 -177.36945 -1.0200181 -177.30464 -18.532347 -70.214035
43800000000 -22.161604 -79.858139 -1.0981121 179.72179 -1.1465122 -179.27573 -23.533331 -41.3307
43900000000 -20.863543 -60.626427 -1.1889509 177.75397 -1.2083931 178.28011 -29.993395 -143.67171
44000000000 -19.807789 -26.345579 -1.1709433 176.00024 -1.111724 176.56227 -24.58614 -132.66614
44100000000 -19.80208 -13.903892 -1.063831 174.21719 -1.0571417 173.88934 -20.496504 -105.46946
44200000000 -20.073339 10.108239 -1.0696415 171.67482 -1.1382464 171.96439 -21.981649 -112.5323
44300000000 -25.992708 -22.061716 -1.16255 169.68262 -1.122674 170.24832 -23.154095 -70.538567
44400000000 -30.22193 -75.248932 -1.0856674 167.95787 -1.074421 167.60107 -26.536501 -27.371881
44500000000 -23.50499 -60.206348 -1.0876844 165.66087 -1.1439846 165.74469 -30.985962 -96.997147
44600000000 -22.823437 -35.188435 -1.1199391 163.76569 -1.0905228 163.96227 -27.977049 112.48682
44700000000 -17.729061 -10.129977 -1.1427834 161.97658 -1.1375928 161.9088 -26.352221 -133.79713
44800000000 -25.781479 13.219326 -1.1797705 159.35646 -1.0781715 159.18912 -24.54899 -33.967056
44900000000 -24.287626 22.158871 -1.1557704 157.12021 -1.143874 157.27403 -23.985126 -50.546307
45000000000 -25.135307 15.130481 -1.1570464 155.56003 -1.1829379 155.64847 -20.924547 27.789793
