!Keysight Technologies,N5247B,MY61255062,A.19.80.06
!Date: Thursday, May 21, 2026 11:33:30
!Correction: S11(Cdelta 2-Port  ) 
!S21(Cdelta 2-Port  ) 
!S12(Cdelta 2-Port  ) 
!S22(Cdelta 2-Port  ) 
!S2P File: Measurements: S11, S21, S12, S22:
# Hz S  dB   R 50
1000000000 -25.472664 -14.09797 -0.49175209 -21.136219 -0.49056223 -21.139582 -25.599333 -14.453259
1027500000 -25.455433 -14.943609 -0.49392566 -21.707552 -0.49505872 -21.711891 -25.587965 -15.060078
1055000000 -25.494814 -15.467962 -0.50106651 -22.287117 -0.50130534 -22.293386 -25.633076 -16.362221
1082500000 -25.462503 -15.569316 -0.50583273 -22.820835 -0.5062626 -22.822813 -25.727362 -16.405481
1110000000 -25.44813 -16.157848 -0.50671256 -23.378719 -0.50834888 -23.373135 -25.73016 -16.653343
1137500000 -25.452702 -16.506504 -0.51048249 -23.923889 -0.51250726 -23.935011 -25.75292 -16.517923
1165000000 -25.362827 -16.787012 -0.51329935 -24.47291 -0.51380628 -24.477142 -25.707224 -17.063684
1192500000 -25.302538 -17.397999 -0.51347476 -25.020672 -0.51485831 -25.032373 -25.659094 -17.12462
1220000000 -25.221735 -18.282883 -0.51223642 -25.595367 -0.51402253 -25.595066 -25.609669 -17.836021
1247500000 -25.249153 -19.281866 -0.51532286 -26.166298 -0.5178256 -26.167711 -25.602743 -18.657372
1275000000 -25.282457 -19.88652 -0.51785535 -26.735342 -0.51970065 -26.741543 -25.541298 -19.431158
1302500000 -25.342405 -20.119549 -0.52767551 -27.304916 -0.52819729 -27.309793 -25.68297 -20.497663
1330000000 -25.279337 -20.150652 -0.52672505 -27.825651 -0.52717423 -27.829405 -25.596832 -20.354658
1357500000 -25.230925 -20.88471 -0.52681679 -28.383072 -0.52823997 -28.393711 -25.547871 -20.80901
1385000000 -25.172676 -21.600832 -0.52582771 -28.946529 -0.52877414 -28.955719 -25.519636 -21.362543
1412500000 -25.178875 -22.605604 -0.53001833 -29.514456 -0.53135246 -29.523462 -25.513371 -21.799709
1440000000 -25.16678 -23.045534 -0.53144401 -30.061644 -0.53278095 -30.065239 -25.455711 -22.209251
1467500000 -25.150248 -23.568211 -0.53216994 -30.627171 -0.53292197 -30.622057 -25.411318 -22.593494
1495000000 -25.156315 -24.222231 -0.53364372 -31.181675 -0.53507531 -31.196012 -25.376785 -23.428368
1522500000 -25.115191 -24.484402 -0.53438258 -31.73299 -0.53652376 -31.743233 -25.3284 -23.939442
1550000000 -25.055592 -25.097029 -0.5335905 -32.299492 -0.53575611 -32.315567 -25.267618 -24.638237
1577500000 -25.084015 -25.612539 -0.53782642 -32.87936 -0.54002118 -32.882698 -25.322065 -25.689671
1605000000 -25.038368 -26.227976 -0.53868937 -33.42548 -0.54063326 -33.433094 -25.295801 -25.919119
1632500000 -25.040857 -26.395964 -0.54144663 -33.980087 -0.54370511 -33.987762 -25.292299 -26.445265
1660000000 -24.984556 -27.005692 -0.54128361 -34.527168 -0.5429787 -34.527 -25.235491 -26.693848
1687500000 -24.940592 -27.769207 -0.54145485 -35.092911 -0.54292184 -35.102627 -25.181089 -27.371927
1715000000 -24.93749 -28.201515 -0.54327911 -35.651524 -0.54298872 -35.661659 -25.1665 -28.326244
1742500000 -24.912357 -29.04372 -0.54219562 -36.215221 -0.54451317 -36.222309 -25.137402 -28.861498
1770000000 -24.877846 -29.8326 -0.54340523 -36.777908 -0.54527175 -36.791168 -25.119251 -29.535927
1797500000 -24.870125 -30.343754 -0.54576838 -37.348454 -0.54730612 -37.360432 -25.112263 -30.156502
1825000000 -24.853737 -30.992834 -0.54602492 -37.905598 -0.54777974 -37.913723 -25.097353 -30.718243
1852500000 -24.852997 -31.898312 -0.54738623 -38.475655 -0.54827368 -38.480003 -25.098688 -31.30442
1880000000 -24.831614 -32.527363 -0.54888433 -39.039791 -0.54925531 -39.041889 -25.071789 -32.306358
1907500000 -24.821249 -32.982124 -0.54874891 -39.603451 -0.55190468 -39.61314 -25.060692 -32.948971
1935000000 -24.801758 -33.688488 -0.55015582 -40.160851 -0.55224359 -40.178707 -25.034801 -33.510445
1962500000 -24.773506 -34.59322 -0.5515784 -40.740906 -0.5535866 -40.751751 -25.029013 -34.487419
1990000000 -24.82786 -35.052433 -0.55692917 -41.306332 -0.55852801 -41.306915 -25.072752 -35.130108
2017500000 -24.829115 -35.693691 -0.55750191 -41.851994 -0.55917126 -41.86705 -25.074326 -35.723766
2045000000 -24.801991 -36.412773 -0.55886775 -42.410183 -0.55994189 -42.421749 -25.043257 -36.129684
2072500000 -24.79458 -36.942524 -0.56077182 -42.969276 -0.56193483 -42.983543 -25.021307 -36.788486
2100000000 -24.779333 -37.640339 -0.56054944 -43.526825 -0.56357467 -43.543079 -24.993036 -37.383064
2127500000 -24.785625 -38.242813 -0.56144047 -44.093678 -0.56432861 -44.111225 -24.980141 -38.057232
2155000000 -24.789009 -38.952991 -0.56338161 -44.662655 -0.56619912 -44.667488 -24.966728 -38.588066
2182500000 -24.773222 -39.513084 -0.56395072 -45.226204 -0.56637931 -45.226055 -24.974661 -39.297649
2210000000 -24.746719 -40.425858 -0.56601542 -45.789906 -0.56848556 -45.790752 -24.941216 -39.816307
2237500000 -24.762974 -40.93668 -0.56726122 -46.341179 -0.56886971 -46.35907 -24.9636 -40.596317
2265000000 -24.7535 -41.306538 -0.56940621 -46.905865 -0.57145429 -46.915245 -24.947824 -41.220089
2292500000 -24.726809 -42.24921 -0.56880921 -47.469845 -0.57297105 -47.479702 -24.930414 -41.818653
2320000000 -24.756155 -42.922596 -0.57344484 -48.041351 -0.57608414 -48.056793 -24.912491 -42.527409
2347500000 -24.742598 -43.585739 -0.57472736 -48.588074 -0.57669717 -48.597244 -24.961552 -43.055065
2375000000 -24.708481 -44.322636 -0.5752303 -49.155502 -0.57711285 -49.166489 -24.93231 -43.684948
2402500000 -24.760546 -44.631088 -0.57767522 -49.727509 -0.58027983 -49.717663 -24.924887 -44.459652
2430000000 -24.760418 -45.508873 -0.57703805 -50.287582 -0.58187687 -50.287861 -24.902262 -44.811005
2457500000 -24.770428 -46.069408 -0.57929707 -50.843422 -0.58224833 -50.849747 -24.889044 -45.821049
2485000000 -24.764187 -46.921909 -0.58224094 -51.399433 -0.58516169 -51.419971 -24.884983 -46.484859
2512500000 -24.808424 -47.477779 -0.58473068 -51.968212 -0.58788395 -51.978607 -24.888071 -47.330273
2540000000 -24.82902 -48.063965 -0.5869537 -52.531155 -0.59138268 -52.533455 -24.889084 -48.020527
2567500000 -24.810078 -48.796944 -0.58978361 -53.083542 -0.5904879 -53.088318 -24.898451 -48.459698
2595000000 -24.83852 -49.59639 -0.59037936 -53.647942 -0.59227234 -53.647884 -24.881416 -48.897923
2622500000 -24.851395 -50.051403 -0.59141445 -54.190685 -0.59526217 -54.194782 -24.883469 -49.804764
2650000000 -24.823668 -50.896664 -0.59242249 -54.763191 -0.59578943 -54.758331 -24.875198 -50.458569
2677500000 -24.839779 -51.478996 -0.59559733 -55.308849 -0.59767413 -55.318119 -24.889627 -51.053547
2705000000 -24.852049 -51.702602 -0.59586459 -55.875156 -0.59863371 -55.870884 -24.899773 -51.718769
2732500000 -24.875792 -52.612637 -0.59659004 -56.427364 -0.60024321 -56.440624 -24.899288 -52.491776
2760000000 -24.84692 -53.518589 -0.59873682 -56.992626 -0.60127234 -56.99939 -24.920723 -52.915318
2787500000 -24.872938 -53.884987 -0.60093641 -57.552338 -0.60335273 -57.561749 -24.921082 -53.83379
2815000000 -24.911089 -54.551697 -0.60299879 -58.10561 -0.6055088 -58.11203 -24.916603 -54.45681
2842500000 -24.900455 -55.326344 -0.6069836 -58.668819 -0.60694581 -58.682262 -24.929506 -54.90078
2870000000 -24.922623 -55.646931 -0.60665494 -59.216114 -0.60975718 -59.221237 -24.942547 -55.719246
2897500000 -24.937103 -56.23484 -0.60729855 -59.779327 -0.61037141 -59.778309 -24.939817 -56.560555
2925000000 -24.922922 -57.020836 -0.60968775 -60.334232 -0.61233968 -60.347507 -24.964563 -56.99316
2952500000 -24.936474 -57.64677 -0.61095065 -60.891964 -0.61267614 -60.887386 -25.003077 -57.529133
2980000000 -24.944679 -58.153469 -0.61240256 -61.450031 -0.61641806 -61.457523 -24.987009 -58.519711
3007500000 -24.985107 -58.895638 -0.61339521 -62.002518 -0.61562043 -62.00333 -25.00272 -58.809341
3035000000 -24.958536 -59.665768 -0.61427897 -62.555073 -0.61955625 -62.561924 -25.004902 -59.457947
3062500000 -24.979187 -60.06562 -0.61537135 -63.116066 -0.61708045 -63.126938 -25.020798 -60.133533
3090000000 -25.032719 -60.714691 -0.61653024 -63.67416 -0.61975479 -63.683426 -25.012369 -60.741188
3117500000 -25.020813 -61.497787 -0.61861795 -64.232338 -0.62020981 -64.222961 -25.062778 -61.128799
3145000000 -25.014818 -61.969357 -0.62000465 -64.789131 -0.62249976 -64.787506 -25.079012 -61.906979
3172500000 -25.024044 -62.605659 -0.62036538 -65.349251 -0.62432551 -65.346283 -25.052595 -62.830677
3200000000 -25.037756 -63.412003 -0.62272859 -65.903954 -0.62565005 -65.90966 -25.087759 -63.165249
3227500000 -25.062002 -63.881695 -0.6246292 -66.457947 -0.62645525 -66.460266 -25.135136 -63.720947
3255000000 -25.046476 -64.582054 -0.62581688 -67.004272 -0.62776488 -67.012428 -25.115019 -64.479149
3282500000 -25.065912 -65.179863 -0.62692147 -67.568268 -0.62772572 -67.576462 -25.19482 -64.994019
3310000000 -25.070742 -65.882446 -0.62752086 -68.118599 -0.62832999 -68.127289 -25.193901 -65.664871
3337500000 -25.086393 -66.651718 -0.62742066 -68.68045 -0.63121897 -68.683617 -25.147877 -66.606606
3365000000 -25.115147 -67.350258 -0.62962759 -69.234428 -0.63237196 -69.238594 -25.194176 -66.797745
3392500000 -25.093884 -67.672935 -0.63052094 -69.783203 -0.63508058 -69.776726 -25.264769 -67.188438
3420000000 -25.127432 -68.543297 -0.63069212 -70.347778 -0.63355339 -70.348991 -25.261225 -68.528412
3447500000 -25.206465 -69.060974 -0.63172013 -70.904129 -0.63553995 -70.908134 -25.22723 -68.845772
3475000000 -25.159767 -69.725708 -0.63212675 -71.462029 -0.63522083 -71.453545 -25.293056 -68.976227
3502500000 -25.200981 -70.430824 -0.63189977 -72.01152 -0.63655376 -72.013939 -25.307201 -69.819527
3530000000 -25.239832 -70.981056 -0.63240367 -72.56739 -0.63570684 -72.569473 -25.269232 -70.716614
3557500000 -25.202326 -71.6828 -0.63267797 -73.131462 -0.63787425 -73.134048 -25.288919 -70.755081
3585000000 -25.2202 -72.349541 -0.63512909 -73.686768 -0.63873178 -73.68647 -25.348425 -71.239655
3612500000 -25.280926 -72.876122 -0.63710201 -74.254272 -0.63795638 -74.255005 -25.368893 -72.447388
3640000000 -25.28879 -73.28228 -0.63689369 -74.802681 -0.63917625 -74.812523 -25.345943 -72.851891
3667500000 -25.271866 -74.200127 -0.63755643 -75.370193 -0.64023352 -75.381058 -25.354492 -73.22541
3695000000 -25.343952 -74.621033 -0.63864243 -75.926315 -0.64086562 -75.921974 -25.402166 -74.199959
3722500000 -25.338699 -75.125381 -0.6404711 -76.483238 -0.64217448 -76.490349 -25.391817 -74.817986
3750000000 -25.353168 -75.831139 -0.64078522 -77.041016 -0.64248782 -77.046669 -25.433489 -75.024841
3777500000 -25.393467 -76.302246 -0.64084101 -77.603516 -0.64325804 -77.601463 -25.473366 -76.007614
3805000000 -25.417004 -76.676033 -0.64269942 -78.151642 -0.64591312 -78.166214 -25.472069 -76.610924
3832500000 -25.426916 -77.59861 -0.64365911 -78.732346 -0.64727187 -78.72345 -25.498453 -76.737068
3860000000 -25.428576 -78.281418 -0.64412475 -79.270645 -0.64760512 -79.289406 -25.551537 -77.847176
3887500000 -25.478857 -78.486702 -0.64752489 -79.828819 -0.64866203 -79.844994 -25.549543 -78.481857
3915000000 -25.486897 -79.258583 -0.64834529 -80.394463 -0.64910662 -80.396614 -25.566998 -78.87542
3942500000 -25.461653 -80.201477 -0.64888507 -80.948555 -0.6498813 -80.955101 -25.598974 -79.479767
3970000000 -25.490652 -80.262627 -0.65037137 -81.508621 -0.65199834 -81.512146 -25.646137 -80.076805
3997500000 -25.547327 -80.797882 -0.64877564 -82.054184 -0.65273654 -82.063683 -25.656889 -80.629097
4025000000 -25.548103 -81.981857 -0.65118748 -82.619263 -0.65508735 -82.631386 -25.657614 -81.437828
4052500000 -25.5361 -82.380661 -0.65134931 -83.173988 -0.65476018 -83.186554 -25.726498 -82.038002
4080000000 -25.604145 -82.637085 -0.65277296 -83.74366 -0.65608472 -83.743584 -25.741774 -82.752419
4107500000 -25.629524 -83.690018 -0.6532113 -84.291977 -0.65507984 -84.303963 -25.755892 -83.23941
4135000000 -25.583191 -84.306305 -0.65430057 -84.856834 -0.65710217 -84.861931 -25.793577 -83.719376
4162500000 -25.643887 -84.568802 -0.65548289 -85.408569 -0.65812796 -85.416664 -25.78997 -84.250618
4190000000 -25.695696 -85.161194 -0.65576077 -85.971245 -0.6584729 -85.975281 -25.829157 -84.965446
4217500000 -25.691471 -86.006035 -0.65747529 -86.533417 -0.66061008 -86.537834 -25.863466 -85.124077
4245000000 -25.71789 -86.244759 -0.65879673 -87.086235 -0.66183752 -87.097527 -25.908281 -85.732079
4272500000 -25.764824 -87.029091 -0.66145676 -87.645119 -0.66209108 -87.656227 -25.94068 -86.628487
4300000000 -25.778976 -87.735199 -0.66134101 -88.208435 -0.66431117 -88.202644 -25.94389 -86.759598
4327500000 -25.767984 -88.18045 -0.66196322 -88.766609 -0.66509163 -88.773636 -25.97957 -87.395889
4355000000 -25.833641 -88.526314 -0.66321999 -89.313225 -0.66573638 -89.329224 -26.035572 -88.425659
4382500000 -25.897604 -89.324898 -0.66486835 -89.881851 -0.66688257 -89.88414 -26.063744 -88.737953
4410000000 -25.881441 -89.873314 -0.66607136 -90.43177 -0.66795176 -90.448067 -26.053078 -89.166893
4437500000 -25.941278 -90.338737 -0.66671026 -90.990715 -0.66994929 -91.005363 -26.087393 -89.639893
4465000000 -25.981524 -91.052818 -0.6662035 -91.546303 -0.6712268 -91.55529 -26.136717 -90.272949
4492500000 -25.988321 -91.817329 -0.66787601 -92.113258 -0.67156368 -92.118446 -26.187208 -90.821213
4520000000 -26.05032 -92.10891 -0.66943282 -92.661667 -0.67080653 -92.66246 -26.207743 -91.625061
4547500000 -26.068602 -92.591354 -0.67045343 -93.223129 -0.67255026 -93.230011 -26.226566 -92.127274
4575000000 -26.087036 -93.325455 -0.67030567 -93.780243 -0.67309189 -93.779671 -26.269606 -92.495377
4602500000 -26.143362 -93.888939 -0.67195195 -94.333183 -0.67636806 -94.337494 -26.318489 -93.014641
4630000000 -26.181581 -94.36187 -0.67290783 -94.900284 -0.67747772 -94.891724 -26.342773 -93.912415
4657500000 -26.212364 -95.097313 -0.67422611 -95.446243 -0.67697823 -95.453575 -26.358879 -94.153534
4685000000 -26.261065 -95.720894 -0.67458194 -96.010719 -0.67860609 -96.016571 -26.376118 -94.757835
4712500000 -26.313915 -96.174332 -0.67773521 -96.565071 -0.679726 -96.569626 -26.415306 -95.493706
4740000000 -26.330275 -96.612793 -0.67822933 -97.122925 -0.68108422 -97.122299 -26.444246 -95.992882
4767500000 -26.350559 -97.505936 -0.67911398 -97.674728 -0.68100429 -97.679482 -26.496656 -96.342865
4795000000 -26.4051 -97.910957 -0.67779756 -98.240257 -0.68295294 -98.237022 -26.53756 -97.165062
4822500000 -26.479546 -98.400169 -0.68054134 -98.795235 -0.68435705 -98.798378 -26.532162 -97.718079
4850000000 -26.511452 -99.230721 -0.6810624 -99.345451 -0.68332076 -99.363281 -26.577707 -98.026321
4877500000 -26.534763 -99.566132 -0.68206662 -99.902771 -0.68506074 -99.915649 -26.641825 -98.715004
4905000000 -26.609119 -100.07265 -0.68223292 -100.45889 -0.6860283 -100.4688 -26.647846 -99.336548
4932500000 -26.623997 -100.57751 -0.68424761 -101.02592 -0.68716103 -101.02399 -26.673508 -99.595985
4960000000 -26.688694 -101.27995 -0.68468887 -101.5728 -0.68884099 -101.5767 -26.746328 -100.12643
4987500000 -26.747263 -101.83389 -0.68446279 -102.13892 -0.68952876 -102.13145 -26.726072 -100.69749
5015000000 -26.777853 -102.23025 -0.68726081 -102.68941 -0.68893594 -102.70042 -26.810299 -101.07814
5042500000 -26.842791 -103.01073 -0.68645489 -103.24328 -0.69009858 -103.25404 -26.87364 -101.48438
5070000000 -26.881618 -103.48 -0.68858677 -103.80422 -0.69237739 -103.80146 -26.857246 -102.39594
5097500000 -26.93475 -103.86099 -0.69013196 -104.36451 -0.693739 -104.36279 -26.887518 -102.80265
5125000000 -26.98793 -104.72252 -0.69156748 -104.9099 -0.69463527 -104.91807 -26.96991 -103.46152
5152500000 -27.055159 -105.06865 -0.6923613 -105.46812 -0.69529718 -105.46915 -26.974869 -104.09798
5180000000 -27.076136 -105.38004 -0.69273901 -106.03283 -0.69615132 -106.03278 -26.983707 -104.514
5207500000 -27.15172 -106.35929 -0.69287443 -106.57343 -0.69703287 -106.57919 -27.090881 -104.89082
5235000000 -27.175598 -107.02025 -0.69405121 -107.14239 -0.69800615 -107.13645 -27.127689 -105.76759
5262500000 -27.223717 -107.30852 -0.69588995 -107.70486 -0.70085281 -107.69538 -27.1078 -106.4225
5290000000 -27.275522 -107.97605 -0.69783777 -108.24168 -0.70018029 -108.25691 -27.206314 -106.79673
5317500000 -27.347544 -108.1897 -0.69750732 -108.79649 -0.70101613 -108.8014 -27.300009 -107.10624
5345000000 -27.41493 -108.97537 -0.69873518 -109.3534 -0.702371 -109.36463 -27.246632 -107.93703
5372500000 -27.486601 -109.56709 -0.69849622 -109.90583 -0.70419139 -109.91282 -27.316656 -108.30145
5400000000 -27.514221 -110.32232 -0.70060551 -110.47762 -0.70481277 -110.47672 -27.419168 -109.24126
5427500000 -27.636061 -110.62292 -0.7012881 -111.02671 -0.70446295 -111.02442 -27.393623 -109.61474
5455000000 -27.679935 -111.14798 -0.70252466 -111.58459 -0.70464194 -111.57877 -27.427204 -109.88895
5482500000 -27.732063 -111.8308 -0.70277631 -112.13126 -0.70513523 -112.14199 -27.552006 -110.4333
5510000000 -27.843889 -112.48243 -0.70301098 -112.67803 -0.70743018 -112.69532 -27.593969 -111.45105
5537500000 -27.906929 -112.89761 -0.70405561 -113.24313 -0.70624977 -113.24229 -27.591316 -111.78545
5565000000 -27.934181 -113.60635 -0.70335883 -113.79716 -0.7082001 -113.7926 -27.698523 -112.30622
5592500000 -27.970877 -114.04259 -0.70485967 -114.35432 -0.70838171 -114.35054 -27.784136 -113.03532
5620000000 -28.075029 -114.64012 -0.70707953 -114.91324 -0.70983303 -114.91221 -27.746588 -113.56284
5647500000 -28.094957 -115.13959 -0.70728272 -115.45528 -0.70969647 -115.46799 -27.872478 -114.12774
5675000000 -28.207418 -115.67517 -0.70771807 -116.01803 -0.71055245 -116.02691 -27.983652 -114.44939
5702500000 -28.30467 -116.09987 -0.70807397 -116.56346 -0.7099821 -116.58617 -27.972921 -115.26961
5730000000 -28.359962 -116.59963 -0.70769554 -117.12802 -0.71246356 -117.14123 -28.059025 -115.28545
5757500000 -28.437654 -117.07088 -0.70922101 -117.68163 -0.71124154 -117.68898 -28.179323 -116.31327
5785000000 -28.577496 -117.828 -0.70926332 -118.24167 -0.71265173 -118.24815 -28.218498 -116.7241
5812500000 -28.597445 -117.92868 -0.71057993 -118.79246 -0.71276093 -118.79929 -28.267841 -116.88625
5840000000 -28.65428 -118.60789 -0.71098906 -119.34417 -0.71314281 -119.3656 -28.368193 -117.7866
5867500000 -28.792114 -119.35558 -0.70939291 -119.90149 -0.71312666 -119.91045 -28.499668 -118.25224
5895000000 -28.843769 -119.60234 -0.71117264 -120.46239 -0.71465129 -120.45885 -28.496065 -118.538
5922500000 -28.919029 -120.13009 -0.71260232 -121.01885 -0.71517313 -121.01897 -28.665943 -119.1937
5950000000 -29.030291 -120.54221 -0.71322703 -121.5743 -0.71455669 -121.57485 -28.729776 -120.04671
5977500000 -29.138363 -120.83972 -0.71192735 -122.14311 -0.71635532 -122.14265 -28.778322 -119.81713
6005000000 -29.16189 -121.36495 -0.71268958 -122.69148 -0.71520978 -122.69476 -28.80435 -120.54119
6032500000 -29.277906 -121.84743 -0.71401781 -123.2572 -0.7161783 -123.25204 -28.943029 -121.2283
6060000000 -29.386427 -121.8759 -0.71364683 -123.80055 -0.71617371 -123.80931 -29.041744 -121.09261
6087500000 -29.411001 -122.44942 -0.71455973 -124.36022 -0.71668172 -124.36172 -29.103376 -121.43182
6115000000 -29.486004 -122.73695 -0.71568406 -124.92522 -0.71745968 -124.91898 -29.20879 -122.48026
6142500000 -29.693792 -123.56997 -0.71601069 -125.47501 -0.71753758 -125.48927 -29.290417 -122.42805
6170000000 -29.726452 -123.39088 -0.71536785 -126.03306 -0.71953511 -126.04166 -29.360191 -122.30719
6197500000 -29.790167 -123.95696 -0.71473432 -126.60372 -0.71943277 -126.59733 -29.496407 -123.79445
6225000000 -29.889925 -124.13737 -0.71770489 -127.15504 -0.7191413 -127.16053 -29.674036 -123.19495
6252500000 -30.059263 -124.61451 -0.71636695 -127.70813 -0.7198348 -127.71903 -29.641958 -123.28194
6280000000 -30.030922 -124.76633 -0.7177223 -128.26935 -0.72098219 -128.27521 -29.697727 -124.56895
6307500000 -30.168533 -125.01469 -0.71783286 -128.83255 -0.7204563 -128.83858 -29.856979 -124.76349
6335000000 -30.38372 -125.17154 -0.71976024 -129.40071 -0.72219962 -129.38614 -29.964195 -124.40411
6362500000 -30.369139 -125.50146 -0.72021121 -129.94711 -0.72393596 -129.95067 -29.932281 -125.5353
6390000000 -30.38883 -125.91838 -0.72084498 -130.50192 -0.72486395 -130.50751 -30.064274 -125.33293
6417500000 -30.629421 -125.69992 -0.72102773 -131.05423 -0.72434795 -131.05951 -30.204067 -124.19157
6445000000 -30.687263 -126.48666 -0.72042269 -131.61499 -0.7249245 -131.62119 -30.287485 -126.12012
6472500000 -30.669262 -126.70284 -0.72264165 -132.17317 -0.72691685 -132.18872 -30.326979 -126.76302
6500000000 -30.869539 -126.81282 -0.72474247 -132.7326 -0.72594047 -132.75529 -30.45686 -125.11913
6527500000 -30.959522 -126.85048 -0.72294921 -133.30542 -0.72662032 -133.30414 -30.584984 -126.4949
6555000000 -30.967556 -127.77808 -0.72310823 -133.85252 -0.72769243 -133.84959 -30.712629 -128.03792
6582500000 -31.067024 -127.16235 -0.72300792 -134.41939 -0.72657502 -134.42578 -30.637749 -126.53932
6610000000 -31.306381 -127.64493 -0.72431672 -134.97101 -0.7294631 -134.98593 -30.847868 -126.79561
6637500000 -31.328033 -128.00412 -0.72639143 -135.5302 -0.73234022 -135.53429 -30.899157 -128.37251
6665000000 -31.314085 -128.28616 -0.7273407 -136.09988 -0.73073316 -136.09824 -30.836021 -127.3186
6692500000 -31.459 -127.72081 -0.72870994 -136.6552 -0.73153508 -136.659 -31.074915 -126.9308
6720000000 -31.612822 -128.46259 -0.72862756 -137.21759 -0.73282897 -137.21547 -31.202595 -128.48416
6747500000 -31.64922 -128.56302 -0.72998524 -137.76031 -0.73542625 -137.77742 -31.114756 -128.68159
6775000000 -31.742937 -128.73819 -0.7319352 -138.32481 -0.73619747 -138.33534 -31.198 -127.30064
6802500000 -31.936275 -129.06662 -0.73450404 -138.88219 -0.73510981 -138.88219 -31.478052 -128.4458
6830000000 -31.959717 -129.11362 -0.73373526 -139.44154 -0.73452485 -139.45375 -31.487226 -129.9214
6857500000 -32.01083 -129.66299 -0.73552066 -139.99982 -0.74001086 -140.00725 -31.457716 -129.04166
6885000000 -32.188229 -129.58675 -0.73801064 -140.55907 -0.73878568 -140.55954 -31.554277 -129.0332
6912500000 -32.248726 -129.78813 -0.7380634 -141.10957 -0.74157476 -141.11458 -31.735771 -130.5668
6940000000 -32.320862 -130.50839 -0.73845983 -141.66269 -0.74293739 -141.66409 -31.743095 -129.82637
6967500000 -32.512905 -130.40581 -0.73960942 -142.21751 -0.74268401 -142.22491 -31.897203 -129.69081
6995000000 -32.697952 -130.38283 -0.74080348 -142.77414 -0.74390227 -142.7823 -32.09552 -130.72733
7022500000 -32.780174 -131.22089 -0.73955965 -143.31877 -0.74421316 -143.3298 -32.16666 -131.28253
7050000000 -33.040337 -131.70644 -0.74161035 -143.88574 -0.74311525 -143.88904 -32.211082 -130.77957
7077500000 -33.204933 -131.07724 -0.74173748 -144.43306 -0.74554652 -144.4353 -32.492794 -130.9888
7105000000 -33.273888 -131.00259 -0.74027854 -144.98857 -0.7446627 -144.99327 -32.681171 -131.39384
7132500000 -33.562775 -131.22536 -0.73974383 -145.54451 -0.7441026 -145.54712 -32.661362 -131.66141
7160000000 -33.771694 -130.19171 -0.73955965 -146.1076 -0.74401408 -146.11462 -32.877354 -130.295
7187500000 -33.667732 -130.47963 -0.74153113 -146.67198 -0.74445498 -146.67006 -33.034962 -130.43936
7215000000 -33.991158 -130.4912 -0.74225801 -147.22864 -0.74576843 -147.23599 -33.165592 -131.4604
7242500000 -34.139668 -129.40965 -0.74189007 -147.79677 -0.74590707 -147.7964 -33.234871 -130.35289
7270000000 -34.183472 -129.92609 -0.74447924 -148.35942 -0.74703151 -148.36052 -33.418087 -130.6851
7297500000 -34.190716 -129.9671 -0.74559414 -148.92336 -0.74638778 -148.91893 -33.474716 -130.84799
7325000000 -34.470745 -128.7262 -0.7461791 -149.49046 -0.74878496 -149.49028 -33.470894 -129.81834
7352500000 -34.541561 -127.80685 -0.74593627 -150.04202 -0.75082028 -150.03758 -33.735706 -129.60416
7380000000 -34.708099 -128.94736 -0.7478888 -150.59532 -0.75245243 -150.60954 -33.866489 -130.2357
7407500000 -34.697353 -127.9705 -0.74895716 -151.15994 -0.75097907 -151.15858 -33.808914 -129.82841
7435000000 -34.848431 -126.74804 -0.74982774 -151.71605 -0.75262016 -151.71359 -33.902435 -128.68848
7462500000 -34.971798 -127.55948 -0.75164753 -152.27589 -0.75333011 -152.28607 -34.230545 -128.83684
7490000000 -35.112175 -126.94942 -0.75126833 -152.83688 -0.75423169 -152.83572 -34.07093 -129.17661
7517500000 -35.173065 -125.51168 -0.75386864 -153.3947 -0.75786591 -153.39966 -34.259933 -128.02518
7545000000 -35.29628 -126.30256 -0.7552287 -153.95212 -0.75717551 -153.95679 -34.396706 -128.15872
7572500000 -35.347649 -125.60104 -0.75649083 -154.5195 -0.75942141 -154.51318 -34.483727 -128.71483
7600000000 -35.62867 -124.85017 -0.75713515 -155.06732 -0.76069313 -155.07521 -34.439384 -127.66774
7627500000 -35.61496 -125.44057 -0.75874931 -155.62549 -0.7611385 -155.63396 -34.796257 -127.22395
7655000000 -35.659664 -124.81518 -0.75984287 -156.185 -0.76360273 -156.17932 -34.873299 -128.14668
7682500000 -35.872734 -123.21932 -0.76153946 -156.73656 -0.76648468 -156.73836 -34.762203 -127.88313
7710000000 -36.051193 -123.28147 -0.76168013 -157.29102 -0.76607764 -157.297 -35.049007 -126.42563
7737500000 -36.111847 -123.74855 -0.76394874 -157.8548 -0.7675913 -157.85336 -35.171921 -127.07599
7765000000 -36.18034 -122.00938 -0.76356506 -158.41034 -0.76760185 -158.40787 -35.069191 -126.11354
7792500000 -36.266491 -121.61988 -0.76644701 -158.96527 -0.76916611 -158.96538 -35.369759 -125.25983
7820000000 -36.392944 -121.39378 -0.76732039 -159.51059 -0.7689575 -159.5154 -35.527054 -126.29682
7847500000 -36.468166 -120.94683 -0.77054083 -160.06795 -0.77328229 -160.06473 -35.448547 -125.47546
7875000000 -36.674652 -119.58508 -0.76777667 -160.62746 -0.77178675 -160.62013 -35.61058 -124.60371
7902500000 -36.832077 -119.56799 -0.76910704 -161.17801 -0.77427375 -161.19572 -35.908451 -124.41611
7930000000 -36.646748 -118.56232 -0.77098411 -161.73134 -0.7755987 -161.7379 -35.854622 -124.53229
7957500000 -36.876022 -117.39342 -0.77146578 -162.30013 -0.77643532 -162.29781 -35.883633 -123.01355
7985000000 -37.102528 -117.10976 -0.77381682 -162.83992 -0.77714199 -162.85129 -36.15942 -122.8307
8012500000 -37.057514 -117.8322 -0.77535266 -163.40425 -0.77846009 -163.40591 -36.052101 -122.88031
8040000000 -37.218163 -115.98716 -0.77668661 -163.95425 -0.78021044 -163.95189 -36.28474 -121.38358
8067500000 -37.364559 -115.89642 -0.77597934 -164.50943 -0.78069007 -164.50189 -36.657085 -120.91004
8095000000 -37.250702 -114.84451 -0.77929044 -165.06082 -0.78163826 -165.07028 -36.566761 -120.30014
8122500000 -37.449688 -113.43271 -0.77961195 -165.62195 -0.78211492 -165.61685 -36.357712 -119.20815
8150000000 -37.665722 -113.36919 -0.77884722 -166.17184 -0.78365964 -166.17853 -36.99807 -119.68935
8177500000 -37.652512 -111.69747 -0.78136402 -166.72643 -0.78388625 -166.7234 -36.676849 -119.38354
8205000000 -37.777538 -110.70274 -0.78260529 -167.27989 -0.78419912 -167.2939 -36.527149 -116.68049
8232500000 -38.027 -110.40266 -0.7843976 -167.83241 -0.78777778 -167.84619 -37.389816 -114.84099
8260000000 -37.876411 -109.06783 -0.78479517 -168.39493 -0.78777468 -168.39177 -37.191792 -116.95779
8287500000 -37.815224 -107.10696 -0.78628683 -168.95039 -0.78876972 -168.96028 -36.562717 -113.66083
8315000000 -38.239902 -105.22662 -0.78594184 -169.49374 -0.78989673 -169.50699 -37.611839 -112.55029
8342500000 -38.034668 -105.19532 -0.79014355 -170.06422 -0.79221296 -170.06651 -37.543724 -115.92759
8370000000 -37.91312 -104.12334 -0.79070437 -170.62007 -0.79345644 -170.63329 -36.475365 -111.19118
8397500000 -38.576187 -101.87677 -0.79168802 -171.18022 -0.79598045 -171.18611 -37.759922 -104.48163
8425000000 -38.00634 -101.14371 -0.79426539 -171.72971 -0.79900092 -171.73061 -38.716099 -116.02564
8452500000 -37.72591 -101.52709 -0.80041283 -172.28769 -0.79949069 -172.29196 -36.178883 -115.03719
8480000000 -38.443069 -96.406822 -0.80416 -172.8093 -0.80501956 -172.82628 -36.240662 -94.809082
8507500000 -37.801697 -96.369896 -0.8079868 -173.33946 -0.81294364 -173.34909 -41.495682 -98.837494
8535000000 -37.869495 -100.49057 -0.81016362 -173.87379 -0.81180102 -173.882 -37.468811 -129.24031
8562500000 -37.601765 -92.971046 -0.80248034 -174.33554 -0.8058902 -174.36211 -33.648479 -105.43219
8590000000 -37.648209 -96.669144 -0.79880989 -174.8257 -0.80415565 -174.84598 -35.984047 -72.346428
8617500000 -38.79047 -99.258827 -0.79138857 -175.42279 -0.7948451 -175.41464 -45.381538 -90.960335
8645000000 -37.406296 -94.529274 -0.78050786 -176.02602 -0.7822665 -176.02795 -36.240673 -130.8985
8672500000 -37.942783 -94.84285 -0.77560985 -176.60986 -0.77705657 -176.62988 -34.297504 -99.476135
8700000000 -38.597233 -86.968086 -0.77979439 -177.20256 -0.78205508 -177.20987 -36.77951 -75.129875
8727500000 -38.053528 -91.771851 -0.78712362 -177.79564 -0.78956199 -177.81403 -40.229202 -107.70054
8755000000 -37.889755 -90.20826 -0.78365034 -178.3932 -0.78630698 -178.39967 -36.350094 -108.37029
8782500000 -37.756401 -84.853813 -0.78924316 -178.91237 -0.7928943 -178.92262 -35.85582 -86.630974
8810000000 -37.726791 -87.116234 -0.79320008 -179.48502 -0.79692358 -179.4854 -38.64904 -86.301331
8837500000 -37.766445 -86.963249 -0.79544944 179.94392 -0.79713011 179.92125 -37.444649 -103.44673
8865000000 -37.381374 -82.911224 -0.7961179 179.41318 -0.79787409 179.40385 -35.837132 -90.914398
8892500000 -37.320393 -82.979889 -0.79876387 178.86775 -0.80310065 178.84462 -37.341187 -83.251717
8920000000 -37.42168 -83.150185 -0.7987228 178.28673 -0.8022306 178.27493 -37.738617 -96.386246
8947500000 -36.999653 -80.93026 -0.79943812 177.7435 -0.80034465 177.71924 -36.214809 -92.877563
8975000000 -36.874378 -79.58033 -0.79999638 177.201 -0.80305767 177.18842 -36.376377 -84.887169
9002500000 -37.063705 -80.296944 -0.80139899 176.64523 -0.80333734 176.62717 -37.258282 -89.809502
9030000000 -36.71011 -78.978966 -0.80105096 176.07269 -0.80416906 176.076 -36.289848 -90.829582
9057500000 -36.57309 -77.611282 -0.80134666 175.53128 -0.80539006 175.52422 -36.015717 -83.413902
9085000000 -36.675777 -77.747322 -0.80491489 174.98317 -0.80822253 174.96724 -36.980755 -84.540001
9112500000 -36.42511 -77.612076 -0.80554676 174.40836 -0.80800891 174.40747 -36.289646 -88.158333
9140000000 -36.096737 -75.326935 -0.80469239 173.8795 -0.80812085 173.8625 -35.772255 -84.026329
9167500000 -36.210049 -75.398804 -0.80722046 173.3199 -0.81134921 173.30548 -36.089844 -81.510376
9195000000 -36.056911 -75.394951 -0.80654061 172.75409 -0.81110144 172.74948 -36.263515 -85.987091
9222500000 -35.822655 -74.252502 -0.80686295 172.2014 -0.80973881 172.20007 -35.477245 -83.940117
9250000000 -35.832409 -73.696396 -0.8079235 171.65218 -0.81450123 171.64198 -35.502678 -80.452423
9277500000 -35.798336 -73.789108 -0.80965894 171.08781 -0.8124705 171.08524 -35.875511 -81.687263
9305000000 -35.449287 -72.690338 -0.81120443 170.53009 -0.81423706 170.54227 -35.387699 -82.834175
9332500000 -35.341026 -71.01429 -0.81164998 169.99127 -0.81419897 169.9817 -35.209206 -79.819481
9360000000 -35.260372 -72.524734 -0.81214839 169.43158 -0.81617182 169.41617 -35.385326 -79.834236
9387500000 -35.042198 -72.10434 -0.81086433 168.88254 -0.81454557 168.87354 -35.125221 -82.007179
9415000000 -34.82795 -70.062729 -0.81206757 168.32976 -0.81537127 168.31241 -34.768036 -79.490677
9442500000 -34.828335 -70.637512 -0.81282753 167.76686 -0.81632149 167.76407 -34.810234 -78.114502
9470000000 -34.734928 -71.153572 -0.81257534 167.21986 -0.81647456 167.20871 -34.912834 -79.908546
9497500000 -34.46349 -69.954018 -0.81443506 166.66959 -0.81828809 166.64635 -34.568489 -79.436516
9525000000 -34.379288 -69.726967 -0.81190276 166.11308 -0.81901103 166.08916 -34.376522 -77.104408
9552500000 -34.329498 -70.466408 -0.81590289 165.55817 -0.8199783 165.53889 -34.569084 -78.12851
9580000000 -34.151272 -70.083038 -0.81706125 164.99216 -0.81984478 164.98621 -34.29652 -79.159126
9607500000 -33.995529 -69.539848 -0.81432796 164.4417 -0.8202306 164.42818 -34.008881 -77.404564
9635000000 -33.871006 -70.601768 -0.81714094 163.87733 -0.82224405 163.88139 -34.198612 -76.957542
9662500000 -33.761326 -69.634453 -0.81740838 163.32951 -0.82201976 163.3257 -34.010708 -78.98204
9690000000 -33.613163 -69.225899 -0.81878942 162.76958 -0.82183486 162.7677 -33.614414 -77.935143
9717500000 -33.432076 -70.031456 -0.81816435 162.21266 -0.82309651 162.21187 -33.615219 -76.202446
9745000000 -33.294983 -69.771629 -0.81950682 161.67171 -0.82354367 161.65297 -33.749561 -77.317039
9772500000 -33.272102 -68.889076 -0.82198441 161.10526 -0.82440078 161.09921 -33.307735 -77.797058
9800000000 -33.013309 -69.923798 -0.82129318 160.53972 -0.82554203 160.54446 -33.163418 -77.370552
9827500000 -32.927029 -70.311272 -0.82222372 159.99825 -0.82573336 159.98605 -33.363792 -77.03643
9855000000 -32.830154 -68.515663 -0.82268137 159.45692 -0.82576621 159.43068 -33.171165 -78.16787
9882500000 -32.649433 -69.845528 -0.82283157 158.88272 -0.82793695 158.88589 -32.839478 -76.859474
9910000000 -32.576603 -70.492752 -0.82416421 158.3362 -0.82702303 158.33301 -33.081833 -76.457886
9937500000 -32.528748 -69.643715 -0.82341415 157.77333 -0.82857662 157.76566 -32.865692 -78.345291
9965000000 -32.315472 -69.873016 -0.82479739 157.20703 -0.82804906 157.21268 -32.397766 -77.139282
9992500000 -32.323948 -70.577057 -0.82457417 156.66238 -0.82815623 156.65707 -32.542572 -75.880951
10020000000 -32.226906 -70.048576 -0.82529444 156.11577 -0.82929844 156.12004 -32.688709 -77.863174
10047500000 -32.027779 -69.372025 -0.82477951 155.5589 -0.82974184 155.55251 -32.159283 -78.127533
10075000000 -31.90366 -71.200615 -0.82874483 154.99815 -0.83155215 154.99583 -32.143375 -76.152779
10102500000 -31.883383 -70.726295 -0.82832754 154.4626 -0.83128411 154.43111 -32.364651 -77.390938
10130000000 -31.736795 -70.212929 -0.82788998 153.89699 -0.83411694 153.89288 -32.05307 -78.840164
10157500000 -31.62812 -71.619041 -0.82796764 153.33826 -0.83466339 153.31862 -31.682589 -76.709297
10185000000 -31.559092 -71.548744 -0.8286643 152.79536 -0.83190292 152.76848 -32.268478 -76.540161
10212500000 -31.431723 -70.993523 -0.82828462 152.23581 -0.83298659 152.21504 -31.836302 -79.291191
10240000000 -31.274931 -72.235466 -0.82797796 151.65775 -0.83445221 151.65451 -31.400616 -77.408615
10267500000 -31.221058 -72.287674 -0.83231777 151.1154 -0.83587354 151.10382 -31.830467 -76.670387
10295000000 -31.059057 -71.367149 -0.8326062 150.55339 -0.83588451 150.55249 -31.725054 -79.617531
10322500000 -30.963112 -72.1418 -0.83189136 150.0015 -0.8342433 149.99118 -31.147501 -79.078728
10350000000 -30.943695 -73.623802 -0.83176625 149.45937 -0.83742619 149.44626 -31.382669 -76.891579
10377500000 -30.746881 -72.333008 -0.83376062 148.88699 -0.83765876 148.88303 -31.525766 -79.496384
10405000000 -30.734119 -73.045082 -0.83625227 148.34785 -0.8373847 148.32074 -30.877378 -80.861603
10432500000 -30.608274 -74.034088 -0.83588135 147.79207 -0.83884716 147.75961 -30.888807 -77.017998
10460000000 -30.503359 -73.301865 -0.8381865 147.22066 -0.83995575 147.214 -31.282438 -79.777092
10487500000 -30.432827 -74.345932 -0.83742237 146.67567 -0.8399294 146.65138 -30.630014 -81.417175
10515000000 -30.394913 -75.099922 -0.83917123 146.11633 -0.84078693 146.09062 -30.468777 -78.688507
10542500000 -30.341043 -74.879044 -0.83873159 145.56171 -0.8425315 145.5556 -30.869907 -78.333244
10570000000 -30.193846 -74.853943 -0.84160882 145.02094 -0.84312236 144.99014 -30.581059 -81.515846
10597500000 -30.143755 -76.139801 -0.84177917 144.43855 -0.84463704 144.42557 -30.134748 -80.090912
10625000000 -30.036539 -75.766289 -0.84108979 143.88571 -0.84544927 143.88722 -30.561588 -78.84304
10652500000 -30.044903 -76.034729 -0.84235674 143.3318 -0.84653223 143.31627 -30.505268 -82.130241
10680000000 -29.97216 -76.88903 -0.84102887 142.78877 -0.84547663 142.76193 -29.940948 -81.55114
10707500000 -29.86249 -77.387726 -0.84381646 142.22609 -0.84735113 142.20062 -30.089767 -79.435493
10735000000 -29.715523 -76.758736 -0.84386802 141.67282 -0.84875619 141.65059 -30.329702 -82.391167
10762500000 -29.72019 -77.367378 -0.84568739 141.10422 -0.84823251 141.10574 -29.708237 -83.562492
10790000000 -29.546503 -77.925781 -0.84711546 140.56438 -0.84764469 140.5527 -29.718391 -81.671074
10817500000 -29.460016 -77.850372 -0.8461799 139.99945 -0.85065067 139.9978 -30.081886 -82.132416
10845000000 -29.517927 -78.890785 -0.84680116 139.45413 -0.85264957 139.4312 -29.711136 -84.155678
10872500000 -29.429369 -79.480118 -0.85006249 138.90024 -0.85207218 138.88622 -29.458031 -83.105438
10900000000 -29.18581 -79.280296 -0.84949714 138.35451 -0.85135162 138.33165 -29.849115 -82.4972
10927500000 -29.290192 -80.469475 -0.8492384 137.79713 -0.85434121 137.78149 -29.62389 -85.269821
10955000000 -29.174614 -80.7164 -0.8503207 137.23293 -0.85482275 137.2256 -29.159903 -84.172249
10982500000 -29.004929 -80.637779 -0.85091197 136.68747 -0.85448742 136.66823 -29.500631 -83.183311
11010000000 -28.970018 -81.412827 -0.853181 136.12303 -0.85684031 136.12297 -29.503115 -85.737595
11037500000 -28.987608 -81.745361 -0.85203689 135.56914 -0.85741991 135.54662 -28.986542 -86.443367
11065000000 -28.833445 -81.599335 -0.85312337 135.02496 -0.85843426 135.00937 -29.070509 -84.359596
11092500000 -28.830124 -81.995689 -0.8554194 134.47009 -0.85818255 134.45828 -29.299574 -85.946465
11120000000 -28.895069 -82.635986 -0.85744959 133.92285 -0.8588686 133.92213 -28.939106 -87.641624
11147500000 -28.723694 -83.04628 -0.85529113 133.36011 -0.85948604 133.35226 -28.791002 -86.393646
11175000000 -28.663393 -83.657646 -0.85806459 132.80212 -0.86042762 132.80441 -29.024744 -86.573616
11202500000 -28.745436 -84.297729 -0.85627216 132.2453 -0.8628273 132.24287 -28.764057 -88.591118
11230000000 -28.616295 -84.349403 -0.8596217 131.70459 -0.86249954 131.69012 -28.494509 -88.229515
11257500000 -28.495962 -84.994347 -0.85833895 131.14882 -0.86317146 131.14101 -28.742229 -87.273064
11285000000 -28.569265 -86.047073 -0.86064315 130.58716 -0.86259872 130.58032 -28.609278 -89.236282
11312500000 -28.413326 -85.963264 -0.8603645 130.03963 -0.86552054 130.02133 -28.342157 -89.76329
11340000000 -28.225096 -85.97081 -0.8620162 129.48457 -0.86472982 129.47675 -28.475895 -87.989204
11367500000 -28.332937 -87.157814 -0.8633123 128.9352 -0.86680573 128.9259 -28.558558 -90.164612
11395000000 -28.23007 -87.023369 -0.86446255 128.37555 -0.86898565 128.37105 -28.2652 -90.805962
11422500000 -28.068064 -87.535606 -0.86192465 127.82971 -0.86832488 127.8139 -28.319426 -89.561295
11450000000 -28.087963 -88.099556 -0.86474341 127.27354 -0.869497 127.27779 -28.461552 -91.147873
11477500000 -28.072361 -88.616081 -0.8650018 126.72027 -0.86842793 126.71587 -28.147705 -93.213097
11505000000 -27.88644 -88.800636 -0.86655921 126.16659 -0.86867583 126.14836 -28.032038 -92.468506
11532500000 -27.943018 -89.446304 -0.86639738 125.61446 -0.87173557 125.61193 -28.201746 -92.639732
11560000000 -27.96509 -90.48246 -0.86692452 125.07323 -0.87165588 125.04465 -28.018551 -94.406013
11587500000 -27.790289 -90.3535 -0.86569846 124.50264 -0.8720656 124.5051 -27.824678 -94.195061
11615000000 -27.812696 -91.398743 -0.86843365 123.95937 -0.87123382 123.9558 -27.92271 -94.204918
11642500000 -27.832777 -91.864395 -0.86874413 123.39787 -0.87372845 123.3884 -27.933146 -95.334251
11670000000 -27.696865 -91.951004 -0.86944008 122.85146 -0.87408459 122.84933 -27.728432 -95.797485
11697500000 -27.654545 -92.410355 -0.87031078 122.29162 -0.87529212 122.29361 -27.799612 -95.18914
11725000000 -27.692537 -93.320045 -0.87105948 121.74188 -0.87674552 121.74123 -27.766672 -96.654526
11752500000 -27.59878 -93.426506 -0.87152553 121.20098 -0.87421626 121.17857 -27.603594 -97.350471
11780000000 -27.508713 -94.055176 -0.87339926 120.64461 -0.87772506 120.6264 -27.612364 -96.743286
11807500000 -27.574297 -95.100632 -0.87496853 120.08224 -0.87782174 120.09247 -27.710945 -97.897049
11835000000 -27.49073 -95.380829 -0.87378001 119.53376 -0.87983638 119.53027 -27.500319 -98.843513
11862500000 -27.409378 -95.956619 -0.87371385 118.98181 -0.87705821 118.98168 -27.51207 -98.841385
11890000000 -27.41622 -96.703148 -0.87483901 118.43069 -0.87905979 118.42889 -27.527208 -99.226967
11917500000 -27.374798 -97.3424 -0.87578362 117.88408 -0.87741363 117.87971 -27.400661 -100.66787
11945000000 -27.320827 -97.293449 -0.87694889 117.32551 -0.8786906 117.32096 -27.326456 -100.59527
11972500000 -27.279146 -98.239014 -0.87413013 116.78495 -0.88136327 116.76466 -27.442179 -100.42199
12000000000 -27.239059 -98.832466 -0.87841964 116.22284 -0.88079476 116.21459 -27.378998 -102.04483
12027500000 -27.175684 -98.995071 -0.87840664 115.68986 -0.88086325 115.66453 -27.208599 -102.50111
12055000000 -27.141802 -99.53228 -0.87860692 115.12882 -0.88087273 115.12258 -27.390062 -102.09578
12082500000 -27.068117 -100.70361 -0.87508059 114.57901 -0.88042444 114.56408 -27.311855 -103.92585
12110000000 -27.019426 -100.78118 -0.88033056 114.01192 -0.88117331 114.02299 -27.206955 -104.18332
12137500000 -26.994352 -101.03731 -0.87672496 113.46715 -0.88300651 113.46249 -27.30323 -104.50679
12165000000 -26.934738 -101.97311 -0.8774187 112.92112 -0.88253421 112.91085 -27.291008 -105.46029
12192500000 -26.951778 -102.23412 -0.87697965 112.37562 -0.8820042 112.3532 -27.09339 -106.3721
12220000000 -26.941715 -103.20951 -0.87770516 111.81468 -0.88024151 111.79875 -27.093605 -106.38871
12247500000 -26.890821 -103.85774 -0.87732428 111.26516 -0.88310105 111.25221 -27.218195 -107.11681
12275000000 -26.864138 -104.54935 -0.87736773 110.72086 -0.88330245 110.70181 -26.996851 -108.34155
12302500000 -26.922459 -105.01139 -0.87749219 110.14295 -0.88200545 110.14499 -27.020102 -107.8462
12330000000 -26.892164 -105.80581 -0.87700653 109.60001 -0.88110387 109.59241 -27.122959 -108.13872
12357500000 -26.849314 -106.33117 -0.87606615 109.04801 -0.88205779 109.04256 -26.933361 -109.47844
12385000000 -26.875479 -106.74349 -0.8775388 108.49407 -0.87967408 108.4736 -26.958197 -109.27236
12412500000 -26.782576 -106.90513 -0.87750489 107.93182 -0.88121802 107.93436 -27.10467 -109.67371
12440000000 -26.736919 -108.02484 -0.87977362 107.39708 -0.8829605 107.38918 -26.980825 -111.40951
12467500000 -26.808907 -108.44836 -0.87714469 106.84025 -0.88342333 106.83105 -26.858126 -111.51221
12495000000 -26.757372 -108.5644 -0.87720835 106.28496 -0.88324571 106.27861 -27.111643 -111.62714
12522500000 -26.656338 -109.71301 -0.87759805 105.73843 -0.88190174 105.72197 -27.04974 -112.93233
12550000000 -26.701117 -110.19513 -0.8791194 105.16956 -0.88395894 105.16592 -26.88324 -113.30882
12577500000 -26.701319 -110.34824 -0.87811548 104.60799 -0.88298142 104.61398 -27.052477 -113.19396
12605000000 -26.571301 -111.06166 -0.87914509 104.05426 -0.88203716 104.05991 -27.076651 -114.29235
12632500000 -26.633404 -111.64474 -0.87697327 103.51053 -0.88204449 103.49917 -26.835415 -115.42931
12660000000 -26.689367 -112.13111 -0.87748396 102.9487 -0.88386434 102.95852 -26.966381 -114.93509
12687500000 -26.574642 -113.02187 -0.87610632 102.38773 -0.88231248 102.38506 -27.086956 -116.19232
12715000000 -26.595078 -113.62549 -0.87833822 101.83936 -0.88199973 101.84227 -26.889698 -116.87683
12742500000 -26.688599 -114.46459 -0.87788635 101.27968 -0.88389194 101.27309 -26.927378 -117.34518
12770000000 -26.622112 -114.70183 -0.88026685 100.73816 -0.8817749 100.71461 -27.112141 -117.8725
12797500000 -26.577908 -115.3753 -0.87741745 100.18009 -0.8831169 100.18516 -26.922852 -118.48395
12825000000 -26.668419 -116.03785 -0.88020283 99.619957 -0.88030171 99.607399 -26.81703 -118.43629
12852500000 -26.647594 -116.57098 -0.87906808 99.06517 -0.88205969 99.056137 -26.995296 -119.07179
12880000000 -26.548668 -117.15035 -0.88021964 98.49807 -0.8810814 98.495384 -26.925093 -119.80738
12907500000 -26.67804 -117.89346 -0.87866938 97.962982 -0.88198137 97.935287 -26.838739 -120.05974
12935000000 -26.718857 -118.69223 -0.87793899 97.384361 -0.88367176 97.377045 -27.00246 -121.23507
12962500000 -26.628763 -118.87398 -0.87831062 96.839294 -0.88146603 96.827568 -26.991905 -121.44289
12990000000 -26.685658 -119.76169 -0.87818676 96.274338 -0.88070947 96.276924 -26.798609 -121.43095
13017500000 -26.763962 -120.20779 -0.87814081 95.719589 -0.88166231 95.707962 -26.952557 -122.30844
13045000000 -26.698524 -120.33654 -0.88082993 95.163574 -0.88290656 95.152435 -27.085407 -122.8105
13072500000 -26.663328 -120.96127 -0.87775964 94.600395 -0.88103098 94.586243 -26.866516 -122.95229
13100000000 -26.816193 -121.97032 -0.87911367 94.053276 -0.88259792 94.040604 -26.956348 -123.7425
13127500000 -26.7836 -122.1095 -0.87996411 93.498886 -0.88333261 93.495018 -27.114567 -124.35354
13155000000 -26.658939 -122.55073 -0.87847888 92.942398 -0.88387358 92.925537 -26.957548 -124.64413
13182500000 -26.826824 -123.58513 -0.8793717 92.387566 -0.88374567 92.372307 -26.936621 -124.95195
13210000000 -26.814436 -123.52535 -0.88146949 91.822197 -0.88433522 91.819366 -27.110968 -126.00008
13237500000 -26.778984 -123.78173 -0.87981576 91.281807 -0.88415343 91.259598 -27.085598 -125.72089
13265000000 -26.820889 -125.0015 -0.87942713 90.703369 -0.88289994 90.70665 -26.931459 -126.30423
13292500000 -26.924101 -125.33807 -0.88056391 90.153015 -0.88386434 90.139664 -27.070858 -127.3868
13320000000 -26.835253 -125.49921 -0.88065809 89.582298 -0.88499594 89.574257 -27.122747 -127.72961
13347500000 -26.881613 -126.3549 -0.88044852 89.033569 -0.88492137 89.022942 -26.95657 -128.29166
13375000000 -26.994892 -126.70679 -0.88143969 88.474167 -0.88441807 88.472885 -27.06296 -128.73445
13402500000 -26.940672 -127.1084 -0.88247359 87.921951 -0.88440537 87.917534 -27.100647 -129.05777
13430000000 -26.9576 -127.58904 -0.88256019 87.361084 -0.88446504 87.352455 -27.017258 -129.09599
13457500000 -27.112379 -128.57855 -0.88054711 86.810944 -0.88603199 86.800362 -27.005613 -129.61017
13485000000 -27.053373 -128.51761 -0.88303757 86.24675 -0.88617384 86.234619 -27.148733 -130.26199
13512500000 -27.064491 -128.85204 -0.88126117 85.68705 -0.88516539 85.681671 -27.035709 -130.07509
13540000000 -27.19392 -130.35417 -0.88399696 85.122719 -0.88580561 85.108261 -27.007917 -131.15315
13567500000 -27.201387 -129.94928 -0.88435584 84.573921 -0.88756168 84.555672 -27.101639 -131.34521
13595000000 -27.204966 -129.84109 -0.88293356 84.008438 -0.88870728 84.008209 -27.099035 -130.78535
13622500000 -27.277115 -131.51584 -0.88514799 83.450745 -0.88837534 83.431267 -27.03054 -131.59225
13650000000 -27.295139 -131.35667 -0.8834303 82.885872 -0.88897312 82.881416 -27.154297 -132.4339
13677500000 -27.231586 -131.41644 -0.88447738 82.332161 -0.89004314 82.317764 -27.204926 -132.42725
13705000000 -27.254467 -132.07607 -0.88919294 81.777985 -0.8930102 81.761955 -27.129915 -132.71387
13732500000 -27.322046 -132.83665 -0.88883239 81.210197 -0.8932929 81.207703 -27.165611 -133.83604
13760000000 -27.364073 -132.56155 -0.89091194 80.645653 -0.89186352 80.651176 -27.249067 -133.77525
13787500000 -27.317514 -133.25801 -0.89057916 80.10183 -0.89318985 80.090233 -27.168562 -134.04027
13815000000 -27.402651 -134.33478 -0.89284235 79.548805 -0.89674717 79.532997 -27.151276 -134.6776
13842500000 -27.339024 -134.04167 -0.89439321 78.998329 -0.89711094 78.966972 -27.193081 -135.81012
13870000000 -27.346077 -134.38593 -0.89646679 78.43457 -0.89863974 78.42366 -27.105515 -135.15477
13897500000 -27.434818 -136.02959 -0.89660555 77.887199 -0.90101737 77.885727 -27.119022 -136.25774
13925000000 -27.438519 -136.45862 -0.89626986 77.349869 -0.90138048 77.341988 -27.148876 -137.2962
13952500000 -27.430614 -135.94109 -0.89928418 76.780586 -0.9021703 76.767006 -27.126842 -136.7263
13980000000 -27.426643 -137.86218 -0.9005329 76.238876 -0.90467 76.237862 -27.097784 -137.56346
14007500000 -27.485062 -138.57838 -0.90021217 75.700645 -0.90497702 75.689911 -27.142649 -138.58368
14035000000 -27.473249 -138.134 -0.8993504 75.137634 -0.90274101 75.125282 -27.20266 -138.68076
14062500000 -27.531382 -139.29224 -0.89835417 74.589256 -0.90437382 74.584488 -27.169714 -138.95003
14090000000 -27.566101 -140.51512 -0.90046281 74.065414 -0.90492284 74.036484 -27.209703 -139.9144
14117500000 -27.530758 -140.19333 -0.89906037 73.495514 -0.90437829 73.472069 -27.244957 -140.87451
14145000000 -27.603144 -141.11885 -0.90094793 72.941895 -0.90134066 72.925629 -27.275068 -140.91287
14172500000 -27.622646 -142.59166 -0.89940774 72.392357 -0.90440255 72.384659 -27.265127 -141.97298
14200000000 -27.741777 -142.74666 -0.89874607 71.832771 -0.90092659 71.838326 -27.32126 -142.64566
14227500000 -27.779766 -143.26268 -0.8975237 71.277725 -0.90244722 71.260269 -27.365404 -142.61618
14255000000 -27.830984 -144.68103 -0.89815044 70.729309 -0.90214193 70.706505 -27.448944 -143.70634
14282500000 -27.887177 -145.30962 -0.896716 70.191399 -0.90007871 70.147202 -27.426508 -144.49716
14310000000 -28.003239 -145.83507 -0.89780414 69.622475 -0.90059912 69.603867 -27.515463 -145.11473
14337500000 -28.011156 -146.67328 -0.89736646 69.073479 -0.89955419 69.05497 -27.515202 -145.53967
14365000000 -28.090609 -147.44258 -0.89601308 68.514336 -0.8990556 68.498474 -27.620625 -146.57806
14392500000 -28.306316 -147.45447 -0.89417189 67.946571 -0.8982141 67.926468 -27.673386 -146.78191
14420000000 -28.236919 -148.6187 -0.8957932 67.386459 -0.89907211 67.362671 -27.786943 -146.87115
14447500000 -28.29459 -148.93796 -0.89518178 66.820709 -0.8989833 66.818672 -27.869846 -147.78004
14475000000 -28.56002 -148.61458 -0.89464068 66.259399 -0.89719272 66.249435 -27.905884 -148.36856
14502500000 -28.56702 -149.66968 -0.89557308 65.69384 -0.8993479 65.682266 -27.904554 -148.48994
14530000000 -28.514072 -150.34892 -0.89580756 65.143784 -0.89691299 65.112877 -28.032597 -149.11288
14557500000 -28.694942 -150.48911 -0.89710134 64.541893 -0.89969212 64.566711 -28.075863 -149.5799
14585000000 -28.763744 -150.83167 -0.89714718 63.991764 -0.89939785 63.986279 -28.094139 -149.55472
14612500000 -28.737495 -151.73862 -0.89628226 63.446972 -0.90105814 63.416496 -28.236366 -150.38843
14640000000 -28.830858 -151.70033 -0.89830422 62.890614 -0.90025228 62.863674 -28.269217 -150.88509
14667500000 -28.980627 -151.79201 -0.90001404 62.309475 -0.90097815 62.301071 -28.23662 -151.22021
14695000000 -28.83316 -152.52898 -0.89957875 61.759426 -0.90580988 61.753265 -28.365982 -151.26387
14722500000 -29.01297 -153.26254 -0.90113682 61.198723 -0.90612435 61.163807 -28.463923 -152.20103
14750000000 -29.208641 -153.18504 -0.90349406 60.651932 -0.90681547 60.633644 -28.31735 -152.60803
14777500000 -29.115685 -153.56183 -0.90476692 60.079998 -0.90681517 60.064983 -28.418486 -152.49326
14805000000 -29.084661 -154.44344 -0.90630168 59.530346 -0.90975797 59.508106 -28.544897 -153.48778
14832500000 -29.294855 -154.64977 -0.90770996 58.965412 -0.91225731 58.954353 -28.43553 -153.29726
14860000000 -29.303036 -154.89729 -0.90854269 58.427666 -0.91572094 58.389198 -28.49301 -153.28679
14887500000 -29.169024 -155.76695 -0.90895563 57.862011 -0.91626751 57.850296 -28.697792 -154.67787
14915000000 -29.340549 -156.5323 -0.91248471 57.322384 -0.9158929 57.297268 -28.559799 -155.62419
14942500000 -29.368246 -156.81699 -0.91220844 56.771599 -0.91780502 56.764229 -28.552235 -155.44751
14970000000 -29.382433 -157.7543 -0.91252524 56.204479 -0.91663927 56.182678 -28.75946 -156.44304
14997500000 -29.573833 -158.97458 -0.91002196 55.659668 -0.91762567 55.64093 -28.798704 -158.03445
15025000000 -29.689854 -158.94586 -0.91245753 55.100185 -0.91514248 55.078472 -28.740852 -157.6871
15052500000 -29.727636 -159.19595 -0.91156369 54.529266 -0.91554481 54.518951 -28.888712 -158.41042
15080000000 -29.754354 -159.93956 -0.91356307 53.96629 -0.91611183 53.95451 -29.061207 -159.32649
15107500000 -29.956827 -159.56117 -0.9145276 53.403332 -0.91727072 53.393616 -28.920961 -158.74956
15135000000 -30.001247 -160.16713 -0.91494048 52.840397 -0.92169106 52.831978 -29.072964 -158.76891
15162500000 -29.933661 -161.02493 -0.91918892 52.279747 -0.92310536 52.264919 -29.288065 -159.83646
15190000000 -30.049353 -160.73848 -0.91886777 51.714142 -0.92580324 51.691921 -29.10253 -159.57793
15217500000 -30.106281 -160.36284 -0.9218303 51.152843 -0.92571354 51.149937 -29.152691 -159.58179
15245000000 -30.080364 -162.14833 -0.92407495 50.582504 -0.92846757 50.581863 -29.426565 -161.63153
15272500000 -30.128975 -162.95889 -0.92320716 50.051712 -0.92923379 50.026176 -29.316648 -161.53836
15300000000 -30.218407 -161.88699 -0.92921007 49.510895 -0.93074191 49.48238 -29.234804 -160.47281
15327500000 -30.162544 -163.1689 -0.92979652 48.957355 -0.93274921 48.925999 -29.50651 -162.25275
15355000000 -30.274799 -164.63399 -0.93038946 48.402081 -0.93554527 48.385529 -29.528223 -163.19446
15382500000 -30.393135 -164.55055 -0.93234879 47.846073 -0.93665153 47.838493 -29.331123 -162.44044
15410000000 -30.362181 -164.96886 -0.93355209 47.298065 -0.93823647 47.281651 -29.547558 -164.03334
15437500000 -30.36503 -167.12656 -0.93571353 46.745884 -0.94090134 46.725777 -29.68018 -165.23523
15465000000 -30.549006 -167.38866 -0.93934631 46.202015 -0.94099814 46.174004 -29.475462 -164.47594
15492500000 -30.545187 -167.25589 -0.93945527 45.642311 -0.94237691 45.621414 -29.570415 -164.82561
15520000000 -30.520567 -168.71103 -0.93969434 45.097755 -0.9442721 45.078308 -29.842501 -167.09973
15547500000 -30.695818 -169.47047 -0.93745327 44.535267 -0.94295287 44.536144 -29.713207 -165.81432
15575000000 -30.769949 -168.60046 -0.93817508 44.004768 -0.94411993 43.968868 -29.77393 -166.32109
15602500000 -30.678326 -170.56535 -0.9412576 43.450108 -0.94577068 43.41766 -30.081804 -168.62383
15630000000 -30.855524 -171.67973 -0.94103318 42.889412 -0.94615239 42.89333 -29.848492 -168.35297
15657500000 -31.053799 -171.63118 -0.93962657 42.355347 -0.94696355 42.332417 -29.871109 -167.59734
15685000000 -31.027456 -172.47604 -0.94133407 41.788151 -0.94517338 41.783211 -30.113255 -169.47768
15712500000 -31.289209 -174.11804 -0.94336784 41.264492 -0.94580221 41.227695 -30.122755 -170.78944
15740000000 -31.513136 -173.57143 -0.94260556 40.698509 -0.94928402 40.679203 -30.192791 -169.40347
15767500000 -31.462275 -174.21588 -0.94167137 40.139454 -0.94703633 40.137577 -30.280094 -170.46265
15795000000 -31.489311 -176.06729 -0.94256181 39.591782 -0.94950497 39.574509 -30.505896 -171.91841
15822500000 -31.986168 -176.14467 -0.94405556 39.03693 -0.94913101 39.013248 -30.441992 -170.79712
15850000000 -31.933723 -175.91318 -0.94526249 38.478199 -0.95030582 38.444267 -30.523241 -171.27637
15877500000 -31.857103 -177.02737 -0.94496226 37.922588 -0.95150965 37.895401 -30.777126 -172.91087
15905000000 -32.150703 -177.94363 -0.94779038 37.3596 -0.95248687 37.349464 -30.722275 -172.75775
15932500000 -32.400341 -177.81978 -0.94811106 36.820721 -0.95257777 36.794609 -30.778593 -172.26677
15960000000 -32.238564 -178.96021 -0.95121223 36.261173 -0.95649314 36.250107 -30.913408 -174.35933
15987500000 -32.35508 -179.45323 -0.95239276 35.707489 -0.95337051 35.676941 -30.955162 -174.40874
16015000000 -32.709999 -179.66617 -0.95132405 35.155365 -0.95503539 35.131229 -30.950628 -173.56494
16042500000 -32.548271 179.59557 -0.94998688 34.615082 -0.95644444 34.574425 -31.055443 -174.95912
16070000000 -32.749245 177.88991 -0.95327574 34.045433 -0.95644087 34.026218 -31.33946 -175.48434
16097500000 -32.994888 178.14754 -0.95352721 33.508934 -0.95815599 33.473671 -31.239212 -174.26245
16125000000 -33.150093 178.10092 -0.95481706 32.959763 -0.95898044 32.925911 -31.333067 -175.46062
16152500000 -33.067211 176.23665 -0.95796818 32.411606 -0.96075535 32.370464 -31.557224 -177.00031
16180000000 -33.286274 176.14754 -0.95749313 31.837349 -0.96102047 31.83206 -31.633436 -176.32085
16207500000 -33.521408 174.97523 -0.95586437 31.302467 -0.96571809 31.282328 -31.518446 -176.7121
16235000000 -33.343487 173.66292 -0.9579488 30.758791 -0.96372366 30.738485 -31.788 -178.19676
16262500000 -33.690033 173.05315 -0.95732111 30.199696 -0.96389395 30.182251 -31.960106 -177.51617
16290000000 -34.194973 172.02162 -0.95928842 29.655504 -0.96215624 29.643703 -31.999489 -177.55168
16317500000 -33.952393 170.48581 -0.95758379 29.114697 -0.96541512 29.081072 -32.09898 -179.46571
16345000000 -34.105606 169.49106 -0.95821446 28.551191 -0.96422297 28.524729 -32.386513 -179.06322
16372500000 -34.604065 169.17223 -0.96054572 28.007883 -0.96381253 27.985912 -32.507011 -178.93997
16400000000 -34.575665 167.68892 -0.96012789 27.44615 -0.96453327 27.431463 -32.430897 -179.95561
16427500000 -34.611294 167.26543 -0.96012175 26.914051 -0.96498585 26.876781 -32.710243 179.30952
16455000000 -35.02861 167.25038 -0.95973361 26.350145 -0.96503913 26.338259 -32.844097 179.38197
16482500000 -35.444084 165.13672 -0.96176535 25.797253 -0.96490401 25.784334 -32.91658 179.49448
16510000000 -35.238396 164.72714 -0.96295196 25.249477 -0.96647763 25.214233 -33.15522 178.79393
16537500000 -35.714985 163.54784 -0.96084803 24.710188 -0.96678746 24.683889 -33.354034 178.44566
16565000000 -36.263096 160.86075 -0.96100855 24.149826 -0.96513128 24.131742 -33.319244 178.1169
16592500000 -35.973587 162.48514 -0.96281594 23.590246 -0.96447283 23.561806 -33.393288 177.57927
16620000000 -36.140171 161.29314 -0.96407688 23.044397 -0.96786678 23.009941 -33.810711 177.87207
16647500000 -36.910782 159.51247 -0.96339661 22.494507 -0.96449608 22.472572 -33.793949 176.45833
16675000000 -36.798306 157.86528 -0.96259624 21.93539 -0.96678549 21.926805 -33.99094 176.57442
16702500000 -36.810558 158.11914 -0.96370101 21.397667 -0.96629786 21.357681 -34.323929 177.19151
16730000000 -37.589478 155.36903 -0.96521634 20.842134 -0.96672988 20.808878 -34.453003 175.86964
16757500000 -37.556633 154.95496 -0.96486652 20.297768 -0.96701318 20.272295 -34.576687 175.55367
16785000000 -37.758404 156.37883 -0.96439463 19.740479 -0.96912175 19.71361 -34.727268 175.76717
16812500000 -38.350613 152.15756 -0.9622609 19.199074 -0.96762675 19.160736 -34.828285 173.66745
16840000000 -38.882362 149.52974 -0.96661216 18.632715 -0.96998221 18.612852 -34.783024 175.73915
16867500000 -38.59071 153.09262 -0.96491957 18.082354 -0.97102964 18.070702 -35.303455 175.29106
16895000000 -39.385056 148.16148 -0.96400481 17.558216 -0.9674893 17.518673 -35.43396 173.87079
16922500000 -39.74305 145.70525 -0.96481514 16.989571 -0.96836138 16.96166 -35.364147 172.82736
16950000000 -39.624889 149.98665 -0.96719396 16.424633 -0.973396 16.411154 -35.683079 176.82135
16977500000 -40.248421 146.46399 -0.96643239 15.882335 -0.96884382 15.858603 -35.972122 173.49933
17005000000 -40.501804 141.3634 -0.9636519 15.330766 -0.9681744 15.310581 -36.169937 171.87535
17032500000 -40.480362 146.10817 -0.96540773 14.75508 -0.97055155 14.743201 -36.253334 174.54007
17060000000 -40.99892 142.30382 -0.96580315 14.223264 -0.96992362 14.201092 -36.549015 172.4772
17087500000 -41.607765 134.97527 -0.96337593 13.682691 -0.97093058 13.64556 -36.429745 170.16258
17115000000 -41.639721 138.70705 -0.96667331 13.134363 -0.97197795 13.090735 -36.80938 171.74448
17142500000 -42.356525 136.23222 -0.96676803 12.582715 -0.97409731 12.544792 -37.147327 172.45308
17170000000 -42.498714 125.9138 -0.96354622 12.032527 -0.97057128 11.990651 -37.14175 168.73209
17197500000 -42.980358 127.01514 -0.96402746 11.472857 -0.96804696 11.458109 -37.237686 169.63837
17225000000 -43.913902 134.30998 -0.96439719 10.904646 -0.97011364 10.884686 -37.828117 171.22476
17252500000 -43.739136 122.41061 -0.96539414 10.350931 -0.96903759 10.33176 -37.809402 166.56787
17280000000 -44.037735 116.4072 -0.96756274 9.8172684 -0.97038352 9.7842283 -37.995682 166.91698
17307500000 -45.969028 124.13257 -0.97067618 9.2470188 -0.9714191 9.2186317 -38.52372 171.81265
17335000000 -45.397629 110.9188 -0.96862024 8.7085018 -0.97070205 8.6752739 -38.567062 167.83607
17362500000 -45.289974 106.50282 -0.96367645 8.1439362 -0.97009158 8.1116343 -38.609219 163.34192
17390000000 -47.001488 111.69328 -0.96933854 7.5624657 -0.97284609 7.5722833 -39.51115 169.95378
17417500000 -47.223484 103.60824 -0.96746987 7.0181336 -0.97205985 7.0321255 -39.859119 165.79291
17445000000 -45.811348 94.098114 -0.96560818 6.4913473 -0.97204041 6.4843602 -39.641521 162.31512
17472500000 -47.843933 90.867485 -0.96667296 5.9312353 -0.97156513 5.9140019 -40.637409 168.25958
17500000000 -48.0914 89.295753 -0.97001845 5.3841481 -0.97385794 5.3450298 -40.715984 166.11018
17527500000 -46.794312 79.698326 -0.96572453 4.8194923 -0.97477669 4.8156538 -40.471935 157.50865
17555000000 -48.008659 71.272644 -0.97038972 4.2812982 -0.97334194 4.2485867 -41.314655 163.918
17582500000 -49.17157 60.587017 -0.96986473 3.7264705 -0.97154015 3.697418 -42.149815 166.03
17610000000 -46.488079 62.730877 -0.96774095 3.1846538 -0.97071016 3.1738994 -41.812141 157.74147
17637500000 -47.362984 53.237728 -0.96856815 2.6242306 -0.97168297 2.5959299 -41.893234 160.35754
17665000000 -48.233078 43.790646 -0.96746278 2.0684083 -0.97484016 2.041573 -43.142097 170.53084
17692500000 -46.832581 47.178177 -0.97040492 1.5298852 -0.97161335 1.4928017 -43.423374 159.57225
17720000000 -46.684464 43.240673 -0.97005796 0.98456514 -0.97159201 0.9328047 -42.742706 156.20337
17747500000 -47.114769 27.281094 -0.97023207 0.40274712 -0.97350067 0.37438846 -44.293472 165.28874
17775000000 -46.034649 30.336613 -0.96770632 -0.15905678 -0.97713441 -0.17555505 -45.699585 161.78499
17802500000 -45.489998 30.703653 -0.97147185 -0.69519222 -0.97129673 -0.70888042 -43.869728 155.61475
17830000000 -44.907616 12.9026 -0.97029716 -1.2397176 -0.97441709 -1.2808037 -46.443031 161.8756
17857500000 -43.912994 17.029982 -0.97044891 -1.7992021 -0.97329921 -1.8251121 -48.266773 168.45717
17885000000 -43.602425 17.963865 -0.97149456 -2.3364429 -0.97516584 -2.3870826 -45.865921 155.44019
17912500000 -43.47311 6.0340648 -0.96840864 -2.8932586 -0.97267509 -2.957608 -47.425209 162.38188
17940000000 -42.514854 2.1376038 -0.96922499 -3.455024 -0.97415435 -3.4786544 -50.143639 165.32813
17967500000 -42.569916 10.701199 -0.96981847 -4.016531 -0.97514379 -4.0401978 -48.086193 147.45772
17995000000 -41.525723 -0.68888032 -0.97055864 -4.574729 -0.97338921 -4.5938711 -48.680283 156.73289
18022500000 -41.309006 -3.5290339 -0.96612746 -5.1263351 -0.97147864 -5.1618485 -53.304852 175.54601
18050000000 -41.360359 0.8426578 -0.96871471 -5.6812305 -0.97318196 -5.6941066 -52.304359 162.26857
18077500000 -40.799103 -4.3430753 -0.97379249 -6.2044659 -0.9752925 -6.246243 -50.484947 161.33861
18105000000 -40.117905 -9.091836 -0.96942884 -6.7845225 -0.9755106 -6.7999349 -55.433868 -157.29358
18132500000 -40.145618 -5.1793442 -0.96834362 -7.3314972 -0.97473037 -7.370091 -58.76033 -153.95471
18160000000 -39.594528 -6.4719148 -0.96828699 -7.882863 -0.97566974 -7.9187207 -53.40498 163.83652
18187500000 -39.075352 -11.306561 -0.96975762 -8.4387131 -0.97539461 -8.483923 -55.746853 -130.51401
18215000000 -38.672115 -9.9306803 -0.97120351 -9.0011444 -0.97480065 -9.0100927 -57.092575 -88.854836
18242500000 -38.832207 -13.084621 -0.97406459 -9.5616407 -0.97593349 -9.5556116 -57.891705 -169.17862
18270000000 -37.942978 -15.148956 -0.9702515 -10.106286 -0.97547692 -10.149884 -56.052574 -111.93687
18297500000 -37.744705 -16.955297 -0.97277904 -10.647601 -0.97382003 -10.689456 -52.228191 -69.190834
18325000000 -37.878307 -15.374631 -0.97091049 -11.194252 -0.97547299 -11.244159 -56.793793 -100.09862
18352500000 -37.190449 -20.242636 -0.9728027 -11.769759 -0.97637463 -11.793367 -54.102589 -86.843643
18380000000 -36.613728 -20.397602 -0.97006768 -12.305091 -0.97442096 -12.319827 -49.303814 -66.68232
18407500000 -37.024467 -19.187124 -0.96757466 -12.861484 -0.97625697 -12.897339 -51.982468 -76.809006
18435000000 -36.547886 -20.861172 -0.97322631 -13.430932 -0.97715837 -13.457756 -50.947754 -83.898911
18462500000 -35.99831 -24.929445 -0.97013986 -13.995652 -0.97296202 -14.00803 -46.523453 -65.91552
18490000000 -36.348763 -22.89612 -0.97174126 -14.51584 -0.97414523 -14.560345 -46.834507 -60.067204
18517500000 -35.743748 -24.093903 -0.96905446 -15.072694 -0.97703683 -15.111506 -48.555134 -75.459305
18545000000 -35.21085 -27.940168 -0.96711892 -15.618372 -0.97482073 -15.674316 -45.791363 -67.166367
18572500000 -35.220005 -27.732674 -0.96832293 -16.183241 -0.97649258 -16.20752 -45.140755 -61.100784
18600000000 -35.429043 -26.732635 -0.97271687 -16.759758 -0.97703099 -16.768383 -46.214405 -68.373627
18627500000 -34.400497 -28.657196 -0.97078943 -17.305029 -0.97645825 -17.331045 -44.149342 -70.173279
18655000000 -34.666153 -30.539705 -0.96944207 -17.840967 -0.97371864 -17.866026 -43.009727 -63.839607
18682500000 -34.589134 -31.132545 -0.97019261 -18.387712 -0.97807103 -18.44416 -43.807709 -64.006851
18710000000 -34.197216 -31.033808 -0.97316122 -18.967161 -0.97794491 -18.972164 -43.086147 -68.605782
18737500000 -33.891193 -32.46035 -0.97355247 -19.496721 -0.97310191 -19.530199 -41.710777 -63.129696
18765000000 -34.141964 -32.257027 -0.97018224 -20.046072 -0.97363406 -20.097631 -42.132526 -63.143871
18792500000 -33.876282 -32.499542 -0.97311002 -20.619019 -0.97561884 -20.64049 -41.717754 -71.012505
18820000000 -33.285633 -35.086979 -0.96788132 -21.165648 -0.97175097 -21.220081 -40.198681 -68.020485
18847500000 -33.590542 -37.04039 -0.97212493 -21.70862 -0.97374004 -21.735046 -40.316738 -62.298347
18875000000 -33.385395 -36.194462 -0.97110409 -22.293016 -0.97454149 -22.293743 -41.02623 -69.003296
18902500000 -32.938358 -37.07996 -0.96946281 -22.84148 -0.97435391 -22.885696 -39.070148 -67.377296
18930000000 -32.861446 -38.301517 -0.97128767 -23.358234 -0.97106624 -23.407949 -39.33379 -62.876347
18957500000 -33.062771 -37.438854 -0.97092831 -23.937414 -0.97255689 -23.94483 -39.584534 -67.905403
18985000000 -32.522926 -38.447411 -0.96830934 -24.501572 -0.97108048 -24.508121 -38.646358 -70.081886
19012500000 -32.462734 -39.488747 -0.96847463 -25.004543 -0.97303843 -25.071995 -38.472427 -65.605545
19040000000 -32.71666 -40.863518 -0.97274083 -25.599684 -0.97299701 -25.608955 -38.704094 -68.570297
19067500000 -32.352665 -39.577957 -0.97032756 -26.160568 -0.97282988 -26.18858 -37.780891 -69.432106
19095000000 -32.114403 -41.192333 -0.9690609 -26.702948 -0.97488004 -26.728781 -37.491314 -67.293503
19122500000 -32.259979 -43.157516 -0.97189826 -27.25828 -0.97522998 -27.278694 -38.07066 -67.490234
19150000000 -31.861324 -42.840645 -0.96536535 -27.819056 -0.97191995 -27.84005 -37.447765 -72.023926
19177500000 -31.478008 -44.138069 -0.96895283 -28.406851 -0.97055995 -28.40052 -36.929031 -68.609238
19205000000 -31.709229 -45.346531 -0.9704538 -28.908878 -0.97097945 -28.937893 -36.97245 -71.629929
19232500000 -31.592417 -45.933132 -0.96642268 -29.496134 -0.9728412 -29.511936 -36.687031 -71.299545
19260000000 -31.295403 -45.268864 -0.96785998 -30.028244 -0.97057164 -30.066118 -36.104259 -71.086052
19287500000 -31.283634 -46.97707 -0.96789491 -30.570206 -0.97002721 -30.579956 -36.260448 -69.957756
19315000000 -31.332806 -48.83083 -0.96856266 -31.146664 -0.97064215 -31.141277 -36.304901 -71.762421
19342500000 -31.091589 -47.268921 -0.96417642 -31.701193 -0.97150362 -31.726881 -35.702557 -73.226982
19370000000 -30.833931 -48.610973 -0.96320337 -32.239113 -0.97039747 -32.282051 -35.750645 -72.835655
19397500000 -30.931942 -50.94046 -0.96862733 -32.78754 -0.97125012 -32.827221 -35.769924 -72.983963
19425000000 -30.767588 -49.283157 -0.96465576 -33.360748 -0.96803886 -33.395679 -35.212322 -73.639839
19452500000 -30.643782 -50.240208 -0.96656883 -33.905014 -0.96865451 -33.951519 -35.116219 -73.190125
19480000000 -30.724386 -52.717285 -0.96797061 -34.456169 -0.96877682 -34.477245 -35.306004 -74.038391
19507500000 -30.568531 -52.166397 -0.96323597 -35.016003 -0.96638 -35.040047 -34.87653 -74.872635
19535000000 -30.450935 -51.034889 -0.96389264 -35.587151 -0.96757859 -35.627895 -34.480736 -75.542648
19562500000 -30.34807 -54.555012 -0.96749771 -36.122601 -0.96850568 -36.163231 -34.686855 -76.107513
19590000000 -30.357431 -55.086147 -0.96505308 -36.687252 -0.96615362 -36.735474 -34.678955 -76.535477
19617500000 -30.218813 -53.191101 -0.96032935 -37.23621 -0.96406913 -37.292446 -34.150833 -76.957344
19645000000 -30.249197 -56.041412 -0.96409303 -37.786797 -0.97124946 -37.864029 -34.246502 -77.969582
19672500000 -30.04603 -56.842972 -0.96227187 -38.362221 -0.96696663 -38.382965 -34.228985 -76.892952
19700000000 -30.043818 -55.070034 -0.96159542 -38.913738 -0.96332455 -38.957874 -33.76075 -77.926521
19727500000 -29.941319 -57.679535 -0.9636758 -39.475662 -0.96689385 -39.506901 -33.640015 -78.507401
19755000000 -29.741896 -59.221325 -0.96534371 -40.008762 -0.96846366 -40.066952 -33.766262 -78.156357
19782500000 -29.864563 -57.832317 -0.96334976 -40.585991 -0.96597385 -40.619061 -33.545208 -78.361259
19810000000 -29.71777 -58.474957 -0.96297264 -41.139633 -0.96499938 -41.172485 -33.307228 -80.23613
19837500000 -29.542856 -60.694012 -0.96372044 -41.707893 -0.96909392 -41.728264 -33.569298 -80.441383
19865000000 -29.556137 -59.521862 -0.95798367 -42.261803 -0.96198595 -42.277584 -33.375957 -78.56987
19892500000 -29.578012 -59.880733 -0.96101081 -42.835743 -0.96299946 -42.847637 -33.053947 -80.896706
19920000000 -29.25034 -63.074108 -0.96161413 -43.365376 -0.9660359 -43.391636 -33.237648 -81.508881
19947500000 -29.235142 -61.725594 -0.96214682 -43.928246 -0.96303761 -43.958363 -33.242939 -80.681572
19975000000 -29.336683 -62.253632 -0.96327478 -44.493252 -0.96178538 -44.529255 -32.758495 -82.826256
20002500000 -29.05249 -64.291069 -0.96569252 -45.061996 -0.96782959 -45.07869 -32.76384 -83.8517
20030000000 -28.917116 -64.824387 -0.96239591 -45.596737 -0.96558911 -45.656002 -32.9743 -82.106354
20057500000 -29.177408 -63.354576 -0.96017116 -46.157135 -0.96202636 -46.177723 -32.611244 -82.63559
20085000000 -28.837725 -65.809402 -0.96355945 -46.731197 -0.96494478 -46.782013 -32.276608 -84.666985
20112500000 -28.567987 -67.116959 -0.96583933 -47.264362 -0.96393406 -47.301235 -32.734993 -83.749611
20140000000 -28.845926 -66.235603 -0.96303469 -47.824593 -0.96357012 -47.845867 -32.259521 -83.565277
20167500000 -28.78862 -67.852097 -0.95951504 -48.4011 -0.9647243 -48.432343 -32.073437 -85.968895
20195000000 -28.2703 -69.16555 -0.9626528 -48.955658 -0.96806085 -48.979813 -32.265266 -85.645988
20222500000 -28.468973 -68.661728 -0.95999163 -49.518341 -0.96482998 -49.529236 -32.248741 -85.587379
20250000000 -28.546396 -69.868134 -0.9608829 -50.082787 -0.96462119 -50.08036 -31.837488 -87.350555
20277500000 -28.117781 -70.277863 -0.96390885 -50.620907 -0.96687895 -50.640694 -31.915173 -88.449829
20305000000 -28.1999 -70.599258 -0.96004939 -51.190426 -0.96595186 -51.212852 -32.103374 -86.443497
20332500000 -28.437546 -71.726158 -0.95773518 -51.71159 -0.96119231 -51.79406 -31.643244 -88.954781
20360000000 -27.999187 -72.345818 -0.96258914 -52.299698 -0.9669385 -52.323303 -31.560242 -90.080658
20387500000 -27.948057 -72.790474 -0.96381122 -52.883938 -0.96440721 -52.872738 -32.064877 -88.913483
20415000000 -28.232492 -73.378899 -0.95940977 -53.409985 -0.96394956 -53.416821 -31.600447 -89.914055
20442500000 -27.89242 -75.157181 -0.95838743 -53.989933 -0.96655136 -54.017643 -31.252037 -92.162987
20470000000 -27.838591 -74.688316 -0.96231902 -54.537472 -0.96461213 -54.563251 -31.758497 -89.744644
20497500000 -28.040348 -75.678886 -0.96199793 -55.071011 -0.9663884 -55.1096 -31.510015 -91.51313
20525000000 -27.878212 -76.389297 -0.96094751 -55.651642 -0.96313715 -55.69286 -31.063347 -93.646042
20552500000 -27.458389 -76.557671 -0.95963901 -56.20821 -0.96504402 -56.275017 -31.446911 -92.961746
20580000000 -27.672087 -77.181122 -0.96425045 -56.78326 -0.96367806 -56.815514 -31.346308 -92.302773
20607500000 -27.66637 -78.446465 -0.96024668 -57.34491 -0.96450835 -57.388248 -30.940355 -94.613403
20635000000 -27.348469 -78.528717 -0.96391785 -57.908142 -0.96846431 -57.956322 -30.954144 -94.127792
20662500000 -27.441637 -78.886444 -0.96264279 -58.461845 -0.96630627 -58.483597 -31.159491 -94.179771
20690000000 -27.507149 -80.205711 -0.9612298 -59.034836 -0.96728295 -59.059296 -30.659126 -95.334167
20717500000 -27.313078 -79.751534 -0.96388423 -59.594624 -0.96721113 -59.61974 -30.757389 -94.820831
20745000000 -27.187513 -80.401222 -0.96748281 -60.161804 -0.97177911 -60.186684 -30.991932 -95.214508
20772500000 -27.243973 -81.832207 -0.96588171 -60.720589 -0.97188014 -60.758476 -30.629631 -96.367218
20800000000 -27.043322 -81.557259 -0.9699055 -61.283649 -0.97334129 -61.30508 -30.300358 -97.08773
20827500000 -26.928261 -82.182991 -0.96985829 -61.824017 -0.97425413 -61.853539 -30.637478 -95.891342
20855000000 -27.032969 -83.561234 -0.97270292 -62.358372 -0.97538227 -62.422157 -30.410351 -96.750824
20882500000 -26.910589 -83.647118 -0.9708066 -62.95089 -0.97802985 -62.993557 -29.949558 -98.254738
20910000000 -26.561546 -84.056625 -0.97430754 -63.506538 -0.98026836 -63.512966 -30.115889 -97.860069
20937500000 -26.675886 -85.416092 -0.98016 -64.067581 -0.98249435 -64.072868 -30.058792 -98.925682
20965000000 -26.647018 -86.293762 -0.98041046 -64.601784 -0.98475689 -64.624672 -29.611431 -99.57814
20992500000 -26.376228 -86.171837 -0.97810572 -65.151825 -0.98447633 -65.182144 -29.630669 -100.64966
21020000000 -26.388693 -87.260712 -0.98484099 -65.656532 -0.98597294 -65.702049 -29.57299 -100.74889
21047500000 -26.432297 -88.847702 -0.98305106 -66.215942 -0.9878239 -66.260544 -29.476538 -102.29639
21075000000 -26.251959 -88.602814 -0.98298776 -66.75676 -0.98664832 -66.771339 -29.343559 -103.41216
21102500000 -26.273975 -90.635689 -0.98504984 -67.293915 -0.9858982 -67.32843 -29.469934 -105.04268
21130000000 -26.315582 -91.977112 -0.98074949 -67.833878 -0.98074979 -67.872543 -29.345478 -106.06973
21157500000 -26.308908 -91.761162 -0.97752571 -68.396057 -0.98262322 -68.4366 -29.152554 -107.5484
21185000000 -26.09996 -92.376167 -0.97740996 -68.957367 -0.97812355 -68.964081 -29.292122 -106.89053
21212500000 -26.326555 -93.861252 -0.97622097 -69.512581 -0.97845852 -69.539276 -29.306194 -109.05226
21240000000 -26.320946 -94.216583 -0.97360235 -70.068665 -0.97805226 -70.114578 -29.014076 -109.77387
21267500000 -26.13925 -94.649696 -0.97041881 -70.633904 -0.97541142 -70.653725 -29.270819 -109.7974
21295000000 -26.200699 -95.576401 -0.97244161 -71.171661 -0.97202647 -71.220589 -29.25149 -110.38185
21322500000 -26.364733 -96.222412 -0.97210032 -71.776581 -0.97548109 -71.802795 -29.06728 -111.64406
21350000000 -26.082115 -96.146523 -0.96963626 -72.302826 -0.97195005 -72.362839 -29.222313 -111.75519
21377500000 -26.091911 -97.258286 -0.97018582 -72.89003 -0.96981263 -72.906784 -29.168928 -111.81746
21405000000 -26.262112 -97.891144 -0.97103387 -73.475929 -0.9752394 -73.50029 -29.045414 -112.55831
21432500000 -26.137154 -97.363586 -0.96829671 -74.015968 -0.97305173 -74.043892 -29.203297 -112.38158
21460000000 -25.957294 -98.433327 -0.96906191 -74.574844 -0.97137249 -74.605591 -29.205458 -112.6965
21487500000 -26.121132 -99.360077 -0.96913177 -75.156662 -0.97349483 -75.170311 -28.974518 -113.66943
21515000000 -26.138147 -99.460953 -0.97329855 -75.726463 -0.97660893 -75.731339 -29.091469 -114.79905
21542500000 -25.863348 -99.827858 -0.97208703 -76.252205 -0.97884703 -76.311508 -29.044426 -113.68391
21570000000 -26.065571 -101.21038 -0.97692758 -76.81633 -0.98156619 -76.858864 -28.912783 -115.72532
21597500000 -26.075495 -101.14545 -0.9754163 -77.369179 -0.98122871 -77.410622 -28.738291 -115.59966
21625000000 -25.802601 -101.46169 -0.97343814 -77.930664 -0.98038191 -77.957687 -28.902712 -115.50219
21652500000 -25.885242 -102.93575 -0.97932863 -78.468285 -0.98028457 -78.521645 -28.704643 -116.26795
21680000000 -26.0963 -103.28365 -0.97898877 -79.043373 -0.98124236 -79.073265 -28.768661 -117.34548
21707500000 -25.834209 -103.37084 -0.97678202 -79.568085 -0.98049319 -79.620102 -28.734076 -118.00919
21735000000 -25.868187 -104.8465 -0.97816086 -80.109421 -0.97952259 -80.160873 -28.653614 -117.6409
21762500000 -26.049528 -105.411 -0.97724462 -80.71167 -0.98385876 -80.739075 -28.58798 -119.6354
21790000000 -25.96599 -105.11357 -0.97498339 -81.246323 -0.97854352 -81.286568 -28.634638 -120.79731
21817500000 -25.826756 -106.55368 -0.97365999 -81.802544 -0.98167521 -81.823769 -28.651791 -118.80485
21845000000 -25.995062 -107.82709 -0.97869658 -82.372353 -0.97754616 -82.416885 -28.440657 -121.52853
21872500000 -26.024918 -107.61478 -0.97325546 -82.936523 -0.97672534 -82.976997 -28.515884 -121.70323
21900000000 -25.848545 -108.66544 -0.97243965 -83.452751 -0.97990084 -83.494156 -28.664562 -120.60491
21927500000 -25.904604 -109.47485 -0.97699988 -84.034035 -0.97848058 -84.073082 -28.447569 -122.61707
21955000000 -26.065153 -109.44274 -0.97785932 -84.593628 -0.97971982 -84.642548 -28.460838 -124.82317
21982500000 -25.889141 -109.8232 -0.97350097 -85.130989 -0.97776014 -85.181465 -28.546968 -122.81409
22010000000 -25.81115 -111.19709 -0.97449511 -85.699135 -0.97850943 -85.742065 -28.346241 -123.7382
22037500000 -26.104324 -111.459 -0.97511071 -86.271004 -0.97802728 -86.337914 -28.37579 -126.49621
22065000000 -25.974285 -110.90571 -0.97659987 -86.8153 -0.98036277 -86.870796 -28.600826 -125.45398
22092500000 -25.820318 -112.16031 -0.9783619 -87.381279 -0.97739762 -87.417725 -28.34696 -124.11025
22120000000 -25.948776 -113.16268 -0.97506535 -87.987457 -0.97723877 -87.993797 -28.189722 -127.28545
22147500000 -26.092999 -112.95789 -0.97802079 -88.514542 -0.97934908 -88.553055 -28.525433 -128.28761
22175000000 -25.801918 -113.79929 -0.97330695 -89.088242 -0.97836548 -89.112099 -28.574444 -126.255
22202500000 -25.915831 -114.54752 -0.97372156 -89.631882 -0.98206073 -89.667587 -28.144999 -128.2341
22230000000 -26.09915 -114.65391 -0.97700638 -90.210365 -0.98028296 -90.222954 -28.359718 -130.69263
22257500000 -25.886526 -115.31229 -0.97929394 -90.746841 -0.98236775 -90.77713 -28.524158 -128.63567
22285000000 -25.825352 -116.33092 -0.97771209 -91.324585 -0.98145747 -91.354118 -28.237602 -129.53433
22312500000 -26.047762 -116.77068 -0.97650748 -91.900391 -0.98295623 -91.906853 -28.140768 -132.15437
22340000000 -25.880966 -117.14071 -0.97999001 -92.42601 -0.9839617 -92.456017 -28.584364 -130.77136
22367500000 -25.792173 -117.60835 -0.97812033 -93.000229 -0.98380423 -93.028069 -28.176693 -131.06969
22395000000 -26.026102 -118.96179 -0.97912431 -93.572105 -0.98140848 -93.593056 -28.012527 -133.23302
22422500000 -26.014009 -118.14954 -0.9824658 -94.107346 -0.98440558 -94.141174 -28.589748 -133.8792
22450000000 -25.741821 -118.85552 -0.98365164 -94.642738 -0.983576 -94.688019 -28.191252 -132.76671
22477500000 -25.930786 -120.9855 -0.98276472 -95.207825 -0.98447376 -95.247513 -27.866402 -134.91502
22505000000 -26.007729 -120.96983 -0.98414385 -95.771576 -0.98618436 -95.796455 -28.330019 -136.74008
22532500000 -25.757833 -120.60558 -0.98464 -96.307388 -0.98890585 -96.336304 -28.292009 -135.44879
22560000000 -25.797291 -122.60093 -0.98094547 -96.881989 -0.9872455 -96.925591 -27.900219 -136.1993
22587500000 -26.053968 -123.70036 -0.9820351 -97.44471 -0.98608691 -97.492653 -28.115454 -139.50383
22615000000 -25.799133 -122.68912 -0.98940909 -97.973686 -0.98601645 -98.005783 -28.465836 -137.78304
22642500000 -25.757473 -124.05322 -0.98352695 -98.57119 -0.98772317 -98.592529 -27.945768 -137.55164
22670000000 -25.976788 -126.17825 -0.98310101 -99.109741 -0.98553115 -99.141068 -28.031666 -141.47232
22697500000 -25.813736 -125.09038 -0.98642284 -99.674881 -0.98894519 -99.692657 -28.558046 -141.0249
22725000000 -25.756454 -125.5225 -0.98336333 -100.22649 -0.98741412 -100.27536 -28.180954 -140.00177
22752500000 -25.825945 -127.53798 -0.9813202 -100.78703 -0.98705083 -100.83419 -27.972778 -142.6308
22780000000 -25.838181 -127.61749 -0.98834455 -101.37024 -0.99039876 -101.41711 -28.458378 -143.96219
22807500000 -25.781303 -126.45945 -0.98562926 -101.89023 -0.98985189 -101.95231 -28.258989 -141.45241
22835000000 -25.795332 -129.25287 -0.98929107 -102.47054 -0.99059743 -102.52776 -28.00318 -142.78249
22862500000 -25.826597 -130.77968 -0.989411 -103.06935 -0.99355924 -103.06663 -28.314484 -146.88559
22890000000 -25.757797 -128.5654 -0.99029762 -103.58342 -0.994627 -103.64414 -28.491247 -144.57217
22917500000 -25.715059 -131.203 -0.98826784 -104.17667 -0.99695903 -104.19794 -28.136719 -143.84454
22945000000 -25.749104 -132.56059 -0.98575139 -104.72909 -0.99324065 -104.77655 -28.295015 -147.87471
22972500000 -25.724009 -130.80879 -0.99467778 -105.26336 -0.99783581 -105.34158 -28.409271 -147.01756
23000000000 -25.714941 -132.50731 -0.99262869 -105.85833 -0.99947256 -105.88446 -28.128025 -144.8679
23027500000 -25.704309 -134.54451 -0.99108458 -106.40651 -0.99767423 -106.42666 -27.999075 -148.48912
23055000000 -25.780092 -133.96123 -0.99785632 -106.9537 -0.99979711 -106.98432 -28.481936 -150.29405
23082500000 -25.689316 -134.20122 -0.99921548 -107.51207 -1.0031128 -107.55259 -28.098515 -146.94833
23110000000 -25.616854 -136.97765 -0.99849284 -108.05614 -1.0027808 -108.07784 -27.848171 -149.25809
23137500000 -25.679893 -136.6925 -1.0035367 -108.63933 -1.0086988 -108.66691 -28.228842 -152.7157
23165000000 -25.720617 -136.21451 -1.0003449 -109.21121 -1.0056716 -109.27151 -28.281242 -149.4299
23192500000 -25.515762 -139.11557 -1.0051821 -109.74861 -1.0080009 -109.76918 -27.927473 -150.55063
23220000000 -25.528944 -139.48705 -1.0040892 -110.29423 -1.008852 -110.3343 -27.963217 -154.99194
23247500000 -25.67045 -138.62976 -1.0107791 -110.87192 -1.0121063 -110.89439 -28.103872 -152.21796
23275000000 -25.43351 -140.75504 -1.0149089 -111.43006 -1.0113685 -111.43575 -27.910395 -152.61954
23302500000 -25.370691 -142.13913 -1.012527 -111.97609 -1.0098785 -111.99003 -27.815836 -156.90007
23330000000 -25.650925 -140.93109 -1.0129766 -112.53363 -1.0148346 -112.58111 -28.075197 -156.60854
23357500000 -25.427258 -143.12262 -1.0134084 -113.0553 -1.0170863 -113.12121 -27.906172 -154.65796
23385000000 -25.241508 -144.41919 -1.0107135 -113.62197 -1.016638 -113.66537 -27.752523 -157.98857
23412500000 -25.528547 -144.0451 -1.0147094 -114.21296 -1.0164291 -114.25534 -27.924257 -159.96857
23440000000 -25.512615 -145.30202 -1.0170977 -114.7429 -1.018546 -114.80018 -27.8403 -157.46896
23467500000 -25.21678 -146.54504 -1.0139632 -115.2849 -1.021448 -115.31231 -27.674303 -159.71922
23495000000 -25.481773 -146.72266 -1.0176916 -115.84492 -1.0236795 -115.8923 -27.821795 -161.7657
23522500000 -25.564716 -147.33528 -1.0219694 -116.40795 -1.0243486 -116.46266 -27.903469 -160.41484
23550000000 -25.207342 -149.0779 -1.0205213 -116.94982 -1.0213969 -116.97464 -27.828701 -162.77849
23577500000 -25.326698 -149.67026 -1.0218709 -117.51849 -1.0250012 -117.56809 -27.56951 -165.02609
23605000000 -25.624371 -150.131 -1.0254912 -118.0873 -1.0264938 -118.10717 -28.009027 -162.96211
23632500000 -25.268768 -151.95572 -1.0260557 -118.61606 -1.0273503 -118.65026 -27.93004 -164.8455
23660000000 -25.282688 -152.99176 -1.0290586 -119.15418 -1.0261705 -119.20974 -27.522953 -167.24022
23687500000 -25.585711 -153.35776 -1.0282233 -119.72491 -1.0341072 -119.78053 -27.792969 -166.35535
23715000000 -25.40205 -154.60817 -1.0312723 -120.26698 -1.0301079 -120.33165 -27.821085 -166.88341
23742500000 -25.330395 -155.23817 -1.0295677 -120.83661 -1.0319961 -120.83611 -27.523943 -168.25993
23770000000 -25.622366 -156.05121 -1.0308508 -121.40648 -1.0306634 -121.44086 -27.563629 -169.45331
23797500000 -25.439478 -156.79633 -1.0308528 -121.94563 -1.0371478 -121.99319 -27.826403 -169.02104
23825000000 -25.26346 -157.73135 -1.0318884 -122.4846 -1.0372852 -122.50877 -27.646801 -171.53751
23852500000 -25.571341 -159.20644 -1.0329591 -123.0535 -1.0385338 -123.09772 -27.407162 -172.06654
23880000000 -25.658463 -159.23116 -1.0350536 -123.62118 -1.0332658 -123.64483 -27.747179 -170.67271
23907500000 -25.380745 -160.15767 -1.0343355 -124.13862 -1.0381645 -124.18269 -27.656925 -173.38393
23935000000 -25.490904 -161.46925 -1.0364079 -124.71661 -1.0355887 -124.73753 -27.492197 -173.90564
23962500000 -25.704044 -163.07709 -1.0350742 -125.24712 -1.0397714 -125.32712 -27.842022 -173.78201
23990000000 -25.325478 -162.12694 -1.043239 -125.81843 -1.0454195 -125.86659 -27.612156 -176.68465
24017500000 -25.509308 -163.92566 -1.0418792 -126.37864 -1.0435141 -126.39078 -27.406118 -176.99709
24045000000 -25.754593 -164.88763 -1.040099 -126.91856 -1.0391358 -126.93761 -27.685379 -175.9171
24072500000 -25.486797 -165.5114 -1.0427525 -127.47679 -1.0452729 -127.50121 -27.67868 -178.2921
24100000000 -25.523958 -166.17456 -1.0424867 -128.0089 -1.0468061 -128.06323 -27.586878 -178.93353
24127500000 -25.806911 -167.9408 -1.0430846 -128.57085 -1.046453 -128.61955 -27.605452 -178.05266
24155000000 -25.708277 -167.44324 -1.0419272 -129.14638 -1.0481968 -129.17406 -27.569986 -179.97826
24182500000 -25.561192 -168.57768 -1.0489445 -129.65971 -1.0476639 -129.73074 -27.391232 178.29984
24210000000 -25.826822 -169.80353 -1.0470551 -130.24785 -1.0534674 -130.29083 -27.471228 179.44812
24237500000 -25.805326 -170.25275 -1.044325 -130.80161 -1.0486473 -130.83607 -27.747063 177.84631
24265000000 -25.669926 -170.68872 -1.047179 -131.31754 -1.0537696 -131.36446 -27.498808 175.63663
24292500000 -25.78248 -172.19135 -1.0481865 -131.90581 -1.0547767 -131.92012 -27.339268 176.21573
24320000000 -25.952038 -173.88092 -1.0468209 -132.42183 -1.0497613 -132.47241 -27.606989 176.38493
24347500000 -25.731413 -172.92949 -1.0529784 -132.98778 -1.0546473 -133.0231 -27.41716 172.63391
24375000000 -25.831699 -174.72061 -1.0547694 -133.57306 -1.0603361 -133.5968 -27.27791 172.88341
24402500000 -25.92918 -176.55026 -1.0522059 -134.09294 -1.0527047 -134.14542 -27.560713 174.34331
24430000000 -25.879946 -175.88432 -1.050784 -134.62332 -1.0580689 -134.68025 -27.393539 170.51122
24457500000 -25.828503 -177.15012 -1.0515094 -135.17926 -1.0559108 -135.20514 -27.214651 169.78514
24485000000 -26.094254 -179.04106 -1.0530372 -135.73122 -1.0568085 -135.79399 -27.567617 171.46921
24512500000 -25.986626 -179.00841 -1.0524585 -136.27022 -1.053406 -136.32552 -27.463905 168.32512
24540000000 -25.939102 -179.75073 -1.0539728 -136.8396 -1.0595716 -136.89049 -27.07254 166.81543
24567500000 -26.14225 178.25789 -1.0564106 -137.37868 -1.0591015 -137.44109 -27.613398 167.54092
24595000000 -26.22814 178.05429 -1.0523471 -137.93683 -1.0532707 -137.98161 -27.418325 166.09116
24622500000 -26.027754 178.40543 -1.0565753 -138.46565 -1.0569656 -138.52177 -27.204264 163.50069
24650000000 -26.072569 175.7574 -1.0542434 -139.04039 -1.0573721 -139.09766 -27.367775 164.08376
24677500000 -26.17626 174.59143 -1.0543345 -139.60782 -1.0596994 -139.62306 -27.603561 163.86015
24705000000 -26.214758 175.82449 -1.0575491 -140.16014 -1.0583255 -140.18262 -27.211416 160.35902
24732500000 -26.159508 173.5065 -1.0547048 -140.68973 -1.0576349 -140.75017 -27.196976 160.86479
24760000000 -26.334866 171.82635 -1.0545886 -141.28424 -1.0569811 -141.28032 -27.750456 160.66864
24787500000 -26.434153 171.86702 -1.0578258 -141.79875 -1.0583242 -141.82381 -27.245012 157.7625
24815000000 -26.208849 170.90295 -1.0577493 -142.36113 -1.0586119 -142.38284 -27.260973 157.34181
24842500000 -26.324883 168.82912 -1.0522254 -142.91837 -1.0579263 -142.94408 -27.865774 157.90929
24870000000 -26.479004 169.08069 -1.057911 -143.44035 -1.0577816 -143.46608 -27.335182 156.04741
24897500000 -26.335424 168.70158 -1.0532444 -144.06404 -1.062147 -144.05659 -27.029264 154.1312
24925000000 -26.336531 166.17615 -1.0505534 -144.57829 -1.0603193 -144.60004 -27.897324 153.62428
24952500000 -26.537619 165.93753 -1.0566169 -145.11394 -1.056229 -145.13432 -27.578529 152.66908
24980000000 -26.592403 165.87483 -1.0561333 -145.67844 -1.0601766 -145.71904 -27.046371 151.74686
25007500000 -26.396919 163.82964 -1.0545068 -146.22708 -1.0581897 -146.2887 -27.658615 149.93147
25035000000 -26.626701 162.35475 -1.0552236 -146.77457 -1.0560178 -146.80159 -27.867746 150.03218
25062500000 -26.678122 163.42201 -1.0597447 -147.35654 -1.0617183 -147.36952 -27.112055 148.38348
25090000000 -26.629856 160.90349 -1.0558887 -147.90802 -1.0572562 -147.94194 -27.515718 148.08826
25117500000 -26.566839 158.53087 -1.0554223 -148.45212 -1.058643 -148.4594 -28.036266 146.68298
25145000000 -26.8216 159.12105 -1.0570221 -148.95961 -1.0646645 -149.02209 -27.306713 146.57602
25172500000 -26.793602 158.49077 -1.0600246 -149.56438 -1.0579976 -149.59953 -27.40729 144.62643
25200000000 -26.56572 155.91891 -1.0571126 -150.09648 -1.0597559 -150.15315 -27.965719 143.41801
25227500000 -26.911055 155.34567 -1.0540999 -150.65422 -1.0621173 -150.69008 -27.53915 143.87369
25255000000 -26.81447 156.16302 -1.0539798 -151.24586 -1.0611601 -151.25612 -27.330612 141.6111
25282500000 -26.555531 152.15881 -1.0570049 -151.7735 -1.0606378 -151.82547 -27.89934 140.25241
25310000000 -26.774773 152.07809 -1.0543332 -152.32034 -1.0647171 -152.36656 -27.598484 140.77618
25337500000 -26.849073 151.9265 -1.0609086 -152.87283 -1.0612037 -152.91623 -27.310238 139.92561
25365000000 -26.681915 149.77576 -1.057285 -153.41748 -1.0595953 -153.47652 -27.611801 136.28397
25392500000 -26.670843 148.45755 -1.0568016 -153.98593 -1.0602764 -154.00089 -27.98978 136.88986
25420000000 -27.086222 147.93556 -1.0626916 -154.5271 -1.0617288 -154.59807 -27.200844 137.64455
25447500000 -26.738539 146.5361 -1.0592835 -155.09467 -1.0648557 -155.14391 -27.628569 134.89981
25475000000 -26.753748 144.2379 -1.054644 -155.66603 -1.0604918 -155.71471 -27.957466 133.09
25502500000 -27.051815 144.98309 -1.0611877 -156.18103 -1.0655348 -156.22928 -27.429842 135.72476
25530000000 -26.922895 143.64275 -1.0623946 -156.77002 -1.0659415 -156.80511 -27.565851 132.22554
25557500000 -26.86561 141.80215 -1.0596241 -157.30948 -1.061361 -157.37543 -27.837168 129.23289
25585000000 -27.043633 140.73029 -1.0617577 -157.84985 -1.0645745 -157.90871 -27.641689 131.4391
25612500000 -26.989202 140.69763 -1.0604151 -158.40753 -1.0667131 -158.44888 -27.27552 129.08734
25640000000 -26.683525 138.83444 -1.0604409 -158.95436 -1.0648898 -158.99799 -27.743855 125.32307
25667500000 -26.929806 137.34016 -1.0570257 -159.52043 -1.0660117 -159.6037 -27.783003 126.78297
25695000000 -27.123074 136.58768 -1.0630728 -160.121 -1.069919 -160.11435 -27.352324 127.92155
25722500000 -26.736553 135.86478 -1.0595084 -160.64398 -1.0653684 -160.66611 -27.603703 123.00922
25750000000 -26.907648 134.00761 -1.0591973 -161.19434 -1.0724277 -161.2249 -27.739338 123.18269
25777500000 -27.1833 132.63419 -1.0637182 -161.71242 -1.0699505 -161.7865 -27.410631 124.67909
25805000000 -27.02903 132.75221 -1.0649565 -162.28374 -1.0697796 -162.36127 -27.57473 120.99487
25832500000 -26.913904 130.09657 -1.064558 -162.85249 -1.0666363 -162.87984 -27.672415 118.99352
25860000000 -27.1021 128.64622 -1.0707014 -163.4169 -1.0737036 -163.43126 -27.604956 122.43564
25887500000 -27.104031 130.33913 -1.0692703 -163.97298 -1.0666469 -164.02444 -27.513802 117.41967
25915000000 -26.848396 127.45311 -1.0630661 -164.53395 -1.0708563 -164.55327 -27.430183 115.11363
25942500000 -27.000422 123.94389 -1.0636498 -165.06506 -1.0701684 -165.09549 -27.666393 116.25797
25970000000 -27.152327 125.66084 -1.067994 -165.63751 -1.075925 -165.64467 -27.475883 116.08525
25997500000 -26.994232 124.58218 -1.0639848 -166.15344 -1.0695286 -166.21059 -27.493616 111.84767
26025000000 -26.969044 121.43127 -1.0709517 -166.73193 -1.0738263 -166.75862 -27.611799 112.81065
26052500000 -27.110825 121.38177 -1.0656278 -167.27867 -1.0711856 -167.32971 -27.544107 114.24425
26080000000 -26.995783 121.84811 -1.0660166 -167.80646 -1.0705556 -167.84872 -27.301785 108.80949
26107500000 -27.027632 117.04114 -1.0724095 -168.38887 -1.0721825 -168.40173 -27.404181 108.56062
26135000000 -26.934052 117.5522 -1.0723644 -168.9534 -1.0759661 -168.99698 -27.496891 109.60385
26162500000 -27.165375 117.67169 -1.0700022 -169.53084 -1.0740964 -169.51431 -27.464956 106.74439
26190000000 -26.862539 115.88512 -1.0690929 -170.01126 -1.0702389 -170.08244 -27.438515 104.12762
26217500000 -26.774319 113.17605 -1.0696176 -170.57104 -1.0790074 -170.63701 -27.560694 106.67772
26245000000 -27.09478 114.21683 -1.0712456 -171.12981 -1.0739397 -171.15739 -27.330729 104.00301
26272500000 -26.885294 113.06983 -1.070444 -171.72011 -1.0728244 -171.72476 -27.25956 100.9352
26300000000 -26.810734 109.81118 -1.069981 -172.21764 -1.0718118 -172.24982 -27.222294 101.91211
26327500000 -27.037071 109.84317 -1.0732868 -172.78365 -1.0716265 -172.84245 -27.27416 101.27364
26355000000 -26.893583 109.33743 -1.0717969 -173.35728 -1.0759211 -173.37488 -27.251127 98.28154
26382500000 -26.585192 106.45982 -1.0650693 -173.87694 -1.0733073 -173.93695 -27.326092 98.368256
26410000000 -26.998457 105.56052 -1.0694498 -174.48048 -1.0733587 -174.51529 -27.279011 98.724541
26437500000 -26.894949 105.90089 -1.0726637 -175.0036 -1.0715504 -175.07178 -27.176649 95.678146
26465000000 -26.518841 104.2326 -1.0715418 -175.5652 -1.0741584 -175.60025 -27.327509 94.516777
26492500000 -26.677267 102.46001 -1.0739559 -176.1667 -1.071558 -176.16365 -27.203852 94.294754
26520000000 -26.658321 101.33212 -1.0829288 -176.71262 -1.0797296 -176.72374 -27.278654 93.051155
26547500000 -26.671669 99.632813 -1.0790731 -177.19305 -1.0780191 -177.2551 -26.940334 92.006927
26575000000 -26.419292 98.373238 -1.0659084 -177.82732 -1.077558 -177.80547 -26.925442 93.150627
26602500000 -26.699036 97.01149 -1.0760189 -178.35704 -1.0746852 -178.36002 -27.42112 90.324913
26630000000 -26.368494 97.713135 -1.0800828 -178.95071 -1.0783825 -179.01962 -26.883762 88.789978
26657500000 -26.426849 95.07959 -1.0663872 -179.44989 -1.0719692 -179.39897 -26.61931 88.748108
26685000000 -26.460173 94.808487 -1.064176 179.95686 -1.0724542 179.95479 -27.063482 83.991096
26712500000 -26.578018 93.349152 -1.0721096 179.42146 -1.0763386 179.4214 -26.784597 85.429359
26740000000 -26.213083 90.920235 -1.0797182 178.91786 -1.0838586 178.88107 -26.619366 83.9785
26767500000 -26.636581 89.434502 -1.0763863 178.37669 -1.0736645 178.31493 -26.797203 83.363937
26795000000 -26.486094 90.625687 -1.0756979 177.75591 -1.0815073 177.70503 -26.951252 83.877335
26822500000 -26.40827 89.384819 -1.0732008 177.23451 -1.0705781 177.16087 -26.670801 83.636925
26850000000 -26.385479 88.525833 -1.0711956 176.69559 -1.0862724 176.62599 -26.708939 80.773323
26877500000 -26.286158 85.595406 -1.0668601 176.12625 -1.0782876 176.08167 -26.896547 78.312454
26905000000 -26.127079 86.057076 -1.0746833 175.60455 -1.0765101 175.46794 -26.650799 78.723747
26932500000 -26.044397 85.071686 -1.0781373 175.04337 -1.0844773 174.89067 -26.354137 77.680618
26960000000 -26.293634 81.799133 -1.0768517 174.46452 -1.0834702 174.32813 -26.788494 77.230072
26987500000 -26.202026 82.119011 -1.07166 173.86481 -1.0881759 173.79883 -26.732967 78.41272
27015000000 -25.919813 81.176483 -1.0739218 173.3656 -1.0707265 173.36751 -26.341722 75.75
27042500000 -26.233953 78.929062 -1.0708776 172.80183 -1.0774873 172.6776 -26.553652 72.601509
27070000000 -26.458557 77.444878 -1.0750463 172.16173 -1.0837889 172.19366 -26.436718 73.60997
27097500000 -25.949738 79.032486 -1.0687194 171.7256 -1.0772753 171.65114 -26.140987 73.316193
27125000000 -25.950146 76.06015 -1.0766792 171.14693 -1.0835152 171.00166 -26.185858 70.830551
27152500000 -26.217871 74.671997 -1.0845751 170.54745 -1.0908703 170.51466 -26.381073 69.823875
27180000000 -26.022736 74.786873 -1.0937008 170.04796 -1.0862175 170.02824 -26.082268 69.862289
27207500000 -25.960556 73.486748 -1.0735281 169.41893 -1.0764092 169.50044 -26.012781 68.424545
27235000000 -26.127319 71.385063 -1.0794846 168.93637 -1.0678189 168.79951 -26.395552 67.455238
27262500000 -25.977493 70.382668 -1.0859981 168.35512 -1.0859267 168.3112 -26.171335 67.318924
27290000000 -25.689709 67.894844 -1.103191 167.75383 -1.0898854 167.74626 -25.963217 68.118813
27317500000 -25.829506 68.714249 -1.0801853 167.25526 -1.0921849 167.20584 -26.27541 62.30228
27345000000 -25.939911 66.999352 -1.0962229 166.60039 -1.081679 166.58044 -25.93565 66.480995
27372500000 -25.73802 68.246025 -1.0868721 166.14934 -1.0848641 166.12146 -25.83251 64.55854
27400000000 -25.764725 66.35305 -1.0827574 165.60915 -1.0847348 165.56836 -25.940405 59.734055
27427500000 -25.787477 64.281273 -1.0781111 164.92206 -1.0904748 165.00703 -26.319857 61.769562
27455000000 -25.572046 64.351913 -1.0723784 164.54692 -1.0807632 164.47316 -25.817005 62.365086
27482500000 -25.633778 62.633961 -1.092298 163.84724 -1.0766016 163.81274 -25.861776 59.646179
27510000000 -25.621616 59.258476 -1.0855272 163.4082 -1.0938267 163.32773 -25.977062 57.153664
27537500000 -25.595322 58.716297 -1.0853562 162.8022 -1.0923706 162.76663 -25.850576 59.16674
27565000000 -25.391443 58.841682 -1.0817753 162.29834 -1.0867467 162.17497 -25.688936 55.685974
27592500000 -25.640522 56.781376 -1.0816631 161.70596 -1.0941446 161.73817 -25.773167 55.417683
27620000000 -25.6502 55.396145 -1.0988538 161.12729 -1.0916023 161.11986 -25.685492 57.601902
27647500000 -25.153851 55.84951 -1.0899149 160.45085 -1.0906736 160.60399 -25.324509 54.236973
27675000000 -25.312214 53.688763 -1.0971075 160.03688 -1.0929755 160.0208 -25.339447 51.269547
27702500000 -25.60944 51.627094 -1.1045963 159.39186 -1.0901964 159.38795 -25.88497 52.835602
27730000000 -25.618355 52.275883 -1.0917112 158.95432 -1.1002783 158.95329 -25.780561 52.637783
27757500000 -25.467871 50.746536 -1.0976678 158.43785 -1.0827916 158.35785 -25.542767 51.020958
27785000000 -25.472277 49.131134 -1.0989939 157.87643 -1.0876814 157.83844 -25.680084 49.303444
27812500000 -25.515842 49.963913 -1.0917897 157.27348 -1.0878576 157.26038 -25.908182 50.970772
27840000000 -25.264954 47.402946 -1.0798577 156.7261 -1.0944957 156.69818 -25.394361 48.230194
27867500000 -25.046497 44.592983 -1.0825303 156.25302 -1.0949253 156.15547 -25.752991 46.720825
27895000000 -25.500206 47.178066 -1.0966854 155.58351 -1.0977155 155.63928 -25.800077 47.76873
27922500000 -25.126568 44.471729 -1.0846814 155.0786 -1.099528 155.08363 -25.528816 46.055111
27950000000 -25.29781 44.505943 -1.108448 154.43867 -1.0908852 154.5079 -25.638412 44.420006
27977500000 -25.12714 43.844006 -1.095965 153.97525 -1.0950623 153.8136 -25.612272 45.781994
28005000000 -25.053001 42.615513 -1.0917475 153.37155 -1.0979921 153.32556 -25.383173 45.051685
28032500000 -24.992838 39.618984 -1.089687 152.91673 -1.095482 152.72987 -25.07453 42.750904
28060000000 -25.016041 38.003658 -1.0829118 152.23116 -1.1120132 152.34958 -25.600683 42.865829
28087500000 -25.135059 39.252625 -1.0885347 151.73807 -1.0886343 151.69281 -25.164225 40.550575
28115000000 -24.811491 36.488914 -1.1059965 151.09727 -1.0922148 151.05772 -25.238747 40.686428
28142500000 -24.987856 35.921013 -1.0930704 150.53874 -1.0950845 150.41566 -25.368687 40.113235
28170000000 -25.200352 35.739792 -1.1026608 150.01204 -1.0829384 150.02998 -25.168385 37.111549
28197500000 -24.661381 33.561764 -1.1012105 149.54974 -1.1082916 149.49252 -24.644276 38.325794
28225000000 -24.904554 32.780609 -1.089901 148.99913 -1.1039988 148.90793 -25.435619 34.118252
28252500000 -24.717821 32.733665 -1.0993659 148.39499 -1.0988095 148.32497 -25.496767 32.382179
28280000000 -24.716137 31.001644 -1.0988111 147.79344 -1.1218317 147.83635 -25.068642 34.320229
28307500000 -24.676056 29.144581 -1.0847863 147.38719 -1.1190393 147.24277 -24.908577 32.812588
28335000000 -24.774975 28.52346 -1.1018443 146.79066 -1.1177299 146.77823 -25.376343 31.182911
28362500000 -24.836088 28.759096 -1.0991563 146.23224 -1.1072346 146.20357 -25.02471 30.567644
28390000000 -24.653194 25.656607 -1.11026 145.62991 -1.1223538 145.65756 -25.311066 29.357021
28417500000 -24.695051 26.238209 -1.104177 145.15686 -1.1088489 145.06941 -25.159729 26.847113
28445000000 -24.872635 25.731884 -1.1095103 144.586 -1.1042751 144.54248 -25.236546 29.015068
28472500000 -24.525507 24.739555 -1.1043947 143.92509 -1.1066481 144.00084 -25.056763 28.051374
28500000000 -24.697107 24.361721 -1.1065239 143.54466 -1.1162444 143.42281 -25.591785 25.367693
28527500000 -24.72361 22.204943 -1.1128516 142.96832 -1.1015368 142.82455 -25.201971 25.181944
28555000000 -24.342455 21.615412 -1.0992916 142.39609 -1.1056573 142.31197 -24.978401 24.447018
28582500000 -24.370884 20.381561 -1.0871261 141.83562 -1.1024189 141.75595 -25.218796 23.315865
28610000000 -24.775021 19.335669 -1.1092777 141.29163 -1.0990566 141.26393 -25.24803 22.768972
28637500000 -24.337261 18.551517 -1.1017343 140.80386 -1.0969399 140.66086 -25.089415 23.266371
28665000000 -24.505987 18.435909 -1.0978549 140.17899 -1.0977021 140.01521 -25.217028 19.14312
28692500000 -24.48719 16.762211 -1.1068548 139.66402 -1.1043125 139.71262 -25.124905 20.009418
28720000000 -24.444921 15.906896 -1.0896864 139.02559 -1.0990949 139.03471 -25.23354 19.539316
28747500000 -24.338499 14.977882 -1.1043025 138.44878 -1.0940148 138.44113 -25.249763 18.391476
28775000000 -24.538214 14.721677 -1.0949847 138.0372 -1.1038738 137.89757 -25.306616 16.58251
28802500000 -24.674683 14.407202 -1.110126 137.33746 -1.107869 137.32608 -25.487087 16.039635
28830000000 -24.258595 14.434249 -1.0914426 136.76205 -1.0986521 136.7713 -25.365791 13.863914
28857500000 -24.096865 12.226925 -1.0988412 136.24022 -1.0978955 136.25307 -25.452726 11.926118
28885000000 -24.353008 12.17074 -1.1004714 135.76956 -1.0835487 135.69017 -24.984367 13.894528
28912500000 -24.280619 11.961093 -1.0988024 135.22607 -1.0997257 135.26041 -25.033438 14.451359
28940000000 -24.345964 9.6757717 -1.0907913 134.57506 -1.0933957 134.57892 -25.164886 11.978418
28967500000 -24.309832 8.0475855 -1.0710958 133.99532 -1.0924988 133.98064 -25.023563 10.317604
28995000000 -24.133997 12.088963 -1.0820812 133.51176 -1.1038955 133.55885 -24.919449 11.434192
29022500000 -24.08794 7.9926915 -1.0737401 132.95992 -1.0873662 132.90105 -24.934822 8.4180708
29050000000 -24.269154 7.5641127 -1.0826285 132.31 -1.0871195 132.33299 -24.878559 10.557981
29077500000 -24.432775 6.5201397 -1.0828866 131.96741 -1.0985168 131.87767 -24.811661 10.484981
29105000000 -23.973103 6.2614298 -1.0769167 131.29903 -1.0780048 131.23804 -24.934177 7.8607769
29132500000 -24.098454 4.2156968 -1.0945129 130.7457 -1.093111 130.56339 -24.702965 6.1382689
29160000000 -24.141926 4.93643 -1.1011602 130.17329 -1.0940474 130.19231 -24.596199 9.6518402
29187500000 -23.773438 4.9187579 -1.0987208 129.60422 -1.0950851 129.5463 -24.796034 2.5304339
29215000000 -24.08407 3.2730966 -1.0973228 129.0376 -1.0960855 129.05382 -24.745962 4.5285063
29242500000 -24.192764 1.8185734 -1.1079779 128.56656 -1.1118598 128.50212 -24.496349 4.078269
29270000000 -23.994936 0.55855358 -1.0753182 127.9461 -1.0984521 127.87511 -24.577406 0.43843871
29297500000 -24.032459 1.5579356 -1.0844743 127.42924 -1.0942914 127.41487 -24.558043 -0.62290478
29325000000 -23.852831 -1.9604511 -1.0866632 126.87298 -1.0870756 126.87365 -24.672174 3.4281998
29352500000 -23.955479 -0.12319118 -1.0953684 126.29243 -1.0988011 126.31123 -24.733942 0.93737239
29380000000 -23.749979 -1.3237755 -1.0800538 125.79822 -1.0799801 125.68633 -24.606728 -2.9200492
29407500000 -23.850452 -2.0506527 -1.0855085 125.32249 -1.086274 125.125 -24.493088 -0.34304461
29435000000 -23.853186 -4.6927733 -1.0902227 124.56093 -1.100282 124.66245 -24.770466 -0.87097263
29462500000 -23.726988 -2.3858356 -1.0780387 124.11895 -1.0865264 124.08319 -24.929371 -4.7646141
29490000000 -23.646996 -5.9109359 -1.079915 123.49027 -1.0883545 123.5796 -24.50386 -2.5316925
29517500000 -23.917225 -6.2186661 -1.07892 122.98357 -1.0917082 123.02805 -24.771667 -2.1764328
29545000000 -23.697832 -5.6196671 -1.0733523 122.42451 -1.0746975 122.34613 -24.47818 -6.5079861
29572500000 -23.777308 -6.3210835 -1.0859569 121.92634 -1.0873502 121.77816 -24.627317 -4.9115953
29600000000 -23.763548 -9.5639563 -1.0912583 121.30644 -1.08873 121.28513 -24.650715 -2.4309127
29627500000 -23.867508 -6.0129385 -1.0749004 120.79713 -1.0877163 120.68476 -24.516657 -6.2190156
29655000000 -23.611074 -8.7100506 -1.0815207 120.13316 -1.1078122 120.09621 -24.458109 -6.6836896
29682500000 -23.423922 -11.140018 -1.0831318 119.67565 -1.0843673 119.61575 -24.502613 -5.0466952
29710000000 -23.617071 -8.605732 -1.0767276 119.07986 -1.0719006 119.11324 -24.444481 -6.5914111
29737500000 -23.676064 -10.603152 -1.0799828 118.39908 -1.0834473 118.45313 -24.553532 -9.7572632
29765000000 -23.366648 -13.769531 -1.0927365 117.99597 -1.0972276 117.91006 -24.533903 -7.2912388
29792500000 -23.377087 -11.460928 -1.1081389 117.45081 -1.091663 117.41819 -24.413656 -8.9580498
29820000000 -23.451138 -12.251185 -1.0613884 116.74129 -1.0824273 116.76176 -24.565794 -10.90894
29847500000 -23.277721 -16.153149 -1.0726875 116.29095 -1.0807247 116.31882 -24.671196 -9.0204
29875000000 -23.911749 -15.598298 -1.0995007 115.69128 -1.0940996 115.74998 -24.843128 -9.3356905
29902500000 -23.443459 -16.19412 -1.0816771 115.08707 -1.0857635 115.10848 -24.041016 -11.287868
29930000000 -23.290462 -17.185986 -1.0854746 114.74745 -1.0787966 114.64321 -24.356703 -11.591448
29957500000 -23.164085 -18.680815 -1.0959923 114.06184 -1.0957122 113.96273 -24.705366 -11.663737
29985000000 -23.428789 -17.103827 -1.0809382 113.5266 -1.0921263 113.56461 -24.042215 -15.525686
30012500000 -23.213572 -20.369864 -1.0884031 112.90184 -1.0923233 112.84877 -24.382202 -16.479265
30040000000 -23.03528 -20.609056 -1.080649 112.41689 -1.0922031 112.39613 -24.617096 -12.168171
30067500000 -23.185152 -20.519743 -1.0766464 111.8491 -1.0884749 111.74705 -24.434185 -16.493721
30095000000 -23.529081 -21.010361 -1.0677295 111.26249 -1.0673026 111.19831 -24.153584 -19.077675
30122500000 -23.053053 -23.108288 -1.0712442 110.69424 -1.0910319 110.58647 -24.532543 -15.148142
30150000000 -23.280077 -23.047489 -1.0760508 110.19469 -1.0922042 110.06998 -24.596935 -16.465897
30177500000 -23.358505 -24.287296 -1.0887632 109.58246 -1.0627285 109.52515 -24.276667 -19.082428
30205000000 -23.450474 -26.04682 -1.0797487 109.07021 -1.1023932 108.99421 -24.349236 -18.284122
30232500000 -23.075012 -26.861334 -1.0954659 108.4799 -1.080996 108.45174 -24.413387 -18.185616
30260000000 -23.550735 -26.095957 -1.0636656 108.01237 -1.0687935 107.814 -24.31513 -23.881428
30287500000 -23.281847 -28.142162 -1.079931 107.242 -1.0978245 107.259 -24.628683 -21.349279
30315000000 -23.328577 -27.597744 -1.0857877 106.72232 -1.1028386 106.68083 -24.55604 -21.86599
30342500000 -23.351437 -30.666702 -1.0874629 106.15008 -1.083468 106.1805 -24.273285 -24.118053
30370000000 -23.156031 -29.757048 -1.0847089 105.57509 -1.0788862 105.67416 -24.44647 -23.651932
30397500000 -22.92341 -31.103292 -1.0856724 105.20016 -1.092589 105.08125 -25.014053 -23.499105
30425000000 -23.302135 -29.805683 -1.0891671 104.67162 -1.08983 104.49255 -24.416325 -24.372871
30452500000 -23.174606 -33.349644 -1.0910133 103.92612 -1.0755706 103.86819 -24.326803 -28.140129
30480000000 -23.002909 -32.671757 -1.1010431 103.42638 -1.0886105 103.36095 -24.752468 -24.822311
30507500000 -23.556122 -32.816509 -1.1000248 102.91702 -1.0821353 102.78162 -24.326412 -24.83486
30535000000 -23.685665 -35.234577 -1.0707831 102.25339 -1.092405 102.21434 -24.149775 -28.98777
30562500000 -23.090994 -34.551609 -1.0889622 101.74637 -1.0917568 101.81892 -24.429853 -28.228466
30590000000 -23.164778 -36.742168 -1.0840873 101.21584 -1.093112 101.10392 -24.560551 -27.828381
30617500000 -23.119205 -37.679497 -1.0738529 100.56007 -1.0870689 100.52543 -24.143154 -30.721676
30645000000 -23.0777 -38.516293 -1.1058971 99.946526 -1.076947 100.05025 -24.671356 -31.445282
30672500000 -22.982803 -37.304195 -1.0743073 99.475739 -1.1135604 99.40522 -24.757658 -31.862143
30700000000 -23.423449 -40.335354 -1.0852932 98.912399 -1.1113766 98.943832 -24.156679 -33.155388
30727500000 -23.382711 -39.458202 -1.0716666 98.379387 -1.092312 98.357796 -24.83794 -36.423328
30755000000 -22.823984 -41.670712 -1.0899056 97.816406 -1.1002856 97.746216 -24.756937 -34.075188
30782500000 -23.390318 -41.76664 -1.0987055 97.360931 -1.1086595 97.145958 -24.566046 -34.509453
30810000000 -23.194702 -42.639275 -1.0842726 96.68734 -1.1059618 96.670715 -24.1201 -36.26577
30837500000 -23.038803 -41.835602 -1.0890859 96.060043 -1.0881164 96.055481 -24.78808 -38.340065
30865000000 -23.163277 -43.733963 -1.0936391 95.646812 -1.1088917 95.63089 -24.119492 -37.126717
30892500000 -23.333096 -46.188396 -1.1148268 95.11245 -1.1020008 94.939774 -24.411329 -38.982922
30920000000 -23.262562 -46.670006 -1.0889875 94.434166 -1.0838753 94.493614 -24.71505 -39.99509
30947500000 -23.264526 -47.852806 -1.0966001 93.984138 -1.108982 93.933479 -25.124804 -37.06245
30975000000 -23.312376 -47.841717 -1.1078413 93.438049 -1.1105769 93.429565 -24.522837 -39.462994
31002500000 -23.355656 -46.649879 -1.0754989 92.985558 -1.1032658 92.86512 -24.714668 -41.917084
31030000000 -23.170715 -45.675438 -1.0919871 92.224319 -1.1026865 92.258659 -25.046095 -42.258274
31057500000 -23.890772 -50.375877 -1.1136394 91.711273 -1.0988688 91.640366 -24.959328 -41.273079
31085000000 -23.277119 -50.580246 -1.0850941 91.181458 -1.1132528 91.248024 -24.540985 -42.496483
31112500000 -23.313133 -49.605942 -1.0889752 90.652718 -1.1176649 90.579361 -25.190628 -43.650017
31140000000 -23.658957 -50.563774 -1.096121 90.082047 -1.1151022 90.083931 -24.603718 -42.72015
31167500000 -23.692776 -51.330288 -1.1065279 89.429634 -1.1140814 89.464195 -24.593344 -47.752293
31195000000 -23.151367 -52.488873 -1.1071999 88.981445 -1.1030856 88.969994 -25.328148 -48.192833
31222500000 -23.603619 -52.265987 -1.1088867 88.382164 -1.1077137 88.332863 -25.404942 -47.460247
31250000000 -23.668098 -56.488808 -1.12485 87.802841 -1.1042267 87.807045 -24.795229 -48.472572
31277500000 -23.257948 -54.545246 -1.0733 87.30571 -1.1017983 87.144066 -25.131798 -46.970333
31305000000 -23.71167 -53.84726 -1.0953807 86.729485 -1.0984265 86.739151 -25.266829 -51.893471
31332500000 -23.918892 -58.466461 -1.0768852 86.0261 -1.105684 86.17485 -25.05562 -50.708973
31360000000 -23.588228 -55.596584 -1.1037003 85.637207 -1.1024933 85.476669 -25.772221 -51.346092
31387500000 -23.729086 -57.531967 -1.1091517 85.028801 -1.1133721 84.971642 -25.531559 -52.635418
31415000000 -23.686512 -59.853878 -1.0997664 84.491364 -1.0964491 84.529327 -24.97983 -49.039417
31442500000 -23.453335 -60.425449 -1.1016972 83.891914 -1.1093259 83.867706 -25.402493 -57.167034
31470000000 -23.956985 -58.611649 -1.0982981 83.419472 -1.120856 83.258995 -25.516685 -54.904106
31497500000 -24.062048 -62.885368 -1.1116003 82.821335 -1.1036075 82.668762 -25.559301 -55.458538
31525000000 -23.856983 -62.018284 -1.103708 82.313911 -1.1087157 82.11573 -25.474335 -56.937714
31552500000 -23.68441 -59.257847 -1.1124322 81.755531 -1.0951564 81.62896 -25.530491 -57.504005
31580000000 -24.148737 -63.060909 -1.1155229 81.204361 -1.1092891 81.16848 -25.713779 -54.937176
31607500000 -23.993849 -63.354931 -1.0941399 80.595825 -1.1093904 80.610054 -25.68112 -58.26754
31635000000 -23.931868 -63.23999 -1.1174978 80.150375 -1.112559 79.988167 -25.436075 -61.488739
31662500000 -24.000891 -67.869934 -1.1058356 79.438377 -1.0915678 79.384155 -25.783236 -64.057236
31690000000 -24.152117 -67.273331 -1.1102076 78.849785 -1.1126738 78.960785 -25.816534 -60.091583
31717500000 -24.184753 -64.242012 -1.0983108 78.382866 -1.1354458 78.396126 -26.424072 -61.608006
31745000000 -24.036865 -68.151215 -1.0878892 77.701378 -1.1151313 77.777725 -26.126558 -60.501926
31772500000 -24.053955 -70.32872 -1.088161 77.214462 -1.1000072 77.226578 -26.435673 -59.437962
31800000000 -24.490225 -67.221519 -1.1100838 76.694489 -1.1145203 76.605446 -26.287224 -63.567417
31827500000 -24.192581 -68.638573 -1.1223112 76.077499 -1.1222881 76.194923 -26.164434 -66.780525
31855000000 -24.217939 -73.278023 -1.0964677 75.570885 -1.1012589 75.643768 -26.000566 -65.342827
31882500000 -24.15649 -72.397865 -1.112137 75.009583 -1.1055624 75.037155 -26.58737 -67.406738
31910000000 -24.572624 -71.204308 -1.1155168 74.398994 -1.1203849 74.468262 -26.358683 -67.458244
31937500000 -24.388641 -75.088089 -1.1133176 73.867607 -1.1301636 73.885803 -26.13814 -68.130981
31965000000 -24.699768 -74.723373 -1.1306195 73.351318 -1.1182882 73.201164 -26.665705 -67.670479
31992500000 -24.915043 -73.852356 -1.1186364 72.87439 -1.128356 72.676796 -27.227352 -68.271049
32020000000 -24.523386 -75.317589 -1.1025226 72.25415 -1.1162809 72.246964 -26.407213 -70.236732
32047500000 -24.518854 -78.831551 -1.1142968 71.582832 -1.118633 71.727531 -26.641142 -68.912064
32075000000 -24.697456 -77.755165 -1.1191351 71.173035 -1.1227547 71.09787 -27.574633 -70.887039
32102500000 -24.708368 -78.041763 -1.1190704 70.538002 -1.119662 70.482117 -26.861353 -69.887154
32130000000 -24.765278 -81.093147 -1.1140575 70.082283 -1.1018237 70.032944 -27.403067 -73.178307
32157500000 -25.055576 -79.347946 -1.1138742 69.391487 -1.1301306 69.425194 -27.223703 -71.472198
32185000000 -24.796415 -82.474091 -1.1195107 68.881599 -1.119122 68.889366 -26.756054 -76.824898
32212500000 -24.87775 -83.269928 -1.1249843 68.485786 -1.11753 68.399109 -27.641579 -75.56781
32240000000 -25.148842 -85.221916 -1.1303667 67.751427 -1.1304493 67.733986 -27.620028 -81.462486
32267500000 -25.323879 -83.841293 -1.1237954 67.258888 -1.1172605 67.162056 -27.435993 -77.486237
32295000000 -24.857773 -86.840431 -1.1001306 66.788246 -1.1398821 66.701225 -27.703358 -77.898048
32322500000 -25.237204 -85.029243 -1.1269317 66.065948 -1.128983 66.192558 -27.824995 -82.181747
32350000000 -25.448099 -85.59642 -1.1104639 65.692734 -1.1287423 65.60836 -28.17931 -78.505287
32377500000 -25.207005 -86.950981 -1.1066484 65.062996 -1.1402913 64.976387 -28.355333 -79.731766
32405000000 -25.455725 -90.042519 -1.114632 64.505074 -1.1289982 64.481758 -28.236263 -83.112022
32432500000 -25.574963 -90.880882 -1.1297582 63.861526 -1.1325618 63.812244 -29.206663 -84.561989
32460000000 -25.367596 -89.652046 -1.1276938 63.371044 -1.1087705 63.239964 -28.329254 -82.521187
32487500000 -25.622456 -93.329956 -1.1272933 62.790997 -1.1211841 62.862103 -28.438002 -86.106567
32515000000 -25.877329 -94.182686 -1.1235993 62.30875 -1.109259 62.26247 -29.215242 -88.813019
32542500000 -25.961117 -93.757774 -1.0935099 61.626789 -1.1379837 61.654163 -29.170736 -86.085754
32570000000 -25.784149 -95.123528 -1.1201578 61.196278 -1.1385522 61.083366 -28.864082 -88.000938
32597500000 -25.726097 -99.361656 -1.1013246 60.536488 -1.130136 60.534348 -29.149183 -95.427841
32625000000 -26.293879 -98.675133 -1.1139016 60.054665 -1.1399137 59.97562 -29.810658 -93.922989
32652500000 -26.128117 -97.922668 -1.1223367 59.410686 -1.1333696 59.456543 -28.946621 -90.61525
32680000000 -26.135197 -101.60834 -1.1001573 58.936016 -1.1332893 58.824772 -29.500965 -95.045494
32707500000 -26.699383 -103.82424 -1.1363373 58.230034 -1.1319225 58.447338 -29.958021 -93.349403
32735000000 -26.830294 -102.29001 -1.1108841 57.782097 -1.1374451 57.6964 -29.459738 -88.001167
32762500000 -26.166742 -103.74345 -1.099502 57.184032 -1.1372762 57.274933 -29.77009 -96.629013
32790000000 -26.51478 -106.17673 -1.1059144 56.636723 -1.1170914 56.676838 -29.850821 -103.47031
32817500000 -26.311516 -106.13882 -1.1024022 56.162064 -1.1303661 56.118759 -30.606829 -96.209686
32845000000 -26.497219 -104.59653 -1.1070312 55.512142 -1.1084921 55.607807 -31.191891 -99.576294
32872500000 -26.465809 -108.37191 -1.1142579 54.877697 -1.1407679 55.075607 -29.671803 -107.84024
32900000000 -26.764956 -110.93542 -1.1223904 54.343391 -1.1269646 54.39122 -31.627026 -100.28883
32927500000 -26.432106 -108.41851 -1.1340226 54.070194 -1.1270421 53.856331 -30.945038 -99.919365
32955000000 -26.647343 -110.98569 -1.1059638 53.300014 -1.135854 53.335819 -30.467243 -105.20175
32982500000 -27.356125 -112.74026 -1.1252857 52.811264 -1.1071768 52.762768 -31.75005 -106.10403
33010000000 -26.83144 -110.57047 -1.1371131 52.276455 -1.1249413 52.197556 -32.69178 -100.58105
33037500000 -26.993614 -114.95878 -1.1189719 51.696758 -1.1294487 51.664734 -31.482286 -115.01214
33065000000 -27.051712 -117.50307 -1.1029495 51.096066 -1.1183176 51.069996 -31.207304 -113.48794
33092500000 -27.624809 -117.96615 -1.1345574 50.567154 -1.1087247 50.351028 -31.66979 -109.63499
33120000000 -27.103167 -118.67151 -1.1291995 49.773434 -1.1398249 49.947655 -31.179831 -114.97535
33147500000 -27.079157 -120.76257 -1.1288004 49.446198 -1.1453824 49.385689 -32.671658 -122.7906
33175000000 -27.335951 -115.86084 -1.1520541 48.93856 -1.1481266 49.022133 -32.324642 -115.005
33202500000 -27.58003 -119.40493 -1.1156219 48.188763 -1.1353457 48.312843 -31.673334 -121.18047
33230000000 -27.643913 -124.32475 -1.1337091 47.766472 -1.1246358 47.80825 -31.350491 -126.74766
33257500000 -27.756004 -126.1153 -1.1000112 47.170502 -1.1232116 47.153446 -32.818356 -125.32731
33285000000 -28.174131 -121.36044 -1.1124858 46.656242 -1.1251432 46.615295 -32.937061 -117.26225
33312500000 -27.614101 -126.2729 -1.1189921 46.031898 -1.1169661 46.080734 -32.167797 -124.36738
33340000000 -28.151175 -127.34851 -1.1280197 45.355278 -1.1353524 45.424141 -32.925991 -135.00806
33367500000 -28.21208 -129.55394 -1.1123714 44.949078 -1.1214361 44.868263 -33.824989 -125.48694
33395000000 -27.743914 -125.64701 -1.1298362 44.411289 -1.1345422 44.376141 -32.946983 -127.07164
33422500000 -28.350485 -131.17645 -1.1183283 43.802971 -1.1254122 43.719666 -32.71698 -135.55043
33450000000 -28.234426 -133.19354 -1.1251465 43.234566 -1.1389802 43.127548 -34.814468 -135.56995
33477500000 -27.781019 -133.63647 -1.1417146 42.779907 -1.140294 42.67532 -33.688133 -135.93713
33505000000 -28.263779 -138.04683 -1.1152231 42.063309 -1.1446111 42.107975 -32.911808 -138.96587
33532500000 -29.067741 -137.82045 -1.1344064 41.548443 -1.1397481 41.544296 -33.639759 -148.19522
33560000000 -29.428032 -133.32774 -1.1321261 40.857975 -1.1450913 40.970581 -34.417213 -142.06392
33587500000 -28.585407 -137.28152 -1.1301941 40.527115 -1.1436602 40.465656 -33.079914 -142.29901
33615000000 -28.681637 -141.05324 -1.1406151 39.927696 -1.1318828 39.950737 -35.127373 -148.58919
33642500000 -29.046099 -141.76637 -1.107404 39.392925 -1.1351305 39.178051 -33.675354 -157.78934
33670000000 -29.461788 -143.38823 -1.114974 38.768337 -1.1414837 38.716179 -34.481979 -151.85115
33697500000 -29.918665 -151.95293 -1.1496754 38.375519 -1.1368043 38.110554 -34.573177 -147.94206
33725000000 -29.445744 -149.37383 -1.1244624 37.68232 -1.1434109 37.713779 -35.525745 -163.81673
33752500000 -29.951 -153.47122 -1.1192088 37.255657 -1.1258302 37.073608 -35.788742 -162.01744
33780000000 -29.252262 -153.35591 -1.1091146 36.550411 -1.1397511 36.462032 -35.452187 -162.78206
33807500000 -30.311415 -149.13498 -1.1456463 35.920261 -1.1606464 35.896229 -35.553867 -171.41562
33835000000 -30.358969 -147.36884 -1.1407127 35.402863 -1.1488291 35.332508 -34.204578 -165.21408
33862500000 -29.662949 -153.88751 -1.1251929 34.813442 -1.1328837 34.925404 -36.273911 179.50264
33890000000 -30.229799 -154.03687 -1.1273471 34.418362 -1.1490729 34.256638 -35.898312 -173.29698
33917500000 -29.96258 -154.95503 -1.1412759 33.847141 -1.1667465 33.659519 -36.838058 177.21324
33945000000 -30.066013 -158.24916 -1.124963 33.193829 -1.1694893 33.209446 -36.345356 -172.29269
33972500000 -30.528379 -161.84578 -1.1427642 32.718189 -1.1536945 32.666504 -36.10342 174.8356
34000000000 -30.600054 -164.38478 -1.1755862 32.17292 -1.1339029 32.083092 -36.00782 174.54935
34027500000 -30.00206 -158.86264 -1.1621637 31.447485 -1.140463 31.433306 -36.801586 157.13533
34055000000 -30.25075 -173.99171 -1.1471388 30.973881 -1.1279016 31.000788 -36.067837 170.05463
34082500000 -30.605598 -169.62404 -1.1207918 30.555183 -1.1320424 30.306141 -36.326771 164.59232
34110000000 -29.983486 -168.77007 -1.142478 29.78388 -1.1597977 29.82688 -36.267418 147.19035
34137500000 -31.196121 -175.91515 -1.1438811 29.284813 -1.139352 29.471895 -36.382412 165.36636
34165000000 -31.096792 -172.55804 -1.158193 28.768101 -1.1521617 28.788328 -35.771729 151.74901
34192500000 -31.09551 -172.4991 -1.1245123 28.337322 -1.1458795 27.915489 -37.576046 142.84209
34220000000 -30.062338 -176.81639 -1.1403846 27.703329 -1.154218 27.742842 -35.835846 142.26439
34247500000 -31.756142 179.90463 -1.1387503 27.030083 -1.1649101 27.072317 -34.87381 140.03854
34275000000 -30.387793 179.37622 -1.1653806 26.445185 -1.126514 26.489742 -38.254066 139.03653
34302500000 -30.956059 174.85434 -1.1431792 26.031277 -1.1303439 25.965719 -34.861549 126.6884
34330000000 -31.416653 170.89969 -1.1621404 25.38699 -1.1474223 25.319677 -36.060974 143.0676
34357500000 -31.665545 172.43233 -1.1268448 24.903955 -1.1317203 24.936178 -35.652637 132.96979
34385000000 -30.080595 170.89656 -1.1580825 24.351538 -1.1576517 24.138319 -33.133671 121.97011
34412500000 -29.904066 162.54816 -1.1330723 23.777359 -1.1553432 23.796387 -35.442848 127.11707
34440000000 -30.167658 163.35344 -1.1525974 23.244696 -1.1461508 23.206392 -33.952774 128.19829
34467500000 -30.040798 161.67802 -1.1497687 22.528221 -1.1425706 22.628832 -33.165962 117.80795
34495000000 -30.095465 161.10519 -1.1281177 22.020844 -1.1604283 22.134209 -33.483673 114.28399
34522500000 -29.436872 154.57501 -1.1456716 21.641821 -1.1621823 21.580698 -34.474792 112.38908
34550000000 -30.898109 149.2205 -1.1510615 20.923567 -1.1631198 20.943695 -31.974007 115.13643
34577500000 -29.598452 151.36038 -1.1396646 20.287193 -1.1489124 20.359219 -32.468925 100.50533
34605000000 -29.657766 149.15767 -1.1420563 19.794287 -1.1434078 19.731197 -33.095264 108.48748
34632500000 -30.598024 144.68657 -1.1303147 19.439381 -1.1535589 19.127342 -31.388712 107.83813
34660000000 -29.638147 143.68588 -1.1457714 18.806036 -1.1527075 18.560577 -31.064144 102.6683
34687500000 -29.90617 137.30481 -1.1466304 18.085976 -1.1586263 18.085661 -32.587624 101.18005
34715000000 -29.409151 137.70847 -1.1689579 17.684816 -1.1661959 17.683441 -31.436049 104.02398
34742500000 -29.413937 140.64401 -1.1549771 16.958078 -1.1494912 17.170704 -29.588861 101.09839
34770000000 -29.211355 132.45306 -1.1665298 16.395329 -1.1692433 16.29887 -30.820728 91.013359
34797500000 -29.11935 130.47263 -1.1768595 15.939594 -1.1771355 15.949259 -31.053257 102.17671
34825000000 -29.079838 130.5843 -1.1518779 15.430192 -1.1681554 15.240207 -28.859049 92.872009
34852500000 -28.126373 132.15787 -1.1976314 14.994243 -1.1903671 14.787836 -29.585472 96.216743
34880000000 -28.237545 127.00101 -1.1855934 14.05393 -1.1650516 14.229545 -31.4646 94.692696
34907500000 -28.405937 123.66453 -1.1641814 13.676682 -1.1887313 13.626616 -29.295218 94.927643
34935000000 -28.561895 124.80726 -1.1868958 13.204774 -1.1676077 13.141809 -29.05818 93.132874
34962500000 -28.781366 123.96034 -1.1607553 12.570109 -1.203178 12.549299 -29.954929 82.893669
34990000000 -28.39823 119.49013 -1.1760718 12.055996 -1.1726916 11.94833 -28.875187 90.900665
35017500000 -28.446598 119.79221 -1.1774939 11.407997 -1.1795646 11.55625 -27.793049 87.249825
35045000000 -27.070467 115.99713 -1.1448961 10.917068 -1.1625588 10.928071 -29.353664 84.233345
35072500000 -28.102268 113.83479 -1.1823655 10.378045 -1.1843963 10.34051 -28.74054 84.028526
35100000000 -27.524067 113.17942 -1.1814636 9.7944298 -1.1856471 9.6721315 -27.627268 87.135475
35127500000 -27.377008 118.205 -1.1893076 9.4057379 -1.1961811 9.2794418 -27.664299 82.486259
35155000000 -26.824186 112.82605 -1.182652 8.8322525 -1.1705623 8.5366335 -27.869104 77.772621
35182500000 -27.310234 106.08385 -1.1838866 8.1912813 -1.173139 8.2557421 -26.822588 85.31559
35210000000 -27.368982 113.25208 -1.1467764 7.6175537 -1.1783675 7.4489608 -27.057295 78.713135
35237500000 -26.908964 108.68517 -1.1615893 6.8952808 -1.1858811 7.0990868 -27.349972 77.852112
35265000000 -26.437294 104.69771 -1.1717212 6.5865483 -1.1777055 6.5450902 -27.141104 81.661308
35292500000 -26.961899 107.54678 -1.1856539 6.0186791 -1.1849563 6.0116215 -26.558189 82.485085
35320000000 -25.928038 105.37657 -1.1532931 5.4485855 -1.17129 5.4466434 -27.29991 74.597389
35347500000 -26.487915 103.84201 -1.1863651 4.8410091 -1.1913249 4.749661 -26.267996 77.320946
35375000000 -26.217478 104.11335 -1.2091969 4.4521351 -1.1663384 4.3179297 -26.194761 80.968323
35402500000 -26.038544 103.07093 -1.1741707 3.6432455 -1.1724305 3.5318067 -26.809498 68.671967
35430000000 -25.85532 97.77372 -1.1909357 3.2107506 -1.1993957 3.2418017 -26.553625 71.889236
35457500000 -25.933451 97.14386 -1.1678797 2.4834919 -1.173146 2.4578872 -25.745461 75.21981
35485000000 -26.171644 97.746635 -1.2062711 2.1378441 -1.1994215 2.0516341 -25.36338 75.434677
35512500000 -25.126774 95.834991 -1.1792821 1.8314781 -1.210326 1.2553054 -25.81237 67.645157
35540000000 -25.582619 90.940872 -1.1976757 0.95154631 -1.2183175 0.87119776 -25.119041 79.471878
35567500000 -25.590813 94.634071 -1.1837949 0.35064045 -1.186475 0.38426134 -25.375956 71.289253
35595000000 -24.907082 91.965607 -1.2067701 -0.16290967 -1.190902 -0.20635116 -25.288712 69.298721
35622500000 -24.841478 84.816658 -1.2033437 -0.79286647 -1.2079917 -0.62942457 -25.075367 71.895432
35650000000 -24.73748 90.377571 -1.2058986 -1.2339838 -1.2408899 -1.2967632 -24.660181 73.629868
35677500000 -24.960604 90.91996 -1.2118495 -1.6573433 -1.2172899 -1.8447622 -24.713465 65.085419
35705000000 -24.529339 85.201431 -1.195473 -2.3543024 -1.2096713 -2.4826834 -25.139244 70.780952
35732500000 -24.845533 88.276794 -1.2059748 -2.9513893 -1.2177389 -2.9371202 -24.980242 70.065521
35760000000 -24.957478 85.052307 -1.2090038 -3.4497659 -1.20032 -3.3756707 -24.398767 65.37307
35787500000 -24.324636 85.095665 -1.211198 -4.1762781 -1.2290473 -3.7843466 -24.601042 62.997978
35815000000 -24.642365 81.752281 -1.2182826 -4.7469249 -1.2189893 -4.4673252 -24.572472 67.513924
35842500000 -24.517609 85.765701 -1.1874753 -5.144608 -1.2120831 -5.1614809 -23.958841 65.127533
35870000000 -24.300491 80.711487 -1.2126502 -5.4746175 -1.1996144 -5.5724592 -24.305126 60.210503
35897500000 -24.03303 80.299164 -1.1997887 -6.0470381 -1.1965473 -6.2631149 -24.386015 64.232941
35925000000 -24.328333 80.503944 -1.1851268 -6.6806283 -1.1922984 -6.8740091 -24.110073 65.39444
35952500000 -23.957073 78.801521 -1.1774627 -7.3299603 -1.1873575 -7.3457518 -24.023399 62.83503
35980000000 -23.620228 77.292221 -1.2040821 -7.7968001 -1.1947814 -7.9130826 -24.278889 62.140606
36007500000 -23.549036 76.199409 -1.1996593 -8.4444733 -1.2015911 -8.3074608 -23.819513 61.638905
36035000000 -23.970682 76.312897 -1.1893151 -8.9600792 -1.2092975 -8.9607086 -22.89535 62.47921
36062500000 -22.895672 73.915436 -1.2019407 -9.4095354 -1.1859988 -9.8721075 -23.616488 61.927067
36090000000 -23.991711 72.702896 -1.2156765 -10.104541 -1.2223216 -10.303493 -23.367086 61.686855
36117500000 -23.302244 76.227921 -1.1608372 -10.641159 -1.1611524 -10.613613 -23.316589 60.020432
36145000000 -23.081516 73.075905 -1.1996659 -11.473551 -1.204506 -11.295007 -23.325251 59.158222
36172500000 -23.306917 73.686737 -1.1858933 -11.707811 -1.2174414 -11.737804 -23.155828 58.848991
36200000000 -23.18054 70.127487 -1.2084758 -12.385812 -1.1789747 -12.358736 -23.174238 60.50024
36227500000 -23.066217 70.451202 -1.1660798 -12.60592 -1.2292459 -12.961295 -22.835445 54.40287
36255000000 -22.636992 67.980606 -1.2057828 -13.391508 -1.2424262 -13.490764 -23.032034 58.332924
36282500000 -22.809406 70.163895 -1.1712639 -13.866164 -1.1892494 -14.1425 -22.561714 56.816414
36310000000 -23.222267 66.634537 -1.1923189 -14.592119 -1.2239914 -14.360003 -22.214626 56.943233
36337500000 -22.322817 64.85305 -1.2058049 -15.16643 -1.1908064 -15.178884 -22.596779 53.418461
36365000000 -22.396528 65.167633 -1.2019509 -15.740906 -1.1942787 -15.589987 -22.346256 56.034958
36392500000 -22.634726 63.858036 -1.2017642 -16.318558 -1.1928858 -16.258635 -22.628063 52.896584
36420000000 -22.326605 63.776463 -1.1915743 -16.854185 -1.2279533 -17.044439 -22.113531 51.472557
36447500000 -22.276428 64.680061 -1.2038448 -17.563021 -1.2226475 -17.368328 -21.941141 51.561527
36475000000 -22.151907 61.565292 -1.1940479 -18.009567 -1.1940861 -18.030237 -21.822947 54.61092
36502500000 -22.025946 62.503868 -1.2086478 -18.484892 -1.2128794 -18.572121 -22.005526 49.163517
36530000000 -21.871283 60.654182 -1.1826354 -19.196432 -1.2323279 -18.932917 -22.320728 51.138321
36557500000 -22.124727 57.605774 -1.2198452 -19.546093 -1.2282975 -19.669493 -21.120077 50.913857
36585000000 -21.999382 58.381939 -1.1814239 -20.36474 -1.2337281 -20.355255 -21.629305 49.043064
36612500000 -21.454058 58.461063 -1.1735618 -20.786325 -1.1944692 -20.692146 -21.474312 43.416889
36640000000 -21.724094 58.070255 -1.225787 -21.312412 -1.2084409 -21.336206 -21.306091 47.989788
36667500000 -21.168674 55.4594 -1.2300714 -21.776505 -1.2241781 -21.879211 -21.251467 48.362476
36695000000 -21.096798 54.628498 -1.198625 -22.428749 -1.2084464 -22.503191 -20.905758 41.655403
36722500000 -21.459534 54.535019 -1.2285942 -23.067768 -1.199755 -23.158092 -21.119759 44.9659
36750000000 -21.270983 52.173607 -1.2487586 -23.711557 -1.239506 -23.571857 -20.951994 48.691181
36777500000 -20.882637 55.095066 -1.2326099 -23.971245 -1.2237353 -24.152578 -21.084263 40.555172
36805000000 -21.116211 51.380047 -1.2236246 -24.703747 -1.2147031 -24.7335 -20.957943 43.262688
36832500000 -20.900658 50.738449 -1.2276871 -25.150339 -1.2496487 -25.29381 -21.063963 43.948627
36860000000 -20.806269 52.213421 -1.2370377 -25.661848 -1.2206231 -25.714754 -20.274906 37.748013
36887500000 -20.828321 49.587444 -1.232627 -26.252279 -1.2261698 -26.245361 -20.444071 38.716019
36915000000 -20.814308 47.010433 -1.2090609 -26.950354 -1.2578461 -27.165623 -20.539291 39.474068
36942500000 -20.419966 51.208088 -1.2331345 -27.506248 -1.2330114 -27.61627 -20.944466 38.589794
36970000000 -20.499901 50.336552 -1.2228736 -27.913849 -1.224249 -28.000378 -20.260359 34.518456
36997500000 -20.660963 48.103546 -1.2683433 -28.755352 -1.2794679 -28.720177 -20.889997 38.796535
37025000000 -20.233238 46.12431 -1.2287811 -29.005577 -1.2472239 -28.932276 -20.284626 37.473545
37052500000 -20.38426 46.213196 -1.2177289 -29.37982 -1.2534534 -29.856136 -19.997271 34.351334
37080000000 -20.583784 44.204418 -1.2121919 -30.156748 -1.2652662 -30.274435 -20.459682 37.154961
37107500000 -20.04389 44.380383 -1.2456779 -30.852098 -1.2864182 -30.747887 -20.156008 35.569847
37135000000 -19.857452 44.383114 -1.2107673 -31.369175 -1.2378857 -31.3097 -19.791992 31.488316
37162500000 -19.950378 41.089817 -1.2229675 -31.695494 -1.2355046 -31.766087 -19.859913 31.695498
37190000000 -20.359564 40.008724 -1.2358408 -32.62455 -1.251524 -32.315205 -19.882946 35.47443
37217500000 -19.755354 44.88776 -1.2468485 -32.895458 -1.2552748 -32.914814 -19.785675 32.121334
37245000000 -19.999958 39.441586 -1.2417322 -33.442795 -1.2239516 -33.605274 -19.615772 31.098177
37272500000 -19.645487 39.454983 -1.2663183 -34.081295 -1.241017 -34.0784 -19.926912 33.217369
37300000000 -19.944029 43.980659 -1.2702379 -34.568417 -1.2818068 -34.569752 -19.694885 29.662228
37327500000 -19.542068 38.277424 -1.2326597 -35.269665 -1.2349374 -35.183311 -19.419739 30.052723
37355000000 -19.645315 36.369438 -1.2380276 -35.45195 -1.2864404 -35.577477 -19.523174 30.334192
37382500000 -19.32468 38.420696 -1.2655392 -36.302029 -1.270111 -36.224377 -19.47817 29.778376
37410000000 -19.431271 39.381672 -1.240376 -36.603176 -1.2301415 -36.796207 -18.968454 26.07618
37437500000 -19.539768 34.398232 -1.2533487 -37.325443 -1.2747405 -37.453991 -19.132147 27.540331
37465000000 -19.289421 36.173016 -1.2489277 -37.920525 -1.2227319 -37.955963 -19.153744 26.126326
37492500000 -19.134453 36.101166 -1.2067618 -38.431759 -1.235836 -38.466618 -19.060001 25.162477
37520000000 -19.095255 33.077477 -1.226065 -38.943016 -1.2630241 -38.827396 -19.065901 25.389912
37547500000 -19.101677 34.789711 -1.2335691 -39.464077 -1.2661188 -39.673706 -19.115856 25.096107
37575000000 -18.974367 36.557121 -1.2600372 -39.980961 -1.2923249 -39.935104 -18.939152 22.729362
37602500000 -18.830654 31.291758 -1.2825748 -40.746273 -1.2849382 -40.699493 -18.624235 23.578018
37630000000 -18.692652 30.834988 -1.2667203 -41.03941 -1.2569741 -41.311947 -18.712526 22.734289
37657500000 -18.82625 32.340508 -1.2268046 -41.699429 -1.2401565 -41.529221 -18.610954 22.556553
37685000000 -18.694862 30.664009 -1.2677755 -42.199303 -1.2664857 -42.18187 -18.525703 22.430777
37712500000 -18.704885 28.820425 -1.2775565 -43.005501 -1.2336613 -42.962009 -18.504511 19.529308
37740000000 -18.357754 30.888493 -1.2614137 -43.561852 -1.2823066 -43.492485 -18.441914 19.068237
37767500000 -18.518785 28.060455 -1.2626156 -43.676884 -1.2704463 -43.87722 -18.430956 21.101341
37795000000 -18.249102 27.178867 -1.2561879 -44.39883 -1.2567452 -44.503063 -18.291935 19.485338
37822500000 -18.643074 27.430519 -1.2385888 -45.076786 -1.2415879 -45.069206 -18.573017 18.531452
37850000000 -18.615183 28.256548 -1.2525069 -45.393166 -1.2570965 -45.49902 -17.941994 18.535427
37877500000 -18.0877 25.106644 -1.2698828 -46.092278 -1.2377956 -46.205025 -17.909267 18.815145
37905000000 -18.049301 26.667252 -1.288368 -46.69582 -1.2669178 -46.578033 -18.203968 16.340334
37932500000 -18.460987 26.214405 -1.2572749 -47.499298 -1.2561064 -47.173393 -18.056992 16.104425
37960000000 -18.092138 23.608179 -1.265932 -47.74646 -1.2753352 -47.944199 -17.975233 17.595961
37987500000 -18.122509 22.572538 -1.2244251 -48.430439 -1.2965064 -48.506496 -17.997295 17.548439
38015000000 -18.292177 24.279331 -1.2346746 -48.795921 -1.2712653 -48.88163 -18.035181 15.023476
38042500000 -18.037958 22.393806 -1.2615653 -49.263134 -1.2872857 -49.538403 -17.871204 17.091047
38070000000 -17.838537 22.155893 -1.2823013 -50.130585 -1.2873087 -50.176407 -17.533239 15.772048
38097500000 -18.267393 22.154072 -1.2484901 -50.365181 -1.2558575 -50.537655 -17.813082 13.512962
38125000000 -17.692036 20.98748 -1.2488279 -51.034061 -1.2669476 -51.291035 -17.762045 12.884399
38152500000 -17.927526 20.232815 -1.2685479 -51.497452 -1.2756876 -51.715946 -17.842592 13.574454
38180000000 -18.123436 19.023195 -1.2532945 -52.19957 -1.3040839 -52.399117 -17.73414 10.022968
38207500000 -17.650234 20.781672 -1.2803466 -52.58107 -1.2720597 -53.067856 -17.659639 11.045777
38235000000 -17.703352 19.930637 -1.2674497 -53.432587 -1.271418 -53.317074 -17.678389 12.002114
38262500000 -17.734179 14.970626 -1.3028867 -53.951206 -1.2538593 -53.904308 -17.727158 10.49761
38290000000 -17.853142 16.582659 -1.2733145 -54.371098 -1.2558637 -54.487499 -17.781605 8.0243616
38317500000 -17.419321 17.023205 -1.2701662 -55.182758 -1.2477386 -55.253391 -17.56036 9.5402765
38345000000 -17.481953 16.30092 -1.2896568 -55.196316 -1.2903291 -55.636127 -17.543289 8.2702618
38372500000 -17.841146 14.735201 -1.250648 -55.926254 -1.271232 -56.234512 -17.586592 8.2737894
38400000000 -17.686476 14.094566 -1.2311361 -56.720238 -1.2904695 -56.636246 -17.536896 7.986064
38427500000 -17.802879 12.416433 -1.2866089 -57.179966 -1.286808 -57.286602 -17.590202 5.8483362
38455000000 -17.476645 13.786475 -1.2897849 -57.480194 -1.2785619 -57.591751 -17.329268 5.6001563
38482500000 -17.54283 12.014739 -1.2634617 -58.3013 -1.2594134 -58.478741 -17.606705 6.7209139
38510000000 -17.247698 11.578627 -1.2834342 -59.070454 -1.3242246 -58.957806 -17.289249 6.9344459
38537500000 -17.545847 12.494603 -1.2663803 -59.150581 -1.2719342 -59.160492 -17.33905 4.9428802
38565000000 -17.334459 10.425755 -1.2639989 -60.109676 -1.2781694 -59.840996 -17.232197 5.0431757
38592500000 -17.602568 11.604029 -1.2587544 -60.738216 -1.3400869 -60.459919 -17.493963 4.1034455
38620000000 -17.056253 8.1718197 -1.3125787 -61.184803 -1.2867739 -61.177238 -17.234249 1.6298106
38647500000 -17.52457 10.271628 -1.2655003 -61.506382 -1.2732503 -61.481018 -17.270054 3.0066149
38675000000 -17.374981 7.6288509 -1.3054868 -61.985229 -1.298172 -62.049053 -17.341681 2.3380704
38702500000 -17.200808 8.1973467 -1.2895223 -62.558987 -1.3226591 -62.864685 -17.497147 2.1594927
38730000000 -17.39397 9.0655355 -1.2936908 -63.090313 -1.318269 -63.123795 -17.130901 1.3836125
38757500000 -17.16943 6.4643559 -1.2862594 -63.657185 -1.2890826 -64.043617 -17.323172 -0.74024457
38785000000 -17.062784 4.448657 -1.3134006 -64.170998 -1.3083104 -64.345665 -17.402672 0.081289232
38812500000 -17.382257 3.6019063 -1.2663894 -64.694008 -1.2988555 -64.688431 -16.753256 -0.68826461
38840000000 -17.313322 5.4819512 -1.270829 -65.459801 -1.2660879 -65.647545 -17.221134 1.644765
38867500000 -17.238878 7.0446296 -1.3075802 -65.981041 -1.2860248 -66.068138 -17.419643 0.61672443
38895000000 -17.02923 3.6759589 -1.3401321 -66.48748 -1.2895281 -66.442131 -16.801361 0.82699031
38922500000 -17.122456 3.0338674 -1.2621385 -67.04541 -1.2774523 -67.041893 -17.052898 -2.6047904
38950000000 -17.048376 2.6629107 -1.2956778 -67.78334 -1.2942941 -67.909866 -17.150818 -4.0223794
38977500000 -17.00456 1.5695814 -1.3137006 -67.871712 -1.3053869 -68.150352 -17.163639 -2.1774445
39005000000 -17.316425 1.8861514 -1.2786117 -68.600014 -1.2753991 -68.594437 -17.234436 -5.0115538
39032500000 -16.826633 2.9454722 -1.2567916 -69.296356 -1.3002783 -69.502647 -17.275389 -5.8630061
39060000000 -16.991995 1.6243029 -1.2636966 -70.007759 -1.2987459 -69.681313 -17.278065 -3.3517287
39087500000 -16.95392 -2.2200072 -1.2874253 -70.254745 -1.3014753 -70.192009 -17.022383 -5.0586786
39115000000 -17.145639 1.4322823 -1.2980994 -71.067711 -1.2547007 -70.871727 -17.361696 -6.2217865
39142500000 -16.81875 1.6536223 -1.3182887 -71.417374 -1.3072042 -71.605255 -17.22949 -5.1281633
39170000000 -16.743015 -2.2492187 -1.3094352 -71.812958 -1.2952687 -71.615395 -16.756466 -4.6170926
39197500000 -16.826639 -3.2590303 -1.2472383 -72.351143 -1.2547867 -72.592728 -17.043884 -10.185308
39225000000 -16.828455 -2.6633754 -1.298357 -73.258652 -1.2543869 -73.472321 -17.040321 -8.986845
39252500000 -17.042337 -6.0165482 -1.3341807 -73.336105 -1.2950032 -73.949295 -17.108315 -7.741364
39280000000 -16.897997 -5.7292113 -1.307856 -74.085922 -1.3108746 -74.034241 -16.852278 -8.4878092
39307500000 -16.908234 -4.7422695 -1.2383137 -74.907524 -1.2715415 -74.946495 -17.070448 -11.310493
39335000000 -16.664675 -4.2485542 -1.3140768 -75.37661 -1.3352761 -75.102455 -16.784704 -7.4102764
39362500000 -16.556013 -5.481595 -1.3291739 -75.713799 -1.2866026 -75.868401 -16.94327 -8.8759165
39390000000 -16.892408 -4.7100472 -1.2439044 -76.482529 -1.2729845 -76.270164 -17.047274 -14.194874
39417500000 -16.782349 -6.0336361 -1.2947032 -76.973289 -1.3353691 -76.876816 -17.00458 -9.9437323
39445000000 -16.668039 -9.0797167 -1.315473 -77.167549 -1.3215529 -77.274139 -16.894289 -11.185491
39472500000 -16.862587 -7.5122299 -1.2971163 -77.879898 -1.2767162 -78.247658 -16.80831 -13.180885
39500000000 -16.894697 -9.2945833 -1.2883008 -78.589165 -1.2936811 -78.736 -16.743292 -12.564296
39527500000 -16.72002 -8.8630657 -1.3277786 -79.165138 -1.3695519 -79.093704 -16.863056 -10.397109
39555000000 -16.884336 -10.692154 -1.2436142 -79.874214 -1.2650036 -79.63916 -16.799107 -16.499218
39582500000 -16.858725 -11.274168 -1.2684259 -80.17691 -1.2862587 -80.149391 -16.835505 -17.389893
39610000000 -16.775406 -11.481144 -1.2862716 -80.839569 -1.2814066 -80.711533 -16.914829 -13.54786
39637500000 -16.734064 -10.367364 -1.3264585 -81.49733 -1.3512907 -81.121033 -16.813648 -14.4483
39665000000 -16.692741 -9.4097452 -1.2461491 -82.132439 -1.2749807 -82.092415 -16.575476 -17.022007
39692500000 -16.567358 -13.505235 -1.3088078 -82.342438 -1.3206047 -82.310555 -16.917416 -15.847436
39720000000 -16.61685 -11.389913 -1.2977155 -82.697227 -1.2909361 -83.0924 -16.904659 -17.477736
39747500000 -16.856417 -13.18255 -1.2496846 -83.483734 -1.2515533 -83.477615 -16.629168 -19.952
39775000000 -16.56267 -15.053574 -1.3055609 -84.047333 -1.3236424 -84.25383 -17.090202 -16.316519
39802500000 -16.479715 -12.680553 -1.3252208 -84.568176 -1.3038464 -84.454117 -16.810925 -17.607006
39830000000 -16.959225 -12.018472 -1.2674588 -84.963135 -1.2562312 -84.992012 -16.397575 -22.83713
39857500000 -16.960697 -16.083223 -1.2671288 -85.729355 -1.2731723 -85.853943 -16.73794 -20.202417
39885000000 -16.674374 -15.295113 -1.3423011 -86.467522 -1.3206962 -86.468811 -17.003668 -18.707848
39912500000 -16.776348 -17.032335 -1.2983605 -86.766457 -1.3050747 -87.024178 -16.508442 -22.947823
39940000000 -16.748421 -16.730888 -1.2608261 -87.205002 -1.2985232 -87.2379 -16.541588 -22.998501
39967500000 -16.586706 -17.08457 -1.3006828 -87.956932 -1.332098 -87.98307 -17.177902 -19.684971
39995000000 -16.793167 -17.493017 -1.2908747 -88.316963 -1.2983501 -88.4841 -16.532724 -21.327688
40022500000 -16.884821 -18.566551 -1.2631661 -88.72683 -1.27911 -89.05603 -16.518511 -22.540733
40050000000 -16.33165 -18.195246 -1.3516515 -89.511467 -1.2866831 -89.636696 -16.897831 -22.38092
40077500000 -16.987841 -17.941147 -1.3046666 -90.20253 -1.3198501 -90.144844 -16.834658 -23.657833
40105000000 -16.657896 -20.023655 -1.2799656 -90.666252 -1.2566404 -90.601433 -16.477831 -24.951298
40132500000 -16.711245 -19.99157 -1.3072151 -91.09845 -1.2834579 -91.30175 -17.010542 -23.662397
40160000000 -16.90379 -20.042221 -1.2797025 -91.770355 -1.3185573 -91.963722 -16.787281 -25.366367
40187500000 -16.994129 -20.937548 -1.2576615 -92.18161 -1.2768284 -91.930511 -16.104357 -27.387165
40215000000 -16.620108 -20.977926 -1.287589 -92.787483 -1.2634866 -93.031731 -16.861141 -26.667112
40242500000 -16.797405 -20.341 -1.2901981 -93.280167 -1.3015249 -93.427322 -17.176222 -25.312107
40270000000 -16.938311 -23.26618 -1.2955041 -93.922844 -1.2849598 -94.043602 -16.626703 -28.154444
40297500000 -16.685959 -24.977415 -1.2229902 -94.380608 -1.3033689 -94.519547 -16.698614 -29.086941
40325000000 -16.542109 -24.548737 -1.3019887 -95.069847 -1.2953045 -95.294189 -17.01692 -28.14353
40352500000 -16.77319 -23.596817 -1.2487944 -95.54763 -1.296506 -95.59314 -16.501102 -30.596195
40380000000 -16.928028 -23.957907 -1.2770077 -96.361946 -1.2685382 -96.214523 -16.601139 -30.465294
40407500000 -16.751049 -24.751041 -1.3017873 -96.897057 -1.2892342 -96.852379 -17.174149 -30.207676
40435000000 -16.997938 -26.86228 -1.3022753 -97.289421 -1.3084621 -97.63726 -17.021196 -30.282881
40462500000 -17.019945 -27.334362 -1.283455 -97.430832 -1.2601787 -97.785118 -16.655163 -32.106392
40490000000 -16.580118 -28.1926 -1.2531163 -98.220154 -1.2738227 -98.304131 -16.688879 -33.835098
40517500000 -16.844233 -26.832003 -1.2633368 -99.093842 -1.2830415 -98.682655 -16.80731 -31.380386
40545000000 -16.950058 -27.657776 -1.2941836 -99.56665 -1.3003314 -99.533752 -16.762379 -32.47044
40572500000 -16.622639 -27.479347 -1.2760497 -100.34009 -1.2565809 -99.750504 -16.810762 -33.406731
40600000000 -17.019047 -28.21113 -1.2857004 -100.79704 -1.263165 -100.519 -17.387962 -34.53289
40627500000 -16.866114 -31.79266 -1.2437414 -101.10001 -1.2682377 -101.31689 -16.736307 -36.702732
40655000000 -16.786089 -30.102543 -1.2662113 -101.64465 -1.260296 -101.68514 -16.66172 -35.009319
40682500000 -16.650089 -30.613028 -1.2348899 -102.10097 -1.2890638 -102.38208 -17.16968 -34.960297
40710000000 -16.813139 -31.80772 -1.2321829 -102.83147 -1.2435448 -102.72473 -16.947247 -36.185604
40737500000 -16.818233 -31.762411 -1.2596496 -103.36825 -1.2457179 -103.23486 -17.044361 -36.131577
40765000000 -16.65995 -32.319508 -1.2587529 -103.86642 -1.2534357 -103.92261 -16.973444 -36.661331
40792500000 -16.878906 -33.569901 -1.2650219 -104.63223 -1.2804642 -104.58426 -16.914814 -38.433605
40820000000 -16.784136 -33.041965 -1.2275769 -104.84238 -1.2846968 -104.82869 -16.906935 -35.561001
40847500000 -17.106535 -33.480682 -1.2797043 -105.52879 -1.2560292 -105.67102 -17.1383 -37.416248
40875000000 -16.745947 -33.675308 -1.2720597 -106.25446 -1.2852494 -105.93948 -17.002325 -40.132507
40902500000 -17.254532 -34.39325 -1.2819525 -106.81062 -1.2484936 -106.80327 -17.064651 -39.478657
40930000000 -17.12328 -35.343689 -1.2548859 -107.17893 -1.2607327 -107.09454 -16.856998 -38.250313
40957500000 -17.075317 -36.040943 -1.2270329 -107.67305 -1.2291256 -107.8794 -16.945017 -41.075314
40985000000 -16.788685 -36.849586 -1.2526747 -108.24268 -1.2448276 -108.63734 -16.941772 -40.279011
41012500000 -17.34857 -36.491234 -1.3016814 -108.90667 -1.2627834 -109.01195 -17.367155 -41.882874
41040000000 -16.771681 -36.318901 -1.2605544 -109.58809 -1.3273185 -109.46561 -17.357031 -41.787949
41067500000 -16.957897 -37.915291 -1.2424954 -109.90749 -1.2527262 -109.99216 -17.413012 -43.135799
41095000000 -17.199707 -38.999554 -1.2480916 -110.59456 -1.2804999 -110.79958 -17.284054 -43.279346
41122500000 -17.102785 -37.661182 -1.245939 -110.81435 -1.3038533 -111.02796 -17.439342 -43.558834
41150000000 -17.031271 -40.581619 -1.2864704 -111.70715 -1.2625259 -111.64314 -17.071287 -44.478302
41177500000 -17.227083 -38.713787 -1.225338 -112.49014 -1.2430485 -112.24834 -17.971945 -43.247162
41205000000 -17.425623 -39.232685 -1.2671334 -112.56409 -1.2608036 -112.79153 -17.309778 -43.785206
41232500000 -17.163336 -40.224693 -1.2156626 -113.33521 -1.2957367 -113.41409 -17.609131 -45.325642
41260000000 -17.42975 -44.453854 -1.2514191 -114.0084 -1.2530025 -113.86191 -17.761578 -46.086468
41287500000 -17.430832 -41.387993 -1.2787617 -114.57065 -1.2855021 -114.47186 -17.77939 -43.782082
41315000000 -17.170256 -40.108639 -1.261937 -115.22596 -1.2437059 -115.07523 -17.224375 -44.770908
41342500000 -17.13139 -42.682087 -1.2014118 -115.29727 -1.2700465 -115.81214 -18.092644 -47.014648
41370000000 -17.497375 -44.606991 -1.2821163 -115.97591 -1.2685524 -116.29396 -17.482269 -46.913181
41397500000 -17.512247 -42.416481 -1.2603846 -116.76435 -1.2716906 -116.72607 -17.454414 -47.51989
41425000000 -17.158484 -44.771614 -1.239786 -117.24189 -1.2761689 -117.30421 -17.63162 -48.185394
41452500000 -17.853689 -44.622581 -1.2431192 -117.96231 -1.2701373 -117.75727 -17.847736 -48.255001
41480000000 -17.518154 -43.946907 -1.2497483 -118.30609 -1.2631816 -118.3596 -17.635611 -49.252251
41507500000 -17.503778 -47.399033 -1.2016675 -118.89309 -1.3014375 -118.77869 -17.783716 -50.351402
41535000000 -17.771502 -46.979534 -1.2335746 -119.72319 -1.2120079 -119.45532 -18.1558 -50.792793
41562500000 -17.668221 -44.102566 -1.2405069 -119.93604 -1.2784998 -120.36179 -17.600115 -48.293552
41590000000 -17.868689 -44.768303 -1.2538099 -120.21146 -1.2382869 -120.70171 -17.728739 -49.236038
41617500000 -17.776993 -51.983101 -1.2431192 -121.30238 -1.2427825 -121.2559 -18.456112 -53.591957
41645000000 -18.086681 -49.368011 -1.217204 -121.64387 -1.2844734 -121.79685 -18.224344 -49.002808
41672500000 -17.605064 -45.363853 -1.22198 -121.8216 -1.2377487 -122.17879 -17.77343 -52.246658
41700000000 -17.741261 -50.481609 -1.2063159 -122.52809 -1.2414448 -123.04569 -18.035103 -54.418865
41727500000 -17.789467 -50.686031 -1.2426529 -123.60834 -1.2661108 -123.46846 -18.586697 -51.247246
41755000000 -18.361217 -48.948391 -1.2432557 -124.12588 -1.2517468 -124.09864 -18.323141 -49.618889
41782500000 -18.228649 -53.655155 -1.246524 -124.65952 -1.2320061 -124.17757 -18.172195 -56.685902
41810000000 -18.090429 -50.761822 -1.2567334 -125.34029 -1.2819581 -125.23747 -18.631418 -56.819656
41837500000 -18.000622 -48.61628 -1.2143254 -125.33521 -1.2967203 -125.53657 -18.368231 -50.631332
41865000000 -17.785025 -54.231068 -1.2626425 -125.8906 -1.2606994 -125.97598 -18.269121 -53.846985
41892500000 -18.113434 -54.316246 -1.2165589 -126.88656 -1.2454555 -126.53975 -18.710546 -55.501526
41920000000 -18.607965 -53.445415 -1.2402765 -127.31219 -1.2425836 -127.382 -18.868788 -55.91774
41947500000 -18.163952 -52.604206 -1.2536855 -127.57541 -1.2541509 -127.6851 -18.731047 -53.952438
41975000000 -17.800179 -55.255383 -1.1938162 -128.15315 -1.2296063 -128.24117 -18.586475 -56.423279
42002500000 -18.289074 -55.467361 -1.2230712 -128.75278 -1.1967385 -129.3083 -19.015688 -52.77409
42030000000 -18.834663 -50.289238 -1.2516162 -129.35033 -1.2085955 -129.17122 -18.571278 -55.899208
42057500000 -18.310369 -51.887104 -1.2173157 -129.74054 -1.2262827 -129.80154 -18.816931 -61.299438
42085000000 -18.346889 -56.949112 -1.1761444 -130.79848 -1.1885285 -130.84094 -19.304363 -60.020603
42112500000 -18.618048 -58.00597 -1.2459193 -130.80879 -1.1840166 -131.02496 -19.220621 -53.621243
42140000000 -18.345003 -54.93185 -1.242512 -131.80992 -1.2691352 -131.92708 -18.886177 -60.204151
42167500000 -19.196508 -58.127075 -1.1713099 -132.19994 -1.2542877 -132.10313 -19.267721 -62.900803
42195000000 -18.997499 -56.677246 -1.2461276 -132.70592 -1.2225175 -133.18394 -19.050617 -56.342884
42222500000 -18.856655 -57.701862 -1.2420365 -133.07384 -1.2359399 -133.47905 -18.852322 -60.042992
42250000000 -18.776018 -59.989292 -1.2170265 -133.96848 -1.2105058 -133.89896 -19.360943 -63.910622
42277500000 -19.496492 -62.691174 -1.1815268 -134.4516 -1.2145681 -134.52225 -19.569796 -58.53083
42305000000 -19.312195 -60.507813 -1.2560745 -134.70706 -1.2566677 -135.00858 -18.833822 -59.577869
42332500000 -19.089182 -60.966209 -1.2100352 -135.50787 -1.2011282 -135.48193 -19.075893 -62.917942
42360000000 -20.002436 -60.249893 -1.2223268 -136.06317 -1.2040395 -136.37889 -19.762905 -65.274208
42387500000 -19.277138 -61.796185 -1.2588792 -137.02696 -1.2195323 -137.00703 -19.592556 -60.773331
42415000000 -19.240499 -61.752491 -1.2304285 -137.38315 -1.217069 -136.83823 -19.598022 -66.140785
42442500000 -20.072121 -63.955837 -1.1848094 -138.13008 -1.2066141 -138.13161 -19.65806 -66.272743
42470000000 -19.56016 -64.964912 -1.2196796 -138.47034 -1.2726059 -138.57802 -19.978086 -62.441582
42497500000 -19.699902 -62.884342 -1.2081065 -138.88785 -1.238699 -139.09814 -19.4884 -64.15033
42525000000 -19.748844 -64.585632 -1.1868819 -139.26913 -1.1601635 -139.45863 -20.330719 -65.335823
42552500000 -20.189238 -62.695419 -1.2382672 -140.28636 -1.2307973 -140.35669 -20.784842 -66.033646
42580000000 -20.617546 -61.651985 -1.2199216 -140.53561 -1.2544875 -141.1123 -20.230043 -60.698849
42607500000 -20.554285 -68.151924 -1.1868159 -141.52745 -1.2297282 -141.32968 -20.539577 -68.371361
42635000000 -20.308479 -68.466797 -1.2121269 -141.7413 -1.2044193 -142.08963 -20.449268 -69.860085
42662500000 -20.947912 -66.682503 -1.2181376 -142.54329 -1.2357885 -142.32228 -20.87517 -64.736366
42690000000 -20.806974 -67.974228 -1.2143264 -143.15422 -1.2073357 -143.06065 -21.078077 -62.902626
42717500000 -20.270002 -72.083458 -1.1833954 -143.61516 -1.2202665 -143.55626 -21.357309 -68.431694
42745000000 -20.950859 -67.623962 -1.1936731 -143.9552 -1.2257111 -144.14265 -21.35693 -64.697105
42772500000 -20.820509 -67.421776 -1.2194153 -144.41116 -1.2249515 -144.56839 -20.940248 -71.370399
42800000000 -20.807432 -73.874672 -1.173046 -145.66299 -1.2388494 -145.21341 -21.249941 -68.41082
42827500000 -20.867071 -68.176041 -1.1851077 -145.9765 -1.1995175 -146.00873 -21.531677 -61.524754
42855000000 -21.103682 -67.685188 -1.1962581 -146.618 -1.213488 -146.61415 -21.034269 -68.869667
42882500000 -21.219521 -72.342209 -1.2122816 -147.27203 -1.2150037 -146.86371 -21.642927 -73.498482
42910000000 -21.070984 -70.338539 -1.1903011 -147.75165 -1.2140083 -147.55389 -21.444311 -70.812317
42937500000 -21.326975 -64.714462 -1.171373 -148.46269 -1.2268389 -148.01677 -22.051548 -62.627113
42965000000 -22.488167 -74.875198 -1.2264849 -148.20114 -1.1988542 -148.56949 -22.130909 -75.0578
42992500000 -21.005285 -73.065315 -1.2116122 -149.31577 -1.2338281 -149.04495 -22.216022 -71.198532
43020000000 -22.599855 -69.486465 -1.1834104 -149.77194 -1.1843603 -150.02177 -22.403696 -65.280594
43047500000 -22.600979 -69.034851 -1.2487924 -150.56223 -1.1903491 -150.53281 -21.379847 -74.374367
43075000000 -21.90777 -73.322632 -1.2019366 -150.95351 -1.2269564 -151.04578 -22.379162 -70.543289
43102500000 -22.419559 -69.420578 -1.1880047 -151.31265 -1.2178652 -151.57246 -22.506897 -71.686478
43130000000 -22.528156 -71.921196 -1.2347196 -152.36713 -1.2272506 -152.24641 -22.743927 -70.578369
43157500000 -22.415108 -72.954628 -1.192013 -152.63477 -1.2200835 -152.36018 -22.007584 -75.326065
43185000000 -22.476082 -68.890419 -1.2340382 -153.15239 -1.2032416 -152.90271 -23.411747 -70.518387
43212500000 -23.379971 -73.525337 -1.1351651 -153.8143 -1.1913506 -153.61601 -23.050499 -70.75058
43240000000 -22.001156 -80.916725 -1.2406591 -154.62346 -1.2301753 -154.50041 -24.81863 -73.34362
43267500000 -23.48843 -72.26046 -1.1862805 -154.54181 -1.1804947 -154.84312 -22.970339 -76.129211
43295000000 -22.942335 -74.107307 -1.2219756 -155.37822 -1.1712734 -155.10646 -23.648865 -67.831543
43322500000 -24.128643 -78.020859 -1.2021366 -155.85989 -1.1663127 -156.48621 -23.618425 -70.985619
43350000000 -24.088009 -76.928177 -1.2165617 -156.67503 -1.1843412 -156.72713 -23.571405 -75.503265
43377500000 -23.540176 -73.127525 -1.2284344 -157.45157 -1.1968153 -157.1317 -25.024319 -71.498718
43405000000 -24.556171 -75.325027 -1.1900355 -157.62206 -1.1692888 -157.77838 -23.970991 -73.756859
43432500000 -24.675329 -74.367798 -1.2380418 -158.14716 -1.2562965 -157.78952 -23.08358 -76.760002
43460000000 -24.173424 -80.85907 -1.1739187 -158.74673 -1.2396203 -158.52422 -25.105238 -68.338776
43487500000 -25.40476 -71.034019 -1.1581718 -159.80739 -1.2101368 -159.7108 -25.178862 -72.716675
43515000000 -25.274284 -77.698036 -1.2403485 -159.75301 -1.2153455 -160.04202 -24.759909 -76.180321
43542500000 -25.396631 -74.047943 -1.1980805 -160.61684 -1.2623227 -160.95422 -25.212955 -77.033463
43570000000 -26.09939 -70.640717 -1.2498403 -161.00772 -1.1923151 -160.80074 -25.189583 -71.578773
43597500000 -24.515116 -74.638062 -1.2888092 -161.30705 -1.3143412 -161.92557 -25.565735 -75.122894
43625000000 -25.370775 -76.371506 -1.1704633 -162.3575 -1.2033648 -162.01886 -24.991325 -69.551971
43652500000 -27.153749 -76.801476 -1.1680315 -162.41995 -1.2040957 -162.82474 -26.325043 -74.052895
43680000000 -26.507599 -67.444252 -1.2477896 -163.55809 -1.2051892 -163.36292 -27.127653 -77.528069
43707500000 -26.216639 -66.953598 -1.2407266 -164.03217 -1.2299639 -163.82039 -25.803127 -79.596237
43735000000 -27.1991 -72.532997 -1.2336648 -164.40732 -1.2416923 -164.03246 -28.168383 -71.220345
43762500000 -26.39189 -72.455986 -1.1855546 -165.08633 -1.200821 -165.13063 -27.924942 -78.053925
43790000000 -25.767479 -77.001808 -1.2354231 -165.32129 -1.2100191 -165.7368 -26.440348 -59.441456
43817500000 -29.116083 -65.662888 -1.2377622 -165.81219 -1.1821687 -165.86357 -26.453814 -75.86879
43845000000 -27.011904 -78.657036 -1.2686779 -166.80898 -1.2269272 -166.68983 -27.461142 -75.879639
43872500000 -28.293583 -79.833443 -1.2658371 -166.98083 -1.222311 -167.60698 -28.518414 -59.875446
43900000000 -28.708055 -74.59948 -1.2333539 -168.1441 -1.2507461 -168.01611 -28.30374 -74.381348
43927500000 -27.598415 -74.614571 -1.1999446 -168.28481 -1.2453783 -168.19313 -27.734762 -74.646149
43955000000 -28.26322 -77.438049 -1.1846626 -169.01569 -1.1996669 -168.9276 -28.955704 -62.310703
43982500000 -32.301815 -66.488815 -1.2448608 -169.53902 -1.2036906 -169.38109 -28.882221 -64.059494
44010000000 -31.762543 -77.854706 -1.2352087 -169.67995 -1.1894292 -169.57959 -29.970547 -70.168182
44037500000 -27.941357 -72.225105 -1.1810756 -170.78918 -1.2228756 -170.63188 -30.897907 -79.371857
44065000000 -31.293562 -76.345825 -1.2649699 -171.3188 -1.2435118 -171.14204 -32.301689 -53.48597
44092500000 -32.032703 -75.58857 -1.3338147 -171.66371 -1.275964 -171.74593 -30.711937 -68.502922
44120000000 -30.569279 -73.293015 -1.1900426 -172.4678 -1.2067649 -172.59486 -28.723557 -64.648338
44147500000 -31.363159 -61.706402 -1.2827291 -173.09398 -1.3041255 -172.68474 -31.30312 -58.355373
44175000000 -33.037033 -54.767609 -1.2658807 -172.80835 -1.2436208 -173.07788 -29.899761 -58.88126
44202500000 -31.824188 -66.419777 -1.1931051 -173.76808 -1.243609 -174.02028 -31.275791 -57.601212
44230000000 -32.594898 -65.335121 -1.2440006 -174.36383 -1.242227 -174.38507 -29.113737 -48.617729
44257500000 -35.644981 -70.608032 -1.2588246 -174.94406 -1.2845079 -175.30936 -29.588245 -43.697151
44285000000 -32.038517 -58.371849 -1.1920204 -175.3996 -1.2563359 -175.66818 -33.064083 -54.887142
44312500000 -31.544344 -47.86927 -1.2230842 -175.88736 -1.2251056 -176.66615 -33.018326 -39.987469
44340000000 -32.503914 -51.265808 -1.2000589 -176.95947 -1.2202429 -176.87941 -32.254139 -45.933838
44367500000 -35.64933 -33.228596 -1.3177133 -177.28745 -1.2172012 -177.65656 -36.630703 -71.364334
44395000000 -34.138592 -33.49382 -1.2499069 -177.90642 -1.2045575 -178.09933 -33.457642 -41.923634
44422500000 -37.583549 -52.428116 -1.2313839 -178.66025 -1.2041398 -178.33783 -33.009399 -18.835974
44450000000 -33.749489 -17.931784 -1.276626 -179.04349 -1.2529794 -179.12756 -33.057907 -56.690945
44477500000 -35.578724 -17.405964 -1.1365007 -179.20694 -1.19873 -179.70563 -33.252487 -26.389935
44505000000 -34.544739 -4.4225197 -1.2148602 179.38725 -1.245479 179.87462 -30.767908 -8.8584614
44532500000 -39.67749 -31.861624 -1.3003241 178.60832 -1.3129215 178.70436 -34.1702 -29.665333
44560000000 -33.689568 -12.819747 -1.2565838 178.91742 -1.2630746 178.56055 -34.58662 -16.023668
44587500000 -33.658413 -2.1375 -1.2472018 177.77809 -1.2209872 177.95876 -31.581795 9.1814823
44615000000 -36.375565 5.3340263 -1.2493291 177.66173 -1.3043021 177.21413 -33.77409 -3.0034273
44642500000 -33.196053 1.9462439 -1.2303948 176.83211 -1.25764 176.91641 -34.686695 -3.9017327
44670000000 -33.537407 0.73252738 -1.2728051 176.13498 -1.214902 176.22989 -30.391375 10.281096
44697500000 -35.254284 31.86286 -1.2742472 175.37311 -1.3072455 175.57166 -30.725853 -9.5152369
44725000000 -33.862312 18.774523 -1.3079318 175.20953 -1.2882293 175.0948 -33.062065 -23.64299
44752500000 -31.746902 3.2725692 -1.3168354 174.94762 -1.2259089 174.51289 -29.681915 20.862963
44780000000 -36.783417 27.440506 -1.2209101 173.91577 -1.271947 173.93977 -29.200306 15.037492
44807500000 -32.050884 28.704628 -1.2951082 173.41495 -1.2873414 173.4915 -31.528027 0.89139628
44835000000 -30.024193 15.367859 -1.2943939 173.07172 -1.1876189 173.24617 -31.634115 13.976653
44862500000 -31.426723 32.156017 -1.2715851 172.37404 -1.2574623 172.32487 -29.76985 21.743771
44890000000 -30.839155 30.980785 -1.2992895 171.62906 -1.2650361 171.33911 -31.091141 11.810472
44917500000 -28.319511 25.320152 -1.3176428 171.24956 -1.2670463 171.14864 -30.611605 23.173878
44945000000 -29.673075 18.370955 -1.2422842 170.5831 -1.2441478 170.5162 -27.896843 24.865221
44972500000 -29.073944 34.682667 -1.246336 169.98427 -1.2684928 170.09929 -27.914928 17.073288
45000000000 -30.691021 26.370686 -1.2288154 169.37329 -1.2411506 169.61069 -28.596163 23.095936
