!Keysight Technologies,N5224A,MY55441802,A.10.65.16
!Date: Wednesday, May 13, 2026 19:05:03
!Correction: S11(Full 2 Port(1,2)) 
!S21(Full 2 Port(1,2)) 
!S12(Full 2 Port(1,2)) 
!S22(Full 2 Port(1,2)) 
!S2P File: Measurements: S11, S21, S12, S22:
# Hz S  dB   R 50
1000000000 -27.928856 -120.91042 1.3929802 7.6514931 3.2211807 20.966755 -1.8468001 -3.7996275
1100000000 -3.7284594 159.78368 -1.8086643 2.3073974 -0.82221776 -15.829926 -1.1852853 3.5894413
1200000000 2.1668246 -4.0209117 -6.2871819 -151.96025 -19.676775 -98.287445 1.7575023 -25.573807
1300000000 -3.911273 0.059231129 2.4290264 -7.9053206 4.632618 -4.3142128 -11.168908 -20.749432
1400000000 -2.2850327 161.64453 -0.2288824 8.9620438 -0.85678333 -16.708721 -0.16981439 -5.709043
1500000000 4.3735104 -10.724045 -1.1423237 176.59358 -9.6378956 -176.32448 3.2285349 -33.314793
1600000000 3.4234967 -14.736123 3.1268809 -25.598545 5.7756829 -18.656666 -17.84746 -54.004494
1700000000 -1.3894651 137.05367 3.9540415 10.425214 0.84324855 -15.625006 1.4279068 -17.85684
1800000000 9.9385185 -26.807039 5.9811945 144.11751 2.8094602 140.19592 7.1364527 -51.955921
1900000000 3.2822666 -21.633873 3.234098 -33.770039 4.9276285 -27.165503 -24.742794 -78.889931
2000000000 2.5613935 109.8617 6.8695121 4.5334525 3.03861 -11.618104 2.102577 -30.536619
2100000000 15.321895 -166.76561 15.243238 -1.0550865 13.719313 -11.464282 11.259195 170.58342
2200000000 3.2057569 -28.223394 3.5009415 -38.708805 4.7126288 -34.216202 -19.309996 -58.74807
2300000000 1.620104 58.716827 7.7256727 -24.818016 3.6936305 -33.917603 -0.93890238 -64.043053
2400000000 7.7507787 146.8687 9.1409817 -46.8321 8.4926052 -53.970512 2.3788574 118.6304
2500000000 -0.17310107 -46.969261 3.1963186 -52.173363 3.817585 -50.684147 -12.628842 -97.281326
2600000000 -1.5134828 26.320837 5.9109483 -50.401512 2.7700946 -53.063568 -6.6580915 -105.0483
2700000000 -1.1727051 142.80498 3.781925 -55.31366 4.1097789 -61.489784 -7.1553702 112.74302
2800000000 -1.0412821 -56.334412 3.0452893 -55.141048 3.702714 -54.580757 -11.525233 -77.8116
2900000000 -7.0778961 8.2621393 3.2226439 -61.904507 1.5231606 -63.485756 -10.961389 -117.8187
3000000000 -2.5199435 128.17703 3.2422886 -67.92408 3.8673134 -70.629089 -7.5995216 94.467148
3100000000 -4.8785963 -74.963928 2.1442919 -62.378437 2.5709379 -62.774555 -12.544871 -80.356071
3200000000 -9.1562672 -1.5593122 2.586602 -71.112251 1.2941972 -69.164902 -10.55337 -123.41245
3300000000 -4.8118749 124.51827 2.3721747 -74.735825 2.9872036 -74.184845 -9.9838219 95.369545
3400000000 -5.9471893 -90.119896 1.4092312 -69.606392 1.6318269 -69.070427 -16.550659 -70.496216
3500000000 -11.649715 -25.599428 1.7786545 -80.646179 0.70066267 -76.104042 -12.3743 -118.86966
3600000000 -4.4838414 131.97607 2.115109 -77.246765 2.6186705 -75.806351 -10.799479 107.89875
3700000000 -6.3079691 -116.93971 1.0912766 -79.671562 1.1706489 -79.258125 -19.8426 -79.202431
3800000000 -13.783903 -33.844154 1.5347793 -85.926796 0.3162528 -82.309738 -14.08397 -109.55096
3900000000 -7.2504883 134.20415 0.99344301 -82.293381 1.3055483 -80.642723 -15.672355 119.52379
4000000000 -6.9845371 -124.05372 0.89982271 -87.777054 0.85057539 -87.913666 -22.339006 -118.43597
4100000000 -13.636665 -45.291233 1.5866452 -89.980957 0.30744302 -89.301987 -14.360239 -112.43918
4200000000 -11.49297 122.08292 0.36774325 -90.907829 0.59101778 -90.644455 -22.158327 126.67255
4300000000 -8.1891308 -134.22633 0.88158739 -94.980888 0.75643253 -95.647156 -20.010324 -147.91109
4400000000 -17.566664 -59.583874 0.95915157 -96.028709 0.092181973 -95.932259 -17.991205 -126.86227
4500000000 -12.651825 123.90918 0.06069826 -97.385071 0.4400816 -96.432663 -25.084478 141.49452
4600000000 -9.5904408 -136.67065 0.71482557 -101.04699 0.67398298 -101.97446 -17.318134 -154.44455
4700000000 -15.954743 -69.654434 0.78123796 -102.02652 0.25931251 -102.35286 -17.568005 -143.09628
4800000000 -13.860972 109.60242 -0.031475179 -105.6995 0.44905069 -104.86523 -28.440805 121.87956
4900000000 -10.973627 -150.13921 0.60564399 -107.2608 0.5251925 -107.86819 -17.747053 -161.51501
5000000000 -17.964314 -85.620491 0.37344167 -110.0815 0.030095994 -109.17283 -18.855219 -166.91557
5100000000 -15.674942 111.02583 -0.081845999 -112.89068 0.30461207 -110.09451 -27.54685 103.31091
5200000000 -12.314699 -160.86523 0.2814444 -113.78521 0.24889377 -114.14222 -18.090076 -169.66843
5300000000 -19.502958 -94.62381 0.23568074 -116.15273 -0.05500368 -115.48258 -18.14591 -171.30553
5400000000 -16.504196 106.41073 -0.13175778 -118.71378 0.24015905 -117.46709 -25.015039 103.73777
5500000000 -13.076655 -172.27867 0.23864861 -119.61701 0.12821043 -119.86304 -19.98139 -179.93753
5600000000 -22.516466 -109.61234 -0.0037355798 -122.74948 -0.19456708 -122.2928 -19.104654 177.47803
5700000000 -16.228455 89.938866 -0.071934566 -125.96522 0.35623145 -124.13343 -24.013535 89.530975
5800000000 -14.085623 -179.20447 -0.062228728 -126.19566 -0.10234079 -126.20554 -21.088163 166.39368
5900000000 -21.211153 -126.04448 -0.078522712 -129.75311 -0.17932613 -129.2713 -19.049559 171.33987
6000000000 -18.354452 103.45806 -0.28517726 -131.09187 0.034834329 -130.29309 -22.772224 102.69058
6100000000 -13.864316 173.69891 -0.022178387 -132.28061 -0.099879958 -132.62991 -23.009233 152.27657
6200000000 -23.347286 -150.20792 -0.23116964 -135.80272 -0.30414018 -135.49573 -20.082521 165.93225
6300000000 -18.026083 104.21484 -0.30838525 -137.23138 -0.12918612 -136.25763 -22.657173 104.4861
6400000000 -14.529402 167.0564 -0.15987192 -139.8373 -0.21100402 -140.11075 -23.115805 130.73721
6500000000 -22.375 -156.68185 -0.30745772 -141.68938 -0.37228417 -141.62074 -21.493933 152.77867
6600000000 -19.911997 115.79752 -0.53315383 -143.51045 -0.43955708 -143.22661 -22.655617 114.54307
6700000000 -15.179421 166.40857 -0.22220254 -145.49313 -0.22971737 -145.89676 -23.007404 124.63441
6800000000 -22.880636 -165.25154 -0.3319186 -147.47969 -0.3484751 -147.77136 -23.249033 151.53059
6900000000 -20.604321 104.7322 -0.51722503 -150.09636 -0.44488126 -150.25082 -23.589668 107.54207
7000000000 -16.940424 159.05972 -0.29860359 -152.38042 -0.28236112 -152.64125 -21.026251 119.72649
7100000000 -25.408119 -169.48175 -0.35400727 -153.59952 -0.36830693 -153.73969 -23.340265 139.61696
7200000000 -20.932779 101.79005 -0.53859001 -156.94235 -0.46316662 -156.83194 -25.050016 97.566818
7300000000 -16.835041 153.86621 -0.26178029 -158.65712 -0.22410981 -158.74739 -21.067165 114.22729
7400000000 -27.498285 -173.96796 -0.45780244 -160.3636 -0.40628344 -160.53961 -22.583067 121.08583
7500000000 -20.803406 85.200844 -0.44509614 -163.25301 -0.39235666 -163.04631 -25.410776 76.256996
7600000000 -18.439497 139.52379 -0.45029622 -165.01266 -0.40822792 -165.30125 -22.175463 108.05286
7700000000 -28.183016 172.01714 -0.4701488 -167.17508 -0.42835635 -167.38203 -22.218725 116.15508
7800000000 -19.906906 83.812469 -0.44573227 -168.98958 -0.44697979 -168.8895 -23.641973 67.260925
7900000000 -17.892277 136.53191 -0.45874262 -171.55202 -0.41448924 -171.54109 -23.439772 97.93486
8000000000 -30.537113 168.9397 -0.44903955 -174.08556 -0.40618363 -174.10088 -22.806414 108.96101
8100000000 -20.126657 69.492424 -0.41236413 -175.33528 -0.39494288 -175.32994 -22.953569 54.042236
8200000000 -19.27376 129.23264 -0.58750582 -178.11372 -0.52869898 -178.23332 -24.293703 76.893776
8300000000 -33.888939 -160.73239 -0.42997816 179.83391 -0.37335232 179.6534 -24.214283 106.02376
8400000000 -20.880743 65.387016 -0.47121742 178.24854 -0.4636839 178.03844 -23.862822 52.25407
8500000000 -18.957422 126.19934 -0.5389384 175.48328 -0.50416654 175.34302 -24.640371 62.282372
8600000000 -30.922308 172.37561 -0.50886416 173.07849 -0.47077411 172.91675 -25.646879 85.879677
8700000000 -21.948683 58.110424 -0.50472116 171.48622 -0.50213778 171.41008 -24.671705 41.934048
8800000000 -20.289766 122.12344 -0.57877028 168.9758 -0.53164524 168.99413 -24.928259 49.417843
8900000000 -32.094322 -157.52591 -0.54834586 166.85634 -0.47959128 166.744 -27.300215 76.99865
9000000000 -22.190834 41.308247 -0.4890137 164.87746 -0.46959978 164.59962 -25.848974 27.941351
9100000000 -20.549486 110.36922 -0.53309256 162.44931 -0.4870179 162.31218 -25.612505 38.349888
9200000000 -28.817293 -174.0787 -0.55575067 160.26492 -0.51146263 160.00349 -28.492222 62.220703
9300000000 -24.431032 28.603689 -0.51894027 158.00153 -0.52646804 157.79529 -27.145554 12.315182
9400000000 -21.201509 111.22271 -0.51680952 155.77557 -0.48292047 155.89729 -26.772905 26.550316
9500000000 -27.327574 -161.69928 -0.57096636 153.72729 -0.51635808 153.63737 -30.931736 51.328995
9600000000 -24.461449 4.8959222 -0.54010147 151.23401 -0.50289351 151.0274 -29.079254 -10.531989
9700000000 -22.623617 93.868942 -0.54828268 148.9057 -0.51112366 148.88275 -28.999462 22.89267
9800000000 -27.322258 -150.95775 -0.6245234 147.37276 -0.55461562 147.11584 -34.778423 36.138256
9900000000 -24.981411 -4.9200563 -0.55350012 145.20627 -0.52547234 144.79715 -29.000504 -27.925346
10000000000 -22.782154 102.21642 -0.55332291 142.53267 -0.53531051 142.48796 -32.635471 6.1174202
10100000000 -23.512186 -161.97876 -0.55659711 140.61214 -0.51848608 140.32495 -37.466022 46.86187
10200000000 -26.359867 -34.533543 -0.57672191 138.41414 -0.55928385 138.00903 -29.03195 -49.111111
10300000000 -26.36438 101.1831 -0.68180507 135.79106 -0.66564125 135.75398 -35.351334 -23.129808
10400000000 -24.382507 -153.04039 -0.64573026 133.92285 -0.59037113 133.83929 -52.025581 54.870689
10500000000 -27.764788 -45.348789 -0.65292168 132.60672 -0.59731561 132.08549 -29.894886 -56.039722
10600000000 -25.370235 110.70702 -0.73314184 129.45543 -0.69088864 129.2646 -35.08482 -62.325714
10700000000 -21.739162 -167.58582 -0.63414431 127.53279 -0.5667209 127.27087 -43.642231 -176.50056
10800000000 -28.333494 -77.605614 -0.6628319 126.08804 -0.62549973 125.41678 -30.0578 -71.609901
10900000000 -27.791565 117.39925 -0.74846506 123.03185 -0.75037616 122.99574 -32.894337 -86.602753
11000000000 -21.76404 -164.52171 -0.71219051 121.19963 -0.64974219 121.21895 -35.778603 -149.01608
11100000000 -26.591982 -87.532143 -0.677194 119.71413 -0.60651726 119.27702 -30.071951 -90.428047
11200000000 -27.445244 107.37672 -0.74311769 116.7949 -0.7367838 116.73881 -31.692867 -101.15082
11300000000 -21.603596 177.9975 -0.80161077 114.83975 -0.72970027 114.75949 -31.83415 -150.41164
11400000000 -27.323967 -110.23872 -0.6782788 113.11105 -0.6452691 112.58641 -28.367409 -113.10912
11500000000 -28.51693 112.67042 -0.68224835 110.7192 -0.74892497 110.65165 -29.720802 -114.20364
11600000000 -20.752365 177.82169 -0.79550701 108.5998 -0.73537779 108.55934 -29.727043 -150.84038
11700000000 -24.373066 -110.32705 -0.61790186 106.62492 -0.57663119 106.19952 -26.203979 -126.98801
11800000000 -28.690203 93.14621 -0.62530571 104.13082 -0.67572957 104.17059 -28.868736 -140.53835
11900000000 -21.550898 163.37807 -0.84588277 101.97554 -0.77864337 101.95241 -27.825747 -159.61221
12000000000 -26.912088 -130.04869 -0.67674482 100.14017 -0.64474237 99.773972 -25.125259 -138.57593
12100000000 -28.42494 94.249512 -0.62367862 97.893616 -0.64155614 97.872765 -26.596704 -152.32739
12200000000 -20.384537 165.56325 -0.80872852 95.829773 -0.73578542 95.796341 -26.390968 -167.31146
12300000000 -23.498686 -139.56024 -0.68245244 93.953979 -0.60980898 93.300865 -24.293459 -149.82948
12400000000 -29.683208 126.25272 -0.63509381 91.006607 -0.66415727 91.003464 -25.230871 -165.83449
12500000000 -20.662079 160.66679 -0.80123138 89.099426 -0.74117059 89.292023 -25.414793 -175.17203
12600000000 -24.254633 -153.19768 -0.73094577 87.282822 -0.65493804 86.900932 -23.965221 -157.6503
12700000000 -27.050283 123.16817 -0.63148832 84.667534 -0.6478287 84.753883 -24.220669 -168.69049
12800000000 -19.566181 156.30406 -0.77837396 82.80806 -0.68750155 82.761078 -23.682175 -179.10576
12900000000 -21.738237 -169.07082 -0.74883157 80.839958 -0.6671927 80.30172 -22.639559 -168.60951
13000000000 -25.71974 154.57416 -0.71761495 77.966286 -0.71138602 77.579506 -22.934036 -175.29004
13100000000 -19.322813 157.82079 -0.78880751 76.063911 -0.71037042 76.206863 -22.540194 176.04938
13200000000 -20.948936 -173.31987 -0.72273475 74.248413 -0.65485579 73.848831 -22.073008 -175.05569
13300000000 -24.816763 152.55981 -0.67325771 70.993195 -0.70087236 70.866966 -21.828901 179.15283
13400000000 -18.881432 148.96451 -0.77768481 69.296921 -0.70472205 69.257019 -21.378416 172.84885
13500000000 -19.546982 173.11435 -0.7537775 67.53196 -0.67631006 67.13353 -20.463829 176.26697
13600000000 -22.514647 155.71423 -0.76201504 64.731712 -0.75805116 64.302475 -20.211069 174.07607
13700000000 -18.114363 148.94641 -0.80795503 62.792908 -0.75516582 62.816513 -19.880484 164.28734
13800000000 -18.437027 171.07425 -0.75098729 61.037857 -0.65437669 60.749897 -19.384024 166.85196
13900000000 -21.118034 153.49471 -0.68858761 58.238968 -0.74883306 57.848698 -19.066086 165.32312
14000000000 -17.545563 141.83975 -0.82637966 56.044147 -0.79101831 56.157646 -19.052145 156.73137
14100000000 -18.09454 159.23407 -0.74996078 54.324936 -0.66214532 54.063602 -18.516392 157.24896
14200000000 -20.067173 141.0562 -0.72549427 51.85041 -0.76932818 51.483307 -18.599932 156.02281
14300000000 -16.556456 138.44095 -0.86078161 49.429951 -0.80386233 49.428226 -18.64909 149.35727
14400000000 -17.269638 153.4151 -0.75660378 47.630524 -0.63620919 47.308853 -18.016954 152.17586
14500000000 -19.476013 134.12791 -0.76615292 45.12225 -0.79749769 44.827038 -17.91011 148.13058
14600000000 -16.706381 128.53799 -0.87096703 42.830799 -0.86658984 42.868698 -17.878679 144.22595
14700000000 -17.436472 141.16904 -0.81275308 41.213398 -0.72485316 40.851707 -17.13452 145.18056
14800000000 -18.73358 124.59865 -0.78314012 38.811131 -0.81439519 38.387905 -17.006266 139.30496
14900000000 -16.294088 122.11937 -0.92320049 36.197552 -0.87766671 36.366459 -17.464731 133.60762
15000000000 -16.567165 133.45009 -0.86695325 34.318359 -0.75304842 33.927757 -16.991928 135.68405
15100000000 -17.829239 119.31211 -0.84311521 31.887722 -0.86089677 31.642942 -16.851429 132.31575
15200000000 -16.101051 115.62512 -0.95095938 29.960697 -0.94499058 30.060455 -17.02623 127.99464
15300000000 -16.653603 121.98349 -0.93837094 28.04011 -0.86273444 27.70606 -16.513256 127.85536
15400000000 -17.823942 108.11714 -0.86114049 25.753416 -0.87012899 25.440905 -16.256662 124.98547
15500000000 -15.917645 106.16725 -0.95241094 23.584757 -0.95651853 23.775711 -16.658487 119.16927
15600000000 -16.170744 116.00043 -0.96859241 21.550276 -0.87069511 21.224106 -16.201605 118.43316
15700000000 -17.16165 105.69919 -0.9043752 19.162666 -0.91168326 18.961708 -16.421448 116.95683
15800000000 -15.516334 101.41724 -0.97962791 17.39888 -0.96605784 17.560652 -16.549622 111.76868
15900000000 -16.027475 108.12964 -0.98845702 15.459028 -0.91032678 15.094957 -16.147738 111.80819
16000000000 -17.315636 93.162712 -0.89948064 13.026179 -0.88865662 12.703488 -16.351416 110.9761
16100000000 -15.051751 91.487839 -0.93011129 11.120864 -0.92259878 11.086331 -16.448725 104.82841
16200000000 -15.749882 102.4873 -0.9624579 8.9390364 -0.89530271 8.6172123 -16.026157 105.65132
16300000000 -17.228422 90.658905 -0.91824549 6.514092 -0.92085743 6.2374392 -16.540623 104.78461
16400000000 -14.886105 87.68074 -0.93385768 4.4848118 -0.93331337 4.6427226 -16.506487 98.737442
16500000000 -15.749487 96.790749 -0.98350483 2.6812508 -0.91180331 2.5115542 -15.884121 101.27288
16600000000 -17.32262 78.784485 -0.94430763 0.11921702 -0.90676016 -0.14288744 -16.367102 99.944908
16700000000 -14.938812 78.653671 -0.94925982 -1.9751717 -0.93188399 -2.034915 -16.310133 93.084213
16800000000 -15.816556 90.172287 -0.97781885 -3.7927797 -0.90868753 -4.1428342 -15.888593 95.867569
16900000000 -17.123058 77.732559 -0.99100989 -6.1504083 -0.96511036 -6.5394444 -16.406776 94.691101
17000000000 -14.81455 75.232956 -0.94746035 -8.4632845 -0.95250583 -8.4698133 -16.250847 88.620514
17100000000 -15.802394 83.728172 -0.98277438 -10.298954 -0.93616253 -10.483618 -15.738378 91.146713
17200000000 -17.021765 68.84021 -0.99835348 -12.705036 -0.95783007 -12.931461 -16.258919 89.240784
17300000000 -15.349678 66.6455 -1.008328 -14.944057 -0.99051368 -15.042947 -16.165098 83.627357
17400000000 -16.04924 75.420433 -1.0088694 -16.93631 -0.95246881 -17.158331 -15.78602 86.039795
17500000000 -17.296148 64.030846 -1.0328757 -18.871252 -0.97855926 -19.169975 -16.281666 85.032745
17600000000 -15.094449 63.063316 -1.0095568 -21.251757 -0.99862826 -21.390938 -16.143375 78.177452
17700000000 -15.778523 69.87809 -1.0189952 -23.397161 -0.99018145 -23.595165 -15.734117 80.296997
17800000000 -17.438795 56.423012 -1.004285 -25.429848 -0.9526968 -25.681852 -16.146214 79.568092
17900000000 -15.589902 52.187107 -1.0310464 -27.632786 -1.0235715 -27.819901 -16.268307 72.050705
18000000000 -16.455374 62.975487 -1.047529 -30.003057 -1.011333 -30.102779 -15.832667 75.086678
18100000000 -17.904188 50.441677 -1.0410798 -31.746935 -0.96425498 -31.896759 -16.294386 76.198479
18200000000 -15.353309 49.069008 -1.057829 -33.884426 -1.036644 -34.091232 -16.111519 67.967438
18300000000 -15.935068 58.512505 -1.0722879 -36.223888 -1.0416964 -36.412411 -15.626591 69.213432
18400000000 -17.876692 42.668194 -1.0331919 -38.175838 -0.96533048 -38.495926 -16.28265 68.50605
18500000000 -15.428854 39.822227 -1.0308691 -40.013859 -1.0439911 -40.285278 -16.18084 60.589729
18600000000 -16.581388 50.705349 -1.0670146 -42.661171 -1.05997 -42.786293 -15.93592 64.161354
18700000000 -18.195229 34.971226 -1.0522095 -44.570499 -0.98086059 -44.667919 -16.712683 63.833164
18800000000 -15.415653 32.807117 -1.0241137 -46.676884 -1.0121038 -46.776142 -16.410376 56.253242
18900000000 -16.261688 43.427139 -1.072145 -48.986012 -1.0767201 -49.003044 -15.877991 59.221375
19000000000 -17.655235 27.879667 -1.0770941 -51.085506 -1.0080277 -51.224895 -16.693247 55.735435
19100000000 -15.711242 26.57246 -1.0000365 -52.896111 -1.0120398 -53.140732 -16.634752 48.086929
19200000000 -16.886621 34.983196 -1.0685271 -55.381386 -1.0852376 -55.462444 -16.664568 53.009968
19300000000 -18.053907 21.267868 -1.113202 -57.558311 -1.0304239 -57.698986 -17.344913 52.457737
19400000000 -16.101009 18.077515 -1.0455062 -59.689209 -1.0054673 -59.83276 -17.16506 46.835293
19500000000 -16.998388 25.704378 -1.0970325 -61.949265 -1.0981748 -61.821102 -16.75268 50.000454
19600000000 -18.060335 14.938104 -1.1307566 -64.009338 -1.060285 -64.034637 -17.276798 46.298866
19700000000 -16.633932 11.143244 -1.0635401 -65.999474 -1.0271785 -66.154388 -17.355154 40.290459
19800000000 -17.383339 18.153477 -1.0972037 -68.318451 -1.0872068 -68.220718 -17.382198 42.557014
19900000000 -18.765903 7.1088958 -1.1448258 -70.213318 -1.0575794 -70.31765 -17.899723 42.184063
20000000000 -17.265724 2.6020789 -1.1046169 -72.291725 -1.038735 -72.656021 -17.942532 37.316105
20100000000 -17.843784 7.2361927 -1.0954304 -74.760559 -1.0808522 -74.592979 -17.570118 37.750881
20200000000 -19.255898 -3.9603379 -1.1290661 -76.653168 -1.0351807 -76.610855 -18.100607 36.491264
20300000000 -17.901308 -10.614139 -1.0876883 -78.651764 -1.0228019 -78.997353 -18.413912 29.173374
20400000000 -18.627934 -1.4974011 -1.09478 -81.168121 -1.0664839 -81.123566 -18.409662 29.552149
20500000000 -20.524956 -13.440741 -1.1454719 -82.872124 -1.0262374 -83.024132 -19.233776 31.631002
20600000000 -18.553123 -19.814907 -1.1186868 -84.963043 -1.008985 -85.545784 -19.426962 24.96608
20700000000 -19.191608 -12.814078 -1.0822242 -87.404007 -1.0664786 -87.58844 -19.286329 24.046251
20800000000 -21.161394 -27.02799 -1.1040319 -89.333275 -1.0128729 -89.507233 -20.386263 25.326082
20900000000 -19.39278 -32.409687 -1.0662476 -91.087639 -1.0028356 -91.757256 -21.186724 19.306705
21000000000 -20.770533 -25.100527 -1.0748549 -93.656036 -1.0611763 -93.968147 -21.379034 25.334621
21100000000 -22.365927 -38.478889 -1.0865284 -95.666817 -1.0045303 -95.919945 -22.033043 30.965199
21200000000 -20.353512 -42.485306 -1.0391676 -97.788185 -0.96222383 -98.431595 -22.011061 25.96249
21300000000 -21.627817 -37.59724 -1.0503036 -100.4009 -1.0385685 -100.58052 -21.430193 26.069201
21400000000 -22.888523 -57.583637 -1.0566975 -102.52692 -0.97175062 -102.69731 -22.086811 24.642624
21500000000 -21.424021 -56.994026 -1.0021584 -104.35958 -0.95663738 -105.0983 -23.303095 16.256491
21600000000 -23.226542 -51.722996 -1.0256071 -106.77904 -1.0518504 -107.19113 -24.046831 18.778252
21700000000 -24.719692 -71.796761 -1.0835562 -109.09312 -1.0269517 -109.32063 -24.881161 25.966808
21800000000 -23.134081 -74.836975 -1.0320512 -111.13137 -0.97060478 -111.69067 -26.325283 29.509897
21900000000 -25.124681 -69.242218 -1.048623 -113.57283 -1.0550158 -113.66483 -25.685698 32.598129
22000000000 -25.631453 -92.089539 -1.0727789 -115.69085 -1.0258157 -115.64505 -24.788183 35.535969
22100000000 -23.874907 -92.87915 -1.0206491 -117.72794 -0.96134138 -118.20676 -26.360226 39.047642
22200000000 -27.017544 -87.172638 -1.0201979 -120.14522 -1.0265467 -120.31305 -26.547209 32.575687
22300000000 -29.198826 -125.99936 -1.1091833 -122.22051 -1.0686355 -122.3831 -25.777599 40.638748
22400000000 -26.185373 -115.93822 -1.0831084 -124.34512 -1.0185115 -124.94214 -27.337585 49.897179
22500000000 -28.899441 -114.37022 -1.0543066 -126.6302 -1.0546831 -126.65837 -27.101585 39.909405
22600000000 -26.806 -143.35008 -1.1152782 -128.83218 -1.0518191 -128.6156 -25.687376 47.970364
22700000000 -25.162363 -129.88148 -1.0921042 -130.87054 -0.99846584 -131.23895 -27.334457 60.914791
22800000000 -30.690569 -132.45306 -1.0523854 -133.24579 -1.0129477 -133.30573 -27.548683 48.264091
22900000000 -26.507477 -172.95313 -1.1384884 -135.17921 -1.0781947 -135.19725 -26.209162 58.117992
23000000000 -26.064535 -158.60718 -1.1103188 -137.27005 -1.0435886 -137.88959 -27.663488 74.944214
23100000000 -28.522743 -177.58934 -1.1098651 -139.41969 -1.0796168 -139.76094 -27.813658 70.846947
23200000000 -23.574883 174.2318 -1.1402214 -141.46387 -1.0644684 -141.53508 -24.732218 74.342003
23300000000 -24.198641 -168.76744 -1.1435609 -143.58308 -1.0278389 -144.15005 -24.740093 83.379181
23400000000 -27.069763 161.76047 -1.0929075 -146.09828 -1.0537301 -146.44341 -25.223019 73.800598
23500000000 -22.911455 156.78 -1.151065 -148.05865 -1.0862904 -148.34482 -23.554623 74.538719
23600000000 -23.781082 163.9586 -1.1403323 -150.10599 -1.0858787 -150.77173 -24.044352 86.015312
23700000000 -24.063652 139.34253 -1.1109865 -152.30235 -1.1068139 -152.83435 -24.548492 83.614876
23800000000 -21.117989 144.31078 -1.1442642 -154.33031 -1.0786506 -154.75598 -22.286285 81.136597
23900000000 -22.342108 154.06107 -1.1332802 -156.51505 -1.0680877 -157.24805 -21.880306 90.683403
24000000000 -22.470539 137.80884 -1.1351783 -158.88632 -1.129684 -159.52699 -22.51893 84.381157
24100000000 -20.219357 137.11877 -1.15789 -161.12056 -1.1357342 -161.43147 -21.086384 78.942833
24200000000 -21.0355 140.23199 -1.1653687 -163.10756 -1.1342875 -163.58881 -20.746418 87.463478
24300000000 -20.977135 118.41719 -1.1470705 -165.31021 -1.1412317 -165.76538 -21.563169 85.100334
24400000000 -18.736454 123.02556 -1.1601793 -167.50146 -1.146302 -167.90762 -20.09812 81.139633
24500000000 -19.943684 127.85926 -1.1522362 -169.42566 -1.1113617 -170.22531 -19.326826 90.836044
24600000000 -19.769648 116.12308 -1.1569328 -171.80492 -1.1724752 -172.40443 -19.97138 85.078079
24700000000 -17.920759 118.75459 -1.1712795 -174.0401 -1.1902738 -174.27646 -18.602587 77.431213
24800000000 -19.170734 120.79692 -1.1658965 -176.12944 -1.1349626 -176.48308 -18.352753 83.993271
24900000000 -18.354322 100.68054 -1.1685288 -178.40144 -1.1652262 -178.60345 -19.069691 79.500763
25000000000 -16.989605 103.38946 -1.1992593 179.42868 -1.1927216 179.13 -17.840191 74.948494
25100000000 -18.184711 103.87941 -1.1891493 177.2802 -1.1551946 176.7381 -17.565191 81.419968
25200000000 -17.796503 92.147064 -1.1799029 175.23502 -1.1926149 174.82957 -18.1141 76.266571
25300000000 -16.582508 99.166954 -1.2196727 172.90146 -1.2266625 172.74037 -16.926889 70.56945
25400000000 -17.990644 98.12394 -1.2011979 170.63669 -1.1629144 170.34428 -16.896957 74.881592
25500000000 -17.156378 84.07296 -1.2012483 168.53877 -1.1843001 168.20538 -17.338625 68.53878
25600000000 -16.250324 86.249329 -1.2507695 166.31235 -1.2580241 165.97871 -16.569361 65.982521
25700000000 -17.097372 83.34613 -1.257774 164.00108 -1.2503023 163.65849 -16.592592 69.943924
25800000000 -16.369314 74.88755 -1.2598989 162.05521 -1.2561847 161.82292 -16.823822 64.76693
25900000000 -15.70805 80.709412 -1.3002445 159.88385 -1.2977382 159.73038 -15.990582 62.184612
26000000000 -16.488773 78.848587 -1.3030539 157.56384 -1.2786263 157.23819 -16.159666 64.281662
26100000000 -16.094696 69.506371 -1.2942579 155.52495 -1.2829025 155.11604 -16.423979 59.758419
26200000000 -15.473388 70.208969 -1.3334067 153.41873 -1.3626034 153.20322 -15.750072 57.989872
26300000000 -15.99262 65.972336 -1.3507439 151.21725 -1.365912 151.03856 -15.777392 59.714535
26400000000 -15.334569 58.364273 -1.3490648 149.1541 -1.3403709 149.03833 -15.933544 55.766399
26500000000 -14.611961 61.283627 -1.3602326 147.23338 -1.3671597 147.27182 -15.220499 51.958134
26600000000 -15.268853 59.567562 -1.4069604 144.90245 -1.4007457 144.76646 -15.496416 53.273132
26700000000 -15.250303 52.918903 -1.4113978 142.77046 -1.3957698 142.50832 -15.807934 48.670033
26800000000 -14.9832 51.594875 -1.4285425 140.78059 -1.442464 140.93065 -15.224029 48.042339
26900000000 -15.524858 46.805279 -1.4567261 138.79315 -1.4630111 138.89307 -15.212891 48.825272
27000000000 -15.230475 39.228687 -1.4387316 136.70531 -1.3929427 136.77328 -15.186216 43.346222
27100000000 -14.60782 40.163334 -1.4241546 134.81952 -1.3755931 135.07352 -14.97418 41.513107
27200000000 -15.406672 39.999329 -1.4359931 132.78107 -1.4520043 132.93272 -15.496306 40.309643
27300000000 -15.396012 36.567654 -1.4123013 130.86771 -1.3947761 130.3344 -15.325341 36.65274
27400000000 -15.351899 37.61409 -1.3670216 128.8304 -1.2341267 127.6093 -14.983209 45.681015
27500000000 -15.730616 34.040577 -1.4153451 126.37076 -1.3633654 125.80763 -15.602982 45.829704
27600000000 -15.680275 27.762499 -1.4317082 123.97476 -1.3056116 123.85188 -15.779563 29.959055
27700000000 -15.057154 26.688574 -1.4005249 121.72871 -1.3057606 121.79563 -14.097029 31.939802
27800000000 -15.389315 24.904152 -1.4229257 119.72741 -1.4302182 119.8016 -15.197419 37.153221
27900000000 -15.340343 21.764879 -1.4879448 117.7895 -1.4522084 117.45353 -16.022451 22.832523
28000000000 -15.064996 19.977453 -1.4889308 115.66534 -1.3912464 115.50473 -13.997006 21.313416
28100000000 -15.587009 19.006897 -1.4696314 113.65768 -1.4019324 113.90756 -14.68535 37.911983
28200000000 -15.952736 13.092536 -1.552133 111.9966 -1.4717387 111.28778 -24.009987 27.510889
28300000000 -15.954135 7.1572852 -1.7051959 112.7997 -1.8274881 112.90065 -20.458702 -95.731918
28400000000 -15.74554 9.4126759 -1.1818849 108.36475 -1.3770199 108.33355 -19.555033 9.2571335
28500000000 -15.877659 2.1249585 -1.3485503 105.47878 -1.2375306 105.02718 -15.420245 16.124567
28600000000 -15.239313 3.071224 -1.3442768 103.45477 -1.2907335 103.29234 -15.72252 17.175499
28700000000 -16.097054 2.5444717 -1.370176 101.23003 -1.3757451 101.14477 -15.585774 14.08507
28800000000 -16.217165 -5.0998473 -1.396086 99.10498 -1.3601967 98.690285 -16.150246 16.925722
28900000000 -16.146679 -6.386085 -1.3842412 97.154343 -1.3578608 96.711418 -17.175873 12.919951
29000000000 -16.436792 -8.1936054 -1.3777217 95.000153 -1.4051991 94.987816 -16.547161 12.909904
29100000000 -16.089954 -19.103136 -1.3845092 92.908585 -1.3422885 92.838211 -16.678703 18.297869
29200000000 -15.872714 -18.875896 -1.3194132 90.992455 -1.2860014 90.601822 -17.263851 12.174271
29300000000 -17.362923 -19.364082 -1.3042817 88.526352 -1.3340759 88.570648 -16.426447 10.104528
29400000000 -17.732883 -24.464584 -1.347371 86.390594 -1.355536 86.251305 -16.9034 12.898096
29500000000 -17.244104 -19.886396 -1.3001809 84.356789 -1.2957394 84.167549 -17.809599 6.4096198
29600000000 -17.852659 -23.27807 -1.2996548 82.048164 -1.2965864 82.363899 -17.213303 5.1719856
29700000000 -17.187233 -36.393997 -1.3139061 79.661308 -1.2567773 79.890144 -17.411373 11.389978
29800000000 -17.05842 -35.798313 -1.3058473 77.509407 -1.2263795 77.441254 -18.254538 6.1523542
29900000000 -18.626595 -40.327393 -1.2863054 75.194656 -1.2611511 75.494888 -17.271948 2.3285031
30000000000 -18.845299 -48.26133 -1.3324999 73.060989 -1.3020464 73.283142 -17.80682 5.2171869
30100000000 -18.994873 -41.098003 -1.31398 71.060814 -1.2852049 71.010033 -19.183092 -2.269798
30200000000 -20.180122 -44.461044 -1.3266983 68.84771 -1.247215 69.166443 -18.510448 -4.4398985
30300000000 -19.160025 -58.443069 -1.3391458 66.702484 -1.2432071 66.888016 -19.222828 5.3609958
30400000000 -19.21726 -56.912155 -1.3665904 64.74221 -1.2538182 64.503517 -20.542925 4.3623142
30500000000 -21.03446 -65.619476 -1.3319173 62.311214 -1.239815 62.400936 -19.221479 -1.8442603
30600000000 -20.968344 -75.625061 -1.3595496 60.343575 -1.2513764 60.445862 -19.376579 6.976449
30700000000 -21.852259 -65.84726 -1.3424183 58.281116 -1.2642447 58.00383 -21.198475 0.015179263
30800000000 -23.537952 -71.560791 -1.3201591 56.045147 -1.2186193 55.825287 -20.111876 -6.6520844
30900000000 -22.095955 -80.748154 -1.3554273 53.995865 -1.2208742 53.700123 -20.476416 8.0453291
31000000000 -21.661175 -87.969269 -1.3473614 51.850655 -1.253426 51.488476 -22.584581 4.4068394
31100000000 -20.933874 -89.196686 -1.3197302 49.658253 -1.2118948 49.113056 -20.994909 -1.2381203
31200000000 -19.843935 -65.978363 -1.2771635 46.759445 -1.1722032 46.390537 -20.936028 12.02578
31300000000 -27.314854 -96.392982 -1.3038081 45.566792 -1.2605743 44.916264 -23.990765 6.9531236
31400000000 -21.617317 -122.05536 -1.3249092 43.217739 -1.2423677 42.159069 -21.775213 4.811089
31500000000 -20.186661 -57.21072 -1.1951882 40.236477 -1.0907222 39.15781 -22.15233 30.383247
31600000000 -13.253074 18.220818 -1.5039138 37.448162 -1.4730617 37.231609 -27.253078 33.399158
31700000000 -21.774193 111.83012 -1.3051111 37.459751 -1.3194124 36.818741 -24.114758 1.9286051
31800000000 -17.198452 -161.23029 -1.2995285 35.30307 -1.3054715 34.650078 -22.206385 28.031178
31900000000 -22.927956 -117.50438 -1.2991835 32.606167 -1.2311281 31.909443 -24.463888 38.274483
32000000000 -27.192518 152.96365 -1.2530071 30.420164 -1.2736136 29.580183 -24.283424 24.445177
32100000000 -20.46681 -171.90866 -1.2717694 27.906649 -1.2573276 27.363567 -22.007101 34.925262
32200000000 -23.824982 -150.55185 -1.2794592 25.713198 -1.2323799 25.142448 -23.543446 42.927143
32300000000 -22.993811 158.10722 -1.2336366 23.361135 -1.271579 22.828243 -23.64435 33.456963
32400000000 -19.457506 168.86394 -1.2868607 21.054611 -1.2943643 20.693151 -21.676888 40.944107
32500000000 -23.668875 169.59178 -1.2701136 18.662216 -1.254849 18.154545 -22.809057 52.126431
32600000000 -22.018389 135.18535 -1.2842077 16.666409 -1.2994474 16.097853 -22.908978 44.495014
32700000000 -20.401134 153.87509 -1.3490368 14.201913 -1.3240567 13.87478 -20.56369 48.179703
32800000000 -23.393436 154.03571 -1.3319966 12.150667 -1.2888342 11.724318 -20.988916 55.450932
32900000000 -20.098961 127.78473 -1.3541923 9.9309912 -1.3458672 9.4965849 -20.944122 45.680534
33000000000 -18.345993 135.39493 -1.3831556 7.7321115 -1.3922309 7.5028453 -19.396574 45.018055
33100000000 -21.108105 124.54014 -1.3903384 5.4040847 -1.3634467 4.9684772 -20.09733 51.814068
33200000000 -19.356682 106.92541 -1.3951247 3.4723995 -1.3992466 2.9905469 -20.597401 48.175423
33300000000 -19.68828 118.7302 -1.466876 1.0941693 -1.4510095 0.75670844 -18.851856 49.948975
33400000000 -21.85788 108.90717 -1.4995786 -0.70312953 -1.4514915 -1.0680786 -18.339275 55.194298
33500000000 -19.237007 102.10258 -1.4846584 -2.7070248 -1.4564015 -3.1479883 -18.67219 45.349552
33600000000 -18.222729 113.3735 -1.5105823 -4.6225605 -1.4778556 -5.0048351 -17.53009 42.294815
33700000000 -19.764408 106.73181 -1.4927675 -6.9974704 -1.4628047 -7.4586887 -18.250723 45.737614
33800000000 -17.868845 98.557068 -1.4687536 -8.8818884 -1.4758404 -9.4731903 -18.652864 42.733475
33900000000 -17.839474 107.10347 -1.4907579 -11.104322 -1.4905531 -11.562748 -17.415497 44.310799
34000000000 -18.874229 97.396065 -1.4946902 -13.382277 -1.4709539 -13.719204 -17.314035 49.664829
34100000000 -16.912979 91.209671 -1.4730788 -15.43634 -1.4638879 -15.983756 -16.927881 43.246372
34200000000 -16.229836 96.71508 -1.4983996 -17.553698 -1.4988003 -17.981121 -15.948726 39.412083
34300000000 -16.916283 89.733826 -1.5416476 -19.895359 -1.5340062 -20.383236 -16.370667 39.703873
34400000000 -15.666044 83.994797 -1.5511205 -21.819208 -1.5863358 -22.355032 -16.771435 36.381813
34500000000 -15.603994 88.959259 -1.5915978 -23.551378 -1.6183709 -23.881048 -16.216629 36.990627
34600000000 -16.441574 80.096962 -1.5549327 -25.625109 -1.5573357 -25.959225 -15.935275 41.536777
34700000000 -15.356815 73.512794 -1.4847798 -27.793388 -1.4910746 -28.195333 -15.699368 38.964752
34800000000 -15.080063 76.178368 -1.481088 -30.25387 -1.4957377 -30.650181 -15.113423 34.07402
34900000000 -15.398018 69.867752 -1.532411 -32.642479 -1.5464694 -32.974861 -14.705689 34.578255
35000000000 -14.429877 66.707047 -1.5770272 -34.646355 -1.5989974 -35.008865 -15.002821 31.913618
35100000000 -14.470974 70.163048 -1.6324911 -36.405632 -1.6481452 -36.73373 -14.70017 27.795408
35200000000 -15.296401 61.617188 -1.654238 -38.387772 -1.6516799 -38.659992 -14.42119 27.839428
35300000000 -14.545589 55.257401 -1.621842 -40.174744 -1.6264409 -40.61816 -14.76197 27.030663
35400000000 -14.592197 57.886303 -1.5917295 -41.967003 -1.6064601 -42.468578 -14.73147 23.200056
35500000000 -15.637155 52.931118 -1.5736338 -44.178223 -1.5947608 -44.453033 -14.446163 23.843834
35600000000 -14.786544 48.614372 -1.5295866 -46.215027 -1.5406736 -46.476143 -14.885595 25.534384
35700000000 -14.360716 55.422657 -1.4758229 -48.172016 -1.489055 -48.572422 -14.616008 23.28006
35800000000 -15.279538 51.464916 -1.4731065 -50.591106 -1.4726495 -50.940754 -13.925029 24.590086
35900000000 -14.316175 42.976101 -1.4538488 -52.927013 -1.4555715 -53.409248 -14.070368 22.624317
36000000000 -14.157639 46.794914 -1.4251878 -54.92852 -1.4605378 -55.532295 -14.167674 17.479568
36100000000 -15.232018 42.074886 -1.4385335 -57.358795 -1.4648719 -57.704842 -13.78179 18.187365
36200000000 -14.248153 34.251663 -1.4449515 -59.776108 -1.4604164 -60.146221 -13.978245 20.315882
36300000000 -13.947548 39.586578 -1.4464053 -61.92889 -1.4696438 -62.291382 -14.017967 15.388898
36400000000 -15.074491 36.774319 -1.4922169 -64.078033 -1.5050586 -64.377136 -13.178749 14.130579
36500000000 -14.171613 28.113216 -1.5026752 -66.198891 -1.5232568 -66.596397 -13.315455 14.738024
36600000000 -13.869243 33.377029 -1.4730692 -68.068344 -1.5181996 -68.592827 -13.407565 7.5460997
36700000000 -15.115259 28.151295 -1.4633676 -70.183929 -1.5073161 -70.511719 -12.854275 5.5134215
36800000000 -14.012439 19.221161 -1.4821717 -72.644714 -1.5048645 -72.862083 -13.769645 7.9952993
36900000000 -13.395524 25.138947 -1.4828584 -74.815277 -1.5157062 -75.052292 -14.197441 3.5280612
37000000000 -14.878194 20.329176 -1.4912635 -76.868553 -1.5294639 -77.005058 -12.922241 3.8010225
37100000000 -13.762701 9.7909307 -1.5159265 -79.002945 -1.5406289 -78.9953 -13.229719 4.9148793
37200000000 -13.967357 17.83919 -1.4869823 -81.131218 -1.5308777 -81.238152 -13.531687 -5.672646
37300000000 -16.136324 12.053218 -1.4830446 -83.188309 -1.5057281 -83.210114 -12.763429 -6.4184885
37400000000 -14.527215 2.0760105 -1.5163352 -85.529533 -1.5149274 -85.392464 -13.844697 -1.6555824
37500000000 -13.762651 12.002152 -1.5083942 -87.5438 -1.5247464 -87.600357 -14.197205 -10.65564
37600000000 -15.609171 5.3675585 -1.5172175 -89.823433 -1.5125407 -89.737694 -13.133245 -10.649823
37700000000 -14.031384 -5.5797977 -1.5178021 -91.911224 -1.5072145 -91.499008 -13.903704 -5.0220833
37800000000 -14.259639 4.2371922 -1.5368719 -93.970268 -1.5316955 -93.677017 -14.276299 -15.735238
37900000000 -16.971243 -2.0101326 -1.5234146 -96.162987 -1.4873285 -96.03978 -12.967682 -16.734337
38000000000 -15.480973 -12.580042 -1.5609047 -98.321365 -1.491729 -98.066101 -14.024918 -12.384792
38100000000 -15.245334 1.1873035 -1.5722051 -100.15406 -1.5399811 -100.04217 -14.984928 -23.854944
38200000000 -17.647598 -6.8945942 -1.5613054 -102.288 -1.5104434 -102.36488 -13.56463 -22.931532
38300000000 -15.158948 -21.452103 -1.5433874 -104.60154 -1.4487801 -104.36582 -14.459402 -15.460408
38400000000 -15.363231 -7.5626407 -1.5596983 -106.26749 -1.4827437 -106.20598 -15.799229 -26.843626
38500000000 -18.739115 -18.096306 -1.5800337 -108.5947 -1.5023422 -108.86765 -14.012654 -27.998024
38600000000 -16.598776 -29.677336 -1.5559537 -110.96021 -1.447461 -110.91395 -14.861313 -19.970081
38700000000 -16.726887 -9.4890652 -1.5350423 -112.47649 -1.465407 -112.72271 -15.98302 -31.767265
38800000000 -20.746574 -22.680298 -1.5819577 -114.59322 -1.5225885 -115.15228 -14.345646 -33.792068
38900000000 -16.98517 -37.248688 -1.5445589 -116.9768 -1.4359672 -117.34354 -15.671595 -26.35549
39000000000 -17.564632 -15.209981 -1.4989648 -118.40693 -1.438044 -119.06227 -17.063967 -42.479134
39100000000 -21.920355 -28.365803 -1.5129415 -120.74455 -1.4862721 -121.59212 -15.647098 -36.156712
39200000000 -17.931503 -44.37574 -1.4859645 -123.33035 -1.430766 -123.74948 -16.840597 -27.919342
39300000000 -18.563173 -22.592775 -1.4639436 -125.22334 -1.419848 -125.79994 -17.807041 -44.58868
39400000000 -23.622272 -46.26543 -1.4422572 -127.23648 -1.473937 -127.91376 -16.000454 -42.099899
39500000000 -19.46574 -53.822792 -1.4877349 -129.64771 -1.4361638 -130.19896 -17.78429 -35.906208
39600000000 -20.721037 -22.965059 -1.4172157 -131.57141 -1.4103585 -132.26012 -18.7547 -57.405964
39700000000 -26.364868 -36.592766 -1.4211991 -133.57016 -1.4653406 -134.4579 -17.704401 -51.074333
39800000000 -20.874285 -51.048382 -1.4383445 -136.35056 -1.4208057 -136.83054 -19.980188 -35.746769
39900000000 -20.610556 -25.233791 -1.3982265 -138.39426 -1.4188221 -138.75491 -20.789541 -53.363335
40000000000 -26.76149 -53.868626 -1.3896117 -140.35385 -1.4436349 -140.9059 -18.540342 -49.719223
