!Keysight Technologies,N5247B,MY61255062,A.19.80.06
!Date: Thursday, May 21, 2026 11:47:31
!Correction: S11(Cdelta 2-Port  ) 
!S21(Cdelta 2-Port  ) 
!S12(Cdelta 2-Port  ) 
!S22(Cdelta 2-Port  ) 
!S2P File: Measurements: S11, S21, S12, S22:
# Hz S  dB   R 50
1000000000 -25.376505 -18.648302 -0.49203387 -21.258894 -0.49248353 -21.262476 -25.510231 -18.873198
1027500000 -25.377329 -19.672819 -0.49533257 -21.834721 -0.49569845 -21.833776 -25.508858 -19.501997
1055000000 -25.389868 -20.212242 -0.5008896 -22.407459 -0.50317299 -22.418728 -25.532112 -20.908358
1082500000 -25.360529 -20.467926 -0.50579697 -22.953787 -0.50789028 -22.962841 -25.607405 -21.221329
1110000000 -25.384781 -21.351669 -0.50963825 -23.526117 -0.51072997 -23.536314 -25.651855 -21.755686
1137500000 -25.402843 -21.585571 -0.51341063 -24.067329 -0.51595044 -24.078146 -25.700962 -21.838659
1165000000 -25.302258 -21.909666 -0.51507193 -24.618271 -0.51687205 -24.632286 -25.665163 -22.341496
1192500000 -25.228247 -22.751633 -0.51570004 -25.169882 -0.51801163 -25.180557 -25.643866 -22.429665
1220000000 -25.144079 -23.645712 -0.51379001 -25.746216 -0.5164026 -25.750225 -25.571762 -23.482426
1247500000 -25.178154 -24.560596 -0.51750189 -26.324234 -0.51970005 -26.334433 -25.556053 -24.234934
1275000000 -25.203312 -25.284458 -0.5200426 -26.895893 -0.52259153 -26.90448 -25.534498 -25.00733
1302500000 -25.267817 -25.791735 -0.52907062 -27.477921 -0.52968466 -27.491243 -25.65793 -26.465631
1330000000 -25.216368 -25.868021 -0.52919108 -27.993254 -0.53061295 -28.004885 -25.606716 -26.047159
1357500000 -25.164095 -26.396063 -0.52950132 -28.552982 -0.53077382 -28.565178 -25.540489 -26.499882
1385000000 -25.091938 -27.348351 -0.52837884 -29.130169 -0.53133315 -29.126028 -25.518135 -27.208464
1412500000 -25.092922 -28.373575 -0.53160995 -29.685284 -0.53341776 -29.710972 -25.527687 -27.863129
1440000000 -25.083046 -28.803457 -0.5326674 -30.246346 -0.53599858 -30.250109 -25.461727 -28.139486
1467500000 -25.061497 -29.512394 -0.53388667 -30.804697 -0.5357368 -30.819046 -25.404934 -28.678425
1495000000 -25.054193 -30.137257 -0.53529257 -31.371759 -0.53791112 -31.386112 -25.360151 -29.486446
1522500000 -25.037243 -30.528368 -0.53633952 -31.920944 -0.53826505 -31.940447 -25.326771 -30.06764
1550000000 -24.978153 -31.173752 -0.53487241 -32.496452 -0.53700995 -32.508564 -25.255434 -30.700392
1577500000 -24.974667 -32.125961 -0.53783524 -33.091736 -0.54083616 -33.107166 -25.270786 -32.247364
1605000000 -24.966097 -32.419624 -0.54121554 -33.62999 -0.54373974 -33.649078 -25.294752 -32.560459
1632500000 -25.016924 -32.955196 -0.5454393 -34.203434 -0.54708558 -34.213932 -25.300476 -33.429226
1660000000 -24.932049 -33.311241 -0.54420859 -34.740059 -0.54633635 -34.751335 -25.263451 -33.391911
1687500000 -24.876509 -34.078979 -0.54372329 -35.308407 -0.54604924 -35.324894 -25.20344 -34.160217
1715000000 -24.869246 -34.79137 -0.54396242 -35.873535 -0.54700983 -35.896255 -25.176052 -35.026962
1742500000 -24.817171 -35.641094 -0.54476053 -36.43512 -0.54772574 -36.457699 -25.159885 -35.632198
1770000000 -24.784449 -36.46093 -0.5452553 -37.003372 -0.54775566 -37.020092 -25.141388 -36.391068
1797500000 -24.794134 -37.032692 -0.54769838 -37.574409 -0.54935521 -37.598709 -25.132526 -37.03772
1825000000 -24.755157 -37.713879 -0.54830897 -38.140739 -0.55023515 -38.156437 -25.129242 -37.753941
1852500000 -24.743319 -38.603527 -0.54960376 -38.70219 -0.55121219 -38.72237 -25.082741 -38.480465
1880000000 -24.728268 -39.351807 -0.55095887 -39.275574 -0.55230564 -39.297432 -25.092846 -39.283764
1907500000 -24.715067 -39.922737 -0.55034178 -39.842106 -0.55454206 -39.857121 -25.048407 -40.041077
1935000000 -24.667498 -40.742123 -0.55307913 -40.421562 -0.55595112 -40.431862 -25.037601 -40.617001
1962500000 -24.655119 -41.57584 -0.55345398 -40.990307 -0.55727589 -41.005638 -25.047018 -41.585217
1990000000 -24.719696 -42.45026 -0.55815297 -41.571022 -0.56133145 -41.580059 -25.084311 -42.542496
2017500000 -24.709919 -42.989758 -0.56093234 -42.111702 -0.56355375 -42.133255 -25.087626 -43.107338
2045000000 -24.693478 -43.626953 -0.56154358 -42.677227 -0.5640896 -42.694347 -25.061096 -43.619728
2072500000 -24.675146 -44.289696 -0.5626272 -43.236866 -0.56499457 -43.259281 -25.047264 -44.278496
2100000000 -24.643602 -44.912003 -0.56221235 -43.800919 -0.56741959 -43.819378 -25.024847 -44.721458
2127500000 -24.655107 -45.697418 -0.56384611 -44.371922 -0.56790078 -44.39381 -25.019905 -45.622952
2155000000 -24.656036 -46.480194 -0.56503761 -44.939518 -0.56968188 -44.958736 -25.015753 -46.417068
2182500000 -24.639151 -47.194469 -0.56726295 -45.50565 -0.57086349 -45.523815 -24.987333 -47.029224
2210000000 -24.612223 -47.850655 -0.56836814 -46.073956 -0.57253152 -46.086143 -24.980495 -47.603207
2237500000 -24.631639 -48.655193 -0.56980115 -46.645237 -0.57480389 -46.657761 -24.978434 -48.599983
2265000000 -24.626326 -49.264038 -0.57015473 -47.209373 -0.57610661 -47.212193 -24.978657 -49.197151
2292500000 -24.589396 -50.098064 -0.57222235 -47.770374 -0.5763815 -47.786137 -24.948185 -49.622715
2320000000 -24.62248 -50.895264 -0.57660496 -48.343449 -0.57692659 -48.360947 -24.930885 -50.540695
2347500000 -24.603983 -51.527229 -0.57728022 -48.896015 -0.58094376 -48.918217 -24.983164 -51.268852
2375000000 -24.594339 -52.15937 -0.57829356 -49.462093 -0.58362138 -49.475403 -24.958492 -51.834724
2402500000 -24.628496 -52.949669 -0.57921541 -50.02541 -0.58439547 -50.047951 -24.940323 -52.807308
2430000000 -24.622334 -53.771484 -0.58066505 -50.606369 -0.58509088 -50.61182 -24.925962 -53.311234
2457500000 -24.624048 -54.327602 -0.58303398 -51.162006 -0.58727348 -51.183243 -24.908554 -54.156788
2485000000 -24.615028 -55.06422 -0.58457375 -51.737347 -0.59005016 -51.747551 -24.869448 -55.034737
2512500000 -24.678562 -55.754395 -0.58699965 -52.288486 -0.59240526 -52.309402 -24.904823 -55.731445
2540000000 -24.652586 -56.619446 -0.58993572 -52.856007 -0.59371716 -52.870407 -24.917366 -56.737309
2567500000 -24.647797 -57.363701 -0.59152478 -53.415104 -0.59540111 -53.425713 -24.933634 -57.340115
2595000000 -24.673332 -58.055828 -0.59273934 -53.980778 -0.59679437 -53.989262 -24.913731 -57.78709
2622500000 -24.658543 -58.641048 -0.59320641 -54.530926 -0.59787673 -54.547974 -24.908163 -58.591339
2650000000 -24.6511 -59.563164 -0.59668183 -55.102448 -0.59908241 -55.113174 -24.890846 -59.515709
2677500000 -24.670038 -60.108631 -0.59604514 -55.64703 -0.60172248 -55.685078 -24.905481 -60.093739
2705000000 -24.684174 -60.315788 -0.59835386 -56.215782 -0.60307193 -56.234432 -24.91872 -60.770168
2732500000 -24.684732 -61.473637 -0.59963572 -56.78318 -0.60355824 -56.804909 -24.907818 -61.454292
2760000000 -24.641401 -62.209152 -0.60181016 -57.360516 -0.60535347 -57.357948 -24.935629 -62.128822
2787500000 -24.679232 -62.629787 -0.60253721 -57.912697 -0.60884368 -57.927387 -24.94482 -63.099728
2815000000 -24.715816 -63.364124 -0.6042279 -58.47485 -0.60908073 -58.490463 -24.92856 -63.691124
2842500000 -24.681664 -64.201378 -0.60709286 -59.041904 -0.61172718 -59.05777 -24.930616 -64.293053
2870000000 -24.716469 -64.746544 -0.60942149 -59.603714 -0.61189348 -59.610607 -24.944773 -65.234207
2897500000 -24.749071 -65.175179 -0.6099937 -60.160831 -0.61332691 -60.172306 -24.916201 -65.897942
2925000000 -24.737078 -66.358017 -0.6108219 -60.710258 -0.6162343 -60.733051 -24.963858 -66.369827
2952500000 -24.707432 -66.744606 -0.61380726 -61.282883 -0.61721355 -61.289051 -25.00699 -67.383522
2980000000 -24.744015 -67.204338 -0.61419398 -61.841633 -0.6195783 -61.848301 -24.973055 -68.174698
3007500000 -24.766638 -68.271675 -0.61657679 -62.399303 -0.61957443 -62.399811 -24.999729 -68.526329
3035000000 -24.754871 -68.899353 -0.61632204 -62.949646 -0.62028742 -62.965939 -25.012619 -69.341217
3062500000 -24.780916 -69.251839 -0.6185708 -63.516376 -0.62211913 -63.532192 -24.987753 -69.975784
3090000000 -24.798941 -70.200218 -0.62037343 -64.081749 -0.62289351 -64.091438 -25.011206 -70.604347
3117500000 -24.805576 -71.088089 -0.62154174 -64.641457 -0.6239633 -64.649391 -25.065216 -71.169868
3145000000 -24.787031 -71.379936 -0.6234538 -65.206421 -0.62657994 -65.214828 -25.061373 -72.074379
3172500000 -24.791597 -71.95652 -0.62494248 -65.769028 -0.62755346 -65.771851 -25.035559 -72.930023
3200000000 -24.808344 -73.097771 -0.62691432 -66.323174 -0.62971979 -66.338684 -25.112871 -73.286438
3227500000 -24.803429 -73.431732 -0.62660509 -66.879196 -0.62963271 -66.883141 -25.126221 -74.216454
3255000000 -24.795435 -74.161659 -0.62834913 -67.43145 -0.63080442 -67.45266 -25.051733 -74.830437
3282500000 -24.819929 -74.918907 -0.62965631 -67.993385 -0.63268757 -68.009552 -25.154926 -75.196854
3310000000 -24.816338 -75.408272 -0.6297943 -68.548805 -0.63417131 -68.565903 -25.194548 -76.258965
3337500000 -24.827564 -76.342941 -0.6303345 -69.102226 -0.63341588 -69.124161 -25.13089 -77.233902
3365000000 -24.870098 -77.250793 -0.63162613 -69.680901 -0.63788354 -69.679016 -25.174109 -77.273697
3392500000 -24.833067 -77.39373 -0.63343626 -70.227234 -0.63796121 -70.243332 -25.285822 -77.747253
3420000000 -24.845472 -78.369812 -0.63428366 -70.785393 -0.63816959 -70.787247 -25.233923 -79.342178
3447500000 -24.93504 -79.209686 -0.63347459 -71.350296 -0.63726419 -71.344612 -25.167187 -79.363045
3475000000 -24.87517 -79.708992 -0.63495326 -71.894058 -0.63926983 -71.908768 -25.309269 -79.578987
3502500000 -24.887239 -80.43544 -0.63463748 -72.453339 -0.63950074 -72.475754 -25.327324 -80.835854
3530000000 -24.971064 -80.795029 -0.63585639 -73.026085 -0.63962221 -73.043129 -25.24452 -81.746788
3557500000 -24.91847 -81.661377 -0.63457334 -73.59304 -0.6408968 -73.595062 -25.298994 -81.517914
3585000000 -24.93713 -82.47448 -0.63737237 -74.152786 -0.64117885 -74.165192 -25.359911 -82.140068
3612500000 -25.017469 -82.859528 -0.63889253 -74.723595 -0.6414066 -74.730804 -25.342094 -83.683228
3640000000 -24.971998 -83.505226 -0.63893783 -75.275833 -0.64090794 -75.29248 -25.308643 -83.606735
3667500000 -24.958673 -84.51519 -0.63870633 -75.844933 -0.64303321 -75.862053 -25.348932 -84.124649
3695000000 -25.0574 -84.786736 -0.64049691 -76.411514 -0.6452142 -76.417877 -25.384047 -85.43988
3722500000 -25.068995 -85.501091 -0.64278948 -76.972923 -0.64634115 -76.986885 -25.361713 -86.084175
3750000000 -25.019985 -86.260986 -0.6441437 -77.530281 -0.64673078 -77.543549 -25.431793 -86.202156
3777500000 -25.079966 -86.649704 -0.64524996 -78.098412 -0.64697802 -78.103928 -25.452446 -87.426888
3805000000 -25.107361 -87.154289 -0.64533824 -78.651192 -0.64878768 -78.664131 -25.457373 -88.224403
3832500000 -25.080616 -88.190277 -0.64839333 -79.225937 -0.64925331 -79.232254 -25.484188 -88.353867
3860000000 -25.088148 -88.695488 -0.64739871 -79.785217 -0.65159619 -79.79686 -25.514585 -89.226021
3887500000 -25.150066 -88.852837 -0.64915591 -80.348396 -0.6529423 -80.359253 -25.542658 -90.103622
3915000000 -25.16279 -89.994667 -0.65003645 -80.903465 -0.65321732 -80.9179 -25.547697 -90.48111
3942500000 -25.075527 -90.775932 -0.65143347 -81.465126 -0.65560782 -81.471436 -25.578575 -91.188835
3970000000 -25.156176 -90.679039 -0.65206003 -82.022621 -0.65543264 -82.033508 -25.640631 -92.046394
3997500000 -25.243258 -91.461739 -0.65256149 -82.575737 -0.65748674 -82.593758 -25.631413 -92.487221
4025000000 -25.192099 -92.666901 -0.655249 -83.135933 -0.65622681 -83.155663 -25.607758 -93.310776
4052500000 -25.179609 -92.675629 -0.65499526 -83.706596 -0.65917212 -83.712326 -25.70981 -94.098366
4080000000 -25.280621 -93.09304 -0.655159 -84.262634 -0.65893984 -84.270302 -25.695673 -94.672005
4107500000 -25.276001 -94.480698 -0.65637612 -84.833023 -0.66175729 -84.837463 -25.720623 -95.421234
4135000000 -25.210587 -94.894066 -0.65672302 -85.380821 -0.66068214 -85.400177 -25.773615 -95.629005
4162500000 -25.301191 -94.952324 -0.65748674 -85.955032 -0.6613003 -85.959312 -25.773502 -96.438103
4190000000 -25.370729 -96.014351 -0.65925646 -86.510216 -0.66290605 -86.531036 -25.774952 -97.180496
4217500000 -25.323248 -96.890068 -0.65894133 -87.077576 -0.66295791 -87.093666 -25.847433 -97.388008
4245000000 -25.338488 -96.918381 -0.65956229 -87.634003 -0.66477001 -87.659019 -25.879877 -98.133598
4272500000 -25.434441 -97.612221 -0.66107303 -88.199837 -0.66559064 -88.222557 -25.889067 -99.208527
4300000000 -25.42412 -98.491684 -0.66171724 -88.762794 -0.66688049 -88.771973 -25.950968 -99.080688
4327500000 -25.385942 -98.870003 -0.66213536 -89.336594 -0.66770995 -89.338394 -25.955862 -100.04484
4355000000 -25.469891 -99.16066 -0.66505933 -89.887222 -0.66781199 -89.906441 -25.964647 -101.08032
4382500000 -25.534201 -100.24072 -0.66611749 -90.447906 -0.67013955 -90.462837 -26.011444 -101.31686
4410000000 -25.496567 -100.95554 -0.66672802 -91.009659 -0.67153347 -91.028831 -26.02474 -101.73641
4437500000 -25.555294 -101.07014 -0.66802573 -91.578865 -0.67282319 -91.589676 -26.064789 -102.60995
4465000000 -25.596798 -101.87344 -0.66998821 -92.135841 -0.67409217 -92.154533 -26.118872 -103.16389
4492500000 -25.600296 -102.98563 -0.6711778 -92.698105 -0.67504281 -92.709282 -26.148777 -103.64149
4520000000 -25.658875 -103.13428 -0.67121863 -93.255905 -0.67552847 -93.269165 -26.185453 -104.53782
4547500000 -25.683222 -103.4268 -0.67262763 -93.814659 -0.67758876 -93.833237 -26.177317 -104.82171
4575000000 -25.716192 -104.66228 -0.67499048 -94.375183 -0.6776517 -94.392723 -26.262915 -105.4375
4602500000 -25.747158 -105.11913 -0.67522514 -94.941574 -0.67987436 -94.947762 -26.29961 -106.19827
4630000000 -25.796114 -105.36231 -0.67540479 -95.494614 -0.67971176 -95.516266 -26.300297 -106.85955
4657500000 -25.80582 -106.21329 -0.67680365 -96.056007 -0.6815412 -96.070869 -26.302107 -107.12663
4685000000 -25.868477 -106.93844 -0.67748648 -96.613571 -0.68195397 -96.637375 -26.374887 -108.09006
4712500000 -25.884253 -107.18941 -0.67849743 -97.179207 -0.68200004 -97.200478 -26.375498 -108.68811
4740000000 -25.939568 -107.83472 -0.67978048 -97.741455 -0.68313688 -97.750549 -26.44977 -108.97243
4767500000 -25.99065 -108.82961 -0.68025732 -98.297264 -0.68467915 -98.310486 -26.480408 -109.85331
4795000000 -26.024284 -109.09498 -0.68190247 -98.865852 -0.68517017 -98.884483 -26.48414 -110.48323
4822500000 -26.07185 -109.70435 -0.68036783 -99.41375 -0.68767929 -99.434059 -26.547903 -110.77905
4850000000 -26.088396 -110.77316 -0.68270034 -99.974655 -0.68797135 -99.988327 -26.6 -111.62261
4877500000 -26.145605 -111.04041 -0.68373764 -100.53691 -0.68700427 -100.55672 -26.596073 -112.35833
4905000000 -26.211302 -111.2393 -0.68379462 -101.10471 -0.68936735 -101.11642 -26.600903 -112.49564
4932500000 -26.208754 -112.11794 -0.68585855 -101.65829 -0.68972474 -101.67958 -26.693317 -113.05038
4960000000 -26.247005 -112.89029 -0.68642062 -102.22386 -0.69108456 -102.23194 -26.75219 -113.847
4987500000 -26.317736 -113.22842 -0.68661708 -102.79106 -0.69263607 -102.79271 -26.726704 -114.13959
5015000000 -26.352507 -113.94638 -0.6877048 -103.34698 -0.69425195 -103.35971 -26.797501 -114.99265
5042500000 -26.424183 -114.67681 -0.68922383 -103.90326 -0.69333935 -103.91813 -26.878153 -115.73407
5070000000 -26.501923 -115.05818 -0.69083995 -104.45948 -0.69511825 -104.48729 -26.835709 -116.21888
5097500000 -26.536476 -115.55196 -0.69114071 -105.03368 -0.69763774 -105.04242 -26.901527 -116.62383
5125000000 -26.556953 -116.51025 -0.693039 -105.58852 -0.69796997 -105.60124 -27.006418 -117.39957
5152500000 -26.624264 -116.62988 -0.69568855 -106.13527 -0.69904017 -106.16009 -26.991488 -118.03964
5180000000 -26.68046 -117.254 -0.69587874 -106.71149 -0.69986093 -106.70549 -26.99321 -118.40024
5207500000 -26.712128 -118.11068 -0.69744444 -107.26315 -0.70236456 -107.2766 -27.10968 -119.27374
5235000000 -26.769169 -118.40584 -0.69749612 -107.81882 -0.7026543 -107.83475 -27.068981 -119.89515
5262500000 -26.818951 -118.87804 -0.69856435 -108.39033 -0.70375121 -108.39866 -27.104736 -119.89908
5290000000 -26.90703 -119.72031 -0.69914901 -108.9385 -0.7036218 -108.95523 -27.193306 -120.95858
5317500000 -26.939024 -120.04168 -0.70047712 -109.50652 -0.70498419 -109.50729 -27.273985 -121.51128
5345000000 -27.028639 -120.82282 -0.70077491 -110.06419 -0.70546192 -110.07624 -27.255781 -121.85255
5372500000 -27.053728 -121.46974 -0.70192337 -110.61945 -0.70749569 -110.62329 -27.343418 -122.51797
5400000000 -27.109011 -122.01122 -0.70368147 -111.18507 -0.70852494 -111.18518 -27.410149 -123.62118
5427500000 -27.17696 -122.44185 -0.70508009 -111.73506 -0.70879459 -111.74763 -27.377447 -123.76158
5455000000 -27.287304 -122.99851 -0.70414907 -112.2923 -0.70977205 -112.29542 -27.463175 -124.2162
5482500000 -27.284409 -123.58334 -0.70514649 -112.84577 -0.70903569 -112.8688 -27.539862 -125.23794
5510000000 -27.376114 -124.09641 -0.70621842 -113.40857 -0.71187645 -113.4259 -27.571501 -125.61063
5537500000 -27.470125 -124.90832 -0.70679867 -113.96819 -0.71285427 -113.98988 -27.591087 -126.03318
5565000000 -27.452156 -125.33882 -0.70774519 -114.53682 -0.71215671 -114.53593 -27.706446 -126.84649
5592500000 -27.542664 -125.87012 -0.70791614 -115.08489 -0.71413928 -115.09969 -27.740948 -127.73737
5620000000 -27.644426 -126.88791 -0.70877147 -115.64375 -0.71423966 -115.65938 -27.747824 -128.03621
5647500000 -27.646152 -126.99529 -0.70987207 -116.19968 -0.71341956 -116.21945 -27.81069 -128.64832
5675000000 -27.725517 -127.4798 -0.71183282 -116.76603 -0.7157439 -116.77557 -27.953362 -129.36475
5702500000 -27.853516 -128.3318 -0.71210575 -117.31872 -0.71530133 -117.34186 -27.942074 -129.89819
5730000000 -27.870438 -128.83621 -0.71181786 -117.87064 -0.71648145 -117.90298 -28.022728 -130.3127
5757500000 -27.953547 -129.22491 -0.71239126 -118.44167 -0.71570086 -118.44443 -28.103045 -131.17639
5785000000 -28.096163 -129.79781 -0.71347171 -118.99679 -0.71809334 -119.0192 -28.204031 -131.64941
5812500000 -28.129656 -130.29266 -0.71252394 -119.55657 -0.71995765 -119.57171 -28.214617 -132.20345
5840000000 -28.214323 -130.68614 -0.71329844 -120.11295 -0.71915174 -120.13087 -28.277931 -132.87819
5867500000 -28.30991 -131.55586 -0.7159701 -120.6735 -0.71927083 -120.69633 -28.419353 -133.56932
5895000000 -28.411268 -132.38765 -0.71503705 -121.23606 -0.71926904 -121.25714 -28.452393 -133.89151
5922500000 -28.429602 -132.34608 -0.71499676 -121.79285 -0.72031206 -121.81245 -28.518858 -134.43399
5950000000 -28.59981 -132.99709 -0.71751893 -122.35858 -0.72055227 -122.37795 -28.629982 -135.44308
5977500000 -28.671446 -133.68929 -0.71675223 -122.919 -0.72233963 -122.9382 -28.725542 -135.63797
6005000000 -28.671501 -134.25926 -0.71768719 -123.4835 -0.72191352 -123.49487 -28.735735 -136.19061
6032500000 -28.764973 -134.13654 -0.71727741 -124.03657 -0.72141314 -124.05081 -28.844465 -136.84453
6060000000 -28.939161 -134.95981 -0.7195183 -124.60803 -0.7223928 -124.62246 -28.996489 -136.82036
6087500000 -28.988951 -135.37106 -0.71958977 -125.16218 -0.72449535 -125.17062 -28.998816 -137.70351
6115000000 -29.030058 -135.32111 -0.72036463 -125.72368 -0.7243216 -125.73892 -29.102777 -138.66757
6142500000 -29.248487 -136.42274 -0.71997839 -126.27826 -0.72403049 -126.30229 -29.271938 -138.68636
6170000000 -29.267521 -136.73477 -0.71992433 -126.84766 -0.72689945 -126.85694 -29.270725 -139.11623
6197500000 -29.277826 -136.90457 -0.72282696 -127.40292 -0.72742736 -127.41621 -29.316679 -140.09584
6225000000 -29.494564 -137.26729 -0.72380173 -127.96922 -0.72766453 -127.98713 -29.541929 -139.97185
6252500000 -29.655615 -138.33673 -0.72429776 -128.51973 -0.72792596 -128.54927 -29.608397 -140.49324
6280000000 -29.531633 -138.22878 -0.72393537 -129.08282 -0.72776771 -129.10364 -29.542175 -141.82909
6307500000 -29.669268 -137.94743 -0.7246654 -129.62994 -0.73108417 -129.66809 -29.7255 -141.50073
6335000000 -30.022678 -138.90361 -0.72662097 -130.2076 -0.73056191 -130.21979 -29.939257 -141.13138
6362500000 -29.901638 -139.49774 -0.72631681 -130.76343 -0.73274899 -130.77454 -29.843575 -142.71056
6390000000 -29.910671 -138.97343 -0.72518176 -131.32057 -0.7304697 -131.33548 -30.024755 -142.58961
6417500000 -30.279905 -139.31876 -0.7273193 -131.88419 -0.73280936 -131.89781 -30.167086 -142.17941
6445000000 -30.291473 -140.55482 -0.72864407 -132.43921 -0.73283541 -132.46391 -30.073124 -144.50313
6472500000 -30.090229 -140.69054 -0.73062837 -133.007 -0.73544282 -133.01624 -30.159986 -144.34361
6500000000 -30.469006 -140.1873 -0.7301892 -133.56386 -0.73549861 -133.58585 -30.330238 -143.40504
6527500000 -30.668541 -141.07027 -0.73143458 -134.12637 -0.73695964 -134.14098 -30.493847 -145.75076
6555000000 -30.457932 -142.85469 -0.73042595 -134.68558 -0.73701763 -134.69394 -30.450985 -146.95496
6582500000 -30.66466 -141.51233 -0.73134148 -135.23776 -0.7373848 -135.25804 -30.542166 -145.07646
6610000000 -30.941141 -142.03804 -0.73291171 -135.79301 -0.73750383 -135.81654 -30.82662 -146.7067
6637500000 -30.891808 -143.90079 -0.73242295 -136.35864 -0.73842883 -136.38089 -30.769753 -148.37604
6665000000 -30.960672 -143.36491 -0.73258263 -136.91873 -0.73786122 -136.92773 -30.748434 -146.98558
6692500000 -31.19022 -142.56609 -0.73378152 -137.46739 -0.73800021 -137.49428 -31.128975 -146.50078
6720000000 -31.267738 -144.45433 -0.73260653 -138.03711 -0.73726761 -138.05438 -31.290396 -149.80978
6747500000 -31.342173 -145.06125 -0.73171645 -138.58954 -0.73719245 -138.62029 -31.07514 -149.56732
6775000000 -31.481417 -144.22333 -0.7314288 -139.16708 -0.7368952 -139.18857 -31.231249 -147.74945
6802500000 -31.769821 -145.49222 -0.73316699 -139.72896 -0.73758847 -139.74496 -31.736555 -149.56761
6830000000 -31.81139 -146.09969 -0.73175752 -140.28976 -0.73770934 -140.3192 -31.570606 -152.16032
6857500000 -31.937963 -145.52704 -0.73256421 -140.84758 -0.73920548 -140.88155 -31.500999 -150.10376
6885000000 -32.246429 -145.88968 -0.73390228 -141.41855 -0.73875195 -141.43544 -31.911291 -149.91248
6912500000 -32.366463 -146.29074 -0.73513836 -141.97787 -0.7401613 -142.00417 -32.109905 -152.58853
6940000000 -32.3876 -146.57307 -0.73384249 -142.54048 -0.7390275 -142.57053 -31.99218 -151.52657
6967500000 -32.752876 -146.34909 -0.73456591 -143.1214 -0.74011648 -143.13754 -32.20475 -150.23726
6995000000 -32.854118 -146.38704 -0.73679769 -143.68071 -0.74063158 -143.69902 -32.562759 -151.91837
7022500000 -32.866302 -146.78111 -0.73782474 -144.26315 -0.7432906 -144.26485 -32.417603 -152.89606
7050000000 -33.173157 -147.07541 -0.73952961 -144.82101 -0.74384969 -144.82542 -32.512379 -150.7218
7077500000 -33.316441 -145.85556 -0.74085748 -145.38568 -0.74628019 -145.40178 -32.873108 -151.74464
7105000000 -33.285419 -147.08186 -0.74059194 -145.94104 -0.74676961 -145.9548 -32.911999 -153.00003
7132500000 -33.649384 -147.31151 -0.74240452 -146.5062 -0.74776083 -146.51437 -32.788609 -151.91513
7160000000 -33.836147 -145.87845 -0.74473214 -147.0616 -0.75024891 -147.09395 -33.173054 -151.64642
7187500000 -33.727638 -146.97092 -0.74477547 -147.62915 -0.7512579 -147.64349 -33.396332 -153.75008
7215000000 -34.029957 -146.94598 -0.74716926 -148.18703 -0.75226432 -148.20465 -33.196598 -153.44667
7242500000 -34.35717 -146.07486 -0.74857825 -148.75653 -0.75260538 -148.78275 -33.417221 -152.5336
7270000000 -34.371933 -146.82332 -0.7490384 -149.31531 -0.75364697 -149.3217 -33.797565 -154.10803
7297500000 -34.556789 -147.40224 -0.74979234 -149.87347 -0.75486398 -149.88133 -33.653633 -154.2094
7325000000 -35.002144 -146.43159 -0.75182879 -150.43675 -0.75691456 -150.44472 -33.786289 -153.07697
7352500000 -34.973408 -145.33775 -0.75274611 -150.99403 -0.75799346 -151.01057 -34.273544 -153.967
7380000000 -35.084473 -146.1488 -0.75440693 -151.5462 -0.7582798 -151.5717 -34.176826 -155.42595
7407500000 -35.40995 -145.20804 -0.75444943 -152.10866 -0.75910479 -152.13347 -34.266689 -153.91063
7435000000 -35.56419 -144.09315 -0.75504297 -152.67857 -0.75983918 -152.69266 -34.509312 -153.3627
7462500000 -35.399097 -145.06955 -0.75568736 -153.24203 -0.76160425 -153.26768 -34.682182 -154.60593
7490000000 -35.59433 -144.62047 -0.75842041 -153.80501 -0.763978 -153.82011 -34.458549 -153.47424
7517500000 -35.869823 -142.93024 -0.75939429 -154.35529 -0.76541191 -154.38832 -34.932362 -153.88692
7545000000 -35.999531 -143.89359 -0.76149291 -154.91893 -0.76540822 -154.94196 -35.052612 -155.38097
7572500000 -36.054459 -143.99725 -0.76215738 -155.49115 -0.76761389 -155.50169 -34.918694 -154.84596
7600000000 -36.320843 -142.88548 -0.76411664 -156.0545 -0.76887071 -156.05711 -35.19117 -153.89435
7627500000 -36.398308 -143.50278 -0.7648797 -156.60602 -0.76858366 -156.61191 -35.570686 -156.15808
7655000000 -36.462189 -143.29999 -0.76600724 -157.14531 -0.77054948 -157.1801 -35.386791 -155.56381
7682500000 -36.870926 -142.10506 -0.76924396 -157.71222 -0.77290523 -157.73528 -35.47509 -154.91898
7710000000 -37.01321 -142.41158 -0.76850981 -158.26495 -0.77313012 -158.28268 -36.037663 -156.4744
7737500000 -37.145515 -143.24232 -0.76938027 -158.82784 -0.77457416 -158.84532 -36.068001 -156.90611
7765000000 -37.342049 -141.48271 -0.77021533 -159.39288 -0.77515399 -159.40375 -36.019775 -154.75435
7792500000 -37.748764 -141.87234 -0.77073431 -159.94913 -0.77594286 -159.96176 -36.472408 -156.06569
7820000000 -37.74107 -140.28226 -0.77060634 -160.49844 -0.77633375 -160.52782 -36.592716 -157.00272
7847500000 -38.055412 -140.07137 -0.77247536 -161.06561 -0.77809286 -161.10341 -36.419621 -154.27538
7875000000 -38.528358 -139.71613 -0.77378553 -161.62567 -0.7795825 -161.63956 -37.123325 -155.4655
7902500000 -38.504715 -139.16678 -0.77482384 -162.19168 -0.78031766 -162.21736 -37.237041 -157.8347
7930000000 -38.506016 -137.37233 -0.77554578 -162.74899 -0.7819522 -162.77922 -36.958714 -154.66568
7957500000 -39.124798 -137.3568 -0.7759577 -163.2986 -0.78292918 -163.32344 -37.541771 -155.57787
7985000000 -39.214607 -136.25513 -0.77980059 -163.85847 -0.7840066 -163.89371 -37.753204 -157.28656
8012500000 -39.103809 -136.28925 -0.78095871 -164.42589 -0.78628218 -164.44362 -37.735256 -153.7412
8040000000 -39.952393 -134.69415 -0.78346241 -164.97797 -0.78674263 -165.00519 -38.003414 -153.7041
8067500000 -40.05426 -134.86292 -0.78204674 -165.53798 -0.78866047 -165.554 -38.461346 -156.09895
8095000000 -39.636452 -132.32613 -0.78303707 -166.09221 -0.78817564 -166.1096 -38.259384 -154.09991
8122500000 -40.185581 -133.24391 -0.78637463 -166.65289 -0.78845716 -166.67595 -38.752762 -151.67084
8150000000 -40.849537 -130.2773 -0.78617018 -167.22249 -0.78957409 -167.22426 -39.145851 -157.50977
8177500000 -40.425404 -128.179 -0.78788608 -167.77405 -0.79029351 -167.79407 -38.633572 -154.58481
8205000000 -40.851044 -127.65692 -0.78979611 -168.3244 -0.79135966 -168.35663 -39.223446 -146.63747
8232500000 -41.614418 -125.77663 -0.79089659 -168.87512 -0.79377186 -168.91447 -40.2715 -156.66272
8260000000 -41.224178 -120.78738 -0.79136282 -169.45308 -0.79688972 -169.47528 -39.227047 -156.22844
8287500000 -41.299992 -121.86216 -0.79192597 -170.01512 -0.79736775 -170.04036 -39.407574 -141.45642
8315000000 -42.571323 -119.23112 -0.79321402 -170.56337 -0.797122 -170.58766 -41.825638 -153.61588
8342500000 -41.709137 -115.05768 -0.79745263 -171.13206 -0.80293465 -171.16826 -39.715706 -160.30756
8370000000 -41.690891 -116.062 -0.79854822 -171.68913 -0.80247533 -171.71155 -39.027992 -137.6824
8397500000 -43.282139 -110.10132 -0.80174893 -172.23334 -0.8061713 -172.27255 -43.678246 -134.65001
8425000000 -41.740337 -106.11149 -0.80831981 -172.78125 -0.81264091 -172.83055 -41.128284 -174.38832
8452500000 -41.710602 -110.24316 -0.81146276 -173.3405 -0.81421584 -173.37302 -37.40728 -143.12885
8480000000 -43.444447 -97.024345 -0.82083005 -173.86191 -0.82417488 -173.88596 -39.962471 -98.028465
8507500000 -41.476154 -97.986534 -0.8268671 -174.3504 -0.83321142 -174.40228 -48.466049 121.10151
8535000000 -42.584953 -108.01508 -0.82266384 -174.85138 -0.83202147 -174.89734 -35.691841 -178.84032
8562500000 -41.520626 -85.486313 -0.8175593 -175.27124 -0.82304776 -175.31741 -33.48048 -118.36794
8590000000 -41.503494 -105.82753 -0.79952526 -175.74762 -0.80379993 -175.76353 -38.317272 -53.228832
8617500000 -45.490936 -96.931366 -0.78336507 -176.36467 -0.78782403 -176.39091 -41.094929 82.774216
8645000000 -40.917236 -91.889221 -0.76938766 -177.04099 -0.77295566 -177.06699 -35.197708 -176.18871
8672500000 -42.756016 -99.089127 -0.76089114 -177.66736 -0.76449168 -177.71773 -35.263546 -117.47058
8700000000 -43.212742 -71.291672 -0.76628947 -178.27034 -0.76993656 -178.31139 -40.622707 -52.125233
8727500000 -41.926064 -87.044373 -0.77706367 -178.92078 -0.78236473 -178.93805 -46.761082 154.13377
8755000000 -43.139179 -86.767166 -0.77603418 -179.53047 -0.78361744 -179.54527 -38.133175 -147.53529
8782500000 -41.430672 -70.559929 -0.78456908 179.94945 -0.7883172 179.91165 -39.526203 -93.406883
8810000000 -41.367203 -77.006851 -0.78955299 179.39793 -0.79811239 179.35934 -51.293728 -89.213531
8837500000 -42.149124 -76.146576 -0.79335946 178.80249 -0.79702091 178.76515 -41.903191 -151.59946
8865000000 -40.813889 -68.87532 -0.7935372 178.26749 -0.79984856 178.23764 -40.171806 -107.5937
8892500000 -40.663231 -68.570313 -0.79835129 177.71831 -0.80408275 177.68925 -44.824631 -82.371872
8920000000 -41.010113 -68.874046 -0.79925299 177.13591 -0.8047784 177.12045 -45.822056 -134.00081
8947500000 -40.207916 -65.929428 -0.79889733 176.59903 -0.80450672 176.55542 -41.462048 -114.97785
8975000000 -39.686649 -62.840126 -0.80232525 176.04884 -0.80649483 176.02094 -42.729614 -87.202255
9002500000 -40.211105 -63.452587 -0.80499744 175.47969 -0.80896562 175.4632 -46.101696 -107.14965
9030000000 -39.68137 -63.355633 -0.8053171 174.9198 -0.80836159 174.91374 -42.303173 -112.90077
9057500000 -39.107628 -60.425877 -0.80358028 174.37956 -0.80830169 174.35234 -41.85397 -88.465355
9085000000 -39.375965 -59.631897 -0.80677068 173.82196 -0.8115133 173.79898 -44.751312 -89.638824
9112500000 -39.041462 -59.936501 -0.80806756 173.25958 -0.81329703 173.2281 -43.129765 -108.75556
9140000000 -38.468922 -58.209728 -0.80829328 172.70052 -0.8118853 172.6875 -41.378624 -91.263428
9167500000 -38.413921 -56.938553 -0.80806226 172.1478 -0.81546688 172.12939 -43.101109 -81.788528
9195000000 -38.353016 -57.382366 -0.8097263 171.58965 -0.813366 171.55659 -43.94817 -97.740784
9222500000 -37.805134 -56.222576 -0.80883712 171.04391 -0.81541222 171.00584 -41.324493 -90.376579
9250000000 -37.561081 -54.718571 -0.81188965 170.47723 -0.81608623 170.45073 -41.363186 -78.408958
9277500000 -37.693245 -55.093708 -0.81385118 169.91042 -0.81582105 169.8907 -43.228344 -85.743576
9305000000 -37.090313 -54.92128 -0.8111648 169.36261 -0.81748527 169.33305 -41.607464 -89.843979
9332500000 -36.716702 -52.521057 -0.81079507 168.81039 -0.82011461 168.77779 -40.735161 -78.234802
9360000000 -36.863091 -53.949314 -0.81441069 168.23291 -0.81778806 168.21516 -41.911785 -77.265556
9387500000 -36.513088 -54.282753 -0.81115073 167.68164 -0.81656855 167.65166 -41.48455 -84.105789
9415000000 -36.129753 -52.564522 -0.81357175 167.13347 -0.82006705 167.09959 -40.264591 -77.127037
9442500000 -36.05719 -51.879761 -0.81522417 166.55914 -0.82008111 166.53899 -40.881729 -74.919678
9470000000 -35.936249 -53.080956 -0.81561989 166.00746 -0.8217451 165.98053 -41.08205 -79.259453
9497500000 -35.514679 -51.158199 -0.81799275 165.44601 -0.82160312 165.42241 -40.043049 -76.891083
9525000000 -35.441494 -50.516769 -0.81603718 164.89816 -0.8224017 164.87341 -39.831474 -72.476814
9552500000 -35.404171 -52.481251 -0.81773961 164.34669 -0.8236441 164.30905 -40.74749 -75.189217
9580000000 -35.025974 -51.698093 -0.81920111 163.78421 -0.82386035 163.76418 -39.697613 -76.56617
9607500000 -34.857471 -50.751133 -0.81896913 163.21692 -0.8244409 163.19064 -39.119587 -71.761108
9635000000 -34.829021 -52.026291 -0.81909168 162.66234 -0.82417643 162.64067 -39.700291 -72.068344
9662500000 -34.555645 -51.435772 -0.82082468 162.11285 -0.82638645 162.08417 -39.508587 -74.221924
9690000000 -34.233398 -50.735382 -0.82112336 161.54935 -0.8263905 161.52193 -38.457058 -72.078964
9717500000 -34.154919 -51.969704 -0.82105988 160.99063 -0.82834351 160.96204 -38.743328 -69.892647
9745000000 -34.07637 -52.125919 -0.82237136 160.44011 -0.82827026 160.41055 -39.182568 -71.884277
9772500000 -33.769688 -51.051472 -0.82179391 159.87929 -0.82654017 159.83713 -38.136467 -72.080566
9800000000 -33.577595 -51.8284 -0.82265073 159.31424 -0.8305977 159.2767 -37.921398 -69.361702
9827500000 -33.564884 -52.691593 -0.82458955 158.75101 -0.82880998 158.72128 -38.541874 -70.194931
9855000000 -33.332424 -50.755386 -0.82644093 158.2048 -0.82965159 158.17308 -37.992485 -72.179771
9882500000 -33.191013 -52.066399 -0.82566792 157.63071 -0.82940495 157.61427 -37.376595 -69.348335
9910000000 -33.056431 -53.10545 -0.82629186 157.08505 -0.8301003 157.05136 -37.995163 -68.475601
9937500000 -32.873409 -52.105373 -0.8268652 156.52536 -0.83098572 156.49808 -37.589176 -70.99511
9965000000 -32.705437 -52.144371 -0.82534826 155.97377 -0.83085406 155.93825 -36.918385 -69.708809
9992500000 -32.640541 -53.369133 -0.82699329 155.40884 -0.83202398 155.37759 -37.189945 -68.241982
10020000000 -32.586067 -52.514355 -0.82750535 154.85585 -0.83271629 154.82147 -37.469059 -70.579102
10047500000 -32.261028 -51.903393 -0.82633948 154.29001 -0.83365679 154.26491 -36.418407 -70.783188
10075000000 -32.247139 -54.116932 -0.82855123 153.73662 -0.83571726 153.7093 -36.512802 -68.823517
10102500000 -32.223347 -53.285698 -0.82935858 153.20285 -0.83559173 153.15385 -36.805645 -68.444572
10130000000 -31.957869 -52.894909 -0.82923013 152.62329 -0.83605617 152.59853 -36.138008 -70.552292
10157500000 -31.771336 -54.585278 -0.83040679 152.07458 -0.83551484 152.03003 -36.056107 -68.418877
10185000000 -31.744482 -54.885044 -0.83096218 151.50323 -0.83587384 151.4668 -36.812653 -67.251595
10212500000 -31.594444 -53.650372 -0.83162236 150.95076 -0.83688378 150.92009 -36.131004 -70.73587
10240000000 -31.348001 -55.178726 -0.83024603 150.38597 -0.83486068 150.34427 -35.340042 -69.710533
10267500000 -31.433399 -55.563534 -0.83181423 149.83723 -0.83856076 149.80495 -35.992027 -66.871635
10295000000 -31.173128 -53.78344 -0.83255261 149.26643 -0.83740669 149.24425 -35.936047 -70.253906
10322500000 -31.019081 -55.228436 -0.83186281 148.69154 -0.83781481 148.66383 -35.069157 -70.735023
10350000000 -31.023113 -55.965645 -0.83277774 148.15886 -0.83735269 148.10976 -35.567451 -66.977806
10377500000 -30.90188 -55.304699 -0.83295459 147.58818 -0.83952707 147.56779 -35.71373 -70.497116
10405000000 -30.780928 -56.361401 -0.83552712 147.02255 -0.84141558 146.99313 -34.716434 -71.937202
10432500000 -30.624628 -57.491142 -0.83694589 146.46849 -0.84074986 146.43663 -34.817905 -67.150078
10460000000 -30.527916 -56.404545 -0.83694655 145.90648 -0.84252173 145.87169 -35.412174 -69.01297
10487500000 -30.457212 -57.267231 -0.83523375 145.33847 -0.84578925 145.31119 -34.614468 -72.271172
10515000000 -30.392469 -58.463169 -0.83856267 144.78551 -0.84408337 144.75291 -34.412605 -70.695358
10542500000 -30.277578 -58.029388 -0.8371352 144.23093 -0.84274203 144.20703 -34.856316 -68.524643
10570000000 -30.17227 -57.978416 -0.83726168 143.67146 -0.84401637 143.63641 -34.405407 -71.559662
10597500000 -30.059187 -59.274601 -0.83785939 143.11215 -0.84628624 143.06961 -33.800903 -71.322029
10625000000 -29.891434 -59.318123 -0.84185612 142.55183 -0.84599274 142.51041 -34.40448 -68.600372
10652500000 -29.966526 -58.752735 -0.83984709 141.99529 -0.84757262 141.9715 -34.227238 -71.878448
10680000000 -29.852112 -59.554523 -0.84110391 141.43794 -0.84675336 141.39343 -33.63097 -71.849838
10707500000 -29.703699 -60.441002 -0.83899629 140.8788 -0.84817773 140.83031 -33.990166 -69.219772
10735000000 -29.613369 -59.871132 -0.8412444 140.3148 -0.84906715 140.28606 -34.170429 -71.541489
10762500000 -29.609306 -60.114101 -0.84222317 139.74612 -0.84911245 139.72101 -33.438377 -73.717232
10790000000 -29.369108 -61.456554 -0.84396297 139.20433 -0.85047621 139.15704 -33.425846 -71.742371
10817500000 -29.349298 -61.061928 -0.84539926 138.63617 -0.85286504 138.60426 -33.882568 -71.121933
10845000000 -29.349718 -61.370342 -0.84614152 138.08595 -0.85199594 138.04262 -33.37471 -73.443741
10872500000 -29.188795 -62.246204 -0.84865612 137.53445 -0.85258627 137.49789 -33.083847 -73.225533
10900000000 -28.995342 -62.652008 -0.84641397 136.97614 -0.85271192 136.94858 -33.529396 -71.687103
10927500000 -29.200348 -62.960159 -0.84901553 136.43105 -0.85510582 136.38287 -33.21257 -74.830864
10955000000 -28.964108 -63.452484 -0.84878701 135.85414 -0.85361898 135.82449 -32.633938 -74.78849
10982500000 -28.770605 -63.974106 -0.84938318 135.30402 -0.85566181 135.26556 -33.111736 -72.503777
11010000000 -28.893223 -64.242874 -0.85156703 134.74109 -0.85479629 134.70804 -33.094353 -74.302505
11037500000 -28.827518 -64.084648 -0.85137492 134.17003 -0.85800022 134.13838 -32.471123 -76.479256
11065000000 -28.526415 -65.095634 -0.85160983 133.62627 -0.85859007 133.59195 -32.511494 -74.062523
11092500000 -28.672659 -65.45536 -0.85164702 133.06931 -0.86053586 133.03923 -32.906933 -74.693619
11120000000 -28.670837 -64.829163 -0.85373616 132.49986 -0.86153793 132.481 -32.404427 -77.939919
11147500000 -28.385794 -65.806046 -0.85442567 131.96205 -0.85996562 131.92946 -32.229836 -76.160301
11175000000 -28.387943 -66.804787 -0.85486561 131.38292 -0.86112952 131.36395 -32.493393 -75.633949
11202500000 -28.510485 -66.583359 -0.85403776 130.83661 -0.86162633 130.80792 -32.190823 -78.088188
11230000000 -28.217419 -66.405724 -0.85662401 130.28757 -0.86151332 130.25394 -31.928722 -78.154282
11257500000 -28.208357 -67.590477 -0.85709226 129.71919 -0.85946959 129.68779 -32.264927 -76.099655
11285000000 -28.293995 -68.07148 -0.85753977 129.16786 -0.86340958 129.14066 -32.126961 -78.487259
11312500000 -28.127316 -67.97657 -0.85640019 128.60767 -0.86511081 128.57169 -31.664196 -79.799332
11340000000 -27.915033 -68.700768 -0.85905379 128.04793 -0.86371529 128.02617 -31.923862 -77.282387
11367500000 -28.05986 -69.332352 -0.8606441 127.50487 -0.86744732 127.46616 -32.034336 -78.441345
11395000000 -27.914585 -68.516876 -0.85918254 126.92593 -0.86751306 126.89978 -31.638718 -80.380737
11422500000 -27.682867 -69.775787 -0.86092055 126.39209 -0.867845 126.34989 -31.772171 -78.98159
11450000000 -27.79067 -70.563644 -0.86275375 125.82657 -0.86950934 125.80122 -31.965902 -79.402763
11477500000 -27.77404 -70.618156 -0.86264861 125.27023 -0.86806339 125.24219 -31.59478 -82.971954
11505000000 -27.580242 -71.18763 -0.86537427 124.71083 -0.86894077 124.68913 -31.505524 -82.249832
11532500000 -27.648376 -72.054932 -0.86523843 124.15446 -0.87051386 124.1266 -31.681051 -80.893501
11560000000 -27.696774 -72.048317 -0.8660087 123.59971 -0.86882126 123.55535 -31.378193 -83.51664
11587500000 -27.500742 -72.133362 -0.86495346 123.03732 -0.87174255 123.00403 -31.219978 -83.717346
11615000000 -27.441174 -73.42012 -0.86686164 122.49054 -0.87086719 122.44611 -31.488491 -82.14505
11642500000 -27.542673 -73.512398 -0.86634052 121.92565 -0.87082255 121.88958 -31.380432 -83.904373
11670000000 -27.376812 -73.236427 -0.86624002 121.37226 -0.87130374 121.34906 -31.187819 -85.297897
11697500000 -27.303364 -74.114075 -0.86778933 120.81963 -0.87084347 120.77402 -31.299255 -83.884979
11725000000 -27.359184 -74.815964 -0.86815161 120.26615 -0.87429351 120.22482 -31.253639 -84.946457
11752500000 -27.296965 -74.582047 -0.86862648 119.69982 -0.8746047 119.67587 -30.994047 -85.914467
11780000000 -27.176683 -75.469566 -0.86960107 119.14539 -0.87443089 119.11549 -31.2006 -85.502365
11807500000 -27.220749 -76.399925 -0.87034237 118.58264 -0.87353504 118.55978 -31.194994 -86.226631
11835000000 -27.18869 -76.490158 -0.87045372 118.0305 -0.87785214 118.01042 -30.960411 -87.870239
11862500000 -27.044312 -76.828644 -0.8699562 117.48389 -0.87477285 117.45046 -31.05689 -87.449394
11890000000 -26.989853 -77.285019 -0.86965007 116.92247 -0.87689948 116.89548 -31.078772 -86.764999
11917500000 -27.080698 -78.090752 -0.86939073 116.38531 -0.87675095 116.34439 -30.926651 -89.146042
11945000000 -27.03253 -77.72171 -0.87119204 115.81582 -0.87693751 115.77232 -30.794546 -88.740364
11972500000 -26.907234 -78.850235 -0.87097949 115.25867 -0.87709779 115.22343 -31.112329 -88.565697
12000000000 -26.903839 -79.14241 -0.86978954 114.70974 -0.87771463 114.67989 -30.905294 -90.144104
12027500000 -26.843767 -79.222656 -0.87118417 114.1451 -0.87758791 114.11152 -30.829542 -90.598534
12055000000 -26.723949 -79.774544 -0.87117022 113.59341 -0.8763445 113.55839 -31.12834 -89.92926
12082500000 -26.750217 -80.697792 -0.8735078 113.04234 -0.87682217 113.01272 -30.890245 -91.276855
12110000000 -26.736881 -80.882271 -0.87260264 112.47298 -0.87817121 112.45631 -30.857065 -92.465553
12137500000 -26.634867 -81.237251 -0.87141699 111.9393 -0.87873685 111.89484 -31.006227 -92.392998
12165000000 -26.601912 -81.977524 -0.87163907 111.37704 -0.87982118 111.34782 -30.989538 -93.420998
12192500000 -26.66025 -82.086906 -0.87178367 110.80635 -0.87677914 110.80045 -30.634596 -94.013847
12220000000 -26.673508 -82.873848 -0.87259501 110.25271 -0.8788259 110.22072 -30.889116 -94.198792
12247500000 -26.558928 -83.405472 -0.87271595 109.70554 -0.87804002 109.67629 -31.000242 -95.12883
12275000000 -26.622494 -83.420525 -0.87349451 109.14297 -0.87934601 109.10961 -30.531704 -95.854546
12302500000 -26.614643 -83.934937 -0.87259758 108.5794 -0.87550431 108.562 -30.732069 -94.794586
12330000000 -26.528988 -84.836464 -0.87445056 108.0416 -0.87681335 107.9968 -31.04517 -95.466858
12357500000 -26.553789 -85.128426 -0.87389845 107.47276 -0.87800705 107.44695 -30.501207 -97.092094
12385000000 -26.588343 -85.135712 -0.87337363 106.91249 -0.87649941 106.86884 -30.607498 -95.780266
12412500000 -26.454552 -85.471397 -0.87408805 106.34499 -0.87866622 106.31609 -31.05842 -95.777496
12440000000 -26.480438 -86.14167 -0.87330997 105.79482 -0.87819785 105.76398 -30.769035 -98.363388
12467500000 -26.508669 -86.486084 -0.87213838 105.24748 -0.87934983 105.2083 -30.536743 -97.995476
12495000000 -26.417683 -86.961899 -0.87395412 104.6908 -0.87897331 104.64568 -31.011555 -97.048546
12522500000 -26.355869 -87.617714 -0.87462813 104.11977 -0.87781221 104.09742 -30.8967 -99.12513
12550000000 -26.411097 -88.074051 -0.87260294 103.5681 -0.87875146 103.52245 -30.580328 -99.399887
12577500000 -26.313145 -87.948929 -0.87294948 103.00974 -0.87963384 102.9828 -30.984758 -98.938965
12605000000 -26.277115 -88.922295 -0.87465632 102.44334 -0.87855911 102.42068 -31.03083 -99.774933
12632500000 -26.416777 -89.18335 -0.87322736 101.88165 -0.87679273 101.85441 -30.654438 -101.59484
12660000000 -26.372007 -89.649139 -0.87529087 101.3324 -0.87881327 101.29372 -30.914883 -100.97424
12687500000 -26.285055 -90.281738 -0.87178403 100.7741 -0.87989342 100.73064 -31.10421 -101.48491
12715000000 -26.331264 -90.348732 -0.87348187 100.2059 -0.87954789 100.19593 -30.766884 -102.76514
12742500000 -26.366243 -90.95192 -0.8719492 99.644371 -0.87835407 99.612221 -30.853899 -102.27672
12770000000 -26.338715 -91.164253 -0.87254912 99.085594 -0.87895775 99.052055 -31.179506 -102.34472
12797500000 -26.322475 -91.857292 -0.87434447 98.523819 -0.87918025 98.501434 -30.899227 -102.94742
12825000000 -26.359749 -91.988853 -0.87359864 97.957413 -0.88014674 97.930504 -30.753613 -103.97813
12852500000 -26.291414 -92.366646 -0.87336475 97.419472 -0.87978405 97.380585 -31.162281 -103.34083
12880000000 -26.304441 -92.722092 -0.87476903 96.863289 -0.88143462 96.83078 -30.995529 -103.67985
12907500000 -26.403748 -93.27887 -0.87441415 96.301697 -0.8795926 96.256561 -30.859829 -104.76263
12935000000 -26.372818 -93.159554 -0.8743977 95.733322 -0.87947124 95.701599 -31.211704 -105.18118
12962500000 -26.316753 -93.502731 -0.87448186 95.183151 -0.88057822 95.143745 -31.194284 -104.76221
12990000000 -26.399754 -94.241196 -0.87378287 94.625977 -0.87871975 94.586006 -30.907072 -104.99734
13017500000 -26.415754 -94.170815 -0.875054 94.064667 -0.8799895 94.017258 -31.185503 -106.20391
13045000000 -26.342796 -94.573959 -0.87647599 93.503639 -0.88121456 93.474159 -31.397717 -105.45245
13072500000 -26.384928 -95.029366 -0.87522882 92.942413 -0.87980533 92.891487 -31.031956 -105.78008
13100000000 -26.44166 -95.07534 -0.87459999 92.386429 -0.88074684 92.332687 -31.1677 -106.93947
13127500000 -26.363644 -95.145393 -0.87596637 91.805702 -0.88141209 91.779785 -31.537228 -106.68578
13155000000 -26.334246 -96.266533 -0.87548214 91.244652 -0.88046628 91.224586 -31.206438 -106.41292
13182500000 -26.461697 -96.136711 -0.8757621 90.69603 -0.88202351 90.665192 -31.223379 -107.64923
13210000000 -26.384392 -96.128906 -0.87571615 90.133728 -0.88361686 90.107414 -31.61865 -108.28746
13237500000 -26.334682 -96.67012 -0.87433749 89.593262 -0.8830198 89.537247 -31.455263 -106.95771
13265000000 -26.408318 -97.599495 -0.87484854 89.019478 -0.88203621 88.973717 -31.299232 -108.44262
13292500000 -26.449427 -96.879341 -0.87838763 88.454895 -0.88433558 88.429291 -31.624027 -109.15831
13320000000 -26.321209 -97.797768 -0.87607026 87.890717 -0.88199657 87.869034 -31.636417 -108.10367
13347500000 -26.442944 -98.604385 -0.8783471 87.349869 -0.88252687 87.308189 -31.425385 -108.99223
13375000000 -26.467867 -97.611214 -0.87850839 86.769127 -0.88575357 86.753365 -31.554579 -110.25275
13402500000 -26.424778 -98.412437 -0.87806064 86.215805 -0.88194078 86.187294 -31.627293 -108.67273
13430000000 -26.419907 -99.333496 -0.87743044 85.665756 -0.8822484 85.620102 -31.485203 -109.59657
13457500000 -26.537472 -98.894638 -0.8786307 85.105316 -0.8838225 85.076828 -31.528351 -109.97736
13485000000 -26.408707 -99.104553 -0.87727106 84.524681 -0.88354993 84.510239 -31.791983 -109.79467
13512500000 -26.424891 -99.71833 -0.87815982 83.968681 -0.88520128 83.945038 -31.611197 -109.2164
13540000000 -26.621769 -99.981163 -0.8796519 83.420914 -0.88494265 83.377304 -31.597891 -111.24677
13567500000 -26.547888 -99.846725 -0.87992704 82.869499 -0.88617003 82.806725 -31.75622 -110.69166
13595000000 -26.469362 -100.41702 -0.87733603 82.299286 -0.88512862 82.263496 -31.709557 -108.77069
13622500000 -26.602364 -101.14616 -0.87905729 81.74855 -0.88631034 81.699867 -31.816917 -111.07955
13650000000 -26.624924 -100.9519 -0.8797397 81.173782 -0.88474619 81.148285 -31.894236 -111.33389
13677500000 -26.519938 -101.20737 -0.8781991 80.621628 -0.8875137 80.578598 -31.997477 -109.62362
13705000000 -26.538734 -102.11477 -0.87795323 80.070297 -0.88755882 80.015221 -31.925552 -111.18933
13732500000 -26.679302 -101.8818 -0.88107759 79.50695 -0.88547617 79.476364 -31.997032 -112.39516
13760000000 -26.633533 -102.1034 -0.87891495 78.938454 -0.8869558 78.909821 -32.161648 -110.20392
13787500000 -26.586411 -103.06039 -0.88253671 78.401077 -0.8862313 78.359108 -32.09169 -110.9938
13815000000 -26.802908 -103.06361 -0.88152784 77.828995 -0.88851506 77.79718 -32.106506 -113.15022
13842500000 -26.743914 -103.01134 -0.87859648 77.281334 -0.88722062 77.232002 -32.259193 -111.95933
13870000000 -26.655046 -103.30988 -0.879637 76.707275 -0.88563991 76.661591 -32.221279 -111.67993
13897500000 -26.918629 -104.20222 -0.87909722 76.168457 -0.88570851 76.124443 -32.264526 -113.47457
13925000000 -26.931898 -104.06181 -0.87962431 75.596779 -0.88540441 75.561852 -32.291504 -113.65857
13952500000 -26.846758 -103.94864 -0.87859994 75.026527 -0.88422132 74.986725 -32.404545 -111.93442
13980000000 -27.013016 -105.15285 -0.87892926 74.471375 -0.8852641 74.443016 -32.393044 -114.22998
14007500000 -27.080654 -104.82217 -0.88043964 73.91832 -0.88469952 73.866364 -32.455154 -113.76442
14035000000 -26.926723 -104.15593 -0.87801248 73.345711 -0.88498515 73.293503 -32.634571 -111.639
14062500000 -27.065706 -105.3503 -0.87924838 72.772469 -0.8867504 72.747177 -32.565159 -113.37088
14090000000 -27.154526 -105.44051 -0.87958753 72.219482 -0.886145 72.183868 -32.595486 -113.64613
14117500000 -27.099501 -104.57616 -0.87882179 71.644325 -0.88486391 71.600563 -32.791542 -112.30463
14145000000 -27.091404 -105.1921 -0.88151103 71.072411 -0.8851229 71.030418 -32.725147 -113.20554
14172500000 -27.271759 -106.17274 -0.88025671 70.506912 -0.88611257 70.465668 -32.705753 -114.21499
14200000000 -27.226938 -104.94205 -0.88149077 69.946884 -0.88613415 69.914001 -32.889118 -112.66219
14227500000 -27.164207 -104.95177 -0.88249326 69.381195 -0.88827688 69.346954 -32.844437 -112.75386
14255000000 -27.354568 -106.79797 -0.88237274 68.811722 -0.88746196 68.772057 -32.789459 -113.82416
14282500000 -27.337263 -106.07236 -0.88312799 68.258606 -0.88840044 68.206169 -32.919903 -112.90405
14310000000 -27.274054 -105.78459 -0.8857491 67.694023 -0.89012736 67.647362 -33.048241 -113.25206
14337500000 -27.332747 -107.00389 -0.88617831 67.135292 -0.89408475 67.102104 -32.84848 -115.14339
14365000000 -27.461132 -107.31251 -0.88758135 66.558777 -0.89439511 66.531822 -33.030766 -113.6525
14392500000 -27.3361 -106.12044 -0.8892101 66.00827 -0.895226 65.960289 -33.160061 -113.41945
14420000000 -27.354597 -107.22335 -0.88962853 65.454277 -0.89667141 65.39814 -33.070904 -114.34804
14447500000 -27.520418 -107.91171 -0.88936067 64.892349 -0.89698488 64.859962 -33.219143 -114.13132
14475000000 -27.526173 -107.05441 -0.88931048 64.325272 -0.89633447 64.301758 -33.390617 -113.57714
14502500000 -27.522011 -107.79352 -0.89204532 63.775883 -0.89717394 63.745186 -33.293121 -115.8303
14530000000 -27.598074 -109.09613 -0.89530742 63.216564 -0.89958704 63.174606 -33.27692 -114.64046
14557500000 -27.714149 -108.25303 -0.89560997 62.659023 -0.9009186 62.611717 -33.736607 -113.7608
14585000000 -27.626776 -108.2723 -0.89292663 62.087036 -0.8982991 62.06321 -33.517426 -115.52593
14612500000 -27.712721 -109.39098 -0.8955909 61.517097 -0.90061027 61.494244 -33.688007 -114.53995
14640000000 -27.880165 -108.91433 -0.89665264 60.976692 -0.90184915 60.933285 -33.927834 -113.40763
14667500000 -27.813486 -108.38214 -0.89713001 60.406502 -0.9036659 60.352303 -33.88765 -114.74486
14695000000 -27.832613 -109.27393 -0.89686906 59.846767 -0.90322888 59.804947 -33.894245 -115.49889
14722500000 -28.025358 -108.73059 -0.8983475 59.304642 -0.90342206 59.249008 -34.241825 -112.98979
14750000000 -27.986902 -108.02679 -0.89695752 58.745022 -0.90311384 58.689175 -34.125492 -114.55801
14777500000 -27.939518 -107.84978 -0.89705807 58.168835 -0.90203363 58.127403 -33.878834 -114.04014
14805000000 -28.113655 -108.83165 -0.89930713 57.592381 -0.90297204 57.561726 -34.324875 -112.63015
14832500000 -28.18494 -107.51208 -0.89947206 57.028656 -0.90518618 56.988739 -34.161945 -113.353
14860000000 -28.081757 -106.92204 -0.90229487 56.452301 -0.90753704 56.419487 -33.797131 -113.73216
14887500000 -28.076529 -108.07053 -0.90532136 55.893257 -0.90949374 55.864044 -34.250118 -112.81274
14915000000 -28.0903 -107.34441 -0.90478987 55.343697 -0.91314745 55.287571 -34.441364 -113.6163
14942500000 -27.956465 -106.85323 -0.90755844 54.773785 -0.91360748 54.738155 -33.990864 -115.17854
14970000000 -27.891914 -107.77405 -0.91190505 54.211533 -0.9178226 54.191196 -34.432861 -114.08644
14997500000 -27.959404 -108.40094 -0.91294557 53.680241 -0.9196294 53.630665 -34.825516 -113.81322
15025000000 -27.887838 -107.71452 -0.91435921 53.125923 -0.9209736 53.057632 -34.486553 -115.88815
15052500000 -27.866974 -108.01693 -0.91576916 52.57663 -0.92177433 52.530285 -34.618011 -114.57835
15080000000 -27.878656 -109.62915 -0.9182083 52.012684 -0.92353952 51.964478 -35.21463 -112.45494
15107500000 -27.864361 -108.59201 -0.91759109 51.463238 -0.92335892 51.418289 -34.810398 -115.06338
15135000000 -27.864079 -109.21865 -0.91594017 50.915108 -0.92547107 50.879581 -34.822914 -114.46424
15162500000 -27.858973 -111.02652 -0.91908592 50.340221 -0.92587566 50.305542 -35.565998 -111.31307
15190000000 -27.911671 -110.14764 -0.91825533 49.800636 -0.9249028 49.752338 -35.317162 -112.77254
15217500000 -27.805054 -109.74131 -0.91976541 49.25703 -0.9257437 49.205627 -34.885494 -113.76306
15245000000 -27.936394 -111.8169 -0.92127758 48.690586 -0.92773676 48.645187 -35.761879 -111.85197
15272500000 -27.982143 -111.38374 -0.91875261 48.122349 -0.92733425 48.071926 -35.694332 -111.05157
15300000000 -28.022102 -110.59698 -0.92273879 47.572678 -0.9299857 47.517567 -34.996849 -111.99308
15327500000 -28.027143 -112.24454 -0.9211694 46.998806 -0.9267661 46.98394 -35.71125 -110.44883
15355000000 -28.096706 -113.05618 -0.92210525 46.471817 -0.9278326 46.418072 -36.058643 -108.79104
15382500000 -28.121788 -111.29186 -0.92229575 45.900948 -0.9301576 45.848373 -35.259701 -110.49586
15410000000 -28.153601 -112.52436 -0.92254412 45.347202 -0.92902315 45.298302 -35.692375 -109.59988
15437500000 -28.201159 -114.04275 -0.92691284 44.785358 -0.9302724 44.761532 -36.358898 -108.45123
15465000000 -28.278131 -112.61015 -0.92468148 44.230415 -0.93224996 44.176395 -35.615253 -108.97359
15492500000 -28.363417 -112.85567 -0.9232142 43.675907 -0.93094593 43.633301 -35.534866 -108.71498
15520000000 -28.301626 -114.90635 -0.92539322 43.103519 -0.93284613 43.07169 -36.455536 -105.70241
15547500000 -28.347185 -113.35178 -0.92521894 42.565952 -0.93094689 42.503967 -35.971603 -106.61723
15575000000 -28.442402 -113.09985 -0.92672282 41.990887 -0.93424219 41.954346 -35.583229 -107.71712
15602500000 -28.418739 -114.63242 -0.92624217 41.432117 -0.93344748 41.395817 -36.512978 -104.64744
15630000000 -28.495924 -114.42635 -0.92680997 40.87151 -0.93390834 40.834026 -36.295441 -104.82166
15657500000 -28.708576 -113.08392 -0.92850733 40.325813 -0.93470216 40.288239 -35.593174 -107.5181
15685000000 -28.595552 -114.9465 -0.92793936 39.760189 -0.93399054 39.708324 -36.337627 -103.69824
15712500000 -28.633997 -114.8796 -0.93063897 39.216225 -0.93583393 39.153759 -36.603836 -103.27962
15740000000 -28.757185 -113.30007 -0.9297058 38.647411 -0.93776679 38.610554 -35.926151 -104.14193
15767500000 -28.733173 -114.42193 -0.93281144 38.10746 -0.93710345 38.052406 -36.087135 -103.46667
15795000000 -28.736921 -115.76761 -0.9319734 37.52599 -0.9389022 37.500576 -36.703564 -100.72656
15822500000 -28.894543 -113.54893 -0.93145818 36.975643 -0.93956745 36.930733 -35.921169 -102.31064
15850000000 -28.951128 -114.45072 -0.93335605 36.427105 -0.9386853 36.376724 -35.986374 -103.82145
15877500000 -28.823027 -115.66278 -0.93534911 35.869263 -0.94339484 35.825371 -36.696186 -98.960854
15905000000 -29.013092 -114.82504 -0.93538952 35.304619 -0.94141704 35.260094 -36.338772 -99.595467
15932500000 -29.073971 -114.00282 -0.93816966 34.743973 -0.9421106 34.718376 -35.968895 -101.36011
15960000000 -29.018021 -115.93137 -0.93745005 34.199978 -0.94287729 34.143242 -36.585175 -99.394447
15987500000 -29.227528 -115.18645 -0.93836594 33.638996 -0.94213569 33.598198 -36.432693 -96.751778
16015000000 -29.315712 -114.08406 -0.93855971 33.088093 -0.94192636 33.055767 -35.891891 -99.621071
16042500000 -29.179279 -115.20021 -0.93877947 32.532688 -0.94466203 32.480316 -36.310089 -99.062019
16070000000 -29.363291 -116.01675 -0.93979496 31.971081 -0.94644982 31.92345 -36.523174 -94.311493
16097500000 -29.496393 -114.31673 -0.93986762 31.413137 -0.9439047 31.38224 -36.081928 -97.393517
16125000000 -29.377342 -115.15766 -0.93911266 30.852009 -0.94609541 30.811676 -36.415188 -98.563629
16152500000 -29.504614 -116.35121 -0.94116592 30.300253 -0.94677782 30.261272 -36.746483 -94.650635
16180000000 -29.690783 -114.37976 -0.94329125 29.747715 -0.94754726 29.691727 -36.112129 -94.069366
16207500000 -29.535139 -114.16872 -0.94078243 29.18557 -0.94664484 29.146477 -36.305096 -96.370476
16235000000 -29.706484 -115.92324 -0.94400668 28.63636 -0.94687474 28.582207 -36.604134 -92.486694
16262500000 -29.83864 -114.4661 -0.9432829 28.065828 -0.94808531 28.010635 -36.397594 -91.716942
16290000000 -29.840059 -113.16068 -0.9420048 27.51531 -0.94755661 27.468044 -36.269554 -93.793579
16317500000 -29.813288 -115.56242 -0.94645625 26.96377 -0.94843954 26.918049 -36.544868 -91.25843
16345000000 -30.005905 -115.24464 -0.94362998 26.400522 -0.94933039 26.344126 -36.414597 -88.954346
16372500000 -30.060186 -113.08317 -0.9424547 25.828714 -0.94882441 25.783945 -36.317204 -90.281754
16400000000 -30.057903 -114.23833 -0.9481104 25.282211 -0.95313001 25.230486 -36.139259 -90.803452
16427500000 -30.114908 -115.27526 -0.94672728 24.737133 -0.95044339 24.685009 -36.195396 -86.944496
16455000000 -30.087708 -113.05164 -0.94671631 24.164604 -0.95491379 24.103853 -36.154232 -87.268852
16482500000 -30.210114 -113.0464 -0.94697708 23.607599 -0.95207268 23.562428 -36.160725 -87.97467
16510000000 -30.274948 -114.79495 -0.94893229 23.066158 -0.95352012 23.013885 -36.043598 -85.876442
16537500000 -30.428072 -113.43884 -0.94923729 22.496332 -0.95465034 22.435204 -36.002453 -84.74511
16565000000 -30.471355 -112.05628 -0.95059514 21.929846 -0.95451164 21.889914 -36.00877 -86.154793
16592500000 -30.335281 -114.32977 -0.95089513 21.389891 -0.95610857 21.337961 -36.058998 -84.868416
16620000000 -30.521496 -113.88772 -0.95242339 20.826029 -0.95689064 20.789268 -35.842144 -83.231781
16647500000 -30.665648 -110.71445 -0.95063412 20.284027 -0.95576537 20.226393 -35.947609 -84.597557
16675000000 -30.569735 -113.26499 -0.95060968 19.724266 -0.9568103 19.674532 -35.670506 -83.501945
16702500000 -30.603065 -113.95008 -0.95070601 19.163456 -0.95722395 19.125793 -35.665527 -82.014359
16730000000 -30.827297 -110.47278 -0.95148677 18.608713 -0.95870858 18.554106 -35.874924 -83.383041
16757500000 -30.866833 -111.83919 -0.9511745 18.063112 -0.95842969 17.999241 -35.560886 -83.346642
16785000000 -30.696186 -113.57568 -0.95255744 17.499922 -0.96186352 17.443239 -35.500259 -80.929695
16812500000 -31.034683 -110.50771 -0.9526152 16.943436 -0.96133894 16.905289 -35.6394 -82.057793
16840000000 -31.044266 -109.8306 -0.95368356 16.379374 -0.96178275 16.338726 -35.412937 -83.293922
16867500000 -30.770998 -113.35931 -0.95558888 15.857381 -0.96199244 15.806083 -35.123463 -79.484589
16895000000 -31.172924 -110.96247 -0.95668381 15.290028 -0.96233225 15.238904 -35.725075 -80.228096
16922500000 -31.332054 -109.15762 -0.95436007 14.717019 -0.96016854 14.673046 -35.432278 -82.104073
16950000000 -31.004093 -112.26818 -0.95606762 14.16865 -0.96138126 14.12135 -34.704338 -80.434593
16977500000 -31.215588 -110.83031 -0.95627731 13.608324 -0.9630667 13.554485 -35.24474 -79.602135
17005000000 -31.555933 -108.617 -0.95508182 13.063159 -0.96453458 13.015957 -35.630848 -80.542084
17032500000 -31.159698 -110.94179 -0.95999128 12.511358 -0.9637298 12.434494 -34.687946 -78.936043
17060000000 -31.268913 -110.69227 -0.95915443 11.955668 -0.96593148 11.909656 -35.073578 -78.999603
17087500000 -31.803913 -106.82456 -0.95640022 11.405711 -0.96431834 11.358046 -35.695354 -80.880409
17115000000 -31.554966 -109.90488 -0.96047568 10.852517 -0.96630466 10.779716 -34.893528 -79.205017
17142500000 -31.366533 -109.83247 -0.96006942 10.288825 -0.9657976 10.226602 -34.80341 -77.472115
17170000000 -32.213104 -107.63142 -0.95881677 9.7660475 -0.96592081 9.6905594 -35.377808 -79.666573
17197500000 -31.837584 -108.3942 -0.95829481 9.1799479 -0.96677226 9.1511974 -34.961857 -78.421814
17225000000 -31.412594 -108.5995 -0.95860857 8.6539507 -0.96305311 8.5779743 -34.802063 -77.617996
17252500000 -32.179432 -106.50883 -0.95710617 8.0976086 -0.96251965 8.0373192 -35.394585 -77.674759
17280000000 -32.211853 -104.56732 -0.95779097 7.5125604 -0.96421456 7.4746442 -35.305832 -77.338875
17307500000 -31.423983 -107.05661 -0.95755863 6.9535084 -0.96565372 6.8936791 -34.654732 -75.695
17335000000 -32.061249 -105.14214 -0.95959675 6.4260693 -0.964414 6.3486505 -34.970005 -76.802292
17362500000 -32.502411 -103.98259 -0.9569158 5.8730426 -0.96557844 5.7803321 -35.321735 -76.804291
17390000000 -31.668533 -104.76429 -0.96309155 5.3121147 -0.96262145 5.2471089 -34.381847 -75.148048
17417500000 -31.955484 -104.06878 -0.95997739 4.7386041 -0.96476406 4.6779017 -34.767143 -74.49295
17445000000 -32.776413 -103.02814 -0.95942014 4.1985474 -0.96543843 4.1295838 -35.110237 -76.058449
17472500000 -32.0457 -101.42355 -0.9590314 3.645766 -0.96514744 3.5586853 -34.493511 -74.719727
17500000000 -31.918182 -102.47039 -0.96199566 3.0509682 -0.96550149 3.0193877 -34.487076 -74.763062
17527500000 -32.587357 -102.1475 -0.96032321 2.5179799 -0.96759701 2.4739614 -35.145363 -74.219116
17555000000 -32.259212 -100.93621 -0.96255523 1.9669623 -0.96904993 1.9113199 -34.64687 -72.930672
17582500000 -31.774279 -100.38264 -0.96095264 1.4041944 -0.96554995 1.3382671 -34.175968 -73.188744
17610000000 -32.687511 -100.94969 -0.95913535 0.82927722 -0.96314198 0.78976125 -34.731178 -74.535332
17637500000 -32.430744 -99.224327 -0.96189034 0.27687642 -0.96690613 0.22458524 -34.84837 -73.644531
17665000000 -31.902077 -98.629646 -0.95761836 -0.27041611 -0.96651417 -0.32674554 -34.160526 -72.685982
17692500000 -32.633091 -99.21315 -0.96186513 -0.80768591 -0.96662933 -0.88077366 -34.339104 -72.776558
17720000000 -32.590168 -99.363533 -0.96059352 -1.3575751 -0.96891695 -1.4225072 -34.750149 -71.345253
17747500000 -32.083103 -96.352333 -0.96072012 -1.9259121 -0.96388876 -1.9914546 -34.16465 -71.033875
17775000000 -32.453293 -98.063286 -0.96097463 -2.4973853 -0.9693405 -2.5609553 -34.14621 -71.373474
17802500000 -32.912273 -98.581406 -0.96282953 -3.0559239 -0.9665795 -3.1018605 -34.600174 -72.144043
17830000000 -32.165539 -94.741852 -0.96209419 -3.6065776 -0.96718818 -3.6632974 -34.112057 -70.026573
17857500000 -32.363323 -94.440514 -0.96293354 -4.1658397 -0.96512872 -4.2192373 -33.839222 -71.105743
17885000000 -32.993557 -95.991005 -0.9595874 -4.7024283 -0.96539962 -4.7843685 -34.479805 -70.572716
17912500000 -32.288445 -92.841797 -0.96224022 -5.2977047 -0.96844357 -5.3333087 -34.194881 -70.391205
17940000000 -32.084606 -91.505585 -0.96148497 -5.8364186 -0.96700704 -5.8916254 -33.822708 -69.163269
17967500000 -32.973488 -94.797287 -0.96128339 -6.3838964 -0.96696532 -6.4136882 -34.353859 -70.865814
17995000000 -32.256187 -91.744827 -0.95974267 -6.9468126 -0.96973109 -7.009213 -34.502411 -70.033791
18022500000 -32.089066 -88.872635 -0.96277267 -7.5014653 -0.96556675 -7.5790324 -33.680096 -68.443413
18050000000 -32.610374 -91.768036 -0.95929456 -8.0388155 -0.96809906 -8.0993567 -33.911739 -70.689972
18077500000 -32.522217 -90.647903 -0.96258008 -8.6153708 -0.96765232 -8.6699419 -34.391384 -69.861366
18105000000 -32.068146 -86.845894 -0.95915121 -9.1705503 -0.96512353 -9.2410784 -33.59787 -68.429375
18132500000 -32.531765 -89.453255 -0.95930356 -9.7474756 -0.96728486 -9.8049011 -33.452065 -68.384407
18160000000 -32.497288 -89.071373 -0.96066362 -10.261452 -0.96554804 -10.348901 -34.442528 -70.3759
18187500000 -32.07579 -84.627892 -0.95999098 -10.838997 -0.96697503 -10.9212 -33.528507 -68.724022
18215000000 -32.193806 -85.78141 -0.95823157 -11.420653 -0.96745503 -11.459097 -33.15382 -67.832848
18242500000 -32.474022 -86.958107 -0.96062165 -11.969421 -0.96900851 -12.033631 -33.882706 -70.921356
18270000000 -31.999985 -83.668282 -0.95840484 -12.514663 -0.96725154 -12.56527 -33.603695 -68.544769
18297500000 -32.10445 -83.027702 -0.96304148 -13.090377 -0.96692652 -13.138227 -32.99575 -66.909241
18325000000 -32.407799 -85.16378 -0.96060675 -13.626557 -0.96404392 -13.697211 -33.583778 -69.474808
18352500000 -31.99552 -82.221107 -0.96321952 -14.187924 -0.96828735 -14.247463 -33.699955 -67.064514
18380000000 -31.845896 -80.842293 -0.95907402 -14.722126 -0.96566993 -14.795962 -32.959465 -68.240784
18407500000 -32.174824 -82.511963 -0.95897621 -15.267673 -0.96507055 -15.339111 -33.121559 -69.534744
18435000000 -31.873701 -81.42437 -0.95796752 -15.857794 -0.96796221 -15.919249 -33.604885 -68.753159
18462500000 -31.797132 -79.142601 -0.9608109 -16.423038 -0.96386003 -16.473579 -32.752666 -68.358528
18490000000 -31.95816 -81.341362 -0.95951051 -16.954346 -0.96536893 -17.033535 -32.590084 -67.940163
18517500000 -31.836182 -80.270203 -0.95617211 -17.539152 -0.96986377 -17.601828 -33.376717 -69.458076
18545000000 -31.559547 -77.007484 -0.95844942 -18.090462 -0.96694237 -18.145082 -32.925777 -67.972412
18572500000 -31.646 -78.064484 -0.9579888 -18.645243 -0.96538705 -18.68281 -32.578583 -67.705475
18600000000 -31.759705 -79.157616 -0.95862955 -19.191179 -0.9669553 -19.24225 -32.992069 -68.15683
18627500000 -31.3246 -75.84845 -0.96046501 -19.751795 -0.96494573 -19.840618 -32.960667 -69.641777
18655000000 -31.35737 -76.072075 -0.96214586 -20.309551 -0.96662056 -20.380354 -32.194294 -69.111458
18682500000 -31.434738 -77.079391 -0.96341795 -20.865751 -0.96586877 -20.912718 -32.78017 -68.490921
18710000000 -31.352259 -75.571266 -0.96014857 -21.435514 -0.96822876 -21.517464 -32.944092 -69.518921
18737500000 -31.152348 -75.03685 -0.95967746 -21.981256 -0.96391332 -22.052206 -32.165043 -68.606346
18765000000 -31.37871 -76.885918 -0.95943046 -22.52824 -0.96816343 -22.58913 -32.354168 -69.038712
18792500000 -31.303223 -74.504341 -0.96124816 -23.114658 -0.96395308 -23.134226 -32.705269 -69.844452
18820000000 -30.862309 -73.286797 -0.95718652 -23.688324 -0.96485102 -23.739141 -31.98691 -68.668816
18847500000 -31.022411 -74.77697 -0.95866632 -24.207249 -0.96728098 -24.264343 -32.013298 -67.657837
18875000000 -31.089285 -73.764633 -0.95776582 -24.767694 -0.96484035 -24.842287 -32.706654 -68.995972
18902500000 -30.705517 -72.094345 -0.95657605 -25.335081 -0.96390009 -25.410721 -32.092793 -70.279518
18930000000 -30.780811 -73.33577 -0.96042365 -25.88184 -0.96251255 -25.936804 -31.97386 -67.734428
18957500000 -31.124094 -73.668167 -0.96288055 -26.442472 -0.96433419 -26.503166 -32.32151 -69.23716
18985000000 -30.668579 -71.992226 -0.95943528 -27.024153 -0.96174467 -27.056589 -32.198868 -70.366158
19012500000 -30.562368 -71.170799 -0.9528963 -27.57482 -0.96292937 -27.627295 -31.660027 -69.100716
19040000000 -30.788237 -73.020508 -0.95780194 -28.12048 -0.96445054 -28.182838 -31.993242 -69.348412
19067500000 -30.614094 -70.824806 -0.95845008 -28.699244 -0.96305537 -28.739767 -31.997608 -71.214813
19095000000 -30.419632 -70.648415 -0.95483476 -29.252399 -0.96302336 -29.311331 -31.491982 -69.767906
19122500000 -30.666298 -72.498009 -0.95779067 -29.798983 -0.96107054 -29.868803 -31.864355 -68.973839
19150000000 -30.427889 -71.185234 -0.95732337 -30.359777 -0.96228093 -30.428057 -32.052197 -69.893776
19177500000 -30.090025 -69.561356 -0.9547506 -30.930754 -0.96124917 -30.974054 -31.64794 -70.112709
19205000000 -30.452215 -71.772568 -0.95710009 -31.473734 -0.96264696 -31.526688 -31.604582 -69.860092
19232500000 -30.350044 -70.141136 -0.95407403 -32.025295 -0.96140158 -32.086266 -31.951269 -69.746918
19260000000 -30.04508 -69.250671 -0.95352846 -32.604416 -0.96018922 -32.66172 -31.591949 -70.796715
19287500000 -30.156418 -70.449959 -0.95712912 -33.136425 -0.96106637 -33.216957 -31.406164 -70.349922
19315000000 -30.274076 -71.372261 -0.95696682 -33.717159 -0.96262336 -33.782082 -31.709204 -70.152435
19342500000 -29.857655 -67.652161 -0.95247722 -34.279766 -0.96040881 -34.352005 -31.565023 -70.710175
19370000000 -29.777645 -69.320107 -0.95762932 -34.828178 -0.9612149 -34.894093 -31.340675 -70.432915
19397500000 -30.007088 -71.264969 -0.95852721 -35.387047 -0.96159703 -35.456013 -31.711304 -69.290375
19425000000 -29.724781 -67.892067 -0.94853646 -35.948872 -0.95988697 -36.010864 -31.489265 -71.11187
19452500000 -29.723701 -67.68927 -0.95278859 -36.532925 -0.96056449 -36.587311 -31.125088 -70.276299
19480000000 -29.865267 -71.226181 -0.954629 -37.060863 -0.96172851 -37.117764 -31.538034 -69.593323
19507500000 -29.665815 -67.889191 -0.95244563 -37.619663 -0.95796591 -37.68932 -31.573965 -69.765762
19535000000 -29.516376 -66.506165 -0.94960421 -38.199215 -0.95953149 -38.271088 -31.116848 -71.236801
19562500000 -29.659719 -70.143806 -0.95366746 -38.747231 -0.95842582 -38.809582 -31.295395 -70.09568
19590000000 -29.51511 -69.652275 -0.95104307 -39.316826 -0.95784163 -39.371696 -31.625572 -69.599709
19617500000 -29.450436 -65.893776 -0.95122927 -39.890175 -0.95775193 -39.949997 -31.197367 -71.629562
19645000000 -29.460493 -69.884445 -0.95481867 -40.419319 -0.96092165 -40.501904 -31.125124 -70.312538
19672500000 -29.343443 -70.261993 -0.95316899 -41.002575 -0.95834935 -41.046383 -31.708982 -69.328598
19700000000 -29.424103 -65.293259 -0.95022595 -41.560577 -0.95494252 -41.630089 -31.2962 -70.622215
19727500000 -29.355139 -68.626999 -0.95303619 -42.1451 -0.959867 -42.188583 -30.79677 -70.947014
19755000000 -29.125488 -70.693565 -0.95212781 -42.716965 -0.95884162 -42.735916 -31.357088 -70.063599
19782500000 -29.332338 -65.656532 -0.9512254 -43.239819 -0.95372128 -43.290989 -31.373236 -69.299713
19810000000 -29.323154 -66.822174 -0.9513163 -43.836952 -0.95460516 -43.872604 -30.866117 -71.641327
19837500000 -28.97962 -70.844307 -0.95717299 -44.369808 -0.95827866 -44.415115 -31.419327 -69.122299
19865000000 -29.045254 -66.939163 -0.94891042 -44.951847 -0.95590019 -44.979664 -31.397646 -69.587608
19892500000 -29.196766 -65.678993 -0.95101339 -45.507519 -0.956276 -45.571754 -30.83256 -71.300964
19920000000 -28.687605 -70.315872 -0.95267254 -46.052895 -0.96182251 -46.121738 -31.305464 -69.925194
19947500000 -28.758875 -67.141052 -0.95072466 -46.628239 -0.95847589 -46.696781 -31.496765 -68.629555
19975000000 -29.100946 -65.452797 -0.94799191 -47.215878 -0.95274216 -47.238354 -30.751341 -70.214539
20002500000 -28.590015 -69.685783 -0.95456773 -47.735378 -0.96208835 -47.809448 -30.963381 -69.782166
20030000000 -28.431021 -68.330093 -0.95171267 -48.284229 -0.96089321 -48.375469 -31.378525 -67.80291
20057500000 -28.994625 -65.130394 -0.95379257 -48.882496 -0.95849818 -48.921513 -30.994696 -69.673233
20085000000 -28.537699 -68.421867 -0.95294851 -49.43803 -0.96272159 -49.497871 -30.6854 -70.736244
20112500000 -28.153877 -69.649857 -0.95577049 -49.988533 -0.9596681 -50.066566 -31.463028 -68.081192
20140000000 -28.763496 -65.380264 -0.9523989 -50.556 -0.95935392 -50.611828 -31.008259 -67.237137
20167500000 -28.564764 -67.996544 -0.95263064 -51.135361 -0.9623875 -51.195702 -30.632374 -70.222847
20195000000 -27.827673 -70.014008 -0.95894748 -51.692703 -0.96169811 -51.753983 -31.098473 -68.080307
20222500000 -28.310133 -66.657639 -0.95541859 -52.243214 -0.96163386 -52.315266 -31.179857 -67.829445
20250000000 -28.509155 -66.800156 -0.95390218 -52.803539 -0.95795655 -52.871445 -30.535389 -70.474449
20277500000 -27.663134 -70.158875 -0.95791042 -53.365948 -0.96256137 -53.433491 -30.877926 -69.536774
20305000000 -28.027399 -66.773682 -0.96001166 -53.961838 -0.96269864 -54.009426 -31.021267 -66.909958
20332500000 -28.528416 -67.418098 -0.95352238 -54.471588 -0.95943499 -54.549946 -30.424746 -69.068146
20360000000 -27.577887 -69.139351 -0.96251452 -55.072941 -0.96396536 -55.130497 -30.678595 -69.781906
20387500000 -27.593977 -68.210793 -0.95923579 -55.629288 -0.96413279 -55.688488 -31.162498 -65.965561
20415000000 -28.271328 -66.399078 -0.95713556 -56.190784 -0.96090907 -56.242031 -30.62673 -68.647804
20442500000 -27.615299 -69.268272 -0.95992476 -56.754829 -0.96775126 -56.816822 -30.415972 -70.076332
20470000000 -27.321646 -68.494415 -0.96136671 -57.326687 -0.96778786 -57.404354 -31.026812 -66.580772
20497500000 -28.01556 -68.101318 -0.9615618 -57.89159 -0.96551311 -57.929451 -30.63571 -67.315941
20525000000 -27.709133 -68.819595 -0.9624418 -58.436169 -0.96874154 -58.515022 -30.197727 -69.044136
20552500000 -27.04985 -69.389214 -0.95999485 -59.013477 -0.9688558 -59.075844 -30.76478 -67.418633
20580000000 -27.646196 -68.452415 -0.96335554 -59.578636 -0.97226191 -59.609459 -30.629768 -66.648773
20607500000 -27.584051 -69.808411 -0.96070689 -60.112679 -0.96654135 -60.201214 -30.115374 -69.198326
20635000000 -26.900724 -68.821335 -0.96528196 -60.690598 -0.97218579 -60.759377 -30.463329 -68.949661
20662500000 -27.233255 -69.429253 -0.96750546 -61.247879 -0.97056937 -61.307034 -30.55949 -67.062859
20690000000 -27.573109 -69.982986 -0.96141487 -61.809326 -0.97150522 -61.8494 -29.86553 -69.373116
20717500000 -26.878267 -68.480286 -0.96778655 -62.35984 -0.9763639 -62.427238 -30.18269 -68.901756
20745000000 -26.887003 -69.445694 -0.96897131 -62.91592 -0.97300899 -62.983479 -30.482615 -67.444984
20772500000 -27.320459 -70.040108 -0.96930909 -63.471672 -0.97456771 -63.534504 -29.889425 -68.163551
20800000000 -26.764034 -70.093285 -0.97430235 -64.042152 -0.97549504 -64.108932 -29.910229 -70.51976
20827500000 -26.554895 -69.546196 -0.97124428 -64.608551 -0.97529477 -64.654633 -30.29858 -68.174217
20855000000 -27.050106 -71.29483 -0.97151655 -65.13958 -0.97700018 -65.19928 -29.833643 -68.614609
20882500000 -26.781691 -70.155106 -0.97387576 -65.705887 -0.9806937 -65.776955 -29.546856 -70.511322
20910000000 -26.246407 -70.203491 -0.97188109 -66.2705 -0.97864211 -66.321335 -30.047625 -69.496086
20937500000 -26.734215 -70.988274 -0.97405422 -66.817261 -0.98202443 -66.879814 -29.694765 -69.608017
20965000000 -26.634665 -71.090591 -0.97545356 -67.385994 -0.98409283 -67.43998 -29.446655 -70.665428
20992500000 -26.152269 -69.789124 -0.97723234 -67.916878 -0.98511481 -67.972069 -29.822754 -71.451637
21020000000 -26.343876 -71.497894 -0.9788425 -68.500366 -0.98416233 -68.542786 -29.777367 -69.754707
21047500000 -26.574659 -72.517357 -0.97535473 -69.064941 -0.98668504 -69.117836 -29.454048 -71.482185
21075000000 -26.003908 -70.254471 -0.97898322 -69.564346 -0.98630553 -69.673737 -29.650991 -72.308403
21102500000 -26.196928 -71.781807 -0.98023784 -70.134819 -0.98896307 -70.190811 -29.751617 -71.204491
21130000000 -26.351753 -72.646446 -0.98186862 -70.692711 -0.98619413 -70.767387 -29.504786 -71.414291
21157500000 -26.10874 -71.863701 -0.98142403 -71.208878 -0.98569423 -71.325874 -29.6313 -74.443314
21185000000 -25.824892 -72.0168 -0.97980869 -71.79435 -0.9832049 -71.859215 -29.685646 -73.635391
21212500000 -26.114935 -73.634781 -0.98088479 -72.327339 -0.98196405 -72.395645 -29.675318 -73.440987
21240000000 -26.052784 -73.416557 -0.97818971 -72.914627 -0.98556787 -72.999092 -29.553213 -75.81852
21267500000 -25.819668 -73.141129 -0.974603 -73.450233 -0.98375648 -73.498482 -29.87492 -75.593399
21295000000 -25.921476 -73.675728 -0.97996211 -73.979691 -0.97931337 -74.054688 -29.62398 -73.980934
21322500000 -26.060774 -74.84388 -0.97602135 -74.573151 -0.97772217 -74.664803 -29.67812 -75.000687
21350000000 -25.775766 -74.057899 -0.9696337 -75.132332 -0.98168331 -75.188179 -29.914543 -76.035248
21377500000 -25.804699 -75.012726 -0.97309738 -75.671089 -0.97599638 -75.745186 -29.786734 -74.325745
21405000000 -25.942514 -75.111656 -0.97277874 -76.249779 -0.97347379 -76.329529 -29.573643 -75.105812
21432500000 -25.805607 -73.607918 -0.97129089 -76.809669 -0.97429329 -76.872971 -30.068199 -74.877625
21460000000 -25.771996 -75.040054 -0.96645987 -77.375435 -0.97166097 -77.433762 -29.936813 -73.893623
21487500000 -25.834143 -75.664108 -0.9648326 -77.961525 -0.97052598 -78.020164 -29.709488 -73.382561
21515000000 -25.93088 -74.268875 -0.96873802 -78.512886 -0.97579515 -78.587181 -30.142025 -74.855469
21542500000 -25.684019 -74.73925 -0.96460986 -79.074356 -0.9709717 -79.138992 -29.906706 -73.599968
21570000000 -25.852306 -75.141533 -0.96709567 -79.658737 -0.9735567 -79.70726 -29.823992 -72.198677
21597500000 -25.812178 -75.107918 -0.96590853 -80.256203 -0.97377986 -80.288361 -29.921452 -74.253983
21625000000 -25.629091 -74.608223 -0.96387327 -80.772583 -0.97269744 -80.848602 -30.029678 -73.786804
21652500000 -25.677038 -75.625122 -0.96394342 -81.347977 -0.97029519 -81.419907 -29.629692 -72.277153
21680000000 -25.743484 -74.696114 -0.96582735 -81.944229 -0.97248632 -81.991302 -29.809551 -72.573845
21707500000 -25.607189 -75.205612 -0.96743977 -82.488266 -0.97523874 -82.569519 -30.032616 -74.682785
21735000000 -25.553928 -75.495316 -0.96435517 -83.041191 -0.97229201 -83.101967 -29.651224 -71.821472
21762500000 -25.671207 -75.353859 -0.96797514 -83.65789 -0.97339702 -83.693024 -29.751797 -71.745247
21790000000 -25.651632 -74.681709 -0.97001588 -84.181679 -0.97573614 -84.26561 -30.078585 -74.005737
21817500000 -25.54936 -75.902733 -0.96761513 -84.764305 -0.97494388 -84.793213 -29.543804 -72.356049
21845000000 -25.642448 -75.841324 -0.96746826 -85.324944 -0.9755038 -85.39164 -29.651157 -71.815262
21872500000 -25.616507 -75.43824 -0.9701696 -85.894379 -0.97853768 -85.944733 -29.963346 -75.24102
21900000000 -25.609377 -76.526367 -0.97213173 -86.439072 -0.97904843 -86.481026 -29.633057 -72.478905
21927500000 -25.550188 -76.558952 -0.96749318 -87.014626 -0.98038709 -87.0718 -29.504021 -72.069183
21955000000 -25.613308 -75.135826 -0.97735584 -87.580132 -0.9791947 -87.666153 -29.962807 -74.858276
21982500000 -25.563587 -76.080757 -0.97454989 -88.118919 -0.98487055 -88.196793 -29.717621 -73.530518
22010000000 -25.481722 -77.15596 -0.97433025 -88.709915 -0.98623961 -88.772293 -29.462049 -72.068306
22037500000 -25.649826 -75.283401 -0.98046333 -89.274689 -0.98731661 -89.353065 -29.867462 -74.168503
22065000000 -25.636944 -75.593185 -0.98440456 -89.828201 -0.99052203 -89.881805 -29.858162 -73.577766
22092500000 -25.559444 -76.536407 -0.98113036 -90.376137 -0.98965031 -90.430626 -29.27186 -70.480843
22120000000 -25.589502 -75.360115 -0.983114 -90.913376 -0.99004465 -91.008163 -29.594856 -73.332756
22147500000 -25.707218 -74.241234 -0.9880231 -91.498222 -0.99318337 -91.547424 -29.83218 -74.096581
22175000000 -25.583548 -76.220474 -0.98630428 -92.020889 -0.99775177 -92.054558 -29.340631 -70.508194
22202500000 -25.406639 -74.907738 -0.98787624 -92.573555 -0.99420196 -92.617844 -29.471201 -73.257378
22230000000 -25.496428 -73.434906 -0.98786777 -93.115837 -0.99251318 -93.183563 -29.865307 -75.479729
22257500000 -25.342407 -75.55806 -0.98542136 -93.688438 -0.99604827 -93.709167 -29.441082 -71.068977
22285000000 -25.241608 -75.573883 -0.98401916 -94.216583 -0.98860717 -94.285728 -29.309332 -72.129059
22312500000 -25.292711 -73.644669 -0.98217595 -94.765327 -0.98854637 -94.843544 -29.599325 -76.293259
22340000000 -25.237614 -76.462929 -0.98321563 -95.34903 -0.98962688 -95.391342 -29.423309 -71.91777
22367500000 -25.070381 -76.334015 -0.97987294 -95.9067 -0.98715806 -95.959801 -29.187288 -71.412453
22395000000 -25.358376 -74.554756 -0.9781965 -96.465752 -0.98633707 -96.534042 -29.551422 -76.126144
22422500000 -25.224115 -75.881836 -0.97992355 -97.016296 -0.9860993 -97.10331 -29.633532 -73.173508
22450000000 -24.970234 -76.65361 -0.98161387 -97.610329 -0.98968965 -97.676605 -29.140446 -71.231125
22477500000 -25.170033 -74.885025 -0.97833627 -98.180618 -0.98477799 -98.250053 -29.31588 -76.050728
22505000000 -25.262234 -74.949486 -0.98398733 -98.764191 -0.9867695 -98.81028 -29.786415 -74.869148
22532500000 -24.870131 -76.829933 -0.98511153 -99.30703 -0.99074608 -99.373993 -29.298264 -71.079201
22560000000 -25.006178 -74.965858 -0.98092109 -99.87336 -0.99350846 -99.950569 -29.104195 -74.417969
22587500000 -25.116497 -74.711571 -0.98105222 -100.44241 -0.98761237 -100.52036 -29.747925 -76.980019
22615000000 -24.679432 -76.93634 -0.98896468 -100.9861 -0.99519271 -101.06532 -29.309155 -71.359985
22642500000 -24.730965 -76.514038 -0.98575366 -101.57655 -0.99316227 -101.65071 -28.941954 -73.255241
22670000000 -25.079029 -75.546738 -0.98546231 -102.14034 -0.9939546 -102.18855 -29.371401 -77.130775
22697500000 -24.611422 -77.451675 -0.99370044 -102.70341 -0.99939144 -102.75137 -29.495443 -72.155724
22725000000 -24.477108 -77.476357 -0.99445224 -103.27139 -0.99856257 -103.33522 -29.067053 -72.341919
22752500000 -24.884302 -77.064079 -0.98950171 -103.81559 -1.0007578 -103.88084 -29.108078 -78.513054
22780000000 -24.559153 -78.31601 -0.99511653 -104.39771 -1.001325 -104.44285 -29.498053 -74.039673
22807500000 -24.225124 -78.431358 -1.0015738 -104.93435 -1.002768 -104.99963 -29.024178 -72.082016
22835000000 -24.735071 -78.366096 -0.99719256 -105.48606 -1.0029576 -105.54842 -28.977531 -76.39328
22862500000 -24.52997 -79.789017 -0.99905092 -106.05854 -1.0033737 -106.11549 -29.595669 -76.692818
22890000000 -24.075676 -79.902405 -1.0028822 -106.58936 -1.0079985 -106.70799 -29.090031 -72.200516
22917500000 -24.485476 -80.038948 -1.0017407 -107.1553 -1.010311 -107.21006 -28.754301 -76.792641
22945000000 -24.541283 -81.050629 -0.9983713 -107.73185 -1.0025845 -107.80317 -29.497972 -78.948906
22972500000 -23.965839 -80.957253 -1.0053166 -108.25438 -1.0153428 -108.33799 -29.334696 -73.054031
23000000000 -24.249388 -81.515579 -1.0052291 -108.8414 -1.0126302 -108.88877 -28.780142 -76.098679
23027500000 -24.592331 -82.290764 -0.99882448 -109.33996 -1.0053577 -109.42781 -29.208084 -79.098473
23055000000 -24.123083 -81.763672 -1.0046315 -109.95024 -1.0166348 -110.0174 -29.615137 -74.176117
23082500000 -24.155615 -81.865067 -1.0079567 -110.5015 -1.0137733 -110.60133 -28.942707 -75.497826
23110000000 -24.577593 -84.434509 -1.005469 -111.00812 -1.0124664 -111.08844 -29.018353 -79.387306
23137500000 -24.170509 -83.194077 -1.0102868 -111.6291 -1.0160555 -111.70173 -29.632984 -76.020714
23165000000 -23.990812 -82.820869 -1.009045 -112.19196 -1.0149887 -112.23735 -29.052498 -74.641663
23192500000 -24.477087 -85.847443 -1.0092945 -112.70088 -1.0126753 -112.76922 -29.0751 -78.745781
23220000000 -24.277952 -85.18235 -1.0067878 -113.30755 -1.0157797 -113.35827 -29.697292 -78.962471
23247500000 -24.013571 -83.925995 -1.0090107 -113.87372 -1.0165236 -113.92405 -29.116169 -75.137085
23275000000 -24.323278 -87.261505 -1.0141006 -114.3977 -1.0148121 -114.43583 -28.929787 -78.768745
23302500000 -24.322699 -87.85939 -1.0110453 -114.94379 -1.0163976 -115.01704 -29.642189 -78.732208
23330000000 -23.966679 -84.431969 -1.0149059 -115.50713 -1.0183811 -115.60337 -29.476305 -74.809303
23357500000 -24.213287 -88.121887 -1.011712 -116.06586 -1.0203762 -116.13216 -28.870739 -78.703934
23385000000 -24.325527 -90.068993 -1.0078402 -116.61606 -1.0149838 -116.67523 -29.274075 -79.513542
23412500000 -24.047785 -86.432938 -1.0135232 -117.19553 -1.0205423 -117.26536 -29.663658 -75.149696
23440000000 -24.153299 -88.303337 -1.0157998 -117.77161 -1.0210177 -117.85171 -29.052141 -77.345169
23467500000 -24.303644 -91.782532 -1.0112845 -118.29256 -1.0231602 -118.35147 -29.135294 -79.68959
23495000000 -24.157888 -88.457832 -1.0152892 -118.86521 -1.0242605 -118.93525 -29.65889 -76.64476
23522500000 -24.200052 -88.066978 -1.0181513 -119.45164 -1.0237011 -119.51451 -29.082552 -76.729691
23550000000 -24.277588 -92.829262 -1.0173867 -119.95017 -1.0261098 -120.02489 -29.209536 -79.92881
23577500000 -24.377357 -91.032661 -1.0195882 -120.56824 -1.0270282 -120.60268 -29.594975 -79.223465
23605000000 -24.244522 -88.873779 -1.0222498 -121.10703 -1.0279967 -121.18898 -29.275347 -76.232033
23632500000 -24.294992 -93.155281 -1.0251034 -121.66177 -1.0273187 -121.70727 -29.203283 -78.765434
23660000000 -24.345846 -93.490479 -1.0217571 -122.24802 -1.0296767 -122.28771 -29.512691 -79.809845
23687500000 -24.418245 -89.323654 -1.0268879 -122.77773 -1.0332494 -122.85112 -29.381062 -76.436859
23715000000 -24.305819 -92.909065 -1.0263836 -123.34183 -1.0315963 -123.42165 -29.137136 -79.256592
23742500000 -24.34984 -93.853928 -1.0266941 -123.86552 -1.0350798 -123.90911 -29.328442 -79.038467
23770000000 -24.48457 -91.38575 -1.0267456 -124.40914 -1.0344002 -124.50865 -29.567678 -78.558044
23797500000 -24.419748 -92.002991 -1.0244044 -125.01223 -1.0336854 -125.05444 -28.924561 -79.031235
23825000000 -24.402884 -96.214073 -1.0297213 -125.5305 -1.0366213 -125.59901 -29.272556 -80.185089
23852500000 -24.48667 -93.035393 -1.031875 -126.11129 -1.0396169 -126.1772 -29.582628 -79.598991
23880000000 -24.559265 -92.87175 -1.0305883 -126.67558 -1.0354074 -126.76151 -29.106853 -78.865974
23907500000 -24.358776 -95.955582 -1.0284637 -127.1948 -1.0387422 -127.27286 -29.280134 -80.799545
23935000000 -24.562582 -94.992554 -1.0368303 -127.75227 -1.0418104 -127.8121 -29.713226 -80.558022
23962500000 -24.732519 -93.390175 -1.0347182 -128.3158 -1.0401678 -128.39441 -29.217806 -78.406044
23990000000 -24.41824 -96.20578 -1.031073 -128.87206 -1.0398353 -128.93294 -29.324635 -80.970482
24017500000 -24.614674 -96.468391 -1.0335279 -129.4193 -1.04457 -129.48755 -29.672613 -80.507736
24045000000 -24.904408 -94.352539 -1.0339141 -129.98521 -1.036477 -130.06055 -29.40266 -79.28788
24072500000 -24.579252 -96.443878 -1.0348243 -130.50641 -1.0448442 -130.61371 -29.276203 -81.370964
24100000000 -24.599133 -98.117203 -1.0385542 -131.071 -1.0449374 -131.16083 -29.739803 -81.597679
24127500000 -24.991117 -95.562935 -1.0353719 -131.63194 -1.0475068 -131.69991 -29.581284 -81.262733
24155000000 -24.756151 -96.282387 -1.0307655 -132.18657 -1.0416571 -132.26411 -29.273222 -80.894356
24182500000 -24.557873 -98.458015 -1.0392177 -132.7171 -1.0477005 -132.80299 -29.643446 -82.112602
24210000000 -24.897657 -97.335838 -1.0363038 -133.30678 -1.042668 -133.37886 -29.590147 -80.73613
24237500000 -25.000948 -96.382111 -1.031355 -133.8613 -1.039 -133.96095 -29.451103 -79.743919
24265000000 -24.597031 -98.025124 -1.036152 -134.39183 -1.0432893 -134.45334 -29.750122 -82.057053
24292500000 -24.924685 -98.54615 -1.0355474 -134.9805 -1.046779 -135.06642 -29.852942 -81.594856
24320000000 -25.164434 -96.356346 -1.0325775 -135.55621 -1.0422599 -135.59555 -29.377165 -80.529449
24347500000 -24.758598 -97.993149 -1.0375252 -136.07771 -1.0387369 -136.13892 -29.843006 -81.995613
24375000000 -24.874224 -98.858681 -1.0414597 -136.62291 -1.0443039 -136.70961 -29.891525 -81.820107
24402500000 -25.301083 -98.400764 -1.035993 -137.21849 -1.0435205 -137.26256 -29.374893 -81.038292
24430000000 -24.856457 -97.702972 -1.032039 -137.76807 -1.045624 -137.81235 -29.751493 -80.677246
24457500000 -24.936102 -99.219833 -1.0363518 -138.2926 -1.0475171 -138.36803 -30.230844 -82.214035
24485000000 -25.287235 -98.48172 -1.0380893 -138.86111 -1.0455775 -138.93959 -29.658596 -79.951118
24512500000 -25.157394 -98.167938 -1.0303297 -139.38866 -1.0399702 -139.4761 -29.567623 -81.346313
24540000000 -24.945152 -99.216118 -1.0355707 -140.00073 -1.0438311 -140.01941 -30.314013 -83.604576
24567500000 -25.30452 -99.358955 -1.0336543 -140.51196 -1.0418562 -140.60881 -29.828602 -79.925232
24595000000 -25.388254 -98.742424 -1.0314531 -141.06931 -1.040199 -141.13959 -29.662764 -80.829155
24622500000 -25.071606 -98.710533 -1.0411813 -141.63635 -1.0419601 -141.70062 -30.349766 -83.1325
24650000000 -25.312897 -100.27961 -1.0376333 -142.20978 -1.0405487 -142.30136 -30.199587 -80.593559
24677500000 -25.589741 -99.542725 -1.0353732 -142.75838 -1.0425119 -142.80881 -29.557959 -80.162811
24705000000 -25.187201 -99.100639 -1.0355448 -143.30435 -1.0382576 -143.36816 -30.303005 -81.938988
24732500000 -25.331293 -100.27248 -1.0392072 -143.9059 -1.0436264 -143.94438 -30.483719 -81.876892
24760000000 -25.585228 -99.888245 -1.0306907 -144.42574 -1.0423383 -144.49818 -29.638317 -78.750801
24787500000 -25.465612 -99.218018 -1.0348173 -144.96567 -1.0380337 -145.05023 -30.172655 -82.387474
24815000000 -25.358728 -100.06158 -1.0370041 -145.54001 -1.0439819 -145.60132 -30.37812 -81.940842
24842500000 -25.766733 -101.09767 -1.0363196 -146.10542 -1.0395367 -146.17793 -29.675089 -76.85556
24870000000 -25.603548 -99.709999 -1.0320446 -146.67084 -1.0366646 -146.70515 -29.831375 -80.336456
24897500000 -25.414654 -100.00884 -1.0401807 -147.23361 -1.0412945 -147.27599 -30.731445 -83.212067
24925000000 -25.713461 -101.2349 -1.030925 -147.7845 -1.0431936 -147.87952 -29.996611 -76.05307
24952500000 -25.754549 -100.59639 -1.0344603 -148.35097 -1.0397965 -148.39337 -30.016605 -79.784088
24980000000 -25.574953 -99.266617 -1.0358287 -148.8954 -1.0435069 -148.96696 -30.599154 -83.331955
25007500000 -25.789976 -101.55682 -1.0358733 -149.46545 -1.0399406 -149.52974 -30.305752 -77.781151
25035000000 -25.937412 -100.7326 -1.0305561 -149.99049 -1.0408629 -150.0489 -29.713722 -78.204819
25062500000 -25.649294 -100.30528 -1.0342242 -150.58733 -1.0391753 -150.62654 -30.636915 -83.283455
25090000000 -25.883444 -100.15046 -1.0317163 -151.1344 -1.0425659 -151.19337 -30.54512 -80.442963
25117500000 -26.200335 -101.91576 -1.0358996 -151.68562 -1.04005 -151.72183 -29.866629 -74.870918
25145000000 -25.939514 -100.51398 -1.0320936 -152.24667 -1.0400767 -152.30264 -30.238413 -82.655228
25172500000 -25.924456 -99.751831 -1.0372261 -152.78619 -1.0399563 -152.87131 -30.625919 -81.339523
25200000000 -26.202211 -101.77384 -1.0324852 -153.35989 -1.0409181 -153.43468 -30.172014 -74.358086
25227500000 -26.101358 -101.10129 -1.0326028 -153.9485 -1.0376146 -153.94632 -30.182123 -81.068253
25255000000 -26.049923 -100.93724 -1.0318691 -154.4617 -1.0388757 -154.52129 -30.833214 -81.994263
25282500000 -26.49684 -102.24895 -1.0331072 -155.05028 -1.0367639 -155.08455 -30.434107 -75.08667
25310000000 -26.470964 -101.60917 -1.0307399 -155.6035 -1.0404694 -155.66277 -29.989 -78.937042
25337500000 -26.181112 -100.70573 -1.0355152 -156.15518 -1.0395646 -156.21069 -30.736519 -82.387321
25365000000 -26.575403 -102.11257 -1.0315233 -156.74672 -1.0388675 -156.76428 -30.64403 -75.730148
25392500000 -26.628775 -102.54918 -1.0271732 -157.24091 -1.037271 -157.33575 -29.941999 -76.679085
25420000000 -26.543255 -100.58205 -1.0362914 -157.80559 -1.0386781 -157.87206 -30.573212 -82.949875
25447500000 -26.691154 -102.13245 -1.0326449 -158.40186 -1.0422915 -158.44789 -30.681273 -77.597855
25475000000 -26.706343 -102.09142 -1.029991 -158.96371 -1.0376011 -159.04337 -30.238022 -74.609627
25502500000 -26.683737 -101.91416 -1.0346791 -159.49733 -1.0447128 -159.58389 -30.44832 -83.802818
25530000000 -26.776522 -101.88531 -1.0323083 -160.11002 -1.0394055 -160.12172 -30.924438 -77.802498
25557500000 -27.058161 -103.44404 -1.0283315 -160.63992 -1.0358648 -160.67654 -30.419735 -73.003952
25585000000 -26.869982 -100.93941 -1.0303894 -161.17517 -1.0417887 -161.24046 -30.051767 -79.352501
25612500000 -27.040306 -102.28296 -1.0342219 -161.73622 -1.0470611 -161.7652 -31.17527 -79.249405
25640000000 -27.261621 -103.26361 -1.026201 -162.27934 -1.0373644 -162.32646 -30.61994 -72.730072
25667500000 -27.118189 -101.53188 -1.0336546 -162.84517 -1.0392243 -162.93271 -30.360521 -75.57724
25695000000 -27.104624 -101.8767 -1.0361415 -163.39577 -1.0482306 -163.47906 -31.135864 -82.196693
25722500000 -27.393314 -103.44341 -1.0351393 -163.98198 -1.0370988 -164.01591 -30.760311 -73.336037
25750000000 -27.439636 -101.32333 -1.0287403 -164.50372 -1.0423712 -164.57678 -30.366964 -74.616798
25777500000 -27.454575 -100.57346 -1.0325382 -165.09192 -1.0403905 -165.19284 -30.850267 -81.851357
25805000000 -27.578619 -103.34361 -1.0343763 -165.62988 -1.0377861 -165.71692 -31.070658 -73.697754
25832500000 -27.799698 -101.26941 -1.0332937 -166.22267 -1.0390848 -166.30833 -30.59565 -72.730598
25860000000 -27.629765 -99.871819 -1.0356203 -166.79793 -1.04698 -166.81247 -30.716803 -80.05909
25887500000 -27.750324 -102.38154 -1.0309591 -167.31998 -1.0432321 -167.38928 -31.224504 -74.81131
25915000000 -28.073277 -102.43973 -1.0344682 -167.90076 -1.0368092 -167.97981 -30.971077 -70.896805
25942500000 -28.094719 -99.235481 -1.0355569 -168.42683 -1.0440247 -168.50406 -30.648663 -77.487663
25970000000 -27.787014 -103.00902 -1.0364491 -169.0007 -1.0463963 -169.05576 -31.240696 -75.905144
25997500000 -28.28969 -102.0851 -1.0333338 -169.51396 -1.0393088 -169.60617 -30.966497 -70.596886
26025000000 -28.31209 -99.058395 -1.030053 -170.11543 -1.0338557 -170.19397 -30.794846 -74.35527
26052500000 -28.105476 -99.666946 -1.0328163 -170.69156 -1.0412165 -170.73329 -31.004953 -77.493858
26080000000 -28.230885 -102.51916 -1.0341781 -171.22127 -1.0431994 -171.2863 -31.217211 -69.211128
26107500000 -28.874895 -97.751549 -1.0259023 -171.81456 -1.0441254 -171.83873 -31.097092 -73.265823
26135000000 -28.475727 -99.92028 -1.0354042 -172.35579 -1.041707 -172.37891 -30.963301 -76.777397
26162500000 -28.321331 -101.1958 -1.0315896 -172.89822 -1.0409533 -172.96928 -31.27705 -69.529671
26190000000 -29.150166 -100.84609 -1.0326205 -173.44283 -1.0357047 -173.5117 -30.92794 -69.08532
26217500000 -28.90546 -95.949844 -1.0279996 -174.0385 -1.0340776 -174.11435 -30.983059 -74.498039
26245000000 -28.321327 -101.18336 -1.032328 -174.60696 -1.042845 -174.63104 -31.164785 -70.246315
26272500000 -29.076456 -100.68025 -1.0283768 -175.10104 -1.0360422 -175.21251 -31.276213 -67.351929
26300000000 -29.468449 -96.464233 -1.030162 -175.70053 -1.0398185 -175.76248 -31.317965 -73.169403
26327500000 -28.65815 -97.794945 -1.031747 -176.24356 -1.0407586 -176.30441 -31.225821 -70.389053
26355000000 -29.192642 -100.15825 -1.0315861 -176.81001 -1.0360734 -176.87421 -31.202822 -66.947945
26382500000 -29.936556 -95.962982 -1.0318736 -177.34456 -1.0400869 -177.43956 -31.263208 -71.45047
26410000000 -28.961153 -95.389626 -1.0309086 -177.97615 -1.0362809 -178.05617 -31.486122 -72.24234
26437500000 -29.28393 -99.29747 -1.0301603 -178.47922 -1.0348899 -178.5605 -31.163731 -68.189171
26465000000 -30.279697 -96.471725 -1.0331525 -179.0358 -1.0374696 -179.16763 -31.032991 -70.636841
26492500000 -29.548269 -92.717186 -1.0281315 -179.61716 -1.0327293 -179.68855 -31.399151 -70.434288
26520000000 -29.508352 -96.433136 -1.0351775 179.8157 -1.0438532 179.72856 -30.844942 -67.917175
26547500000 -30.480927 -96.170845 -1.0192474 179.18588 -1.0363462 179.20691 -31.642071 -65.642838
26575000000 -30.440184 -90.12928 -1.0392998 178.68646 -1.0319327 178.64813 -31.779133 -67.311882
26602500000 -29.743305 -93.390778 -1.0327972 178.0589 -1.0461957 178.03056 -31.428726 -67.288033
26630000000 -30.446358 -95.441727 -1.0420921 177.55011 -1.0370995 177.44769 -31.558617 -66.864777
26657500000 -30.679575 -89.534393 -1.0380794 177.09241 -1.0296392 176.91164 -32.270805 -71.688728
26685000000 -29.848015 -88.830475 -1.0295273 176.45245 -1.0375471 176.3007 -31.112644 -67.296104
26712500000 -29.998905 -95.903046 -1.02273 175.95334 -1.0446713 175.78401 -31.785698 -63.900757
26740000000 -31.163729 -88.935791 -1.0328356 175.3262 -1.0487089 175.20258 -31.819555 -68.23645
26767500000 -30.330946 -85.971069 -1.0383773 174.72031 -1.0312154 174.67413 -31.858685 -66.215942
26795000000 -30.023756 -95.684807 -1.0350503 174.19878 -1.0504453 174.07019 -31.549797 -62.914505
26822500000 -31.006477 -92.610756 -1.0328386 173.65546 -1.0414698 173.55513 -31.670372 -65.71521
26850000000 -30.947453 -84.388672 -1.0284716 173.07867 -1.0359864 173.065 -32.131733 -62.419685
26877500000 -30.310951 -85.478897 -1.0290139 172.50996 -1.044 172.4277 -31.619877 -65.855179
26905000000 -31.519203 -92.99865 -1.0360287 171.92099 -1.0305439 171.98465 -31.272038 -66.185204
26932500000 -31.824383 -81.739502 -1.0204712 171.40331 -1.0325125 171.22482 -32.504063 -63.786106
26960000000 -30.549454 -83.970757 -1.0404142 170.8036 -1.03678 170.73578 -32.031639 -62.45689
26987500000 -30.765984 -88.040627 -1.0321218 170.28488 -1.0416285 170.22565 -31.317139 -66.693558
27015000000 -31.886898 -80.571472 -1.0228771 169.60341 -1.0419687 169.69547 -32.233135 -57.364185
27042500000 -30.536602 -78.730194 -1.0357708 169.13394 -1.0396748 169.02783 -32.130363 -58.192303
27070000000 -30.42568 -85.845047 -1.0462961 168.5975 -1.0429062 168.55215 -31.564875 -60.901314
27097500000 -32.180187 -79.868362 -1.0357304 168.03973 -1.0359288 168.01752 -32.110115 -60.516201
27125000000 -31.45994 -75.522598 -1.0307878 167.5025 -1.041048 167.33475 -32.058773 -57.066917
27152500000 -30.617296 -80.908913 -1.0270344 166.86298 -1.0525477 166.85008 -31.312544 -60.616501
27180000000 -31.586977 -81.131493 -1.035709 166.2729 -1.0580353 166.25482 -32.007641 -60.685768
27207500000 -31.290491 -73.145889 -1.0339496 165.78311 -1.0417752 165.74127 -32.915432 -53.353794
27235000000 -30.491385 -74.815521 -1.0408721 165.23372 -1.0554417 165.10146 -31.842588 -57.683147
27262500000 -31.41374 -78.256142 -1.0285517 164.6559 -1.0495223 164.60855 -31.720093 -58.077953
27290000000 -31.833801 -69.296989 -1.0304376 164.06331 -1.0396646 163.94026 -32.637154 -55.536163
27317500000 -30.593321 -68.692261 -1.0273116 163.49541 -1.0587064 163.40717 -31.506016 -53.534637
27345000000 -30.485401 -74.584686 -1.0471922 162.97903 -1.0513006 162.8349 -32.107449 -58.14336
27372500000 -31.92067 -67.959549 -1.0489709 162.38319 -1.0423198 162.25186 -32.526222 -53.317902
27400000000 -31.241556 -67.102432 -1.0472343 161.83611 -1.0440079 161.73192 -31.684032 -47.757957
27427500000 -30.041201 -71.489609 -1.0490645 161.25948 -1.0503577 161.18895 -31.470068 -54.006046
27455000000 -31.162172 -67.839691 -1.0414066 160.83983 -1.0505786 160.69263 -32.842735 -54.061794
27482500000 -31.372753 -63.627331 -1.0422843 160.12151 -1.0492412 159.96677 -32.172779 -45.024349
27510000000 -29.981649 -64.125801 -1.0532315 159.54405 -1.0543153 159.52036 -31.271202 -54.639164
27537500000 -30.815908 -66.276253 -1.0677311 159.0517 -1.0522386 158.91377 -31.729345 -52.100182
27565000000 -31.502359 -60.389343 -1.0450925 158.36653 -1.0550618 158.4418 -32.198681 -49.493526
27592500000 -30.264608 -61.587673 -1.0427054 157.99579 -1.0626694 157.82599 -30.869488 -48.912693
27620000000 -30.192291 -64.665039 -1.0581836 157.40755 -1.0600028 157.25998 -31.444826 -49.124371
27647500000 -31.090811 -60.383224 -1.0393828 156.78606 -1.0494475 156.66078 -31.949596 -45.61277
27675000000 -30.166384 -55.926884 -1.0596975 156.26833 -1.0550213 156.23053 -31.000032 -46.009247
27702500000 -29.97402 -63.917778 -1.0662349 155.5808 -1.0668131 155.65108 -31.357702 -49.264091
27730000000 -30.572578 -58.161438 -1.0389677 155.09697 -1.0637017 155.0914 -32.116283 -47.166218
27757500000 -30.099024 -57.776207 -1.0547447 154.57114 -1.0572658 154.57613 -30.983826 -46.255226
27785000000 -29.134283 -58.400017 -1.050351 154.08 -1.0576316 153.93758 -30.706736 -46.822556
27812500000 -30.016872 -59.015404 -1.0657916 153.38065 -1.0525057 153.4341 -31.378162 -48.966381
27840000000 -29.843544 -53.546528 -1.0310475 152.90761 -1.0699052 152.79324 -31.694994 -43.50592
27867500000 -29.113504 -57.31517 -1.0659921 152.3748 -1.0510471 152.20619 -30.28014 -47.025154
27895000000 -29.293278 -59.798046 -1.0589498 151.77396 -1.0700366 151.70279 -31.1276 -48.952137
27922500000 -29.722748 -52.716141 -1.0523002 151.20618 -1.0598005 151.20509 -31.31262 -40.687542
27950000000 -28.997284 -54.039894 -1.0529627 150.65356 -1.0662217 150.63875 -30.654491 -42.730629
27977500000 -28.884209 -54.8909 -1.0613854 150.09933 -1.0549173 149.99196 -31.163397 -51.103493
28005000000 -29.312361 -52.437943 -1.0605741 149.65498 -1.0676465 149.46831 -31.344566 -45.205971
28032500000 -28.796497 -52.482861 -1.0405142 149.1073 -1.0564152 148.98123 -30.671371 -40.13858
28060000000 -28.302868 -54.135952 -1.035184 148.40872 -1.0670305 148.34444 -30.660831 -51.9632
28087500000 -29.199738 -54.956139 -1.0649983 147.88385 -1.0552197 147.83018 -30.79628 -44.884689
28115000000 -28.844303 -53.077236 -1.0655991 147.49541 -1.0615705 147.34711 -30.12611 -41.830856
28142500000 -28.226032 -51.973621 -1.0554206 146.76047 -1.0594286 146.75505 -29.945242 -48.863831
28170000000 -28.971973 -57.092201 -1.0572298 146.25374 -1.0716915 146.15572 -30.908281 -43.760666
28197500000 -28.616898 -49.599216 -1.0542018 145.68202 -1.0556414 145.68024 -30.56921 -38.553734
28225000000 -27.935886 -49.502861 -1.0323647 145.08417 -1.0639551 144.98897 -30.206247 -48.367432
28252500000 -28.589794 -53.205368 -1.051079 144.49644 -1.0594074 144.47929 -30.664644 -49.498264
28280000000 -28.347059 -49.226357 -1.0561042 144.00726 -1.0577565 143.97441 -30.877331 -41.59193
28307500000 -27.789389 -47.628181 -1.0359784 143.49684 -1.0527779 143.4079 -30.076935 -43.179729
28335000000 -27.767859 -52.573318 -1.0495951 142.78375 -1.0490242 142.81085 -30.685293 -44.551479
28362500000 -28.206884 -49.32122 -1.0544219 142.286 -1.0566318 142.37526 -31.164755 -40.931984
28390000000 -27.61619 -46.788891 -1.0578403 141.90036 -1.0510277 141.74582 -30.2502 -41.797207
28417500000 -27.551205 -50.42815 -1.0300586 141.14503 -1.0554936 141.13736 -29.988651 -43.219635
28445000000 -27.66931 -50.517185 -1.0504338 140.54987 -1.052695 140.61607 -30.507666 -41.304108
28472500000 -27.961182 -48.166851 -1.0435302 140.08315 -1.0479902 140.04802 -29.79401 -36.908497
28500000000 -27.322165 -49.421375 -1.048925 139.48502 -1.0635906 139.53026 -30.241934 -40.569546
28527500000 -27.620796 -47.764782 -1.0506197 138.95782 -1.0568603 138.93498 -30.452791 -39.296944
28555000000 -27.032198 -45.322067 -1.0452719 138.3475 -1.0498883 138.34061 -29.895746 -39.131966
28582500000 -27.165712 -49.281841 -1.0393624 137.81781 -1.0570089 137.76842 -29.643978 -40.29528
28610000000 -27.385977 -49.669525 -1.0493228 137.27905 -1.0540804 137.19542 -30.512358 -41.544571
28637500000 -27.263327 -47.40704 -1.0550025 136.60497 -1.0591397 136.69112 -29.650227 -34.4785
28665000000 -26.38699 -45.634453 -1.04398 136.20522 -1.0632997 136.07452 -29.308867 -39.815228
28692500000 -26.692263 -47.972275 -1.05108 135.50761 -1.0443684 135.6028 -29.893688 -39.437843
28720000000 -27.132174 -46.425556 -1.0383148 135.08136 -1.0541186 134.8595 -29.907722 -38.809578
28747500000 -26.373497 -45.340694 -1.06631 134.41112 -1.0588325 134.41374 -29.921242 -32.518154
28775000000 -26.675129 -47.416878 -1.029115 133.83162 -1.0528036 133.78119 -29.650387 -40.705872
28802500000 -26.550362 -47.411186 -1.0398393 133.30672 -1.0473239 133.21172 -29.801939 -37.575642
28830000000 -26.230097 -43.059803 -1.0454471 132.71265 -1.0458611 132.60188 -29.083136 -35.511623
28857500000 -26.279926 -47.246521 -1.0353841 132.15898 -1.0676646 132.0751 -29.081125 -39.402836
28885000000 -26.804857 -46.170311 -1.059224 131.67949 -1.0492933 131.52776 -29.323954 -39.315041
28912500000 -26.16711 -43.965637 -1.0348229 131.05829 -1.0644743 130.9476 -29.008694 -35.579781
28940000000 -25.665394 -46.729259 -1.0429487 130.43741 -1.0745218 130.38672 -29.656052 -36.877716
28967500000 -26.139505 -48.397629 -1.0493984 129.92343 -1.053884 129.75832 -29.299351 -39.655106
28995000000 -25.867285 -43.41613 -1.0273496 129.45863 -1.0640873 129.31953 -28.368635 -31.433928
29022500000 -25.54763 -44.742195 -1.0353595 128.73524 -1.0716504 128.67412 -28.801487 -34.507618
29050000000 -25.733793 -47.434795 -1.0516285 128.16261 -1.078427 128.23044 -29.058338 -35.340961
29077500000 -25.825624 -44.887291 -1.0462425 127.83431 -1.0644214 127.62293 -28.262739 -32.845207
29105000000 -25.27809 -45.598839 -1.0475549 127.05792 -1.0408833 126.95114 -28.313929 -33.04528
29132500000 -25.262688 -48.486855 -1.0502214 126.53599 -1.0552047 126.40518 -29.003395 -37.343918
29160000000 -25.448099 -46.444626 -1.0557491 125.96015 -1.0484146 125.84603 -28.756243 -33.514866
29187500000 -25.060848 -40.245323 -1.0506791 125.40382 -1.0594609 125.37404 -27.990713 -35.122112
29215000000 -25.226055 -45.30938 -1.0620393 124.74258 -1.0473441 124.80958 -28.590193 -37.087959
29242500000 -25.473429 -46.587936 -1.0540081 124.20617 -1.0639855 124.25595 -28.232689 -33.580021
29270000000 -24.620119 -44.110733 -1.0396041 123.70671 -1.0716835 123.64972 -27.993515 -32.619251
29297500000 -25.062126 -43.76852 -1.0650449 123.26578 -1.0603197 123.00951 -28.460373 -36.061356
29325000000 -24.977457 -47.252899 -1.0702486 122.58201 -1.0749614 122.45904 -28.412132 -34.398964
29352500000 -24.961092 -44.651939 -1.0428134 121.94253 -1.0612754 121.96711 -28.30216 -32.478008
29380000000 -24.377312 -44.467182 -1.0379226 121.38287 -1.0474452 121.22604 -28.521624 -33.769897
29407500000 -24.739967 -49.17226 -1.0630549 120.87933 -1.0719291 120.77604 -28.174623 -33.67857
29435000000 -24.502666 -45.83646 -1.0474209 120.35392 -1.0693839 120.38427 -27.707195 -31.571009
29462500000 -24.617044 -43.939087 -1.046728 119.61816 -1.0705075 119.56557 -27.820089 -35.309586
29490000000 -24.188366 -48.995895 -1.0760163 119.16243 -1.0664854 119.15306 -27.985577 -34.663605
29517500000 -24.819202 -49.255371 -1.0770216 118.56615 -1.0860649 118.58811 -27.979424 -31.254484
29545000000 -24.126612 -45.049217 -1.0650181 117.92823 -1.0574616 117.87644 -27.674835 -35.752697
29572500000 -24.396917 -48.149101 -1.0415136 117.39064 -1.074314 117.34163 -28.170624 -33.405918
29600000000 -24.362814 -50.122433 -1.0803207 116.87166 -1.0763917 116.77247 -27.632072 -31.079346
29627500000 -24.659142 -44.615768 -1.0683999 116.3861 -1.0729795 116.30381 -27.824383 -29.946798
29655000000 -23.868921 -44.870556 -1.0844035 115.78642 -1.0809594 115.63807 -27.504419 -31.8431
29682500000 -24.214077 -49.178169 -1.0678375 115.2515 -1.0943844 115.16856 -27.544563 -30.233315
29710000000 -24.621344 -45.987923 -1.0978501 114.57865 -1.0853111 114.66222 -27.059074 -27.833355
29737500000 -24.276609 -44.884201 -1.0917975 114.02544 -1.0996391 113.94902 -27.301546 -32.622375
29765000000 -23.724756 -49.065189 -1.1094275 113.67318 -1.1023351 113.38712 -27.382431 -26.532778
29792500000 -24.466919 -46.198605 -1.1031107 113.02724 -1.1224835 112.95945 -26.751295 -25.203482
29820000000 -24.342499 -44.597172 -1.0896045 112.50396 -1.0928707 112.49566 -27.061451 -28.401333
29847500000 -23.427671 -48.709873 -1.0992253 111.95891 -1.1178123 111.92859 -26.89958 -26.377512
29875000000 -24.012573 -49.87038 -1.1096641 111.4044 -1.107748 111.47617 -26.501913 -21.920773
29902500000 -24.170444 -42.381733 -1.0886701 110.97641 -1.0933045 110.83865 -25.984875 -28.777328
29930000000 -23.537529 -46.110962 -1.1060894 110.41151 -1.1207472 110.30346 -26.27545 -30.156105
29957500000 -23.361876 -49.364037 -1.0947005 109.82318 -1.1059579 109.82674 -26.169264 -25.961014
29985000000 -23.988655 -43.257526 -1.0883838 109.18055 -1.0855573 109.3384 -25.408485 -30.527941
30012500000 -22.877726 -44.957909 -1.0900892 108.79576 -1.0869735 108.53622 -25.955294 -31.616751
30040000000 -22.784101 -47.725945 -1.0945007 108.18933 -1.1074073 108.05283 -26.001097 -27.420326
30067500000 -23.385647 -46.536015 -1.0770255 107.6667 -1.117065 107.53971 -25.600618 -28.813204
30095000000 -23.148321 -43.684685 -1.0745676 106.97696 -1.0801939 106.96974 -25.85062 -33.237236
30122500000 -22.327284 -48.717068 -1.0938809 106.51424 -1.1037904 106.49694 -25.534138 -28.134401
30150000000 -23.071169 -48.792988 -1.0799277 105.84609 -1.0962442 105.78735 -25.906765 -29.643366
30177500000 -22.976883 -45.316467 -1.0727528 105.38571 -1.0783978 105.22211 -25.532135 -32.552105
30205000000 -22.427992 -48.620586 -1.0816246 104.67458 -1.1109266 104.62209 -25.612877 -29.901157
30232500000 -22.509157 -49.66288 -1.0926689 104.24467 -1.1030469 104.27377 -25.295403 -27.591009
30260000000 -23.383745 -45.335125 -1.0682456 103.60187 -1.0924681 103.54488 -25.221573 -33.078659
30287500000 -22.239504 -47.770775 -1.0975412 103.01255 -1.0879395 102.9775 -25.556334 -29.958567
30315000000 -21.973856 -49.052597 -1.0859536 102.66118 -1.1195213 102.4552 -25.258543 -30.232042
30342500000 -22.751553 -48.30558 -1.086154 101.92153 -1.0906243 101.9815 -24.799622 -32.642666
30370000000 -22.140724 -47.098694 -1.07857 101.38483 -1.1071498 101.41281 -25.338551 -35.23711
30397500000 -21.732498 -50.012569 -1.0792831 100.88496 -1.1064721 100.73155 -25.299871 -28.762346
30425000000 -22.211401 -49.564472 -1.0953313 100.29564 -1.0685903 100.26481 -24.641291 -30.350142
30452500000 -22.191442 -50.393181 -1.0698441 99.790009 -1.0875537 99.652512 -24.562439 -35.044807
30480000000 -21.315222 -48.508999 -1.0651412 99.364113 -1.1022868 99.106758 -25.111391 -30.667812
30507500000 -21.88562 -51.45039 -1.0826445 98.712372 -1.0926306 98.547836 -24.71784 -32.236298
30535000000 -21.947273 -51.749138 -1.0875694 98.093399 -1.0906782 98.020332 -24.323324 -33.77615
30562500000 -21.306774 -50.946781 -1.0880615 97.624474 -1.1189355 97.48571 -24.957212 -32.129478
30590000000 -21.291077 -51.415932 -1.1124219 96.883224 -1.1011732 96.76133 -24.669899 -32.014427
30617500000 -21.85619 -52.127068 -1.0846448 96.362846 -1.0814087 96.261292 -23.683764 -36.168236
30645000000 -21.233917 -51.27766 -1.0832846 95.818916 -1.0922338 95.779831 -24.328409 -36.563835
30672500000 -21.211908 -53.017826 -1.0922558 95.198448 -1.1141964 95.137115 -24.755518 -35.545345
30700000000 -21.601688 -55.042694 -1.0979265 94.65876 -1.111717 94.68026 -23.930731 -35.575661
30727500000 -21.540819 -51.164722 -1.0831913 94.085938 -1.1143821 94.019249 -24.456324 -39.199131
30755000000 -20.86479 -53.037956 -1.1039604 93.583008 -1.1202798 93.522697 -24.555832 -34.887825
30782500000 -21.330379 -54.795647 -1.0857644 93.022728 -1.0978118 92.938553 -23.809175 -34.117607
30810000000 -21.084715 -54.855049 -1.0965527 92.3759 -1.1015985 92.414726 -23.967813 -37.24155
30837500000 -20.83242 -53.258343 -1.0950025 91.864204 -1.1004784 91.792938 -24.199598 -36.568188
30865000000 -21.036018 -56.703674 -1.0900381 91.237823 -1.1048416 91.246162 -24.000292 -36.224781
30892500000 -21.247494 -57.018307 -1.0950485 90.792015 -1.0974408 90.68 -23.414591 -37.580933
30920000000 -20.680416 -55.523502 -1.0922531 90.11335 -1.1092494 90.117607 -23.950609 -39.305775
30947500000 -20.999762 -56.020306 -1.0883898 89.767662 -1.1104141 89.5755 -24.241798 -37.16856
30975000000 -21.11392 -57.308647 -1.0991849 89.086037 -1.0932102 89.15625 -23.446627 -39.758965
31002500000 -20.886091 -55.38232 -1.0930707 88.517883 -1.1081543 88.624214 -23.887339 -40.164131
31030000000 -20.534571 -56.284286 -1.0841254 88.026024 -1.1074157 87.83107 -24.120787 -39.298168
31057500000 -21.237297 -58.905907 -1.0993806 87.338043 -1.1005224 87.235786 -23.56938 -39.532574
31085000000 -20.735909 -58.425755 -1.090989 86.893448 -1.1093051 86.85672 -23.551458 -40.10833
31112500000 -20.669256 -55.804516 -1.0817624 86.306213 -1.0947181 86.304306 -24.010515 -38.343475
31140000000 -20.703911 -58.813972 -1.1048149 85.675705 -1.1220894 85.627945 -23.34236 -39.60041
31167500000 -20.789404 -60.693573 -1.1047548 85.139778 -1.0876954 85.146614 -23.38451 -41.840649
31195000000 -20.466124 -55.778664 -1.0916027 84.593788 -1.0957881 84.652596 -23.882086 -40.863667
31222500000 -20.891726 -59.574966 -1.0908173 83.99778 -1.1245441 83.875557 -23.539572 -41.151169
31250000000 -20.849976 -60.103466 -1.0998107 83.495583 -1.1067233 83.434761 -23.397535 -41.309101
31277500000 -20.181517 -59.275093 -1.0842966 82.822311 -1.1077501 82.830261 -23.692726 -43.331787
31305000000 -20.629395 -59.930664 -1.1009654 82.381454 -1.1174504 82.241997 -23.485502 -42.719719
31332500000 -20.559603 -63.187672 -1.083053 81.736015 -1.0993652 81.787102 -23.254702 -43.036068
31360000000 -20.533632 -60.655285 -1.1153203 81.309349 -1.1306065 81.112099 -23.593752 -41.967709
31387500000 -20.500149 -60.069412 -1.0937333 80.658592 -1.1008576 80.632027 -23.581577 -43.236816
31415000000 -20.819933 -62.099922 -1.105711 80.130806 -1.104907 80.117088 -22.953053 -43.470211
31442500000 -20.280718 -61.009663 -1.1107938 79.64109 -1.1158171 79.56192 -23.472967 -44.796364
31470000000 -20.638905 -60.557564 -1.1042341 78.909904 -1.1085439 78.973717 -23.774561 -43.93782
31497500000 -20.651245 -63.410419 -1.1122761 78.412529 -1.1090087 78.378448 -23.199238 -43.973621
31525000000 -20.280998 -63.814636 -1.1055684 77.964333 -1.0961919 77.785362 -23.145477 -42.541668
31552500000 -20.470558 -60.378647 -1.1136903 77.376648 -1.1036003 77.233574 -23.382641 -42.74474
31580000000 -20.432268 -64.242622 -1.1086658 76.660347 -1.1000608 76.616508 -23.138514 -42.7076
31607500000 -20.240265 -64.80529 -1.0904799 76.176979 -1.0974455 76.199776 -23.238638 -42.247379
31635000000 -20.230167 -62.309181 -1.0816602 75.697243 -1.109266 75.602066 -23.531031 -46.825653
31662500000 -20.3489 -64.202423 -1.1015464 74.972252 -1.1177834 75.052681 -23.172628 -46.215466
31690000000 -20.434347 -67.576607 -1.1147649 74.584885 -1.1175344 74.548485 -22.794289 -44.710022
31717500000 -20.221127 -62.145653 -1.103695 73.856178 -1.1174506 73.93322 -23.481937 -44.852058
31745000000 -20.673471 -65.315475 -1.1334617 73.309334 -1.1005437 73.289772 -23.282768 -46.664654
31772500000 -20.302 -67.063446 -1.1097443 72.838264 -1.1151651 72.807785 -23.028402 -44.864868
31800000000 -20.435099 -65.322418 -1.1206651 72.347717 -1.1245012 72.29071 -23.345024 -47.79044
31827500000 -20.573708 -64.11203 -1.1074694 71.722229 -1.1362152 71.677208 -23.167547 -46.37183
31855000000 -20.429407 -68.386818 -1.1009123 71.16227 -1.1251217 71.054199 -22.88546 -46.486488
31882500000 -20.138874 -66.171761 -1.1048343 70.546082 -1.1109363 70.669609 -23.215736 -46.817734
31910000000 -20.517019 -67.115608 -1.0978488 70.1119 -1.1398727 69.970398 -23.220684 -48.051804
31937500000 -20.549297 -69.86898 -1.1138766 69.595619 -1.1504276 69.467529 -22.846193 -46.584282
31965000000 -20.373808 -66.825981 -1.1140625 69.056488 -1.1195936 68.898262 -22.902273 -45.666428
31992500000 -20.565557 -66.48735 -1.1265223 68.400917 -1.1354711 68.302101 -23.464186 -47.558392
32020000000 -20.406826 -69.13739 -1.1006882 67.831276 -1.1197052 67.760628 -22.985373 -47.591728
32047500000 -20.099386 -69.110413 -1.1182687 67.270622 -1.1401318 67.432922 -22.730324 -48.020252
32075000000 -20.459038 -68.161354 -1.1336439 66.810982 -1.1493572 66.591629 -23.42787 -47.722252
32102500000 -20.163122 -69.57766 -1.1255428 66.182304 -1.1570792 66.161659 -22.70318 -48.009693
32130000000 -20.009569 -70.780579 -1.1220387 65.660484 -1.1350216 65.621567 -22.536781 -47.649891
32157500000 -20.316257 -67.37249 -1.1043092 65.100891 -1.115988 64.993904 -23.123163 -48.127357
32185000000 -20.470184 -71.431084 -1.1141964 64.615288 -1.1201591 64.41684 -22.985279 -47.961941
32212500000 -20.194216 -71.432861 -1.1013343 63.945633 -1.1251123 63.92585 -22.908596 -49.088493
32240000000 -20.389252 -70.542168 -1.1376849 63.501587 -1.1192499 63.471786 -23.075199 -50.079308
32267500000 -20.341385 -71.601883 -1.1353887 62.842358 -1.1349719 62.828888 -22.90399 -49.620487
32295000000 -20.107327 -74.229996 -1.1215055 62.337273 -1.1359502 62.18729 -22.728251 -49.261902
32322500000 -20.222219 -69.917686 -1.112857 61.76355 -1.1227477 61.667496 -22.612968 -50.831932
32350000000 -20.305265 -71.275063 -1.1167619 61.29155 -1.1353686 61.192204 -22.985266 -49.965565
32377500000 -20.249493 -74.566124 -1.146687 60.52422 -1.1214727 60.605629 -22.573074 -49.213234
32405000000 -20.333714 -72.830437 -1.1004444 60.125889 -1.1325101 60.132488 -22.630939 -50.810165
32432500000 -20.509748 -72.296242 -1.1279646 59.428123 -1.1129581 59.432381 -23.408226 -50.653721
32460000000 -20.410841 -75.019028 -1.1061205 58.90778 -1.1370876 58.832684 -22.63954 -50.638573
32487500000 -20.214769 -73.583099 -1.1054707 58.435528 -1.1269374 58.264095 -22.569498 -52.434135
32515000000 -20.524862 -74.610313 -1.1110195 57.724251 -1.1339749 57.674362 -22.986284 -50.914944
32542500000 -20.15765 -75.167534 -1.0937487 57.307774 -1.1402856 57.093616 -22.927408 -49.855373
32570000000 -20.04229 -76.453239 -1.1346276 56.714031 -1.12413 56.68642 -22.293255 -51.985039
32597500000 -20.358273 -76.838341 -1.1083761 56.263203 -1.1252902 56.036293 -22.876001 -54.304298
32625000000 -20.242733 -76.404671 -1.1230521 55.593147 -1.1274292 55.44976 -23.046055 -51.60751
32652500000 -19.845459 -75.706993 -1.1058689 55.172249 -1.1464967 55.052032 -22.495245 -52.526714
32680000000 -20.643543 -76.12603 -1.1075289 54.636673 -1.1339583 54.536953 -22.640451 -54.049782
32707500000 -20.508259 -77.540314 -1.1344703 53.692444 -1.1159101 53.849712 -22.858643 -51.92503
32735000000 -20.0564 -76.155685 -1.1235905 53.33733 -1.1418223 53.334969 -22.599728 -52.296032
32762500000 -20.221422 -79.320541 -1.1276703 52.907059 -1.1317139 52.723114 -22.453356 -53.860878
32790000000 -20.537802 -76.679276 -1.1232133 52.178181 -1.1166288 52.120033 -23.241375 -54.606663
32817500000 -20.027822 -78.420296 -1.1211456 51.648514 -1.1363161 51.545189 -22.541258 -55.471069
32845000000 -20.066126 -78.717438 -1.1163355 51.254513 -1.1239539 50.98901 -22.504595 -56.701244
32872500000 -20.545044 -79.302513 -1.1293675 50.582088 -1.1356351 50.482704 -23.025038 -57.516697
32900000000 -20.238369 -78.767738 -1.1239922 50.064121 -1.133379 49.9744 -22.690071 -54.050522
32927500000 -19.903982 -80.186409 -1.1335198 49.511528 -1.1392668 49.301609 -22.441124 -56.54039
32955000000 -20.606264 -80.232903 -1.1315705 48.967728 -1.1401509 48.920803 -22.636185 -55.854919
32982500000 -20.147169 -79.399277 -1.1193287 48.231182 -1.1170884 48.244987 -22.879278 -54.979485
33010000000 -19.994223 -79.587173 -1.1161942 47.827908 -1.1236328 47.650867 -22.373375 -56.95377
33037500000 -20.533812 -82.756836 -1.1241381 47.329899 -1.1302142 47.233948 -22.886675 -55.867779
33065000000 -20.484779 -81.970726 -1.1240985 46.505836 -1.1304702 46.608681 -22.85626 -58.084435
33092500000 -20.244511 -79.872887 -1.1205559 46.014668 -1.1155145 46.039669 -22.52434 -58.108963
33120000000 -20.293884 -82.938675 -1.0974562 45.554798 -1.1412002 45.415184 -22.326162 -57.649597
33147500000 -20.614037 -83.755928 -1.117608 44.957386 -1.1191829 44.827705 -23.075621 -59.249302
33175000000 -20.190695 -79.107689 -1.1252726 44.371311 -1.1090565 44.277428 -22.139931 -59.595955
33202500000 -20.229412 -82.845291 -1.1211737 43.898876 -1.141955 43.798584 -22.542435 -58.533936
33230000000 -20.586475 -84.620163 -1.1122009 43.435062 -1.1128677 43.264896 -23.088554 -59.894142
33257500000 -20.399658 -81.835793 -1.1087106 42.535225 -1.1176733 42.737549 -22.818962 -59.783943
33285000000 -20.264166 -83.163971 -1.1269609 42.153629 -1.14029 42.052063 -22.390255 -57.679691
33312500000 -20.63839 -84.795525 -1.1196761 41.436256 -1.1376307 41.410046 -22.612659 -59.991409
33340000000 -20.712679 -84.471916 -1.0927148 40.89753 -1.1354663 40.908344 -22.820364 -61.56982
33367500000 -20.585964 -83.612534 -1.12456 40.582207 -1.1053761 40.339241 -22.628771 -59.719624
33395000000 -20.302361 -87.189232 -1.1321099 39.864384 -1.1326313 39.938591 -22.771261 -61.482182
33422500000 -20.72267 -84.674538 -1.1095464 39.398777 -1.1206751 39.31963 -22.649082 -60.348068
33450000000 -20.488623 -84.364044 -1.1056505 38.823887 -1.1554884 38.722939 -22.944344 -59.73764
33477500000 -20.345871 -86.278587 -1.1342249 38.1464 -1.1245201 38.059711 -22.592575 -61.746197
33505000000 -20.815247 -86.039429 -1.143162 37.736034 -1.149422 37.454079 -23.196362 -64.204346
33532500000 -20.803169 -83.519287 -1.1185553 37.159893 -1.1280495 37.125523 -23.093607 -59.98003
33560000000 -20.455564 -84.72451 -1.1192962 36.45332 -1.1371225 36.452396 -22.511185 -62.212425
33587500000 -20.597538 -89.133705 -1.1198721 36.098595 -1.1084543 35.997406 -22.691778 -63.664085
33615000000 -20.889845 -85.900269 -1.1172943 35.443771 -1.1337928 35.257156 -22.751104 -62.181969
33642500000 -20.450529 -85.950317 -1.1226474 34.783867 -1.1556346 34.662022 -22.646029 -63.241589
33670000000 -20.525303 -87.284096 -1.1125804 34.370781 -1.1306971 34.17841 -23.051582 -62.130093
33697500000 -21.049328 -86.857552 -1.1385993 33.722359 -1.1410789 33.589428 -23.207214 -60.617336
33725000000 -20.47176 -86.62825 -1.1278374 33.199036 -1.1484137 33.012108 -22.964849 -63.888981
33752500000 -20.791285 -87.025711 -1.141114 32.591839 -1.134553 32.542805 -23.1835 -60.901165
33780000000 -20.808443 -89.653641 -1.1186364 32.134666 -1.1337692 32.008575 -22.81303 -63.079388
33807500000 -20.996784 -85.72715 -1.1371044 31.426899 -1.1408864 31.278292 -22.926361 -63.80418
33835000000 -20.586565 -87.21611 -1.1552472 30.848972 -1.1483762 30.786303 -23.131603 -65.156143
33862500000 -21.008369 -88.733376 -1.1259265 30.276756 -1.15365 30.338209 -22.799177 -62.780327
33890000000 -20.878738 -87.757408 -1.1214787 29.747404 -1.1539593 29.812243 -23.049849 -63.509209
33917500000 -20.765347 -86.727531 -1.1259875 29.250092 -1.1375564 29.277586 -22.804998 -64.593132
33945000000 -20.658148 -89.703079 -1.1582499 28.660595 -1.1273752 28.560415 -23.053221 -61.330559
33972500000 -21.190866 -88.350388 -1.1318026 28.089867 -1.1469588 28.043604 -22.99931 -64.392197
34000000000 -20.846411 -86.737183 -1.1288856 27.573112 -1.1387891 27.676579 -22.896799 -65.436493
34027500000 -20.705715 -88.466606 -1.1305077 27.176533 -1.1394721 26.945171 -23.609053 -63.486679
34055000000 -21.092976 -91.90274 -1.1410695 26.366547 -1.1301662 26.265696 -23.280125 -64.616997
34082500000 -21.110933 -88.07692 -1.1670116 26.175074 -1.1447952 25.776117 -22.760864 -64.772873
34110000000 -20.918816 -88.119255 -1.1452304 25.396612 -1.1453508 25.325369 -23.279797 -64.930077
34137500000 -21.581545 -90.899353 -1.1295044 24.934124 -1.1476324 24.781063 -22.860872 -64.569527
34165000000 -21.353176 -88.570129 -1.1393853 24.149931 -1.146799 24.299728 -22.775478 -66.775314
34192500000 -21.4044 -89.861122 -1.1209449 23.763241 -1.1548413 23.633268 -23.316257 -64.819763
34220000000 -21.371935 -92.155655 -1.1118658 23.246717 -1.1322497 23.129143 -23.138578 -64.234833
34247500000 -21.363855 -91.508072 -1.1160804 22.724333 -1.1598575 22.500669 -22.828167 -66.484253
34275000000 -21.240286 -89.449226 -1.1280676 22.130951 -1.1329147 22.105551 -22.871058 -66.732033
34302500000 -21.436573 -91.906723 -1.1207596 21.399406 -1.1496223 21.182972 -23.527536 -64.735596
34330000000 -21.27706 -91.70948 -1.1324493 20.94672 -1.1261257 20.797861 -22.744905 -65.444221
34357500000 -21.440691 -88.536156 -1.1305574 20.458237 -1.1232573 20.410847 -23.163307 -64.829964
34385000000 -21.497667 -92.115334 -1.1326656 19.91275 -1.1259114 19.87993 -23.511177 -66.806023
34412500000 -21.646149 -92.933823 -1.1254565 19.193121 -1.1160239 19.228342 -23.108942 -65.18235
34440000000 -21.764894 -91.041595 -1.1269263 18.649702 -1.1480093 18.640881 -23.198757 -66.769226
34467500000 -22.051493 -93.759178 -1.13691 18.096107 -1.1318872 18.020359 -23.760763 -64.535385
34495000000 -21.508142 -92.826675 -1.1197304 17.631578 -1.1347574 17.639585 -23.598642 -64.072441
34522500000 -21.950676 -95.414528 -1.1340394 16.991158 -1.1514415 16.905281 -22.768469 -65.639633
34550000000 -21.992102 -90.76709 -1.1138827 16.449457 -1.137954 16.472115 -23.585178 -66.500214
34577500000 -22.007135 -94.549133 -1.1188414 16.139622 -1.12204 15.891955 -24.056698 -64.592857
34605000000 -21.860138 -95.768539 -1.1276041 15.311191 -1.1387457 15.192812 -22.942266 -65.383957
34632500000 -22.105251 -93.645172 -1.1271735 14.770341 -1.1445849 14.641334 -23.657686 -67.791237
34660000000 -22.091089 -93.258705 -1.1273152 14.150915 -1.1147392 14.170763 -23.892681 -66.0327
34687500000 -21.914909 -95.148994 -1.1317192 13.613451 -1.1152327 13.466322 -23.200275 -66.467751
34715000000 -22.352358 -94.770988 -1.1331199 13.192913 -1.1293154 13.010961 -23.409079 -69.854507
34742500000 -22.27359 -95.588959 -1.1444262 12.578834 -1.1326629 12.5926 -24.345003 -69.933594
34770000000 -22.536615 -96.581192 -1.1304796 11.852938 -1.1346569 11.802763 -23.604591 -64.193962
34797500000 -22.678381 -93.396042 -1.1346401 11.448952 -1.1319151 11.375922 -23.369768 -70.844955
34825000000 -22.629639 -93.092636 -1.1055815 10.924443 -1.147329 10.649705 -24.460226 -69.051338
34852500000 -22.395288 -96.642395 -1.1034937 10.154002 -1.1254659 10.139359 -24.133272 -65.237061
34880000000 -22.83914 -95.868507 -1.1393237 9.7380476 -1.1381902 9.5475025 -23.154364 -68.925926
34907500000 -22.770796 -95.320007 -1.1026602 9.0940742 -1.1224855 9.038065 -24.15811 -70.820679
34935000000 -22.994101 -95.712029 -1.1265643 8.6936169 -1.115164 8.6366959 -24.69585 -65.62043
34962500000 -22.778812 -95.471649 -1.1178236 7.8551097 -1.1474186 7.9448624 -23.611841 -68.288383
34990000000 -22.989532 -95.326134 -1.1372856 7.5232348 -1.1307831 7.4717431 -24.588985 -71.941978
35017500000 -23.36981 -94.252022 -1.1208152 6.9825745 -1.1135725 6.777524 -24.834866 -67.411674
35045000000 -23.694378 -97.837311 -1.1215605 6.3870988 -1.1096256 6.2380342 -23.990583 -67.020836
35072500000 -23.26507 -93.69603 -1.1369816 5.7341075 -1.1277108 5.7325072 -23.973612 -70.264519
35100000000 -23.75275 -100.03493 -1.1260875 5.2430296 -1.1340649 5.1676292 -25.039364 -65.155426
35127500000 -23.368715 -95.699104 -1.0989321 4.7471375 -1.1251217 4.4569421 -24.742172 -65.132805
35155000000 -23.462534 -97.120575 -1.111285 4.2528811 -1.1319033 4.0240717 -23.987646 -67.772575
35182500000 -24.100142 -95.683624 -1.1340061 3.591068 -1.133538 3.4541094 -24.764759 -71.322685
35210000000 -23.687857 -101.36475 -1.1002543 3.0742688 -1.1162324 2.8371141 -24.78027 -64.889015
35237500000 -23.923546 -95.36396 -1.0950752 2.2658687 -1.1163135 2.2125471 -24.235447 -68.195267
35265000000 -23.902924 -100.93456 -1.1479197 1.7801548 -1.1429316 1.865558 -24.94566 -64.855774
35292500000 -24.200417 -97.531456 -1.1035795 1.1706111 -1.1177112 1.0863576 -25.229277 -66.667572
35320000000 -24.958601 -97.865578 -1.1209995 0.69930792 -1.1227393 0.5575884 -23.920702 -66.903191
35347500000 -24.061556 -96.287453 -1.1407087 0.17221552 -1.1414793 -0.10151019 -24.857313 -67.402382
35375000000 -24.830372 -99.536995 -1.1164101 -0.40078625 -1.1418406 -0.5019331 -25.713787 -66.730766
35402500000 -24.569292 -96.408623 -1.1155359 -1.2048407 -1.140635 -1.1624873 -24.670742 -63.929745
35430000000 -24.867905 -94.694931 -1.133342 -1.5256596 -1.1284993 -1.7694253 -24.618137 -67.433258
35457500000 -24.896135 -98.913536 -1.1114258 -2.0735145 -1.1667691 -2.2014217 -25.497368 -65.835754
35485000000 -24.707792 -94.578316 -1.1333511 -2.7208047 -1.1441786 -2.6937258 -25.738646 -62.110245
35512500000 -24.919075 -94.743538 -1.1318606 -3.3147383 -1.172142 -3.4336081 -24.692387 -68.728493
35540000000 -24.969976 -94.470566 -1.1537347 -3.7630603 -1.1550841 -3.8218167 -25.743097 -66.74221
35567500000 -24.995548 -104.48232 -1.1275675 -4.0749493 -1.1238091 -4.3604727 -24.666597 -61.363384
35595000000 -25.032539 -95.762466 -1.1104212 -4.8027949 -1.1364278 -5.2050872 -24.432901 -66.191818
35622500000 -24.837488 -94.199661 -1.152987 -5.5505242 -1.1614188 -5.3683476 -25.635777 -69.807953
35650000000 -24.956392 -97.876297 -1.1479833 -6.0971513 -1.142702 -6.0392179 -26.205009 -65.29068
35677500000 -25.47506 -95.424629 -1.1029071 -6.4537773 -1.1403772 -6.498322 -24.943796 -65.304626
35705000000 -25.261669 -93.320961 -1.1653988 -7.1335878 -1.1529708 -7.2111249 -25.132988 -68.376587
35732500000 -25.456148 -99.780693 -1.1555626 -7.6878748 -1.1445063 -7.655539 -25.922747 -70.904701
35760000000 -25.276535 -95.880821 -1.0913894 -8.2773628 -1.1210829 -8.3195572 -25.77696 -63.686741
35787500000 -26.076984 -91.539825 -1.1202027 -8.978466 -1.1529953 -8.9655371 -25.066931 -69.837257
35815000000 -25.096804 -98.066528 -1.1387231 -9.3528824 -1.1783251 -9.4576626 -26.384916 -67.232956
35842500000 -26.19746 -99.381752 -1.145888 -9.7090912 -1.1103606 -10.064045 -25.729044 -59.751896
35870000000 -26.239498 -89.816322 -1.1217575 -10.647003 -1.1486372 -10.502268 -25.436796 -62.419434
35897500000 -25.592506 -90.641396 -1.1582816 -11.099423 -1.1566403 -11.335315 -26.27438 -64.741829
35925000000 -25.985985 -97.735237 -1.112927 -11.729757 -1.0974462 -11.740927 -26.359594 -70.403198
35952500000 -26.525318 -92.988647 -1.105497 -12.323104 -1.1278273 -12.002335 -26.009382 -64.600571
35980000000 -26.175066 -88.595718 -1.1380792 -12.978214 -1.1224118 -13.007627 -26.041386 -64.622757
36007500000 -26.319376 -98.591919 -1.1228848 -13.294184 -1.1248162 -13.176741 -26.719912 -65.880836
36035000000 -26.931576 -88.323143 -1.0863179 -14.056841 -1.1300251 -14.146331 -26.196152 -65.853806
36062500000 -27.075506 -86.832176 -1.1113665 -14.521694 -1.1662582 -14.525137 -26.454056 -63.696678
36090000000 -26.667513 -89.07914 -1.1370929 -15.051438 -1.1461353 -15.063932 -26.486601 -64.376907
36117500000 -26.720842 -95.549515 -1.1055912 -15.523114 -1.1158288 -15.597795 -26.576031 -60.163292
36145000000 -27.168234 -84.483513 -1.137516 -16.199434 -1.1271085 -16.290363 -26.337053 -67.514114
36172500000 -27.17355 -89.414497 -1.1252308 -16.892572 -1.1218578 -16.974388 -26.726961 -67.786018
36200000000 -27.259041 -92.347527 -1.1259905 -17.509491 -1.1363672 -17.175562 -27.370821 -62.804497
36227500000 -27.412436 -87.602791 -1.080835 -17.976675 -1.1605511 -18.05723 -26.689604 -61.778202
36255000000 -27.217522 -77.334648 -1.1260478 -18.594221 -1.1403008 -18.560307 -27.877411 -67.346024
36282500000 -27.151152 -95.66552 -1.1358891 -18.783506 -1.1282687 -19.033987 -26.845644 -62.663757
36310000000 -27.888039 -83.318001 -1.1096152 -19.620975 -1.1177747 -19.688206 -28.516497 -58.918156
36337500000 -27.327595 -74.390144 -1.1312648 -20.261801 -1.1252288 -20.423676 -26.983898 -61.25449
36365000000 -26.929346 -83.686226 -1.1208895 -20.5924 -1.1353389 -20.862507 -27.397543 -60.933067
36392500000 -28.235086 -84.339355 -1.1098068 -21.263947 -1.1322281 -21.293259 -28.104088 -58.17466
36420000000 -28.098064 -67.602211 -1.1431128 -21.941711 -1.1237119 -21.967695 -27.600624 -54.127834
36447500000 -27.345377 -84.914482 -1.1268736 -22.406342 -1.1381593 -22.491266 -27.95499 -60.630749
36475000000 -26.858742 -83.18457 -1.1199702 -23.152325 -1.1322691 -23.09403 -28.92783 -57.013432
36502500000 -29.583948 -73.115601 -1.1251811 -23.591936 -1.1286201 -23.805014 -27.030632 -55.320194
36530000000 -27.796453 -74.977837 -1.1358171 -24.246906 -1.168831 -24.170998 -26.849417 -56.670048
36557500000 -26.838774 -84.28363 -1.1039743 -24.566278 -1.1455283 -24.867352 -27.870121 -54.640331
36585000000 -27.96689 -65.305923 -1.124226 -25.09276 -1.1481738 -25.32535 -27.610149 -49.48349
36612500000 -29.390675 -62.912285 -1.1358739 -25.959776 -1.1270393 -25.885443 -27.380207 -55.756912
36640000000 -26.790548 -81.945717 -1.1397306 -26.603945 -1.1463948 -26.466599 -28.118505 -53.706253
36667500000 -27.944147 -68.360588 -1.1881109 -26.985487 -1.1562339 -27.281021 -28.473282 -51.269104
36695000000 -29.051689 -64.948402 -1.1309564 -27.75119 -1.1414938 -27.542086 -26.459976 -50.72963
36722500000 -26.830288 -70.836845 -1.1501256 -28.086163 -1.1052386 -28.442327 -27.258038 -50.996078
36750000000 -26.835487 -68.385689 -1.1485064 -28.808434 -1.1703436 -28.861372 -27.600008 -53.416012
36777500000 -28.827646 -53.42675 -1.1452841 -29.188349 -1.1126443 -29.422106 -27.760542 -46.412308
36805000000 -26.888731 -66.386597 -1.1384015 -29.704557 -1.1817385 -29.971495 -26.830553 -47.177006
36832500000 -26.201147 -76.677231 -1.1448612 -30.483572 -1.1579081 -30.484692 -28.550371 -47.370056
36860000000 -28.291016 -51.593246 -1.1363934 -30.861349 -1.1282885 -31.28824 -27.328434 -46.533855
36887500000 -27.188662 -59.421806 -1.1767724 -31.347618 -1.1653366 -31.340385 -27.140396 -40.4384
36915000000 -26.036779 -66.609467 -1.159179 -32.024185 -1.1556877 -32.141655 -28.155394 -44.944424
36942500000 -28.973917 -52.702526 -1.1654192 -32.811726 -1.1763294 -32.718067 -28.097166 -39.438496
36970000000 -27.153816 -57.770096 -1.1156594 -33.325714 -1.1467279 -33.359337 -27.504597 -37.669792
36997500000 -26.78314 -58.675827 -1.1625608 -33.776287 -1.145314 -33.698483 -28.09716 -37.937489
37025000000 -27.268822 -53.997757 -1.1805902 -34.586102 -1.1430825 -34.619122 -27.774624 -47.479515
37052500000 -28.493921 -46.168777 -1.16045 -34.996166 -1.1693602 -34.996223 -27.410719 -39.254795
37080000000 -25.362921 -60.578033 -1.1676459 -35.58952 -1.151263 -35.544048 -27.427404 -32.143688
37107500000 -26.747355 -49.750454 -1.1523669 -35.980129 -1.187377 -36.16481 -27.781487 -38.720699
37135000000 -28.947216 -51.179024 -1.1845051 -36.658657 -1.1615176 -36.701744 -26.027176 -36.093822
37162500000 -25.439053 -54.510582 -1.151017 -37.123764 -1.1338391 -37.347038 -26.546375 -34.178749
37190000000 -25.742561 -59.145962 -1.1498797 -37.825703 -1.1689712 -38.03619 -27.338402 -34.243053
37217500000 -27.951517 -46.469501 -1.1502731 -38.284229 -1.2018635 -38.214668 -26.557096 -33.422775
37245000000 -26.396494 -55.275723 -1.1602731 -38.857895 -1.1558985 -38.935955 -26.576876 -25.771965
37272500000 -25.307901 -55.657974 -1.1604557 -39.612988 -1.177955 -39.771496 -27.162979 -32.780563
37300000000 -27.364275 -44.140274 -1.1927937 -39.950787 -1.1877455 -40.141434 -26.65147 -30.316898
37327500000 -26.194365 -50.210686 -1.1878183 -40.488224 -1.1935961 -40.585484 -26.323008 -23.114504
37355000000 -25.294712 -51.615776 -1.1923672 -41.11393 -1.2041616 -41.253952 -25.848684 -32.435699
37382500000 -26.559948 -42.845058 -1.2075828 -41.64127 -1.2316734 -41.805622 -26.430367 -29.340597
37410000000 -26.716219 -54.102608 -1.1746616 -41.981068 -1.192095 -42.48167 -25.858936 -26.847132
37437500000 -24.836035 -48.315517 -1.1839125 -42.740223 -1.1796557 -42.860661 -25.514429 -25.844091
37465000000 -26.836699 -45.8936 -1.2155845 -43.452789 -1.1852716 -43.612202 -24.874147 -31.179192
37492500000 -27.324923 -49.587307 -1.1818041 -43.822819 -1.2163681 -44.099316 -25.448217 -25.340023
37520000000 -25.470972 -46.939091 -1.1956621 -44.248768 -1.2035038 -44.279861 -25.470812 -25.554502
37547500000 -25.910711 -47.760784 -1.1802093 -44.95805 -1.189918 -45.166912 -25.026768 -29.085487
37575000000 -26.971266 -45.171738 -1.1687924 -45.439922 -1.1778382 -45.472725 -25.497074 -26.889948
37602500000 -25.353661 -45.473473 -1.214852 -45.974117 -1.1768113 -46.12249 -24.58724 -24.212223
37630000000 -25.136753 -42.181267 -1.1659703 -46.633732 -1.1936595 -46.903996 -24.785774 -29.458136
37657500000 -26.523651 -42.58675 -1.2094866 -47.184341 -1.2212626 -47.217728 -25.195375 -23.435061
37685000000 -25.676121 -41.813396 -1.2077657 -47.683067 -1.2027656 -47.81686 -24.62114 -22.63625
37712500000 -24.909184 -39.367798 -1.1926224 -48.329994 -1.2028865 -48.494198 -24.023535 -28.104082
37740000000 -25.931292 -35.361725 -1.1995714 -48.643486 -1.2140491 -48.763966 -24.793695 -23.946478
37767500000 -25.11212 -47.101105 -1.1999713 -49.379189 -1.2067933 -49.579704 -25.267302 -25.983299
37795000000 -24.523243 -38.940483 -1.1985765 -49.883598 -1.193067 -49.873436 -24.04084 -20.4673
37822500000 -25.193295 -34.959698 -1.1801461 -50.566566 -1.1813426 -50.738907 -24.226686 -29.955297
37850000000 -25.655657 -40.500786 -1.1875968 -51.13438 -1.2041634 -51.143394 -24.636612 -23.321287
37877500000 -24.563435 -37.91354 -1.1895214 -51.461422 -1.2140813 -51.816048 -24.287752 -22.222382
37905000000 -24.879568 -33.872437 -1.2101905 -52.247654 -1.1909779 -52.32901 -24.363085 -26.301455
37932500000 -24.790514 -38.624264 -1.1961197 -52.827557 -1.1892912 -52.750481 -24.174845 -23.593174
37960000000 -23.761639 -38.660748 -1.2006477 -53.174278 -1.2071651 -53.392632 -24.155476 -22.673319
37987500000 -25.086138 -39.979477 -1.20126 -53.601971 -1.2369306 -53.902309 -23.41135 -24.538164
38015000000 -25.269424 -36.763569 -1.1865057 -54.47089 -1.2251163 -54.478741 -23.948935 -23.551556
38042500000 -24.042469 -39.021679 -1.2131454 -54.951622 -1.255704 -54.928619 -23.566385 -21.717745
38070000000 -24.044292 -31.39674 -1.2155941 -55.562069 -1.2139101 -55.543385 -23.02351 -19.633223
38097500000 -24.439913 -38.384354 -1.2072389 -55.905632 -1.2127936 -55.978439 -23.65379 -25.248171
38125000000 -24.019621 -33.337902 -1.2081182 -56.486927 -1.2249172 -56.717384 -23.712883 -24.117275
38152500000 -23.758146 -34.551842 -1.2105069 -57.135265 -1.2043144 -57.132633 -22.916895 -24.097544
38180000000 -24.034777 -38.216011 -1.2059389 -57.67638 -1.2022339 -57.650764 -23.344385 -20.348986
38207500000 -23.331305 -31.044111 -1.163381 -58.205868 -1.1996775 -58.077019 -23.116898 -24.844929
38235000000 -23.451799 -35.109688 -1.2072704 -58.813797 -1.2384559 -59.018402 -23.129202 -22.804964
38262500000 -23.181219 -32.786545 -1.2177967 -59.414642 -1.2399045 -59.613979 -23.106724 -19.945017
38290000000 -23.520447 -32.722233 -1.1956308 -60.034592 -1.1669774 -59.94928 -22.858398 -24.822262
38317500000 -22.575634 -35.17041 -1.2044253 -60.747169 -1.2218517 -60.800957 -23.326769 -19.800417
38345000000 -23.187853 -30.467699 -1.2165884 -60.852886 -1.2181756 -61.108303 -22.574568 -23.772888
38372500000 -23.160622 -33.977978 -1.1909099 -61.573185 -1.2008156 -61.57225 -22.763205 -23.675905
38400000000 -22.078468 -28.303219 -1.1852971 -62.196442 -1.2304921 -62.305805 -22.256002 -23.337044
38427500000 -22.814953 -35.459633 -1.2414865 -63.016788 -1.2292191 -63.086777 -22.23177 -23.179777
38455000000 -22.758108 -35.111176 -1.2043892 -63.016247 -1.2269976 -63.074272 -22.2526 -24.303673
38482500000 -22.610514 -33.355698 -1.1966622 -63.990021 -1.2340521 -63.936226 -22.501997 -22.775188
38510000000 -22.175682 -33.477501 -1.2299604 -64.659599 -1.2472373 -64.54998 -22.313749 -22.630684
38537500000 -22.03978 -33.873798 -1.233183 -65.034004 -1.2395487 -65.178246 -22.071342 -24.026411
38565000000 -21.626789 -33.24054 -1.2239845 -65.521713 -1.2161441 -65.732307 -22.052834 -28.234888
38592500000 -22.169189 -34.93594 -1.2020383 -65.973679 -1.2579063 -66.259888 -21.979473 -24.163671
38620000000 -21.695986 -35.309357 -1.2309176 -66.486786 -1.238763 -66.568214 -22.384701 -27.54941
38647500000 -22.026524 -30.445675 -1.1953782 -67.20517 -1.1794423 -67.303719 -21.921469 -26.835499
38675000000 -20.897787 -33.752693 -1.1883743 -68.03492 -1.2209166 -68.072731 -22.05319 -26.349575
38702500000 -21.757637 -35.495884 -1.2165939 -68.325089 -1.2593646 -68.595161 -21.960161 -24.873064
38730000000 -21.727976 -33.909065 -1.2063086 -68.562393 -1.2047007 -69.100822 -21.47098 -25.033463
38757500000 -20.892973 -33.374729 -1.1788741 -69.654922 -1.1989709 -69.726517 -21.463831 -26.429646
38785000000 -20.29685 -38.131535 -1.2514391 -70.001869 -1.2499266 -70.086601 -21.252943 -22.957525
38812500000 -21.898819 -36.08918 -1.1728249 -70.169548 -1.193683 -70.464104 -21.942369 -23.323673
38840000000 -20.772234 -31.084614 -1.1810097 -71.208885 -1.2326951 -71.38562 -21.904703 -26.738272
38867500000 -21.047295 -33.697552 -1.2708862 -71.823318 -1.2218261 -71.988091 -21.615778 -23.2838
38895000000 -21.240234 -36.154217 -1.2052624 -71.998604 -1.2179043 -72.134888 -21.576958 -21.431736
38922500000 -20.826437 -35.758915 -1.2016085 -72.903175 -1.1783112 -72.856819 -21.31543 -28.409325
38950000000 -20.285589 -34.271976 -1.2205654 -73.804047 -1.2308574 -73.646217 -21.251963 -25.425848
38977500000 -20.728071 -35.543262 -1.2309148 -73.677994 -1.2199261 -74.103943 -21.552895 -20.872805
39005000000 -21.254879 -35.552101 -1.2031299 -74.454849 -1.2131362 -74.292824 -21.528559 -28.963718
39032500000 -20.415733 -33.848438 -1.2394588 -75.241562 -1.2239742 -74.908745 -20.905792 -27.332699
39060000000 -20.505814 -39.125889 -1.2156842 -75.531219 -1.2467519 -75.988029 -21.227238 -22.079409
39087500000 -20.598757 -41.07996 -1.2445263 -76.13208 -1.214552 -76.313873 -21.163504 -28.716854
39115000000 -20.635576 -32.17189 -1.1845187 -76.53009 -1.2255189 -76.916389 -21.058647 -28.375214
39142500000 -20.134411 -38.956612 -1.2139119 -77.361893 -1.2617201 -77.331718 -21.65774 -24.170122
39170000000 -20.366365 -43.355915 -1.2218069 -77.759102 -1.1844201 -77.722366 -20.694538 -25.389912
39197500000 -19.767128 -36.608921 -1.1970198 -78.331902 -1.1849982 -78.558212 -20.55872 -30.682833
39225000000 -20.103292 -37.008385 -1.2543316 -79.40213 -1.1886133 -79.24472 -20.648384 -25.594656
39252500000 -20.010777 -42.654152 -1.2214731 -79.411346 -1.2180334 -79.636757 -20.461727 -25.91815
39280000000 -19.799953 -35.187031 -1.237173 -80.160004 -1.2291455 -80.167328 -20.182947 -26.843966
39307500000 -19.688393 -31.424435 -1.2225895 -80.741516 -1.1935235 -80.852692 -20.297876 -28.055811
39335000000 -19.716244 -40.854946 -1.2463349 -81.048027 -1.2818489 -81.162819 -20.987452 -24.058165
39362500000 -19.665941 -37.598843 -1.2281429 -81.975433 -1.2991924 -81.969864 -20.505083 -26.489515
39390000000 -19.97858 -34.112469 -1.2376269 -82.284958 -1.2138646 -82.425751 -20.326464 -29.068186
39417500000 -19.470715 -38.898174 -1.2704023 -83.043259 -1.2562336 -83.150131 -20.729622 -24.695021
39445000000 -19.093433 -42.943092 -1.2582552 -83.712036 -1.2001637 -83.219551 -20.286077 -25.550732
39472500000 -19.552502 -30.117504 -1.1980386 -83.952286 -1.2753838 -84.179955 -20.185257 -28.298918
39500000000 -19.49172 -40.578106 -1.2189026 -84.527512 -1.2200292 -84.589767 -20.854095 -27.194893
39527500000 -18.817051 -42.067566 -1.2722342 -85.027763 -1.2661229 -85.430145 -20.577906 -27.770124
39555000000 -19.997072 -38.4034 -1.2861978 -85.721046 -1.2400604 -85.655594 -20.082365 -31.443863
39582500000 -18.918566 -42.042313 -1.240676 -86.267647 -1.1964811 -86.490257 -20.161472 -31.631845
39610000000 -18.844748 -42.806915 -1.2247137 -86.847916 -1.2648925 -86.853806 -20.026285 -26.614069
39637500000 -19.089796 -41.800793 -1.2524892 -87.304558 -1.255977 -87.29361 -19.816212 -27.649141
39665000000 -19.438284 -38.777267 -1.2125547 -88.127838 -1.2198099 -88.107246 -20.153589 -30.222784
39692500000 -18.327271 -44.905602 -1.279997 -88.481781 -1.233597 -88.710052 -20.392126 -30.514618
39720000000 -19.21142 -40.088055 -1.2586361 -89.10627 -1.316828 -89.066521 -19.845058 -27.563684
39747500000 -19.143011 -40.291042 -1.224655 -89.723541 -1.2210613 -89.666092 -19.682512 -32.225426
39775000000 -18.654823 -46.496811 -1.2371272 -90.229156 -1.2551649 -90.164772 -20.25087 -30.78928
39802500000 -18.432032 -41.872097 -1.2999518 -90.721199 -1.2203245 -90.73188 -20.062155 -29.641529
39830000000 -19.5763 -40.561974 -1.257702 -91.267723 -1.2357038 -91.199265 -19.202936 -31.86504
39857500000 -18.247988 -44.479378 -1.258864 -91.977295 -1.2656261 -91.971802 -20.012867 -29.822279
39885000000 -18.259857 -43.816368 -1.2942398 -92.535393 -1.2506591 -92.325607 -19.867907 -29.882942
39912500000 -19.422735 -44.124195 -1.2480867 -92.844208 -1.2235126 -93.070076 -19.253939 -31.530479
39940000000 -18.650089 -45.348248 -1.2281562 -93.655746 -1.1972831 -93.621048 -19.291044 -32.011024
39967500000 -18.05858 -44.709328 -1.2562301 -94.209457 -1.2818757 -94.136047 -19.762917 -28.592056
39995000000 -19.040001 -45.850395 -1.2456969 -94.450325 -1.2615172 -94.772499 -19.390732 -28.615885
40022500000 -18.982506 -43.99588 -1.2254987 -95.064537 -1.2347867 -95.151779 -19.230005 -35.330761
40050000000 -17.650667 -44.546257 -1.2566428 -95.607353 -1.2636449 -95.921608 -19.334478 -30.020044
40077500000 -18.593529 -45.374687 -1.3124361 -96.389053 -1.2735966 -96.204613 -19.033443 -31.032614
40105000000 -18.575205 -45.050148 -1.2123182 -96.94664 -1.2394258 -96.850525 -19.124554 -32.75238
40132500000 -17.947538 -44.1637 -1.2670561 -97.273155 -1.2493362 -97.182007 -19.38978 -31.319214
40160000000 -17.953655 -44.707664 -1.3117043 -97.902222 -1.2701051 -98.044075 -19.530352 -32.690434
40187500000 -18.869776 -50.944355 -1.2514788 -98.476753 -1.2285756 -98.494415 -18.373863 -34.81147
40215000000 -17.701719 -46.01619 -1.2797078 -99.0224 -1.247849 -99.148987 -19.235052 -33.289818
40242500000 -17.750244 -44.464485 -1.2708272 -99.602318 -1.2792643 -99.901215 -19.350353 -32.591721
40270000000 -18.843451 -49.33897 -1.2070308 -100.07565 -1.2222064 -100.18845 -18.877985 -35.212288
40297500000 -18.079712 -48.787292 -1.2416767 -100.6461 -1.2716205 -100.63441 -18.759129 -36.605209
40325000000 -17.702291 -45.557449 -1.2625276 -101.34606 -1.2693398 -101.54362 -19.007824 -35.143848
40352500000 -18.077765 -51.804325 -1.2498647 -102.00982 -1.2747397 -101.8941 -18.779995 -34.522099
40380000000 -18.084269 -50.882278 -1.2170073 -102.47859 -1.2655125 -102.59158 -18.754068 -37.508095
40407500000 -17.439957 -45.919849 -1.2323416 -102.94681 -1.2692497 -102.91928 -18.994541 -34.025051
40435000000 -18.149914 -50.491077 -1.2480463 -103.40447 -1.2709336 -103.70783 -18.79941 -33.590794
40462500000 -17.616434 -53.39801 -1.2440526 -103.9715 -1.2762207 -104.13089 -18.315584 -35.937286
40490000000 -17.648001 -47.748882 -1.2477885 -104.57694 -1.2574311 -104.54085 -18.716297 -37.436237
40517500000 -17.388239 -51.253948 -1.2451907 -105.16396 -1.2717482 -104.9602 -18.849695 -34.608738
40545000000 -17.818432 -55.086147 -1.2568504 -105.69682 -1.2793188 -105.71707 -18.286375 -37.5509
40572500000 -17.564734 -51.434544 -1.2884784 -105.97176 -1.2449687 -106.24368 -18.511225 -39.427166
40600000000 -17.834265 -51.229542 -1.3009168 -106.73189 -1.3040123 -106.89266 -19.094765 -37.12999
40627500000 -17.269165 -56.79229 -1.2285053 -107.33282 -1.2596309 -107.46428 -18.263393 -38.593536
40655000000 -17.411463 -53.263725 -1.2293159 -107.91164 -1.2579451 -107.96828 -18.273643 -39.053566
40682500000 -17.703857 -52.72607 -1.2628326 -108.59418 -1.2536212 -108.56888 -18.839893 -36.83987
40710000000 -17.293486 -56.177505 -1.2555838 -108.88699 -1.2591798 -109.00145 -18.54812 -39.10582
40737500000 -17.706516 -55.051907 -1.3006841 -109.52106 -1.2823595 -109.73699 -18.390881 -39.699978
40765000000 -17.36595 -52.116016 -1.2623487 -110.15016 -1.2608641 -110.25404 -18.416805 -39.862026
40792500000 -17.206295 -54.208904 -1.2428225 -110.48224 -1.2098485 -110.94893 -18.471041 -38.968098
40820000000 -16.959845 -56.555332 -1.2498765 -111.29787 -1.2657911 -111.1176 -18.113781 -41.643051
40847500000 -17.520151 -52.011333 -1.2288693 -111.64429 -1.3005563 -111.92674 -18.256609 -42.754253
40875000000 -17.093178 -55.577175 -1.274556 -112.41866 -1.2587433 -112.24263 -18.691418 -41.215096
40902500000 -17.515877 -56.329376 -1.2584953 -112.92175 -1.3027865 -112.80687 -18.372927 -40.800175
40930000000 -17.293831 -56.971901 -1.2444435 -113.2005 -1.259797 -113.55054 -17.936865 -43.968369
40957500000 -17.542608 -56.636703 -1.2140738 -113.61775 -1.25485 -114.13636 -18.333992 -42.738605
40985000000 -16.81238 -58.130383 -1.2044736 -114.49479 -1.2372301 -114.94946 -17.907982 -43.336319
41012500000 -17.135918 -56.48621 -1.2996774 -115.03177 -1.2931529 -115.53933 -18.170624 -44.033375
41040000000 -17.033255 -56.012039 -1.264953 -115.94593 -1.2472821 -115.26152 -18.395845 -44.181183
41067500000 -16.914978 -57.215054 -1.2513721 -116.23925 -1.2228146 -116.46311 -17.793501 -41.143177
41095000000 -16.878063 -58.921741 -1.2596047 -116.84145 -1.2496159 -116.7147 -17.948332 -41.94009
41122500000 -17.175344 -57.963028 -1.2796053 -117.38162 -1.2432439 -117.25499 -17.995348 -44.890167
41150000000 -16.579943 -60.26926 -1.2386014 -118.08087 -1.2793928 -117.9472 -17.672041 -44.079811
41177500000 -16.982645 -57.778286 -1.24615 -118.82148 -1.2658482 -118.85148 -18.348459 -44.701698
41205000000 -17.100924 -61.451725 -1.2653843 -118.86626 -1.3009011 -119.13473 -17.612095 -45.715271
41232500000 -16.787924 -58.250004 -1.2346443 -119.60174 -1.2562532 -119.60516 -17.939848 -44.050171
41260000000 -16.959383 -61.031334 -1.2375164 -120.39064 -1.2649843 -120.25456 -17.915558 -45.565018
41287500000 -16.831522 -61.580147 -1.2769309 -120.78242 -1.2599077 -120.89146 -18.093767 -43.287746
41315000000 -16.764597 -61.905449 -1.3114837 -121.18383 -1.247417 -121.35227 -17.76922 -45.298973
41342500000 -16.588215 -59.53479 -1.2213212 -121.85977 -1.2521422 -122.01141 -18.213274 -45.961357
41370000000 -17.002176 -61.954449 -1.2574941 -122.2111 -1.2675582 -122.44714 -17.698647 -45.874569
41397500000 -16.91478 -62.353035 -1.2865491 -122.58607 -1.2792705 -122.85529 -17.936543 -45.771595
41425000000 -16.64959 -60.745838 -1.2346416 -123.47261 -1.2376634 -123.42281 -18.016933 -46.221642
41452500000 -16.989794 -63.899315 -1.2833534 -124.21639 -1.2820169 -123.81999 -18.169106 -47.452663
41480000000 -17.086143 -60.991295 -1.2513168 -124.45437 -1.2729286 -124.52873 -17.922153 -47.416267
41507500000 -16.641413 -64.393494 -1.2324407 -125.07738 -1.2608438 -125.03269 -18.103802 -49.19323
41535000000 -16.946028 -62.681446 -1.2182055 -126.00381 -1.2195823 -125.90603 -18.235598 -48.584423
41562500000 -16.428492 -64.639626 -1.2556753 -126.39141 -1.2895578 -126.63245 -17.654272 -48.849052
41590000000 -17.225193 -62.796623 -1.2458855 -126.88846 -1.2575073 -126.80579 -17.844486 -47.544651
41617500000 -16.896225 -65.614777 -1.1903187 -127.50166 -1.2273214 -127.53433 -17.703442 -50.763184
41645000000 -16.652695 -66.589226 -1.2567369 -127.79478 -1.2647694 -128.26309 -18.090595 -49.556389
41672500000 -17.051554 -67.402618 -1.2742773 -128.41306 -1.2652388 -128.43964 -17.875719 -48.598236
41700000000 -16.811255 -67.343025 -1.1966714 -129.10121 -1.2240963 -129.2467 -17.9056 -51.267086
41727500000 -16.675941 -68.214012 -1.1743319 -130.02798 -1.2715976 -129.73523 -18.007845 -50.999676
41755000000 -17.062019 -65.582253 -1.2630275 -130.44563 -1.2999169 -130.55212 -17.760483 -49.763744
41782500000 -16.722361 -68.357773 -1.2522227 -130.76556 -1.2235528 -130.8577 -17.806297 -52.378716
41810000000 -16.869074 -68.128098 -1.2149756 -131.66293 -1.234018 -131.57161 -18.146196 -52.646145
41837500000 -16.717901 -66.598991 -1.2434342 -132.02765 -1.2619796 -132.06967 -17.812885 -48.429039
41865000000 -16.831888 -66.451378 -1.2233734 -132.38902 -1.2528578 -132.2403 -17.710802 -51.969795
41892500000 -16.847076 -70.211082 -1.2225676 -133.18015 -1.2029575 -132.94954 -18.136183 -52.023769
41920000000 -17.142756 -67.941856 -1.2759887 -133.81001 -1.2684009 -133.59926 -18.216835 -52.059425
41947500000 -16.634132 -70.839096 -1.255919 -133.93663 -1.2607468 -134.18752 -17.986111 -50.884022
41975000000 -16.874866 -69.934448 -1.1996686 -134.78465 -1.2252872 -134.87656 -17.516167 -53.547676
42002500000 -17.084604 -69.365173 -1.2523652 -135.51624 -1.2407745 -135.56259 -17.942373 -50.394554
42030000000 -16.966026 -70.941765 -1.282487 -135.63899 -1.2659285 -135.95451 -18.065092 -52.445053
42057500000 -16.662567 -72.197403 -1.2043561 -136.21754 -1.2442729 -136.32819 -17.846933 -55.480106
42085000000 -16.630062 -68.805046 -1.2127669 -137.38908 -1.247526 -137.22586 -18.08683 -54.805935
42112500000 -16.96413 -72.436012 -1.2682276 -137.44528 -1.2493435 -137.33876 -18.038887 -53.630325
42140000000 -16.67934 -71.094032 -1.2509716 -137.83423 -1.2567061 -138.10443 -17.699326 -55.483227
42167500000 -16.991474 -71.426987 -1.2403539 -138.48589 -1.250028 -138.74257 -18.309895 -55.887337
42195000000 -16.931244 -71.074623 -1.2482568 -139.14639 -1.2890834 -139.27357 -18.413473 -54.187061
42222500000 -16.687078 -73.46138 -1.2454404 -139.91731 -1.2555627 -139.62183 -17.733252 -55.530586
42250000000 -17.076782 -74.157448 -1.2058767 -140.11661 -1.2726177 -140.3936 -18.010904 -58.340233
42277500000 -17.215199 -72.387169 -1.2402154 -140.96436 -1.224677 -141.16872 -18.082928 -56.497784
42305000000 -16.688229 -76.056236 -1.2475696 -141.30241 -1.25313 -141.58759 -17.287073 -54.124531
42332500000 -17.066891 -72.752731 -1.2190572 -141.68495 -1.2414439 -142.11565 -17.462891 -58.87751
42360000000 -17.45491 -71.155281 -1.2746773 -142.65343 -1.2504168 -143.00026 -18.080427 -57.466236
42387500000 -16.441345 -78.032532 -1.2610691 -143.09233 -1.2605824 -143.38121 -17.836901 -55.866657
42415000000 -16.530174 -76.306305 -1.2336819 -143.48656 -1.2631161 -143.742 -17.673901 -59.048988
42442500000 -17.826271 -76.223007 -1.2007811 -144.34274 -1.1942089 -144.07802 -17.978395 -58.415051
42470000000 -16.74222 -79.119301 -1.1841688 -145.05589 -1.2233741 -144.82291 -18.016766 -57.566257
42497500000 -16.85903 -76.53241 -1.1996485 -145.11115 -1.2690964 -145.32332 -17.482426 -58.463284
42525000000 -17.285656 -78.728546 -1.164312 -146.01839 -1.2225072 -146.24907 -18.22941 -61.026909
42552500000 -17.312351 -78.455719 -1.1943176 -146.31038 -1.2628334 -146.27061 -18.187628 -58.279102
42580000000 -17.061062 -80.289932 -1.2121927 -146.7854 -1.2660502 -146.99792 -17.638903 -55.518703
42607500000 -17.343124 -78.143242 -1.2560247 -147.58522 -1.2703447 -147.76857 -18.072674 -57.258572
42635000000 -17.447458 -81.492851 -1.2587149 -147.96178 -1.2376854 -148.36011 -18.310785 -63.001549
42662500000 -17.214956 -77.316864 -1.2692922 -148.77681 -1.2583849 -148.58411 -18.027113 -57.108273
42690000000 -17.241535 -80.902641 -1.2899138 -149.72818 -1.2616757 -149.40515 -17.947037 -58.598419
42717500000 -17.334892 -83.103699 -1.2528692 -149.53334 -1.2688218 -150.10616 -18.757248 -60.982395
42745000000 -17.130949 -79.178467 -1.2157197 -150.28873 -1.255509 -150.61786 -18.562563 -57.720749
42772500000 -17.547424 -78.476242 -1.1814371 -151.11012 -1.2018253 -151.01747 -17.981407 -62.013405
42800000000 -17.655809 -83.541756 -1.2478366 -151.70963 -1.1782012 -151.81599 -19.035053 -65.459099
42827500000 -17.363216 -79.170723 -1.247239 -152.39211 -1.23527 -152.56549 -18.592953 -58.893845
42855000000 -17.704687 -80.09314 -1.2349395 -152.30713 -1.2341782 -152.75714 -17.939714 -62.46381
42882500000 -17.756067 -84.316544 -1.2176816 -153.65923 -1.2105442 -153.06352 -18.212402 -66.437759
42910000000 -17.459793 -85.543648 -1.208243 -153.52332 -1.2416409 -153.9642 -18.771391 -63.724968
42937500000 -17.021589 -80.287689 -1.1869839 -154.60182 -1.2311687 -154.1319 -18.695299 -59.609547
42965000000 -17.957167 -83.527344 -1.2138711 -155.22069 -1.2267812 -154.77077 -17.976484 -67.501663
42992500000 -17.91115 -85.477089 -1.2146599 -155.46007 -1.2455572 -155.26903 -18.529287 -62.993546
43020000000 -17.854227 -81.519585 -1.2477268 -156.20859 -1.2057407 -156.24828 -18.38805 -61.96455
43047500000 -17.858841 -80.604691 -1.2323393 -156.86751 -1.2393556 -157.04787 -18.567556 -66.62793
43075000000 -17.890034 -89.766258 -1.237377 -156.82944 -1.255178 -157.01292 -18.950312 -65.876358
43102500000 -18.610043 -80.570602 -1.2548983 -157.71886 -1.2054827 -157.89284 -18.867718 -61.871124
43130000000 -18.250326 -81.62468 -1.2257049 -158.87668 -1.2296598 -158.32936 -18.277262 -64.081055
43157500000 -17.383226 -89.56266 -1.2240195 -158.79364 -1.2305048 -159.15918 -18.980114 -67.910461
43185000000 -18.025236 -86.810822 -1.20895 -159.22635 -1.2221159 -160.06355 -18.676664 -65.886383
43212500000 -18.058889 -80.96106 -1.2482144 -160.21703 -1.2634101 -160.15685 -18.563488 -64.384064
43240000000 -17.275831 -91.558205 -1.2526337 -160.49347 -1.2483435 -160.75377 -19.27339 -65.569405
43267500000 -17.821232 -83.925713 -1.1854393 -161.2464 -1.2414397 -161.26494 -19.113663 -67.136658
43295000000 -18.690733 -86.271355 -1.2129537 -161.48714 -1.2535604 -161.6532 -18.434589 -63.601471
43322500000 -18.233791 -88.056 -1.2023507 -162.42834 -1.1675626 -162.75494 -18.964752 -66.31472
43350000000 -18.008165 -89.326096 -1.3062537 -162.69981 -1.2265838 -162.69768 -19.232018 -69.562042
43377500000 -19.10783 -85.248505 -1.2440319 -163.58113 -1.2986423 -163.25966 -18.967619 -65.641701
43405000000 -18.258522 -86.898186 -1.2224166 -164.17514 -1.226316 -164.03856 -18.932861 -66.974121
43432500000 -18.259205 -87.654381 -1.2131276 -164.52196 -1.2089145 -164.47023 -18.491905 -69.319168
43460000000 -19.157644 -86.322571 -1.2408837 -164.96051 -1.257074 -164.85448 -19.42923 -62.716129
43487500000 -18.822569 -90.417664 -1.2177045 -166.03281 -1.1513875 -165.5696 -18.786646 -65.33654
43515000000 -17.664255 -90.100647 -1.2199652 -166.14101 -1.2201763 -166.56444 -19.513481 -71.777046
43542500000 -18.961617 -86.84623 -1.1891776 -166.53249 -1.191956 -166.80121 -19.263693 -69.028976
43570000000 -19.14119 -86.438431 -1.2118994 -166.82343 -1.2270559 -167.56174 -19.679983 -66.70163
43597500000 -18.181757 -89.746262 -1.2200979 -167.98523 -1.2921419 -168.01747 -19.791559 -72.974258
43625000000 -19.348295 -87.044853 -1.219418 -168.59976 -1.2151982 -168.65288 -19.066822 -66.252472
43652500000 -19.638952 -86.540398 -1.2189121 -169.33521 -1.1804814 -168.92993 -19.302803 -68.064888
43680000000 -18.932741 -91.501106 -1.2069033 -169.85066 -1.236379 -169.76018 -19.742575 -68.914955
43707500000 -19.332043 -85.532875 -1.2163465 -170.22667 -1.2406161 -170.58437 -19.359482 -73.131226
43735000000 -19.566874 -91.962685 -1.2428184 -170.51303 -1.1765252 -170.86656 -19.556955 -69.740379
43762500000 -19.465494 -90.505394 -1.1488311 -171.32426 -1.2191452 -171.43192 -20.500486 -73.196701
43790000000 -18.212374 -89.388565 -1.2105805 -172.06139 -1.1971989 -171.92274 -19.844904 -68.184845
43817500000 -20.248941 -89.803787 -1.238029 -172.55205 -1.2105404 -172.47093 -20.113926 -69.695091
43845000000 -19.595005 -94.030365 -1.1303157 -172.95113 -1.2355256 -173.24423 -19.748646 -66.198074
43872500000 -19.376102 -85.974525 -1.1709523 -173.65607 -1.1775659 -173.90207 -20.370567 -69.429054
43900000000 -19.583275 -93.847786 -1.2002743 -174.41792 -1.2458665 -174.32088 -19.852787 -68.731186
43927500000 -20.257895 -92.415726 -1.1841108 -174.89059 -1.2052135 -174.61211 -20.168919 -70.942719
43955000000 -18.611153 -90.072273 -1.2217917 -175.26755 -1.2459596 -175.52779 -21.059864 -68.266937
43982500000 -20.144562 -92.45369 -1.200204 -176.01788 -1.2396975 -176.55544 -20.629875 -68.450768
44010000000 -20.641119 -97.725624 -1.2294283 -176.1769 -1.1677316 -176.63918 -19.910465 -71.966789
44037500000 -19.711802 -87.475662 -1.1324795 -177.16753 -1.1969342 -177.32697 -21.603476 -74.267273
44065000000 -19.986437 -91.791138 -1.2431391 -177.65654 -1.2476641 -177.47501 -20.377165 -72.997032
44092500000 -20.448605 -93.989159 -1.2473922 -177.98177 -1.2474008 -178.58501 -21.465853 -71.529366
44120000000 -20.156603 -95.153999 -1.1473522 -178.40601 -1.1826004 -178.77779 -20.559311 -69.866882
44147500000 -19.872107 -88.945251 -1.2189225 -179.68909 -1.2842695 -179.77188 -21.262403 -68.590141
44175000000 -20.468853 -94.524078 -1.2651896 179.97144 -1.2447976 179.51604 -20.527939 -69.60833
44202500000 -20.491503 -96.380394 -1.1853144 179.53081 -1.2259271 179.49921 -21.198973 -69.649879
44230000000 -20.577044 -87.794594 -1.2032276 178.69208 -1.2190846 178.76862 -20.996418 -68.882095
44257500000 -21.275135 -94.622116 -1.2946641 177.81264 -1.1836361 178.04861 -20.41169 -66.014671
44285000000 -20.561266 -95.463226 -1.1286268 177.81517 -1.2196319 177.95277 -21.408644 -69.834221
44312500000 -20.933907 -88.113365 -1.1614053 176.97578 -1.1960205 176.70876 -21.603374 -72.303055
44340000000 -20.993765 -87.773216 -1.2126505 176.59587 -1.2800758 176.3615 -21.486134 -66.446747
44367500000 -21.772644 -98.115112 -1.229845 176.27382 -1.2416519 175.82536 -21.193399 -74.231949
44395000000 -21.709143 -89.351021 -1.2121478 175.64035 -1.2103724 175.21854 -21.509232 -70.862213
44422500000 -21.845125 -91.482834 -1.1715548 174.42207 -1.2608589 174.83432 -22.053055 -64.33271
44450000000 -21.848993 -97.359421 -1.2344118 174.33322 -1.222453 174.22998 -21.27586 -71.561974
44477500000 -21.659643 -96.508156 -1.1796991 174.10834 -1.1620351 173.93542 -22.424442 -70.676559
44505000000 -21.817707 -86.247818 -1.1918324 172.98521 -1.2786468 172.74297 -21.951946 -69.5233
44532500000 -21.594635 -94.05584 -1.3055886 172.73486 -1.2223823 172.32678 -21.650007 -68.289551
44560000000 -22.179544 -87.894814 -1.247663 171.64012 -1.2422953 172.02403 -22.346027 -73.346733
44587500000 -22.188768 -87.703773 -1.2398508 171.03592 -1.1983523 171.328 -23.119522 -63.275188
44615000000 -22.345966 -87.69503 -1.1907386 170.52087 -1.2638149 170.32515 -21.958542 -62.034878
44642500000 -21.5159 -97.748817 -1.2549001 170.22258 -1.2431861 169.93852 -22.615713 -72.266579
44670000000 -22.354193 -80.788719 -1.2268589 169.3046 -1.2579883 169.50449 -23.319233 -57.579205
44697500000 -23.53861 -86.320244 -1.2436352 168.55302 -1.2209448 168.65524 -22.287098 -59.54932
44725000000 -22.282808 -89.651054 -1.2799274 168.30331 -1.3026246 168.58296 -22.218571 -70.235703
44752500000 -23.204208 -83.620682 -1.2399855 167.72224 -1.2651089 167.74194 -23.835861 -60.105064
44780000000 -23.219521 -89.892937 -1.237978 166.8983 -1.2781057 167.07343 -22.615368 -56.40699
44807500000 -22.325949 -84.838959 -1.2980701 166.33565 -1.3659047 166.62314 -22.849987 -71.149796
44835000000 -22.656347 -81.465744 -1.2871068 166.29254 -1.2555312 166.23087 -24.102104 -60.663502
44862500000 -22.812757 -78.945175 -1.2925682 165.55101 -1.2710918 165.47406 -23.744307 -54.491531
44890000000 -22.7976 -87.355125 -1.3509777 164.63805 -1.3679066 164.64087 -23.761648 -59.960461
44917500000 -23.178541 -78.89373 -1.3052173 164.51456 -1.3094573 164.02483 -23.835817 -65.421539
44945000000 -23.033794 -84.992317 -1.3131257 164.06273 -1.3357577 163.90862 -24.10146 -50.087902
44972500000 -22.517832 -83.833702 -1.3058505 162.99284 -1.404448 163.24655 -22.2589 -49.776413
45000000000 -22.022808 -82.324348 -1.2928628 163.05412 -1.3317456 162.85077 -23.198172 -57.63871
