! Quiescent point : V1=-1.65691E-02 I1=+1.32245E-03 V2=-2.21305E-02 I2=-1.30027E-03
! Pulsed point : V1=-1.65050E-02 I1=+1.33360E-03 V2=-2.21563E-02 I2=-1.32086E-03
! Period : +2.00000E-04
! Input Supply timing : delay=+1.60000E-06 width=+2.20000E-06
! Output Supply timing : delay=+1.70000E-06 width=+2.00000E-06
! VNA timing : delay=+2.40000E-06 width=+1.10000E-06
# Hz S RI R 50
+2.70000E+10 +2.19024E-01 -6.05827E-01 +4.51099E-01 +1.48530E-01 +4.48482E-01 +1.12297E-01 +5.88778E-01 -1.71585E-01
+2.71000E+10 +2.54466E-01 -6.59063E-01 +5.09339E-01 +1.08681E-01 +5.28254E-01 +7.55435E-02 +5.19218E-01 -1.77141E-01
+2.72000E+10 +1.73174E-01 -6.46743E-01 +5.03159E-01 +6.05853E-02 +4.29896E-01 +7.99312E-02 +5.64466E-01 -1.84181E-01
+2.73000E+10 +2.14249E-01 -6.31786E-01 +4.92546E-01 +1.16890E-01 +4.98207E-01 -4.11153E-03 +5.62119E-01 -1.69164E-01
+2.74000E+10 +1.17354E-01 -6.40053E-01 +4.47315E-01 +5.32586E-02 +4.70398E-01 +7.12909E-02 +6.39353E-01 -2.67383E-01
+2.75000E+10 +5.90449E-02 -6.69931E-01 +4.85839E-01 +9.72221E-02 +5.07225E-01 -1.69093E-02 +5.24017E-01 -1.81895E-01
+2.76000E+10 +1.15146E-01 -6.78933E-01 +5.14804E-01 +7.58131E-02 +4.97786E-01 +4.49179E-02 +4.60573E-01 -2.46933E-01
+2.77000E+10 +6.57214E-02 -6.37195E-01 +4.43869E-01 +1.09188E-01 +5.35672E-01 -1.23522E-02 +5.68001E-01 -2.03231E-01
+2.78000E+10 -2.50408E-02 -7.33677E-01 +4.87456E-01 +1.32899E-02 +4.82387E-01 +5.45296E-02 +4.84985E-01 -2.08226E-01
+2.79000E+10 -1.05513E-02 -6.50262E-01 +5.32089E-01 +1.17225E-01 +5.64308E-01 +2.62412E-02 +4.84496E-01 -2.26474E-01
+2.80000E+10 -8.74173E-02 -7.78395E-01 +4.67540E-01 +6.54421E-02 +6.14255E-01 +2.59763E-02 +4.91154E-01 -2.45625E-01
+2.81000E+10 +5.81284E-02 -6.97467E-01 +5.33209E-01 -1.97988E-02 +4.85800E-01 +9.76996E-02 +4.24128E-01 -2.83296E-01
+2.82000E+10 -3.67920E-02 -6.32267E-01 +5.32785E-01 +2.47719E-02 +4.75235E-01 +2.41443E-02 +5.59800E-01 -2.05888E-01
+2.83000E+10 +2.63865E-02 -7.05200E-01 +5.50890E-01 +1.65521E-03 +4.51264E-01 +6.65451E-02 +5.21108E-01 -2.80055E-01
+2.84000E+10 -9.37123E-02 -6.97201E-01 +5.89504E-01 +3.01428E-03 +5.71302E-01 -4.54294E-02 +5.35816E-01 -2.21119E-01
+2.85000E+10 -9.48624E-02 -6.76570E-01 +4.52030E-01 -2.70963E-02 +4.99371E-01 -5.19857E-02 +4.90689E-01 -2.67051E-01
+2.86000E+10 -2.32180E-02 -6.47649E-01 +4.44879E-01 -1.21327E-01 +5.20903E-01 +3.66415E-02 +5.93607E-01 -1.79734E-01
+2.87000E+10 -9.28156E-02 -6.11877E-01 +4.71274E-01 +1.77458E-02 +4.67519E-01 +7.71571E-02 +5.78145E-01 -3.24936E-01
+2.88000E+10 -1.63268E-01 -6.69990E-01 +4.13757E-01 -4.59558E-02 +4.43896E-01 -4.95319E-02 +5.30076E-01 -3.75945E-01
+2.89000E+10 -1.34451E-01 -7.00420E-01 +5.63225E-01 -8.36562E-03 +4.96291E-01 -4.32629E-02 +6.25904E-01 -2.08405E-01
+2.90000E+10 -1.26479E-01 -5.93793E-01 +5.41900E-01 -6.48132E-02 +4.75493E-01 -1.00907E-01 +5.01749E-01 -3.29768E-01
+2.91000E+10 -2.31309E-01 -6.25896E-01 +5.15833E-01 -1.13980E-01 +5.37455E-01 -4.22555E-02 +4.85245E-01 -3.60705E-01
+2.92000E+10 -2.69096E-01 -6.29258E-01 +4.65446E-01 -1.73301E-01 +4.91904E-01 -3.08399E-02 +5.21473E-01 -3.21322E-01
+2.93000E+10 -3.22661E-01 -5.87794E-01 +5.33446E-01 -1.83095E-01 +5.15105E-01 -5.37499E-02 +5.40316E-01 -2.43083E-01
+2.94000E+10 -3.37812E-01 -6.75090E-01 +5.31239E-01 -9.06787E-02 +5.61080E-01 -1.28938E-01 +5.66068E-01 -3.07942E-01
+2.95000E+10 -2.66593E-01 -4.99982E-01 +4.80457E-01 -5.76139E-02 +5.19338E-01 -1.04138E-01 +5.17353E-01 -3.21381E-01
+2.96000E+10 -2.96103E-01 -5.65388E-01 +5.14718E-01 -1.70901E-01 +5.86944E-01 -6.12445E-02 +4.63547E-01 -3.58528E-01
+2.97000E+10 -3.19490E-01 -6.10027E-01 +5.09499E-01 -7.14403E-02 +5.51319E-01 -1.03943E-01 +5.53090E-01 -3.14127E-01
+2.98000E+10 -2.93509E-01 -6.14089E-01 +4.39496E-01 -8.37607E-02 +4.75259E-01 -2.08315E-01 +4.67072E-01 -3.14559E-01
+2.99000E+10 -3.91798E-01 -6.22630E-01 +5.25361E-01 -7.83536E-02 +5.72021E-01 -1.82245E-01 +4.58845E-01 -2.91280E-01
+3.00000E+10 -4.25432E-01 -5.37707E-01 +5.26075E-01 -1.59261E-01 +5.10612E-01 -1.30848E-01 +4.86886E-01 -3.73441E-01
+3.01000E+10 -4.30717E-01 -4.66100E-01 +5.66683E-01 -1.99550E-01 +4.36112E-01 -8.33895E-02 +4.61667E-01 -2.91816E-01
+3.02000E+10 -3.95574E-01 -5.57721E-01 +4.30291E-01 -2.35263E-01 +5.19134E-01 -1.22037E-01 +5.01502E-01 -3.88302E-01
+3.03000E+10 -4.93114E-01 -4.84341E-01 +4.82632E-01 -1.98681E-01 +4.86086E-01 -1.82890E-01 +4.64934E-01 -3.45451E-01
+3.04000E+10 -4.37571E-01 -4.12721E-01 +5.36460E-01 -1.25106E-01 +5.27675E-01 -2.17814E-01 +4.33584E-01 -3.21549E-01
+3.05000E+10 -4.08535E-01 -4.83912E-01 +5.86112E-01 -2.02720E-01 +5.01976E-01 -1.39017E-01 +3.79575E-01 -3.99569E-01
+3.06000E+10 -4.40836E-01 -5.03108E-01 +5.28593E-01 -2.08539E-01 +5.34664E-01 -2.71261E-01 +4.10536E-01 -4.47670E-01
+3.07000E+10 -4.45450E-01 -3.89644E-01 +5.80932E-01 -2.30533E-01 +5.82454E-01 -2.34311E-01 +3.47556E-01 -4.05362E-01
+3.08000E+10 -4.81194E-01 -4.28273E-01 +4.69185E-01 -2.26102E-01 +4.53991E-01 -2.18836E-01 +5.08634E-01 -3.09014E-01
+3.09000E+10 -4.53979E-01 -3.14801E-01 +6.55988E-01 -2.59495E-01 +5.38157E-01 -2.34978E-01 +4.07531E-01 -3.37327E-01
+3.10000E+10 -4.96300E-01 -3.45977E-01 +5.50910E-01 -3.56458E-01 +5.17178E-01 -2.98163E-01 +4.05985E-01 -3.84998E-01
+3.11000E+10 -5.38582E-01 -4.11093E-01 +4.47179E-01 -2.49411E-01 +4.46666E-01 -3.24348E-01 +3.87137E-01 -3.58154E-01
+3.12000E+10 -5.29306E-01 -3.71632E-01 +4.87447E-01 -3.25362E-01 +4.20738E-01 -4.12176E-01 +3.96926E-01 -1.83669E-01
+3.13000E+10 -5.76114E-01 -1.21398E-01 +5.24148E-01 -3.40409E-01 +4.60873E-01 -3.76783E-01 +4.15769E-01 -4.13552E-01
+3.14000E+10 -4.77352E-01 -2.70505E-01 +5.79394E-01 -3.37347E-01 +5.82976E-01 -3.66309E-01 +2.91600E-01 -2.96448E-01
+3.15000E+10 -5.31714E-01 -3.20548E-01 +3.89086E-01 -5.97073E-01 +4.51922E-01 -3.82778E-01 +2.90102E-01 -3.64362E-01
+3.16000E+10 -5.98010E-01 -1.40250E-01 +4.93926E-01 -2.89533E-01 +4.78232E-01 -2.83809E-01 +3.68019E-01 -3.21440E-01
+3.17000E+10 -4.80546E-01 -2.28324E-01 +5.62197E-01 -3.15281E-01 +4.74504E-01 -3.93052E-01 +4.01323E-01 -2.28682E-01
+3.18000E+10 -5.22456E-01 -2.35251E-01 +4.44411E-01 -3.47381E-01 +5.24731E-01 -4.73910E-01 +4.12542E-01 -3.48540E-01
+3.19000E+10 -5.30837E-01 -2.29796E-01 +4.83288E-01 -3.77933E-01 +4.59261E-01 -5.41493E-01 +3.92547E-01 -2.95314E-01
+3.20000E+10 -5.35619E-01 -1.65690E-01 +4.15889E-01 -4.49611E-01 +3.52299E-01 -4.69304E-01 +3.14954E-01 -3.30590E-01
+3.21000E+10 -4.50175E-01 -1.49052E-01 +4.10335E-01 -4.88532E-01 +4.49957E-01 -4.30237E-01 +3.44587E-01 -2.62724E-01
+3.22000E+10 -4.63691E-01 -1.00255E-01 +3.97413E-01 -4.69450E-01 +4.48859E-01 -4.34463E-01 +3.24061E-01 -3.14961E-01
+3.23000E+10 -3.66105E-01 -1.26007E-01 +4.22417E-01 -3.51096E-01 +4.49793E-01 -4.14043E-01 +3.49531E-01 -2.80131E-01
+3.24000E+10 -5.28568E-01 -1.06504E-01 +5.41277E-01 -5.48109E-01 +4.13296E-01 -4.57493E-01 +3.21809E-01 -2.31047E-01
+3.25000E+10 -5.34193E-01 -1.11453E-02 +4.27776E-01 -5.57947E-01 +3.44756E-01 -5.26106E-01 +2.90367E-01 -2.80532E-01
+3.26000E+10 -5.05173E-01 -8.93140E-02 +2.34995E-01 -5.65371E-01 +3.97473E-01 -5.16858E-01 +2.45512E-01 -2.13353E-01
+3.27000E+10 -4.17867E-01 +5.59545E-02 +3.45703E-01 -4.80144E-01 +4.60997E-01 -4.79971E-01 +4.19249E-01 -3.02327E-01
+3.28000E+10 -4.21964E-01 +5.73827E-03 +3.66419E-01 -4.69904E-01 +3.57976E-01 -5.50666E-01 +4.12069E-01 -1.12473E-01
+3.29000E+10 -3.82438E-01 -3.39938E-02 +3.49772E-01 -5.58507E-01 +3.32142E-01 -5.88916E-01 +3.09176E-01 -2.17550E-01
+3.30000E+10 -3.83736E-01 -4.37436E-02 +3.76875E-01 -6.22487E-01 +3.32778E-01 -6.08931E-01 +3.82080E-01 -1.72777E-01
+3.31000E+10 -3.49510E-01 +9.15058E-03 +3.02018E-01 -4.75098E-01 +2.49387E-01 -5.17081E-01 +3.44849E-01 -2.14964E-01
+3.32000E+10 -3.78306E-01 -3.04882E-02 +2.41824E-01 -5.56160E-01 +3.08349E-01 -5.55034E-01 +4.70144E-01 -1.48773E-01
+3.33000E+10 -4.11264E-01 +6.44466E-02 +2.69531E-01 -6.36035E-01 +2.84495E-01 -6.72638E-01 +3.94725E-01 -2.13405E-01
+3.34000E+10 -3.23624E-01 +2.60994E-01 +2.93088E-01 -5.71986E-01 +3.00763E-01 -5.91768E-01 +4.57676E-01 -2.66317E-01
+3.35000E+10 -3.67488E-01 +9.48170E-02 +3.71340E-01 -5.91065E-01 +3.51613E-01 -5.91464E-01 +4.24829E-01 -1.13361E-01
+3.36000E+10 -3.33308E-01 +1.23051E-01 +3.23420E-01 -6.11086E-01 +2.15742E-01 -5.96168E-01 +3.47350E-01 -2.18300E-01
+3.37000E+10 -3.23377E-01 +1.53921E-01 +1.13777E-01 -6.92771E-01 +1.51272E-01 -6.46247E-01 +3.27189E-01 -2.48396E-01
+3.38000E+10 -3.44266E-01 +7.26495E-02 +3.09356E-01 -5.73278E-01 +2.18556E-01 -5.61755E-01 +4.46809E-01 -1.81573E-01
+3.39000E+10 -1.52575E-01 +2.20304E-01 +2.67270E-01 -7.05320E-01 +3.13676E-01 -6.08611E-01 +3.40446E-01 -1.88356E-01
+3.40000E+10 -1.52430E-01 +3.14235E-01 +1.52220E-01 -6.69198E-01 +1.29350E-01 -7.56627E-01 +3.12502E-01 -8.08917E-02
+3.41000E+10 -2.20371E-01 +1.98590E-01 +2.54155E-01 -5.60481E-01 +3.07057E-01 -6.57535E-01 +3.07687E-01 -9.97652E-02
+3.42000E+10 -2.33460E-01 +2.23692E-01 +1.14659E-01 -5.61913E-01 +3.09578E-01 -6.33750E-01 +5.21390E-01 -2.08122E-01
+3.43000E+10 -1.32098E-01 +2.24356E-01 +1.12213E-01 -6.09423E-01 +1.25830E-01 -7.07142E-01 +3.59416E-01 -5.71821E-02
+3.44000E+10 +1.00020E-01 +2.62299E-01 +9.08197E-02 -6.15244E-01 +1.46798E-01 -7.51140E-01 +3.55175E-01 -2.83789E-01
+3.45000E+10 -5.89523E-02 +3.37469E-01 -3.78248E-02 -5.94516E-01 +9.20075E-02 -6.59240E-01 +4.98837E-01 -1.32983E-01
+3.46000E+10 -3.17714E-02 +3.33872E-01 +2.08768E-01 -7.74670E-01 -1.86776E-02 -6.37823E-01 +2.96423E-01 -1.45247E-01
+3.47000E+10 -9.13595E-03 +2.62013E-01 +7.55158E-02 -7.20391E-01 +6.88018E-02 -7.54903E-01 +4.86479E-01 -7.91155E-02
+3.48000E+10 +2.41855E-02 +2.47944E-01 +9.82155E-02 -6.76043E-01 +1.22300E-01 -6.45430E-01 +4.21850E-01 -1.01761E-01
+3.49000E+10 -1.55308E-02 +2.40936E-01 +3.21920E-02 -7.20531E-01 -1.19733E-01 -7.63974E-01 +3.71039E-01 -6.88204E-02
+3.50000E+10 -1.49042E-03 +2.99025E-01 -7.27129E-03 -7.45824E-01 +4.26354E-02 -6.96712E-01 +4.59017E-01 -2.52202E-01
+3.51000E+10 -3.00230E-02 +2.46154E-01 +1.48997E-01 -8.13796E-01 -3.15361E-02 -6.89856E-01 +4.33316E-01 -2.53218E-01
+3.52000E+10 +5.17410E-02 +1.14694E-01 -8.55109E-02 -6.71294E-01 -3.34475E-02 -7.73447E-01 +4.43376E-01 -2.43851E-01
+3.53000E+10 +1.07907E-01 +2.04324E-01 -1.53920E-01 -7.25625E-01 -7.64793E-02 -6.10925E-01 +5.20135E-01 -1.58047E-01
+3.54000E+10 +1.51668E-01 +1.14887E-01 +2.35853E-04 -4.96280E-01 -8.13078E-02 -7.84788E-01 +3.32503E-01 -1.26440E-01
+3.55000E+10 +8.85838E-02 +1.89458E-01 -1.09133E-01 -7.14712E-01 +2.19908E-03 -7.98430E-01 +5.17983E-01 -1.93713E-01
+3.56000E+10 +2.20888E-01 +6.83675E-02 +4.69839E-03 -5.36344E-01 -7.62740E-02 -5.55110E-01 +5.09051E-01 -2.46643E-01
+3.57000E+10 +1.20046E-01 +2.06873E-01 -1.91743E-01 -6.25198E-01 -1.38580E-01 -7.25748E-01 +3.69954E-01 -3.05313E-01
+3.58000E+10 +3.10726E-01 +6.08684E-02 -1.17617E-01 -6.54957E-01 -8.10249E-02 -6.26606E-01 +4.57194E-01 -2.87706E-01
+3.59000E+10 +1.69143E-01 +9.07812E-02 -3.09458E-01 -4.76139E-01 -2.96397E-01 -6.62229E-01 +3.84058E-01 +8.51885E-04
+3.60000E+10 +2.63841E-01 +7.18959E-03 -1.32481E-01 -6.65455E-01 -2.25901E-01 -7.50521E-01 +5.74886E-01 -1.78307E-01
+3.61000E+10 +2.06501E-01 -5.11796E-02 -6.54859E-02 -6.40092E-01 -3.26131E-01 -7.46449E-01 +4.38837E-01 -2.69250E-01
+3.62000E+10 +4.76284E-01 +1.17361E-01 -1.45292E-01 -5.82110E-01 -1.08094E-01 -6.60174E-01 +4.72091E-01 -2.00066E-01
+3.63000E+10 +4.68287E-01 -8.63415E-02 -2.58120E-01 -5.40970E-01 -2.72122E-01 -6.37229E-01 +5.48483E-01 -3.37261E-01
+3.64000E+10 +3.91376E-01 +1.08159E-01 -2.63875E-01 -6.42072E-01 -2.60921E-01 -6.32822E-01 +6.29745E-01 -1.61694E-01
+3.65000E+10 +5.04083E-01 -9.16939E-02 -1.51337E-01 -5.76912E-01 -3.90786E-01 -5.87432E-01 +5.04310E-01 -1.70318E-01
+3.66000E+10 +3.63555E-01 +3.89068E-02 -2.94202E-01 -5.12359E-01 -3.43637E-01 -5.90052E-01 +5.54215E-01 -1.30010E-01
+3.67000E+10 +4.74378E-01 -7.74977E-02 -3.86404E-01 -5.50846E-01 -4.79677E-02 -7.03873E-01 +5.64513E-01 -2.60347E-01
+3.68000E+10 +5.38070E-01 -6.26077E-02 -3.17334E-01 -5.33604E-01 -4.24701E-01 -6.87868E-01 +6.28197E-01 -2.98275E-01
+3.69000E+10 +4.33671E-01 -1.36716E-01 -1.25114E-01 -3.10425E-01 -1.58337E-01 -6.17114E-01 +7.31822E-01 -1.67423E-01
+3.70000E+10 +3.68787E-01 -8.42322E-02 -4.46402E-01 -6.07248E-01 -1.67964E-01 -4.56353E-01 +5.01239E-01 -2.62463E-01
+3.71000E+10 +7.03263E-01 -2.38011E-01 -1.87769E-01 -5.66353E-01 -3.20947E-01 -6.09420E-01 +5.45416E-01 -1.15529E-01
+3.72000E+10 +3.80295E-01 -4.77518E-01 -4.11302E-01 -4.67966E-01 -3.78951E-01 -5.59508E-01 +3.26918E-01 -2.59724E-01
+3.73000E+10 +4.72599E-01 -1.07359E-01 -5.45186E-01 -5.97450E-01 -3.75530E-01 -6.18087E-01 +4.54824E-01 -2.52850E-02
+3.74000E+10 +4.64529E-01 -1.73214E-01 -5.11105E-01 -4.43654E-01 -3.85027E-01 -4.23631E-01 +3.70854E-01 -2.77431E-01
+3.75000E+10 +3.58144E-01 -3.88033E-01 -4.76027E-01 -6.15039E-01 -3.93707E-01 -2.62270E-01 +7.28424E-01 -3.04234E-01
+3.76000E+10 +4.23322E-01 -3.07391E-01 -3.65274E-01 -4.01543E-01 -4.41839E-01 -5.69140E-01 +6.42069E-01 -1.61543E-01
+3.77000E+10 +4.13698E-01 -2.92338E-01 -3.22875E-01 -4.29785E-01 -4.99532E-01 -5.47459E-01 +5.40344E-01 -1.26256E-01
+3.78000E+10 +4.31077E-01 -4.81561E-01 -4.72670E-01 -4.61942E-01 -3.36398E-01 -4.88993E-01 +4.91698E-01 -2.57199E-01
+3.79000E+10 +4.36153E-01 -4.18572E-01 -4.10834E-01 -4.39256E-01 -5.40906E-01 -4.83518E-01 +7.28899E-01 -3.16156E-01
+3.80000E+10 +3.99246E-01 -4.93499E-01 -3.33615E-01 -4.65903E-01 -3.97678E-01 -6.35744E-01 +5.57265E-01 -2.00504E-01
+3.81000E+10 +2.86576E-01 -4.10287E-01 -4.78723E-01 -4.43965E-01 -4.03002E-01 -5.17171E-01 +7.29813E-01 -2.97407E-01
+3.82000E+10 +4.51411E-01 -6.07919E-01 -5.77155E-01 -4.52507E-01 -2.85137E-01 -2.91492E-01 +5.01997E-01 -7.69885E-02
+3.83000E+10 +4.06438E-01 -4.94624E-01 -5.00416E-01 -3.32983E-01 -3.15742E-01 -2.34202E-01 +4.21346E-01 -4.92032E-01
+3.84000E+10 +2.17123E-01 -6.21347E-01 -4.15424E-01 -4.47958E-01 -4.06977E-01 -5.14445E-01 +5.97906E-01 -3.85276E-01
+3.85000E+10 +3.64758E-01 -5.70680E-01 -3.67611E-01 -2.62866E-01 -5.00099E-01 -4.24257E-01 +5.57377E-01 -2.91423E-01
+3.86000E+10 +3.68720E-01 -5.78265E-01 -7.24442E-01 -2.89362E-01 -4.78443E-01 -3.73523E-01 +4.42059E-01 -5.60817E-02
+3.87000E+10 +3.13431E-01 -5.78682E-01 -5.34473E-01 -2.73632E-01 -4.31813E-01 -4.60137E-01 +7.51893E-01 -4.85818E-01
+3.88000E+10 +2.35567E-01 -4.57595E-01 -6.10460E-01 -3.66040E-01 -6.16754E-01 -2.94911E-01 +4.58643E-01 -3.09066E-01
+3.89000E+10 +2.73080E-01 -6.49182E-01 -5.37425E-01 -1.08207E-01 -4.87742E-01 -3.09295E-01 +5.36625E-01 -1.81192E-01
+3.90000E+10 +2.98268E-01 -4.82491E-01 -6.12311E-01 -4.11009E-01 -5.17913E-01 -2.86371E-01 +3.95463E-01 -4.92914E-01
+3.91000E+10 +1.45295E-01 -8.96598E-01 -6.13831E-01 -2.56389E-01 -4.37301E-01 -2.16011E-01 +6.76143E-01 -1.93380E-01
+3.92000E+10 +2.29994E-01 -6.72615E-01 -2.80338E-01 -3.47652E-01 -5.14031E-01 -2.20802E-01 +7.81213E-01 -5.53070E-01
+3.93000E+10 +4.20777E-01 -4.45497E-01 -6.15647E-01 +1.57882E-02 -4.43748E-01 -3.47208E-01 +5.16340E-01 -2.41974E-01
+3.94000E+10 +4.80627E-02 -5.80200E-01 -3.49832E-01 -1.36315E-01 -2.65974E-01 -1.14010E-01 +6.54689E-01 -1.94051E-01
+3.95000E+10 +1.29733E-01 -7.99875E-01 -5.54341E-01 -4.10761E-01 -4.75237E-01 -1.65428E-01 +6.15290E-01 -5.01268E-01
+3.96000E+10 +2.32105E-02 -6.04068E-01 -4.11997E-01 -1.61989E-01 -5.90960E-01 -1.45505E-01 +6.23238E-01 -2.94873E-01
+3.97000E+10 -1.32085E-01 -6.31806E-01 -7.27821E-01 -2.93281E-01 -7.60396E-01 -7.97180E-02 +5.58280E-01 -3.05193E-01
+3.98000E+10 +1.81435E-01 -7.70582E-01 -5.91632E-01 -2.67778E-01 -5.29569E-01 -2.63846E-01 +4.74348E-01 -2.73587E-01
+3.99000E+10 +8.37241E-02 -7.46564E-01 -4.61279E-01 -3.89714E-01 -4.97157E-01 -2.66004E-01 +6.00426E-01 -3.60262E-01
+4.00000E+10 +1.16726E-01 -8.10302E-01 -5.74572E-01 -3.80569E-01 -5.65204E-01 -1.82802E-01 +5.93337E-01 -3.34932E-01
