!Keysight Technologies,N5224A,MY55441802,A.10.65.16
!Date: Wednesday, May 13, 2026 18:22:56
!Correction: S11(Full 2 Port(1,2)) 
!S21(Full 2 Port(1,2)) 
!S12(Full 2 Port(1,2)) 
!S22(Full 2 Port(1,2)) 
!S2P File: Measurements: S11, S21, S12, S22:
# Hz S  dB   R 50
1000000000 -0.54559743 -84.456215 -6.1613083 -18.57263 5.6841326 -17.774912 -9.3444099 -98.64402
1100000000 0.21153337 155.08087 -10.6855 35.206474 -0.94421256 10.259877 -5.9112387 55.126156
1200000000 1.5081764 1.20116 -15.04221 -139.18088 -15.327944 -73.54216 -0.75746197 -26.984528
1300000000 7.7206807 -76.580345 -0.1368493 -30.823572 9.4468985 -27.022367 -14.925484 -56.397747
1400000000 1.5981898 165.75021 -9.5695658 53.904091 -2.1928775 12.991593 -5.6544189 47.77116
1500000000 3.330647 -0.89549607 -9.2677956 -161.07901 -11.365706 -128.16594 -0.84656984 -29.55493
1600000000 12.957916 -55.044167 5.0795412 -20.362524 12.478366 -16.724979 -4.4123263 31.977055
1700000000 3.3073721 171.1911 -6.790247 75.435562 -3.6817789 20.724535 -4.0830879 42.64983
1800000000 6.3677802 -4.9324656 -4.1810484 -178.56189 -4.687027 -167.9351 0.47531369 -35.209614
1900000000 12.347122 -35.913929 6.0183659 -2.5957949 11.070542 -3.0221589 -0.9840458 67.10627
2000000000 6.1128759 173.33461 -1.7831385 87.900085 -4.0138817 41.400135 -1.7469212 37.379002
2100000000 11.144604 -4.6210766 3.4468787 178.58186 3.6450994 177.04173 3.6370611 -31.857492
2200000000 12.256067 -37.261135 6.6976395 -4.2165995 10.592716 -7.2444887 0.32133156 61.183094
2300000000 10.291789 170.08426 5.2643123 97.511597 -0.12538739 71.014053 2.4582975 35.122913
2400000000 14.765216 16.363207 8.7608624 -160.82799 9.5517998 -163.56435 6.3447323 -12.705016
2500000000 9.4186153 -63.93103 6.5525036 -28.698523 8.8093338 -32.168194 -1.580207 29.934681
2600000000 17.80315 -151.13504 14.385497 144.59642 9.5764666 137.25079 9.6895971 66.309891
2700000000 12.002527 103.55844 9.1786451 -76.307587 10.550879 -80.152763 1.7753874 80.43248
2800000000 9.0781965 -79.217049 7.014195 -41.299366 8.7226858 -45.104374 -1.1873919 9.9158325
2900000000 11.864158 -28.596415 11.433318 -87.177811 9.1080513 -88.514381 3.6683154 -165.06194
3000000000 9.0162201 103.15617 7.1020737 -78.13781 8.5865316 -79.280869 -1.5966907 77.757828
3100000000 5.0047235 -109.35224 5.4741783 -61.052219 6.3325486 -65.305199 -4.3371673 -18.132298
3200000000 7.5599303 -31.555891 8.2707567 -87.785072 6.6314812 -84.049355 -0.6051302 -161.3916
3300000000 3.6683962 97.731911 4.2157063 -79.963394 5.291028 -79.068893 -7.9723053 73.369682
3400000000 3.4924581 -107.90062 4.6980767 -65.140984 5.2057428 -67.178185 -6.2009535 -18.528437
3500000000 2.9762344 -47.123318 4.7887974 -93.292076 3.6758575 -86.046104 -7.2124157 -165.40689
3600000000 3.1326938 98.869759 4.0315814 -83.688919 4.9224133 -82.564636 -8.8788929 71.743149
3700000000 2.0712967 -133.04559 4.2231746 -79.085114 4.3368835 -80.844986 -7.5338583 -38.135231
3800000000 0.47945869 -43.62915 3.7560585 -92.66066 2.5249007 -87.124367 -10.579296 -161.41991
3900000000 0.3461844 97.923622 2.8919635 -85.409218 3.5169775 -84.647507 -13.351606 78.084267
4000000000 1.0719968 -142.50781 3.7968843 -88.524414 3.7619119 -90.70665 -8.5707693 -57.678967
4100000000 0.40296221 -54.969193 3.6817274 -98.080353 2.5359485 -95.079994 -10.634409 -162.75493
4200000000 -3.1525943 73.253647 1.7125759 -95.552124 2.114768 -96.660767 -17.684435 41.638153
4300000000 -2.1567075 -157.11287 2.6648309 -96.137985 2.5036416 -97.77861 -11.443648 -72.687714
4400000000 -3.7409232 -57.040527 2.2393498 -100.66757 1.4959958 -99.280365 -14.667393 -172.0952
4500000000 -4.9717264 75.917419 1.3925104 -97.8955 1.8829222 -97.531418 -20.863932 61.976589
4600000000 -3.7869105 -159.33835 2.0233033 -101.71531 1.96999 -103.40285 -12.906871 -87.146492
4700000000 -4.7219934 -69.260147 1.7996768 -105.27252 1.4537226 -104.99538 -15.194283 -170.22531
4800000000 -6.2135377 67.436241 1.0027635 -104.98067 1.5288591 -104.39118 -23.368784 39.743542
4900000000 -5.9844294 -173.84801 1.4806017 -107.66002 1.381832 -108.50842 -14.981814 -94.386086
5000000000 -6.4213729 -75.795494 1.231779 -112.11543 1.0543312 -110.69231 -17.496775 174.509
5100000000 -8.3140774 56.21249 0.89563638 -111.0649 1.2169271 -108.36382 -23.628044 52.076271
5200000000 -6.8517456 176.75543 1.0680255 -114.33952 1.032526 -114.85023 -16.469297 -109.58607
5300000000 -7.2446947 -88.622269 0.98846406 -117.61873 0.87860429 -116.92841 -18.201967 173.4857
5400000000 -10.15104 53.780956 0.5193786 -116.29718 0.89187819 -114.97386 -28.234232 43.058598
5500000000 -7.4371762 162.57547 1.0560626 -119.82216 0.9553737 -120.0101 -17.617105 -108.0981
5600000000 -9.23419 -85.903717 0.67947537 -121.81805 0.62661129 -121.25903 -20.355074 170.58604
5700000000 -7.7609992 27.852337 0.7983579 -126.6366 1.1305517 -124.50518 -22.488169 16.64838
5800000000 -10.244281 159.3165 0.49606678 -124.46671 0.49047545 -124.47829 -20.521078 -123.13306
5900000000 -9.6161585 -100.85508 0.4914605 -128.26105 0.54088223 -128.00581 -20.821894 166.12016
6000000000 -11.781316 28.18903 0.21767946 -130.19264 0.52477443 -129.02936 -30.532425 1.0001272
6100000000 -9.4515429 150.51036 0.70858258 -130.37643 0.67651927 -130.71844 -20.651323 -119.21272
6200000000 -12.476145 -107.6441 0.1708259 -133.0905 0.21763529 -133.06956 -21.696405 167.45735
6300000000 -12.019269 26.439726 0.29548487 -135.85132 0.43092924 -134.73909 -31.860348 14.156981
6400000000 -11.005016 140.70894 0.32903174 -137.78815 0.32290062 -138.10008 -23.569103 -135.1752
6500000000 -13.085813 -119.25021 0.030409764 -138.22316 0.039177611 -138.53836 -23.360455 147.55309
6600000000 -15.753909 24.553501 -0.096594535 -140.61359 -0.0031659845 -140.21007 -39.205074 127.2815
6700000000 -11.563852 135.02173 0.23486629 -142.53375 0.30540866 -142.9212 -21.389097 -136.33281
6800000000 -13.98655 -125.98963 0.050061285 -143.85556 0.11818863 -144.42212 -24.232594 166.90552
6900000000 -15.459097 8.1833429 -0.11115152 -146.98987 -0.0036059846 -147.06061 -37.865623 103.71892
7000000000 -13.833529 126.3577 -0.011535272 -148.88901 0.073515415 -149.29808 -22.498749 -169.67636
7100000000 -15.099249 -132.70599 0.046716347 -150.01158 0.1041808 -150.4819 -22.924812 156.95665
7200000000 -16.733004 10.052319 -0.17282978 -152.52661 -0.052384362 -152.22409 -34.257744 107.69303
7300000000 -12.417539 114.663 0.018339654 -156.00508 0.12963349 -156.27235 -22.170189 -179.10762
7400000000 -15.840054 -138.36266 -0.051519498 -156.36925 0.056214273 -156.92111 -23.096062 140.41483
7500000000 -16.33045 -11.159695 -0.12056994 -159.32088 -0.016296549 -158.71404 -32.598358 75.514915
7600000000 -15.116602 108.14046 -0.28080744 -160.73257 -0.18033633 -161.18289 -24.687851 163.96384
7700000000 -15.210425 -150.04346 -0.0087458985 -163.20552 0.08685784 -163.82515 -22.431616 128.89728
7800000000 -17.365223 -2.0427201 -0.12551914 -164.20924 -0.082297564 -163.89931 -28.818411 78.758911
7900000000 -13.949171 103.56172 -0.2275992 -167.10007 -0.11770732 -167.40155 -25.196804 158.92101
8000000000 -16.812389 -159.30783 -0.16841462 -169.79758 -0.086772896 -170.22615 -23.7265 114.62161
8100000000 -16.528364 -9.5387344 -0.075844526 -170.82573 -0.018194703 -170.46953 -27.791283 60.093105
8200000000 -15.682575 94.133858 -0.3874383 -172.55298 -0.27191284 -172.96889 -27.320816 139.76547
8300000000 -17.198042 -152.54524 -0.1494574 -175.28807 -0.04203885 -175.86641 -23.918299 109.64591
8400000000 -17.452665 -17.177126 -0.18099298 -177.19374 -0.10593329 -177.21173 -29.235428 56.812893
8500000000 -15.736427 83.448059 -0.36032563 -178.56808 -0.28143978 -179.05479 -27.732243 128.56992
8600000000 -20.23473 -170.40297 -0.35832876 178.87616 -0.28354535 178.42046 -25.538097 101.40273
8700000000 -18.499783 -14.224636 -0.25785524 176.99796 -0.17738664 177.00838 -28.990189 54.967049
8800000000 -15.884171 76.640533 -0.37197247 175.36725 -0.26747257 175.05069 -28.556072 119.75224
8900000000 -21.111055 179.65942 -0.44180417 172.9603 -0.33477005 172.48486 -26.075487 95.720268
9000000000 -18.391422 -23.757008 -0.3287096 170.53223 -0.24135327 170.19589 -30.865557 47.885021
9100000000 -16.348476 62.998905 -0.38307515 169.15346 -0.30763361 168.67674 -28.790796 112.59885
9200000000 -21.639528 162.14629 -0.45914787 166.99788 -0.37824643 166.49001 -26.040869 91.043549
9300000000 -19.872309 -31.628191 -0.41580978 164.59442 -0.34908962 164.32387 -30.011261 50.451469
9400000000 -15.7917 61.298203 -0.34491289 162.75655 -0.2683081 162.51854 -28.971437 107.41102
9500000000 -21.213009 146.97841 -0.47582388 160.63989 -0.38540778 160.22005 -26.149097 83.22258
9600000000 -19.952026 -35.925766 -0.49599153 158.59427 -0.3966268 158.2426 -30.528969 49.714611
9700000000 -16.345318 45.175537 -0.44632024 156.24521 -0.37933695 155.94055 -27.635771 97.375
9800000000 -24.343489 149.71832 -0.50717187 155.07359 -0.41297266 154.5603 -26.872793 76.924072
9900000000 -18.942188 -37.916313 -0.42984381 153.09705 -0.33363566 152.57779 -28.727333 37.996159
10000000000 -16.090847 43.017159 -0.44204786 149.99335 -0.38877034 149.60004 -27.522009 89.653732
10100000000 -21.47595 141.52237 -0.38966015 148.52597 -0.32125589 147.99077 -25.871536 73.045563
10200000000 -20.127954 -52.416874 -0.49163529 146.66969 -0.41898251 146.11371 -29.382534 31.555052
10300000000 -18.420189 34.487843 -0.55553687 144.43649 -0.50337952 144.19841 -28.34474 71.706039
10400000000 -24.507801 149.4315 -0.45950976 142.32475 -0.35880685 142.0029 -26.503212 58.434803
10500000000 -20.262197 -56.316616 -0.47262487 141.13124 -0.34827822 140.41779 -27.875185 24.260571
10600000000 -17.960817 30.857288 -0.56799972 138.37688 -0.49672931 137.88774 -28.893543 60.75555
10700000000 -24.315418 131.60165 -0.49323505 136.13425 -0.40270156 135.54735 -27.209093 50.156616
10800000000 -20.959455 -60.611229 -0.46843711 134.83603 -0.38437048 134.00597 -28.296642 14.045403
10900000000 -19.101877 13.990487 -0.5430128 132.37219 -0.5116573 132.20854 -30.083111 45.722828
11000000000 -26.78421 141.86792 -0.52242261 130.00546 -0.4297764 129.74658 -28.349026 39.207657
11100000000 -20.118561 -75.774101 -0.44823405 128.15843 -0.32249203 127.45801 -28.894293 -1.2239784
11200000000 -18.625465 4.9640779 -0.52816999 126.13821 -0.48914129 125.88648 -30.659683 36.988205
11300000000 -27.094782 94.872421 -0.65120667 123.93707 -0.55906361 123.52967 -30.344097 32.538719
11400000000 -20.793867 -74.231697 -0.46454734 122.10841 -0.38344786 121.38847 -30.055124 -7.8456292
11500000000 -17.99007 -5.831553 -0.4098053 119.88831 -0.43376988 119.64247 -32.807411 26.796206
11600000000 -27.333742 102.25755 -0.623698 117.79684 -0.53634435 117.39999 -30.979254 24.869373
11700000000 -19.630114 -91.0616 -0.43643856 115.46651 -0.35118166 114.72526 -30.80724 -26.764181
11800000000 -17.70932 -14.81252 -0.3939656 113.05641 -0.40917885 112.98038 -34.165943 39.100655
11900000000 -25.720114 79.869499 -0.64131761 111.52902 -0.55271065 111.22251 -32.047905 24.57906
12000000000 -21.342897 -92.414711 -0.53496772 109.30961 -0.45146218 108.66329 -32.548336 -27.651976
12100000000 -17.192751 -20.096928 -0.37391213 106.6067 -0.33369151 106.46453 -36.953316 41.598652
12200000000 -26.268068 82.02475 -0.61226445 105.42377 -0.52439362 105.00834 -32.966965 17.799545
12300000000 -21.288448 -107.94255 -0.55388141 103.41838 -0.45289966 102.47144 -33.065754 -32.061607
12400000000 -18.604612 -29.129961 -0.43909517 100.13502 -0.42643949 100.00988 -35.654999 47.770153
12500000000 -27.398821 66.974976 -0.6046195 98.955605 -0.53692287 98.875175 -33.703457 18.49959
12600000000 -21.270309 -109.80637 -0.58848804 96.919411 -0.47724932 96.251549 -33.955986 -37.941372
12700000000 -19.25087 -32.852085 -0.48203105 93.997116 -0.45267272 93.920235 -36.383823 28.556503
12800000000 -26.908012 62.991489 -0.63297528 92.634308 -0.53580207 92.311226 -35.311699 4.464036
12900000000 -23.87739 -127.00734 -0.65095991 91.098984 -0.54312247 90.287437 -35.537685 -43.864986
13000000000 -20.966427 -47.488651 -0.62531406 88.089355 -0.56451863 87.54715 -37.117622 8.5324869
13100000000 -29.487175 55.208012 -0.64757413 86.228317 -0.56446284 86.145294 -36.332783 -7.361403
13200000000 -23.364655 -132.13214 -0.61345506 84.872177 -0.51546049 84.126793 -34.896324 -57.288387
13300000000 -20.847502 -61.150677 -0.61923999 81.607735 -0.59862834 81.209198 -37.487869 -9.3449574
13400000000 -27.766151 41.10817 -0.68709445 79.723915 -0.61263353 79.479485 -35.766762 -40.945904
13500000000 -24.225758 -154.47099 -0.64439946 78.485802 -0.55070597 77.855576 -33.85894 -87.686615
13600000000 -22.223249 -71.870926 -0.68851119 76.1614 -0.62728304 75.545441 -37.970108 -89.790901
13700000000 -28.431202 47.474812 -0.70257396 73.585724 -0.62832206 73.354324 -40.23172 -96.671974
13800000000 -22.573162 -166.21382 -0.62035745 72.038605 -0.50696754 71.387642 -34.262836 -122.13744
13900000000 -21.369585 -86.769203 -0.5944581 69.86084 -0.61123693 69.147392 -39.494385 -129.60509
14000000000 -31.551004 33.484005 -0.75494015 67.405609 -0.71746778 67.277206 -39.022541 -134.29649
14100000000 -22.895092 -167.83759 -0.61259192 65.895241 -0.50502473 65.357452 -33.335476 -139.57161
14200000000 -21.926506 -94.008804 -0.57593566 63.613152 -0.56624854 62.968914 -36.473068 -162.30759
14300000000 -31.812595 65.707977 -0.76662958 61.352074 -0.69726563 61.090946 -37.663471 -163.84671
14400000000 -20.923426 178.16161 -0.63683575 59.09436 -0.50318468 58.408253 -30.952971 -160.01843
14500000000 -23.185061 -111.35952 -0.59708685 57.301601 -0.59122467 56.692802 -34.440712 174.54991
14600000000 -33.112175 56.807747 -0.73906451 55.153214 -0.72158235 54.973492 -35.022591 179.24541
14700000000 -23.031132 175.43083 -0.68980181 53.257454 -0.58308697 52.579819 -30.252119 -175.88831
14800000000 -23.520174 -115.20864 -0.57100147 50.953056 -0.54704374 50.149334 -30.071535 159.14233
14900000000 -35.665478 65.13047 -0.77676672 48.828953 -0.72371829 48.73737 -32.280823 152.31451
15000000000 -22.628244 159.47408 -0.7604112 46.623608 -0.64467078 45.907848 -29.575748 157.57422
15100000000 -25.207567 -141.02597 -0.66002947 44.289497 -0.64359748 43.811398 -29.822319 141.28851
15200000000 -35.546467 75.612068 -0.77960408 42.686359 -0.75547153 42.574883 -31.616045 140.04637
15300000000 -24.116682 147.55287 -0.81663263 40.753044 -0.72693008 40.106476 -29.328926 146.319
15400000000 -25.211653 -142.76534 -0.6970253 37.985767 -0.64713293 37.328053 -28.691486 130.36896
15500000000 -38.789139 54.558495 -0.77377641 36.279099 -0.76080722 36.209164 -30.527615 124.50694
15600000000 -23.253918 135.03433 -0.86518776 34.466232 -0.76779431 33.878643 -28.377193 133.58221
15700000000 -25.622559 -173.94527 -0.77937484 31.93787 -0.75053698 31.375095 -28.979437 125.49783
15800000000 -32.821953 65.144653 -0.82196224 30.152285 -0.77525914 30.091864 -29.762941 120.77015
15900000000 -22.539057 122.81701 -0.8819021 28.788393 -0.79318345 28.104149 -27.489943 130.34477
16000000000 -26.351618 -173.80878 -0.84090936 25.940248 -0.79530066 25.075909 -28.504883 121.81479
16100000000 -31.119434 56.784149 -0.81131119 24.118683 -0.76454538 23.840191 -28.395254 113.65231
16200000000 -21.578764 112.83679 -0.86855608 22.500084 -0.79553336 21.942953 -26.313034 123.24474
16300000000 -26.132917 163.00043 -0.835554 20.182617 -0.81417286 19.454798 -27.338343 119.11126
16400000000 -26.974854 57.238415 -0.81293941 17.803814 -0.76461405 17.70998 -27.517673 110.50963
16500000000 -21.511248 105.02651 -0.8575744 16.647108 -0.77397549 16.137077 -25.226299 119.70599
16600000000 -27.045019 158.19893 -0.85037571 14.064439 -0.8067221 13.220405 -26.145929 112.51415
16700000000 -28.588036 58.515392 -0.84922194 11.923721 -0.80397487 11.519935 -25.970886 104.32056
16800000000 -21.136242 99.316177 -0.83647716 10.405835 -0.7685017 9.8023634 -24.534372 112.55167
16900000000 -26.074488 128.52238 -0.84814692 8.375905 -0.81935441 7.6107268 -25.218571 109.02542
17000000000 -25.170521 56.864197 -0.82839584 5.7501168 -0.7998389 5.4085464 -24.97736 100.72639
17100000000 -21.221962 88.537521 -0.82621318 4.1487193 -0.77366364 3.6450517 -23.607208 105.61907
17200000000 -25.619642 117.79309 -0.83376002 1.9664437 -0.80657107 1.3082809 -24.316467 100.30075
17300000000 -26.57814 63.259041 -0.85913384 -0.14967145 -0.82709444 -0.58234197 -24.07675 93.62542
17400000000 -21.255276 82.165001 -0.84571338 -2.1584294 -0.78509611 -2.6658812 -22.947458 98.299477
17500000000 -24.500242 102.44101 -0.82257843 -4.05722 -0.77598006 -4.6774774 -23.593458 95.490379
17600000000 -24.501324 55.637299 -0.83814961 -6.2878103 -0.80820298 -6.7652216 -23.452927 85.792221
17700000000 -20.44924 69.356689 -0.83194715 -8.4463844 -0.79707581 -8.98668 -22.39518 89.968681
17800000000 -24.126097 97.741791 -0.80726165 -10.598228 -0.77648258 -11.185472 -23.064939 86.183769
17900000000 -25.409229 48.68198 -0.82327557 -12.523907 -0.79589242 -12.959327 -23.101442 76.769615
18000000000 -20.436789 66.503906 -0.85303527 -14.837456 -0.81583285 -15.22888 -22.064159 82.675491
18100000000 -23.713652 87.741829 -0.81880218 -16.82659 -0.75415307 -17.31353 -22.770428 81.179939
18200000000 -24.189169 38.067219 -0.82654709 -18.745884 -0.78119421 -19.317596 -22.491455 71.418877
18300000000 -19.747063 56.738556 -0.83724838 -20.840973 -0.80917698 -21.334929 -21.527813 74.798645
18400000000 -24.48242 81.998917 -0.81178916 -23.166788 -0.76065439 -23.795362 -22.489468 70.448235
18500000000 -23.867476 32.12175 -0.77750218 -24.884689 -0.76347309 -25.495735 -22.183495 61.339397
18600000000 -19.851664 51.914455 -0.83470941 -27.200975 -0.82604373 -27.636992 -21.630589 69.033211
18700000000 -23.862053 70.615211 -0.8269937 -29.491993 -0.77382135 -29.912159 -22.624693 65.491684
18800000000 -22.576847 22.164522 -0.7813977 -31.472488 -0.75227141 -31.986006 -22.026628 57.479832
18900000000 -19.352081 41.751701 -0.81924725 -33.516151 -0.8224014 -33.88789 -21.118563 63.034172
19000000000 -23.355883 53.076199 -0.85654378 -35.669994 -0.80540866 -36.126076 -22.040316 57.133324
19100000000 -22.493359 19.876341 -0.77602738 -37.612522 -0.76223665 -38.25806 -21.731737 48.717228
19200000000 -19.604647 35.10006 -0.81544405 -39.805389 -0.83025014 -40.266254 -21.570732 55.919529
19300000000 -22.730904 43.784969 -0.87709808 -41.951023 -0.82668525 -42.377655 -22.154337 53.278168
19400000000 -22.171335 11.209883 -0.82018787 -44.294029 -0.78004557 -44.784302 -21.902853 46.730934
19500000000 -19.628956 22.712648 -0.8344655 -46.425251 -0.84412581 -46.651627 -21.269894 51.276344
19600000000 -22.005016 35.352917 -0.89513773 -48.324883 -0.85469967 -48.628407 -21.660463 45.876415
19700000000 -22.433569 7.8293715 -0.85399437 -50.462143 -0.81821024 -50.987976 -21.597012 38.832214
19800000000 -19.629618 15.654716 -0.87775487 -52.77195 -0.87555909 -53.043926 -21.368416 42.407619
19900000000 -21.858896 28.896843 -0.93029398 -54.620487 -0.87607378 -54.927296 -21.90822 40.396957
20000000000 -22.885529 -1.0251509 -0.93214136 -56.795921 -0.87282771 -57.441494 -21.799561 35.388393
20100000000 -19.467697 5.2875924 -0.90520769 -59.169006 -0.91209358 -59.334946 -21.102245 36.073723
20200000000 -21.918417 22.780338 -0.96834958 -61.021164 -0.91225964 -61.167465 -21.673367 32.063717
20300000000 -22.956743 -8.5115185 -0.95962268 -62.806644 -0.90441453 -63.399437 -21.695684 23.797943
20400000000 -19.128355 0.38066697 -0.97174859 -65.34948 -0.95780832 -65.590126 -21.364166 25.255953
20500000000 -21.986982 14.974857 -1.0381067 -67.01442 -0.95368218 -67.28257 -22.472954 22.637798
20600000000 -22.827934 -21.47077 -1.0231382 -68.887222 -0.92552614 -69.643417 -22.474747 15.471999
20700000000 -19.465384 -10.390443 -0.9880085 -71.126572 -0.98702067 -71.58152 -22.250099 17.627293
20800000000 -23.453476 4.878304 -1.0326943 -73.098404 -0.97390836 -73.379242 -23.048882 16.213724
20900000000 -23.537424 -31.263252 -1.0119687 -74.588676 -0.95110691 -75.421104 -23.112143 7.7207341
21000000000 -20.706642 -17.071709 -1.021402 -76.795952 -1.0165426 -77.356476 -23.337303 11.131921
21100000000 -24.130728 -0.072145037 -1.0409787 -78.741631 -0.98073357 -79.128014 -24.574247 9.7462997
21200000000 -24.145638 -37.901367 -0.97540951 -80.64502 -0.90150172 -81.501869 -24.548063 6.711369
21300000000 -21.231764 -22.644573 -0.9531551 -83.077713 -0.96430194 -83.55117 -23.899641 11.194354
21400000000 -24.496473 -10.311039 -0.99715275 -85.231728 -0.94455582 -85.541527 -24.456045 7.2252336
21500000000 -24.616676 -41.191799 -0.94130176 -86.90435 -0.89846182 -87.883621 -24.50564 -1.7137822
21600000000 -21.763218 -31.634161 -0.92937911 -89.132332 -0.96583241 -89.846779 -24.852589 0.46188471
21700000000 -24.546638 -13.467823 -0.98681921 -91.414963 -0.95918572 -91.781006 -25.485689 1.6772051
21800000000 -26.012321 -48.346539 -0.94352698 -93.622002 -0.89515376 -94.374115 -26.145781 -3.9852805
21900000000 -22.41263 -41.745605 -0.92135078 -96.010376 -0.95183563 -96.345444 -25.765125 -1.992866
22000000000 -24.485025 -21.49003 -1.0029156 -98.178864 -0.99616706 -98.273621 -25.858713 -0.2109804
22100000000 -26.009848 -57.189091 -1.0116711 -100.03201 -0.96639645 -100.71644 -26.688015 -3.9363256
22200000000 -21.722542 -51.665077 -0.96745789 -102.25889 -0.99566567 -102.70634 -25.735022 -7.7528076
22300000000 -25.134052 -30.104832 -1.0589018 -104.02924 -1.0561311 -104.28732 -26.067122 -6.6266575
22400000000 -27.925957 -80.135338 -1.0821197 -106.31651 -1.0342349 -107.03051 -27.623472 -14.279932
22500000000 -23.099911 -64.273552 -1.0208347 -108.37385 -1.0422148 -108.59064 -26.482216 -16.858501
22600000000 -27.706842 -40.547733 -1.0799174 -110.27735 -1.0628026 -110.1177 -27.509861 -14.04594
22700000000 -28.161184 -95.162132 -1.1038641 -112.22697 -1.0368218 -112.74825 -29.915545 -24.578402
22800000000 -23.347277 -69.646118 -1.0348287 -114.51795 -1.0233369 -114.75656 -28.54221 -21.631052
22900000000 -28.216639 -43.3591 -1.0569984 -116.25996 -1.0425456 -116.24245 -30.131065 -12.699802
23000000000 -29.047478 -102.05344 -1.0825711 -118.36013 -1.0246428 -119.05451 -31.501575 -27.588015
23100000000 -25.032751 -77.938034 -1.0829817 -120.58829 -1.0489457 -121.06686 -30.323677 -30.453447
23200000000 -31.318382 -61.451614 -1.1054964 -122.48536 -1.0586832 -122.55257 -32.543949 -23.477356
23300000000 -28.939005 -118.66227 -1.1592017 -124.28524 -1.0694064 -124.85821 -35.825882 -44.10128
23400000000 -26.498344 -91.805359 -1.1117618 -126.67952 -1.0952201 -127.12676 -33.185555 -42.951756
23500000000 -32.584545 -85.913795 -1.1411885 -128.47771 -1.091903 -128.56721 -37.301868 -40.847282
23600000000 -30.778423 -137.06792 -1.1471435 -130.03464 -1.0827727 -130.71049 -40.324829 -104.01588
23700000000 -29.371941 -111.48813 -1.0989596 -132.25313 -1.0837625 -133.03955 -39.765682 -102.90814
23800000000 -37.112305 -122.22031 -1.1298401 -134.13742 -1.0657794 -134.57574 -44.312305 166.70427
23900000000 -32.058983 -172.19226 -1.0977231 -135.99883 -1.0442275 -136.82568 -36.255524 156.88881
24000000000 -30.119339 -145.62202 -1.0876468 -138.21867 -1.0882976 -139.00079 -39.613712 165.08908
24100000000 -36.843414 -159.66927 -1.0900493 -140.57489 -1.0592775 -140.79305 -37.536144 129.41536
24200000000 -30.551554 166.33719 -1.0736729 -142.25075 -1.0308008 -142.88367 -32.076122 141.12706
24300000000 -31.022612 -172.15092 -1.0502008 -144.32527 -1.0558449 -145.15518 -32.971474 149.64606
24400000000 -36.302681 147.05234 -1.0439804 -146.56454 -1.0464958 -147.07806 -31.111475 126.13258
24500000000 -28.661716 138.9584 -1.0321325 -148.3714 -1.0033827 -149.26804 -27.649107 132.44962
24600000000 -29.164251 161.9153 -1.0049989 -150.65422 -1.0281084 -151.39467 -29.154251 130.6933
24700000000 -30.287233 127.56948 -1.0150377 -152.95105 -1.0277919 -153.27809 -27.737026 111.31808
24800000000 -26.204361 131.54283 -1.0007688 -155.0244 -0.97868586 -155.60181 -26.098347 120.217
24900000000 -28.247828 142.53635 -0.97753108 -157.22685 -1.0114024 -157.73346 -27.594873 118.55336
25000000000 -28.794687 108.93607 -1.0054818 -159.32851 -1.0332867 -159.72375 -25.77013 106.59917
25100000000 -25.074312 114.32361 -1.0145 -161.41107 -1.0015179 -162.01038 -24.424381 114.06654
25200000000 -26.571032 119.52823 -0.98762965 -163.50052 -1.0093703 -164.05765 -25.352016 109.72572
25300000000 -25.502739 103.25053 -1.0149547 -165.74178 -1.0279154 -165.98935 -23.998714 98.473007
25400000000 -23.448092 106.68328 -1.0179627 -167.9066 -0.99968773 -168.37961 -23.190935 104.57728
25500000000 -24.485771 109.85156 -0.99346554 -170.04774 -1.0221399 -170.57993 -24.011848 98.254074
25600000000 -24.51482 93.647896 -1.0291464 -172.18744 -1.0525339 -172.43182 -22.874931 92.705627
25700000000 -22.86685 91.416939 -1.0479558 -174.2997 -1.0480326 -174.6494 -22.224825 97.461563
25800000000 -23.121428 92.84127 -1.0339818 -176.42059 -1.0408024 -176.77988 -22.681107 91.844841
25900000000 -22.911884 84.898293 -1.0592694 -178.4968 -1.0504589 -178.71843 -21.530128 86.710052
26000000000 -21.224863 82.284645 -1.0766457 179.35788 -1.065574 178.95056 -21.158262 89.408684
26100000000 -21.684683 86.180603 -1.0701591 177.18364 -1.0837867 176.72522 -21.581041 85.504311
26200000000 -22.005306 76.578636 -1.0868883 175.05739 -1.1009223 174.82396 -20.61426 80.844498
26300000000 -20.539326 71.67466 -1.1121887 173.07019 -1.1102966 172.77206 -20.098888 81.710205
26400000000 -20.821379 73.864746 -1.1292225 170.82895 -1.1237364 170.45879 -20.463449 78.447166
26500000000 -20.989822 62.816132 -1.1300858 168.78764 -1.1321963 168.55031 -19.670732 71.5933
26600000000 -19.51893 62.69846 -1.1694721 166.8186 -1.1711547 166.52757 -19.58296 73.620224
26700000000 -20.231817 66.130341 -1.1994911 164.70229 -1.2021055 164.30496 -20.117554 69.126793
26800000000 -20.587732 54.340199 -1.1998481 162.67769 -1.2064919 162.51974 -19.357088 65.837379
26900000000 -19.069603 53.252068 -1.219739 160.96075 -1.2245542 160.71309 -19.222355 68.042793
27000000000 -20.125095 55.727119 -1.2245985 158.86748 -1.2076008 158.56978 -19.581472 62.638424
27100000000 -19.959312 43.087025 -1.1895493 156.81917 -1.1801361 156.69078 -19.171511 61.216152
27200000000 -18.806837 46.108894 -1.183731 154.79745 -1.2097893 154.65219 -19.322397 64.167122
27300000000 -19.794603 49.864532 -1.2193201 152.68518 -1.2094184 152.17584 -19.35305 59.527081
27400000000 -20.166203 38.622337 -1.2343576 150.67111 -1.1354557 149.85156 -19.08732 61.87373
27500000000 -18.803402 41.509674 -1.2229352 148.77582 -1.1770221 148.19427 -19.156334 66.390366
27600000000 -19.519417 45.546375 -1.2334546 146.55881 -1.1756288 146.27415 -19.288193 49.768475
27700000000 -19.299944 36.836899 -1.2048599 144.39861 -1.1657724 144.28081 -17.280975 49.380367
27800000000 -18.10417 35.724289 -1.2024516 142.31522 -1.2216643 142.17543 -17.993633 57.156654
27900000000 -18.649723 38.787144 -1.2563967 140.3826 -1.2320535 139.94049 -19.472649 45.406311
28000000000 -18.687214 28.095911 -1.2729933 138.12364 -1.2121115 137.83614 -17.120047 39.431576
28100000000 -17.835119 28.385519 -1.264044 136.10806 -1.2510399 136.1272 -16.518904 56.423
28200000000 -18.50872 33.146587 -1.3413695 134.51569 -1.2721739 133.7916 -24.429379 75.722466
28300000000 -18.966208 20.484396 -1.4887377 135.07098 -1.4410639 135.18733 -21.856037 -129.73285
28400000000 -17.603729 25.77284 -1.0143665 130.92023 -1.1279976 130.41759 -24.474571 47.501152
28500000000 -18.252405 27.085302 -1.1659126 128.15613 -1.0928752 127.74339 -18.199951 32.646763
28600000000 -18.179523 20.57897 -1.1816537 126.00904 -1.1592211 125.71212 -17.612045 37.353416
28700000000 -17.245308 19.524807 -1.2261806 123.76623 -1.2520016 123.43732 -17.382456 37.999142
28800000000 -17.450251 22.379839 -1.275321 121.77752 -1.2592869 121.33356 -17.289846 39.153774
28900000000 -17.561241 13.488894 -1.2836143 119.95503 -1.250031 119.44627 -17.317818 34.195648
29000000000 -16.654816 12.152016 -1.260703 117.97401 -1.2902158 117.61623 -16.590891 31.715775
29100000000 -17.37636 10.578026 -1.2826467 115.67056 -1.2760769 115.29005 -16.510149 31.826094
29200000000 -17.16482 2.0812378 -1.2747916 113.76018 -1.2692662 113.18231 -16.715319 24.551224
29300000000 -16.545959 2.5751507 -1.2817535 111.62318 -1.3406154 111.43938 -16.137892 20.868095
29400000000 -17.477449 2.339752 -1.3419952 109.66591 -1.3777916 109.3598 -16.560888 19.458557
29500000000 -17.495075 -4.7399712 -1.3312023 107.69841 -1.3314041 107.31295 -17.267433 12.992759
29600000000 -17.23254 -3.6281393 -1.3376573 105.88445 -1.3658185 105.88645 -17.12854 11.757721
29700000000 -18.07045 -5.382669 -1.353017 103.98565 -1.3594497 103.91245 -17.643797 15.212317
29800000000 -17.982929 -9.8189182 -1.2823071 102.06871 -1.2637107 101.84034 -18.164038 12.935704
29900000000 -17.345562 -8.7012606 -1.1995986 99.653328 -1.2418659 99.806786 -17.221291 13.365862
30000000000 -17.685154 -9.4898415 -1.2613094 97.273445 -1.2917852 97.371078 -17.026371 13.024048
30100000000 -17.751404 -13.763256 -1.3147639 95.261093 -1.3142254 95.057693 -17.480564 5.025806
30200000000 -17.635485 -16.823912 -1.3273883 93.235756 -1.3086147 93.428268 -17.278894 1.8496537
30300000000 -17.980665 -17.956625 -1.3309513 91.525887 -1.3136575 91.653564 -18.009977 5.0796175
30400000000 -18.261309 -20.771795 -1.34018 89.484016 -1.2813154 89.301079 -18.530853 5.1085858
30500000000 -17.893606 -23.919184 -1.3130059 86.879326 -1.27887 87.019455 -17.24357 -0.50152767
30600000000 -18.210127 -25.733034 -1.3733382 85.111633 -1.3329072 85.33548 -17.675018 -0.90866786
30700000000 -18.638506 -26.529827 -1.3824153 83.272408 -1.3488812 83.034248 -18.669664 -7.0309486
30800000000 -18.487017 -30.470505 -1.3873436 81.117432 -1.3246454 81.021675 -17.980537 -13.031224
30900000000 -18.703302 -32.72929 -1.4237845 79.386581 -1.3423085 79.398865 -19.014069 -7.8042068
31000000000 -18.910095 -35.949295 -1.4072731 77.558182 -1.3575791 77.376556 -20.33732 -15.062106
31100000000 -19.211 -35.607445 -1.3976903 75.683548 -1.3118435 75.351448 -19.490688 -15.606513
31200000000 -20.37784 -34.82357 -1.354551 73.946136 -1.2895592 73.728607 -20.475555 -9.3866997
31300000000 -20.729856 -38.063122 -1.3464071 71.945511 -1.319921 71.371658 -21.839806 -20.069096
31400000000 -20.967873 -49.684219 -1.3716403 69.675652 -1.2953004 68.690285 -20.199978 -17.788843
31500000000 -19.726006 -53.610325 -1.3636602 67.740654 -1.2293947 66.360603 -20.984119 -7.3301439
31600000000 -19.673294 -58.92926 -1.2967029 66.425766 -1.2601619 65.829956 -23.259501 -17.870682
31700000000 -20.826511 -56.436642 -1.2808089 63.702923 -1.2440324 63.039455 -21.523211 -25.335552
31800000000 -21.004627 -56.435349 -1.2421108 61.720253 -1.2585647 61.219723 -22.315359 -15.942254
31900000000 -21.572325 -53.761696 -1.2611728 59.729389 -1.1966815 59.037376 -24.00696 -20.724573
32000000000 -22.341213 -58.299702 -1.2046376 57.613438 -1.2199407 56.585178 -23.139021 -28.809202
32100000000 -22.148508 -61.254559 -1.2037128 55.322308 -1.2154068 54.843731 -23.701611 -18.15317
32200000000 -22.833021 -60.639118 -1.1890785 53.172073 -1.1635782 52.667213 -25.363235 -23.136913
32300000000 -24.178244 -68.533234 -1.1068882 51.140835 -1.1752449 50.426075 -24.69017 -32.242065
32400000000 -24.200531 -70.777473 -1.1491086 48.657505 -1.1956661 48.357395 -25.293217 -21.540367
32500000000 -25.755989 -65.539375 -1.1371659 46.473675 -1.1622996 45.924866 -28.249973 -25.722153
32600000000 -27.038494 -75.887123 -1.1254847 44.343636 -1.1748475 43.712822 -27.369225 -30.195448
32700000000 -26.081087 -71.779823 -1.174256 41.981819 -1.1913568 41.815948 -27.246641 -9.4132204
32800000000 -28.219561 -65.315186 -1.1856203 39.869633 -1.1847856 39.488659 -29.734018 -5.8349252
32900000000 -30.488327 -83.835884 -1.1707823 37.711971 -1.2003288 37.357677 -28.116304 -18.315947
33000000000 -30.122265 -76.507774 -1.1724855 35.517262 -1.240535 35.526699 -26.963037 -5.3241072
33100000000 -34.165501 -56.05418 -1.2284429 33.484146 -1.2470703 33.199753 -29.984575 -1.0919038
33200000000 -35.620094 -79.796333 -1.2256964 31.33765 -1.2643917 31.042625 -30.305901 -17.292742
33300000000 -31.396194 -64.255371 -1.2480575 29.374939 -1.2517297 29.378174 -28.992218 7.4391913
33400000000 -34.853474 -53.517017 -1.2966087 27.564857 -1.2654847 27.40152 -30.008585 25.420782
33500000000 -36.978878 -94.609039 -1.2484113 25.4034 -1.2421887 25.142578 -30.138472 0.82450086
33600000000 -37.303276 -88.77771 -1.224443 23.348482 -1.2066718 23.318644 -28.2726 6.3609252
33700000000 -52.612328 -34.12989 -1.2335145 21.150829 -1.222303 21.069473 -32.972675 19.803257
33800000000 -43.262188 158.98282 -1.2370212 19.00547 -1.2388737 18.622488 -35.758781 13.152098
33900000000 -48.445122 -167.26439 -1.2399678 16.869225 -1.214932 16.673326 -31.204605 47.820129
34000000000 -39.394032 77.126015 -1.2716521 14.840678 -1.2260991 14.660482 -29.437168 70.802841
34100000000 -34.260338 110.54533 -1.2816082 12.6854 -1.2474723 12.253654 -29.115967 62.842133
34200000000 -35.41507 92.03373 -1.2695034 10.430538 -1.2392117 10.205887 -26.542423 53.773342
34300000000 -30.629263 76.36879 -1.3069351 8.4979153 -1.2662059 8.1768112 -26.683237 60.147125
34400000000 -29.194862 87.920258 -1.3354998 6.545764 -1.3346465 6.0825391 -28.426489 62.04166
34500000000 -31.3323 81.690102 -1.3420289 4.5571189 -1.3317522 4.1847553 -26.520226 65.091827
34600000000 -27.949631 70.981003 -1.3203154 2.9012909 -1.2937523 2.4791777 -24.405638 75.185486
34700000000 -26.908878 81.391792 -1.3010948 0.84363317 -1.2906708 0.35940066 -24.437641 72.965714
34800000000 -27.6535 76.593651 -1.265071 -1.5581735 -1.2603935 -1.9699448 -24.124483 63.562901
34900000000 -25.153444 71.681404 -1.2638125 -3.6612644 -1.2479908 -4.0491896 -23.141115 70.327705
35000000000 -24.226141 82.273033 -1.276381 -5.6921868 -1.2817541 -6.1951375 -23.52898 76.171997
35100000000 -24.975389 75.17382 -1.2883033 -8.0459652 -1.2902262 -8.4799843 -22.685324 72.808884
35200000000 -22.841761 69.405563 -1.2777599 -10.151201 -1.2767414 -10.568233 -21.17193 74.306786
35300000000 -22.029142 76.083939 -1.3188621 -12.051565 -1.3318506 -12.573967 -20.724314 77.074005
35400000000 -21.305265 70.622292 -1.2948443 -14.128895 -1.3135667 -14.55339 -19.997896 70.371941
35500000000 -20.257692 65.423775 -1.2813071 -16.44902 -1.2965865 -16.772823 -19.124207 68.731071
35600000000 -20.031317 65.095169 -1.2988364 -18.55526 -1.3144855 -18.965469 -19.056171 70.732117
35700000000 -19.424334 60.120152 -1.322572 -20.736238 -1.3376122 -21.085386 -18.538166 65.910347
35800000000 -18.764332 56.940182 -1.3456758 -22.917164 -1.359632 -23.240473 -17.240511 63.137772
35900000000 -18.425966 53.376278 -1.3686571 -24.953693 -1.3815804 -25.365768 -17.398527 61.28627
36000000000 -18.213125 50.637352 -1.3869727 -26.950247 -1.4126122 -27.364651 -17.447117 55.164795
36100000000 -18.017693 47.480728 -1.4213531 -29.040783 -1.4454793 -29.360331 -16.870441 53.277882
36200000000 -17.814814 43.679119 -1.446745 -30.97234 -1.4657109 -31.35885 -16.796854 53.603554
36300000000 -17.628889 41.881527 -1.4638211 -32.78587 -1.4851978 -33.129242 -17.110086 48.014095
36400000000 -17.738541 40.576145 -1.4664617 -34.644562 -1.4894048 -34.901699 -16.682701 46.127842
36500000000 -17.394403 39.181606 -1.4466093 -36.532303 -1.4713012 -36.873158 -16.685247 50.108704
36600000000 -17.041697 40.249039 -1.3819684 -38.438156 -1.4086415 -38.848881 -16.654013 46.858372
36700000000 -16.720755 37.5853 -1.3538119 -40.821953 -1.3931836 -41.105137 -15.749277 44.356243
36800000000 -16.21706 34.211388 -1.3913155 -43.309155 -1.418359 -43.612377 -15.479016 47.701607
36900000000 -15.892616 32.491329 -1.4271555 -45.57098 -1.4623038 -45.830242 -15.582986 43.448406
37000000000 -15.81223 28.182045 -1.4647838 -47.407955 -1.5084447 -47.544968 -14.460171 38.112324
37100000000 -15.435007 25.067904 -1.5127844 -49.304493 -1.5526676 -49.428577 -14.548384 37.603325
37200000000 -15.587551 24.534742 -1.4905241 -51.201477 -1.5282165 -51.37001 -15.168882 30.702854
37300000000 -15.907935 21.328125 -1.4699363 -53.036575 -1.502791 -53.153008 -14.687104 28.212814
37400000000 -15.401318 19.735867 -1.4737974 -55.126053 -1.5158976 -55.193474 -14.981632 34.605282
37500000000 -15.063471 21.071245 -1.4533689 -57.427471 -1.4912382 -57.500271 -15.13454 30.683245
37600000000 -15.00051 16.090744 -1.4673219 -59.781773 -1.4872569 -59.656715 -14.07842 26.875031
37700000000 -14.413566 11.931869 -1.5248656 -61.636475 -1.559983 -61.36068 -14.062741 28.727537
37800000000 -14.716582 12.872153 -1.5263549 -63.603458 -1.5445275 -63.45842 -14.758766 23.622515
37900000000 -15.094337 8.5344095 -1.5139064 -65.974899 -1.5183951 -65.813019 -13.563529 19.030943
38000000000 -14.412393 4.9227343 -1.596319 -67.80175 -1.5909573 -67.528236 -13.798726 20.603996
38100000000 -14.675762 6.3659801 -1.6442157 -69.455231 -1.6413422 -69.334183 -14.884826 15.217884
38200000000 -15.041607 1.4501132 -1.6166579 -71.316025 -1.5952804 -71.263062 -14.105104 11.210296
38300000000 -14.226709 -2.307555 -1.5768416 -73.183029 -1.5535265 -72.866859 -14.154244 16.879868
38400000000 -14.650854 1.7783339 -1.6019769 -74.886421 -1.5676886 -74.750198 -15.258408 13.121066
38500000000 -15.21524 -5.0005445 -1.5899898 -77.169853 -1.5423406 -77.144295 -14.241295 7.1355515
38600000000 -14.456049 -6.568924 -1.5359632 -79.265053 -1.486805 -78.968124 -14.14073 12.906164
38700000000 -14.772936 -2.0269699 -1.5477464 -80.84391 -1.5017407 -80.924599 -15.078216 9.6764297
38800000000 -15.283829 -9.006093 -1.5676676 -83.099686 -1.5116447 -83.370598 -14.046062 1.9692031
38900000000 -14.135851 -11.27393 -1.5211706 -85.198967 -1.462734 -85.297333 -14.324693 7.6814227
39000000000 -14.723343 -6.7284827 -1.5193849 -86.757828 -1.464667 -87.13987 -15.679411 3.4704847
39100000000 -15.064986 -14.325562 -1.5175184 -89.167831 -1.4696695 -89.682655 -14.196549 0.76532596
39200000000 -14.043727 -16.641794 -1.4803661 -91.538452 -1.4478199 -91.696793 -14.205065 5.2664967
39300000000 -14.488837 -13.279551 -1.4995987 -93.337341 -1.4566952 -93.736855 -15.243735 -0.90040475
39400000000 -15.020244 -22.586866 -1.4890885 -95.210701 -1.5083225 -95.878784 -14.084783 -6.8316708
39500000000 -14.096268 -22.883142 -1.5322219 -97.515266 -1.495942 -97.826996 -14.367288 -2.0117793
39600000000 -14.833043 -18.160671 -1.4918569 -99.21151 -1.4809848 -99.798187 -15.636271 -9.6985807
39700000000 -15.181236 -25.592487 -1.4864004 -101.09642 -1.5020912 -101.90713 -14.813777 -12.051394
39800000000 -14.18896 -27.026194 -1.4795837 -103.5721 -1.4740533 -103.79347 -14.708631 -2.9259794
39900000000 -14.675829 -24.411716 -1.4528053 -105.5928 -1.470005 -105.89377 -15.360473 -9.5195494
40000000000 -15.077254 -33.51981 -1.424502 -107.45399 -1.4692804 -108.02304 -14.459806 -15.184973
