!Keysight Technologies,N5224A,MY55441802,A.10.65.16
!Date: Wednesday, May 13, 2026 18:20:38
!Correction: S11(Full 2 Port(1,2)) 
!S21(Full 2 Port(1,2)) 
!S12(Full 2 Port(1,2)) 
!S22(Full 2 Port(1,2)) 
!S2P File: Measurements: S11, S21, S12, S22:
# Hz S  dB   R 50
1000000000 -0.48165503 -85.491821 -6.0912142 -16.989576 5.7855458 -15.572519 -8.3472614 -82.839684
1100000000 0.30361545 155.53053 -10.98064 34.326321 -1.1313779 9.6008692 -6.1104155 48.852581
1200000000 1.4808266 1.1195056 -15.121538 -139.27699 -14.896055 -72.153923 -0.87674367 -28.23312
1300000000 8.0993023 -78.470963 -0.13068521 -30.199337 9.6635056 -26.852371 -13.539452 -46.380867
1400000000 1.6404178 166.40155 -9.8004436 52.333191 -2.3759987 11.893289 -5.6452761 40.016994
1500000000 3.2691798 -0.89497185 -9.4609575 -160.1494 -11.298139 -125.90752 -0.97992349 -30.307308
1600000000 14.24275 -55.85442 5.5286498 -20.777895 13.225264 -17.257261 -3.5639367 30.600952
1700000000 3.280385 172.00308 -7.021277 75.503159 -3.7313216 19.875895 -3.6413136 38.425358
1800000000 6.1913004 -5.0046177 -4.6796598 -177.68983 -5.0669994 -166.11612 0.25978944 -35.907364
1900000000 13.417139 -30.453564 6.3989024 0.87245673 11.653372 0.86160851 -0.26061279 69.817169
2000000000 6.0289316 174.30814 -1.9697238 88.983955 -4.1737452 41.202271 -1.3499756 36.158703
2100000000 10.701706 -4.4334249 2.6664431 179.57457 2.9475393 178.55894 3.1161375 -32.482555
2200000000 13.06354 -31.303089 7.0917568 -0.56986189 11.069488 -3.1445577 0.95748967 63.76086
2300000000 9.8806038 172.55258 4.4514928 100.41027 -1.0129983 72.591919 2.0462525 37.015457
2400000000 14.134802 14.497808 7.8221478 -162.40504 8.6893091 -164.78354 5.6275249 -15.938893
2500000000 10.296629 -60.354313 7.0566888 -26.499655 9.3737011 -29.919968 -0.80503327 30.689037
2600000000 16.274149 -153.53833 12.375869 142.34384 7.4584618 134.67433 7.9095788 63.422226
2700000000 12.602585 97.092957 9.4169474 -82.181091 10.831964 -85.851776 2.331712 72.069359
2800000000 9.9225178 -77.274567 7.5369859 -39.870697 9.2737694 -43.765171 -0.33602369 9.884696
2900000000 13.111594 -33.832211 12.178843 -92.730118 9.8165226 -94.008301 4.6684031 -171.0576
3000000000 9.6636734 98.203484 7.3617802 -82.315956 8.8859711 -83.401283 -0.98088324 71.319038
3100000000 5.7266092 -109.31356 5.8588128 -61.276592 6.742003 -65.659042 -3.5425272 -20.332518
3200000000 8.3315067 -33.34507 8.6121397 -90.452621 6.9669375 -86.613258 -0.029217951 -164.082
3300000000 4.0252805 95.223557 4.2484608 -81.546738 5.358386 -80.820808 -7.9055076 69.692368
3400000000 3.9421999 -107.75856 4.894742 -65.274811 5.402215 -67.436897 -5.7398467 -20.848064
3500000000 3.5792911 -48.594048 4.9508152 -95.590195 3.8457017 -88.191383 -6.6487746 -166.774
3600000000 3.6646287 96.274666 4.147542 -85.297112 5.0730281 -84.355484 -8.6805897 68.43486
3700000000 2.6815605 -133.98492 4.4377389 -79.956543 4.5527301 -81.803482 -6.9212699 -40.857948
3800000000 0.87030709 -44.052185 3.8175941 -94.074532 2.6065915 -88.358322 -10.048317 -160.77901
3900000000 0.768637 95.792862 2.9125292 -86.376648 3.5843165 -85.820839 -13.642571 75.972366
4000000000 1.5503792 -144.12146 3.9167588 -89.730896 3.8898249 -92.074837 -8.0501652 -61.019749
4100000000 0.80776119 -55.373016 3.7694337 -99.400658 2.6417654 -96.253448 -10.029726 -161.8544
4200000000 -2.6186962 71.733383 1.7153398 -96.353172 2.1425402 -97.713684 -18.318953 37.629704
4300000000 -1.8792287 -158.24463 2.6852243 -97.20623 2.5188437 -98.883934 -11.051325 -76.452103
4400000000 -3.3401303 -56.40369 2.2887993 -101.62326 1.5576644 -100.14857 -13.910172 -169.13943
4500000000 -4.3692408 74.577858 1.3838204 -98.550362 1.9051999 -98.330399 -22.428732 60.701866
4600000000 -3.5741289 -160.88564 2.0111823 -102.91812 1.9674897 -104.61906 -12.446459 -92.681419
4700000000 -4.4220076 -68.775131 1.8067461 -106.16051 1.480884 -105.82445 -14.425429 -167.61609
4800000000 -5.5752816 65.928741 0.97470224 -105.67858 1.5262902 -105.32458 -25.516769 31.575098
4900000000 -5.8022714 -175.82957 1.4708161 -108.71979 1.3674376 -109.6099 -14.278973 -100.45185
5000000000 -6.0446758 -73.93129 1.2476186 -112.89947 1.0757086 -111.41636 -16.440052 178.12901
5100000000 -7.516171 54.754108 0.87832195 -111.87609 1.213976 -109.31487 -26.213295 48.499531
5200000000 -6.644979 174.88214 1.0522234 -115.3113 1.0220513 -115.77146 -15.365434 -115.25556
5300000000 -7.0732741 -86.728058 0.94118363 -118.50282 0.85084486 -117.72674 -16.929195 175.7973
5400000000 -9.3869019 52.128178 0.47095278 -117.08003 0.8645612 -115.91727 -33.323486 35.934105
5500000000 -7.2198257 159.99161 1.0088154 -120.63506 0.91817814 -120.88246 -16.526079 -113.85187
5600000000 -9.1042433 -83.588135 0.63055789 -122.65523 0.58713067 -122.1097 -18.589859 174.54597
5700000000 -6.8948312 27.729994 0.81161332 -127.44054 1.1405617 -125.56882 -24.410419 11.397057
5800000000 -10.123332 156.117 0.43247002 -125.26025 0.42574328 -125.27215 -19.024811 -129.02409
5900000000 -9.6350288 -98.763786 0.4367812 -129.2487 0.49459633 -128.91106 -18.833416 170.11859
6000000000 -10.861367 27.278269 0.17119096 -131.07297 0.48178735 -130.00308 -36.409248 -32.768841
6100000000 -9.3135538 147.34425 0.62880152 -131.21965 0.61366636 -131.5856 -19.341188 -128.07838
6200000000 -12.607091 -105.00564 0.10858437 -133.91878 0.16757686 -133.89635 -19.571486 171.67589
6300000000 -11.018221 26.483946 0.25696224 -136.51944 0.39325389 -135.56926 -46.821388 21.26762
6400000000 -10.830011 136.75926 0.25858408 -138.63515 0.2585693 -138.99503 -21.565269 -145.57292
6500000000 -13.36877 -117.47691 -0.029918589 -139.04475 -0.012603388 -139.34973 -20.929382 156.16649
6600000000 -14.410569 24.446611 -0.14537826 -141.41313 -0.057713646 -141.05377 -30.957855 168.20709
6700000000 -11.294468 130.94896 0.17228033 -143.47977 0.2536042 -143.86508 -19.855364 -146.43288
6800000000 -14.374549 -123.17072 -0.020111799 -144.64613 0.062529735 -145.18413 -21.269621 167.79564
6900000000 -14.142132 9.6148386 -0.17382321 -147.79298 -0.065778024 -147.91554 -30.621258 156.1946
7000000000 -13.525839 121.17159 -0.090730034 -149.68996 0.0019533858 -150.17226 -20.303251 -175.22044
7100000000 -15.583865 -129.81506 -0.022061767 -150.74951 0.045060933 -151.24898 -20.269215 157.99037
7200000000 -15.257993 11.776446 -0.22729613 -153.2476 -0.11689535 -153.00185 -28.699484 142.28134
7300000000 -12.063667 109.80423 -0.052495394 -156.87637 0.063285433 -157.18585 -19.966406 175.71593
7400000000 -16.450047 -135.29451 -0.11694074 -157.21069 -0.0044809948 -157.7269 -20.455999 143.61404
7500000000 -14.929172 -8.7499504 -0.18007846 -160.26324 -0.07871896 -159.63255 -29.743317 118.84664
7600000000 -14.703918 102.24794 -0.36789513 -161.52489 -0.25591171 -162.01532 -21.734419 160.09464
7700000000 -15.948072 -147.85265 -0.10179948 -164.01006 0.01204509 -164.62788 -20.028683 132.84299
7800000000 -15.875985 -0.45463815 -0.19130814 -164.99551 -0.14961565 -164.7476 -26.564095 106.87428
7900000000 -13.570127 97.709091 -0.30934483 -167.8327 -0.19637977 -168.24327 -22.139391 154.84177
8000000000 -17.651136 -157.125 -0.24825375 -170.61888 -0.16312626 -171.10117 -20.937025 120.78445
8100000000 -14.994105 -7.594502 -0.12141842 -171.71266 -0.07091517 -171.33727 -26.487453 87.107246
8200000000 -15.168308 87.45723 -0.47616836 -173.34419 -0.35514161 -173.77942 -23.55419 139.80832
8300000000 -18.15004 -149.42706 -0.24107507 -176.18901 -0.12338845 -176.7303 -21.107359 115.37846
8400000000 -15.900561 -15.311476 -0.25108245 -178.10004 -0.17172484 -178.11685 -27.187155 87.637878
8500000000 -15.099548 76.231895 -0.45827559 -179.37671 -0.37206891 -179.94325 -24.065813 129.84142
8600000000 -21.628374 -168.52826 -0.44404736 178.08865 -0.36179531 177.56599 -22.334694 109.1348
8700000000 -16.825464 -12.799628 -0.32409096 176.14972 -0.24834482 176.16142 -26.529125 82.457962
8800000000 -15.159483 69.937622 -0.45158046 174.49445 -0.35101426 174.15048 -24.6185 122.04798
8900000000 -22.644125 179.72954 -0.52386755 172.11594 -0.41354302 171.62015 -22.739101 103.00156
9000000000 -16.74659 -22.164011 -0.41108903 169.56079 -0.32059678 169.27785 -27.724751 81.196068
9100000000 -15.501164 56.137917 -0.47099036 168.23233 -0.38985002 167.73463 -24.708914 113.72212
9200000000 -23.226301 159.48666 -0.55045962 166.20743 -0.46097353 165.64957 -22.883263 96.781982
9300000000 -18.104166 -29.091665 -0.50252122 163.69019 -0.43307617 163.42023 -26.80085 77.20697
9400000000 -15.006331 54.903255 -0.42146 161.88879 -0.34449384 161.59216 -24.865364 107.90945
9500000000 -22.534159 141.41385 -0.56490475 159.83586 -0.47131905 159.3364 -22.985407 88.691422
9600000000 -18.242371 -33.802605 -0.581613 157.63345 -0.48121038 157.31479 -26.964958 74.005829
9700000000 -15.410156 39.200172 -0.53064036 155.30969 -0.4626942 155.01488 -24.106068 99.085022
9800000000 -26.514515 144.23004 -0.59900278 154.21027 -0.49876413 153.67564 -23.527273 81.581505
9900000000 -17.379442 -36.613945 -0.5156635 152.16618 -0.41022709 151.68013 -26.062445 58.557808
10000000000 -15.211048 37.183548 -0.5319311 149.07309 -0.47316134 148.6465 -24.101328 91.020203
10100000000 -22.747835 137.06453 -0.4767687 147.66115 -0.40337005 147.06293 -22.882616 76.072197
10200000000 -18.549971 -49.716183 -0.57571852 145.76332 -0.50010276 145.19864 -26.461573 51.803207
10300000000 -17.417185 27.919426 -0.64271367 143.54396 -0.59182858 143.28094 -24.972134 75.679054
10400000000 -26.563105 147.88429 -0.5372988 141.43048 -0.43740627 141.07547 -23.491837 63.869926
10500000000 -18.729965 -54.102875 -0.55649167 140.18771 -0.42531726 139.48671 -25.524935 40.686398
10600000000 -17.056448 24.624125 -0.65876961 137.4334 -0.5834583 136.94246 -25.457775 65.728455
10700000000 -26.104931 126.0763 -0.58255517 135.22287 -0.48563266 134.5829 -24.195194 54.914436
10800000000 -19.460917 -58.55127 -0.55472648 133.9189 -0.46437466 133.05156 -26.052828 31.000063
10900000000 -18.00252 8.1199293 -0.63226771 131.44827 -0.5967223 131.26038 -26.644842 53.450691
11000000000 -29.136148 140.86603 -0.60455811 129.09402 -0.51081878 128.76422 -25.192339 44.786831
11100000000 -18.717655 -73.153214 -0.52259582 127.17878 -0.39519897 126.46598 -26.814209 16.692356
11200000000 -17.609066 -0.48307458 -0.61444318 125.13938 -0.57282406 124.90449 -27.209288 44.556721
11300000000 -28.336344 82.216438 -0.7380631 122.96741 -0.64287364 122.55238 -26.826128 38.001354
11400000000 -19.461813 -72.847237 -0.55235511 121.11703 -0.46280187 120.37492 -27.818867 10.844715
11500000000 -17.012201 -9.8864317 -0.49657658 118.86884 -0.51197982 118.62811 -29.122192 35.671631
11600000000 -29.023615 93.789017 -0.7105127 116.85555 -0.62009132 116.39405 -27.526814 28.583769
11700000000 -18.576197 -89.322601 -0.52116627 114.46422 -0.43232432 113.67159 -28.962103 -5.7765355
11800000000 -16.832012 -18.698221 -0.47253388 112.02475 -0.4857097 111.9312 -29.986219 38.093067
11900000000 -26.460144 70.990982 -0.72397447 110.51932 -0.63836628 110.18755 -28.499147 23.895159
12000000000 -20.046701 -91.37014 -0.61936212 108.22513 -0.53169179 107.57773 -30.235592 -8.6489792
12100000000 -16.40885 -23.696581 -0.45389318 105.4963 -0.40716222 105.38102 -32.08622 36.003372
12200000000 -27.251238 74.916031 -0.70054084 104.3817 -0.60539103 103.93814 -29.457045 15.629008
12300000000 -20.277775 -106.87273 -0.6418196 102.35787 -0.53669024 101.35268 -30.607943 -16.850269
12400000000 -17.845224 -33.328873 -0.53054947 99.059143 -0.50825924 98.892715 -32.073402 34.196098
12500000000 -28.408007 59.568779 -0.68588388 97.92041 -0.6183874 97.776451 -30.39451 11.088213
12600000000 -20.156225 -109.22353 -0.66570175 95.841461 -0.55640936 95.134438 -31.293921 -27.62842
12700000000 -18.607121 -37.368916 -0.56791037 92.861031 -0.53567195 92.771233 -33.363239 17.109194
12800000000 -27.810389 58.80291 -0.71452045 91.506119 -0.61657912 91.163406 -31.793644 -4.4261332
12900000000 -22.659624 -126.40427 -0.73569787 89.987427 -0.62589461 89.153122 -32.442505 -37.948231
13000000000 -20.282164 -51.594707 -0.71792215 86.954674 -0.64997047 86.392891 -34.267513 -6.409296
13100000000 -30.841316 51.519314 -0.73221493 85.141106 -0.64676422 84.998146 -33.274242 -20.829908
13200000000 -22.232553 -132.70326 -0.69494468 83.773811 -0.59719962 82.984642 -32.08168 -55.238979
13300000000 -20.30463 -65.689529 -0.70556641 80.482178 -0.68514127 80.033043 -35.075302 -26.106174
13400000000 -28.615082 40.307472 -0.76688582 78.551033 -0.69448853 78.280106 -32.669628 -51.220383
13500000000 -22.966227 -154.78201 -0.724603 77.290405 -0.63359833 76.650993 -31.326284 -85.538063
13600000000 -21.799364 -76.758423 -0.77206135 74.97551 -0.70976347 74.346443 -34.583195 -91.691376
13700000000 -29.301701 51.42271 -0.79104292 72.367668 -0.71206754 72.104759 -34.766018 -97.916344
13800000000 -21.37957 -166.6539 -0.70772123 70.805473 -0.59291476 70.099571 -31.425581 -118.5867
13900000000 -20.883465 -91.967644 -0.68418914 68.698135 -0.69613206 67.933418 -34.809685 -126.77428
14000000000 -33.29636 45.00523 -0.83983594 66.218475 -0.8047328 66.041191 -34.11919 -129.9287
14100000000 -21.541805 -171.00877 -0.69241315 64.670998 -0.58690029 64.10363 -30.653294 -137.88995
14200000000 -21.766069 -100.72507 -0.65204531 62.402855 -0.6449725 61.726112 -32.879131 -156.69748
14300000000 -30.642839 80.647263 -0.84159243 60.079685 -0.77454501 59.814281 -33.464352 -154.48187
14400000000 -19.97591 175.35014 -0.70991367 57.69239 -0.5770359 56.988602 -28.946011 -156.88023
14500000000 -22.788664 -116.93809 -0.68910152 55.941292 -0.68167382 55.314137 -31.55621 -173.02925
14600000000 -32.557743 75.174469 -0.83436728 53.848778 -0.81430435 53.646133 -31.409809 -167.92657
14700000000 -21.748613 172.54735 -0.77927399 51.905098 -0.67420989 51.195068 -27.924126 -169.84039
14800000000 -22.9953 -122.72582 -0.66869003 49.636387 -0.64280546 48.800518 -27.936525 171.35303
14900000000 -33.302872 92.038383 -0.87344813 47.592693 -0.82303011 47.470531 -29.256907 169.25255
15000000000 -21.038864 157.03491 -0.85448819 45.332413 -0.74196893 44.60191 -26.935173 168.30432
15100000000 -24.581059 -152.30414 -0.74521232 43.04678 -0.73098916 42.536377 -27.090326 154.82645
15200000000 -31.829678 93.716316 -0.85929918 41.377113 -0.83668417 41.257446 -28.257868 156.12193
15300000000 -22.339396 144.92441 -0.90551996 39.389717 -0.81599683 38.725887 -26.473856 156.29883
15400000000 -24.637014 -154.18661 -0.78735858 36.612244 -0.73732042 35.914429 -26.169535 142.38072
15500000000 -34.322166 89.830688 -0.85906792 34.93256 -0.8495329 34.815434 -27.453678 142.18581
15600000000 -21.472557 133.23579 -0.95948583 33.087616 -0.86532438 32.465286 -25.6152 144.75075
15700000000 -24.273062 175.28453 -0.8669616 30.537615 -0.84181511 29.932775 -25.920229 138.13771
15800000000 -29.683653 82.458656 -0.90942657 28.718546 -0.86916804 28.654802 -26.480728 136.67555
15900000000 -20.776981 121.73075 -0.97854269 27.35162 -0.89046657 26.67227 -24.699732 139.48575
16000000000 -24.906778 173.33678 -0.94106489 24.460598 -0.89710015 23.596178 -25.316446 132.41824
16100000000 -28.350597 72.482414 -0.90711379 22.678175 -0.86403388 22.382488 -25.220373 128.27654
16200000000 -19.844076 112.30955 -0.97024208 21.05221 -0.89740348 20.481518 -23.619432 131.57814
16300000000 -24.202898 152.52132 -0.9384163 18.736366 -0.91754073 17.981174 -24.18716 128.27742
16400000000 -24.921022 67.111435 -0.90681636 16.324022 -0.8658967 16.210482 -24.397535 123.13864
16500000000 -19.716829 104.69382 -0.95582044 15.179214 -0.87653065 14.659429 -22.617039 126.41228
16600000000 -24.895826 146.43178 -0.95445901 12.583465 -0.91314083 11.733095 -23.168783 120.29469
16700000000 -26.033062 68.929733 -0.95214778 10.416813 -0.90965891 10.019122 -23.10173 115.0419
16800000000 -19.369995 99.045639 -0.94175577 8.9254179 -0.87310857 8.3176699 -21.885935 118.64718
16900000000 -23.70923 122.05019 -0.95662344 6.9148455 -0.92450273 6.1374516 -22.293657 115.30743
17000000000 -23.183146 64.005539 -0.93265271 4.2439885 -0.90690362 3.8879948 -22.211744 109.53774
17100000000 -19.439724 89.278053 -0.93298358 2.6577876 -0.88194793 2.1319427 -21.148985 111.13767
17200000000 -23.316429 113.42615 -0.94140822 0.486601 -0.91430336 -0.20420326 -21.583105 106.53298
17300000000 -24.197302 69.416588 -0.96524847 -1.6717443 -0.93795788 -2.1023533 -21.415203 101.36018
17400000000 -19.460369 83.313156 -0.95503646 -3.6824577 -0.89516842 -4.180438 -20.496532 103.41089
17500000000 -22.162725 100.83003 -0.9331702 -5.581531 -0.88524669 -6.216898 -20.897259 100.13182
17600000000 -22.537886 60.924477 -0.94877034 -7.827723 -0.91972768 -8.3077927 -20.852638 93.001549
17700000000 -18.786161 71.566147 -0.94572741 -9.979516 -0.91076559 -10.54164 -20.034863 94.675377
17800000000 -21.914698 96.691513 -0.92218816 -12.116 -0.88974065 -12.746296 -20.492544 90.604355
17900000000 -23.475634 55.683155 -0.93480819 -14.046041 -0.91379672 -14.500095 -20.580101 83.589859
18000000000 -18.828699 68.852371 -0.96821946 -16.355745 -0.93348342 -16.764427 -19.76746 86.674614
18100000000 -21.573704 88.469048 -0.93222821 -18.366156 -0.86775595 -18.867874 -20.226738 84.640785
18200000000 -22.622555 45.075665 -0.93935335 -20.281334 -0.89897889 -20.86273 -20.1091 77.546837
18300000000 -18.371464 59.499077 -0.95629501 -22.357265 -0.93080759 -22.864849 -19.352106 78.970001
18400000000 -22.348438 83.047844 -0.92896402 -24.675287 -0.87539792 -25.343792 -20.030254 74.809967
18500000000 -22.477695 39.682892 -0.88982117 -26.39529 -0.88039297 -27.041523 -19.846115 67.878098
18600000000 -18.495619 55.484894 -0.95151317 -28.703871 -0.94569206 -29.165819 -19.383129 72.471077
18700000000 -21.841965 74.187553 -0.94204557 -30.996857 -0.89013988 -31.473646 -20.060606 68.81324
18800000000 -21.541269 29.816799 -0.89382309 -33.012451 -0.8708244 -33.533978 -19.706642 62.77676
18900000000 -18.212694 45.887012 -0.93698609 -35.061867 -0.94286466 -35.418213 -19.013226 66.019287
19000000000 -21.642132 59.641834 -0.9760955 -37.2024 -0.92470229 -37.683754 -19.670729 60.813213
19100000000 -21.594826 27.854021 -0.89132649 -39.156902 -0.88113648 -39.803864 -19.50844 54.152802
19200000000 -18.510624 40.276531 -0.93277431 -41.315113 -0.94780028 -41.790619 -19.321209 58.722622
19300000000 -21.260113 51.081043 -0.99523085 -43.424892 -0.94416153 -43.916618 -19.761726 55.817867
19400000000 -21.544054 19.913519 -0.93542743 -45.814617 -0.89849526 -46.34407 -19.634476 50.732162
19500000000 -18.724119 29.091545 -0.94826317 -47.919064 -0.96017545 -48.164619 -19.126467 53.193382
19600000000 -20.808794 43.603939 -1.0092568 -49.821575 -0.968247 -50.168034 -19.441217 48.204803
19700000000 -21.966007 17.797314 -0.96805882 -51.981621 -0.93381679 -52.53936 -19.437368 42.540833
19800000000 -18.913877 22.74543 -0.98990148 -54.269417 -0.99015671 -54.560863 -19.238302 44.478447
19900000000 -20.739513 37.95039 -1.0416027 -56.080868 -0.98511511 -56.455971 -19.689077 41.982071
20000000000 -22.677019 9.91117 -1.0392667 -58.286541 -0.98508108 -58.989414 -19.640581 37.728077
20100000000 -18.989565 13.448658 -1.0121176 -60.631397 -1.0201439 -60.832909 -19.191011 37.704956
20200000000 -20.95175 33.595417 -1.0641097 -62.510979 -1.0123111 -62.723282 -19.636673 33.831196
20300000000 -23.018677 4.107718 -1.0542554 -64.337296 -1.0070503 -64.9608 -19.631321 27.288786
20400000000 -18.784933 8.5103521 -1.0678684 -66.903564 -1.0596325 -67.148079 -19.398949 27.649746
20500000000 -21.075775 26.425434 -1.1351835 -68.572372 -1.0555705 -68.879951 -20.227074 24.60186
20600000000 -23.430214 -9.3119755 -1.1212449 -70.412552 -1.029929 -71.217522 -20.274403 18.486492
20700000000 -19.533535 -1.5178076 -1.0863407 -72.576973 -1.087723 -73.053978 -20.274128 19.364771
20800000000 -23.212301 23.099113 -1.1063792 -74.499481 -1.0493137 -74.828758 -21.019239 18.496767
20900000000 -25.301321 -11.747437 -1.0512774 -76.099998 -0.99733675 -76.992813 -21.007668 13.378731
21000000000 -20.631197 -1.5136003 -1.0517558 -78.582336 -1.0567526 -79.152122 -20.838676 16.288322
21100000000 -22.540636 20.135878 -1.0913955 -80.764603 -1.0376509 -81.173264 -21.339106 13.60712
21200000000 -24.638908 -18.282921 -1.061003 -82.772438 -0.99625617 -83.66787 -21.149704 8.7548103
21300000000 -20.884262 -10.938853 -1.0727763 -85.110321 -1.0878494 -85.57431 -20.79987 8.5695629
21400000000 -23.652411 6.6874447 -1.1209908 -87.142693 -1.0700883 -87.48877 -21.397669 3.1140113
21500000000 -25.580673 -25.053322 -1.0630691 -88.830246 -1.027379 -89.837563 -21.578756 -3.8077409
21600000000 -21.932331 -20.542225 -1.0637487 -91.022179 -1.105826 -91.752205 -21.893059 -3.1072826
21700000000 -24.174519 1.2628707 -1.1343181 -93.224525 -1.1119367 -93.644691 -22.347597 -4.7193861
21800000000 -27.929546 -35.503677 -1.103598 -95.324051 -1.0650756 -96.129669 -22.835196 -11.016694
21900000000 -23.688643 -32.606865 -1.077334 -97.418221 -1.116062 -97.798615 -23.014864 -12.042725
22000000000 -25.415644 -1.6637014 -1.109486 -99.382103 -1.1097792 -99.528725 -23.405836 -12.17601
22100000000 -30.342052 -40.227234 -1.0736289 -101.48317 -1.0377421 -102.22237 -24.387566 -16.439863
22200000000 -23.536646 -39.931973 -1.028114 -103.8798 -1.0647485 -104.35264 -23.969051 -17.05599
22300000000 -26.000158 -4.4285197 -1.1182635 -105.6934 -1.1238502 -105.97525 -24.47035 -17.203409
22400000000 -35.467373 -63.078224 -1.1326276 -108.09805 -1.096294 -108.86525 -25.636211 -21.842705
22500000000 -25.360754 -50.556011 -1.0727307 -110.34756 -1.1031841 -110.58322 -24.697063 -22.406292
22600000000 -28.836575 -6.0573153 -1.15433 -112.32422 -1.1465229 -112.1787 -25.431705 -22.80619
22700000000 -35.52927 -96.418655 -1.1864656 -114.25611 -1.1311646 -114.81241 -26.915148 -31.823425
22800000000 -25.514307 -56.934509 -1.1207445 -116.68388 -1.119224 -116.91982 -25.804863 -29.459921
22900000000 -29.737272 -10.974829 -1.1815277 -118.39298 -1.178619 -118.37953 -26.921356 -31.870647
23000000000 -36.738644 -124.45698 -1.2140491 -120.24596 -1.1676097 -120.95428 -27.951416 -48.209526
23100000000 -29.207922 -67.780739 -1.1949872 -122.45472 -1.1742905 -122.94321 -27.763153 -47.705368
23200000000 -36.872398 8.0397778 -1.2123504 -124.24905 -1.1783587 -124.34609 -29.79249 -51.294586
23300000000 -35.633183 -163.64075 -1.2528027 -126.12491 -1.176695 -126.71439 -31.340879 -69.641212
23400000000 -32.836636 -86.229958 -1.2022048 -128.59909 -1.2010859 -129.04315 -30.477903 -63.310867
23500000000 -43.290691 21.508787 -1.2314458 -130.39931 -1.1951053 -130.49669 -32.706062 -71.361778
23600000000 -34.303032 158.5117 -1.2388548 -132.01004 -1.1869688 -132.67645 -32.697727 -104.30308
23700000000 -39.633694 -143.54608 -1.1919215 -134.26682 -1.1910373 -135.02443 -32.564182 -106.86353
23800000000 -36.166771 95.239876 -1.2234176 -136.18135 -1.168891 -136.58472 -35.485699 -134.22487
23900000000 -29.738096 128.10794 -1.1980834 -138.05194 -1.1549577 -138.85735 -33.08408 -161.25757
24000000000 -32.654366 155.22653 -1.1897823 -140.27187 -1.2057832 -141.0112 -33.713451 -152.91241
24100000000 -32.35873 104.94076 -1.1919794 -142.62152 -1.172231 -142.80194 -34.526531 -176.19139
24200000000 -27.204624 121.04064 -1.175402 -144.2934 -1.1416842 -144.9021 -30.410603 170.81746
24300000000 -29.699121 131.00954 -1.1540012 -146.41742 -1.1700339 -147.20056 -30.438044 176.36768
24400000000 -28.523569 95.251564 -1.1479702 -148.65356 -1.1563877 -149.14247 -30.134287 155.78697
24500000000 -24.755323 109.23656 -1.1405956 -150.47884 -1.1163933 -151.35284 -26.849125 151.17648
24600000000 -26.574842 121.3476 -1.1148854 -152.767 -1.1443131 -153.47829 -27.886614 151.65533
24700000000 -25.342674 97.258911 -1.1249833 -155.06595 -1.1431694 -155.36938 -27.468132 132.97531
24800000000 -22.928072 107.43265 -1.1127359 -157.13147 -1.0951879 -157.70595 -25.402313 136.37791
24900000000 -25.065386 110.95555 -1.088823 -159.36307 -1.1323982 -159.84253 -26.562809 136.71674
25000000000 -23.952051 88.416565 -1.1166595 -161.45563 -1.1533422 -161.82967 -25.339304 123.64399
25100000000 -21.767027 97.229721 -1.129504 -163.5527 -1.1224669 -164.11617 -23.761217 127.04977
25200000000 -23.048552 98.034843 -1.1057155 -165.62492 -1.1339866 -166.17874 -24.560026 124.09036
25300000000 -21.895866 87.317062 -1.1299546 -167.88936 -1.1498294 -168.11371 -23.620642 112.45189
25400000000 -20.458443 92.255257 -1.1364753 -170.06396 -1.1254932 -170.52504 -22.593622 116.03323
25500000000 -21.580898 93.660172 -1.1106173 -172.20567 -1.150857 -172.72163 -23.417713 110.86767
25600000000 -21.16679 81.064468 -1.1433837 -174.34703 -1.1772312 -174.55675 -22.45512 104.7476
25700000000 -19.893745 81.43351 -1.1669755 -176.46616 -1.17549 -176.78606 -21.627237 107.7611
25800000000 -20.263634 82.142578 -1.1533643 -178.58139 -1.1698737 -178.93523 -22.051956 102.98816
25900000000 -19.999674 75.35099 -1.1745074 179.31355 -1.178865 179.12726 -21.094147 97.094429
26000000000 -18.643045 74.712349 -1.195989 177.17743 -1.1948208 176.79185 -20.603657 98.961349
26100000000 -19.219957 77.880127 -1.1931183 174.98755 -1.2166485 174.56863 -20.975809 95.695503
26200000000 -19.385759 69.195335 -1.2052774 172.85577 -1.2307818 172.67564 -20.139816 90.398537
26300000000 -18.139872 66.414673 -1.235024 170.87042 -1.2396098 170.61353 -19.579247 90.558823
26400000000 -18.529987 68.490219 -1.2552574 168.60588 -1.2570952 168.29076 -19.877209 87.912415
26500000000 -18.677654 58.213367 -1.2549254 166.54553 -1.2650614 166.37494 -19.238548 80.999687
26600000000 -17.407068 58.651348 -1.2960774 164.60233 -1.3058918 164.36455 -19.00666 82.177132
26700000000 -18.214378 62.016151 -1.3340893 162.51289 -1.3401231 162.17477 -19.523689 78.069939
26800000000 -18.499281 51.437954 -1.331632 160.49196 -1.3414665 160.43011 -18.92271 74.181892
26900000000 -17.171198 51.513851 -1.3483452 158.82764 -1.3531815 158.62164 -18.741383 75.5709
27000000000 -18.196287 54.034245 -1.3461695 156.74855 -1.3303763 156.48619 -19.128252 70.854301
27100000000 -18.127207 43.290833 -1.3075011 154.67326 -1.298171 154.5928 -18.812868 69.975349
27200000000 -17.084007 45.860973 -1.2886783 152.6414 -1.3191127 152.54907 -18.847567 72.269081
27300000000 -17.985241 50.059277 -1.3121951 150.50227 -1.3006243 150.00645 -18.867067 68.316444
27400000000 -18.225204 40.67474 -1.3183706 148.31065 -1.2141634 147.54034 -18.367102 70.739487
27500000000 -16.922461 42.946102 -1.3188715 146.30556 -1.26513 145.78696 -18.240129 74.121284
27600000000 -17.495638 46.143177 -1.3414881 144.04558 -1.2808845 143.82503 -18.537918 59.261189
27700000000 -17.29846 37.370468 -1.3248869 141.80705 -1.2871392 141.75381 -16.686033 56.986092
27800000000 -16.268291 35.931713 -1.3336641 139.73157 -1.3540288 139.60925 -17.088316 62.960972
27900000000 -16.915297 38.160027 -1.4023249 137.81532 -1.3746859 137.38083 -18.418093 52.591938
28000000000 -17.054138 28.461128 -1.4281273 135.57666 -1.3687638 135.31932 -16.410166 44.831112
28100000000 -16.283237 28.783972 -1.4252836 133.6254 -1.4182309 133.64429 -15.7757 58.101662
28200000000 -16.810495 32.795223 -1.5078043 131.97604 -1.4455941 131.14949 -22.253616 71.330505
28300000000 -17.2953 21.226467 -1.6683276 132.34642 -1.6361749 132.11026 -24.914066 -135.29778
28400000000 -16.202938 23.358732 -1.2612716 128.4584 -1.3838366 127.863 -22.041512 45.188084
28500000000 -17.142538 24.313618 -1.4174708 126.10782 -1.3400975 125.64271 -17.577282 31.360813
28600000000 -17.368572 18.517935 -1.3965489 124.27171 -1.374024 123.9665 -17.446377 35.420177
28700000000 -16.560783 18.289545 -1.3933222 122.13908 -1.4228351 121.8388 -17.354702 35.907875
28800000000 -16.958235 21.835457 -1.3981036 120.01719 -1.3872561 119.56606 -17.412165 36.518291
28900000000 -17.267891 13.352796 -1.4163663 117.98956 -1.3875635 117.48632 -17.603964 31.211351
29000000000 -16.523184 12.708606 -1.4167134 116.17969 -1.4482102 115.81969 -17.206226 28.226631
29100000000 -17.560917 13.655081 -1.3988717 114.18328 -1.3967826 113.77965 -17.728531 29.956066
29200000000 -17.46504 7.06604 -1.3226908 112.23619 -1.3250587 111.63382 -18.208109 26.412527
29300000000 -16.531542 8.7121439 -1.2799453 109.7416 -1.3475353 109.57309 -17.428144 26.107485
29400000000 -17.292809 9.9564848 -1.3329723 107.39722 -1.372733 107.09167 -17.493776 26.5809
29500000000 -17.419945 1.5912261 -1.3481616 105.14069 -1.3546574 104.77543 -18.123716 20.353596
29600000000 -17.018633 3.4951 -1.3419064 103.18648 -1.3784297 103.21107 -17.889004 21.423046
29700000000 -17.645109 3.2557406 -1.4013709 100.77328 -1.4084177 100.73472 -17.599489 25.661655
29800000000 -17.470394 -4.3065777 -1.4148935 98.80468 -1.3937602 98.580231 -17.527912 20.303644
29900000000 -17.084356 -5.7753692 -1.3894184 96.748207 -1.4319259 96.884888 -16.791821 14.763099
30000000000 -17.785006 -5.7929397 -1.4412006 94.765358 -1.4743553 94.858177 -17.145836 12.467754
30100000000 -18.097136 -9.2863626 -1.4614072 92.85363 -1.4670732 92.628563 -17.935371 5.4837947
30200000000 -17.988611 -11.867123 -1.4553645 90.74588 -1.4395285 90.933357 -17.877949 3.0823278
30300000000 -18.355776 -11.434466 -1.4497612 88.862778 -1.4357409 88.989021 -18.52586 7.3986874
30400000000 -18.703329 -16.756422 -1.5178993 86.704597 -1.4630915 86.512772 -18.848379 3.9992495
30500000000 -18.667492 -20.284519 -1.4973441 84.531136 -1.4658768 84.680557 -18.249813 -2.7660875
30600000000 -19.203108 -19.890314 -1.5239029 82.79995 -1.4821509 83.039528 -18.936415 -0.70349175
30700000000 -19.862867 -21.302654 -1.5317684 81.012268 -1.5046233 80.776001 -20.138504 -7.5913601
30800000000 -19.799662 -23.771303 -1.4908639 78.806274 -1.4363571 78.692177 -19.506561 -11.103136
30900000000 -20.185112 -25.394299 -1.541283 76.962166 -1.4645312 76.921547 -20.457335 -5.9524379
31000000000 -20.572906 -28.941687 -1.5232989 75.092392 -1.4799601 74.904976 -22.002871 -13.928394
31100000000 -20.923944 -26.489271 -1.5131739 73.233978 -1.4332119 72.862816 -21.143854 -14.613291
31200000000 -22.81493 -22.315317 -1.4704163 71.486069 -1.4123329 71.23452 -22.298597 -7.570931
31300000000 -23.272635 -28.319254 -1.4616652 69.425934 -1.4394678 68.843758 -23.990833 -19.964464
31400000000 -23.969622 -40.016342 -1.480179 67.13501 -1.4138998 66.167053 -22.157854 -17.053249
31500000000 -23.714485 -50.787987 -1.4778935 65.221992 -1.3685021 63.854927 -23.331894 -5.0707746
31600000000 -22.309149 -70.464264 -1.3950367 63.938438 -1.3664304 63.326283 -26.385786 -18.040276
31700000000 -23.493948 -53.971283 -1.3936635 60.977695 -1.3700039 60.291454 -24.199316 -27.63271
31800000000 -24.556816 -43.885868 -1.3582165 58.981647 -1.3839532 58.506733 -25.611248 -15.00068
31900000000 -26.607212 -41.321476 -1.3826488 57.030975 -1.3264991 56.346714 -28.389294 -20.168909
32000000000 -27.655933 -48.186935 -1.3251088 54.884655 -1.3530244 53.884914 -27.415632 -30.671181
32100000000 -27.491131 -44.207874 -1.3230388 52.602455 -1.3420155 52.122807 -28.481434 -11.694062
32200000000 -29.668652 -37.070999 -1.3113918 50.418949 -1.2943517 49.897392 -31.501808 -14.703721
32300000000 -33.160019 -51.868412 -1.2314868 48.383545 -1.3121616 47.659286 -30.681931 -28.83353
32400000000 -32.841469 -46.619144 -1.274672 45.884182 -1.3277382 45.614395 -31.623957 -6.6141214
32500000000 -36.913193 -4.301868 -1.2649097 43.687366 -1.2992141 43.123623 -38.527679 9.5580301
32600000000 -48.383995 7.2786331 -1.2570727 41.533653 -1.3164492 40.892849 -37.463383 1.4190974
32700000000 -37.876278 -7.1059985 -1.3073182 39.162098 -1.3337154 39.004173 -32.302113 37.98415
32800000000 -34.646484 48.480019 -1.3237782 37.029533 -1.3290397 36.647621 -32.900925 63.738525
32900000000 -35.629681 94.850655 -1.3114513 34.868752 -1.3477772 34.546947 -33.678574 41.042183
33000000000 -34.493195 66.382462 -1.313661 32.688541 -1.3900831 32.720207 -29.788971 43.733414
33100000000 -28.837212 75.184166 -1.371948 30.700901 -1.3991963 30.399479 -30.46286 64.623184
33200000000 -29.675714 89.772507 -1.3654071 28.528584 -1.4153808 28.225492 -33.175232 59.920834
33300000000 -30.291744 64.936325 -1.3774321 26.592859 -1.3975166 26.614548 -28.931646 64.156883
33400000000 -27.368534 74.286255 -1.4271417 24.737499 -1.4047924 24.59605 -27.372408 78.616043
33500000000 -27.962297 89.683571 -1.3749239 22.502588 -1.3806583 22.267414 -29.577787 72.090981
33600000000 -27.636604 82.625504 -1.3489854 20.384275 -1.3492837 20.430285 -27.684559 65.835472
33700000000 -24.820835 81.596855 -1.3635412 18.190928 -1.3629203 18.124018 -27.293449 87.556877
33800000000 -24.470278 89.845612 -1.3692604 16.002901 -1.3872082 15.640017 -27.590019 92.811142
33900000000 -24.638201 83.477577 -1.3706088 13.859294 -1.3657931 13.692968 -24.590462 88.165039
34000000000 -22.686747 79.460571 -1.412114 11.766249 -1.3794926 11.61756 -22.886604 94.060959
34100000000 -22.057653 85.159576 -1.4269283 9.5576515 -1.4103549 9.1819324 -22.751503 89.796425
34200000000 -22.110861 77.733528 -1.4170916 7.2727666 -1.4056621 7.1477427 -21.572529 81.401039
34300000000 -20.542459 73.782677 -1.4610194 5.3110886 -1.4361024 5.0357842 -21.150394 83.743225
34400000000 -20.330549 77.252472 -1.4985337 3.2953422 -1.5166208 2.8752563 -21.427618 84.211609
34500000000 -20.879862 72.9571 -1.5157448 1.3135505 -1.5210503 1.0320539 -20.308586 81.114265
34600000000 -19.39629 69.386032 -1.5013133 -0.37904474 -1.489226 -0.77072448 -19.133671 82.027626
34700000000 -18.993452 72.987976 -1.5007749 -2.5184946 -1.5048038 -2.984591 -19.070004 78.720436
34800000000 -19.069384 67.154816 -1.4865385 -4.9366698 -1.4968007 -5.2406354 -18.894413 71.758255
34900000000 -17.975386 63.693455 -1.5155798 -6.9626517 -1.5108727 -7.2592926 -18.251907 72.105225
35000000000 -17.9785 67.649017 -1.5551736 -8.8131037 -1.5741153 -9.2606049 -18.561363 72.429077
35100000000 -18.390284 61.410183 -1.5797977 -10.948016 -1.5916193 -11.241592 -18.310799 67.938148
35200000000 -17.284948 59.120876 -1.5559113 -12.706189 -1.5640093 -13.067157 -17.702915 67.088448
35300000000 -17.239328 61.832924 -1.5520269 -14.54866 -1.5768981 -15.00792 -17.839529 67.999428
35400000000 -17.236723 58.202461 -1.5353119 -16.685478 -1.5610963 -17.036068 -17.624357 63.518185
35500000000 -16.680109 56.978718 -1.5154642 -18.797468 -1.5378186 -19.102049 -17.151495 63.142967
35600000000 -16.714817 58.014782 -1.5064989 -20.75305 -1.530405 -21.122286 -17.385906 65.167549
35700000000 -16.402246 55.82637 -1.4948202 -22.920435 -1.5186601 -23.23418 -17.114788 62.256035
35800000000 -15.778149 55.330135 -1.4832051 -25.178997 -1.5029159 -25.470251 -16.108286 61.317028
35900000000 -15.447806 53.989376 -1.4842108 -27.383085 -1.5089263 -27.784107 -16.241701 60.544743
36000000000 -15.197645 52.088242 -1.4818761 -29.520912 -1.5212348 -29.910471 -16.257399 56.604259
36100000000 -14.869712 49.522392 -1.5141829 -31.870695 -1.5514606 -32.152996 -15.614213 55.203857
36200000000 -14.710567 46.454754 -1.5601158 -33.856094 -1.5933908 -34.222378 -15.616112 54.912411
36300000000 -14.625073 45.14661 -1.5443562 -35.725864 -1.5826929 -36.014431 -16.027075 52.72765
36400000000 -14.474532 44.153782 -1.5495486 -38.049015 -1.5853294 -38.272495 -15.245045 52.806042
36500000000 -14.045731 42.620399 -1.6030053 -40.24424 -1.6397251 -40.529846 -14.746375 55.052372
36600000000 -13.77432 40.733353 -1.5978926 -41.961952 -1.6425244 -42.307495 -14.409347 50.04744
36700000000 -13.619225 37.216263 -1.5928267 -44.05925 -1.6425971 -44.274807 -13.762548 44.924843
36800000000 -13.456938 34.344082 -1.6272857 -46.299873 -1.6687635 -46.566563 -13.762975 46.123993
36900000000 -13.416549 32.588375 -1.6529902 -48.476479 -1.6992376 -48.658981 -13.964784 42.647667
37000000000 -13.338951 29.066315 -1.6763643 -50.269989 -1.7258258 -50.300655 -13.103524 38.189419
37100000000 -13.167686 27.198101 -1.711199 -52.13657 -1.7601184 -52.19154 -13.178338 37.508492
37200000000 -13.398322 26.809902 -1.6739718 -54.082809 -1.7193934 -54.19339 -13.702844 32.071671
37300000000 -13.437626 24.483124 -1.6417738 -56.167389 -1.6806407 -56.189255 -13.134106 29.922688
37400000000 -13.026296 22.403862 -1.6991153 -58.443115 -1.7438977 -58.415649 -13.178734 33.060852
37500000000 -12.943191 21.602879 -1.7300024 -60.497177 -1.7736963 -60.490841 -13.461511 27.343571
37600000000 -13.122716 17.325623 -1.7357944 -62.41526 -1.7590013 -62.223003 -12.93361 23.499344
37700000000 -12.768509 14.933717 -1.7501024 -64.20063 -1.7923074 -63.887547 -13.05129 26.021677
37800000000 -13.088962 15.381967 -1.7626804 -66.177734 -1.7949817 -66.006149 -13.593407 20.751766
37900000000 -13.537528 12.122345 -1.7243495 -68.217766 -1.7373291 -67.996895 -12.851149 16.771786
38000000000 -12.953411 10.662143 -1.7312925 -70.232155 -1.7343142 -69.892708 -13.06322 19.52659
38100000000 -13.081465 11.405012 -1.787308 -72.178276 -1.7962077 -72.020439 -13.85363 14.087946
38200000000 -13.371036 6.7549434 -1.7698197 -74.158684 -1.7558664 -74.032036 -13.14609 10.278702
38300000000 -12.789291 3.7279809 -1.7386065 -76.022476 -1.7197193 -75.649345 -13.212452 14.544179
38400000000 -13.166741 6.7162075 -1.7637321 -77.753036 -1.7498342 -77.609428 -14.182684 10.169197
38500000000 -13.637127 0.77113914 -1.757412 -80.064857 -1.7234768 -79.991882 -13.319056 4.4628568
38600000000 -13.055963 -0.11402665 -1.705724 -82.149879 -1.6669742 -81.807915 -13.333929 8.8832121
38700000000 -13.39126 3.0034931 -1.7229409 -83.731613 -1.693239 -83.769653 -14.20645 5.0004005
38800000000 -13.895036 -3.0038755 -1.74268 -85.964828 -1.7000998 -86.173653 -13.348349 -1.8200905
38900000000 -13.000771 -4.9779401 -1.6989233 -88.048912 -1.6511405 -88.098511 -13.681281 2.5036311
39000000000 -13.568074 -1.1743838 -1.6971439 -89.597549 -1.6624441 -89.934769 -14.914495 -2.5871112
39100000000 -13.8909 -8.165637 -1.6952266 -91.994133 -1.6619424 -92.428734 -13.674664 -4.723146
39200000000 -13.118333 -10.380547 -1.6570567 -94.290001 -1.6361609 -94.412201 -13.816669 -1.1365083
39300000000 -13.646496 -7.5845928 -1.6740701 -96.088638 -1.6480974 -96.445313 -14.786584 -8.2441063
39400000000 -14.181596 -15.659559 -1.6524194 -97.963966 -1.6844707 -98.520279 -13.799915 -13.370947
39500000000 -13.433041 -16.04924 -1.6797884 -100.20593 -1.6581302 -100.49284 -14.267929 -9.2819128
39600000000 -14.177295 -11.529872 -1.6359686 -101.95373 -1.6420094 -102.46912 -15.393846 -17.777056
39700000000 -14.624804 -18.516174 -1.6245233 -103.8975 -1.6547636 -104.61031 -14.69607 -19.755724
39800000000 -13.822113 -19.786757 -1.6080647 -106.3849 -1.6189585 -106.58716 -14.887877 -11.339578
39900000000 -14.348028 -17.025835 -1.5816828 -108.43302 -1.618017 -108.74632 -15.514108 -18.29134
40000000000 -14.970496 -25.416403 -1.5459205 -110.34783 -1.6108905 -110.88971 -14.7027 -23.428043
