!Keysight Technologies,N5247B,MY61255062,A.19.80.06
!Date: Thursday, May 21, 2026 11:29:22
!Correction: S11(Cdelta 2-Port  ) 
!S21(Cdelta 2-Port  ) 
!S12(Cdelta 2-Port  ) 
!S22(Cdelta 2-Port  ) 
!S2P File: Measurements: S11, S21, S12, S22:
# Hz S  dB   R 50
1000000000 -25.513098 -16.408258 -0.490657 -21.349091 -0.48823535 -21.342327 -25.743052 -16.724766
1027500000 -25.490112 -17.185581 -0.49462268 -21.92205 -0.4917286 -21.915823 -25.716076 -17.342031
1055000000 -25.51775 -18.05085 -0.49941319 -22.509901 -0.49924621 -22.506096 -25.759071 -18.706364
1082500000 -25.492733 -18.138941 -0.50605345 -23.043715 -0.50524962 -23.045404 -25.855652 -18.963219
1110000000 -25.483067 -18.755957 -0.50839955 -23.602331 -0.50746548 -23.60054 -25.852261 -19.219263
1137500000 -25.483274 -19.235359 -0.51017183 -24.158234 -0.50961143 -24.164421 -25.869474 -19.401882
1165000000 -25.428804 -19.484932 -0.51351786 -24.722067 -0.5129993 -24.711683 -25.863783 -20.008808
1192500000 -25.320658 -20.027405 -0.51398611 -25.263737 -0.51432556 -25.270018 -25.816658 -19.860502
1220000000 -25.236639 -21.140856 -0.51188135 -25.846191 -0.51171243 -25.839678 -25.765911 -20.626438
1247500000 -25.275778 -22.228254 -0.51404148 -26.421284 -0.51442611 -26.425617 -25.7603 -21.619999
1275000000 -25.302139 -22.928272 -0.51791018 -26.998405 -0.51775295 -26.999699 -25.73612 -22.342487
1302500000 -25.352686 -23.129309 -0.52703661 -27.57267 -0.52544117 -27.567383 -25.846779 -23.357883
1330000000 -25.292179 -23.401295 -0.52639252 -28.095539 -0.52627766 -28.098238 -25.784269 -23.367558
1357500000 -25.213713 -23.944139 -0.52589196 -28.660912 -0.52603894 -28.665085 -25.721193 -23.95904
1385000000 -25.183554 -24.863668 -0.52566433 -29.235878 -0.52711314 -29.236334 -25.694206 -24.451765
1412500000 -25.191999 -25.986206 -0.52951097 -29.803757 -0.52956855 -29.811502 -25.715097 -25.02688
1440000000 -25.16847 -26.340719 -0.5319218 -30.361984 -0.53154236 -30.358736 -25.672432 -25.442705
1467500000 -25.16358 -26.978947 -0.5321945 -30.928221 -0.53128403 -30.92635 -25.603281 -25.852261
1495000000 -25.167908 -27.678778 -0.53386092 -31.49156 -0.53568935 -31.490431 -25.578058 -26.663074
1522500000 -25.123915 -27.979942 -0.53536636 -32.047897 -0.53492188 -32.044624 -25.535515 -27.384296
1550000000 -25.076309 -28.621609 -0.53417736 -32.619572 -0.53505951 -32.619022 -25.469313 -28.126089
1577500000 -25.092148 -29.183243 -0.53887635 -33.19936 -0.53959966 -33.201469 -25.550274 -29.145496
1605000000 -25.026638 -29.761908 -0.54019356 -33.748657 -0.54021639 -33.750423 -25.511356 -29.679689
1632500000 -25.044962 -30.144535 -0.54311836 -34.309437 -0.54328203 -34.30994 -25.52729 -30.058014
1660000000 -24.972883 -30.793301 -0.54273087 -34.861359 -0.54168063 -34.861446 -25.449472 -30.292965
1687500000 -24.934074 -31.495792 -0.54292005 -35.431259 -0.54219353 -35.442387 -25.42057 -31.141012
1715000000 -24.916517 -32.22403 -0.54343373 -36.001667 -0.54419386 -36.008907 -25.401409 -32.108105
1742500000 -24.878973 -32.940811 -0.54422498 -36.57373 -0.54403311 -36.573879 -25.360277 -32.629406
1770000000 -24.877657 -33.798477 -0.54470211 -37.141708 -0.54482388 -37.153667 -25.344412 -33.39439
1797500000 -24.849159 -34.323551 -0.54697752 -37.710846 -0.54595065 -37.716503 -25.352797 -34.111526
1825000000 -24.817734 -35.048542 -0.54780442 -38.284271 -0.54714841 -38.279861 -25.352018 -34.722511
1852500000 -24.804941 -36.037975 -0.54798883 -38.846779 -0.54860556 -38.849281 -25.345469 -35.40221
1880000000 -24.793455 -36.688038 -0.54912841 -39.425224 -0.54980266 -39.421162 -25.328775 -36.367615
1907500000 -24.789915 -37.139744 -0.55051047 -39.98737 -0.55257666 -39.997795 -25.305063 -37.148788
1935000000 -24.73522 -37.971573 -0.55231386 -40.563053 -0.55240643 -40.566948 -25.284224 -37.727982
1962500000 -24.734718 -38.825306 -0.55334812 -41.136726 -0.55315292 -41.137554 -25.277006 -38.627754
1990000000 -24.777941 -39.421921 -0.5571081 -41.70829 -0.5573765 -41.699196 -25.309425 -39.424042
2017500000 -24.754305 -40.177834 -0.5594601 -42.259426 -0.56052262 -42.269165 -25.322836 -40.036987
2045000000 -24.729708 -40.788155 -0.56077975 -42.824402 -0.55949193 -42.833084 -25.307007 -40.496109
2072500000 -24.741089 -41.413338 -0.56286705 -43.396435 -0.5622353 -43.391674 -25.28404 -41.10751
2100000000 -24.71232 -42.084763 -0.56305623 -43.954708 -0.56405187 -43.961765 -25.260927 -41.746559
2127500000 -24.707579 -42.745659 -0.5644958 -44.529667 -0.56365395 -44.534626 -25.244095 -42.433643
2155000000 -24.693089 -43.390083 -0.56496125 -45.097069 -0.56554008 -45.098541 -25.249142 -43.174408
2182500000 -24.679892 -44.141941 -0.56582636 -45.660145 -0.56798309 -45.655743 -25.235672 -43.715988
2210000000 -24.646296 -44.951038 -0.56751609 -46.229729 -0.56758422 -46.239773 -25.23867 -44.472065
2237500000 -24.664478 -45.464527 -0.56988966 -46.79715 -0.56991655 -46.79454 -25.234705 -45.388134
2265000000 -24.655758 -46.233856 -0.57172829 -47.37228 -0.57237411 -47.371239 -25.251646 -46.016647
2292500000 -24.614614 -47.11021 -0.57255429 -47.940071 -0.57390773 -47.942909 -25.233187 -46.507423
2320000000 -24.6492 -47.64386 -0.57346374 -48.513618 -0.57555509 -48.50515 -25.229134 -47.319672
2347500000 -24.616182 -48.404518 -0.57597208 -49.062328 -0.57671493 -49.063217 -25.266356 -47.828266
2375000000 -24.592258 -49.166443 -0.57868129 -49.630154 -0.57939321 -49.637726 -25.233315 -48.533791
2402500000 -24.608896 -49.881699 -0.57995677 -50.196705 -0.58084792 -50.19706 -25.242189 -49.227482
2430000000 -24.614874 -50.540359 -0.58111721 -50.774979 -0.58060527 -50.77491 -25.191254 -49.835876
2457500000 -24.603548 -51.251419 -0.5824573 -51.336815 -0.58431756 -51.334217 -25.190968 -50.670071
2485000000 -24.605585 -52.060513 -0.58388907 -51.907993 -0.58616501 -51.900215 -25.215425 -51.382938
2512500000 -24.634726 -52.700344 -0.58715165 -52.471287 -0.58843559 -52.472168 -25.21652 -52.333942
2540000000 -24.633488 -53.347069 -0.59000748 -53.033169 -0.59057683 -53.040478 -25.217104 -53.298561
2567500000 -24.616035 -53.943172 -0.59221864 -53.605671 -0.5916028 -53.596497 -25.203369 -53.628368
2595000000 -24.67161 -54.731647 -0.59275836 -54.166794 -0.59307051 -54.163582 -25.226706 -54.04496
2622500000 -24.652493 -55.422832 -0.59475392 -54.719936 -0.59563327 -54.72385 -25.222208 -55.056366
2650000000 -24.62149 -56.169662 -0.59491068 -55.285583 -0.59741277 -55.277187 -25.218367 -55.822083
2677500000 -24.614012 -56.921406 -0.5981043 -55.845257 -0.59979385 -55.857964 -25.235531 -56.466507
2705000000 -24.643608 -57.30563 -0.59966189 -56.408955 -0.60043639 -56.413288 -25.250961 -57.283825
2732500000 -24.652533 -58.132507 -0.60069859 -56.976948 -0.60135585 -56.982525 -25.238565 -57.947353
2760000000 -24.617369 -58.667233 -0.60217202 -57.539845 -0.60403067 -57.54052 -25.294363 -58.32666
2787500000 -24.650061 -59.507175 -0.60418504 -58.107891 -0.60492289 -58.107178 -25.309982 -59.440105
2815000000 -24.668333 -60.238525 -0.60560882 -58.664795 -0.6058284 -58.666065 -25.289513 -60.016666
2842500000 -24.652885 -60.853134 -0.60769188 -59.230515 -0.60904086 -59.231335 -25.302719 -60.588062
2870000000 -24.680542 -61.41914 -0.61104953 -59.800129 -0.61119676 -59.79216 -25.327927 -61.439156
2897500000 -24.682602 -62.046547 -0.6118452 -60.350609 -0.61194533 -60.356224 -25.327757 -62.179085
2925000000 -24.667891 -62.701706 -0.61343247 -60.908051 -0.61412686 -60.915623 -25.344099 -62.727379
2952500000 -24.670511 -63.288002 -0.61379349 -61.487373 -0.61503047 -61.475994 -25.407055 -63.384674
2980000000 -24.674717 -64.014252 -0.61571437 -62.039074 -0.61713207 -62.038971 -25.371922 -64.381699
3007500000 -24.698616 -64.586647 -0.616871 -62.59943 -0.61806911 -62.594048 -25.413073 -64.879814
3035000000 -24.677208 -65.250572 -0.61749613 -63.154308 -0.61889112 -63.154259 -25.42454 -65.303627
3062500000 -24.699013 -65.930244 -0.6190756 -63.718391 -0.62058932 -63.716335 -25.445396 -66.182404
3090000000 -24.714794 -66.616348 -0.61986375 -64.287315 -0.62083095 -64.278831 -25.456625 -66.662621
3117500000 -24.702076 -67.221352 -0.6234526 -64.849129 -0.62272471 -64.839729 -25.502329 -67.286209
3145000000 -24.700865 -67.919495 -0.62533319 -65.422165 -0.62353206 -65.411865 -25.513815 -68.374542
3172500000 -24.700655 -68.507813 -0.62423378 -65.969345 -0.62599868 -65.974312 -25.494026 -69.010742
3200000000 -24.704813 -69.329506 -0.62696815 -66.540314 -0.62633115 -66.528549 -25.558899 -69.353729
3227500000 -24.711283 -70.110764 -0.62680966 -67.101295 -0.62741107 -67.095261 -25.56332 -70.011566
3255000000 -24.736658 -70.686638 -0.63019741 -67.648468 -0.62942922 -67.667336 -25.576733 -71.036232
3282500000 -24.70738 -71.042511 -0.62939447 -68.209442 -0.63000077 -68.212189 -25.619633 -71.492126
3310000000 -24.691618 -71.891586 -0.63055354 -68.785248 -0.63173747 -68.781769 -25.663864 -72.126114
3337500000 -24.711397 -72.605202 -0.63217735 -69.342667 -0.63238662 -69.341095 -25.653021 -73.11879
3365000000 -24.737921 -73.251289 -0.63422316 -69.897919 -0.63361508 -69.900749 -25.67206 -73.507683
3392500000 -24.71826 -73.866837 -0.63602298 -70.465706 -0.63581473 -70.460365 -25.788143 -73.678345
3420000000 -24.729786 -74.574814 -0.63403565 -71.017502 -0.63626456 -71.017212 -25.765671 -74.834183
3447500000 -24.785284 -75.203117 -0.63553184 -71.589691 -0.63637304 -71.573883 -25.722277 -75.396378
3475000000 -24.771229 -75.950554 -0.63747734 -72.142593 -0.63889641 -72.145477 -25.813883 -75.553177
3502500000 -24.773243 -76.602112 -0.63790184 -72.703331 -0.63983667 -72.712914 -25.831861 -76.528152
3530000000 -24.83712 -77.039665 -0.63981205 -73.27903 -0.64002985 -73.273384 -25.784248 -77.355209
3557500000 -24.8104 -77.699425 -0.63880944 -73.840057 -0.6405893 -73.834633 -25.842653 -77.46833
3585000000 -24.79286 -78.552818 -0.64109963 -74.398659 -0.64099312 -74.396179 -25.888783 -78.194344
3612500000 -24.855331 -79.165001 -0.64065623 -74.968491 -0.6421442 -74.952049 -25.872169 -79.405838
3640000000 -24.84638 -79.489395 -0.64104265 -75.523743 -0.64232218 -75.519402 -25.886669 -79.559929
3667500000 -24.8202 -80.409622 -0.6421892 -76.086655 -0.64321393 -76.094589 -25.94305 -79.88633
3695000000 -24.876532 -80.988914 -0.6433745 -76.658913 -0.64326495 -76.639435 -25.949562 -81.149025
3722500000 -24.933502 -81.375946 -0.64513248 -77.210716 -0.64515054 -77.208549 -25.936016 -81.57341
3750000000 -24.914341 -82.131958 -0.64624143 -77.775505 -0.64592874 -77.774239 -26.028515 -82.086357
3777500000 -24.914968 -82.81868 -0.64772588 -78.341301 -0.6463204 -78.340698 -26.041653 -83.017204
3805000000 -24.954754 -83.332985 -0.64803725 -78.910904 -0.64656043 -78.910553 -26.007286 -83.707474
3832500000 -24.939281 -83.924919 -0.65106058 -79.473114 -0.64885592 -79.483727 -26.112244 -83.925446
3860000000 -24.920755 -84.641403 -0.64998019 -80.032166 -0.64981002 -80.036476 -26.148306 -84.960266
3887500000 -24.959925 -84.890793 -0.65076798 -80.601303 -0.65169817 -80.597298 -26.144371 -85.434364
3915000000 -24.977528 -85.782791 -0.65183651 -81.160118 -0.65289086 -81.157753 -26.181971 -86.045349
3942500000 -24.924088 -86.543655 -0.65267938 -81.728539 -0.65323895 -81.729057 -26.235565 -86.796364
3970000000 -24.967058 -86.841759 -0.65408903 -82.28286 -0.65412605 -82.289719 -26.241726 -87.438782
3997500000 -25.031975 -87.40789 -0.65506148 -82.856239 -0.65506387 -82.852051 -26.264853 -87.939857
4025000000 -24.997391 -88.277962 -0.6548062 -83.414452 -0.65740001 -83.418976 -26.32448 -88.842606
4052500000 -24.979364 -88.68483 -0.65598053 -83.980377 -0.65724909 -83.981689 -26.353031 -89.416008
4080000000 -25.070429 -89.164825 -0.65828639 -84.549698 -0.65887988 -84.541313 -26.389338 -90.122307
4107500000 -25.03878 -90.104523 -0.65923148 -85.11985 -0.65968883 -85.102158 -26.421762 -90.765533
4135000000 -25.015739 -90.662842 -0.65918839 -85.667458 -0.66203195 -85.665474 -26.442926 -91.077827
4162500000 -25.081415 -91.154793 -0.66073936 -86.23642 -0.66540992 -86.24205 -26.486124 -91.874077
4190000000 -25.12709 -91.817871 -0.6630677 -86.79763 -0.66405028 -86.800629 -26.526323 -92.458015
4217500000 -25.096077 -92.527428 -0.66317683 -87.351173 -0.66384578 -87.369438 -26.570536 -92.456955
4245000000 -25.110929 -92.815994 -0.66516191 -87.928162 -0.66498905 -87.930908 -26.60397 -93.365852
4272500000 -25.196438 -93.566612 -0.6672852 -88.482124 -0.66649598 -88.490334 -26.664286 -94.296379
4300000000 -25.161093 -94.24604 -0.66704679 -89.049171 -0.66862386 -89.045105 -26.690639 -94.255745
4327500000 -25.146936 -94.755699 -0.66690278 -89.607506 -0.66870296 -89.61113 -26.725943 -94.995232
4355000000 -25.226667 -95.282181 -0.66998917 -90.174194 -0.66994959 -90.180733 -26.763432 -96.082176
4382500000 -25.279047 -96.018784 -0.67068297 -90.729538 -0.671754 -90.736176 -26.804714 -96.32589
4410000000 -25.240231 -96.444489 -0.67199421 -91.299736 -0.67326719 -91.295357 -26.805988 -96.828712
4437500000 -25.300615 -97.060333 -0.67245209 -91.858078 -0.67377657 -91.864212 -26.883459 -97.299881
4465000000 -25.341719 -97.674896 -0.67335123 -92.427567 -0.67494935 -92.428421 -26.911226 -98.237572
4492500000 -25.334387 -98.418579 -0.67456746 -92.986191 -0.67567027 -92.990082 -26.991182 -98.355927
4520000000 -25.37611 -98.921402 -0.67455775 -93.546478 -0.67680216 -93.541878 -27.002594 -99.385399
4547500000 -25.421288 -99.450256 -0.67731768 -94.10936 -0.67855376 -94.11956 -27.033453 -100.00576
4575000000 -25.412224 -99.956772 -0.67823148 -94.665695 -0.67883217 -94.677048 -27.101971 -100.21988
4602500000 -25.451019 -100.68852 -0.68006146 -95.227913 -0.67994547 -95.238174 -27.150057 -101.09424
4630000000 -25.513262 -101.18777 -0.68135279 -95.794128 -0.68141884 -95.799751 -27.15976 -101.74166
4657500000 -25.509611 -101.7134 -0.68100184 -96.359543 -0.68319899 -96.354904 -27.184845 -102.10804
4685000000 -25.533228 -102.34415 -0.68208754 -96.923645 -0.68263125 -96.915161 -27.248337 -102.85887
4712500000 -25.596794 -102.90018 -0.68263215 -97.483772 -0.68411523 -97.483887 -27.257097 -103.44437
4740000000 -25.629238 -103.36283 -0.68361372 -98.039719 -0.68599105 -98.045288 -27.303385 -103.7816
4767500000 -25.644257 -103.98052 -0.68459797 -98.606934 -0.68504435 -98.602974 -27.368084 -104.42173
4795000000 -25.691666 -104.4677 -0.68493617 -99.166283 -0.6867817 -99.173943 -27.376987 -105.22617
4822500000 -25.727674 -105.09508 -0.68511105 -99.728981 -0.68725568 -99.730087 -27.442965 -105.75981
4850000000 -25.740242 -105.66419 -0.68790829 -100.28645 -0.68864536 -100.285 -27.474455 -105.92542
4877500000 -25.758728 -106.26433 -0.68911433 -100.8588 -0.69014412 -100.85458 -27.516537 -106.81325
4905000000 -25.813419 -106.76659 -0.69013894 -101.40618 -0.69005638 -101.41428 -27.537788 -107.02712
4932500000 -25.831198 -107.09966 -0.69060141 -101.96886 -0.69268042 -101.98003 -27.592627 -107.42258
4960000000 -25.870871 -107.84735 -0.69263333 -102.53512 -0.6926856 -102.53364 -27.713863 -108.4473
4987500000 -25.914522 -108.44438 -0.69331533 -103.10435 -0.69440168 -103.09868 -27.678793 -108.73664
5015000000 -25.956839 -108.65044 -0.6945709 -103.65491 -0.69431114 -103.65393 -27.741364 -108.9522
5042500000 -25.984299 -109.53156 -0.69675875 -104.2308 -0.695629 -104.20881 -27.887808 -109.79363
5070000000 -26.026695 -109.94676 -0.69670165 -104.78371 -0.69792742 -104.78228 -27.803177 -110.31865
5097500000 -26.066141 -110.26905 -0.69807911 -105.3579 -0.69816488 -105.33778 -27.843117 -110.98488
5125000000 -26.093168 -111.07867 -0.69941694 -105.91337 -0.69919586 -105.9048 -27.994946 -111.25594
5152500000 -26.147131 -111.57629 -0.69998777 -106.47033 -0.70017266 -106.46978 -27.965137 -111.93684
5180000000 -26.187683 -112.04183 -0.7004239 -107.03191 -0.70204449 -107.01995 -27.969833 -112.31593
5207500000 -26.248079 -112.74341 -0.70185977 -107.58318 -0.70306575 -107.58463 -28.134777 -112.81062
5235000000 -26.267607 -113.30702 -0.70331806 -108.1489 -0.70300639 -108.14657 -28.126015 -113.70712
5262500000 -26.314793 -113.62862 -0.70414269 -108.71709 -0.70608896 -108.70341 -28.14102 -114.05842
5290000000 -26.338146 -114.33031 -0.70398617 -109.26771 -0.7067737 -109.26891 -28.26556 -114.51042
5317500000 -26.392473 -114.96223 -0.70447147 -109.84245 -0.70611364 -109.82829 -28.390228 -115.15747
5345000000 -26.451756 -115.49141 -0.70583862 -110.38958 -0.70759469 -110.38281 -28.30933 -115.69104
5372500000 -26.517799 -115.83379 -0.70635396 -110.95397 -0.70873612 -110.94424 -28.408825 -115.99152
5400000000 -26.530895 -116.6133 -0.7077781 -111.51183 -0.7103616 -111.50874 -28.567873 -117.12332
5427500000 -26.623451 -116.85946 -0.70873916 -112.07345 -0.7093752 -112.05704 -28.457302 -117.2412
5455000000 -26.687571 -117.48755 -0.70878911 -112.63465 -0.71127051 -112.63321 -28.579086 -117.25704
5482500000 -26.707279 -118.06043 -0.71080738 -113.18674 -0.71148306 -113.1923 -28.748701 -118.35629
5510000000 -26.767084 -118.66761 -0.71051621 -113.75313 -0.71322888 -113.75566 -28.768745 -118.72044
5537500000 -26.870169 -118.71909 -0.71194476 -114.30745 -0.71478677 -114.31289 -28.751991 -119.11752
5565000000 -26.87969 -119.7376 -0.71172607 -114.87575 -0.71388721 -114.8594 -28.910469 -119.9518
5592500000 -26.951929 -120.16595 -0.71402454 -115.43139 -0.71502209 -115.42991 -28.985865 -120.70787
5620000000 -27.038019 -120.47797 -0.71375179 -115.99798 -0.71557605 -115.99046 -28.9648 -120.48531
5647500000 -27.069033 -121.06762 -0.71487623 -116.54649 -0.71684778 -116.55435 -29.128181 -121.53374
5675000000 -27.087574 -121.47343 -0.71577442 -117.10924 -0.71689785 -117.10791 -29.221375 -122.30219
5702500000 -27.219124 -121.90227 -0.71719587 -117.66975 -0.71826619 -117.66544 -29.224428 -122.49847
5730000000 -27.229952 -122.30014 -0.717282 -118.22823 -0.71855485 -118.2288 -29.362694 -122.49747
5757500000 -27.270338 -123.15627 -0.71696806 -118.7969 -0.7187928 -118.79322 -29.499186 -123.97433
5785000000 -27.427755 -123.34509 -0.71850717 -119.35625 -0.71854782 -119.35409 -29.462185 -124.05495
5812500000 -27.455389 -123.65301 -0.7193197 -119.90366 -0.72019106 -119.91103 -29.595831 -123.96747
5840000000 -27.463318 -124.49016 -0.71930081 -120.46796 -0.71975172 -120.48052 -29.768074 -125.38261
5867500000 -27.588335 -124.71047 -0.718988 -121.0314 -0.72058344 -121.03747 -29.74753 -125.78307
5895000000 -27.672012 -125.01759 -0.72177714 -121.59761 -0.72088015 -121.59116 -29.884565 -125.58628
5922500000 -27.710907 -125.73296 -0.72060114 -122.15472 -0.72148681 -122.14745 -30.07056 -126.60906
5950000000 -27.793344 -125.88033 -0.72112006 -122.71853 -0.72151494 -122.71319 -30.135077 -127.26868
5977500000 -27.908039 -126.03562 -0.72099596 -123.28411 -0.72295231 -123.28593 -30.20796 -126.75882
6005000000 -27.911055 -127.0463 -0.72142321 -123.84059 -0.72187495 -123.84775 -30.323734 -127.8072
6032500000 -27.992243 -127.22942 -0.72262394 -124.4035 -0.72188169 -124.39619 -30.421577 -128.43404
6060000000 -28.167212 -127.07323 -0.72323418 -124.96692 -0.72346109 -124.96613 -30.504065 -128.04477
6087500000 -28.188738 -127.77792 -0.72312105 -125.52985 -0.72326845 -125.51527 -30.642979 -128.60939
6115000000 -28.172943 -128.26114 -0.72418368 -126.09252 -0.72418648 -126.07956 -30.795628 -129.68578
6142500000 -28.383417 -128.31291 -0.72628528 -126.66129 -0.7236433 -126.64903 -30.81249 -128.66783
6170000000 -28.448065 -128.67722 -0.72333908 -127.21819 -0.72543502 -127.21702 -31.00168 -129.36255
6197500000 -28.4006 -129.12538 -0.72311586 -127.77715 -0.72577614 -127.77338 -31.129089 -130.44759
6225000000 -28.526564 -129.09467 -0.7245149 -128.34125 -0.72585845 -128.33928 -31.231888 -129.46089
6252500000 -28.727575 -129.63824 -0.72610325 -128.90482 -0.72653955 -128.90559 -31.387985 -129.64371
6280000000 -28.61627 -129.87752 -0.72534448 -129.47838 -0.72514045 -129.47864 -31.436405 -131.05104
6307500000 -28.781145 -129.6532 -0.72568101 -130.03969 -0.72647774 -130.03116 -31.47151 -130.67816
6335000000 -28.9536 -130.37178 -0.72781944 -130.60591 -0.72873718 -130.59163 -31.715971 -130.02728
6362500000 -28.943039 -130.43243 -0.72982627 -131.16051 -0.73190576 -131.15848 -31.717125 -131.61899
6390000000 -28.92173 -130.48297 -0.72925276 -131.72273 -0.73060513 -131.72847 -31.731665 -130.45007
6417500000 -29.196291 -130.53682 -0.72916275 -132.28627 -0.7315504 -132.28209 -32.110279 -129.38551
6445000000 -29.199268 -131.24005 -0.72998339 -132.84879 -0.73255444 -132.83919 -32.222973 -131.61649
6472500000 -29.119072 -130.88425 -0.73003882 -133.40511 -0.73255229 -133.41891 -32.051296 -131.52165
6500000000 -29.317057 -131.28561 -0.73044091 -133.98625 -0.73535293 -133.97935 -32.296883 -129.70232
6527500000 -29.456249 -131.86395 -0.73272544 -134.54436 -0.73461437 -134.54439 -32.596699 -130.56514
6555000000 -29.38249 -132.17287 -0.73383456 -135.09538 -0.73467904 -135.10007 -32.505241 -132.45062
6582500000 -29.494343 -131.29842 -0.73360896 -135.67844 -0.73407793 -135.67545 -32.609756 -130.63582
6610000000 -29.720102 -132.49545 -0.73557281 -136.23489 -0.73650235 -136.23497 -32.868343 -130.30869
6637500000 -29.667078 -132.62199 -0.73661733 -136.79004 -0.73758298 -136.78468 -32.822361 -132.45064
6665000000 -29.679897 -132.61058 -0.73825639 -137.35158 -0.73917544 -137.34404 -32.875389 -130.47603
6692500000 -29.923622 -132.79509 -0.73815238 -137.89914 -0.74080777 -137.91481 -33.300045 -129.76624
6720000000 -29.999073 -133.38173 -0.73806095 -138.47641 -0.73934114 -138.47153 -33.310661 -132.21646
6747500000 -29.96022 -133.08017 -0.73727316 -139.03638 -0.73897839 -139.02635 -33.300529 -131.50108
6775000000 -30.226194 -133.40204 -0.73717469 -139.5881 -0.73990715 -139.59442 -33.489765 -130.06569
6802500000 -30.396597 -133.30666 -0.74060881 -140.15323 -0.74065059 -140.16795 -33.844563 -130.86053
6830000000 -30.289755 -132.88893 -0.73998201 -140.7278 -0.74145836 -140.71843 -33.750443 -132.0701
6857500000 -30.441402 -133.08363 -0.7419408 -141.29411 -0.74145681 -141.293 -33.893997 -129.86018
6885000000 -30.636303 -133.38034 -0.74173075 -141.85789 -0.74233139 -141.85641 -34.059093 -129.5237
6912500000 -30.607752 -132.58003 -0.74216247 -142.42607 -0.74236274 -142.42433 -34.1227 -129.91977
6940000000 -30.734001 -132.86205 -0.74120229 -142.98734 -0.74361038 -142.9875 -34.269184 -128.09122
6967500000 -30.934057 -132.74463 -0.74287134 -143.55818 -0.74476379 -143.54454 -34.477814 -127.91541
6995000000 -30.998028 -131.88686 -0.74599558 -144.1241 -0.74419475 -144.11774 -34.538773 -128.19482
7022500000 -30.961876 -132.57295 -0.74568701 -144.6859 -0.74700695 -144.68898 -34.70467 -127.38195
7050000000 -31.140644 -132.65648 -0.74744201 -145.26674 -0.74729717 -145.24606 -34.727505 -126.53737
7077500000 -31.207624 -131.98622 -0.74734271 -145.82892 -0.74938166 -145.81165 -34.716442 -125.69432
7105000000 -31.21221 -131.39232 -0.75038272 -146.3708 -0.75076735 -146.38177 -34.960903 -125.54836
7132500000 -31.373861 -132.2887 -0.74932259 -146.94495 -0.75034457 -146.93718 -34.943871 -125.18001
7160000000 -31.496073 -131.67848 -0.75277317 -147.50406 -0.75275129 -147.49831 -35.042671 -124.8203
7187500000 -31.425695 -131.51826 -0.75080186 -148.06792 -0.75405985 -148.06339 -35.266487 -124.05183
7215000000 -31.592972 -131.93304 -0.75304073 -148.62125 -0.75483626 -148.6217 -35.37236 -124.95718
7242500000 -31.754095 -131.32152 -0.75409961 -149.18855 -0.75503492 -149.18669 -35.245266 -123.98534
7270000000 -31.795744 -131.75743 -0.75555152 -149.74445 -0.75615257 -149.73305 -35.471428 -123.13793
7297500000 -31.859926 -131.95708 -0.75712436 -150.31123 -0.75631028 -150.30006 -35.784477 -122.36743
7325000000 -32.048244 -130.73363 -0.75571692 -150.87286 -0.75800705 -150.87686 -35.588818 -121.11472
7352500000 -32.112301 -129.84558 -0.75668496 -151.44537 -0.75905573 -151.43588 -35.764648 -118.65036
7380000000 -32.150154 -130.31653 -0.75698572 -152.00278 -0.76129609 -151.99673 -36.116817 -119.24327
7407500000 -32.223877 -129.91928 -0.75786865 -152.55975 -0.75970411 -152.55865 -35.798599 -118.76718
7435000000 -32.275066 -128.60098 -0.75911587 -153.12892 -0.76053953 -153.12257 -35.779457 -116.39786
7462500000 -32.314224 -129.04407 -0.7610262 -153.69313 -0.76152372 -153.69749 -36.150642 -116.1219
7490000000 -32.436123 -128.61256 -0.76244557 -154.23523 -0.7630229 -154.25322 -35.956787 -116.9565
7517500000 -32.505627 -127.41838 -0.76332408 -154.81532 -0.76419562 -154.81073 -35.956875 -114.93497
7545000000 -32.557522 -127.68341 -0.76332408 -155.38957 -0.7651785 -155.39006 -36.207596 -113.12109
7572500000 -32.610023 -127.66643 -0.7650069 -155.94061 -0.76513779 -155.93869 -36.151611 -114.65223
7600000000 -32.728302 -126.40495 -0.76771641 -156.50415 -0.76849496 -156.50087 -36.00132 -112.82677
7627500000 -32.78595 -127.05624 -0.76791257 -157.07088 -0.76805657 -157.06078 -36.276821 -110.2328
7655000000 -32.760853 -125.88029 -0.76924026 -157.62759 -0.76936448 -157.62213 -36.455921 -111.84726
7682500000 -32.878986 -124.62052 -0.76971281 -158.18182 -0.77149302 -158.18051 -35.991844 -111.29554
7710000000 -32.993145 -124.8373 -0.76907831 -158.7491 -0.77120793 -158.74568 -36.223873 -107.23431
7737500000 -32.958076 -124.38898 -0.77155423 -159.31247 -0.77432352 -159.30577 -36.466698 -109.07019
7765000000 -32.976074 -123.13809 -0.77289414 -159.87758 -0.77269155 -159.87326 -35.949718 -107.97519
7792500000 -33.064159 -122.99768 -0.77347654 -160.44385 -0.77403057 -160.42262 -36.225266 -104.1166
7820000000 -33.136974 -123.34135 -0.77576178 -160.99202 -0.77496678 -160.98666 -36.470413 -105.1245
7847500000 -33.136616 -121.83514 -0.77702439 -161.55443 -0.77619201 -161.5498 -36.076611 -105.71688
7875000000 -33.186169 -121.20787 -0.77627528 -162.10675 -0.77873045 -162.10928 -36.019108 -101.92779
7902500000 -33.27803 -121.58862 -0.77678138 -162.67264 -0.77958065 -162.67706 -36.610229 -100.68201
7930000000 -33.196808 -120.10201 -0.7788915 -163.23836 -0.78006113 -163.23947 -36.173397 -102.74517
7957500000 -33.299488 -119.46927 -0.77922475 -163.7939 -0.77992916 -163.78781 -35.824631 -100.30128
7985000000 -33.304337 -119.58781 -0.77902281 -164.35789 -0.78270727 -164.35892 -36.220341 -97.901413
8012500000 -33.370701 -118.77565 -0.78113967 -164.9184 -0.78083968 -164.91501 -35.969177 -100.7927
8040000000 -33.323608 -117.58082 -0.78281546 -165.4713 -0.78401899 -165.47237 -35.590511 -97.816124
8067500000 -33.50626 -118.04183 -0.78326988 -166.04286 -0.78450829 -166.02905 -35.937832 -94.585999
8095000000 -33.393478 -117.18415 -0.78260869 -166.59689 -0.78645837 -166.59172 -35.824928 -96.588821
8122500000 -33.429607 -115.91782 -0.7857759 -167.15102 -0.78456658 -167.16423 -35.388348 -95.631691
8150000000 -33.400372 -115.37815 -0.78602564 -167.7106 -0.78602779 -167.71683 -35.731995 -91.406853
8177500000 -33.45195 -114.679 -0.78792894 -168.28065 -0.78651303 -168.27046 -35.711716 -94.560539
8205000000 -33.413647 -113.31577 -0.78810394 -168.83752 -0.78930867 -168.84125 -35.08202 -94.258316
8232500000 -33.429176 -114.10518 -0.78887963 -169.40334 -0.78829855 -169.40631 -35.464848 -88.998093
8260000000 -33.449329 -112.39439 -0.79027617 -169.96764 -0.78991783 -169.96086 -35.523739 -91.170311
8287500000 -33.356564 -111.39495 -0.79088235 -170.53233 -0.79121679 -170.52403 -34.659889 -92.676132
8315000000 -33.428749 -110.80704 -0.79250753 -171.08925 -0.79231644 -171.09016 -35.006485 -87.288643
8342500000 -33.359001 -110.8018 -0.79358506 -171.65862 -0.79258579 -171.66188 -35.365688 -89.187241
8370000000 -33.174873 -109.0647 -0.79331565 -172.2298 -0.79317927 -172.22337 -34.255833 -90.531471
8397500000 -33.386505 -108.89886 -0.79341447 -172.7776 -0.79481429 -172.78729 -34.59082 -84.787346
8425000000 -33.261257 -108.13049 -0.7981146 -173.33191 -0.79901123 -173.34689 -35.450405 -87.665535
8452500000 -32.929573 -107.63519 -0.79988062 -173.92494 -0.79893684 -173.91631 -33.862843 -91.708206
8480000000 -33.298702 -106.42601 -0.80281758 -174.48009 -0.80315924 -174.46118 -33.360989 -81.93029
8507500000 -33.178711 -104.54903 -0.81048244 -175.01466 -0.80951482 -175.0323 -35.684597 -81.297485
8535000000 -32.674675 -107.23533 -0.81216276 -175.56929 -0.8148638 -175.57486 -34.141571 -100.34822
8562500000 -32.835224 -105.09595 -0.81077665 -176.07924 -0.81238061 -176.0713 -31.594423 -87.952225
8590000000 -32.838314 -103.34841 -0.81042039 -176.58264 -0.81231159 -176.57843 -33.395195 -67.418282
8617500000 -32.984962 -107.82449 -0.81356329 -177.12921 -0.81101501 -177.11792 -37.170414 -83.072395
8645000000 -32.712002 -105.31525 -0.79882729 -177.71771 -0.80321217 -177.70383 -32.690887 -102.19666
8672500000 -32.606903 -102.9948 -0.79470766 -178.28355 -0.79356426 -178.29552 -31.461216 -82.320175
8700000000 -33.024639 -101.92253 -0.7959879 -178.84747 -0.79539001 -178.85233 -33.363773 -70.126938
8727500000 -32.807308 -103.21252 -0.79814351 -179.45944 -0.79863751 -179.45741 -34.711082 -91.618729
8755000000 -32.522396 -101.58434 -0.79708469 179.96951 -0.79702842 179.95097 -32.066002 -89.798721
8782500000 -32.425095 -99.370872 -0.79682159 179.41182 -0.79713351 179.41122 -32.209793 -74.89782
8810000000 -32.47356 -100.94756 -0.80084115 178.84155 -0.80243671 178.85262 -33.750561 -82.726242
8837500000 -32.334652 -100.3283 -0.80042219 178.25674 -0.8015008 178.26183 -32.423134 -89.638191
8865000000 -32.12627 -98.490479 -0.80245388 177.71492 -0.80358124 177.71269 -31.812321 -81.133629
8892500000 -32.127926 -98.878242 -0.80684674 177.15392 -0.80746955 177.15331 -32.931534 -79.973473
8920000000 -32.015526 -98.763794 -0.8058151 176.58011 -0.80808222 176.58018 -32.324085 -87.117851
8947500000 -31.870071 -97.396484 -0.80453008 176.02556 -0.80681711 176.04553 -31.671036 -82.46183
8975000000 -31.803646 -97.067261 -0.80722082 175.47687 -0.80912089 175.46712 -32.043865 -79.842705
9002500000 -31.729797 -97.564659 -0.80804074 174.91493 -0.80985856 174.91003 -32.043671 -85.211395
9030000000 -31.622036 -96.787666 -0.80923039 174.34334 -0.80959594 174.34886 -31.387886 -84.224991
9057500000 -31.565023 -96.13002 -0.81020856 173.78801 -0.811616 173.79132 -31.496284 -80.738693
9085000000 -31.422115 -96.770683 -0.81242645 173.23955 -0.81232536 173.22174 -31.783058 -84.074379
9112500000 -31.311415 -96.532776 -0.81264997 172.66646 -0.81388456 172.66214 -31.144878 -84.634338
9140000000 -31.209082 -95.147408 -0.81203604 172.10341 -0.8146221 172.11809 -31.052944 -82.215813
9167500000 -31.16823 -95.500931 -0.81395513 171.5475 -0.81659949 171.55241 -31.251133 -83.485092
9195000000 -30.982399 -95.336121 -0.81444907 170.9818 -0.81462055 170.98962 -30.9884 -85.301849
9222500000 -30.906834 -94.382462 -0.81317216 170.4296 -0.815961 170.43027 -30.730652 -83.116837
9250000000 -30.845596 -94.892342 -0.81641799 169.86722 -0.81671882 169.87074 -30.772932 -83.109779
9277500000 -30.706816 -94.668709 -0.81806028 169.30807 -0.81709468 169.29868 -30.616016 -85.155159
9305000000 -30.674799 -94.151665 -0.81692034 168.74048 -0.81856811 168.75374 -30.389114 -84.295113
9332500000 -30.506783 -93.716583 -0.81748182 168.19881 -0.81833625 168.19351 -30.40597 -83.96096
9360000000 -30.387402 -94.42202 -0.82010144 167.61676 -0.81838626 167.61919 -30.296827 -85.431297
9387500000 -30.29385 -94.205902 -0.81833029 167.06288 -0.81894225 167.06427 -30.084719 -84.986351
9415000000 -30.225319 -93.361084 -0.81920701 166.50475 -0.8214727 166.49391 -30.037643 -84.85537
9442500000 -30.019766 -93.693413 -0.82199502 165.9344 -0.82076371 165.94392 -29.909809 -85.703003
9470000000 -30.017393 -93.869133 -0.81941366 165.36719 -0.82239324 165.37175 -29.789516 -85.54747
9497500000 -29.947758 -93.129524 -0.82036036 164.81747 -0.82401496 164.82063 -29.706455 -85.884239
9525000000 -29.733992 -93.259979 -0.8218565 164.26428 -0.82387882 164.2578 -29.571503 -86.41497
9552500000 -29.615829 -93.922455 -0.82383966 163.70166 -0.82453507 163.70224 -29.537411 -86.993683
9580000000 -29.63014 -93.616226 -0.82431602 163.13249 -0.82713205 163.13995 -29.475296 -87.071609
9607500000 -29.415552 -93.0924 -0.82372892 162.58037 -0.82630849 162.57629 -29.264122 -86.951653
9635000000 -29.258528 -93.666069 -0.8256945 162.01384 -0.825661 162.01288 -29.199938 -86.937798
9662500000 -29.319338 -93.588814 -0.82567978 161.46153 -0.82580692 161.4668 -29.157562 -87.928604
9690000000 -29.121691 -92.874008 -0.82674873 160.89177 -0.82728362 160.88678 -28.92947 -88.378952
9717500000 -28.979916 -93.706429 -0.82731181 160.32758 -0.82901835 160.32506 -28.830795 -87.946487
9745000000 -28.994413 -94.124008 -0.82921165 159.76981 -0.82824922 159.7643 -28.917284 -88.322762
9772500000 -28.884914 -93.527107 -0.8294009 159.19965 -0.83079326 159.20715 -28.669348 -89.655548
9800000000 -28.673803 -93.497299 -0.82996339 158.63451 -0.8298744 158.65244 -28.454487 -89.066254
9827500000 -28.632471 -94.277939 -0.82795388 158.08083 -0.83088762 158.09178 -28.596027 -89.275436
9855000000 -28.61549 -93.98658 -0.83187348 157.53131 -0.83009845 157.5267 -28.475227 -90.914139
9882500000 -28.381376 -94.085594 -0.83113426 156.95163 -0.83300823 156.96121 -28.155195 -90.357147
9910000000 -28.283138 -94.63414 -0.83165216 156.39848 -0.83410937 156.41444 -28.293266 -90.274696
9937500000 -28.265762 -94.61692 -0.83188945 155.84334 -0.83446604 155.84105 -28.153973 -91.939003
9965000000 -28.131819 -94.446831 -0.83324689 155.26865 -0.8347562 155.27547 -27.89407 -91.562752
9992500000 -28.064028 -94.968544 -0.83479512 154.71799 -0.83362544 154.72382 -27.985025 -90.970467
10020000000 -28.004087 -95.250443 -0.83521932 154.15994 -0.83668035 154.15666 -28.05517 -92.822968
10047500000 -27.883263 -95.055641 -0.8378911 153.59291 -0.83653504 153.59059 -27.66482 -93.314575
10075000000 -27.72683 -95.76162 -0.83579445 153.03838 -0.8380509 153.02193 -27.64435 -92.092087
10102500000 -27.701031 -95.768692 -0.83851242 152.48138 -0.83929056 152.48207 -27.806192 -93.361359
10130000000 -27.65658 -95.7854 -0.83867824 151.91727 -0.83757591 151.91882 -27.497623 -94.377571
10157500000 -27.463684 -96.682213 -0.83740294 151.3564 -0.839104 151.34425 -27.325296 -92.944649
10185000000 -27.414989 -96.652077 -0.84149259 150.78778 -0.83851492 150.79211 -27.657398 -94.093941
10212500000 -27.352203 -96.760941 -0.83783549 150.20978 -0.84147376 150.22742 -27.34848 -96.383522
10240000000 -27.223949 -97.094086 -0.83793944 149.6584 -0.84170687 149.66513 -26.971081 -94.731094
10267500000 -27.130304 -97.402351 -0.84118468 149.10652 -0.84126794 149.11697 -27.339563 -94.715584
10295000000 -27.063503 -97.173523 -0.84210467 148.53241 -0.84421384 148.53694 -27.245852 -97.718124
10322500000 -26.956244 -97.917877 -0.84185737 147.9673 -0.84174991 147.96744 -26.738186 -96.806061
10350000000 -26.874205 -98.209251 -0.84368443 147.41551 -0.8456037 147.41096 -26.996794 -95.615364
10377500000 -26.795898 -97.984932 -0.84634191 146.85191 -0.84545839 146.85558 -27.026136 -98.582649
10405000000 -26.691738 -98.821182 -0.84779507 146.27914 -0.84665304 146.28587 -26.552319 -98.491455
10432500000 -26.627077 -99.27845 -0.84779823 145.73393 -0.8481831 145.71948 -26.630713 -96.614227
10460000000 -26.5508 -98.989845 -0.84932148 145.17215 -0.84929973 145.16312 -26.899023 -99.168457
10487500000 -26.472382 -99.785835 -0.84924465 144.59033 -0.8512845 144.59695 -26.41856 -100.42812
10515000000 -26.418795 -100.45788 -0.84977603 144.0412 -0.84898847 144.0374 -26.315222 -98.562569
10542500000 -26.335691 -99.801376 -0.84967089 143.50017 -0.85137492 143.4902 -26.615974 -99.391823
10570000000 -26.191944 -101.02687 -0.85049069 142.91554 -0.85340911 142.91695 -26.356411 -101.50776
10597500000 -26.170828 -101.38624 -0.8523708 142.36333 -0.85265619 142.35576 -26.044628 -100.1552
10625000000 -26.039186 -100.98393 -0.85186493 141.80862 -0.85426778 141.80798 -26.371576 -100.18162
10652500000 -25.978355 -101.90131 -0.85535544 141.23853 -0.85402358 141.23189 -26.21035 -102.94299
10680000000 -25.970087 -102.69559 -0.85292524 140.6756 -0.8567363 140.68774 -25.871284 -102.07256
10707500000 -25.881222 -102.6283 -0.85430151 140.12556 -0.85726666 140.12408 -26.047701 -101.41834
10735000000 -25.729549 -102.5071 -0.8560707 139.54349 -0.85636926 139.55898 -26.098808 -104.02985
10762500000 -25.755348 -103.85704 -0.85930616 138.9754 -0.86072773 138.98251 -25.654886 -104.28568
10790000000 -25.643993 -103.5067 -0.85814118 138.43391 -0.85972518 138.42746 -25.731159 -102.95548
10817500000 -25.532145 -103.62659 -0.86082149 137.86794 -0.85967219 137.87906 -25.959997 -104.65446
10845000000 -25.463535 -105.11623 -0.86089468 137.32233 -0.86530226 137.30594 -25.56657 -105.8763
10872500000 -25.425465 -105.14291 -0.86240482 136.74867 -0.86314434 136.75064 -25.458017 -104.8798
10900000000 -25.304375 -104.86878 -0.86499518 136.20673 -0.86379552 136.198 -25.756769 -105.91685
10927500000 -25.267916 -106.40474 -0.86474687 135.64314 -0.86707622 135.64908 -25.458979 -107.66193
10955000000 -25.220007 -106.71616 -0.8648088 135.07674 -0.86663693 135.08708 -25.199171 -106.62335
10982500000 -25.162266 -106.31847 -0.86696529 134.53523 -0.87017095 134.52084 -25.460211 -106.87434
11010000000 -25.069597 -107.37603 -0.86826986 133.96373 -0.86727411 133.94948 -25.375772 -109.05403
11037500000 -25.007853 -107.58675 -0.86858916 133.38696 -0.87102026 133.38765 -25.029299 -108.57152
11065000000 -24.949842 -107.43024 -0.86877763 132.82588 -0.87014884 132.8372 -25.166769 -108.14232
11092500000 -24.886995 -108.48901 -0.87095416 132.28511 -0.87294632 132.28137 -25.255959 -110.20963
11120000000 -24.859447 -109.00592 -0.87298745 131.70833 -0.87299949 131.7184 -24.907818 -110.75742
11147500000 -24.794737 -108.91391 -0.8727963 131.15417 -0.87486911 131.16266 -24.919254 -109.95827
11175000000 -24.698862 -109.43795 -0.87400985 130.60194 -0.87290424 130.59731 -25.076624 -111.12917
11202500000 -24.658689 -110.68591 -0.872971 130.04543 -0.87712598 130.04195 -24.783144 -112.27809
11230000000 -24.607723 -110.57652 -0.87499386 129.47325 -0.87454712 129.47108 -24.673334 -111.71031
11257500000 -24.543077 -110.89456 -0.8748371 128.9119 -0.87664574 128.93349 -24.874212 -112.08359
11285000000 -24.48056 -111.99194 -0.87708229 128.36363 -0.87802291 128.36589 -24.730511 -114.01454
11312500000 -24.401373 -112.09126 -0.87830496 127.79889 -0.87867224 127.80948 -24.493698 -113.44115
11340000000 -24.34256 -112.16585 -0.87959832 127.24957 -0.87961924 127.2476 -24.660446 -113.16682
11367500000 -24.320993 -113.22085 -0.88264269 126.68792 -0.88269055 126.67824 -24.64463 -115.01301
11395000000 -24.237911 -113.31102 -0.88096118 126.12671 -0.88027161 126.13179 -24.421206 -115.54292
11422500000 -24.182825 -113.36011 -0.88074595 125.57702 -0.88125354 125.57996 -24.487528 -115.12414
11450000000 -24.101116 -114.45899 -0.88430983 125.00618 -0.88421971 125.00819 -24.544432 -116.84473
11477500000 -24.078762 -114.93104 -0.88372886 124.45117 -0.88534313 124.45547 -24.278343 -117.87708
11505000000 -23.992769 -114.97371 -0.88519365 123.89098 -0.88537997 123.89149 -24.228056 -117.27723
11532500000 -23.95241 -115.82381 -0.88575196 123.33945 -0.88766044 123.34003 -24.303061 -118.47855
11560000000 -23.912287 -116.51689 -0.88739115 122.78794 -0.88779348 122.77687 -24.108435 -119.28493
11587500000 -23.82864 -116.60224 -0.88588405 122.2323 -0.89058393 122.22282 -24.038765 -119.18539
11615000000 -23.763191 -117.41844 -0.88820988 121.66013 -0.88812697 121.66488 -24.153078 -119.81343
11642500000 -23.764132 -118.1234 -0.88760167 121.09401 -0.88999164 121.10856 -24.081177 -121.0424
11670000000 -23.680584 -118.09658 -0.8912701 120.54845 -0.89014864 120.54832 -23.875528 -121.03572
11697500000 -23.632233 -118.94302 -0.89085919 119.98301 -0.89215755 119.99535 -23.980734 -121.26535
11725000000 -23.601231 -119.48952 -0.89217442 119.43236 -0.89242715 119.43937 -23.958242 -122.64
11752500000 -23.547068 -119.8262 -0.89049882 118.87257 -0.8926993 118.87462 -23.794514 -123.05412
11780000000 -23.462528 -120.26769 -0.89342135 118.33094 -0.89416713 118.31833 -23.845081 -123.08562
11807500000 -23.428623 -121.33613 -0.89475012 117.76724 -0.89572352 117.74697 -23.818562 -124.1534
11835000000 -23.428213 -121.2979 -0.89341402 117.20087 -0.89464766 117.20306 -23.686001 -124.9396
11862500000 -23.324171 -121.8231 -0.89622337 116.64216 -0.89561063 116.63459 -23.665642 -125.15129
11890000000 -23.281488 -122.55768 -0.89425075 116.10386 -0.89767075 116.08607 -23.731733 -125.82479
11917500000 -23.243143 -123.32488 -0.89609933 115.53017 -0.89497215 115.52692 -23.568953 -127.22777
11945000000 -23.190996 -123.51218 -0.8978073 114.96669 -0.89767075 114.97531 -23.503773 -126.74169
11972500000 -23.144844 -124.13048 -0.89657372 114.41898 -0.89820397 114.40997 -23.592678 -127.69334
12000000000 -23.126656 -124.84941 -0.89758229 113.85445 -0.89967299 113.87441 -23.471764 -128.56989
12027500000 -23.06233 -125.0382 -0.8972131 113.30093 -0.90076733 113.31548 -23.398344 -128.95894
12055000000 -22.991613 -125.6423 -0.90049118 112.74836 -0.90074021 112.75171 -23.539913 -129.5657
12082500000 -22.946848 -126.38612 -0.89722228 112.1881 -0.90075743 112.19731 -23.416435 -130.84381
12110000000 -22.911112 -126.80753 -0.90123713 111.64135 -0.90251923 111.64992 -23.299419 -131.43115
12137500000 -22.84214 -127.16501 -0.90057141 111.07476 -0.90253228 111.07269 -23.338961 -131.92447
12165000000 -22.77643 -127.84657 -0.90115911 110.52499 -0.90170419 110.51937 -23.29097 -133.08405
12192500000 -22.792097 -128.6821 -0.90006244 109.95969 -0.90112185 109.96848 -23.136023 -133.48782
12220000000 -22.76376 -128.92239 -0.90283084 109.41124 -0.90280503 109.41337 -23.200912 -133.94421
12247500000 -22.681595 -129.57878 -0.90182936 108.85416 -0.90421921 108.84756 -23.230453 -134.71519
12275000000 -22.670837 -130.50298 -0.90171468 108.29572 -0.90609437 108.27854 -23.0277 -135.56688
12302500000 -22.659163 -130.86942 -0.9002201 107.73206 -0.90249848 107.73277 -23.047218 -135.62862
12330000000 -22.608732 -131.42963 -0.90248096 107.17366 -0.90472996 107.16557 -23.148111 -136.30577
12357500000 -22.554663 -132.28654 -0.90278465 106.60697 -0.90525347 106.61755 -22.945892 -137.03603
12385000000 -22.594408 -132.82249 -0.90487534 106.04784 -0.90453804 106.05397 -22.997581 -137.53757
12412500000 -22.525463 -132.99297 -0.90428519 105.49802 -0.90348643 105.49197 -23.064711 -138.34193
12440000000 -22.461121 -133.7616 -0.90439391 104.92688 -0.90578312 104.94717 -22.939619 -139.45576
12467500000 -22.457842 -134.65491 -0.90526879 104.38087 -0.90316164 104.37791 -22.893429 -139.56335
12495000000 -22.467697 -134.83121 -0.90615177 103.82273 -0.9062838 103.81786 -22.990829 -140.41223
12522500000 -22.323624 -135.27841 -0.90253067 103.24474 -0.90607268 103.25811 -22.945236 -141.26389
12550000000 -22.331108 -136.22237 -0.90395176 102.70461 -0.90452272 102.69376 -22.83497 -141.88081
12577500000 -22.339056 -136.48357 -0.90480453 102.14311 -0.90648794 102.12199 -22.924713 -142.49504
12605000000 -22.264576 -136.76605 -0.90401429 101.57784 -0.90709871 101.57895 -22.856512 -143.45239
12632500000 -22.208864 -137.81709 -0.90622193 101.01225 -0.90431553 101.01172 -22.740593 -143.63257
12660000000 -22.279444 -138.51628 -0.90439487 100.4551 -0.90799421 100.44867 -22.76087 -144.39137
12687500000 -22.214661 -138.63823 -0.90480518 99.89846 -0.90765125 99.897957 -22.811995 -145.48329
12715000000 -22.149647 -139.56143 -0.90631539 99.324097 -0.90788639 99.344109 -22.713289 -145.80246
12742500000 -22.166311 -140.50983 -0.90693641 98.77449 -0.90834874 98.774918 -22.708179 -146.53958
12770000000 -22.177374 -140.75822 -0.90716511 98.212181 -0.90945542 98.22686 -22.743931 -147.45689
12797500000 -22.086609 -141.30034 -0.9062739 97.660339 -0.90719062 97.650597 -22.653278 -147.70454
12825000000 -22.089123 -142.35411 -0.90883118 97.09082 -0.91149312 97.09671 -22.64142 -148.20607
12852500000 -22.125807 -142.60445 -0.90797925 96.528267 -0.90907437 96.543922 -22.690426 -149.18903
12880000000 -22.047754 -143.03865 -0.90836114 95.976753 -0.91066682 95.986938 -22.608429 -149.52631
12907500000 -22.01013 -144.14017 -0.90952563 95.432678 -0.90898788 95.416313 -22.532715 -150.06082
12935000000 -22.064486 -144.78525 -0.90968138 94.855476 -0.91050589 94.854355 -22.591759 -151.26051
12962500000 -22.036842 -144.95221 -0.90995908 94.299911 -0.91219532 94.297173 -22.60438 -151.64557
12990000000 -21.980587 -145.84659 -0.91085804 93.740562 -0.91013402 93.727242 -22.54348 -151.83322
13017500000 -22.008081 -146.63268 -0.90863204 93.181839 -0.91120827 93.168396 -22.566435 -152.86649
13045000000 -22.057682 -146.81407 -0.9119373 92.606491 -0.91204143 92.609886 -22.583244 -153.68661
13072500000 -21.919279 -147.30972 -0.90850472 92.068497 -0.91236973 92.046867 -22.501017 -153.91873
13100000000 -21.965443 -148.54422 -0.91252208 91.490707 -0.9127143 91.491714 -22.49094 -154.81886
13127500000 -21.993057 -148.78506 -0.91048837 90.926483 -0.91172141 90.9366 -22.57897 -155.64967
13155000000 -21.961216 -149.14389 -0.91183096 90.357872 -0.91395664 90.374481 -22.534597 -155.81767
13182500000 -21.910069 -150.20947 -0.91039515 89.802734 -0.91492289 89.806152 -22.453302 -156.59697
13210000000 -21.967232 -150.67035 -0.9123764 89.234993 -0.91495264 89.245018 -22.526848 -157.57286
13237500000 -21.950329 -150.76904 -0.9117623 88.689537 -0.91335732 88.687775 -22.536758 -157.89085
13265000000 -21.86904 -151.83733 -0.91431737 88.117775 -0.91686434 88.126968 -22.466618 -158.37871
13292500000 -21.933353 -152.66623 -0.91367489 87.573692 -0.91440332 87.570747 -22.481163 -159.56189
13320000000 -21.944946 -152.91974 -0.91413748 86.989189 -0.91468292 87.001762 -22.505867 -159.87494
13347500000 -21.88517 -153.62071 -0.91210049 86.433044 -0.91455317 86.44754 -22.430891 -160.23027
13375000000 -21.89395 -154.62035 -0.91365921 85.869682 -0.91596866 85.86451 -22.437885 -161.12953
13402500000 -21.984987 -154.66188 -0.91537702 85.322372 -0.91547 85.318558 -22.502457 -161.71623
13430000000 -21.93824 -155.46017 -0.9146992 84.756561 -0.91467142 84.752037 -22.46871 -162.07339
13457500000 -21.91053 -156.38097 -0.91637522 84.191345 -0.91614223 84.186775 -22.430565 -162.81433
13485000000 -21.977633 -156.63675 -0.91518945 83.624329 -0.91683334 83.61335 -22.473341 -163.68317
13512500000 -21.969007 -157.16313 -0.91760612 83.045792 -0.91518593 83.060516 -22.494928 -163.93983
13540000000 -21.91696 -158.02335 -0.91843694 82.49176 -0.9159776 82.497749 -22.414604 -164.55046
13567500000 -21.99679 -158.53255 -0.91752428 81.927994 -0.91985178 81.919731 -22.427061 -165.09457
13595000000 -22.045181 -158.95177 -0.91736412 81.360046 -0.91839796 81.362175 -22.543133 -165.20912
13622500000 -21.94973 -159.61227 -0.91805637 80.794037 -0.91670901 80.793625 -22.484953 -166.1207
13650000000 -21.98476 -160.12462 -0.92064685 80.245338 -0.92190361 80.235176 -22.498398 -167.06483
13677500000 -22.060225 -160.63626 -0.91975451 79.673553 -0.92138255 79.679596 -22.562424 -167.26814
13705000000 -21.980417 -160.92212 -0.92283994 79.109978 -0.92211169 79.088806 -22.53367 -167.74413
13732500000 -21.955551 -161.74529 -0.92378867 78.534447 -0.9236474 78.536194 -22.489933 -168.54886
13760000000 -22.063251 -162.14297 -0.9243468 77.980011 -0.92563188 77.979591 -22.557655 -169.13644
13787500000 -22.022097 -162.80348 -0.92610186 77.413544 -0.926139 77.413429 -22.576809 -169.54274
13815000000 -22.007132 -163.2093 -0.92679459 76.860909 -0.92847401 76.853592 -22.527624 -170.38223
13842500000 -22.059818 -163.99316 -0.92758071 76.295723 -0.92985839 76.292473 -22.526518 -170.98328
13870000000 -22.032927 -164.69061 -0.9284445 75.729996 -0.93111944 75.727692 -22.579481 -170.93372
13897500000 -22.015038 -164.9527 -0.93092382 75.190224 -0.93260735 75.170357 -22.541853 -171.87686
13925000000 -22.072927 -165.69815 -0.93270332 74.611206 -0.93258363 74.619492 -22.481913 -172.60898
13952500000 -22.083578 -166.49153 -0.93291384 74.058891 -0.93322957 74.047112 -22.592979 -172.63342
13980000000 -22.025137 -166.40042 -0.93427652 73.497993 -0.93504792 73.496628 -22.508226 -173.45813
14007500000 -22.040321 -167.237 -0.93656421 72.9366 -0.93539786 72.933022 -22.49976 -174.07544
14035000000 -22.074934 -168.07367 -0.93642288 72.378624 -0.9390285 72.387474 -22.584864 -174.72462
14062500000 -22.040031 -168.25427 -0.93890929 71.816063 -0.93871969 71.830269 -22.586845 -175.41731
14090000000 -22.056639 -168.6855 -0.93892533 71.273102 -0.93973774 71.259224 -22.525312 -176.09438
14117500000 -22.036167 -169.74188 -0.93850088 70.717133 -0.94312429 70.703606 -22.5819 -176.78783
14145000000 -22.043192 -170.11617 -0.94191927 70.158173 -0.94103539 70.144806 -22.612049 -177.23073
14172500000 -22.034161 -170.57199 -0.94112128 69.613014 -0.94294196 69.602615 -22.531116 -177.8381
14200000000 -22.082514 -171.73169 -0.94365215 69.056297 -0.94306678 69.041626 -22.552872 -178.46605
14227500000 -22.042294 -172.15884 -0.94270974 68.492592 -0.94557369 68.48024 -22.59761 -178.98932
14255000000 -22.043163 -172.54738 -0.94444394 67.943085 -0.94790852 67.942116 -22.57509 -179.96126
14282500000 -22.086807 -173.49881 -0.94543982 67.380867 -0.94511992 67.375504 -22.544861 179.29495
14310000000 -22.032045 -174.45692 -0.94605809 66.835388 -0.94881153 66.817581 -22.566412 178.65106
14337500000 -22.039125 -174.59732 -0.94478273 66.288902 -0.94537705 66.28447 -22.576368 178.2226
14365000000 -22.111599 -175.61218 -0.94324815 65.729904 -0.94680649 65.72963 -22.555601 177.18561
14392500000 -22.123999 -176.73395 -0.94264829 65.175049 -0.94538832 65.158478 -22.600676 176.61452
14420000000 -22.122116 -177.04733 -0.94328547 64.609314 -0.94406652 64.591377 -22.687878 175.88702
14447500000 -22.186691 -177.65819 -0.94010931 64.044212 -0.94306737 64.037682 -22.681244 174.62079
14475000000 -22.198294 -178.78749 -0.94145691 63.485973 -0.94326937 63.477745 -22.679491 174.12378
14502500000 -22.211971 -179.31433 -0.93996531 62.911446 -0.94403726 62.918522 -22.726763 173.51396
14530000000 -22.28809 -179.66982 -0.94242316 62.34137 -0.94193023 62.352921 -22.775537 172.58067
14557500000 -22.302233 179.38058 -0.94262743 61.763737 -0.94285995 61.771698 -22.785175 172.01645
14585000000 -22.2987 179.20898 -0.94413632 61.211536 -0.94210774 61.232674 -22.839281 171.57336
14612500000 -22.346907 178.69667 -0.94393975 60.649357 -0.94337845 60.644554 -22.882708 170.35561
14640000000 -22.394608 177.87579 -0.94544947 60.084801 -0.94642246 60.073753 -22.847206 170.1992
14667500000 -22.397198 177.38161 -0.94587493 59.504471 -0.94798166 59.508572 -22.898441 169.62981
14695000000 -22.411175 177.13428 -0.94622254 58.946136 -0.9485954 58.948967 -22.950512 168.87605
14722500000 -22.463379 175.99756 -0.94906884 58.375946 -0.95001042 58.383739 -22.934561 167.94142
14750000000 -22.455456 175.70766 -0.94830751 57.838638 -0.95315355 57.815495 -22.923153 167.99478
14777500000 -22.480373 175.51921 -0.95149094 57.25317 -0.95476967 57.252632 -23.029327 167.20978
14805000000 -22.493797 174.47961 -0.95382607 56.698204 -0.95506638 56.692348 -22.999714 165.97459
14832500000 -22.532633 173.92938 -0.95499635 56.146118 -0.95998579 56.142326 -22.963348 166.18414
14860000000 -22.536999 173.99902 -0.95512891 55.582928 -0.95902854 55.588196 -23.073135 165.65192
14887500000 -22.527431 172.77991 -0.95711553 55.00898 -0.96298462 55.038876 -23.097357 163.92281
14915000000 -22.528114 172.12689 -0.95841748 54.480049 -0.96252 54.467278 -22.99094 163.88051
14942500000 -22.601694 171.88838 -0.96103275 53.933815 -0.96070659 53.913677 -23.046825 163.86664
14970000000 -22.590168 170.86281 -0.96072721 53.364723 -0.96221501 53.363235 -23.126616 162.06833
14997500000 -22.591438 169.88878 -0.96012205 52.789619 -0.95959091 52.785172 -23.068647 161.55122
15025000000 -22.687731 169.74698 -0.96140999 52.230373 -0.9599064 52.224094 -23.154819 161.44266
15052500000 -22.687687 169.11157 -0.96038556 51.653683 -0.96282178 51.661304 -23.219976 160.23268
15080000000 -22.679502 168.30888 -0.9627381 51.097786 -0.96331936 51.096416 -23.214832 159.3279
15107500000 -22.777807 168.14133 -0.96429342 50.528255 -0.96752745 50.529865 -23.186714 159.98961
15135000000 -22.785948 167.67705 -0.9673211 49.964867 -0.96909648 49.964695 -23.318359 158.92058
15162500000 -22.726732 166.64384 -0.97029197 49.411381 -0.97074771 49.422924 -23.270119 157.43771
15190000000 -22.829937 166.13377 -0.97160041 48.851124 -0.97217965 48.843502 -23.258911 158.0006
15217500000 -22.868132 165.96593 -0.97334713 48.319195 -0.97227746 48.288902 -23.358397 157.3358
15245000000 -22.765478 165.03938 -0.9740445 47.744526 -0.97717947 47.731583 -23.361473 155.32451
15272500000 -22.843596 164.24883 -0.97532457 47.176579 -0.97714609 47.178143 -23.320377 155.90501
15300000000 -22.948153 164.14235 -0.97658235 46.625736 -0.97883636 46.6133 -23.408691 155.69492
15327500000 -22.848398 163.56775 -0.97702873 46.077042 -0.98289651 46.069305 -23.413916 153.76427
15355000000 -22.874577 162.13791 -0.98257029 45.522846 -0.98290986 45.507851 -23.381514 153.72673
15382500000 -23.016563 161.8737 -0.98334092 44.961906 -0.98556268 44.969566 -23.432938 154.17564
15410000000 -22.944208 161.63332 -0.9859193 44.406536 -0.98528886 44.416908 -23.459721 152.31888
15437500000 -22.915009 160.37051 -0.98618829 43.855927 -0.98594272 43.855991 -23.387518 151.30902
15465000000 -23.047531 159.80379 -0.98748332 43.301121 -0.986736 43.297459 -23.446781 152.32202
15492500000 -23.042181 159.48782 -0.98960608 42.776661 -0.98819697 42.750252 -23.539524 150.70642
15520000000 -22.969814 158.57619 -0.98936224 42.193939 -0.99133533 42.19685 -23.440296 149.28618
15547500000 -23.09985 157.5833 -0.98765296 41.643616 -0.98975497 41.642365 -23.536404 150.06589
15575000000 -23.17137 157.40523 -0.98774362 41.07951 -0.98816121 41.099773 -23.640722 148.9355
15602500000 -23.072704 156.66954 -0.99076521 40.554775 -0.99534184 40.541626 -23.575081 146.96967
15630000000 -23.12993 155.54736 -0.99062282 39.983154 -0.99261892 39.975082 -23.546896 147.60814
15657500000 -23.320148 154.97488 -0.99152559 39.434048 -0.99295563 39.430294 -23.70348 147.52274
15685000000 -23.214851 154.96213 -0.99350584 38.875492 -0.99238986 38.887676 -23.685705 145.44562
15712500000 -23.234341 153.36163 -0.99340791 38.344936 -0.99352115 38.320969 -23.665819 145.02127
15740000000 -23.400803 152.89914 -0.99089307 37.779091 -0.99440241 37.77816 -23.830713 145.61542
15767500000 -23.394224 152.6006 -0.99242663 37.214733 -0.99602062 37.211525 -23.826981 143.79338
15795000000 -23.357222 152.00401 -0.99383551 36.653522 -0.99627554 36.663261 -23.788425 142.98911
15822500000 -23.519136 150.42393 -0.99253821 36.114319 -0.99461854 36.105106 -23.930994 143.41812
15850000000 -23.575514 150.24908 -0.9942413 35.532749 -0.99608737 35.551029 -23.934126 142.36598
15877500000 -23.506077 150.1181 -0.99532127 34.966869 -0.99832928 34.996376 -23.971228 141.13609
15905000000 -23.613928 148.80809 -0.99732184 34.435352 -0.99480927 34.429306 -24.022902 141.18333
15932500000 -23.721603 147.86568 -0.99694735 33.893909 -0.99804848 33.88699 -24.147007 140.43741
15960000000 -23.700018 148.26286 -0.99887305 33.327061 -0.99788237 33.325146 -24.069857 139.00266
15987500000 -23.723717 146.90224 -0.99905616 32.760548 -0.99883229 32.766262 -24.136686 138.72441
16015000000 -23.865564 145.776 -0.99684966 32.211491 -0.99998349 32.19825 -24.289835 138.61389
16042500000 -23.878784 145.63683 -1.0002484 31.649122 -1.0006503 31.654703 -24.261951 137.30569
16070000000 -23.883001 144.84668 -1.0001428 31.106339 -1.0008322 31.092241 -24.312946 136.77426
16097500000 -23.950487 143.48296 -0.99953574 30.545774 -1.0009108 30.54213 -24.435801 136.49782
16125000000 -24.049297 143.2256 -1.0010262 29.991405 -1.0011233 29.983175 -24.411034 135.42438
16152500000 -24.061415 143.10886 -1.0015712 29.439352 -1.0022943 29.443478 -24.417139 134.82571
16180000000 -24.119177 141.66405 -1.0002146 28.87455 -1.0018737 28.875929 -24.598452 134.56076
16207500000 -24.223547 140.93378 -1.0010545 28.341103 -1.0025131 28.322462 -24.600245 133.6196
16235000000 -24.26079 140.84218 -0.99977297 27.786276 -1.0042419 27.775021 -24.646803 132.77521
16262500000 -24.292988 139.33586 -0.99945301 27.218302 -1.0011715 27.226439 -24.751177 132.29486
16290000000 -24.393278 138.26735 -0.99935818 26.669292 -1.0011771 26.675688 -24.876476 131.55606
16317500000 -24.478771 138.32228 -1.0041741 26.109705 -1.0047724 26.113974 -24.787531 130.77989
16345000000 -24.503695 137.60226 -1.0023839 25.565775 -1.0052533 25.553148 -24.959455 129.97743
16372500000 -24.559959 136.15205 -1.0030482 25.005489 -1.0039928 24.994936 -25.078081 129.47887
16400000000 -24.659588 135.53201 -1.0032573 24.440163 -1.0052595 24.437691 -25.031374 128.75232
16427500000 -24.738224 135.37228 -1.0024153 23.891373 -1.0043734 23.874241 -25.101665 128.23647
16455000000 -24.763477 134.12898 -1.0039132 23.320347 -1.0045848 23.328953 -25.29563 127.20699
16482500000 -24.841623 133.45227 -1.004715 22.76355 -1.0042667 22.771406 -25.300783 126.48486
16510000000 -25.005692 132.99113 -1.0032479 22.219423 -1.0055163 22.224276 -25.333696 126.08516
16537500000 -24.924057 132.12628 -1.0050879 21.675198 -1.0052109 21.657902 -25.499041 124.68481
16565000000 -25.066957 130.68468 -1.0049675 21.11932 -1.0051188 21.10244 -25.542738 124.45949
16592500000 -25.279974 130.60793 -1.0052915 20.543205 -1.0052958 20.545193 -25.543184 123.79948
16620000000 -25.235121 129.73471 -1.0055805 19.98782 -1.0065544 19.995548 -25.726084 122.66682
16647500000 -25.327181 128.69917 -1.0039474 19.445045 -1.0085546 19.43771 -25.802658 122.1104
16675000000 -25.489061 127.80019 -1.0058204 18.892281 -1.0054477 18.878359 -25.868547 121.82405
16702500000 -25.575569 127.63289 -1.0052948 18.330942 -1.0061468 18.323311 -25.952532 120.65031
16730000000 -25.498363 126.47396 -1.0035188 17.781626 -1.0072995 17.774572 -26.091417 119.45007
16757500000 -25.746881 125.75446 -1.005684 17.21426 -1.0094392 17.213024 -26.131781 119.30598
16785000000 -25.872694 124.84253 -1.0033897 16.672432 -1.0067277 16.659983 -26.197201 118.46157
16812500000 -25.789211 124.9595 -1.0047503 16.109961 -1.0089647 16.104712 -26.311581 117.00105
16840000000 -25.967026 123.01656 -1.0052011 15.563416 -1.0091612 15.546294 -26.35103 117.16239
16867500000 -26.1437 122.23849 -1.005743 15.00491 -1.0069431 15.008231 -26.473726 115.91351
16895000000 -26.06818 122.15067 -1.0072969 14.449578 -1.0078222 14.421876 -26.483418 115.14052
16922500000 -26.234156 121.55568 -1.007184 13.888766 -1.0077748 13.888364 -26.644072 114.79268
16950000000 -26.423414 119.33855 -1.0058889 13.322992 -1.007722 13.339674 -26.826342 114.54262
16977500000 -26.388247 119.4731 -1.0081856 12.778552 -1.0064868 12.765371 -26.803789 112.93899
17005000000 -26.501896 119.35858 -1.0049537 12.2211 -1.0071328 12.204159 -26.772961 111.94575
17032500000 -26.73897 117.42249 -1.0037723 11.6655 -1.0080863 11.642616 -27.039591 112.32404
17060000000 -26.779701 116.92532 -1.0017413 11.106424 -1.0086228 11.102286 -27.005592 110.82479
17087500000 -26.791979 117.3242 -1.0043875 10.567232 -1.008769 10.533773 -27.008091 109.76579
17115000000 -26.930248 115.09742 -1.0063273 9.9781313 -1.0059023 9.9677811 -27.248903 109.59261
17142500000 -27.013945 114.17115 -1.0068167 9.4426355 -1.0083482 9.4279766 -27.294533 108.18625
17170000000 -27.021942 114.43317 -1.0079188 8.8863659 -1.0077941 8.8676872 -27.276014 107.26013
17197500000 -27.246746 112.78317 -1.0063494 8.3206062 -1.0081092 8.3207321 -27.439436 107.21341
17225000000 -27.218363 111.5506 -1.0094584 7.7607112 -1.0089222 7.7789955 -27.582161 105.99348
17252500000 -27.393841 111.82701 -1.0044602 7.2056413 -1.0069885 7.2066941 -27.465277 104.37497
17280000000 -27.575781 110.66635 -1.0051789 6.6547351 -1.008551 6.6401834 -27.665359 104.76712
17307500000 -27.607445 108.36554 -1.0065514 6.0911274 -1.006759 6.0753345 -27.924299 103.65707
17335000000 -27.699833 108.65607 -1.0049992 5.5533524 -1.0076935 5.5387836 -27.735638 101.95964
17362500000 -27.907423 108.44089 -1.0063775 4.9877057 -1.0098073 4.9746509 -27.797197 101.85642
17390000000 -27.919167 105.77209 -1.0074223 4.4282756 -1.0070214 4.4122434 -28.223673 100.7328
17417500000 -27.883253 105.9718 -1.0081879 3.8561177 -1.0083361 3.863847 -28.101645 99.140167
17445000000 -28.166639 104.80183 -1.0076332 3.3012958 -1.0068599 3.3075435 -28.074863 99.209366
17472500000 -28.327211 102.88535 -1.00561 2.7506688 -1.0055281 2.7535427 -28.462236 98.723526
17500000000 -28.25399 102.69592 -1.0050347 2.1932945 -1.0068073 2.2021585 -28.48181 96.52002
17527500000 -28.639891 102.33669 -1.0009534 1.6522828 -1.0077977 1.6482191 -28.222525 96.030243
17555000000 -28.742109 100.31243 -1.003389 1.0854431 -1.0057731 1.0905675 -28.733074 95.877823
17582500000 -28.682732 100.11187 -1.0044129 0.48955238 -1.005931 0.50886065 -28.998652 93.294922
17610000000 -28.869596 98.83136 -1.0066774 -0.028675273 -1.0057216 -0.046345003 -28.727028 93.172523
17637500000 -29.069124 96.913223 -1.0064774 -0.61507171 -1.0042723 -0.58183295 -28.882137 93.368111
17665000000 -28.910315 96.458519 -1.0031985 -1.1617303 -1.0050781 -1.1778023 -29.311831 90.455307
17692500000 -29.135847 95.845535 -1.0073711 -1.708867 -1.005205 -1.7144773 -29.067066 90.578201
17720000000 -29.568733 93.57103 -1.0077403 -2.2606003 -1.00409 -2.2663255 -29.118088 90.374268
17747500000 -29.445896 93.577995 -1.0056583 -2.8344209 -1.0032889 -2.8319814 -29.621611 87.666954
17775000000 -29.523746 92.601387 -1.0037833 -3.3793974 -1.0081986 -3.3837698 -29.524122 86.742798
17802500000 -29.842154 89.674316 -1.004163 -3.9413385 -1.006357 -3.9508095 -29.365393 87.487053
17830000000 -29.913643 89.191422 -1.0049806 -4.4757214 -1.0025568 -4.520071 -30.017067 85.441551
17857500000 -29.929853 89.432365 -1.0038574 -5.0746012 -1.0033638 -5.0672803 -30.038948 82.652817
17885000000 -30.256578 85.967545 -1.0035028 -5.6251211 -1.0054487 -5.6024208 -29.725119 85.070007
17912500000 -30.438942 85.240021 -1.0053812 -6.1765985 -1.0050859 -6.1883082 -30.220795 83.546936
17940000000 -30.518906 85.490204 -1.0046129 -6.7224927 -1.0039359 -6.7279668 -30.351702 79.507942
17967500000 -30.66201 82.358696 -1.0027567 -7.2808714 -1.0063673 -7.2932506 -30.056194 81.539581
17995000000 -30.896992 79.863029 -1.0043678 -7.8433981 -1.0058025 -7.8675079 -30.575972 81.484131
18022500000 -31.100691 81.755951 -1.0023664 -8.4213362 -1.0015708 -8.4266291 -31.048532 76.139847
18050000000 -31.101927 78.665924 -1.0007507 -8.9397688 -1.0051355 -8.9711561 -30.663517 78.156464
18077500000 -31.39887 75.388863 -1.0027179 -9.5169811 -1.0056164 -9.5138378 -30.939981 79.113007
18105000000 -31.590759 76.224495 -1.0009013 -10.075114 -1.0048151 -10.091314 -31.62257 73.320976
18132500000 -31.660839 75.818802 -1.0031062 -10.642948 -1.0049342 -10.653283 -31.258661 72.385231
18160000000 -31.5952 69.853065 -1.0052435 -11.211532 -1.0013368 -11.209707 -31.377195 76.964256
18187500000 -32.211185 70.918396 -0.99824035 -11.752202 -1.0016146 -11.779697 -32.267677 70.539352
18215000000 -32.181217 70.237564 -1.0026402 -12.322938 -1.0020795 -12.336872 -31.865213 68.292107
18242500000 -32.123482 66.828407 -1.0019047 -12.869183 -1.0049362 -12.885038 -31.905001 72.739662
18270000000 -32.583675 63.396 -1.0016516 -13.442812 -1.0029892 -13.457375 -32.74865 68.483124
18297500000 -33.045261 64.320618 -1.0009762 -14.016487 -0.99420685 -14.011076 -32.449226 63.98246
18325000000 -32.634613 61.59613 -1.0034177 -14.551643 -0.99936891 -14.550115 -32.54158 69.041756
18352500000 -32.927048 57.527966 -1.0032413 -15.114872 -1.0033871 -15.123371 -33.31525 65.084785
18380000000 -33.69099 58.12265 -1.0003674 -15.690034 -0.99809963 -15.686713 -33.182098 57.717537
18407500000 -33.425835 56.416389 -0.9998346 -16.242107 -1.001561 -16.241968 -33.23938 63.371971
18435000000 -33.242603 53.003139 -0.99997407 -16.787182 -1.0005522 -16.814079 -34.147415 63.038418
18462500000 -34.166492 49.604477 -0.99693495 -17.359417 -1.001237 -17.355553 -34.204815 52.784546
18490000000 -34.150848 47.546574 -0.99798107 -17.900433 -0.99857622 -17.924221 -33.726196 57.13372
18517500000 -33.893284 47.194973 -1.0013026 -18.468287 -1.0027325 -18.500027 -34.823315 59.345078
18545000000 -34.646626 41.690166 -0.99597728 -19.037903 -0.99748731 -19.062508 -35.00436 46.89925
18572500000 -34.838509 40.735081 -0.99472463 -19.592129 -0.99712056 -19.593401 -34.561481 49.097332
18600000000 -34.482628 40.500298 -1.0013068 -20.160713 -0.99966478 -20.140392 -35.533493 52.81089
18627500000 -34.861347 33.144779 -0.99565756 -20.701963 -0.99591154 -20.736706 -35.98172 43.49654
18655000000 -35.343151 29.592939 -0.99852413 -21.28237 -0.99528354 -21.267019 -35.507164 41.704144
18682500000 -35.118546 32.341335 -0.99861825 -21.83663 -0.99605221 -21.868618 -36.270218 46.767517
18710000000 -35.199776 28.257481 -0.99733913 -22.410576 -0.9954769 -22.418465 -37.301716 38.432526
18737500000 -35.428238 21.824944 -0.99254113 -22.951244 -0.99423641 -22.973713 -36.227726 32.1945
18765000000 -35.569931 21.611506 -0.99599034 -23.516079 -0.9955495 -23.521915 -36.861019 38.515919
18792500000 -35.554829 21.916868 -0.99515688 -24.093884 -0.9984619 -24.108456 -38.310219 30.405243
18820000000 -35.496674 13.211782 -0.99452513 -24.640158 -0.99437571 -24.648439 -37.193375 21.621233
18847500000 -35.944256 11.043709 -0.99653995 -25.190453 -0.99315542 -25.201387 -37.151493 27.213753
18875000000 -36.224815 11.076863 -0.99203366 -25.778589 -0.99434447 -25.777798 -39.101299 22.445496
18902500000 -35.702175 6.1152267 -0.99221975 -26.321877 -0.99163556 -26.347374 -37.782082 12.1362
18930000000 -35.523514 -0.32161719 -0.99269956 -26.863192 -0.99506837 -26.863321 -37.904877 17.777046
18957500000 -35.9729 1.1659958 -0.98925626 -27.446817 -0.99313653 -27.450491 -39.578583 11.502378
18985000000 -35.899315 -0.7643103 -0.99445188 -28.025568 -0.99536461 -28.02552 -38.804367 -0.96472579
19012500000 -35.328899 -7.9444366 -0.98995268 -28.554241 -0.99493754 -28.581306 -38.231766 4.3951902
19040000000 -35.933121 -10.538712 -0.99353772 -29.14537 -0.99312937 -29.143404 -39.751148 -2.0695598
19067500000 -36.137383 -9.9357214 -0.99121857 -29.691919 -0.99231601 -29.730358 -38.948296 -14.47704
19095000000 -35.041588 -14.679658 -0.98995948 -30.260275 -0.99057597 -30.25017 -38.36153 -10.877539
19122500000 -35.412403 -19.840534 -0.99315345 -30.812275 -0.99415118 -30.815607 -39.93174 -9.6616144
19150000000 -35.668236 -18.847464 -0.99277508 -31.365995 -0.9886595 -31.39444 -39.2187 -23.968538
19177500000 -34.822937 -22.888287 -0.98749959 -31.932299 -0.99108589 -31.966644 -38.344852 -23.189335
19205000000 -34.822628 -29.632521 -0.99100459 -32.495033 -0.99139649 -32.508598 -39.451954 -24.388197
19232500000 -35.426582 -30.061125 -0.99119806 -33.065678 -0.99155164 -33.078384 -38.875843 -36.230412
19260000000 -34.820393 -30.153633 -0.98661387 -33.627617 -0.98748851 -33.653873 -37.727692 -35.351063
19287500000 -34.10778 -35.494576 -0.98675585 -34.19651 -0.98769844 -34.190491 -38.853954 -37.932659
19315000000 -34.574886 -39.670372 -0.98869622 -34.751541 -0.98962301 -34.744343 -38.108131 -44.239124
19342500000 -34.738934 -37.926819 -0.9886055 -35.321548 -0.98613369 -35.329449 -37.369423 -46.825768
19370000000 -33.550915 -42.311821 -0.98802048 -35.876293 -0.98912072 -35.879829 -37.949524 -46.147125
19397500000 -33.72242 -47.156811 -0.98796362 -36.433743 -0.98867315 -36.445709 -37.810726 -52.757355
19425000000 -34.179817 -46.297676 -0.9875015 -37.007881 -0.98641115 -37.011448 -36.821915 -54.36203
19452500000 -33.432629 -47.245636 -0.98474878 -37.557522 -0.98613954 -37.587826 -37.015781 -55.23835
19480000000 -33.001495 -50.564907 -0.985753 -38.112869 -0.99047065 -38.141052 -37.37735 -59.828537
19507500000 -33.570415 -53.90398 -0.98536259 -38.676338 -0.98799384 -38.717674 -36.043739 -63.769707
19535000000 -33.109676 -52.604641 -0.98541522 -39.264591 -0.986377 -39.261211 -36.117134 -64.521393
19562500000 -32.443901 -55.54668 -0.98569715 -39.799496 -0.98502159 -39.817245 -36.460751 -69.052002
19590000000 -32.748817 -61.40461 -0.98484427 -40.386341 -0.98505765 -40.403683 -35.612579 -70.35363
19617500000 -32.556492 -59.175415 -0.98289424 -40.958965 -0.98234504 -40.957901 -35.559883 -71.279213
19645000000 -31.966848 -60.72086 -0.98289651 -41.520393 -0.98853046 -41.546574 -35.569168 -74.582863
19672500000 -31.924183 -65.611824 -0.98440945 -42.080128 -0.98348898 -42.085373 -35.039528 -75.314095
19700000000 -32.224937 -67.092743 -0.98209321 -42.666557 -0.98314875 -42.658905 -34.718369 -77.759613
19727500000 -31.714859 -65.287498 -0.98655021 -43.203621 -0.98461437 -43.233337 -34.641476 -80.81517
19755000000 -31.402292 -68.818619 -0.98485011 -43.776405 -0.98279041 -43.796497 -34.252434 -81.615852
19782500000 -31.562868 -72.32914 -0.98131728 -44.351585 -0.98302054 -44.348808 -33.913025 -82.146667
19810000000 -31.257154 -70.331261 -0.98477411 -44.919903 -0.98389417 -44.913597 -33.985806 -84.555862
19837500000 -30.829168 -71.695892 -0.98233241 -45.473728 -0.9844718 -45.475262 -33.78117 -86.414253
19865000000 -30.943602 -75.780251 -0.98115569 -46.046272 -0.98417211 -46.040493 -33.35033 -87.181145
19892500000 -30.845142 -75.309433 -0.98292279 -46.584297 -0.98097366 -46.624912 -33.20528 -90.049896
19920000000 -30.317039 -75.012802 -0.9835555 -47.155678 -0.98531419 -47.208103 -33.088505 -91.287895
19947500000 -30.223417 -79.449776 -0.98527688 -47.734619 -0.98502547 -47.736576 -32.883537 -91.14518
19975000000 -30.169437 -81.764381 -0.98654562 -48.308475 -0.98468125 -48.320435 -32.445568 -94.256775
20002500000 -30.057045 -78.662598 -0.9841786 -48.856182 -0.98805135 -48.900841 -32.375969 -96.338066
20030000000 -29.763258 -82.24894 -0.98237818 -49.435314 -0.98901635 -49.429642 -32.21616 -94.723686
20057500000 -29.594057 -85.272018 -0.98268718 -50.005196 -0.98711127 -49.997498 -31.923254 -97.678497
20085000000 -29.451952 -84.050484 -0.98902225 -50.576805 -0.9897911 -50.575153 -31.489254 -98.997765
20112500000 -29.329067 -85.460693 -0.98978782 -51.106319 -0.9891786 -51.138676 -31.600126 -98.486649
20140000000 -28.949734 -89.07299 -0.98826915 -51.683468 -0.99013829 -51.712349 -31.429407 -100.22319
20167500000 -29.016191 -88.689346 -0.99005312 -52.237991 -0.987239 -52.269878 -30.833729 -103.57336
20195000000 -28.786846 -88.531586 -0.9865635 -52.837357 -0.98895854 -52.835064 -30.912001 -103.15412
20222500000 -28.43112 -91.634949 -0.99035549 -53.411308 -0.98970461 -53.385559 -31.030672 -105.15942
20250000000 -28.434004 -92.383934 -0.98734426 -53.95512 -0.98608041 -53.970829 -30.293617 -107.34244
20277500000 -28.363487 -91.965668 -0.98725748 -54.511963 -0.98951733 -54.531311 -30.29393 -106.35352
20305000000 -28.006369 -94.262505 -0.9879604 -55.077732 -0.99155617 -55.085747 -30.427998 -107.73281
20332500000 -27.888527 -95.383812 -0.98539704 -55.641563 -0.98684001 -55.665733 -29.835516 -110.2636
20360000000 -27.980816 -96.566795 -0.98992342 -56.224731 -0.98893642 -56.24044 -29.516264 -110.51793
20387500000 -27.580408 -97.304955 -0.9887417 -56.757553 -0.99258995 -56.785854 -29.90659 -110.87264
20415000000 -27.345749 -98.808105 -0.98925954 -57.339821 -0.99316776 -57.35424 -29.460604 -113.76932
20442500000 -27.461096 -99.758087 -0.98768413 -57.920967 -0.9917562 -57.942326 -28.917913 -114.6456
20470000000 -27.342508 -101.02362 -0.99252552 -58.483864 -0.99085402 -58.50671 -29.366766 -114.54282
20497500000 -26.880981 -101.60348 -0.99177444 -59.034119 -0.9924351 -59.05323 -29.029331 -118.08893
20525000000 -27.101404 -102.95399 -0.99380618 -59.625156 -0.99132365 -59.631519 -28.414461 -117.91216
20552500000 -26.899366 -104.15714 -0.99138868 -60.179344 -0.99636769 -60.18821 -28.732592 -117.89505
20580000000 -26.470259 -104.51233 -0.99494112 -60.727123 -0.99296635 -60.764511 -28.592585 -120.73341
20607500000 -26.524603 -105.44508 -0.99381238 -61.324036 -0.99514192 -61.332436 -27.95582 -120.78893
20635000000 -26.523233 -107.2018 -0.99104947 -61.87196 -0.9953568 -61.899403 -28.046288 -120.69228
20662500000 -26.130186 -107.48406 -0.9941684 -62.450279 -0.99649596 -62.450806 -28.07259 -123.48571
20690000000 -26.161112 -108.58476 -0.99700564 -63.007771 -0.99462306 -63.010532 -27.519598 -123.87408
20717500000 -26.12817 -110.24731 -0.9971717 -63.573647 -0.99603069 -63.575211 -27.472855 -123.43667
20745000000 -25.752829 -110.6468 -0.99847001 -64.150276 -0.99874794 -64.155159 -27.718187 -125.63237
20772500000 -25.67734 -111.04025 -1.0003713 -64.696312 -0.99952859 -64.714996 -27.065485 -127.35374
20800000000 -25.689238 -112.97359 -1.0037582 -65.264122 -1.0003899 -65.268593 -26.819084 -126.19037
20827500000 -25.285728 -114.33296 -1.0024508 -65.812157 -1.0033046 -65.82579 -27.152821 -128.29774
20855000000 -25.241087 -114.64657 -1.0019008 -66.390236 -1.0031763 -66.374527 -26.67123 -130.28009
20882500000 -25.286591 -116.08035 -1.0005525 -66.938721 -1.0032423 -66.947578 -26.264812 -129.14862
20910000000 -24.904783 -117.13357 -0.9987222 -67.474419 -1.0004678 -67.495674 -26.506826 -130.89865
20937500000 -24.863518 -118.19391 -1.004411 -68.041161 -1.0005323 -68.064499 -26.26841 -133.45425
20965000000 -24.963434 -118.98071 -0.9969486 -68.638939 -1.0005708 -68.623833 -25.874521 -132.91501
20992500000 -24.628883 -120.11292 -0.99756545 -69.190804 -0.99725181 -69.185135 -25.979837 -133.83417
21020000000 -24.565506 -120.8514 -0.9998365 -69.744606 -0.99848825 -69.757057 -26.046106 -136.18399
21047500000 -24.734055 -122.17867 -0.99627167 -70.337837 -0.99964428 -70.327026 -25.589672 -136.20616
21075000000 -24.458834 -123.06069 -0.99433929 -70.871048 -0.99891508 -70.916313 -25.652864 -136.23723
21102500000 -24.218294 -123.56068 -0.99878311 -71.456795 -0.99829119 -71.488091 -25.706436 -138.90096
21130000000 -24.427559 -125.15517 -0.99828142 -72.044395 -1.0012491 -72.041245 -25.384201 -139.39262
21157500000 -24.299616 -125.8466 -0.99613327 -72.595161 -1.0003902 -72.601967 -25.22193 -138.87259
21185000000 -23.944826 -125.79794 -1.0016764 -73.142784 -0.99780095 -73.161926 -25.399839 -140.49149
21212500000 -24.086222 -127.69382 -0.9976511 -73.751633 -1.0008142 -73.736824 -25.063013 -142.50912
21240000000 -24.098507 -128.79378 -0.99866682 -74.312401 -1.0021062 -74.33638 -24.788445 -141.38766
21267500000 -23.700724 -128.57785 -0.99765956 -74.857483 -1.0000578 -74.885376 -25.103338 -142.42941
21295000000 -23.730005 -129.77962 -1.0036597 -75.436691 -1.0013515 -75.460464 -24.795019 -144.30736
21322500000 -23.904993 -131.41263 -1.0017241 -76.04113 -1.0053848 -76.041214 -24.577333 -143.6183
21350000000 -23.48427 -130.80548 -0.99876356 -76.566925 -1.0029576 -76.61718 -24.736336 -144.52353
21377500000 -23.350708 -131.71974 -1.0044073 -77.148529 -1.0035936 -77.188858 -24.574057 -146.16438
21405000000 -23.593637 -134.03073 -1.0030365 -77.726257 -1.0091952 -77.758179 -24.247559 -145.97945
21432500000 -23.366594 -133.33057 -1.0060655 -78.291832 -1.0047144 -78.292908 -24.381933 -146.36086
21460000000 -23.094229 -133.56316 -1.0056523 -78.853317 -1.0061663 -78.873421 -24.361444 -147.58183
21487500000 -23.243353 -136.50415 -1.0119563 -79.457664 -1.00929 -79.445015 -24.017281 -148.19565
21515000000 -23.23543 -136.19104 -1.0091404 -79.989113 -1.0145983 -79.989212 -24.031946 -148.38229
21542500000 -22.832954 -135.45753 -1.0134628 -80.554298 -1.0135962 -80.554024 -24.096668 -149.71085
21570000000 -22.952335 -138.63048 -1.0160447 -81.104942 -1.0207967 -81.122597 -23.707874 -150.48856
21597500000 -23.038029 -139.47058 -1.0175738 -81.67041 -1.0195653 -81.688622 -23.624544 -150.07762
21625000000 -22.626215 -137.81084 -1.0119344 -82.223549 -1.0149239 -82.232803 -23.842335 -152.06758
21652500000 -22.565453 -140.12791 -1.0152918 -82.793732 -1.0185113 -82.791763 -23.451649 -152.87511
21680000000 -22.760424 -142.92203 -1.0170244 -83.368561 -1.0211208 -83.37265 -23.352894 -152.45676
21707500000 -22.53883 -140.64284 -1.0135118 -83.882851 -1.0162442 -83.92173 -23.502766 -154.23143
21735000000 -22.374889 -141.94167 -1.0158409 -84.470039 -1.0169548 -84.468086 -23.293589 -155.33197
21762500000 -22.487017 -145.35811 -1.0161684 -85.058937 -1.0170666 -85.045883 -23.110498 -155.4093
21790000000 -22.505081 -144.21506 -1.01662 -85.589699 -1.0178002 -85.615341 -23.257273 -156.65088
21817500000 -22.25819 -143.47054 -1.0124047 -86.160484 -1.0170804 -86.150314 -23.149006 -157.46423
21845000000 -22.224356 -147.47554 -1.0130764 -86.740852 -1.0192845 -86.762177 -22.8057 -158.14627
21872500000 -22.352907 -147.6815 -1.0175198 -87.311615 -1.0169908 -87.326668 -22.937656 -158.10959
21900000000 -22.136789 -145.77872 -1.0141653 -87.858559 -1.0158684 -87.869118 -23.021744 -159.95825
21927500000 -21.980988 -148.60603 -1.0178362 -88.443748 -1.01943 -88.462715 -22.649857 -160.25429
21955000000 -22.119211 -150.5787 -1.0223032 -89.040733 -1.0224099 -89.030525 -22.692059 -160.76401
21982500000 -22.116039 -148.05127 -1.016409 -89.571228 -1.0188504 -89.583961 -22.848936 -162.07315
22010000000 -21.840788 -149.90681 -1.018011 -90.128906 -1.0213828 -90.157593 -22.520304 -162.16574
22037500000 -21.849625 -152.90405 -1.0234479 -90.740822 -1.0240809 -90.75901 -22.422342 -162.68338
22065000000 -22.042654 -151.05965 -1.0197827 -91.261604 -1.0213577 -91.279243 -22.622988 -164.05107
22092500000 -21.746035 -151.39685 -1.0200393 -91.838028 -1.0212266 -91.863266 -22.401682 -164.01265
22120000000 -21.59391 -154.51599 -1.0273749 -92.460152 -1.0282187 -92.450447 -22.230309 -163.98073
22147500000 -21.829199 -154.10126 -1.0238584 -92.993294 -1.0257872 -93.001862 -22.373482 -166.21365
22175000000 -21.748146 -153.04021 -1.0245026 -93.53212 -1.0272191 -93.560059 -22.308151 -166.63127
22202500000 -21.34907 -156.00688 -1.028909 -94.158501 -1.030647 -94.15107 -21.999067 -166.40852
22230000000 -21.581774 -157.09306 -1.0311255 -94.687149 -1.0302647 -94.706833 -22.115559 -167.96777
22257500000 -21.641201 -155.50729 -1.0329893 -95.254051 -1.0328084 -95.239883 -22.147448 -168.99696
22285000000 -21.248865 -157.15329 -1.0302502 -95.833961 -1.0340803 -95.840904 -21.83893 -168.41869
22312500000 -21.216055 -159.48215 -1.0380797 -96.403038 -1.0377345 -96.406502 -21.867773 -169.41867
22340000000 -21.5667 -158.02975 -1.0356134 -96.947197 -1.0366844 -96.97538 -21.953716 -171.33873
22367500000 -21.193689 -158.91542 -1.0394617 -97.527893 -1.0419506 -97.512199 -21.698757 -170.59743
22395000000 -20.968605 -161.21767 -1.0412251 -98.098381 -1.0402536 -98.117195 -21.6077 -171.27917
22422500000 -21.304686 -161.21649 -1.0414932 -98.627991 -1.0411159 -98.645164 -21.76136 -174.04364
22450000000 -21.19401 -160.5394 -1.0428329 -99.203796 -1.0437133 -99.219376 -21.541777 -172.89041
22477500000 -20.754797 -162.8465 -1.0464743 -99.809921 -1.0481325 -99.816666 -21.426111 -173.29794
22505000000 -21.064377 -163.85622 -1.047748 -100.34451 -1.0445294 -100.34379 -21.508972 -176.20802
22532500000 -21.149548 -163.27594 -1.0480696 -100.8956 -1.0486832 -100.90193 -21.363304 -175.31506
22560000000 -20.664133 -164.29395 -1.0491769 -101.48643 -1.0521855 -101.49288 -21.312645 -175.29303
22587500000 -20.742945 -166.19843 -1.0492918 -102.04304 -1.050742 -102.05107 -21.234497 -177.83757
22615000000 -21.014231 -165.85873 -1.0522287 -102.56962 -1.0512146 -102.57745 -21.277969 -178.20189
22642500000 -20.57132 -166.2364 -1.0508436 -103.16432 -1.0518152 -103.17583 -21.112429 -177.36694
22670000000 -20.429541 -167.87733 -1.0543646 -103.73801 -1.0600553 -103.73616 -21.071215 -179.60635
22697500000 -20.788307 -168.80357 -1.0563033 -104.27489 -1.0574375 -104.30375 -21.035675 178.89331
22725000000 -20.589733 -168.55962 -1.0579058 -104.86774 -1.0586829 -104.86864 -20.974226 -179.79524
22752500000 -20.223083 -169.27402 -1.0573859 -105.45449 -1.0619636 -105.44452 -20.942881 178.96016
22780000000 -20.507326 -171.21364 -1.0593793 -105.98121 -1.0609975 -105.9884 -20.864361 176.95818
22807500000 -20.525343 -171.02232 -1.0613911 -106.54182 -1.0625954 -106.5516 -20.835957 177.80229
22835000000 -20.085545 -170.58423 -1.0678248 -107.13723 -1.0700577 -107.1441 -20.8384 177.16521
22862500000 -20.224022 -172.82845 -1.0672413 -107.68241 -1.0695816 -107.67648 -20.629736 174.77219
22890000000 -20.343639 -173.98747 -1.0696558 -108.22033 -1.0718174 -108.23156 -20.592518 175.56468
22917500000 -20.025784 -172.84697 -1.0691849 -108.81008 -1.0707338 -108.82468 -20.673874 175.62141
22945000000 -19.967762 -174.53415 -1.0715384 -109.37582 -1.0738097 -109.35181 -20.449284 172.82454
22972500000 -20.154102 -176.54161 -1.0747021 -109.88823 -1.0772356 -109.93735 -20.453953 172.84962
23000000000 -19.965633 -175.14426 -1.0750897 -110.48957 -1.0764219 -110.53029 -20.550741 173.21756
23027500000 -19.868689 -176.17004 -1.0737282 -111.05553 -1.0763104 -111.06203 -20.365519 171.61456
23055000000 -19.963472 -179.14963 -1.0763357 -111.61759 -1.0796074 -111.62109 -20.284582 170.01988
23082500000 -19.872766 -178.25229 -1.0865935 -112.16534 -1.0835317 -112.19648 -20.350775 171.14525
23110000000 -19.667736 -177.75311 -1.0855175 -112.7446 -1.0841849 -112.76591 -20.251867 169.76408
23137500000 -19.721701 179.0638 -1.087309 -113.30756 -1.0848472 -113.30103 -20.068655 168.41534
23165000000 -19.74338 178.98108 -1.0861101 -113.88338 -1.0901215 -113.86612 -20.2034 169.14908
23192500000 -19.546431 -179.70457 -1.0883728 -114.42657 -1.090589 -114.44526 -20.169231 167.65015
23220000000 -19.544458 177.81126 -1.088421 -115.00269 -1.0898488 -115.00661 -19.828587 166.28322
23247500000 -19.556955 176.19629 -1.0937996 -115.57664 -1.0933924 -115.56008 -19.969248 167.08672
23275000000 -19.426119 177.72876 -1.0929092 -116.12829 -1.0978612 -116.13066 -20.043934 165.82195
23302500000 -19.401373 176.2939 -1.1025283 -116.67442 -1.0953627 -116.67583 -19.64563 164.65598
23330000000 -19.342443 173.82455 -1.1037351 -117.21095 -1.1024543 -117.24267 -19.78484 164.42873
23357500000 -19.283237 175.30426 -1.1043322 -117.82368 -1.1031951 -117.81618 -19.889324 163.96552
23385000000 -19.252586 174.61864 -1.102819 -118.35085 -1.1029708 -118.34805 -19.601862 162.4417
23412500000 -19.150129 171.83766 -1.1100571 -118.89701 -1.1045299 -118.94116 -19.513823 162.07974
23440000000 -19.131172 172.17133 -1.1087865 -119.45872 -1.1076448 -119.50842 -19.705553 161.87498
23467500000 -19.166147 172.64143 -1.1128623 -120.0251 -1.1116925 -120.06436 -19.52224 160.81245
23495000000 -19.016567 169.86076 -1.1169876 -120.57446 -1.1116768 -120.61106 -19.335615 160.04961
23522500000 -18.95113 169.83957 -1.1184335 -121.16743 -1.1175611 -121.17027 -19.580835 160.13797
23550000000 -19.029266 170.25807 -1.1145983 -121.73525 -1.1187078 -121.73725 -19.404236 158.01103
23577500000 -18.89397 168.42804 -1.119586 -122.25739 -1.1203529 -122.2567 -19.109686 158.44652
23605000000 -18.786116 167.13351 -1.1200838 -122.844 -1.1247481 -122.81974 -19.410881 158.12907
23632500000 -18.879324 167.86253 -1.1228318 -123.4176 -1.1275562 -123.40762 -19.345434 156.0065
23660000000 -18.804037 165.83682 -1.1294682 -123.93233 -1.1287832 -123.93187 -18.998674 156.46489
23687500000 -18.627613 164.85715 -1.1254649 -124.51237 -1.1320008 -124.51781 -19.161076 156.07991
23715000000 -18.732283 165.084 -1.1297972 -125.05511 -1.1321836 -125.08471 -19.226921 154.36676
23742500000 -18.712545 163.7164 -1.1349853 -125.58347 -1.1308231 -125.60213 -18.925047 154.39577
23770000000 -18.54323 162.43913 -1.1335807 -126.14715 -1.1348609 -126.17361 -18.953239 154.50285
23797500000 -18.524057 162.62369 -1.134801 -126.71972 -1.1374346 -126.72967 -19.101774 152.588
23825000000 -18.607695 161.63675 -1.1370196 -127.28561 -1.1381822 -127.29339 -18.828047 152.089
23852500000 -18.413286 160.1017 -1.1418982 -127.81609 -1.1380509 -127.82864 -18.760239 152.62709
23880000000 -18.451441 160.2683 -1.1394795 -128.38556 -1.142184 -128.42213 -19.019939 151.41377
23907500000 -18.497519 159.05954 -1.1392853 -128.95654 -1.1446347 -128.96274 -18.737322 149.82428
23935000000 -18.405651 157.5276 -1.1459975 -129.50021 -1.1529843 -129.48866 -18.647831 150.828
23962500000 -18.31148 157.86203 -1.1445519 -130.05391 -1.1466068 -130.07729 -18.939484 149.32103
23990000000 -18.377045 157.2126 -1.146921 -130.59468 -1.1482912 -130.60356 -18.651451 147.86728
24017500000 -18.300478 155.20229 -1.1506658 -131.16391 -1.1513555 -131.16417 -18.545719 148.84637
24045000000 -18.268227 155.48343 -1.1518198 -131.72897 -1.1523989 -131.71046 -18.772038 147.69908
24072500000 -18.306026 155.35199 -1.1534129 -132.29118 -1.1543263 -132.29796 -18.576103 146.04298
24100000000 -18.219696 153.08365 -1.1575395 -132.81348 -1.1581703 -132.84273 -18.401035 146.47653
24127500000 -18.163931 152.8736 -1.1583053 -133.36133 -1.1620452 -133.4005 -18.581987 146.25639
24155000000 -18.227339 153.14595 -1.1566519 -133.93248 -1.1596574 -133.93767 -18.506668 144.25792
24182500000 -18.14835 151.09468 -1.1599847 -134.49161 -1.1619905 -134.49973 -18.255695 144.32141
24210000000 -18.077816 150.41426 -1.1631553 -135.0329 -1.1664343 -135.04765 -18.424698 144.78288
24237500000 -18.152548 151.09355 -1.1624428 -135.59361 -1.161499 -135.60863 -18.481047 142.39255
24265000000 -18.068937 149.26979 -1.1645371 -136.10854 -1.1649013 -136.15981 -18.163519 141.78563
24292500000 -17.981071 148.09511 -1.1668534 -136.69368 -1.1672843 -136.71886 -18.240768 142.7959
24320000000 -18.089376 148.55588 -1.1662798 -137.23746 -1.1670127 -137.26466 -18.418039 141.14908
24347500000 -18.03764 147.45282 -1.1677408 -137.81377 -1.1697919 -137.79784 -18.081715 139.81828
24375000000 -17.89135 145.7706 -1.1721356 -138.33345 -1.1715328 -138.40379 -18.128017 140.8678
24402500000 -18.00239 145.97554 -1.166826 -138.93089 -1.1710029 -138.91614 -18.369081 139.3815
24430000000 -18.019773 145.43597 -1.1731399 -139.46593 -1.173359 -139.47081 -18.027637 138.01324
24457500000 -17.821962 143.91943 -1.1750985 -140.02274 -1.176008 -140.02196 -17.95348 138.46648
24485000000 -17.889433 143.36194 -1.1729605 -140.58286 -1.1736572 -140.57613 -18.208277 137.78253
24512500000 -17.996017 143.50507 -1.1787244 -141.10249 -1.1751515 -141.13573 -18.02256 135.96587
24540000000 -17.728769 141.90144 -1.1773969 -141.69455 -1.1791873 -141.6989 -17.803383 136.1964
24567500000 -17.77282 141.04686 -1.1796889 -142.21371 -1.1786959 -142.23282 -18.116711 136.06001
24595000000 -17.961969 141.03705 -1.1809957 -142.78175 -1.1820189 -142.79956 -17.963215 134.23891
24622500000 -17.755024 139.96846 -1.183513 -143.33269 -1.1830875 -143.34601 -17.664242 134.00015
24650000000 -17.60866 138.97765 -1.1821127 -143.8947 -1.1829916 -143.93817 -17.941042 133.89645
24677500000 -17.872662 138.35786 -1.180118 -144.45102 -1.1830851 -144.44284 -17.976713 132.45503
24705000000 -17.780451 137.87944 -1.1883383 -144.98288 -1.1835274 -145.0146 -17.612392 131.9014
24732500000 -17.566147 136.9566 -1.1875579 -145.56001 -1.1868373 -145.55786 -17.75561 132.23004
24760000000 -17.765663 135.97179 -1.1818395 -146.12155 -1.1872045 -146.12289 -17.949102 130.47166
24787500000 -17.816648 135.48227 -1.1887388 -146.64012 -1.1853441 -146.65919 -17.589855 129.90829
24815000000 -17.48863 135.09851 -1.1868731 -147.23405 -1.1898339 -147.22916 -17.651232 130.06358
24842500000 -17.626984 133.85918 -1.1809092 -147.77425 -1.1883383 -147.75072 -17.914503 128.56573
24870000000 -17.770891 132.90448 -1.1870826 -148.31013 -1.1916959 -148.31483 -17.6196 128.13614
24897500000 -17.557785 133.11346 -1.1896719 -148.89824 -1.1928966 -148.87277 -17.503618 128.04002
24925000000 -17.477968 132.07967 -1.1900198 -149.41321 -1.1905792 -149.44298 -17.811954 126.51524
24952500000 -17.696245 130.49292 -1.1888835 -149.98132 -1.1918192 -149.98174 -17.63238 126.0343
24980000000 -17.614559 130.86267 -1.1941324 -150.55321 -1.1956592 -150.54802 -17.392139 126.18631
25007500000 -17.373354 130.25746 -1.1954154 -151.08983 -1.1934735 -151.13925 -17.669891 124.85963
25035000000 -17.569735 128.34464 -1.193419 -151.62297 -1.1957358 -151.67586 -17.62937 123.67278
25062500000 -17.623144 128.19835 -1.2058176 -152.18237 -1.1984397 -152.19026 -17.34173 124.2203
25090000000 -17.401188 128.43169 -1.1945059 -152.7433 -1.1981658 -152.77139 -17.551733 123.16595
25117500000 -17.461023 126.01801 -1.1970301 -153.33183 -1.1923556 -153.29492 -17.62241 121.38721
25145000000 -17.547842 125.52248 -1.1972681 -153.85675 -1.1983739 -153.87263 -17.349257 122.30733
25172500000 -17.38826 126.30305 -1.2012627 -154.41112 -1.1983629 -154.42297 -17.375822 121.5202
25200000000 -17.318092 124.66952 -1.2026945 -154.95432 -1.1983083 -154.9778 -17.566166 119.44319
25227500000 -17.478886 122.80592 -1.2051872 -155.55811 -1.2040182 -155.52756 -17.354677 120.04575
25255000000 -17.440161 124.00385 -1.205209 -156.07388 -1.2023917 -156.10312 -17.300091 119.66808
25282500000 -17.240215 122.71682 -1.2020817 -156.65625 -1.2029124 -156.61813 -17.464165 117.55142
25310000000 -17.358383 120.45253 -1.2010396 -157.20421 -1.2054811 -157.2009 -17.351467 117.89251
25337500000 -17.382988 121.10648 -1.2105401 -157.73798 -1.2067937 -157.75638 -17.239569 118.02231
25365000000 -17.24958 121.02267 -1.2109567 -158.26691 -1.2107046 -158.29321 -17.360567 115.90257
25392500000 -17.235977 118.38638 -1.202828 -158.82617 -1.2034752 -158.84569 -17.358784 115.64899
25420000000 -17.377096 118.38837 -1.2138033 -159.40807 -1.2075316 -159.435 -17.218506 116.08001
25447500000 -17.315098 119.09885 -1.2086276 -159.97765 -1.2115517 -159.95567 -17.28215 114.68284
25475000000 -17.154102 116.72815 -1.2057427 -160.52426 -1.2049532 -160.49858 -17.341125 112.91797
25502500000 -17.244238 115.66434 -1.2130102 -161.03554 -1.2135999 -161.07159 -17.17868 113.95506
25530000000 -17.336071 116.82346 -1.2138697 -161.63976 -1.210708 -161.62402 -17.251976 112.86449
25557500000 -17.128746 115.2413 -1.2067115 -162.19073 -1.2117761 -162.18213 -17.312016 110.95938
25585000000 -17.128613 113.50274 -1.2147605 -162.73224 -1.2123952 -162.73933 -17.223974 111.77681
25612500000 -17.328176 113.92177 -1.2119281 -163.25014 -1.2169189 -163.28342 -17.14798 111.203
25640000000 -17.111528 113.58439 -1.2180654 -163.82507 -1.2111514 -163.82782 -17.176928 109.12332
25667500000 -17.052082 111.38134 -1.2193506 -164.40628 -1.2117919 -164.41756 -17.166618 109.45983
25695000000 -17.20039 111.10385 -1.2170621 -164.97212 -1.2211522 -164.9467 -17.172483 109.29678
25722500000 -17.203363 111.51868 -1.218769 -165.49477 -1.214587 -165.47319 -17.112206 107.30496
25750000000 -16.966364 109.88508 -1.2143918 -166.04744 -1.2168902 -166.05203 -17.160492 107.06783
25777500000 -17.135941 108.60505 -1.2162338 -166.6535 -1.2162766 -166.61366 -17.133932 107.19333
25805000000 -17.232454 109.02521 -1.2195168 -167.16597 -1.2255869 -167.16096 -17.09519 106.16784
25832500000 -17.02416 108.02126 -1.2260528 -167.69756 -1.2205257 -167.71486 -17.161371 104.46539
25860000000 -16.992161 106.33709 -1.2219602 -168.24968 -1.2296795 -168.26556 -17.106842 105.22598
25887500000 -17.232349 106.3952 -1.2276765 -168.84947 -1.2272977 -168.82443 -17.103296 104.11804
25915000000 -17.054783 106.12639 -1.223173 -169.36343 -1.2319329 -169.34074 -17.000792 102.30613
25942500000 -16.881124 104.50637 -1.2243516 -169.89005 -1.2296344 -169.89984 -17.057177 102.85085
25970000000 -17.09845 103.68705 -1.2306966 -170.55231 -1.2282318 -170.47807 -17.047953 102.51543
25997500000 -17.122034 103.92706 -1.2261931 -170.99709 -1.2225003 -170.96553 -17.006014 100.75738
26025000000 -16.89057 102.62939 -1.2287406 -171.55493 -1.2250003 -171.56729 -17.0767 100.54763
26052500000 -16.992701 101.54131 -1.2288436 -172.11778 -1.2293808 -172.12241 -17.080378 100.47398
26080000000 -17.125275 101.30412 -1.231299 -172.66171 -1.2360256 -172.66931 -16.964037 98.649643
26107500000 -16.933577 100.98286 -1.2314726 -173.20804 -1.2293578 -173.181 -16.99073 98.07666
26135000000 -16.87734 99.437851 -1.2346151 -173.75652 -1.2335771 -173.80635 -17.01717 98.415115
26162500000 -17.087181 99.072571 -1.235602 -174.33423 -1.2330396 -174.30353 -16.952152 97.23658
26190000000 -16.987652 98.814514 -1.2353233 -174.84233 -1.2278407 -174.85187 -16.914127 95.88002
26217500000 -16.781687 97.52108 -1.2276061 -175.36523 -1.2344131 -175.40466 -17.047363 96.047905
26245000000 -17.011723 96.318527 -1.236562 -175.9711 -1.2398608 -176.00153 -16.992256 95.323433
26272500000 -17.023472 96.305496 -1.2328601 -176.52336 -1.2341287 -176.51381 -16.860346 94.116104
26300000000 -16.834789 95.829323 -1.2304708 -177.03654 -1.2364093 -177.05917 -16.894894 93.748207
26327500000 -16.89064 94.366699 -1.2287577 -177.6449 -1.2377595 -177.64473 -17.006607 93.416862
26355000000 -17.036648 93.797852 -1.2339251 -178.1832 -1.2363074 -178.19188 -16.890923 92.017952
26382500000 -16.826691 93.466255 -1.2362258 -178.70039 -1.2363462 -178.70137 -16.95129 91.743271
26410000000 -16.804211 92.372849 -1.2330066 -179.27647 -1.2327394 -179.2729 -16.979048 91.46888
26437500000 -16.991417 91.147507 -1.2410631 -179.8439 -1.2339464 -179.83661 -16.893391 90.553856
26465000000 -16.883326 91.389961 -1.234354 179.61966 -1.2381408 179.63554 -16.953836 89.520111
26492500000 -16.781044 90.66291 -1.2391003 179.00461 -1.2370428 179.08647 -17.002174 88.925919
26520000000 -16.863461 89.449196 -1.242982 178.57027 -1.2422904 178.52338 -16.926817 88.62883
26547500000 -16.955433 88.455299 -1.240955 177.95435 -1.2269268 177.96529 -16.800404 87.245621
26575000000 -16.785721 89.248047 -1.248261 177.47562 -1.2383102 177.40604 -16.801718 87.679512
26602500000 -16.845823 86.654442 -1.2485867 176.82764 -1.2341311 176.92329 -17.022572 86.598747
26630000000 -16.943695 86.000969 -1.2360166 176.30867 -1.2374163 176.28802 -16.872293 85.662392
26657500000 -16.885521 86.201233 -1.2318081 175.71111 -1.2540715 175.7663 -16.891544 85.324104
26685000000 -16.836069 85.654144 -1.2463284 175.19919 -1.2374001 175.16603 -16.995502 84.495789
26712500000 -16.950859 83.061638 -1.248311 174.65544 -1.2289741 174.64136 -16.713951 83.936424
26740000000 -16.967865 84.041664 -1.2427818 174.10814 -1.239337 174.1713 -16.851713 83.620667
26767500000 -16.828535 82.771248 -1.2324964 173.59138 -1.2416182 173.53407 -16.949207 82.075386
26795000000 -16.828465 81.862579 -1.2348741 173.02321 -1.247159 173.00899 -16.847233 81.93615
26822500000 -16.836374 81.283966 -1.245399 172.41266 -1.2410691 172.51419 -16.810095 81.039482
26850000000 -16.908106 81.827583 -1.2490381 171.89977 -1.2431736 171.93185 -16.885073 80.739059
26877500000 -16.722801 79.501862 -1.2401514 171.3248 -1.2488286 171.36807 -16.914034 79.184265
26905000000 -16.737753 79.466827 -1.2369375 170.80383 -1.245291 170.79802 -16.75621 78.912453
26932500000 -16.741659 78.925545 -1.2486185 170.26389 -1.2476217 170.2317 -16.855503 79.083778
26960000000 -16.782776 77.331406 -1.2372831 169.77663 -1.2406939 169.65547 -16.923508 78.078873
26987500000 -16.843695 76.332756 -1.2439444 169.11249 -1.2450073 169.16313 -16.821587 77.619919
27015000000 -16.882208 76.451973 -1.244033 168.63177 -1.2515471 168.63263 -16.936247 77.186821
27042500000 -16.867775 75.617424 -1.2296351 168.12578 -1.2436266 167.99765 -16.90082 75.626816
27070000000 -16.777218 74.349556 -1.2339808 167.57133 -1.2494557 167.51469 -16.697779 75.520248
27097500000 -16.85495 73.784348 -1.2470417 166.97411 -1.2387778 166.9868 -16.796371 75.293343
27125000000 -16.913124 73.556412 -1.2384975 166.4016 -1.2649405 166.40709 -16.896399 73.831726
27152500000 -16.768816 72.606483 -1.2494575 165.89056 -1.2312224 165.79317 -16.924088 73.108124
27180000000 -16.817261 71.38868 -1.2520641 165.25536 -1.2430713 165.37677 -16.794876 73.674324
27207500000 -16.906395 70.914825 -1.2326792 164.73264 -1.2485729 164.79979 -16.846302 72.305298
27235000000 -16.802773 70.657211 -1.2431657 164.20123 -1.2336967 164.21382 -16.887959 71.783974
27262500000 -16.807993 69.534904 -1.2486591 163.64186 -1.262321 163.68239 -16.945166 72.461456
27290000000 -16.889906 68.618629 -1.2534852 163.12814 -1.2545629 163.09787 -16.918865 70.397308
27317500000 -16.872652 68.703865 -1.2423589 162.49918 -1.2383412 162.53746 -16.931513 69.740738
27345000000 -16.710859 67.178879 -1.2444667 162.05516 -1.243528 161.93579 -16.887386 70.497856
27372500000 -16.973534 66.747696 -1.2372913 161.47939 -1.2457983 161.48914 -16.883833 68.808945
27400000000 -16.922886 67.263695 -1.2228279 160.90273 -1.2311248 160.96175 -16.967039 67.358925
27427500000 -16.796219 65.20752 -1.2453159 160.43022 -1.2341077 160.37305 -16.985281 68.240768
27455000000 -16.949024 64.207832 -1.2488531 159.83301 -1.2485591 159.76248 -16.966099 68.320129
27482500000 -17.017529 63.43269 -1.2448338 159.30833 -1.2287587 159.16345 -16.920639 64.993858
27510000000 -16.862251 63.239513 -1.2421519 158.69859 -1.2490457 158.62903 -17.038441 65.856804
27537500000 -16.896317 61.847118 -1.2518742 158.13882 -1.2391796 158.1432 -16.984163 66.476944
27565000000 -16.991032 61.586151 -1.2523448 157.67094 -1.2299794 157.58838 -16.966494 64.079277
27592500000 -17.045538 61.214546 -1.2262577 157.00272 -1.2382927 157.09944 -16.890768 63.376785
27620000000 -16.941854 59.166344 -1.2387747 156.4642 -1.2478352 156.48502 -16.960548 63.996395
27647500000 -17.001621 58.794678 -1.244617 155.90717 -1.2414614 155.90825 -17.039661 62.821369
27675000000 -17.031979 58.799446 -1.2416823 155.41896 -1.2397013 155.45073 -17.027407 61.821579
27702500000 -17.044043 58.117901 -1.2376366 154.81331 -1.239213 154.87616 -17.113256 62.005447
27730000000 -17.059732 56.82859 -1.2406573 154.27206 -1.2367334 154.24748 -17.161175 61.018875
27757500000 -17.076311 56.848061 -1.2377288 153.7997 -1.2345057 153.77039 -17.124666 59.615845
27785000000 -17.146036 56.544231 -1.2274089 153.11771 -1.2255632 153.19693 -17.089037 60.25185
27812500000 -17.037172 54.931587 -1.231927 152.61493 -1.2411038 152.61726 -17.233763 59.635456
27840000000 -17.176855 53.547436 -1.2431951 152.09738 -1.2366405 152.09213 -17.06949 57.437492
27867500000 -17.248449 53.476101 -1.240994 151.44377 -1.2321656 151.48985 -17.277901 58.197807
27895000000 -17.075802 53.048222 -1.2362448 150.92432 -1.2242734 150.97501 -17.392714 56.995113
27922500000 -17.078474 51.109741 -1.2361485 150.47021 -1.2364891 150.43962 -17.151455 56.797626
27950000000 -17.241421 51.440643 -1.2327185 149.83472 -1.2263448 149.84169 -17.260469 55.989788
27977500000 -17.195847 50.361496 -1.2258629 149.25925 -1.2269104 149.29625 -17.463554 56.396839
28005000000 -17.209351 48.730396 -1.2333168 148.71449 -1.2292109 148.75398 -17.267632 54.77145
28032500000 -17.341606 48.412354 -1.23444 148.1539 -1.2271841 148.16499 -17.169201 53.250675
28060000000 -17.301121 47.890995 -1.2308137 147.59729 -1.2335279 147.58235 -17.567308 54.10054
28087500000 -17.115898 47.415104 -1.2332466 147.13586 -1.2182943 146.95055 -17.410357 52.86734
28115000000 -17.316689 45.83535 -1.2346288 146.54004 -1.2244711 146.58467 -17.353251 51.815617
28142500000 -17.463121 45.005878 -1.2411311 145.97321 -1.2247264 145.90143 -17.670853 51.214127
28170000000 -17.373148 45.811752 -1.2236675 145.41774 -1.2400963 145.43117 -17.451025 50.356789
28197500000 -17.252207 43.10854 -1.2248321 144.95004 -1.2352948 144.88866 -17.358511 50.464123
28225000000 -17.566242 42.407227 -1.2153783 144.15414 -1.2318047 144.31892 -17.913572 50.368855
28252500000 -17.422943 42.655422 -1.2364306 143.79868 -1.2193512 143.60001 -17.925625 48.144264
28280000000 -17.347897 41.237812 -1.2195942 143.16748 -1.2222692 143.22505 -17.567064 48.87014
28307500000 -17.448687 39.845013 -1.2174802 142.78204 -1.224839 142.63562 -17.776644 48.060467
28335000000 -17.678057 41.000534 -1.2148194 142.00777 -1.218737 142.14651 -18.011793 46.860783
28362500000 -17.489975 39.461929 -1.2133343 141.63716 -1.226635 141.62114 -17.766745 46.589478
28390000000 -17.687656 37.706234 -1.2291586 141.04974 -1.2369716 141.08575 -17.900827 46.243874
28417500000 -17.638363 37.262756 -1.2071412 140.46005 -1.2104604 140.41638 -18.011135 44.20575
28445000000 -17.598734 37.464622 -1.2199066 139.90872 -1.2183145 139.88939 -17.841516 44.124302
28472500000 -17.620665 35.587059 -1.2142463 139.32962 -1.1939597 139.36491 -17.983562 44.088062
28500000000 -17.880692 36.191654 -1.2080108 138.76286 -1.227252 138.76996 -18.082275 42.714291
28527500000 -17.836533 35.659237 -1.2120132 138.1801 -1.2036364 138.22012 -17.967861 42.303452
28555000000 -17.586147 33.990314 -1.2006723 137.63791 -1.1977688 137.73425 -17.953835 42.026501
28582500000 -17.89979 33.183037 -1.2023907 137.07053 -1.2087555 137.10379 -18.256369 41.010059
28610000000 -18.026871 32.402493 -1.2088717 136.54834 -1.1897012 136.52103 -18.196859 40.109333
28637500000 -17.760628 32.356625 -1.204392 136.0334 -1.1943431 136.01007 -17.981323 40.113029
28665000000 -17.838018 30.769016 -1.1846004 135.46918 -1.2096549 135.33896 -18.397699 38.817036
28692500000 -17.930536 30.31917 -1.1868948 134.85239 -1.1988924 134.79465 -18.184084 37.40152
28720000000 -17.938665 30.655941 -1.1968957 134.30327 -1.2027969 134.26759 -18.178192 38.62532
28747500000 -17.865294 29.155739 -1.1964136 133.63713 -1.2002416 133.68272 -18.448215 36.907825
28775000000 -17.999414 27.613209 -1.1908445 133.22995 -1.1837293 133.23022 -18.507946 35.445126
28802500000 -18.075193 28.795208 -1.1915553 132.54558 -1.2061043 132.64853 -18.318193 36.904179
28830000000 -17.998423 27.169245 -1.1941181 131.9873 -1.1985669 132.01654 -18.576155 35.61792
28857500000 -17.982302 25.629868 -1.1932806 131.53734 -1.1848364 131.40356 -18.587612 32.596928
28885000000 -18.156086 25.523046 -1.1908554 130.88504 -1.1893266 130.87323 -18.467657 32.785538
28912500000 -18.251926 25.457277 -1.201647 130.36281 -1.1872357 130.37434 -18.64329 33.607365
28940000000 -18.206068 23.557835 -1.1915637 129.74997 -1.1919656 129.72173 -18.699373 31.720837
28967500000 -18.234749 23.029812 -1.2006825 129.17174 -1.1913079 129.31355 -18.52813 31.773829
28995000000 -18.225592 23.174131 -1.1934032 128.70517 -1.199211 128.70422 -18.600777 31.221296
29022500000 -18.186991 21.733381 -1.1734815 127.95569 -1.1859549 128.0657 -18.909418 29.408485
29050000000 -18.265577 20.361496 -1.1809057 127.46319 -1.197719 127.50829 -18.565643 28.515444
29077500000 -18.484627 19.344324 -1.1970614 126.97337 -1.1988037 126.99719 -18.759998 30.10523
29105000000 -18.51902 19.164545 -1.1843318 126.41705 -1.1825436 126.30804 -19.019598 27.103012
29132500000 -18.267756 17.937525 -1.1871204 125.89817 -1.1982968 125.73612 -18.705811 26.670479
29160000000 -18.534124 17.914482 -1.1902255 125.26041 -1.1940466 125.27689 -18.787308 28.375362
29187500000 -18.573444 17.171251 -1.1676338 124.73401 -1.1928111 124.60888 -19.231869 25.099325
29215000000 -18.480679 16.580997 -1.1827992 123.936 -1.1724417 124.035 -18.734566 24.104931
29242500000 -18.420097 14.341014 -1.1829689 123.64635 -1.1928735 123.61532 -18.886396 25.085138
29270000000 -18.766775 14.496047 -1.1801186 123.03671 -1.1970744 123.00076 -19.196991 22.014574
29297500000 -18.535301 14.096083 -1.1819788 122.42107 -1.1853539 122.43909 -19.042925 20.717094
29325000000 -18.568968 12.917414 -1.1934452 122.00839 -1.1874385 121.98733 -18.871441 23.149622
29352500000 -18.791115 11.369393 -1.1895572 121.38297 -1.1921165 121.34449 -19.41416 22.293581
29380000000 -18.775049 11.592343 -1.18813 120.77164 -1.1689522 120.76295 -19.307247 18.750793
29407500000 -18.63027 10.489996 -1.1798258 120.30314 -1.1760212 120.28447 -19.217964 21.32976
29435000000 -18.935831 8.9057684 -1.180581 119.66799 -1.1910795 119.74885 -19.611395 19.00503
29462500000 -19.039597 7.9487581 -1.1728259 119.11181 -1.1914418 119.05498 -19.651413 15.906472
29490000000 -18.770945 8.0214653 -1.1670377 118.58427 -1.1819849 118.57844 -19.320457 17.470663
29517500000 -19.034401 6.1693683 -1.1790361 118.00058 -1.1604462 118.05032 -19.669567 17.820557
29545000000 -19.337244 6.7128921 -1.1760223 117.48313 -1.1849717 117.43755 -19.624979 14.93049
29572500000 -19.124708 6.0716887 -1.176103 116.97701 -1.1742084 116.85334 -19.522623 16.13839
29600000000 -19.005566 4.2314696 -1.1829123 116.44187 -1.1722281 116.3246 -19.86562 16.323559
29627500000 -19.307745 3.2428455 -1.1610745 115.75304 -1.165862 115.79016 -19.96163 13.66404
29655000000 -19.250107 3.6990969 -1.1658728 115.20494 -1.1847057 115.19753 -19.695601 12.759699
29682500000 -19.09016 2.6783988 -1.1905768 114.72186 -1.1707944 114.68272 -19.946457 14.979653
29710000000 -19.371998 1.10105 -1.1938994 114.08035 -1.174356 114.11237 -20.161533 13.752309
29737500000 -19.457064 -0.50931203 -1.1636375 113.36174 -1.1661648 113.56179 -19.982075 10.463195
29765000000 -19.318201 0.62370688 -1.1809468 113.02887 -1.1690556 112.96589 -19.966412 13.339326
29792500000 -19.460665 -2.3646691 -1.1764845 112.31073 -1.1707714 112.46462 -20.345108 10.005383
29820000000 -19.722326 -2.0002921 -1.1455085 111.85604 -1.1584506 111.77745 -20.29154 10.157137
29847500000 -19.475828 -1.9278835 -1.1541848 111.19651 -1.1653508 111.28298 -20.07132 10.415681
29875000000 -19.619579 -3.1295002 -1.1611242 110.61998 -1.1624756 110.6215 -20.553125 10.623786
29902500000 -19.833225 -6.2486124 -1.1729745 110.17548 -1.1591942 110.02035 -20.430197 6.2980862
29930000000 -19.720125 -5.3066568 -1.1713686 109.5741 -1.1592379 109.47718 -20.310389 7.3001671
29957500000 -19.699656 -5.3288517 -1.1657103 109.07259 -1.1648823 109.05179 -20.763742 8.0945129
29985000000 -19.70715 -9.9157648 -1.1520851 108.32503 -1.1533036 108.52426 -20.796167 4.3501868
30012500000 -20.016787 -8.3052416 -1.1551621 107.87439 -1.15352 107.80534 -20.774502 5.1885514
30040000000 -19.726471 -7.4021187 -1.1444674 107.40106 -1.174417 107.21445 -20.990868 6.9742393
30067500000 -19.884676 -10.563618 -1.1425726 106.73323 -1.1643742 106.7011 -20.959734 3.5665376
30095000000 -20.155956 -11.111631 -1.1565136 106.11352 -1.1588738 106.10033 -20.979229 2.5192738
30122500000 -20.152155 -9.6869326 -1.1490146 105.54823 -1.171824 105.59934 -21.134993 4.0593467
30150000000 -20.151066 -12.593962 -1.1514715 105.0005 -1.146763 105.01868 -21.60408 2.0181646
30177500000 -20.461002 -15.396694 -1.1542149 104.45688 -1.1412288 104.36994 -21.172457 0.95302248
30205000000 -20.263165 -12.404368 -1.1435578 103.86321 -1.1604148 104.06725 -21.363892 1.9074171
30232500000 -20.484591 -14.739919 -1.1653495 103.41019 -1.1609782 103.32486 -21.549215 -0.6137321
30260000000 -20.649761 -18.879433 -1.1488874 102.72998 -1.1404017 102.78546 -21.608131 -3.2511358
30287500000 -20.876915 -17.433128 -1.1348875 102.16451 -1.1567734 102.15459 -21.764183 0.29588404
30315000000 -20.763184 -16.169054 -1.1537803 101.62938 -1.1488584 101.65685 -22.22217 -1.6870174
30342500000 -20.641479 -20.134914 -1.1336136 101.12881 -1.1445135 101.09042 -21.876392 -6.1339965
30370000000 -20.947084 -21.425642 -1.1480045 100.50282 -1.1444279 100.50833 -21.986471 -2.2788336
30397500000 -21.305889 -19.759827 -1.1365454 99.90435 -1.1653718 99.839798 -22.567165 -3.9678247
30425000000 -20.956207 -22.863653 -1.1520996 99.442749 -1.1495084 99.382957 -22.51799 -5.4920897
30452500000 -20.904642 -24.183899 -1.148856 98.671806 -1.140058 98.799011 -22.122671 -6.7304668
30480000000 -21.262196 -22.427565 -1.1568491 98.150803 -1.154091 98.206474 -22.87281 -4.5883961
30507500000 -21.175108 -23.611074 -1.1720867 97.723145 -1.1532027 97.665588 -22.729778 -6.3101516
30535000000 -21.095932 -27.203913 -1.129252 97.04081 -1.1407266 97.157089 -22.440952 -8.1705513
30562500000 -21.664675 -26.493607 -1.158865 96.561638 -1.1626319 96.493454 -23.147614 -6.6711473
30590000000 -21.425989 -28.127602 -1.1563677 95.773308 -1.1459179 95.91375 -23.179754 -9.5691767
30617500000 -21.295561 -29.556271 -1.151154 95.370834 -1.1298418 95.423828 -22.942675 -12.74063
30645000000 -21.742228 -31.839941 -1.1562335 94.789619 -1.1355202 94.833534 -23.634995 -9.7559385
30672500000 -21.716337 -30.757101 -1.1342928 94.261894 -1.1486551 94.099579 -23.512196 -11.602726
30700000000 -21.819199 -31.645393 -1.1455768 93.742088 -1.1536912 93.636452 -23.33416 -14.614034
30727500000 -21.845396 -36.066013 -1.1422392 93.090057 -1.1326303 93.087929 -24.087198 -14.15721
30755000000 -22.299679 -33.573879 -1.1467117 92.647873 -1.1530147 92.483955 -23.900375 -15.968091
30782500000 -22.321653 -36.416611 -1.1458277 92.005951 -1.146652 91.953094 -23.858574 -16.600422
30810000000 -22.025747 -37.21669 -1.1475464 91.443192 -1.1493701 91.385338 -24.154568 -18.11599
30837500000 -22.362389 -39.688953 -1.1421213 90.90107 -1.1299624 90.865433 -24.748339 -20.049021
30865000000 -22.707613 -39.1553 -1.1532975 90.425232 -1.1382958 90.235535 -24.726879 -19.549595
30892500000 -22.42749 -41.513481 -1.1479156 89.729729 -1.133088 89.674454 -24.561785 -20.168756
30920000000 -22.893873 -41.551014 -1.1425625 89.173492 -1.1411372 89.10125 -25.395838 -22.692747
30947500000 -23.312641 -44.89167 -1.1293274 88.600899 -1.1416756 88.453064 -25.519392 -21.782688
30975000000 -22.608925 -43.65427 -1.1312554 87.916931 -1.1462172 87.99929 -25.04278 -24.730719
31002500000 -23.027119 -44.922482 -1.133594 87.397232 -1.1358329 87.472832 -25.467445 -23.025764
31030000000 -23.559294 -47.701756 -1.1469373 86.819572 -1.1363826 86.82473 -26.342239 -24.025919
31057500000 -23.422148 -48.381176 -1.1335349 86.143265 -1.1492584 86.314438 -25.912783 -25.316423
31085000000 -23.229271 -45.623146 -1.1353056 85.627678 -1.1411437 85.758575 -26.222359 -28.105185
31112500000 -23.623337 -51.849236 -1.1287762 85.024239 -1.1367512 85.2099 -26.701094 -28.135489
31140000000 -23.823999 -53.173332 -1.1400146 84.617271 -1.1436015 84.598915 -26.008566 -27.677317
31167500000 -23.361967 -53.701214 -1.1369917 83.885208 -1.1329089 84.118469 -27.114714 -31.790047
31195000000 -23.970585 -55.412174 -1.143553 83.449432 -1.1403189 83.481812 -27.434982 -34.200443
31222500000 -23.858345 -55.779427 -1.1412247 82.839966 -1.1468617 82.942856 -27.67823 -33.051403
31250000000 -24.159384 -53.645111 -1.1454043 82.277664 -1.1468078 82.309883 -27.272358 -34.928001
31277500000 -24.035351 -59.060406 -1.1457871 81.724365 -1.1350975 81.698807 -28.189848 -36.954422
31305000000 -24.350204 -64.509979 -1.1558769 81.019249 -1.1211349 81.142502 -27.831318 -39.084316
31332500000 -24.58255 -59.030544 -1.1348854 80.611923 -1.1384052 80.624962 -28.180698 -37.669163
31360000000 -24.89193 -62.801014 -1.1314942 80.106758 -1.1393028 80.033394 -28.677876 -41.088959
31387500000 -24.425951 -68.49984 -1.1214398 79.387512 -1.1416516 79.370628 -29.399649 -40.973701
31415000000 -24.618078 -65.72464 -1.136768 78.843491 -1.125596 78.884056 -28.770443 -40.34309
31442500000 -24.8715 -66.770279 -1.1278868 78.255173 -1.129544 78.324661 -29.983299 -47.597801
31470000000 -25.088152 -72.940353 -1.1583042 77.717033 -1.1289518 77.680367 -29.968756 -45.675026
31497500000 -25.402277 -74.920738 -1.1403646 77.172112 -1.1365316 77.130898 -30.109056 -43.779831
31525000000 -25.647606 -71.579071 -1.1483232 76.657936 -1.135303 76.571426 -31.181425 -48.500324
31552500000 -25.459991 -75.044403 -1.1437039 76.063126 -1.1433024 75.969864 -30.440435 -48.594406
31580000000 -25.088512 -78.575722 -1.1425992 75.273354 -1.1398478 75.392365 -30.743883 -50.101357
31607500000 -26.414129 -75.213951 -1.127967 74.861511 -1.1352307 74.773361 -31.376753 -53.400196
31635000000 -25.517193 -81.076988 -1.1370021 74.217636 -1.1552982 74.22699 -31.652058 -63.107307
31662500000 -25.499569 -84.244049 -1.1474284 73.699371 -1.1379311 73.749924 -31.671164 -60.16877
31690000000 -26.713316 -81.925255 -1.1512728 73.076462 -1.1384401 73.139931 -32.613674 -57.654358
31717500000 -26.553333 -86.171707 -1.1413379 72.475266 -1.15099 72.462379 -33.568455 -66.028458
31745000000 -25.558838 -85.237518 -1.1382653 71.981758 -1.1382461 71.878021 -32.327229 -64.571945
31772500000 -26.639471 -92.257118 -1.1320596 71.49369 -1.1358342 71.397972 -34.794662 -64.235245
31800000000 -26.371767 -92.630142 -1.152027 70.791145 -1.1646508 70.773499 -34.081635 -77.606857
31827500000 -26.821167 -94.204979 -1.127075 70.31871 -1.158239 70.274246 -33.89843 -71.413132
31855000000 -26.488764 -96.696251 -1.1323138 69.658958 -1.1450542 69.652138 -34.319286 -79.296562
31882500000 -27.287815 -102.38148 -1.1591473 69.116325 -1.1501793 69.207031 -35.891335 -86.158249
31910000000 -26.550474 -96.582657 -1.1550351 68.537498 -1.136392 68.609398 -35.598904 -92.334923
31937500000 -26.925617 -102.3985 -1.1492965 68.100746 -1.1380762 67.933144 -37.0327 -95.272888
31965000000 -27.650602 -108.8651 -1.1483074 67.408531 -1.1353158 67.257355 -38.523685 -102.25954
31992500000 -27.358551 -108.69829 -1.1534201 66.825729 -1.1347584 66.748138 -36.657906 -116.15369
32020000000 -27.182827 -102.3867 -1.1453615 66.190437 -1.1321852 66.298454 -37.798244 -105.13254
32047500000 -27.290236 -118.14001 -1.1528864 65.77282 -1.1535203 65.728119 -37.305244 -113.11125
32075000000 -27.017414 -119.31583 -1.1653935 65.197105 -1.1676704 65.172264 -36.505905 -132.93816
32102500000 -27.332642 -112.2817 -1.1265804 64.517174 -1.1457528 64.511292 -37.239689 -121.01307
32130000000 -27.447489 -121.44986 -1.1601247 64.031921 -1.1583742 63.98098 -38.394932 -139.51538
32157500000 -27.545406 -128.14391 -1.145472 63.325954 -1.1559762 63.386055 -35.321621 -141.10249
32185000000 -27.424236 -122.13274 -1.1476853 62.850235 -1.1601344 62.813358 -36.3787 -145.22267
32212500000 -27.663387 -129.85716 -1.1720413 62.404217 -1.1360379 62.292767 -36.630451 -166.90814
32240000000 -27.152845 -133.80182 -1.1539046 61.72052 -1.147329 61.700645 -33.55925 -161.47934
32267500000 -27.65974 -134.17429 -1.1760596 61.036736 -1.1396 61.007545 -35.160614 -159.32423
32295000000 -27.486757 -132.61244 -1.1705626 60.585629 -1.157039 60.521999 -36.039227 -165.08844
32322500000 -27.18668 -139.4556 -1.1628535 59.986088 -1.1623762 60.010014 -33.183521 -175.05394
32350000000 -27.707466 -139.34132 -1.1731874 59.477554 -1.1632487 59.362198 -33.144646 -168.35577
32377500000 -28.074564 -142.16644 -1.157604 58.79871 -1.1677504 58.843475 -35.471352 174.17076
32405000000 -26.512756 -148.50461 -1.1612328 58.233707 -1.1632713 58.281826 -31.92647 174.09848
32432500000 -26.220167 -148.38814 -1.1646637 57.728458 -1.1629022 57.605019 -31.513313 174.95673
32460000000 -27.909035 -154.2193 -1.150738 57.152973 -1.1589911 57.013206 -32.875633 165.58803
32487500000 -26.594532 -153.01163 -1.1628017 56.481266 -1.14244 56.50592 -31.022207 166.24677
32515000000 -26.345863 -156.86516 -1.1844273 55.971291 -1.1620588 55.946396 -30.039265 167.7756
32542500000 -27.072166 -162.8284 -1.1707653 55.378677 -1.1702846 55.363735 -30.735754 162.70906
32570000000 -26.894995 -160.58356 -1.1706717 54.892616 -1.1769484 54.856396 -29.916006 161.24306
32597500000 -25.884726 -163.37219 -1.1565001 54.266384 -1.1698973 54.165001 -28.621239 162.1577
32625000000 -26.311676 -166.59471 -1.1781377 53.714809 -1.1764872 53.647026 -29.356329 163.59984
32652500000 -26.866888 -170.44597 -1.1678607 53.24662 -1.1842206 53.03931 -29.109056 154.55087
32680000000 -25.808386 -167.48399 -1.1952473 52.573505 -1.1845717 52.363037 -27.930838 158.62283
32707500000 -26.063147 -177.48737 -1.1858546 51.725811 -1.1963871 51.936832 -28.018763 156.09782
32735000000 -25.881647 -176.59882 -1.1871779 51.34985 -1.1889195 51.521042 -28.803764 148.31004
32762500000 -25.719631 -172.75513 -1.1913757 50.821426 -1.1878849 50.947685 -27.385267 154.12949
32790000000 -25.317785 -175.55853 -1.1711971 50.24202 -1.1951014 50.245605 -26.877672 156.13789
32817500000 -25.677555 179.1481 -1.1731719 49.760902 -1.1873014 49.791233 -27.453218 145.13321
32845000000 -25.196074 178.56223 -1.1836647 49.072247 -1.179727 49.183685 -26.525558 149.57846
32872500000 -25.362511 -179.66507 -1.1790144 48.377148 -1.1869373 48.645504 -26.360188 155.33043
32900000000 -24.80308 172.87135 -1.1942654 47.867638 -1.1962036 48.025845 -26.674578 144.89583
32927500000 -25.201538 170.20946 -1.1983129 47.465801 -1.191258 47.43111 -26.200739 145.27953
32955000000 -24.491844 172.16989 -1.1905462 46.878891 -1.2006791 46.762794 -25.679289 150.26752
32982500000 -24.328283 170.50066 -1.198454 46.308193 -1.2004094 46.158775 -25.561508 142.60689
33010000000 -24.19875 166.52646 -1.1846446 45.704872 -1.1952708 45.711552 -25.285847 139.37292
33037500000 -24.224943 168.51241 -1.2041439 45.012295 -1.2078235 45.123882 -24.716885 143.18582
33065000000 -23.618227 163.45958 -1.2090302 44.537434 -1.2251869 44.446934 -24.775402 142.40962
33092500000 -23.799242 160.461 -1.1922841 44.029541 -1.2085849 44.007282 -24.21785 138.39014
33120000000 -23.666788 160.37212 -1.2043844 43.319897 -1.216264 43.237904 -24.314648 142.46944
33147500000 -23.551897 160.57561 -1.1872078 42.754524 -1.2178177 42.738209 -24.033173 140.71655
33175000000 -22.950983 157.0056 -1.2043684 42.331036 -1.2192413 42.261017 -23.991409 137.39552
33202500000 -23.319565 155.75345 -1.1886085 41.657887 -1.2114778 41.707386 -23.394558 137.77031
33230000000 -23.494764 156.51743 -1.2042081 41.124168 -1.2052269 41.162842 -23.471022 137.48663
33257500000 -22.847788 154.19066 -1.2296273 40.499493 -1.2009125 40.452244 -23.208309 133.9552
33285000000 -22.7547 151.46893 -1.2315888 39.957741 -1.2245343 39.928738 -23.02413 134.0087
33312500000 -22.870018 150.36879 -1.2359165 39.26366 -1.2172499 39.407024 -23.184799 136.05898
33340000000 -22.695406 148.78322 -1.2132443 38.855999 -1.237113 38.765579 -22.899401 129.9243
33367500000 -22.184193 148.89061 -1.2153229 38.257504 -1.2327371 38.345753 -22.640202 130.08122
33395000000 -22.597488 146.61736 -1.2352136 37.853134 -1.2233347 37.685238 -22.633591 132.8511
33422500000 -22.0459 145.4686 -1.2238047 37.074383 -1.2319986 37.17065 -22.455772 129.16013
33450000000 -21.82011 145.04228 -1.2218562 36.535278 -1.2370969 36.526779 -21.753733 127.85631
33477500000 -21.859129 142.713 -1.2433043 35.956627 -1.24931 35.981644 -22.081198 132.18723
33505000000 -21.994175 142.03397 -1.2142137 35.361362 -1.2278361 35.32391 -22.013317 127.46457
33532500000 -21.561314 140.11775 -1.2537429 34.809769 -1.2190064 34.708755 -21.487144 125.25371
33560000000 -21.544952 139.98697 -1.2323633 34.181126 -1.2513164 34.168262 -21.383047 128.05765
33587500000 -21.518478 137.98413 -1.2332135 33.772808 -1.2550954 33.635857 -21.452927 127.59772
33615000000 -21.362225 138.65123 -1.2559028 33.206234 -1.2273512 33.022396 -21.442757 124.86111
33642500000 -21.044575 137.35872 -1.2407556 32.543995 -1.2448697 32.509418 -21.242727 124.87452
33670000000 -21.142237 134.86133 -1.2680779 32.053463 -1.2556912 32.067757 -21.268299 122.89059
33697500000 -20.984104 133.50873 -1.2602956 31.393793 -1.2700603 31.355793 -21.095396 121.44186
33725000000 -20.991806 135.98761 -1.2569399 30.858061 -1.2498834 30.888964 -20.384277 122.55496
33752500000 -20.414707 131.43404 -1.2502272 30.298248 -1.2410042 30.254505 -20.746422 121.50652
33780000000 -20.721455 131.17899 -1.2558374 29.703524 -1.2585468 29.778187 -20.669857 118.39689
33807500000 -20.513449 130.11803 -1.2863256 29.137266 -1.27012 29.211473 -20.17181 119.88691
33835000000 -20.552019 129.48305 -1.2662151 28.550184 -1.2658056 28.527943 -20.241562 119.80764
33862500000 -20.234497 127.93623 -1.2644848 27.976599 -1.2630095 28.042717 -20.353052 118.06686
33890000000 -20.3253 126.13206 -1.2906814 27.410681 -1.2666947 27.43368 -20.127214 116.91431
33917500000 -20.008387 127.85986 -1.2828429 26.901724 -1.3077902 26.978651 -20.135607 116.56042
33945000000 -20.070995 124.2372 -1.2702955 26.332525 -1.2777063 26.38047 -19.782787 114.94151
33972500000 -19.665754 124.36276 -1.2486784 25.836443 -1.2912873 25.833702 -19.654837 115.16556
34000000000 -19.758751 123.95918 -1.2711096 25.258503 -1.271726 25.188967 -19.699682 112.73195
34027500000 -19.684807 123.57272 -1.2923762 24.643402 -1.2884856 24.672127 -19.341415 111.71416
34055000000 -19.467403 120.20275 -1.2827924 23.958725 -1.2955655 24.172186 -19.256344 112.8567
34082500000 -19.380274 121.95605 -1.2941275 23.581461 -1.2846296 23.622282 -19.13262 110.84116
34110000000 -19.425854 120.80736 -1.2941344 23.024172 -1.2832161 22.913719 -19.142298 109.43602
34137500000 -18.924259 116.84265 -1.2864091 22.444967 -1.2732989 22.437616 -19.179647 108.86786
34165000000 -19.092951 118.20666 -1.2949055 21.820343 -1.3028504 21.90975 -19.013983 110.09662
34192500000 -19.148315 118.58364 -1.2872353 21.26086 -1.3002595 21.227057 -18.927597 106.86222
34220000000 -18.775759 115.98775 -1.2813593 20.647385 -1.312398 20.694036 -18.52701 107.33136
34247500000 -18.822006 114.15522 -1.2866889 20.026142 -1.3015211 20.164923 -18.726658 107.28487
34275000000 -18.756607 115.22849 -1.307809 19.568682 -1.2950237 19.654963 -18.626722 105.21074
34302500000 -18.484797 113.94184 -1.3080697 19.002569 -1.3044531 19.064844 -18.316853 105.75465
34330000000 -18.437037 111.57748 -1.3235714 18.242298 -1.3109165 18.454983 -18.506092 105.14084
34357500000 -18.609362 111.78676 -1.3337837 17.850454 -1.3037544 17.902241 -18.351097 104.04074
34385000000 -18.10537 111.87228 -1.3180288 17.262663 -1.3143325 17.212616 -17.908199 103.49693
34412500000 -17.942884 109.50948 -1.319178 16.666075 -1.356698 16.700571 -18.155506 103.24799
34440000000 -18.054182 108.46374 -1.3225454 16.164856 -1.3071958 16.238466 -17.915604 102.59883
34467500000 -18.058683 109.89662 -1.3026837 15.509099 -1.2988224 15.647374 -17.715845 101.36127
34495000000 -17.523424 108.7251 -1.3525831 15.060504 -1.3630871 15.130569 -17.767319 100.16924
34522500000 -17.742796 105.87981 -1.3299717 14.5414 -1.331766 14.440369 -17.836517 100.05001
34550000000 -17.798018 106.13879 -1.3330296 13.906384 -1.3221999 13.77012 -17.425871 99.100044
34577500000 -17.401382 105.76402 -1.3305944 13.368161 -1.3294907 13.360997 -17.285284 97.021202
34605000000 -17.389656 103.96433 -1.3414599 12.789094 -1.3333693 12.577093 -17.349472 97.047684
34632500000 -17.592903 102.8913 -1.3457574 12.337945 -1.3462985 12.124928 -17.009277 95.798233
34660000000 -17.19133 103.47182 -1.3734276 11.726257 -1.3531624 11.601925 -16.871046 96.229881
34687500000 -17.124041 102.38573 -1.3800544 11.108341 -1.3361951 11.009542 -17.332281 96.851807
34715000000 -17.061438 99.443184 -1.3608365 10.681499 -1.3827115 10.316535 -17.048798 94.61071
34742500000 -17.168732 100.9676 -1.3747724 9.7532129 -1.3616847 9.9682665 -16.665346 95.248543
34770000000 -16.879139 100.6319 -1.3842803 9.2779312 -1.3539515 9.3146868 -16.884193 92.626907
34797500000 -16.697319 96.462685 -1.3876126 8.808794 -1.3760598 8.9590912 -16.832441 94.049034
34825000000 -16.916008 97.243362 -1.378734 8.3089685 -1.3874972 8.1644316 -16.462246 93.556061
34852500000 -16.5275 98.682007 -1.3978454 7.6916842 -1.3729343 7.8477755 -16.554176 91.381058
34880000000 -16.462652 95.382584 -1.3746759 7.3680787 -1.3763845 7.0740042 -16.664221 90.198448
34907500000 -16.536293 94.565712 -1.3820097 6.7042532 -1.4089755 6.6357145 -16.244734 90.658905
34935000000 -16.548269 95.034897 -1.4000378 6.0233326 -1.4057734 6.1022487 -16.225349 91.194771
34962500000 -16.320814 95.100121 -1.4132235 5.3153615 -1.3847001 5.540163 -16.442152 87.60701
34990000000 -16.143492 92.206863 -1.3946294 5.131391 -1.4068295 4.9596324 -15.839185 88.594978
35017500000 -16.381786 94.110176 -1.4149377 4.4207578 -1.4283941 4.4646688 -15.954798 89.978485
35045000000 -16.046402 92.157082 -1.395699 3.8701816 -1.4263581 3.7264795 -16.296192 86.166939
35072500000 -15.81582 90.873657 -1.3856715 3.4271834 -1.389401 3.3368797 -15.871197 85.562218
35100000000 -15.989473 89.685532 -1.3993882 2.8274641 -1.4035964 2.8564899 -15.492393 86.746101
35127500000 -15.874918 91.114799 -1.4090328 2.2664492 -1.430095 2.3374169 -15.713511 85.293739
35155000000 -15.60992 89.062576 -1.3912941 1.9199941 -1.4171563 1.7273868 -15.509333 83.585114
35182500000 -15.659448 87.304138 -1.4222995 1.1964562 -1.421165 1.2773758 -15.374819 85.531967
35210000000 -15.863531 88.169968 -1.4204893 0.63925314 -1.4108002 0.67597598 -15.527237 84.844292
35237500000 -15.368008 88.717308 -1.4140648 0.047320411 -1.4217044 -0.077614732 -15.610638 81.753998
35265000000 -15.391719 85.372879 -1.4226532 -0.5049243 -1.4142523 -0.56686968 -15.30087 83.558739
35292500000 -15.691187 85.557434 -1.4149404 -1.1146451 -1.4282693 -1.0338285 -15.317775 83.743835
35320000000 -15.349725 86.149887 -1.4040685 -1.5360142 -1.4219364 -1.6356289 -15.396083 80.439445
35347500000 -15.075352 83.981827 -1.4149902 -2.0495934 -1.4179227 -2.2734334 -15.114655 81.513573
35375000000 -15.284846 82.244591 -1.4455385 -2.7837839 -1.4450449 -2.752393 -15.065252 82.54924
35402500000 -15.131164 84.106461 -1.4354666 -3.3960314 -1.445311 -3.3803737 -15.168443 79.320267
35430000000 -14.747533 82.976395 -1.4244884 -3.8560295 -1.4552388 -3.9637215 -15.029483 78.727493
35457500000 -15.015548 79.794762 -1.4255913 -4.444406 -1.4514297 -4.5116644 -14.71399 79.952423
35485000000 -15.130322 81.604828 -1.4525725 -4.9080634 -1.4682919 -5.015223 -14.625508 77.720917
35512500000 -14.588839 81.435776 -1.4341339 -5.5281215 -1.4402492 -5.4732075 -14.766294 77.975273
35540000000 -14.71629 78.702744 -1.4897444 -6.3077374 -1.461356 -6.1763406 -14.6297 78.176819
35567500000 -14.904552 78.010391 -1.4589021 -6.6923451 -1.4525204 -6.6678739 -14.742678 76.18956
35595000000 -14.623392 80.037865 -1.4400945 -7.2323961 -1.4735013 -7.1884284 -14.583294 75.199387
35622500000 -14.379373 76.467392 -1.4540093 -7.6713552 -1.443388 -7.8055191 -14.569409 77.23877
35650000000 -14.684511 74.874657 -1.4592096 -8.3698835 -1.4950261 -8.1981192 -14.420136 75.813576
35677500000 -14.560102 76.732567 -1.4501828 -8.7801485 -1.4628552 -8.8718929 -14.388926 73.773239
35705000000 -14.333695 76.640991 -1.459344 -9.2730389 -1.493181 -9.3699741 -14.519074 73.219627
35732500000 -14.401193 71.335426 -1.4932978 -9.9944773 -1.5074855 -9.9253473 -14.333178 74.216309
35760000000 -14.336135 73.6978 -1.476252 -10.477462 -1.4677936 -10.522941 -14.012809 72.71978
35787500000 -14.197905 74.182648 -1.4618591 -11.034996 -1.4905084 -11.040871 -14.27825 72.92878
35815000000 -14.20464 71.453804 -1.5174304 -11.475769 -1.4891036 -11.512177 -14.359522 73.368011
35842500000 -14.408462 71.004807 -1.4929484 -12.19617 -1.4886436 -12.183056 -14.195143 70.950562
35870000000 -14.208453 72.741089 -1.5044124 -12.520121 -1.490739 -12.429221 -14.139782 69.912758
35897500000 -14.009131 70.305595 -1.4763362 -13.264877 -1.4946423 -13.13132 -14.13198 71.263313
35925000000 -14.183513 66.881729 -1.508098 -13.854491 -1.5116514 -14.020909 -14.033204 69.476463
35952500000 -14.040671 69.14901 -1.4919326 -14.412712 -1.4926294 -14.34879 -13.893895 68.505531
35980000000 -13.998845 69.910995 -1.4754487 -14.671267 -1.4877579 -14.958229 -14.089799 68.593552
36007500000 -13.813104 65.931068 -1.4581075 -15.248381 -1.5309107 -15.454388 -13.931588 68.155914
36035000000 -14.035424 66.725761 -1.518348 -15.733944 -1.5341172 -16.177082 -13.738211 66.195686
36062500000 -13.7585 68.399269 -1.49454 -16.583502 -1.5166078 -16.420113 -13.99229 66.889969
36090000000 -13.669632 64.326614 -1.5530961 -16.891136 -1.4937261 -16.909519 -13.9998 66.148895
36117500000 -13.81241 63.652977 -1.5346388 -17.693237 -1.5082899 -17.507172 -13.663007 66.117165
36145000000 -13.870562 66.589157 -1.516505 -18.081457 -1.5329137 -18.086784 -13.880742 64.204926
36172500000 -13.5692 63.275406 -1.5108944 -18.451841 -1.5230595 -18.724747 -13.919965 64.198898
36200000000 -13.618466 62.739182 -1.5164642 -19.289177 -1.5329919 -19.277309 -13.471831 65.610085
36227500000 -13.881022 62.81855 -1.4979632 -19.801279 -1.5355116 -19.867659 -13.51616 63.867256
36255000000 -13.614551 62.344505 -1.5194864 -20.35177 -1.531852 -20.314722 -13.766385 63.653355
36282500000 -13.484688 60.023773 -1.5397059 -20.814613 -1.5221461 -20.926537 -13.491443 62.176933
36310000000 -13.67241 60.997169 -1.5088919 -21.313162 -1.5385518 -21.373507 -13.356071 62.851898
36337500000 -13.548265 61.423584 -1.5197024 -22.05518 -1.5449992 -22.04215 -13.743266 61.000221
36365000000 -13.177959 58.75436 -1.5118469 -22.537338 -1.5243709 -22.592415 -13.472142 61.715725
36392500000 -13.264534 57.76104 -1.5241441 -23.031939 -1.545177 -22.865032 -13.205255 60.108944
36420000000 -13.657988 59.361771 -1.5044622 -23.479767 -1.5150173 -23.47648 -13.40158 57.469917
36447500000 -13.123319 57.723473 -1.5437901 -24.020025 -1.5454966 -24.163679 -13.292604 59.915596
36475000000 -13.233831 56.586781 -1.5234734 -24.750032 -1.5463439 -24.640757 -13.227895 59.727669
36502500000 -13.644124 57.269756 -1.5325763 -25.322357 -1.5026044 -25.391823 -13.334018 56.207306
36530000000 -13.159733 56.432133 -1.5433695 -25.772615 -1.5666753 -25.81221 -13.412585 56.80632
36557500000 -12.983109 53.641655 -1.5442884 -26.231852 -1.5462688 -26.313953 -13.207512 57.178905
36585000000 -13.294578 54.947487 -1.5477614 -26.872837 -1.5622141 -26.947573 -13.370593 55.308762
36612500000 -13.187947 54.659588 -1.5261329 -27.527102 -1.5073028 -27.406002 -13.227349 54.631054
36640000000 -12.79895 52.054409 -1.5538996 -27.998377 -1.5490097 -27.718649 -13.162598 56.045563
36667500000 -13.186826 52.633953 -1.5675454 -28.535049 -1.5823027 -28.557878 -12.966106 54.946072
36695000000 -13.192827 51.768326 -1.522958 -29.139526 -1.5439346 -29.266863 -13.148079 52.320873
36722500000 -12.901543 51.108624 -1.5476789 -29.820347 -1.5346513 -29.698469 -13.029717 52.193066
36750000000 -13.002802 50.491177 -1.5578258 -30.368479 -1.5746837 -30.372059 -13.058004 53.843552
36777500000 -13.263004 49.51038 -1.5343255 -30.752462 -1.5441729 -30.602594 -12.958549 49.662209
36805000000 -12.728189 48.896069 -1.54882 -31.086824 -1.5663701 -31.314863 -12.799439 51.085457
36832500000 -12.750896 49.077843 -1.5874766 -31.833654 -1.5898423 -31.891459 -13.057908 52.273746
36860000000 -12.967676 47.929203 -1.536535 -32.188484 -1.5701923 -32.659313 -12.934484 48.3148
36887500000 -12.661348 47.063694 -1.601772 -32.694649 -1.5557027 -32.830711 -12.751608 48.376213
36915000000 -12.431846 47.352123 -1.5864922 -33.341881 -1.5807967 -33.474377 -12.819888 50.454315
36942500000 -12.900101 45.621967 -1.5739133 -34.139847 -1.5717332 -34.13953 -12.895775 46.177418
36970000000 -12.674914 44.898689 -1.5787946 -34.454464 -1.5284179 -34.226559 -12.739952 45.625488
36997500000 -12.365923 45.825733 -1.5722872 -34.988235 -1.5777537 -35.049305 -12.58874 47.045143
37025000000 -12.623655 44.775562 -1.5746986 -35.560318 -1.5413051 -35.95715 -12.752681 45.775391
37052500000 -12.690955 42.464565 -1.5740918 -36.240788 -1.5563112 -36.341606 -12.659939 43.710541
37080000000 -12.284784 44.240719 -1.610652 -36.61219 -1.5610418 -36.705643 -12.607555 45.83152
37107500000 -12.535883 43.805008 -1.6095351 -37.300331 -1.6343446 -37.245258 -12.92682 45.245163
37135000000 -12.58842 41.340809 -1.5725036 -37.733513 -1.5894111 -37.636154 -12.569729 41.749207
37162500000 -12.354198 41.605011 -1.6019168 -38.102814 -1.5832129 -38.21191 -12.444958 43.40086
37190000000 -12.502455 41.644802 -1.6126854 -38.96011 -1.577559 -38.872845 -12.664419 43.318264
37217500000 -12.477825 40.436081 -1.6056415 -39.451626 -1.6001728 -39.333488 -12.600164 41.088608
37245000000 -12.30702 39.910805 -1.5883863 -39.888161 -1.5454729 -39.818325 -12.320061 41.121689
37272500000 -12.240338 40.650269 -1.5911838 -40.370506 -1.619295 -40.496063 -12.680984 42.093956
37300000000 -12.304618 38.019615 -1.6099986 -41.050232 -1.6023439 -41.014042 -12.514829 39.364349
37327500000 -12.173511 37.647724 -1.5956142 -41.563198 -1.5604267 -41.357349 -12.195265 39.396278
37355000000 -12.30565 37.2374 -1.6023502 -41.999748 -1.6025862 -42.224808 -12.510846 39.355145
37382500000 -12.403142 36.949986 -1.6175458 -42.707623 -1.6091272 -42.606426 -12.457199 39.186867
37410000000 -12.059237 35.707115 -1.5812021 -43.169491 -1.5783769 -43.215473 -12.102277 36.60741
37437500000 -12.276608 35.521992 -1.5930773 -43.917156 -1.5829862 -43.76812 -12.375191 38.553478
37465000000 -12.381603 34.661404 -1.577713 -44.466309 -1.6202836 -44.451637 -12.573391 36.924438
37492500000 -12.086213 35.146225 -1.574924 -44.838371 -1.6338166 -44.691837 -12.220572 35.710594
37520000000 -12.092647 33.393681 -1.5941564 -45.159161 -1.6200024 -45.387501 -12.175587 36.702026
37547500000 -12.223959 33.669136 -1.6320168 -45.900208 -1.6135253 -46.057434 -12.446661 37.002079
37575000000 -12.022003 32.213219 -1.5726411 -46.657505 -1.6314137 -46.449375 -12.313049 33.49556
37602500000 -12.020405 32.904392 -1.6267858 -46.945023 -1.5802276 -47.041306 -12.028876 34.320099
37630000000 -12.166897 30.640755 -1.5806079 -47.709557 -1.5723865 -47.503555 -12.366009 33.343559
37657500000 -12.076182 30.72172 -1.5833426 -48.230621 -1.6142077 -48.114498 -12.320586 32.676544
37685000000 -11.911897 30.850626 -1.5879161 -48.64793 -1.6093251 -48.556278 -11.887087 32.970982
37712500000 -12.129456 29.653578 -1.6145662 -49.311131 -1.6268893 -49.198238 -12.127277 33.126759
37740000000 -12.090523 29.408173 -1.6263295 -49.8619 -1.6363993 -49.994774 -12.181588 31.113579
37767500000 -11.809501 28.923635 -1.5667392 -50.403656 -1.6047409 -50.160736 -11.861876 30.983788
37795000000 -11.887981 27.956581 -1.6342789 -50.515862 -1.5809327 -50.750542 -12.010201 31.04434
37822500000 -12.001076 25.525862 -1.6046727 -51.368176 -1.5674934 -51.22398 -12.198357 29.932863
37850000000 -11.893631 28.312422 -1.5821686 -51.878231 -1.5760963 -51.900978 -11.915326 29.341867
37877500000 -11.6642 27.196936 -1.5909451 -52.410561 -1.6071703 -52.391453 -11.88575 29.759981
37905000000 -11.947523 23.51895 -1.6373892 -52.766403 -1.6230241 -52.941322 -12.225103 27.613907
37932500000 -11.941571 26.023037 -1.5859599 -53.44236 -1.5855206 -53.619576 -11.998079 26.963772
37960000000 -11.724771 24.09166 -1.6017786 -54.018265 -1.6083188 -53.868336 -11.85066 28.455475
37987500000 -11.854512 22.488256 -1.6062485 -54.454903 -1.6430485 -54.403835 -12.105417 26.339848
38015000000 -11.820198 23.677954 -1.5811689 -54.959595 -1.6071246 -54.934677 -11.990187 25.593164
38042500000 -11.649506 23.50087 -1.5973055 -55.407196 -1.6113749 -55.661957 -11.850229 26.880543
38070000000 -11.688172 21.479876 -1.6023039 -56.142853 -1.6182755 -56.177708 -11.869389 25.298639
38097500000 -11.844898 20.483334 -1.6197129 -56.678818 -1.6385826 -56.532024 -11.874787 24.322763
38125000000 -11.724696 21.728321 -1.5845839 -57.250675 -1.6204798 -57.207817 -11.936124 25.126293
38152500000 -11.751184 20.388855 -1.6246175 -57.548683 -1.6517298 -57.58672 -11.998778 25.099627
38180000000 -11.621055 18.412552 -1.6064448 -58.007156 -1.6464051 -58.225746 -11.975039 22.252953
38207500000 -11.79947 19.412617 -1.565968 -58.855495 -1.6219801 -58.780521 -11.784223 22.443785
38235000000 -11.620046 19.361483 -1.6197971 -59.227924 -1.6143826 -59.330917 -11.962117 23.887747
38262500000 -11.550059 17.086302 -1.6078825 -59.925629 -1.6514062 -60.097031 -11.981421 22.177847
38290000000 -11.904314 17.215412 -1.5970278 -60.460075 -1.575633 -60.570187 -11.893016 20.277838
38317500000 -11.640414 18.488745 -1.5800838 -61.054638 -1.6229967 -60.989887 -11.932655 22.006536
38345000000 -11.627154 14.497601 -1.6279138 -61.33392 -1.6333374 -61.795639 -12.024941 20.288845
38372500000 -11.649646 14.957592 -1.5987073 -61.966381 -1.6358703 -61.940384 -11.817052 18.502199
38400000000 -11.883142 16.008371 -1.6082588 -62.421406 -1.5911158 -62.782185 -11.924996 20.154371
38427500000 -11.402832 14.459831 -1.6110939 -63.156601 -1.6164727 -63.150673 -11.880845 18.057665
38455000000 -11.66843 12.425877 -1.6093292 -63.578312 -1.6343514 -63.579514 -11.93343 17.305195
38482500000 -11.860103 13.862069 -1.5924258 -64.391327 -1.5762459 -64.064735 -11.870615 18.864357
38510000000 -11.387094 13.058458 -1.6069394 -64.839874 -1.5966132 -64.735573 -11.919494 17.785244
38537500000 -11.39134 10.250673 -1.6175448 -65.209999 -1.6065744 -65.328621 -11.822257 15.32198
38565000000 -11.742821 11.965159 -1.5663717 -65.544121 -1.6005293 -65.869095 -11.886112 17.408321
38592500000 -11.558588 11.475146 -1.5858264 -66.450638 -1.5912565 -66.442314 -12.084984 16.559153
38620000000 -11.554972 9.8766556 -1.6664444 -66.905342 -1.616271 -67.152664 -11.838079 13.749923
38647500000 -11.879486 7.3457627 -1.6003239 -67.351143 -1.5849524 -67.335373 -11.747227 15.0418
38675000000 -11.657554 10.034195 -1.6046255 -68.340637 -1.5901525 -68.083244 -12.085562 14.704414
38702500000 -11.394126 9.0716877 -1.6015043 -68.651909 -1.6272037 -68.533615 -11.959998 12.837598
38730000000 -11.623112 7.1909609 -1.5913801 -68.872726 -1.5950077 -69.106438 -11.910195 13.174968
38757500000 -11.886605 6.821959 -1.5845164 -69.424873 -1.5786471 -69.586868 -11.993992 12.460232
38785000000 -11.485908 8.2737312 -1.6140305 -70.252762 -1.6144979 -70.046921 -11.850342 11.032673
38812500000 -11.413297 5.0663233 -1.6252191 -70.777817 -1.5912423 -70.611969 -11.76753 11.005931
38840000000 -11.955486 5.3441424 -1.5617034 -70.939217 -1.5697218 -71.123413 -12.169171 11.360417
38867500000 -11.708665 6.2524114 -1.57017 -71.778526 -1.6082746 -71.895767 -11.891086 11.11638
38895000000 -11.59283 4.675087 -1.5918373 -72.219215 -1.621904 -72.327209 -11.686639 10.901403
38922500000 -11.829208 1.300472 -1.5648522 -72.86097 -1.5648961 -72.916786 -12.025803 9.0492582
38950000000 -11.661681 4.5023293 -1.5449213 -73.586441 -1.5822543 -73.341782 -12.210777 9.387702
38977500000 -11.523568 3.9676578 -1.6257036 -73.737762 -1.5921133 -74.203644 -11.767703 8.5747442
39005000000 -11.731715 1.2717239 -1.5854632 -74.148354 -1.5500371 -74.197975 -12.068645 8.7465811
39032500000 -12.073673 1.334632 -1.5661775 -74.832825 -1.548035 -75.123657 -12.172908 6.9244499
39060000000 -11.571292 2.6491175 -1.5771518 -75.582092 -1.5695677 -75.753845 -11.963784 7.8892221
39087500000 -11.668045 -0.88994533 -1.5617713 -75.855507 -1.6033095 -76.163651 -11.97712 6.6028628
39115000000 -12.023189 -0.38041538 -1.551309 -76.508423 -1.5666468 -76.63105 -12.237714 4.2048507
39142500000 -11.823942 1.6045157 -1.5419183 -77.336617 -1.5537531 -77.442802 -12.082088 6.2482915
39170000000 -11.354974 -1.5176282 -1.6083214 -77.353256 -1.6162421 -77.586952 -11.888152 5.4131017
39197500000 -12.014003 -5.0351496 -1.522839 -78.290276 -1.5668591 -78.386734 -12.291784 3.3150494
39225000000 -11.973934 -1.7470753 -1.5526389 -78.928459 -1.5503796 -78.721397 -12.145988 2.678098
39252500000 -11.647652 -1.9818009 -1.582248 -79.469612 -1.573203 -79.204514 -11.983906 4.1509404
39280000000 -11.977066 -4.7651677 -1.5643138 -79.918251 -1.5690557 -79.84507 -12.206648 1.8153591
39307500000 -11.989882 -3.7908819 -1.4873743 -80.672829 -1.5582675 -80.787354 -12.270408 1.0971451
39335000000 -11.615047 -1.9290552 -1.5537672 -81.020035 -1.5930785 -80.927864 -12.043624 2.8981178
39362500000 -11.721453 -6.0293484 -1.5338817 -81.322693 -1.5975659 -81.18029 -12.160279 0.60065365
39390000000 -12.150784 -7.0888362 -1.5610652 -82.321281 -1.5360363 -82.189018 -12.11686 -1.1623385
39417500000 -11.857671 -4.3391733 -1.583883 -82.819794 -1.5618837 -83.004669 -12.023822 1.1386379
39445000000 -11.722212 -6.9102154 -1.5411106 -82.927795 -1.5400635 -83.037155 -12.197411 0.10046995
39472500000 -12.082631 -9.6485853 -1.5379417 -83.831932 -1.5572571 -83.937828 -12.367425 -1.4696633
39500000000 -12.061174 -6.7681265 -1.5333828 -84.383018 -1.514339 -84.463135 -12.217248 -0.39112672
39527500000 -11.792495 -7.0421505 -1.5712147 -84.7416 -1.5774957 -84.760292 -12.33914 -1.8230791
39555000000 -11.972842 -11.069716 -1.5467877 -85.341011 -1.5254778 -85.213631 -12.604598 -4.9561834
39582500000 -12.066079 -9.4855156 -1.5162569 -86.028671 -1.5364444 -86.1222 -12.232183 -4.5198641
39610000000 -11.866816 -8.3389349 -1.5425371 -86.56765 -1.5443088 -86.520432 -12.419988 -3.103497
39637500000 -11.891464 -11.052064 -1.5565416 -86.997345 -1.5694332 -86.881584 -12.430277 -4.9638286
39665000000 -12.069009 -11.58575 -1.4748996 -87.976662 -1.5252188 -87.923698 -12.254766 -6.571497
39692500000 -12.236272 -8.6599445 -1.5250409 -88.120667 -1.5430293 -88.302834 -12.504184 -3.8301506
39720000000 -11.847517 -12.401959 -1.5456251 -88.81179 -1.549799 -89.048622 -12.69179 -7.003274
39747500000 -12.148299 -14.387452 -1.4744308 -88.845078 -1.5060251 -89.289917 -12.269421 -7.5051374
39775000000 -12.320276 -12.140642 -1.502076 -89.967194 -1.4980564 -89.900902 -12.602659 -5.0101113
39802500000 -12.235023 -13.83034 -1.5124683 -90.625618 -1.5375035 -90.459877 -12.63629 -7.4356804
39830000000 -11.813677 -16.570076 -1.5096618 -90.686653 -1.5351603 -90.952675 -12.383714 -9.991437
39857500000 -12.364163 -13.41486 -1.5437721 -91.718979 -1.4778898 -91.533241 -12.546614 -8.5226078
39885000000 -12.303229 -13.343547 -1.5515443 -92.253311 -1.5418655 -91.824127 -12.922058 -7.90167
39912500000 -12.021029 -15.699324 -1.5179346 -92.597527 -1.5295542 -92.862305 -12.66016 -12.601626
39940000000 -12.372721 -15.983336 -1.5135407 -93.168297 -1.4902245 -93.292267 -12.559472 -10.487884
39967500000 -12.409961 -14.537154 -1.5183399 -93.742043 -1.512212 -93.616241 -12.925689 -8.3002777
39995000000 -12.17718 -16.866848 -1.5491724 -94.159081 -1.478752 -94.266335 -12.60245 -13.016799
40022500000 -12.135502 -18.613081 -1.4751807 -94.482613 -1.4734963 -94.592262 -12.527092 -11.633685
40050000000 -12.63426 -17.220816 -1.5364078 -95.552742 -1.4963927 -95.463921 -12.845742 -10.513105
40077500000 -12.486024 -18.394396 -1.5372003 -96.19426 -1.5057966 -95.893471 -12.749466 -14.016817
40105000000 -12.141532 -19.259354 -1.4966882 -96.464836 -1.4727103 -96.501778 -12.613189 -13.652447
40132500000 -12.562945 -19.298492 -1.4731591 -96.958008 -1.5076269 -97.013329 -13.061951 -12.803475
40160000000 -12.613408 -18.902681 -1.5284929 -97.864082 -1.474221 -97.52179 -12.930808 -15.010328
40187500000 -12.168768 -20.659773 -1.5295229 -98.179916 -1.4930813 -97.934105 -12.664539 -16.43631
40215000000 -12.839282 -22.212618 -1.4223458 -98.603928 -1.4646664 -98.681183 -12.945195 -14.335171
40242500000 -12.802202 -21.240175 -1.5232991 -99.168198 -1.5258081 -99.340782 -13.251333 -14.586207
40270000000 -12.586663 -20.57309 -1.4715953 -99.766953 -1.4626272 -99.798904 -12.923147 -18.032248
40297500000 -12.701896 -23.563148 -1.4428556 -100.17777 -1.5063759 -100.3472 -13.054474 -16.617376
40325000000 -12.756239 -24.405567 -1.4946226 -101.07604 -1.4766269 -101.00481 -13.454038 -16.218073
40352500000 -12.571127 -22.739641 -1.4709607 -101.34342 -1.4494379 -101.49574 -13.125947 -19.586617
40380000000 -12.829272 -23.931099 -1.4686763 -102.1314 -1.4683529 -101.72372 -13.016334 -18.356121
40407500000 -12.844278 -24.958857 -1.5162103 -102.83936 -1.4646168 -102.61241 -13.506686 -18.93609
40435000000 -12.731679 -25.961946 -1.4900688 -103.29574 -1.4829006 -103.12585 -13.284575 -19.825359
40462500000 -12.757221 -23.854467 -1.4803479 -103.72452 -1.4503806 -103.62148 -13.017698 -20.289879
40490000000 -12.844045 -28.936438 -1.4452626 -104.26395 -1.4822086 -104.23421 -13.501294 -19.911068
40517500000 -12.782419 -27.067596 -1.4784402 -104.96424 -1.4862217 -104.90997 -13.382381 -22.204527
40545000000 -12.994632 -27.529068 -1.4498914 -105.21017 -1.4670448 -105.32977 -13.130205 -21.867926
40572500000 -13.058902 -28.668425 -1.4719825 -105.86682 -1.4727401 -105.89677 -13.494373 -20.80018
40600000000 -13.098636 -29.283182 -1.4271139 -106.55999 -1.4567653 -106.78359 -13.775879 -22.554306
40627500000 -13.048894 -27.789474 -1.4214828 -106.80225 -1.4470394 -107.11717 -13.436353 -23.526108
40655000000 -13.230282 -29.937683 -1.4682389 -107.33591 -1.4426298 -107.2153 -13.477435 -22.940138
40682500000 -13.0408 -30.727953 -1.4499919 -108.42695 -1.4284153 -108.22308 -13.802517 -23.727718
40710000000 -13.305068 -29.983391 -1.4305804 -108.6452 -1.4331955 -108.63279 -13.489594 -25.346214
40737500000 -13.319835 -30.961121 -1.4322201 -109.07782 -1.4247425 -109.14929 -13.721574 -22.207029
40765000000 -13.245168 -33.594154 -1.3996704 -109.7906 -1.4607439 -109.90139 -13.964144 -25.282507
40792500000 -13.239837 -33.139729 -1.4431447 -110.33393 -1.4278568 -110.31857 -13.803699 -27.648396
40820000000 -13.475618 -32.38792 -1.4529591 -110.94849 -1.4103342 -110.72391 -13.582805 -26.01228
40847500000 -13.179164 -34.956299 -1.4443885 -111.29809 -1.4052882 -111.3265 -14.251697 -26.317312
40875000000 -13.358591 -34.455433 -1.4096247 -112.0586 -1.4161954 -112.07809 -13.90964 -28.879536
40902500000 -13.85755 -35.076904 -1.4091302 -112.77975 -1.4127257 -112.50284 -13.920592 -27.771544
40930000000 -13.592314 -35.47953 -1.4488322 -113.24104 -1.4309597 -113.10596 -14.174836 -27.968264
40957500000 -13.282129 -36.636814 -1.4164745 -113.64519 -1.4535491 -113.71861 -14.269089 -30.106966
40985000000 -14.057631 -36.617661 -1.3706616 -114.35693 -1.388883 -114.25809 -13.95286 -29.331934
41012500000 -13.852529 -36.535236 -1.424077 -114.81934 -1.3915663 -114.90601 -14.478002 -30.907375
41040000000 -13.54829 -36.134644 -1.3983861 -115.61094 -1.42775 -115.46703 -14.431851 -30.036142
41067500000 -13.728221 -39.866013 -1.3452691 -116.0846 -1.3946621 -115.978 -14.080193 -29.584671
41095000000 -14.327293 -37.010342 -1.4110675 -116.47456 -1.4147 -116.63673 -14.497916 -31.254478
41122500000 -13.628663 -38.009205 -1.4322807 -117.05602 -1.3957047 -116.93559 -14.611213 -32.306858
41150000000 -13.972067 -40.489872 -1.3605999 -117.43382 -1.4076849 -117.68903 -14.226262 -32.121586
41177500000 -14.382634 -41.545956 -1.4058701 -118.21499 -1.4048189 -118.58044 -14.810911 -31.474413
41205000000 -14.100689 -37.794415 -1.4269283 -118.92876 -1.3478749 -119.01923 -14.687966 -32.939495
41232500000 -13.845645 -40.671661 -1.3839891 -119.36396 -1.3850269 -119.53644 -14.587093 -33.328403
41260000000 -14.531429 -45.154369 -1.3647629 -119.88103 -1.3902237 -120.06158 -14.765959 -32.707317
41287500000 -14.498105 -40.681835 -1.3554784 -120.48766 -1.3861374 -120.62363 -14.954207 -33.36927
41315000000 -13.863188 -41.424435 -1.3806111 -120.82147 -1.368124 -121.06942 -14.734424 -33.734955
41342500000 -14.524145 -46.097435 -1.3903124 -121.66621 -1.3392011 -121.7068 -14.89561 -34.195644
41370000000 -14.906182 -43.558678 -1.3911546 -122.14313 -1.3843927 -122.09823 -15.170399 -35.129303
41397500000 -14.502643 -42.40649 -1.4122179 -122.58717 -1.3768849 -122.56986 -15.022141 -35.222
41425000000 -14.388071 -46.348331 -1.3253955 -123.47693 -1.3160706 -123.20977 -15.114533 -35.760197
41452500000 -15.109197 -47.385368 -1.3388649 -123.90283 -1.3433065 -124.05651 -15.57357 -36.188442
41480000000 -14.942801 -44.219769 -1.3551739 -124.34787 -1.3860123 -124.52795 -15.446414 -38.968281
41507500000 -14.893976 -47.181026 -1.3660288 -125.08664 -1.3779222 -124.93925 -15.201003 -37.80769
41535000000 -14.877757 -52.2911 -1.3455114 -125.61134 -1.3216627 -125.66747 -15.818616 -39.067646
41562500000 -15.651546 -44.554428 -1.4071369 -126.02487 -1.3603691 -126.15501 -15.49661 -39.746471
41590000000 -15.04511 -47.965412 -1.357537 -126.7124 -1.3467265 -126.82372 -15.510356 -38.823769
41617500000 -15.136136 -50.522285 -1.3327236 -127.24189 -1.3277849 -127.40143 -16.06505 -40.699471
41645000000 -15.757023 -51.694538 -1.3469737 -127.83692 -1.4151177 -128.09178 -15.830063 -41.366135
41672500000 -15.383721 -46.826382 -1.3307453 -128.4278 -1.328794 -128.20871 -15.583001 -39.785992
41700000000 -15.327759 -52.330948 -1.3123801 -129.30482 -1.3132647 -129.19211 -16.208368 -41.629341
41727500000 -16.035049 -55.500851 -1.3392838 -129.56833 -1.3454815 -130.14351 -16.593317 -41.204182
41755000000 -16.218235 -48.432446 -1.3092561 -130.20314 -1.3503015 -130.37555 -16.081793 -40.794571
41782500000 -15.240558 -51.784542 -1.3283672 -130.69395 -1.3133878 -130.8172 -16.233715 -42.69096
41810000000 -16.064133 -57.155144 -1.3232822 -131.68713 -1.3406396 -131.44156 -16.74901 -43.243179
41837500000 -16.271513 -49.933903 -1.307588 -131.91693 -1.3256909 -131.55843 -16.597271 -42.74921
41865000000 -15.484292 -52.48951 -1.3323982 -132.25594 -1.3174633 -132.21768 -16.357168 -42.650887
41892500000 -16.016474 -58.349686 -1.3678501 -133.22487 -1.3533773 -133.20593 -17.067564 -43.942814
41920000000 -17.092112 -54.553303 -1.3158073 -133.61655 -1.2984819 -133.67201 -17.038284 -43.50024
41947500000 -16.012527 -51.124989 -1.3610238 -133.89172 -1.3149354 -134.56213 -16.820107 -44.080448
41975000000 -16.163397 -57.168804 -1.2902023 -135.01251 -1.3324896 -134.73947 -16.982086 -46.400017
42002500000 -16.93862 -58.769188 -1.316147 -135.64905 -1.2982129 -135.50029 -17.227079 -43.382179
42030000000 -17.045715 -53.186584 -1.2999505 -136.04742 -1.3339925 -136.01364 -17.529617 -44.018356
42057500000 -16.423571 -57.553341 -1.3162413 -136.31413 -1.3027861 -136.33589 -17.550728 -45.656075
42085000000 -17.231619 -61.482571 -1.2654983 -137.39137 -1.2882422 -137.34344 -18.327547 -48.345329
42112500000 -17.12492 -56.609573 -1.3026872 -137.91138 -1.3020632 -137.5518 -17.53174 -44.989414
42140000000 -16.887129 -54.412109 -1.2891064 -138.38112 -1.3110478 -138.19391 -17.931662 -48.361683
42167500000 -17.247641 -61.826969 -1.2968026 -138.81361 -1.3147817 -138.7285 -18.39341 -48.105881
42195000000 -17.934181 -58.696186 -1.3304204 -139.46249 -1.2988827 -139.54814 -17.885178 -46.438335
42222500000 -17.564734 -53.891632 -1.3102227 -140.00131 -1.3449409 -139.98026 -18.174442 -47.707378
42250000000 -17.644444 -63.522667 -1.2869956 -140.44853 -1.3022759 -140.79329 -18.5868 -49.821629
42277500000 -18.276247 -61.98764 -1.271436 -141.48888 -1.2904336 -141.31602 -18.381689 -48.531162
42305000000 -18.436317 -55.843792 -1.2983543 -141.84738 -1.3423269 -141.78458 -18.051132 -44.169548
42332500000 -18.166819 -59.840748 -1.3261162 -141.97256 -1.3131324 -142.41756 -19.106768 -49.233929
42360000000 -18.850002 -63.84214 -1.3082215 -142.80542 -1.2750543 -143.0582 -19.299982 -51.501995
42387500000 -19.165558 -59.165531 -1.2721902 -143.50192 -1.3229501 -143.82539 -19.109247 -46.065868
42415000000 -18.641848 -61.38382 -1.2738441 -144.03641 -1.2943294 -143.96797 -19.192741 -48.962597
42442500000 -18.564686 -68.76461 -1.2839042 -144.70435 -1.3484558 -144.66838 -19.558125 -51.751701
42470000000 -19.615324 -61.912952 -1.3114659 -145.64613 -1.307568 -145.59969 -19.263538 -48.548347
42497500000 -19.307085 -61.306686 -1.2708157 -145.82541 -1.3859675 -145.96503 -19.430767 -50.872036
42525000000 -18.744026 -63.933521 -1.2801679 -146.58739 -1.2664915 -146.76228 -20.317684 -51.001377
42552500000 -20.016582 -63.047688 -1.2883151 -147.14911 -1.3052697 -147.21106 -20.184416 -49.156471
42580000000 -20.414228 -61.762718 -1.2423449 -147.58449 -1.3725158 -147.40916 -20.219837 -49.654236
42607500000 -19.380278 -68.120636 -1.2455732 -148.28276 -1.3129765 -148.15738 -20.387167 -48.165218
42635000000 -20.368679 -64.24192 -1.3281957 -148.94542 -1.2126149 -148.98952 -20.622358 -55.361607
42662500000 -20.800409 -66.167679 -1.2012784 -149.58405 -1.2596313 -149.24185 -20.638807 -44.488937
42690000000 -20.144444 -66.354744 -1.3542475 -150.33827 -1.3042752 -150.08331 -21.403839 -51.112381
42717500000 -20.401369 -70.932793 -1.2637446 -150.43916 -1.3034661 -150.47186 -21.225344 -49.50761
42745000000 -21.644304 -64.52565 -1.2533553 -150.64594 -1.3002682 -150.7993 -21.28252 -44.609291
42772500000 -20.645727 -64.249283 -1.3043706 -151.96529 -1.2656317 -151.46844 -21.653746 -53.541481
42800000000 -20.751379 -66.402534 -1.2810868 -152.24913 -1.2689109 -152.06018 -22.584831 -53.78928
42827500000 -22.432472 -67.03965 -1.253916 -152.91548 -1.3220512 -152.55434 -21.928598 -44.240555
42855000000 -23.166161 -64.249107 -1.2727183 -153.34727 -1.2789508 -153.63028 -22.086803 -50.574013
42882500000 -20.997488 -69.307846 -1.2328495 -153.98981 -1.2099739 -154.03477 -22.458689 -55.403553
42910000000 -22.859558 -68.339607 -1.2289823 -154.70187 -1.304013 -154.61659 -23.146076 -51.118313
42937500000 -22.686171 -72.900253 -1.3361387 -155.10895 -1.306689 -155.31708 -23.486197 -42.992847
42965000000 -22.61355 -67.286827 -1.2516673 -155.77539 -1.3132952 -155.5123 -23.703659 -57.51712
42992500000 -22.909914 -66.946457 -1.2660519 -156.38126 -1.3695171 -156.16679 -22.749466 -49.068157
43020000000 -25.719738 -72.699524 -1.2394269 -157.0011 -1.310745 -157.00128 -22.708241 -42.135761
43047500000 -23.445919 -67.945656 -1.3035202 -157.22935 -1.323225 -157.19537 -23.670544 -46.493092
43075000000 -23.188156 -61.170826 -1.2485788 -158.23839 -1.2644086 -158.12691 -23.980577 -55.534508
43102500000 -25.614676 -70.345497 -1.316242 -158.82394 -1.2679472 -158.49493 -24.608332 -38.93441
43130000000 -24.149017 -68.493713 -1.2760161 -159.1787 -1.2793161 -159.36414 -25.942669 -50.614548
43157500000 -24.453892 -62.679138 -1.3141328 -159.4865 -1.25251 -159.96631 -24.466784 -51.902809
43185000000 -25.223526 -65.352013 -1.2397248 -160.44568 -1.2502214 -160.13684 -25.454493 -37.016392
43212500000 -24.627525 -73.075943 -1.3375741 -160.66589 -1.3358862 -161.14536 -27.35321 -46.723663
43240000000 -25.112637 -68.777412 -1.2650019 -161.21872 -1.3197972 -161.40845 -26.585022 -40.817291
43267500000 -27.162617 -66.635437 -1.3091631 -161.87788 -1.3103746 -161.8676 -26.293226 -44.262356
43295000000 -27.897346 -73.963051 -1.2667837 -162.77736 -1.2915641 -162.68126 -27.236506 -37.255207
43322500000 -27.212648 -58.971828 -1.3716786 -163.01027 -1.3116714 -163.54301 -27.37326 -43.500465
43350000000 -30.195236 -51.135124 -1.365881 -163.66255 -1.2983134 -163.68842 -25.017145 -41.123634
43377500000 -27.630424 -73.882263 -1.329644 -164.12227 -1.2699529 -164.68172 -28.690529 -27.397305
43405000000 -27.68409 -60.684414 -1.3029063 -164.88174 -1.2862837 -165.4171 -27.91349 -30.681826
43432500000 -32.979752 -52.556652 -1.2833104 -165.79341 -1.2979354 -165.48473 -26.429361 -34.596478
43460000000 -29.942707 -67.784767 -1.3117064 -166.02812 -1.3075106 -166.11995 -27.081907 -10.2036
43487500000 -29.326242 -64.909256 -1.2483575 -167.11664 -1.3052285 -166.64319 -28.440987 -22.979542
43515000000 -33.368565 -27.294458 -1.3260007 -167.26164 -1.2643957 -167.17532 -28.609386 -33.523296
43542500000 -32.604343 -32.861897 -1.344799 -167.67816 -1.3690176 -168.03397 -28.79763 -12.139771
43570000000 -31.47945 -57.668068 -1.277429 -168.67368 -1.3125885 -168.55023 -29.250725 -11.839926
43597500000 -33.62331 -23.165623 -1.2471493 -169.31825 -1.32359 -169.00868 -29.893332 -17.002806
43625000000 -34.865513 -16.828272 -1.321032 -169.5087 -1.3405219 -169.62671 -29.951832 -12.257149
43652500000 -33.347614 -42.433002 -1.334952 -169.95319 -1.3385729 -170.24908 -31.209785 5.2939057
43680000000 -34.098717 -15.503217 -1.3130826 -170.98904 -1.227263 -171.11517 -29.890308 -10.297225
43707500000 -32.132797 15.154631 -1.2686647 -171.32974 -1.3619086 -171.06903 -30.481527 -2.8743501
43735000000 -30.925657 -13.352564 -1.3184341 -171.77551 -1.3663923 -172.02927 -29.120972 20.517159
43762500000 -31.670105 -18.983803 -1.299793 -172.59158 -1.3182764 -172.65724 -32.30254 10.018227
43790000000 -34.952309 1.2337244 -1.3185997 -172.95227 -1.2819425 -173.73384 -28.883024 13.142653
43817500000 -32.072369 13.357081 -1.3313484 -173.80486 -1.3574549 -173.93248 -30.824015 20.851477
43845000000 -31.51211 -1.424885 -1.2816911 -174.81754 -1.2355487 -174.52496 -29.363241 18.485092
43872500000 -32.641678 50.907917 -1.3081001 -175.20058 -1.3115904 -174.83333 -28.622826 17.86128
43900000000 -30.287121 25.457521 -1.3601598 -175.08478 -1.3635712 -175.36743 -28.232216 32.48439
43927500000 -31.454939 6.3981004 -1.3133554 -175.99625 -1.3105602 -176.07048 -29.813629 41.054306
43955000000 -29.36025 61.88485 -1.3179703 -176.60478 -1.3424497 -176.47989 -26.736956 33.489994
43982500000 -28.438461 48.48093 -1.3900629 -176.7404 -1.3391521 -177.34814 -27.704716 33.206528
44010000000 -28.638563 32.119041 -1.3532088 -177.76456 -1.3251885 -178.05707 -28.107374 34.001724
44037500000 -30.039268 27.801802 -1.3593034 -178.52663 -1.3269267 -178.39641 -27.124722 40.021057
44065000000 -27.866385 61.144169 -1.4042323 -179.13184 -1.2978171 -178.91444 -25.508986 33.156124
44092500000 -27.603823 36.25124 -1.3788719 -179.47885 -1.3447803 -179.80547 -27.076679 34.160549
44120000000 -27.943106 37.391586 -1.2797457 179.58739 -1.3791542 179.8154 -24.840542 48.188675
44147500000 -27.148079 65.247597 -1.31516 179.0598 -1.3525206 179.06009 -24.278542 40.101307
44175000000 -25.22509 50.518703 -1.2771654 178.94958 -1.3444043 178.74295 -25.720888 45.121948
44202500000 -26.164042 37.442909 -1.3228626 177.83582 -1.3558675 178.10951 -25.650515 46.840748
44230000000 -26.811739 65.422951 -1.3347179 177.69197 -1.2418373 177.26456 -23.620438 38.149971
44257500000 -25.699175 58.217438 -1.4307715 176.68141 -1.3322423 176.9157 -24.18026 40.749065
44285000000 -24.198893 42.424168 -1.2967101 176.08508 -1.4495311 176.39377 -24.226089 49.364464
44312500000 -25.786585 44.906662 -1.3192394 176.16942 -1.3614651 175.89603 -22.237326 46.657372
44340000000 -23.973543 59.124889 -1.3828596 175.06129 -1.3734863 175.2977 -22.979506 45.962524
44367500000 -22.326637 42.887627 -1.394165 174.87175 -1.33246 174.62601 -24.383509 55.27486
44395000000 -24.163893 44.163952 -1.3530228 174.19859 -1.384616 173.985 -23.258163 48.562576
44422500000 -24.129456 59.891422 -1.4065113 173.4306 -1.3696492 173.43135 -22.121712 47.741375
44450000000 -21.747145 50.339706 -1.3539982 172.80283 -1.3756348 172.67232 -23.04385 49.036686
44477500000 -22.112152 44.128521 -1.3977207 172.42065 -1.3872774 172.2296 -22.004351 50.446468
44505000000 -23.281919 54.804401 -1.3720539 171.84085 -1.4030628 171.94667 -21.301964 45.502625
44532500000 -21.499817 54.249695 -1.3668762 171.05186 -1.3701246 170.97585 -22.070353 49.084557
44560000000 -20.876755 40.077766 -1.3770901 170.40288 -1.3867483 170.56664 -21.52397 54.17445
44587500000 -23.074333 46.19112 -1.3822051 170.30498 -1.4245944 170.36526 -19.99074 50.776871
44615000000 -21.469391 56.864601 -1.4090127 169.59714 -1.3714279 169.60957 -20.716089 49.838947
44642500000 -19.580568 45.462791 -1.3972304 168.59393 -1.3867501 168.63377 -20.68973 50.881001
44670000000 -21.62993 47.54409 -1.4154154 168.44032 -1.3614435 168.38838 -20.248032 48.294586
44697500000 -20.640347 58.221386 -1.4147947 167.78616 -1.4281949 167.14941 -20.305145 46.369705
44725000000 -18.868595 50.335167 -1.4157811 167.01402 -1.4351773 167.27821 -20.598986 46.178444
44752500000 -20.461645 46.497795 -1.4346118 166.99635 -1.4696076 166.63548 -19.057718 51.651932
44780000000 -21.248171 54.327633 -1.388732 165.86166 -1.3893831 165.56688 -19.186548 48.605133
44807500000 -18.894398 54.992603 -1.3941058 165.07967 -1.4251115 165.32408 -20.083982 44.222019
44835000000 -18.740597 44.489792 -1.4335293 165.23483 -1.3724507 164.97823 -18.978874 53.162624
44862500000 -20.273739 47.749828 -1.4624311 164.28947 -1.4123781 164.29277 -18.509855 47.841724
44890000000 -18.487572 49.6819 -1.4428037 163.29295 -1.4435605 163.18163 -19.600315 46.233471
44917500000 -18.241161 45.640282 -1.4625267 163.37741 -1.4243113 163.26346 -18.811369 48.899014
44945000000 -19.083111 41.965248 -1.4788951 162.49077 -1.5157087 162.49753 -18.367849 49.180252
44972500000 -19.41357 49.258377 -1.4178865 161.5945 -1.4881423 161.79858 -18.558157 40.58601
45000000000 -17.715878 46.25713 -1.3837523 161.05685 -1.4250655 161.13702 -18.709164 47.729961
