!Keysight Technologies,N5247B,MY61255062,A.19.80.06
!Date: Thursday, May 21, 2026 11:31:58
!Correction: S11(Cdelta 2-Port  ) 
!S21(Cdelta 2-Port  ) 
!S12(Cdelta 2-Port  ) 
!S22(Cdelta 2-Port  ) 
!S2P File: Measurements: S11, S21, S12, S22:
# Hz S  dB   R 50
1000000000 -25.41839 -16.8487 -0.49286339 -21.25856 -0.4923957 -21.25275 -25.649136 -16.764584
1027500000 -25.419788 -17.502865 -0.49624139 -21.828463 -0.49677739 -21.833412 -25.6425 -17.363415
1055000000 -25.462423 -18.058876 -0.5016188 -22.406271 -0.50331861 -22.418678 -25.684628 -18.720055
1082500000 -25.414082 -18.325352 -0.50707185 -22.948513 -0.50897342 -22.952448 -25.773594 -19.0217
1110000000 -25.410294 -18.99851 -0.50980121 -23.513264 -0.51195943 -23.507586 -25.798985 -19.249386
1137500000 -25.421722 -19.472406 -0.51295853 -24.061472 -0.51508474 -24.066141 -25.808338 -19.413481
1165000000 -25.352554 -19.719893 -0.51426059 -24.618919 -0.51636791 -24.619555 -25.778954 -19.850149
1192500000 -25.260672 -20.420675 -0.51636177 -25.169937 -0.51732254 -25.171829 -25.745504 -19.938524
1220000000 -25.182184 -21.384872 -0.51342666 -25.739725 -0.51572686 -25.739359 -25.66923 -20.742035
1247500000 -25.201981 -22.468777 -0.51662421 -26.319145 -0.51968431 -26.327194 -25.672071 -21.784014
1275000000 -25.231245 -23.004711 -0.51970005 -26.891703 -0.52126652 -26.891001 -25.646191 -22.317263
1302500000 -25.296833 -23.444653 -0.52962619 -27.459061 -0.52958995 -27.463545 -25.751955 -23.498657
1330000000 -25.234447 -23.515762 -0.52872205 -27.985594 -0.52978677 -27.988207 -25.685753 -23.503422
1357500000 -25.169912 -24.178293 -0.52832067 -28.558327 -0.52997714 -28.555357 -25.631107 -24.080021
1385000000 -25.111433 -25.070545 -0.52810669 -29.121103 -0.53039914 -29.117489 -25.602474 -24.546947
1412500000 -25.122089 -26.076561 -0.53178489 -29.689255 -0.53293431 -29.685959 -25.607891 -25.178646
1440000000 -25.099642 -26.477303 -0.53472102 -30.244682 -0.53453511 -30.235376 -25.548929 -25.548431
1467500000 -25.092661 -27.073599 -0.53541762 -30.801363 -0.53670388 -30.805813 -25.513792 -25.996458
1495000000 -25.090183 -27.789494 -0.53677213 -31.374399 -0.53733307 -31.370394 -25.475811 -26.772104
1522500000 -25.055504 -28.230154 -0.53761172 -31.917334 -0.53799492 -31.920521 -25.440395 -27.49509
1550000000 -25.016836 -28.816982 -0.5373047 -32.492764 -0.53759354 -32.49593 -25.381216 -28.080725
1577500000 -25.020428 -29.341417 -0.5412578 -33.071491 -0.54236805 -33.068958 -25.436167 -29.273422
1605000000 -24.969234 -29.940033 -0.54222405 -33.609901 -0.5423786 -33.62204 -25.402824 -29.591389
1632500000 -24.977936 -30.194092 -0.54573047 -34.174278 -0.54717308 -34.174831 -25.4149 -30.177221
1660000000 -24.903559 -30.858969 -0.54385442 -34.722076 -0.54538238 -34.725819 -25.355679 -30.274523
1687500000 -24.860147 -31.629507 -0.54330993 -35.292336 -0.54587901 -35.297539 -25.300179 -31.201803
1715000000 -24.836468 -32.309841 -0.5447576 -35.859348 -0.54670918 -35.864571 -25.280024 -32.082375
1742500000 -24.81835 -32.996063 -0.54576099 -36.423027 -0.54669452 -36.434258 -25.270166 -32.632122
1770000000 -24.787962 -33.76693 -0.54615551 -36.999275 -0.54923773 -37.00444 -25.25794 -33.42569
1797500000 -24.77107 -34.443451 -0.54907763 -37.561855 -0.549196 -37.575623 -25.255648 -34.036816
1825000000 -24.729504 -35.150101 -0.55005091 -38.120678 -0.55149937 -38.134159 -25.241749 -34.582664
1852500000 -24.730064 -36.083656 -0.55016136 -38.697445 -0.55191821 -38.699337 -25.228317 -35.305004
1880000000 -24.72509 -36.732613 -0.55137736 -39.259823 -0.55404449 -39.274696 -25.209724 -36.114349
1907500000 -24.716333 -37.157284 -0.5523926 -39.822151 -0.55501443 -39.832542 -25.192204 -36.984524
1935000000 -24.668489 -38.024147 -0.55356693 -40.402592 -0.55546421 -40.404701 -25.175507 -37.571869
1962500000 -24.663454 -39.03067 -0.55508739 -40.980003 -0.55859631 -40.980591 -25.184118 -38.52459
1990000000 -24.703653 -39.536922 -0.55961972 -41.548077 -0.56046844 -41.537941 -25.197956 -39.208778
2017500000 -24.687332 -40.220909 -0.56277102 -42.100407 -0.5626272 -42.105789 -25.229864 -39.834457
2045000000 -24.657579 -40.951862 -0.56307244 -42.666954 -0.56452966 -42.666531 -25.188753 -40.331142
2072500000 -24.67062 -41.512112 -0.56415027 -43.217094 -0.56596941 -43.228642 -25.169333 -40.971302
2100000000 -24.657608 -42.274788 -0.56576413 -43.779007 -0.56525731 -43.784805 -25.146994 -41.550591
2127500000 -24.636753 -42.950676 -0.56625837 -44.346432 -0.56823355 -44.3587 -25.139956 -42.31889
2155000000 -24.626413 -43.555626 -0.56763351 -44.917236 -0.5695284 -44.922817 -25.148865 -42.888557
2182500000 -24.625242 -44.267159 -0.56734556 -45.484989 -0.57102174 -45.486443 -25.141123 -43.524002
2210000000 -24.604746 -45.106552 -0.5690999 -46.049637 -0.57278877 -46.050076 -25.128611 -44.215919
2237500000 -24.59277 -45.770771 -0.57177085 -46.617218 -0.57343298 -46.619919 -25.14694 -45.084866
2265000000 -24.5886 -46.341118 -0.57335061 -47.176586 -0.57502133 -47.186714 -25.135145 -45.654484
2292500000 -24.568403 -47.148674 -0.57508135 -47.748493 -0.57740378 -47.747334 -25.146877 -46.198326
2320000000 -24.587587 -47.7328 -0.57820159 -48.323399 -0.57803482 -48.32098 -25.127008 -47.035606
2347500000 -24.572918 -48.583336 -0.57832134 -48.870041 -0.58135307 -48.875385 -25.15015 -47.554611
2375000000 -24.556244 -49.212181 -0.57944351 -49.434422 -0.58270538 -49.451931 -25.136744 -48.322853
2402500000 -24.56451 -49.848671 -0.58119917 -50.008984 -0.58464777 -50.007473 -25.103134 -48.967834
2430000000 -24.577396 -50.57526 -0.5829168 -50.566147 -0.58608854 -50.570324 -25.102516 -49.508526
2457500000 -24.583576 -51.32901 -0.58379376 -51.130814 -0.58677 -51.144222 -25.083897 -50.348473
2485000000 -24.55575 -51.93576 -0.5861662 -51.708473 -0.58721298 -51.704746 -25.110786 -51.209988
2512500000 -24.581238 -52.531693 -0.58867449 -52.272495 -0.59237409 -52.270542 -25.106907 -52.00634
2540000000 -24.612719 -53.255367 -0.59187007 -52.819927 -0.59361297 -52.825573 -25.118567 -52.712395
2567500000 -24.595179 -54.111382 -0.59320283 -53.388042 -0.59508938 -53.394955 -25.09935 -53.267609
2595000000 -24.617704 -54.919243 -0.59466547 -53.940899 -0.59669518 -53.945442 -25.110563 -53.690456
2622500000 -24.608215 -55.393677 -0.59499377 -54.491623 -0.59797299 -54.512234 -25.104715 -54.679676
2650000000 -24.58725 -56.176308 -0.59903544 -55.075722 -0.59948117 -55.072819 -25.114853 -55.344055
2677500000 -24.599115 -56.860493 -0.59994036 -55.624187 -0.60124856 -55.640179 -25.109123 -56.154793
2705000000 -24.619696 -57.09375 -0.60127234 -56.184418 -0.60436893 -56.202477 -25.131453 -56.861385
2732500000 -24.598185 -57.986847 -0.60198265 -56.748814 -0.60598707 -56.7631 -25.118141 -57.448223
2760000000 -24.563581 -58.822842 -0.60416305 -57.319073 -0.60599869 -57.324543 -25.163765 -57.950562
2787500000 -24.617268 -59.356079 -0.60505623 -57.874767 -0.60922939 -57.88509 -25.17272 -58.98391
2815000000 -24.624722 -60.053341 -0.60884517 -58.435928 -0.61093336 -58.440228 -25.15921 -59.658451
2842500000 -24.624992 -60.738655 -0.61060232 -58.99675 -0.61160529 -59.008537 -25.167442 -60.189022
2870000000 -24.632244 -61.297405 -0.61193758 -59.562462 -0.61326462 -59.564781 -25.170254 -60.972797
2897500000 -24.676773 -61.885689 -0.61350757 -60.124584 -0.61625463 -60.116253 -25.171877 -61.575653
2925000000 -24.620403 -62.585167 -0.61536598 -60.676834 -0.61677015 -60.682381 -25.182138 -62.183334
2952500000 -24.64493 -63.224651 -0.61733019 -61.246773 -0.61799657 -61.240875 -25.245499 -62.755745
2980000000 -24.654766 -63.873943 -0.61801744 -61.799633 -0.6188072 -61.797802 -25.209826 -63.72757
3007500000 -24.655998 -64.453873 -0.62057561 -62.355904 -0.62051916 -62.350105 -25.25276 -64.327042
3035000000 -24.64538 -65.130257 -0.61940664 -62.915188 -0.62224704 -62.915379 -25.271952 -64.777275
3062500000 -24.674969 -65.786255 -0.61983806 -63.475758 -0.62310624 -63.475235 -25.276119 -65.600609
3090000000 -24.681087 -66.308693 -0.62216842 -64.025131 -0.62382644 -64.031601 -25.280653 -66.229401
3117500000 -24.692436 -67.146553 -0.62466925 -64.590904 -0.62627614 -64.595673 -25.32933 -66.547501
3145000000 -24.668947 -67.678383 -0.62511915 -65.157402 -0.62675071 -65.155052 -25.338518 -67.346725
3172500000 -24.670118 -68.410103 -0.62729084 -65.715248 -0.62905729 -65.716682 -25.318842 -68.268814
3200000000 -24.698387 -69.100563 -0.62761563 -66.275787 -0.63031143 -66.267982 -25.386829 -68.655014
3227500000 -24.689491 -69.57962 -0.6281532 -66.831367 -0.63196445 -66.834717 -25.398266 -69.253601
3255000000 -24.684645 -70.280525 -0.63009208 -67.397133 -0.63331228 -67.39315 -25.401587 -70.183144
3282500000 -24.674124 -70.983192 -0.63099509 -67.947388 -0.6352945 -67.941338 -25.429661 -70.653374
3310000000 -24.68976 -71.497559 -0.63269448 -68.506096 -0.63549709 -68.511841 -25.478706 -71.414665
3337500000 -24.71586 -72.355042 -0.63236356 -69.072189 -0.63689125 -69.068893 -25.466183 -72.175514
3365000000 -24.745367 -73.066391 -0.6343475 -69.63562 -0.6384508 -69.636986 -25.497097 -72.511101
3392500000 -24.701431 -73.429688 -0.6365121 -70.176926 -0.63839537 -70.177734 -25.574944 -72.683769
3420000000 -24.742939 -74.311043 -0.63534665 -70.742142 -0.64000344 -70.740364 -25.570126 -73.840622
3447500000 -24.798294 -74.982033 -0.63864362 -71.305908 -0.63942873 -71.303673 -25.562117 -74.452888
3475000000 -24.756269 -75.39122 -0.63885415 -71.857002 -0.63916302 -71.857368 -25.605515 -74.530281
3502500000 -24.775156 -76.292175 -0.63915193 -72.413147 -0.64207155 -72.42028 -25.638531 -75.487877
3530000000 -24.799248 -76.840637 -0.63997167 -72.9869 -0.64329916 -72.984886 -25.619083 -76.417908
3557500000 -24.785038 -77.343468 -0.63918644 -73.535744 -0.64278591 -73.543892 -25.627775 -76.584465
3585000000 -24.786762 -78.183701 -0.63993359 -74.102142 -0.64283538 -74.104118 -25.700369 -76.904266
3612500000 -24.844799 -78.712006 -0.64152783 -74.668571 -0.64372754 -74.671791 -25.700237 -78.204811
3640000000 -24.85593 -79.180756 -0.64204907 -75.234299 -0.64612818 -75.236504 -25.682631 -78.346817
3667500000 -24.818054 -80.07872 -0.64403707 -75.787605 -0.6459161 -75.791977 -25.704227 -78.797485
3695000000 -24.886131 -80.603279 -0.64510065 -76.357925 -0.64712673 -76.355652 -25.75621 -79.943184
3722500000 -24.888956 -81.016228 -0.64631259 -76.909111 -0.64684767 -76.910355 -25.763483 -80.388885
3750000000 -24.905575 -81.690315 -0.64840686 -77.475166 -0.64863318 -77.467155 -25.811722 -80.733681
3777500000 -24.927475 -82.37339 -0.6487447 -78.0355 -0.65153545 -78.032204 -25.848722 -81.87394
3805000000 -24.948877 -82.851944 -0.64842129 -78.594185 -0.65006858 -78.59481 -25.8402 -82.378769
3832500000 -24.932449 -83.436844 -0.64908916 -79.159233 -0.65089852 -79.164673 -25.879423 -82.534576
3860000000 -24.947151 -84.126709 -0.65136284 -79.731583 -0.65335661 -79.727745 -25.920961 -83.476227
3887500000 -24.982462 -84.513107 -0.65215689 -80.275459 -0.65367436 -80.287888 -25.939079 -84.150436
3915000000 -24.976093 -85.13485 -0.65456271 -80.83448 -0.65488267 -80.844246 -25.964037 -84.587364
3942500000 -24.965563 -85.934174 -0.65440232 -81.403923 -0.65656644 -81.398514 -26.001825 -85.277725
3970000000 -24.988478 -86.341705 -0.65442312 -81.957794 -0.65896088 -81.969543 -26.046446 -85.85614
3997500000 -25.039995 -86.733963 -0.65670192 -82.520699 -0.65914166 -82.520645 -26.055906 -86.516083
4025000000 -25.033537 -87.663803 -0.65710485 -83.082733 -0.66058838 -83.082085 -26.067606 -87.239014
4052500000 -25.04159 -88.137466 -0.65848368 -83.644928 -0.660954 -83.65023 -26.138437 -87.834076
4080000000 -25.091557 -88.449715 -0.66086745 -84.212151 -0.66167444 -84.2127 -26.157341 -88.567009
4107500000 -25.090652 -89.304359 -0.65943968 -84.774483 -0.66348416 -84.770515 -26.182535 -89.085991
4135000000 -25.069645 -90.052368 -0.66174859 -85.33242 -0.66371942 -85.328323 -26.222061 -89.544525
4162500000 -25.116859 -90.132591 -0.66331649 -85.885071 -0.66498029 -85.891014 -26.247343 -90.049217
4190000000 -25.151461 -91.021515 -0.66518545 -86.44516 -0.66480654 -86.456673 -26.267122 -90.756447
4217500000 -25.139341 -91.744774 -0.66519266 -87.012878 -0.66776335 -87.025436 -26.293739 -90.800446
4245000000 -25.173038 -92.089355 -0.6658538 -87.570168 -0.66814923 -87.574127 -26.342588 -91.588776
4272500000 -25.221046 -92.609665 -0.66622585 -88.131165 -0.66833699 -88.132278 -26.387363 -92.48111
4300000000 -25.212044 -93.223663 -0.66796625 -88.68821 -0.67083311 -88.701096 -26.386765 -92.476311
4327500000 -25.195837 -93.71283 -0.66803873 -89.258904 -0.67089236 -89.251633 -26.423323 -93.141037
4355000000 -25.271471 -94.275658 -0.669312 -89.810043 -0.67196888 -89.825584 -26.492987 -94.284409
4382500000 -25.293789 -94.955597 -0.67135429 -90.377647 -0.67315143 -90.379135 -26.505894 -94.535362
4410000000 -25.307261 -95.622223 -0.67212385 -90.93605 -0.67441171 -90.940544 -26.486464 -94.715935
4437500000 -25.342779 -95.821907 -0.67336845 -91.497543 -0.67576587 -91.496277 -26.570951 -95.19313
4465000000 -25.375099 -96.614311 -0.67277879 -92.066139 -0.67658371 -92.065094 -26.620731 -96.119011
4492500000 -25.376915 -97.416725 -0.67416924 -92.61586 -0.67941183 -92.623489 -26.668192 -96.481155
4520000000 -25.439201 -97.694275 -0.67655861 -93.174324 -0.67804956 -93.177307 -26.693552 -97.095901
4547500000 -25.458052 -98.149918 -0.67818427 -93.728447 -0.67989254 -93.745239 -26.689182 -97.657616
4575000000 -25.481215 -98.867607 -0.67780083 -94.296677 -0.68015438 -94.303566 -26.770807 -97.927818
4602500000 -25.503094 -99.55732 -0.67850626 -94.857491 -0.68211997 -94.868912 -26.824219 -98.651115
4630000000 -25.553278 -99.884102 -0.68096673 -95.42569 -0.68256736 -95.416763 -26.857212 -99.505737
4657500000 -25.568789 -100.61529 -0.68172807 -95.970856 -0.68399674 -95.969902 -26.861107 -99.725571
4685000000 -25.60153 -101.2522 -0.68298751 -96.53476 -0.68497527 -96.538513 -26.924147 -100.25052
4712500000 -25.631029 -101.42091 -0.68260008 -97.090675 -0.68619049 -97.092522 -26.94606 -100.90832
4740000000 -25.672308 -102.1934 -0.68567181 -97.657242 -0.68732482 -97.670364 -26.984589 -101.41495
4767500000 -25.698978 -102.71589 -0.68503863 -98.213974 -0.6878916 -98.218437 -27.005112 -101.86264
4795000000 -25.75935 -103.20279 -0.68649733 -98.763977 -0.6893279 -98.783043 -27.056734 -102.46175
4822500000 -25.80863 -103.76794 -0.6867435 -99.332756 -0.6906451 -99.336334 -27.084545 -102.95
4850000000 -25.830904 -104.44493 -0.68900084 -99.887749 -0.69076771 -99.896675 -27.137615 -103.34441
4877500000 -25.846649 -104.69975 -0.68992108 -100.4486 -0.69197363 -100.45773 -27.209166 -103.98327
4905000000 -25.897146 -105.23711 -0.68893564 -101.00761 -0.69143879 -101.01661 -27.196772 -104.41156
4932500000 -25.919844 -105.81367 -0.69068062 -101.57241 -0.69316018 -101.57745 -27.225508 -104.6374
4960000000 -25.949846 -106.34256 -0.69207656 -102.12843 -0.69583285 -102.13113 -27.324474 -105.24346
4987500000 -26.027508 -106.79523 -0.69155562 -102.68297 -0.69630897 -102.69617 -27.315207 -105.89655
5015000000 -26.032511 -107.37955 -0.69307542 -103.24122 -0.69718516 -103.25449 -27.370817 -106.1834
5042500000 -26.103968 -107.94101 -0.69514984 -103.8136 -0.69873095 -103.80999 -27.492657 -106.60355
5070000000 -26.152403 -108.40133 -0.69623482 -104.36961 -0.69873154 -104.37281 -27.440042 -107.42638
5097500000 -26.191872 -108.8857 -0.69688576 -104.92554 -0.69942969 -104.93561 -27.490139 -107.82431
5125000000 -26.235313 -109.539 -0.70065963 -105.48 -0.69965172 -105.49049 -27.580957 -108.04779
5152500000 -26.27882 -109.8601 -0.70055437 -106.04783 -0.70112443 -106.05019 -27.579239 -108.7707
5180000000 -26.319046 -110.31055 -0.69908303 -106.60437 -0.70280951 -106.61149 -27.606762 -109.11054
5207500000 -26.353096 -111.11304 -0.70123458 -107.16649 -0.70327944 -107.16626 -27.733555 -109.61176
5235000000 -26.39138 -111.43885 -0.70160937 -107.71444 -0.70683062 -107.72276 -27.757067 -110.37372
5262500000 -26.460073 -111.93327 -0.70222217 -108.27748 -0.70694059 -108.28126 -27.743034 -110.64303
5290000000 -26.495422 -112.39131 -0.70457804 -108.83577 -0.70657569 -108.83515 -27.815325 -111.15594
5317500000 -26.548323 -113.00837 -0.70633751 -109.4006 -0.70860171 -109.40572 -27.944853 -111.7077
5345000000 -26.632759 -113.4459 -0.70547384 -109.9492 -0.70783263 -109.96487 -27.86253 -112.12378
5372500000 -26.663727 -114.06965 -0.70713955 -110.51334 -0.70959467 -110.51546 -27.971235 -112.28922
5400000000 -26.690079 -114.48909 -0.70796764 -111.06668 -0.71096987 -111.07268 -28.067554 -113.41972
5427500000 -26.789604 -115.0973 -0.70806479 -111.62505 -0.71216649 -111.63986 -28.05158 -113.75367
5455000000 -26.83699 -115.43159 -0.70920819 -112.18662 -0.71309006 -112.19265 -28.059843 -114.06133
5482500000 -26.848667 -115.96175 -0.71132755 -112.74292 -0.71266574 -112.74618 -28.232195 -114.62705
5510000000 -26.960737 -116.42749 -0.71045977 -113.29474 -0.71459484 -113.29498 -28.259008 -115.21054
5537500000 -27.010651 -116.81561 -0.71113789 -113.85804 -0.71405625 -113.86002 -28.275009 -115.61351
5565000000 -27.038891 -117.40306 -0.71338505 -114.40626 -0.71637338 -114.40844 -28.383032 -115.95196
5592500000 -27.11149 -117.91815 -0.71316117 -114.96913 -0.71579337 -114.97359 -28.446365 -116.80245
5620000000 -27.198168 -118.19432 -0.71306992 -115.54131 -0.71719432 -115.53011 -28.443163 -117.07587
5647500000 -27.226198 -118.59402 -0.71406817 -116.09046 -0.71793455 -116.09786 -28.533564 -117.37357
5675000000 -27.297173 -119.10149 -0.716479 -116.64867 -0.71863276 -116.65206 -28.691339 -117.78503
5702500000 -27.4 -119.66826 -0.71496743 -117.21088 -0.71825188 -117.21352 -28.642096 -118.29235
5730000000 -27.390423 -119.79015 -0.71606261 -117.75765 -0.72042876 -117.75983 -28.757057 -118.37263
5757500000 -27.477854 -120.28645 -0.71685326 -118.32246 -0.72000927 -118.32183 -28.880751 -119.19639
5785000000 -27.593864 -120.86734 -0.71738857 -118.87289 -0.72103018 -118.8857 -28.902315 -119.53602
5812500000 -27.633068 -121.08751 -0.71739554 -119.43806 -0.7200982 -119.4411 -28.981485 -119.51492
5840000000 -27.70019 -121.50864 -0.71855026 -119.99635 -0.72132361 -120.00327 -29.092075 -120.55609
5867500000 -27.783876 -122.03308 -0.71875644 -120.55235 -0.72100729 -120.56086 -29.186747 -120.89825
5895000000 -27.866966 -122.42061 -0.71971965 -121.11286 -0.72087616 -121.11572 -29.228851 -121.06091
5922500000 -27.90987 -122.86878 -0.72083461 -121.66725 -0.72209692 -121.67834 -29.366142 -121.35532
5950000000 -28.003386 -123.23074 -0.7195192 -122.22955 -0.72298163 -122.24706 -29.464209 -121.9027
5977500000 -28.128393 -123.27859 -0.72107816 -122.79788 -0.72401673 -122.79526 -29.507128 -121.53777
6005000000 -28.125572 -123.9324 -0.72036952 -123.35072 -0.72321951 -123.35104 -29.590881 -122.45878
6032500000 -28.195572 -124.08906 -0.72235429 -123.90823 -0.72355157 -123.90977 -29.717899 -123.0212
6060000000 -28.307434 -124.19142 -0.72349656 -124.47296 -0.72500736 -124.46878 -29.759377 -122.59153
6087500000 -28.360214 -124.50512 -0.72402191 -125.02554 -0.72413754 -125.033 -29.851444 -122.61809
6115000000 -28.453224 -124.81715 -0.72292048 -125.59605 -0.72602397 -125.58241 -29.974186 -123.77138
6142500000 -28.582905 -125.4705 -0.72417301 -126.15496 -0.72616929 -126.15736 -30.005476 -123.51424
6170000000 -28.644535 -125.52197 -0.72474068 -126.71236 -0.72717851 -126.71877 -30.116537 -123.50275
6197500000 -28.651644 -125.93762 -0.72548091 -127.27189 -0.72718221 -127.27657 -30.26922 -124.59851
6225000000 -28.782701 -126.0646 -0.72459626 -127.83495 -0.72674853 -127.83393 -30.375792 -124.31231
6252500000 -28.917301 -126.32066 -0.72505325 -128.38855 -0.72797984 -128.39867 -30.392193 -124.16115
6280000000 -28.897787 -126.16727 -0.72660655 -128.95132 -0.7277025 -128.95793 -30.478071 -125.08946
6307500000 -29.015198 -126.44128 -0.72818983 -129.52301 -0.72805113 -129.5119 -30.606112 -124.60571
6335000000 -29.217714 -126.96975 -0.72699243 -130.06567 -0.72978646 -130.08159 -30.760813 -124.1968
6362500000 -29.179741 -126.68588 -0.72778332 -130.6338 -0.73033804 -130.63503 -30.737207 -125.56278
6390000000 -29.239038 -126.97766 -0.72866309 -131.18513 -0.7316944 -131.19499 -30.811689 -124.75288
6417500000 -29.447704 -127.07137 -0.72744846 -131.74217 -0.7329908 -131.74962 -31.032331 -123.87004
6445000000 -29.457333 -127.48838 -0.73017049 -132.30553 -0.73156816 -132.31142 -31.134989 -125.34065
6472500000 -29.500845 -127.38934 -0.72896099 -132.86032 -0.73256946 -132.8797 -31.061888 -125.77798
6500000000 -29.645159 -127.39648 -0.72985172 -133.43002 -0.73325801 -133.44125 -31.24288 -124.08828
6527500000 -29.797279 -127.51076 -0.72944629 -133.98888 -0.73296809 -134.00771 -31.465107 -124.50536
6555000000 -29.809872 -128.17848 -0.73055243 -134.55148 -0.7334848 -134.56441 -31.51309 -125.92808
6582500000 -29.830238 -127.79486 -0.7319079 -135.13011 -0.73303461 -135.13542 -31.493254 -124.7606
6610000000 -30.001972 -127.6108 -0.73076195 -135.6743 -0.73427504 -135.69533 -31.617188 -124.45328
6637500000 -30.032877 -128.06451 -0.7321564 -136.23082 -0.73557836 -136.24722 -31.765951 -125.30206
6665000000 -30.125439 -127.99549 -0.73496449 -136.79544 -0.73516899 -136.80402 -31.606625 -124.45418
6692500000 -30.240473 -127.66003 -0.7350381 -137.36392 -0.73529899 -137.36655 -31.898842 -123.3446
6720000000 -30.314882 -128.17415 -0.73236078 -137.91887 -0.7362622 -137.9337 -32.133621 -125.3238
6747500000 -30.439474 -128.28922 -0.73438263 -138.47749 -0.73622447 -138.47829 -31.930941 -125.01973
6775000000 -30.51922 -127.62837 -0.7355305 -139.04053 -0.73827571 -139.05807 -32.068192 -123.8951
6802500000 -30.723499 -127.5884 -0.73630852 -139.60623 -0.73841929 -139.62198 -32.413189 -123.66422
6830000000 -30.697374 -127.57504 -0.73546243 -140.16122 -0.73733968 -140.17482 -32.314564 -125.38252
6857500000 -30.794365 -127.82471 -0.73644161 -140.73907 -0.73859298 -140.73712 -32.333496 -123.55917
6885000000 -30.986156 -127.35265 -0.73787075 -141.30768 -0.73917085 -141.31281 -32.521629 -122.95737
6912500000 -31.020754 -127.11362 -0.739389 -141.85507 -0.74092627 -141.86374 -32.580032 -123.98849
6940000000 -31.06764 -127.41875 -0.7377575 -142.42418 -0.7419368 -142.42909 -32.597462 -122.86863
6967500000 -31.297571 -126.54855 -0.73837358 -142.99426 -0.74213636 -142.99092 -32.72382 -121.66131
6995000000 -31.289328 -125.84795 -0.74007654 -143.55452 -0.74351823 -143.55844 -32.855408 -122.24588
7022500000 -31.308887 -126.47707 -0.74003541 -144.12157 -0.74616647 -144.12115 -32.832764 -122.20068
7050000000 -31.480499 -125.98612 -0.74486518 -144.68332 -0.74569833 -144.67744 -32.872086 -120.82123
7077500000 -31.496115 -125.10277 -0.74353421 -145.24434 -0.74790937 -145.24635 -33.051414 -120.53233
7105000000 -31.54141 -125.12205 -0.74434316 -145.7921 -0.74868619 -145.81157 -33.055237 -120.62228
7132500000 -31.705521 -125.2065 -0.74472815 -146.35938 -0.74785006 -146.36366 -33.084686 -120.31635
7160000000 -31.763577 -124.31909 -0.74542266 -146.93175 -0.74963391 -146.92171 -33.155952 -119.33748
7187500000 -31.763844 -124.13422 -0.74407279 -147.4814 -0.74960405 -147.4865 -33.31543 -119.18127
7215000000 -31.901129 -123.97348 -0.7493543 -148.04881 -0.75142038 -148.05154 -33.349102 -118.93661
7242500000 -31.984238 -123.48903 -0.74876708 -148.60704 -0.75176632 -148.62109 -33.291458 -118.27653
7270000000 -32.046719 -123.40854 -0.75076675 -149.17313 -0.75230432 -149.18068 -33.365887 -118.24368
7297500000 -32.018524 -123.42628 -0.75239301 -149.73549 -0.75410515 -149.7419 -33.391579 -117.76981
7325000000 -32.11618 -122.01466 -0.75408202 -150.29843 -0.75697243 -150.2921 -33.363327 -116.82723
7352500000 -32.241798 -121.89003 -0.75545263 -150.84972 -0.7575503 -150.85306 -33.504204 -117.06298
7380000000 -32.383541 -122.65813 -0.75540644 -151.40138 -0.7583766 -151.40578 -33.679989 -116.46638
7407500000 -32.449272 -121.35973 -0.75531095 -151.94917 -0.75799656 -151.96838 -33.621105 -116.16066
7435000000 -32.498341 -120.31512 -0.75387388 -152.52026 -0.75787634 -152.52841 -33.603897 -114.51381
7462500000 -32.520615 -120.79744 -0.75502294 -153.09184 -0.75993663 -153.09967 -33.706985 -114.12621
7490000000 -32.587933 -119.73938 -0.75809085 -153.65939 -0.7618171 -153.66556 -33.646698 -113.81926
7517500000 -32.638115 -118.27241 -0.75768894 -154.21873 -0.76182574 -154.22186 -33.647469 -112.89724
7545000000 -32.65556 -118.50107 -0.75929993 -154.78842 -0.76231939 -154.79044 -33.764668 -112.76985
7572500000 -32.624619 -118.03255 -0.7617209 -155.34183 -0.76328516 -155.34457 -33.70068 -112.7527
7600000000 -32.776661 -116.94789 -0.76226693 -155.90672 -0.76526064 -155.91295 -33.606964 -111.63127
7627500000 -32.809467 -116.89632 -0.76424378 -156.46893 -0.7639811 -156.47008 -33.719849 -110.64431
7655000000 -32.772186 -116.544 -0.76426846 -157.01909 -0.76763737 -157.01906 -33.841793 -111.43711
7682500000 -32.854366 -115.06112 -0.76656127 -157.58559 -0.76913613 -157.59224 -33.64999 -110.84988
7710000000 -32.86256 -114.63473 -0.76727223 -158.1377 -0.76967847 -158.14197 -33.758881 -109.55695
7737500000 -32.850769 -114.69073 -0.76881599 -158.68349 -0.77147967 -158.70047 -33.750751 -109.46815
7765000000 -32.865807 -113.85548 -0.77155423 -159.26125 -0.77269125 -159.25441 -33.633327 -109.33348
7792500000 -32.96698 -113.27645 -0.77196795 -159.80795 -0.77428269 -159.82867 -33.786663 -107.44655
7820000000 -32.982914 -113.06555 -0.77337325 -160.38306 -0.77488416 -160.38699 -33.769756 -107.26069
7847500000 -32.933762 -111.86774 -0.77462053 -160.93393 -0.77650338 -160.93718 -33.609882 -107.59689
7875000000 -32.990799 -111.2589 -0.77524376 -161.48723 -0.77593297 -161.50111 -33.558346 -106.56504
7902500000 -33.056782 -110.9902 -0.77430624 -162.05185 -0.77692688 -162.05836 -33.747604 -105.74875
7930000000 -32.901295 -110.23805 -0.77519858 -162.60411 -0.77795911 -162.61244 -33.624001 -105.77747
7957500000 -32.992752 -109.55229 -0.77562684 -163.16792 -0.78040314 -163.18739 -33.599327 -104.7434
7985000000 -33.009075 -109.22122 -0.77739495 -163.72198 -0.77967173 -163.7394 -33.65295 -104.00641
8012500000 -33.008316 -108.75907 -0.77811331 -164.28577 -0.78124034 -164.28641 -33.490898 -104.05566
8040000000 -33.033157 -107.58793 -0.78031886 -164.845 -0.78238088 -164.86264 -33.411488 -103.43182
8067500000 -33.058872 -107.49427 -0.78072011 -165.40033 -0.78278971 -165.40662 -33.536659 -102.5751
8095000000 -32.878735 -106.81532 -0.78410488 -165.96553 -0.78313661 -165.96463 -33.411465 -103.02768
8122500000 -32.912724 -106.23592 -0.7832256 -166.52499 -0.78342927 -166.53569 -33.305428 -101.83936
8150000000 -33.003181 -105.38628 -0.7849378 -167.0687 -0.7859996 -167.08472 -33.517162 -101.02156
8177500000 -32.919189 -104.8798 -0.7844708 -167.62599 -0.78703302 -167.6452 -33.326546 -101.57425
8205000000 -32.826462 -104.04407 -0.78394455 -168.18597 -0.78804004 -168.20317 -33.092701 -100.18464
8232500000 -32.996799 -103.73368 -0.78624338 -168.74454 -0.78928727 -168.76921 -33.365013 -98.85199
8260000000 -32.748707 -102.48774 -0.78851551 -169.29713 -0.79026246 -169.3134 -33.188091 -100.23319
8287500000 -32.759453 -102.03237 -0.78950703 -169.87036 -0.79152805 -169.88557 -32.818275 -99.455917
8315000000 -32.83971 -101.32222 -0.78854781 -170.43616 -0.7909407 -170.43713 -33.180813 -98.165352
8342500000 -32.662228 -101.09081 -0.79093045 -170.98732 -0.79299217 -171.00967 -33.110462 -99.193954
8370000000 -32.511478 -100.39191 -0.79386353 -171.55235 -0.79342937 -171.55605 -32.540447 -97.713181
8397500000 -32.773605 -99.230141 -0.79353476 -172.10623 -0.7967028 -172.13409 -32.867764 -94.525436
8425000000 -32.451878 -98.929642 -0.79599476 -172.6698 -0.79982775 -172.68091 -33.367195 -98.403099
8452500000 -32.274895 -98.968712 -0.799196 -173.22789 -0.80230814 -173.25177 -31.991711 -99.55619
8480000000 -32.52169 -96.822899 -0.80225551 -173.76886 -0.80519438 -173.78581 -32.032772 -91.235146
8507500000 -32.309544 -96.034492 -0.80823594 -174.32637 -0.80969852 -174.3459 -34.042385 -92.117432
8535000000 -32.073994 -98.672775 -0.80698234 -174.87639 -0.81143939 -174.88342 -32.557274 -106.60697
8562500000 -31.962959 -95.749557 -0.80479431 -175.36276 -0.80944526 -175.35327 -30.368933 -97.076164
8590000000 -32.018692 -96.224693 -0.80166674 -175.84462 -0.80666065 -175.86247 -31.895916 -80.796989
8617500000 -32.347099 -98.62674 -0.79821098 -176.42256 -0.80091923 -176.4407 -34.549313 -88.6269
8645000000 -31.828836 -96.194183 -0.79000354 -177.02448 -0.79172093 -177.03401 -31.77417 -108.59584
8672500000 -31.810617 -96.079674 -0.78669977 -177.59502 -0.78744358 -177.63054 -30.595976 -93.917007
8700000000 -32.196251 -93.447197 -0.79014355 -178.16168 -0.79003423 -178.17459 -31.958662 -83.535629
8727500000 -31.91683 -95.184196 -0.79362178 -178.76851 -0.79386759 -178.80203 -33.094116 -97.212921
8755000000 -31.692904 -94.905846 -0.78946978 -179.34827 -0.79305059 -179.38132 -31.216581 -99.312431
8782500000 -31.641914 -92.165497 -0.79586726 -179.89659 -0.79690993 -179.92116 -31.032572 -89.376419
8810000000 -31.555925 -93.304138 -0.79826236 179.55186 -0.79880059 179.51067 -32.057667 -91.220604
8837500000 -31.502747 -93.367088 -0.79660141 178.96283 -0.80125421 178.93643 -31.501511 -97.459808
8865000000 -31.260437 -91.631447 -0.79929775 178.41934 -0.80200046 178.40474 -30.891611 -91.804787
8892500000 -31.245087 -91.486305 -0.80356783 177.87308 -0.8058961 177.8513 -31.504179 -89.533104
8920000000 -31.118454 -91.95929 -0.80345136 177.28938 -0.80745739 177.27979 -31.533173 -94.866447
8947500000 -31.013565 -91.421745 -0.80209142 176.73683 -0.8060987 176.7312 -30.862633 -94.061775
8975000000 -30.927994 -90.205322 -0.80652225 176.19717 -0.80795372 176.1754 -30.906738 -90.617226
9002500000 -30.889645 -90.69043 -0.80612737 175.6304 -0.80803978 175.61226 -31.160603 -92.922867
9030000000 -30.692041 -90.972588 -0.80511957 175.06142 -0.80820566 175.05719 -30.673777 -94.123802
9057500000 -30.608406 -90.017624 -0.80597275 174.50868 -0.81056952 174.49246 -30.539366 -91.136383
9085000000 -30.627161 -90.058418 -0.80807251 173.94156 -0.81101722 173.93703 -30.850052 -92.110855
9112500000 -30.4874 -90.468483 -0.80866373 173.38657 -0.81179202 173.37526 -30.524414 -94.630692
9140000000 -30.291342 -89.515739 -0.80970913 172.83128 -0.81170928 172.82056 -30.256634 -92.354401
9167500000 -30.305964 -89.732346 -0.81110114 172.28214 -0.81296396 172.26199 -30.36581 -91.75901
9195000000 -30.158037 -89.793571 -0.81027716 171.7189 -0.8136676 171.68982 -30.386929 -93.975662
9222500000 -30.043493 -89.092186 -0.81202012 171.1503 -0.81445193 171.1559 -29.998774 -93.282059
9250000000 -29.984276 -88.9636 -0.81256163 170.6049 -0.81486881 170.57985 -29.975845 -91.830627
9277500000 -29.943829 -89.428223 -0.81376815 170.03909 -0.81470954 170.03308 -30.086248 -92.95929
9305000000 -29.738758 -88.981689 -0.81322116 169.46956 -0.81763464 169.46526 -29.834068 -94.190765
9332500000 -29.691036 -88.510681 -0.81292433 168.92589 -0.81790715 168.91103 -29.663179 -92.896355
9360000000 -29.625092 -89.05809 -0.81505364 168.36707 -0.81857783 168.35072 -29.766117 -93.011925
9387500000 -29.457525 -88.994576 -0.813627 167.8035 -0.8189401 167.78642 -29.627859 -94.457939
9415000000 -29.372477 -88.48291 -0.81645644 167.24005 -0.81838214 167.23929 -29.376696 -93.50425
9442500000 -29.283806 -88.840858 -0.81613433 166.68459 -0.81896353 166.67845 -29.426975 -93.453842
9470000000 -29.163895 -89.053436 -0.8164736 166.11833 -0.82078564 166.1125 -29.378353 -94.395744
9497500000 -29.052694 -88.505859 -0.81820464 165.56909 -0.82013899 165.56493 -29.198586 -94.545822
9525000000 -28.993027 -88.658554 -0.81817967 165.01224 -0.82158375 164.99876 -29.15906 -93.945625
9552500000 -28.893448 -89.331543 -0.82059926 164.45547 -0.82297951 164.4388 -29.173536 -94.911415
9580000000 -28.798092 -89.105804 -0.81966627 163.89574 -0.82297236 163.89182 -28.97584 -95.19294
9607500000 -28.703224 -88.828239 -0.82000297 163.3466 -0.82270765 163.32971 -28.849298 -94.416389
9635000000 -28.592989 -89.519356 -0.82212424 162.7737 -0.82338971 162.78166 -28.879553 -94.722893
9662500000 -28.532003 -89.026047 -0.82120907 162.22018 -0.82410383 162.21123 -28.823626 -96.001488
9690000000 -28.396179 -88.905754 -0.82198691 161.6597 -0.82583636 161.64787 -28.517868 -95.85878
9717500000 -28.278116 -89.748138 -0.82199287 161.09088 -0.82627904 161.07896 -28.591112 -95.05014
9745000000 -28.225639 -89.938362 -0.82380182 160.55075 -0.82903212 160.51761 -28.625036 -96.224564
9772500000 -28.143059 -89.291565 -0.82380372 159.98322 -0.82801276 159.97736 -28.325941 -96.6026
9800000000 -27.959276 -89.716095 -0.82306117 159.41396 -0.82986248 159.40652 -28.296526 -96.125519
9827500000 -27.891005 -90.477196 -0.82779539 158.86626 -0.82801527 158.86029 -28.370945 -96.892563
9855000000 -27.86146 -89.890083 -0.82792473 158.32095 -0.83092082 158.29535 -28.210932 -97.840446
9882500000 -27.740746 -90.318771 -0.82657278 157.74083 -0.83025515 157.72559 -27.991199 -96.684875
9910000000 -27.629482 -91.060112 -0.82875079 157.18967 -0.8292709 157.17784 -28.142487 -97.589104
9937500000 -27.564259 -90.784927 -0.83134276 156.63051 -0.83118194 156.62334 -27.945774 -98.777122
9965000000 -27.498301 -90.782845 -0.82923985 156.06012 -0.8335191 156.04773 -27.751169 -97.821953
9992500000 -27.437187 -91.626755 -0.82932633 155.51463 -0.83371949 155.49519 -27.868757 -97.92981
10020000000 -27.364243 -91.029648 -0.83112174 154.95793 -0.83415139 154.94437 -27.856993 -99.614159
10047500000 -27.242725 -91.243965 -0.83285052 154.39757 -0.83360815 154.3855 -27.521488 -99.04081
10075000000 -27.124662 -92.169861 -0.83338672 153.84174 -0.83615029 153.80974 -27.542912 -98.30909
10102500000 -27.085459 -92.276283 -0.83421946 153.29054 -0.83582205 153.26364 -27.659483 -99.974358
10130000000 -26.990381 -92.045296 -0.83442116 152.71138 -0.83722085 152.70818 -27.325802 -100.53714
10157500000 -26.869377 -93.035324 -0.83580226 152.16496 -0.83771056 152.13863 -27.353655 -99.32605
10185000000 -26.837896 -93.374245 -0.83602571 151.60657 -0.83921802 151.58752 -27.564724 -100.62381
10212500000 -26.774141 -92.838799 -0.83515465 151.02472 -0.83863235 151.03191 -27.184452 -102.0142
10240000000 -26.616186 -93.629074 -0.83540094 150.47394 -0.84122896 150.45992 -26.982771 -100.34184
10267500000 -26.567526 -94.131897 -0.83821601 149.93019 -0.84083122 149.90788 -27.243126 -101.16273
10295000000 -26.49247 -93.583748 -0.83852559 149.36481 -0.84066188 149.34425 -27.14098 -103.33739
10322500000 -26.377821 -94.387253 -0.83800191 148.80959 -0.84028119 148.77339 -26.770424 -102.09991
10350000000 -26.31745 -94.741524 -0.83792436 148.24207 -0.84249783 148.21957 -27.006096 -101.66718
10377500000 -26.276697 -94.560081 -0.83903337 147.70569 -0.844266 147.67871 -27.004307 -103.72708
10405000000 -26.186171 -95.249794 -0.84273547 147.12206 -0.84281749 147.09758 -26.591833 -103.53334
10432500000 -26.09799 -96.066437 -0.8429237 146.55431 -0.84443551 146.54185 -26.702997 -102.28136
10460000000 -26.05419 -95.666176 -0.84306955 146.00671 -0.84512883 145.98434 -26.843727 -104.85757
10487500000 -25.954863 -96.199852 -0.84290802 145.44011 -0.84648126 145.41463 -26.430679 -105.19913
10515000000 -25.897799 -97.2798 -0.84525371 144.87383 -0.84812802 144.86502 -26.354092 -103.728
10542500000 -25.764618 -96.787468 -0.84663761 144.32625 -0.84830016 144.3038 -26.627794 -104.79404
10570000000 -25.735722 -97.332039 -0.8464278 143.76141 -0.84901333 143.75014 -26.349735 -106.06255
10597500000 -25.679638 -98.263832 -0.84659201 143.20627 -0.85058737 143.1785 -26.129753 -105.23386
10625000000 -25.605654 -98.247017 -0.84995294 142.65645 -0.84993911 142.62688 -26.434286 -105.19152
10652500000 -25.538181 -98.426704 -0.84885061 142.08957 -0.85029548 142.06097 -26.272312 -107.49767
10680000000 -25.526361 -99.042351 -0.84992653 141.52342 -0.85372013 141.49577 -25.927111 -106.50999
10707500000 -25.410473 -99.272598 -0.84950089 140.96686 -0.85459334 140.95241 -26.194605 -106.3736
10735000000 -25.356295 -99.217758 -0.85093153 140.41011 -0.85477483 140.40593 -26.165779 -108.46742
10762500000 -25.326944 -100.31269 -0.85310668 139.84218 -0.85520065 139.83876 -25.814941 -108.2872
10790000000 -25.194654 -100.25024 -0.85472697 139.30051 -0.85472572 139.26633 -25.850876 -107.70612
10817500000 -25.152193 -100.55859 -0.85467529 138.74409 -0.85847807 138.72061 -26.042133 -109.12292
10845000000 -25.090849 -101.50407 -0.85618609 138.17938 -0.85857177 138.162 -25.698963 -109.91653
10872500000 -25.071749 -101.7057 -0.85760754 137.62959 -0.86141771 137.6174 -25.63199 -109.08935
10900000000 -24.9328 -101.72568 -0.85793775 137.07468 -0.86054814 137.05444 -25.874641 -110.049
10927500000 -24.922543 -102.71174 -0.8588683 136.51357 -0.86606085 136.49098 -25.613403 -111.50742
10955000000 -24.857773 -103.27008 -0.85894209 135.94017 -0.86262238 135.92038 -25.411242 -110.44972
10982500000 -24.773716 -103.00592 -0.85962611 135.39256 -0.86220592 135.38191 -25.638119 -110.92811
11010000000 -24.744869 -103.75829 -0.86229402 134.84262 -0.8618347 134.8226 -25.55081 -112.8003
11037500000 -24.721378 -104.35745 -0.86279511 134.26186 -0.867185 134.25494 -25.254623 -112.24305
11065000000 -24.581322 -104.15571 -0.86465335 133.7233 -0.86729336 133.69218 -25.383255 -111.91331
11092500000 -24.572775 -104.80331 -0.86508614 133.16875 -0.86809409 133.15376 -25.45797 -113.48964
11120000000 -24.59199 -105.60033 -0.86612946 132.60515 -0.86928546 132.58795 -25.120207 -114.22906
11147500000 -24.462164 -105.70364 -0.86463505 132.04817 -0.87185329 132.0412 -25.136002 -113.42625
11175000000 -24.395168 -106.26413 -0.86741 131.48215 -0.86859488 131.47784 -25.24773 -114.38822
11202500000 -24.427931 -107.1585 -0.86633229 130.91847 -0.87093455 130.91731 -25.029865 -115.53487
11230000000 -24.328112 -107.19585 -0.86815321 130.37444 -0.86958337 130.35896 -24.897764 -114.87242
11257500000 -24.24123 -107.68717 -0.8696425 129.81961 -0.8734597 129.81171 -25.077925 -115.39896
11285000000 -24.249702 -108.6569 -0.87070364 129.26984 -0.8734116 129.23927 -24.929874 -116.51699
11312500000 -24.174854 -108.78043 -0.87096715 128.6899 -0.87443471 128.69456 -24.714149 -116.48716
11340000000 -24.058798 -108.88309 -0.87106359 128.14223 -0.87631762 128.13086 -24.870615 -116.21214
11367500000 -24.075663 -109.80881 -0.87420297 127.59357 -0.87722737 127.57558 -24.882639 -117.86476
11395000000 -24.005726 -109.89752 -0.87399912 127.03962 -0.87802511 127.01188 -24.652626 -118.3241
11422500000 -23.890465 -110.11499 -0.87647474 126.47343 -0.87791932 126.46384 -24.72896 -117.96167
11450000000 -23.882153 -110.86556 -0.87665588 125.92671 -0.8794446 125.91267 -24.767323 -119.39757
11477500000 -23.872227 -111.46809 -0.87840414 125.35911 -0.88071615 125.36127 -24.501276 -120.52837
11505000000 -23.733759 -111.50688 -0.87781477 124.80289 -0.88151073 124.79264 -24.496271 -120.0578
11532500000 -23.747183 -112.41782 -0.87811041 124.25188 -0.88249898 124.24472 -24.591892 -120.65952
11560000000 -23.696304 -113.13979 -0.88151073 123.69291 -0.88196927 123.6898 -24.377737 -121.6236
11587500000 -23.622473 -113.13267 -0.88070947 123.14371 -0.88457352 123.11846 -24.318624 -121.33164
11615000000 -23.607861 -113.86304 -0.88130999 122.58699 -0.88632023 122.56879 -24.404152 -121.97153
11642500000 -23.580006 -114.69531 -0.88286024 122.00841 -0.88663226 122.01143 -24.316311 -123.08792
11670000000 -23.491571 -114.68861 -0.88469541 121.48318 -0.88708538 121.4625 -24.178308 -123.29568
11697500000 -23.444031 -115.34575 -0.88220143 120.90659 -0.88804531 120.91077 -24.278891 -123.31664
11725000000 -23.438652 -116.09212 -0.88456881 120.36127 -0.88842839 120.35394 -24.211355 -124.69112
11752500000 -23.394566 -116.27891 -0.88402236 119.80992 -0.89007044 119.78981 -24.072664 -124.83137
11780000000 -23.34516 -116.89264 -0.88610244 119.2503 -0.89041555 119.23284 -24.117603 -124.92548
11807500000 -23.303146 -117.82777 -0.886204 118.68983 -0.8902719 118.68674 -24.113756 -125.98967
11835000000 -23.239666 -118.12527 -0.88642752 118.13985 -0.89294189 118.13016 -23.949627 -126.61227
11862500000 -23.219099 -118.39584 -0.88968313 117.58512 -0.89126629 117.56818 -23.973106 -126.77365
11890000000 -23.18214 -119.11993 -0.88967776 117.04257 -0.89308655 116.99783 -24.003668 -127.55678
11917500000 -23.129412 -119.88506 -0.88929653 116.4677 -0.89089316 116.45654 -23.860504 -128.56992
11945000000 -23.090563 -119.92484 -0.88847572 115.92877 -0.89375812 115.90314 -23.797144 -128.19946
11972500000 -23.061968 -120.77457 -0.89067006 115.37825 -0.8957175 115.34579 -23.90564 -128.84938
12000000000 -23.005289 -121.31915 -0.8939572 114.82893 -0.89638472 114.7948 -23.765608 -130.09035
12027500000 -22.976639 -121.44901 -0.89214832 114.26402 -0.89601052 114.23408 -23.700893 -130.30237
12055000000 -22.937981 -122.06023 -0.89338064 113.70389 -0.89595962 113.68676 -23.83672 -130.86818
12082500000 -22.855646 -122.938 -0.8932128 113.15624 -0.89741135 113.14134 -23.750843 -131.94371
12110000000 -22.846788 -123.09741 -0.89516842 112.6017 -0.89577287 112.5894 -23.617588 -132.34837
12137500000 -22.786648 -123.70882 -0.89397818 112.04425 -0.89843631 112.03745 -23.680264 -132.75484
12165000000 -22.752512 -124.23288 -0.89544517 111.50138 -0.89779204 111.4765 -23.629797 -133.63148
12192500000 -22.696232 -124.69713 -0.89482135 110.93182 -0.89726686 110.91705 -23.472797 -134.2822
12220000000 -22.706821 -125.62012 -0.89652663 110.38401 -0.89774621 110.36588 -23.528393 -134.55202
12247500000 -22.657202 -126.21474 -0.89598697 109.83336 -0.89769655 109.81125 -23.563307 -135.38203
12275000000 -22.638042 -126.82475 -0.89669085 109.26993 -0.90084755 109.26123 -23.391287 -135.89136
12302500000 -22.640347 -127.39417 -0.89364237 108.72745 -0.89808518 108.70247 -23.422541 -136.1797
12330000000 -22.578592 -127.96418 -0.89485443 108.16042 -0.90111196 108.15096 -23.495872 -136.94901
12357500000 -22.537823 -128.59367 -0.89706445 107.60223 -0.89964813 107.5914 -23.284304 -137.48164
12385000000 -22.546995 -129.09962 -0.89627492 107.05434 -0.90066922 107.03735 -23.322239 -137.96515
12412500000 -22.511522 -129.56416 -0.8955301 106.48899 -0.89933926 106.46879 -23.451088 -138.73387
12440000000 -22.45853 -130.35048 -0.89686298 105.93341 -0.89793271 105.92554 -23.306782 -139.75609
12467500000 -22.483967 -130.93677 -0.89710772 105.39915 -0.89917755 105.37534 -23.228622 -139.81778
12495000000 -22.452991 -131.44308 -0.89529914 104.83395 -0.90046346 104.81708 -23.359205 -140.48953
12522500000 -22.375969 -131.92041 -0.8942619 104.26597 -0.89982712 104.26392 -23.309454 -141.54045
12550000000 -22.373835 -132.44121 -0.89537644 103.71562 -0.90008986 103.70425 -23.155838 -142.07207
12577500000 -22.355606 -132.97487 -0.89681304 103.15182 -0.89920872 103.13427 -23.289156 -142.56476
12605000000 -22.301586 -133.5394 -0.8961919 102.59866 -0.90008986 102.59235 -23.250217 -143.6992
12632500000 -22.297504 -134.31012 -0.89754695 102.02093 -0.89912498 102.02125 -23.101797 -144.02649
12660000000 -22.338636 -134.89589 -0.89564145 101.48391 -0.89997649 101.47551 -23.157707 -144.47194
12687500000 -22.251698 -135.43159 -0.89655399 100.92906 -0.89956725 100.90915 -23.221153 -145.63893
12715000000 -22.250622 -136.03946 -0.89547569 100.37032 -0.90000707 100.3616 -23.092297 -146.02055
12742500000 -22.268263 -136.77913 -0.89600861 99.820351 -0.90099025 99.805084 -23.105038 -146.32959
12770000000 -22.250233 -137.48793 -0.89766884 99.247971 -0.90002042 99.250511 -23.194321 -147.24406
12797500000 -22.188795 -137.75333 -0.89532685 98.708008 -0.89815748 98.675484 -23.049427 -147.72192
12825000000 -22.25679 -138.5166 -0.89495051 98.138039 -0.89922082 98.129868 -23.033566 -148.12679
12852500000 -22.238846 -139.1524 -0.89710677 97.568413 -0.90141934 97.563286 -23.14929 -149.02809
12880000000 -22.17515 -139.78291 -0.89627206 97.016151 -0.89971405 97.003601 -23.082338 -149.63518
12907500000 -22.210154 -140.55124 -0.89759594 96.467682 -0.89920998 96.439339 -23.011778 -149.93564
12935000000 -22.203455 -141.24597 -0.8960939 95.888565 -0.90183544 95.885658 -23.089947 -150.84863
12962500000 -22.175837 -141.43481 -0.89442819 95.35434 -0.89957684 95.322739 -23.09054 -151.64345
12990000000 -22.210873 -142.27873 -0.89713508 94.78215 -0.89896262 94.769646 -22.978964 -151.44678
13017500000 -22.224781 -143.16237 -0.89700782 94.221527 -0.89995867 94.197792 -23.071739 -152.62111
13045000000 -22.168316 -143.2928 -0.89735216 93.659874 -0.89948732 93.645035 -23.098019 -153.47905
13072500000 -22.167398 -143.93132 -0.89764369 93.099495 -0.89988506 93.074226 -23.009649 -153.38161
13100000000 -22.254374 -144.90109 -0.89918995 92.531563 -0.9013474 92.521843 -23.024971 -154.06009
13127500000 -22.220594 -145.1897 -0.89661032 91.9823 -0.90085077 91.958649 -23.117672 -155.15527
13155000000 -22.182112 -145.58864 -0.89838219 91.413002 -0.90136778 91.408615 -23.060392 -155.38037
13182500000 -22.248589 -146.38373 -0.89837646 90.851913 -0.90137637 90.843002 -23.028837 -155.84747
13210000000 -22.221992 -146.88507 -0.89638948 90.294975 -0.90257913 90.272179 -23.103058 -157.02525
13237500000 -22.191875 -147.08211 -0.89586133 89.739029 -0.89994019 89.718918 -23.121843 -157.12132
13265000000 -22.215506 -148.05768 -0.8950246 89.163292 -0.90135056 89.16655 -23.006338 -157.30952
13292500000 -22.273506 -148.73927 -0.8971768 88.600571 -0.90343481 88.587944 -23.11389 -158.77147
13320000000 -22.228657 -148.93726 -0.89900655 88.043472 -0.90308803 88.038544 -23.097599 -158.97289
13347500000 -22.237148 -149.73456 -0.90048921 87.492859 -0.90212059 87.466331 -23.037113 -158.98961
13375000000 -22.302231 -150.47867 -0.90130532 86.9076 -0.90511125 86.916985 -23.0506 -160.0724
13402500000 -22.264303 -150.74304 -0.89993542 86.359055 -0.9045763 86.340683 -23.130152 -160.51701
13430000000 -22.270155 -151.54047 -0.90114033 85.802536 -0.90535074 85.771584 -23.058229 -160.63434
13457500000 -22.35218 -152.23183 -0.90231621 85.241905 -0.90664643 85.233383 -23.099163 -161.02406
13485000000 -22.307934 -152.53412 -0.90291244 84.672279 -0.90648347 84.659035 -23.134083 -162.28596
13512500000 -22.333216 -152.98138 -0.90309763 84.12072 -0.90586984 84.097473 -23.113028 -162.10345
13540000000 -22.375547 -154.04517 -0.9043324 83.542519 -0.90506852 83.531136 -23.046972 -162.77144
13567500000 -22.392366 -154.38869 -0.90389186 82.993629 -0.9081614 82.963699 -23.085993 -163.63152
13595000000 -22.375254 -154.4241 -0.90331304 82.428139 -0.90764326 82.409096 -23.160809 -163.49782
13622500000 -22.407516 -155.49907 -0.90483832 81.872658 -0.9089818 81.849396 -23.136477 -164.00713
13650000000 -22.399689 -156.03273 -0.90654087 81.306808 -0.91076642 81.279388 -23.14566 -165.05486
13677500000 -22.393881 -156.31172 -0.90835798 80.733032 -0.9118709 80.719025 -23.197212 -165.41939
13705000000 -22.416416 -156.93427 -0.90791285 80.181038 -0.91209662 80.165672 -23.1901 -165.52609
13732500000 -22.431175 -157.7755 -0.91017807 79.627403 -0.91460621 79.593552 -23.189959 -166.48601
13760000000 -22.462938 -157.67728 -0.9098509 79.075157 -0.91467398 79.039246 -23.217583 -166.99783
13787500000 -22.473829 -158.41353 -0.91207683 78.500984 -0.91778618 78.481308 -23.200987 -166.98659
13815000000 -22.482059 -159.36888 -0.91442025 77.93425 -0.91797775 77.92247 -23.203449 -167.71431
13842500000 -22.494661 -159.44859 -0.91593063 77.395882 -0.92039055 77.356369 -23.22472 -168.66803
13870000000 -22.486557 -159.89897 -0.91604245 76.828812 -0.91943526 76.803101 -23.190382 -168.28094
13897500000 -22.514893 -161.12878 -0.91785234 76.284492 -0.92321038 76.25312 -23.190882 -169.07823
13925000000 -22.516798 -161.37595 -0.92073804 75.717766 -0.92283642 75.695343 -23.191858 -169.97937
13952500000 -22.538717 -161.63229 -0.92169559 75.149185 -0.92374063 75.148628 -23.215282 -169.99124
13980000000 -22.483475 -162.84708 -0.92369705 74.613052 -0.9260397 74.594048 -23.164207 -170.35342
14007500000 -22.470499 -163.34753 -0.92554057 74.067093 -0.92793679 74.051346 -23.146275 -171.30426
14035000000 -22.522835 -163.32993 -0.92570525 73.515305 -0.9288885 73.499611 -23.212515 -171.57988
14062500000 -22.51243 -164.53819 -0.92468083 72.969414 -0.92743778 72.942589 -23.180452 -172.08153
14090000000 -22.505619 -165.35555 -0.92651808 72.425636 -0.9268837 72.399971 -23.172001 -173.37407
14117500000 -22.532545 -165.52229 -0.92457229 71.847534 -0.9286952 71.845856 -23.173679 -173.90031
14145000000 -22.588247 -166.54073 -0.9257645 71.29541 -0.9274137 71.282768 -23.18084 -174.38466
14172500000 -22.545906 -167.53908 -0.92279673 70.748337 -0.9298135 70.73349 -23.19231 -175.19653
14200000000 -22.629276 -167.77464 -0.92196316 70.188995 -0.92574656 70.160233 -23.22298 -176.04373
14227500000 -22.671587 -168.58434 -0.92332917 69.62291 -0.92585099 69.605385 -23.255651 -176.09818
14255000000 -22.638807 -169.46373 -0.92443395 69.062119 -0.92774224 69.048767 -23.282734 -177.13774
14282500000 -22.679996 -169.9223 -0.92303842 68.505272 -0.92636937 68.489304 -23.272381 -177.74873
14310000000 -22.75725 -170.4603 -0.9243865 67.939964 -0.92751497 67.922684 -23.308298 -178.37457
14337500000 -22.686451 -171.21794 -0.92490155 67.383049 -0.92889076 67.357613 -23.350161 -178.77776
14365000000 -22.751301 -171.99637 -0.92421806 66.823395 -0.92975068 66.804161 -23.327612 -179.59883
14392500000 -22.881323 -172.30769 -0.92644471 66.267288 -0.92921042 66.242386 -23.359409 179.97458
14420000000 -22.823643 -173.21846 -0.92466354 65.706673 -0.93073648 65.675476 -23.425665 179.55745
14447500000 -22.805458 -173.6185 -0.92676222 65.164536 -0.92909306 65.11441 -23.456409 178.53011
14475000000 -22.941771 -174.28629 -0.92737043 64.593292 -0.93074256 64.570549 -23.458197 177.94225
14502500000 -22.949942 -175.05031 -0.92643636 64.032471 -0.93017715 64.003906 -23.475264 177.63673
14530000000 -22.893929 -175.85278 -0.92803711 63.472759 -0.9293111 63.454323 -23.507305 176.74495
14557500000 -23.051373 -176.31488 -0.9288491 62.904247 -0.93191952 62.907524 -23.520954 176.08916
14585000000 -23.036467 -176.87843 -0.92803776 62.341488 -0.93329149 62.325123 -23.592573 175.79103
14612500000 -23.010105 -177.35062 -0.93135905 61.785107 -0.93412596 61.771645 -23.641823 174.91449
14640000000 -23.132191 -177.99165 -0.92974424 61.228905 -0.93571317 61.194225 -23.636446 174.47174
14667500000 -23.181265 -178.82016 -0.93331176 60.658501 -0.93552345 60.628914 -23.633467 174.19765
14695000000 -23.125292 -179.27142 -0.93275821 60.116238 -0.93759459 60.07486 -23.698877 173.4245
14722500000 -23.191864 -179.91161 -0.93558091 59.53904 -0.94000322 59.519493 -23.709339 172.71011
14750000000 -23.282822 179.63007 -0.93527234 58.98843 -0.94110584 58.968243 -23.635843 172.69057
14777500000 -23.236034 179.02721 -0.93788725 58.438519 -0.94197232 58.420692 -23.685431 172.06226
14805000000 -23.233948 178.29616 -0.9390288 57.889248 -0.94343984 57.86763 -23.743641 170.95937
14832500000 -23.312294 177.51192 -0.93938714 57.333263 -0.94442844 57.318813 -23.684341 170.74007
14860000000 -23.335295 176.88773 -0.938694 56.778133 -0.94389117 56.768967 -23.774242 170.48218
14887500000 -23.287968 176.33614 -0.935911 56.220894 -0.94326937 56.214615 -23.81151 168.82271
14915000000 -23.38571 175.2318 -0.93667531 55.681992 -0.94220197 55.635738 -23.786818 168.36913
14942500000 -23.45372 174.8512 -0.93847519 55.10796 -0.94204986 55.09338 -23.841751 168.23631
14970000000 -23.452477 174.33089 -0.93541908 54.538773 -0.94263321 54.522808 -23.952461 166.8719
14997500000 -23.524174 173.3463 -0.93931675 53.989536 -0.94286317 53.949055 -23.920355 166.48001
15025000000 -23.606407 172.95578 -0.9406262 53.418999 -0.94398993 53.388432 -23.952814 166.37381
15052500000 -23.626471 172.35831 -0.94011766 52.8563 -0.94507873 52.830593 -24.040459 165.45407
15080000000 -23.634703 171.53035 -0.94250774 52.274441 -0.94529051 52.256981 -24.095745 164.52309
15107500000 -23.767656 171.10181 -0.94259942 51.731911 -0.94514245 51.711315 -24.030313 164.85744
15135000000 -23.742458 170.65862 -0.94389862 51.165508 -0.94859993 51.153435 -24.140406 163.93559
15162500000 -23.761892 169.98212 -0.94386578 50.606159 -0.94931138 50.567341 -24.170446 162.76234
15190000000 -23.874891 169.06958 -0.9460687 50.040009 -0.950822 50.018932 -24.157938 162.98404
15217500000 -23.916023 169.08168 -0.94946021 49.468857 -0.95150191 49.451321 -24.257561 162.47536
15245000000 -23.925768 168.09042 -0.95093089 48.929935 -0.95209849 48.894016 -24.284109 161.1021
15272500000 -23.949898 167.37276 -0.94983935 48.364613 -0.9556005 48.332096 -24.287706 160.90123
15300000000 -24.057182 166.99811 -0.95479417 47.815403 -0.95420724 47.771694 -24.358862 161.14616
15327500000 -24.061226 166.68198 -0.95391184 47.24036 -0.95572311 47.217541 -24.419868 159.37329
15355000000 -24.06963 165.39703 -0.95515668 46.696079 -0.9584778 46.670296 -24.415474 159.17824
15382500000 -24.179064 165.23906 -0.9571901 46.139019 -0.96153599 46.101513 -24.414543 159.55905
15410000000 -24.17239 164.83089 -0.9595964 45.574596 -0.96110314 45.550892 -24.494291 158.55048
15437500000 -24.181509 163.49525 -0.96068752 45.024902 -0.96495801 44.997814 -24.503496 157.20438
15465000000 -24.27684 163.05751 -0.9602803 44.459713 -0.96483165 44.431595 -24.556986 157.84239
15492500000 -24.340864 162.60004 -0.96124464 43.906979 -0.96655202 43.887878 -24.596617 157.19125
15520000000 -24.294674 161.71245 -0.9625749 43.348358 -0.96705103 43.340481 -24.62833 155.88411
15547500000 -24.408251 161.30603 -0.96183705 42.812897 -0.96834391 42.786678 -24.648352 156.23924
15575000000 -24.47489 160.98753 -0.9644919 42.23439 -0.96838146 42.225155 -24.671541 155.70146
15602500000 -24.469576 160.24753 -0.9666419 41.70295 -0.97067904 41.663002 -24.733589 154.16331
15630000000 -24.518831 159.12025 -0.96654749 41.130589 -0.96979874 41.114517 -24.750473 154.21426
15657500000 -24.63254 158.6561 -0.9695282 40.582336 -0.97257179 40.550575 -24.787693 154.43874
15685000000 -24.626865 157.94814 -0.96800137 40.02544 -0.97335392 40.008804 -24.824131 152.97356
15712500000 -24.652035 156.98254 -0.96909648 39.470757 -0.97365677 39.449829 -24.872362 152.45944
15740000000 -24.858185 156.73296 -0.97076905 38.911564 -0.97693437 38.903576 -24.980923 152.87737
15767500000 -24.832535 156.23315 -0.96939391 38.370201 -0.97463799 38.341316 -24.972818 151.87663
15795000000 -24.833994 155.07753 -0.97331572 37.794781 -0.97681642 37.795113 -24.967211 150.77592
15822500000 -24.979092 154.04956 -0.97439599 37.257317 -0.9766916 37.241611 -25.064482 150.80669
15850000000 -25.036911 153.8994 -0.97472906 36.712124 -0.97795302 36.686333 -25.078423 150.25818
15877500000 -25.031315 153.26135 -0.97401828 36.158211 -0.98014116 36.132065 -25.187691 148.95656
15905000000 -25.101517 152.13705 -0.9768495 35.611656 -0.977373 35.56963 -25.248358 148.98212
15932500000 -25.276659 151.76181 -0.97591501 35.052799 -0.97970843 35.025711 -25.276947 148.70105
15960000000 -25.187408 150.92616 -0.97698337 34.501373 -0.97988945 34.458302 -25.307652 147.54012
15987500000 -25.272593 150.0051 -0.97978824 33.930984 -0.98089516 33.901932 -25.389009 146.68494
16015000000 -25.470308 149.49559 -0.97646147 33.382679 -0.98272187 33.367931 -25.435867 147.1823
16042500000 -25.473824 148.69662 -0.97855973 32.827545 -0.98092467 32.816902 -25.439005 146.3252
16070000000 -25.470779 147.86549 -0.97893006 32.266827 -0.98266798 32.261864 -25.580235 145.42804
16097500000 -25.662216 146.88617 -0.98274171 31.709249 -0.98403472 31.683886 -25.637884 145.49864
16125000000 -25.712494 146.55634 -0.98233205 31.166365 -0.98533171 31.130404 -25.629297 144.85951
16152500000 -25.682198 145.8821 -0.98386365 30.606724 -0.98692966 30.575253 -25.71962 143.85306
16180000000 -25.860939 144.79553 -0.98173624 30.062664 -0.98920721 30.032885 -25.800524 143.70605
16207500000 -25.973703 144.27945 -0.98460591 29.495079 -0.98858893 29.478083 -25.791435 143.61731
16235000000 -25.922243 143.58771 -0.98344612 28.957447 -0.98915976 28.9321 -25.93235 142.43994
16262500000 -26.073328 143.01355 -0.98537296 28.391138 -0.99072164 28.376118 -25.977631 141.84814
16290000000 -26.251081 141.48463 -0.98636699 27.846487 -0.98729682 27.808325 -26.064783 141.75963
16317500000 -26.215523 141.33594 -0.98473191 27.30582 -0.99006939 27.264578 -26.087585 140.71114
16345000000 -26.205883 140.26164 -0.98653913 26.742592 -0.99160755 26.721855 -26.244429 139.93124
16372500000 -26.442301 139.39319 -0.98718762 26.191225 -0.98948675 26.155405 -26.26827 139.90125
16400000000 -26.526419 138.33336 -0.98774916 25.634836 -0.99394745 25.611158 -26.366035 139.38531
16427500000 -26.479216 138.09032 -0.98693681 25.091486 -0.9890219 25.062777 -26.408951 138.59225
16455000000 -26.74198 137.21048 -0.98609537 24.525648 -0.99069434 24.500698 -26.536396 138.19424
16482500000 -26.74966 135.86818 -0.98821843 23.972904 -0.99145895 23.938511 -26.636606 137.7047
16510000000 -26.731478 135.42729 -0.98984241 23.424955 -0.99087548 23.392826 -26.71715 136.81233
16537500000 -26.948143 134.37381 -0.99007589 22.867817 -0.99232382 22.849119 -26.771933 136.16194
16565000000 -27.144917 133.25932 -0.99204409 22.30727 -0.99218297 22.285622 -26.807777 135.91011
16592500000 -27.061171 132.80338 -0.99130577 21.760372 -0.99379092 21.747734 -26.889521 135.40846
16620000000 -27.212677 131.99167 -0.9900167 21.210911 -0.99518228 21.171717 -27.086861 134.54562
16647500000 -27.341812 130.35141 -0.99017799 20.666697 -0.99262315 20.627504 -27.092327 133.83319
16675000000 -27.350451 129.92404 -0.99246502 20.112822 -0.9935205 20.070557 -27.204247 133.90816
16702500000 -27.470953 129.40489 -0.99401385 19.557396 -0.99131811 19.521154 -27.340494 132.56805
16730000000 -27.714691 127.4095 -0.99100488 19.007956 -0.99372613 18.977163 -27.319948 132.20276
16757500000 -27.741474 127.47453 -0.99261075 18.45303 -0.99582201 18.423872 -27.479578 131.95807
16785000000 -27.780943 127.06493 -0.9920249 17.896677 -0.99550653 17.868979 -27.623228 131.34331
16812500000 -28.028711 124.82667 -0.99268657 17.350313 -0.99448836 17.315874 -27.614847 130.17731
16840000000 -28.10988 124.01336 -0.99113989 16.788397 -0.99632764 16.756746 -27.77166 130.48697
16867500000 -28.075031 124.45982 -0.99208313 16.229052 -0.99548471 16.225874 -27.892202 129.48604
16895000000 -28.365744 122.10117 -0.99051028 15.687085 -0.99505991 15.656329 -27.917719 128.74365
16922500000 -28.391815 121.06644 -0.99142313 15.140551 -0.99299532 15.098025 -27.966511 128.67726
16950000000 -28.527132 121.28522 -0.98980957 14.584961 -0.99638009 14.549356 -28.238579 128.29181
16977500000 -28.716192 119.60287 -0.99160725 14.039623 -0.99494791 14.006062 -28.210388 127.14762
17005000000 -28.701813 117.62334 -0.98982394 13.478421 -0.99535841 13.456587 -28.1992 126.21731
17032500000 -28.825607 118.07078 -0.99426115 12.928499 -0.99644423 12.893799 -28.522411 126.35725
17060000000 -29.045269 117.37312 -0.98985577 12.36903 -0.99703461 12.317194 -28.526339 125.12457
17087500000 -29.18766 113.99962 -0.98636043 11.811532 -0.99317753 11.791516 -28.45682 124.31068
17115000000 -29.278419 114.62891 -0.98959893 11.253513 -0.99295664 11.226548 -28.792397 124.09904
17142500000 -29.436945 113.71256 -0.99121761 10.702641 -0.99862868 10.665704 -28.852318 123.82082
17170000000 -29.43284 110.43233 -0.99151421 10.147297 -0.99568558 10.107356 -28.771944 123.12176
17197500000 -29.652327 111.1879 -0.99048722 9.5769281 -0.99514097 9.5518894 -29.067192 122.71815
17225000000 -29.918472 111.82185 -0.99222106 9.023469 -0.997033 8.9999895 -29.156097 122.08071
17252500000 -29.877411 108.33513 -0.9893229 8.5008774 -0.99652433 8.4523706 -29.117584 121.14509
17280000000 -29.903162 107.29308 -0.99177802 7.9524031 -0.99522007 7.8943386 -29.289591 119.9669
17307500000 -30.367947 107.65084 -0.99152005 7.3621707 -0.99623322 7.3320613 -29.460991 119.93996
17335000000 -30.362892 104.18217 -0.99488056 6.8062286 -0.99649173 6.7909355 -29.426092 119.03751
17362500000 -30.270855 102.79514 -0.99166352 6.2753096 -0.99708962 6.2237554 -29.422974 118.4438
17390000000 -30.679325 103.60751 -0.99119484 5.6957431 -0.99881148 5.6864505 -29.901154 117.84679
17417500000 -30.787708 102.17052 -0.99019748 5.1467037 -0.99606651 5.1259747 -29.908686 116.45563
17445000000 -30.59194 98.971062 -0.99194783 4.6156974 -0.99379516 4.5715218 -29.816084 116.14537
17472500000 -31.046663 98.676247 -0.9925766 4.035892 -0.99642503 4.0119505 -30.170244 116.46719
17500000000 -31.263308 97.753036 -0.99185282 3.4727495 -0.99836284 3.4314685 -30.340157 115.05492
17527500000 -31.082832 95.614784 -0.991014 2.9482708 -0.99466115 2.9076002 -30.107496 113.86008
17555000000 -31.514771 95.132278 -0.99136496 2.3905394 -0.99585068 2.359798 -30.527128 114.71654
17582500000 -31.827524 93.775291 -0.9927702 1.7981153 -0.9930402 1.7768079 -30.886644 113.11605
17610000000 -31.474251 90.724335 -0.98942792 1.2650926 -0.99442846 1.2339671 -30.61541 112.64919
17637500000 -31.750616 90.312035 -0.98869133 0.72357976 -0.99098021 0.68039417 -30.877104 111.94812
17665000000 -32.309219 88.528511 -0.98788631 0.16241235 -0.99366826 0.1095537 -31.3493 111.23242
17692500000 -31.97632 86.639595 -0.98645043 -0.38882747 -0.9944405 -0.43899685 -31.292788 110.1463
17720000000 -32.190182 86.065102 -0.99172759 -0.92510921 -0.99248356 -0.97831726 -31.185337 108.99631
17747500000 -32.66695 84.198456 -0.9919917 -1.5042955 -0.99445516 -1.5552763 -31.78437 108.54319
17775000000 -32.476131 81.412827 -0.99135125 -2.0937903 -0.9948864 -2.1114249 -31.749409 108.31762
17802500000 -32.503117 80.958252 -0.9896282 -2.6453378 -0.99135876 -2.661438 -31.662876 108.27034
17830000000 -33.20192 77.50473 -0.98730886 -3.1835842 -0.99225098 -3.208498 -32.177658 106.92762
17857500000 -32.938553 75.073853 -0.9909519 -3.7353301 -0.99326932 -3.7732513 -32.453419 106.47644
17885000000 -33.034966 75.050438 -0.9905386 -4.2959671 -0.99362332 -4.325448 -32.045715 105.62662
17912500000 -33.477421 71.71492 -0.98949099 -4.8657942 -0.99638623 -4.8634195 -32.495094 105.72946
17940000000 -33.579544 67.671349 -0.98919159 -5.4183292 -0.99359405 -5.457057 -32.936378 104.28445
17967500000 -33.261753 68.454071 -0.9897176 -5.9490829 -0.99173313 -5.9724703 -32.682503 104.08498
17995000000 -33.799431 64.102745 -0.98781741 -6.5276313 -0.99276793 -6.5738797 -32.910912 104.61248
18022500000 -34.035389 60.630089 -0.98805302 -7.0785613 -0.99186748 -7.1278939 -33.648071 102.4993
18050000000 -33.807076 60.856651 -0.98929268 -7.6628447 -0.99267715 -7.6707783 -33.511204 101.80542
18077500000 -34.064495 58.267998 -0.99235767 -8.1895847 -0.9916417 -8.2209778 -33.534729 103.93172
18105000000 -34.391045 53.276211 -0.98839623 -8.7381172 -0.99218106 -8.7815065 -34.261669 101.31068
18132500000 -34.291561 53.822216 -0.98843747 -9.3007088 -0.99065435 -9.3315077 -34.33353 98.637596
18160000000 -34.449032 50.761452 -0.9842065 -9.8532038 -0.99278319 -9.9148035 -34.059978 102.94361
18187500000 -34.751091 45.222813 -0.98530996 -10.420173 -0.9919582 -10.461669 -34.99268 99.075218
18215000000 -34.760914 43.747276 -0.98644722 -10.989244 -0.99004823 -10.989875 -35.398235 96.895287
18242500000 -34.67329 44.125175 -0.98948741 -11.519114 -0.9896217 -11.552616 -34.911781 100.70515
18270000000 -34.916355 37.751339 -0.9877277 -12.102264 -0.99077892 -12.12567 -35.771721 99.87574
18297500000 -34.70116 34.845062 -0.98443836 -12.633758 -0.98863739 -12.688434 -36.251831 96.645203
18325000000 -34.906311 35.07029 -0.988222 -13.197652 -0.99088198 -13.236817 -35.949039 98.205963
18352500000 -34.79015 29.348991 -0.98846579 -13.741667 -0.99072266 -13.794331 -36.49297 99.064697
18380000000 -34.817028 25.706005 -0.9862802 -14.312088 -0.98692054 -14.357999 -37.266682 95.381294
18407500000 -34.930378 25.891718 -0.98303872 -14.857666 -0.98838973 -14.913322 -37.29731 96.67057
18435000000 -34.944546 21.328058 -0.98714995 -15.440811 -0.9903903 -15.483845 -37.613869 98.619186
18462500000 -34.830196 17.599737 -0.98425651 -15.980838 -0.98860842 -16.027191 -38.670872 93.719139
18490000000 -34.875607 18.358868 -0.9848001 -16.514524 -0.98789507 -16.582956 -39.003494 91.22805
18517500000 -34.71418 13.578845 -0.98542982 -17.106695 -0.99249429 -17.161228 -38.686031 97.036491
18545000000 -34.511215 8.4698029 -0.98142892 -17.671223 -0.98549283 -17.718781 -40.140709 95.372345
18572500000 -34.606655 7.8234148 -0.98091006 -18.226198 -0.98791617 -18.256601 -40.576622 89.832382
18600000000 -34.507145 7.6007056 -0.9850859 -18.781609 -0.98881161 -18.804207 -40.406597 95.198586
18627500000 -34.070576 1.0006007 -0.98045033 -19.363964 -0.98519826 -19.38168 -41.411705 97.457451
18655000000 -34.140675 -0.50555611 -0.98150939 -19.881037 -0.9864735 -19.940432 -42.610619 91.996094
18682500000 -34.367596 -2.4788334 -0.98450589 -20.462303 -0.99007165 -20.497776 -42.307442 92.942673
18710000000 -33.840916 -5.2257257 -0.97959071 -21.026974 -0.98890585 -21.036867 -43.186554 96.697487
18737500000 -33.807594 -8.7233925 -0.98087311 -21.565418 -0.98658007 -21.59466 -45.725941 91.955826
18765000000 -33.940121 -8.4330902 -0.98326951 -22.10965 -0.98847455 -22.152002 -44.845161 92.675514
18792500000 -33.858284 -11.596932 -0.98306406 -22.673714 -0.98438507 -22.711485 -46.114685 100.87735
18820000000 -33.418762 -15.263642 -0.9851765 -23.256086 -0.98547757 -23.292686 -49.182648 99.137512
18847500000 -33.485634 -16.424259 -0.98092955 -23.797039 -0.98462671 -23.834951 -49.118732 80.037682
18875000000 -33.206158 -19.425432 -0.98215425 -24.376902 -0.98237526 -24.393394 -49.621357 103.7887
18902500000 -32.945595 -21.09103 -0.97921968 -24.908583 -0.98412889 -24.95849 -55.117344 103.74723
18930000000 -32.942429 -22.732285 -0.98086208 -25.471432 -0.98254502 -25.517672 -55.741455 86.325066
18957500000 -33.024406 -24.578773 -0.98283613 -26.048269 -0.98192573 -26.090734 -56.023029 122.69753
18985000000 -32.471302 -26.137945 -0.98014116 -26.608397 -0.9825716 -26.627508 -60.012657 179.65277
19012500000 -32.37254 -28.029978 -0.97595686 -27.144764 -0.98445588 -27.195503 -61.133633 -120.49158
19040000000 -32.664547 -30.066681 -0.98227757 -27.697182 -0.98675519 -27.76046 -59.797462 -148.4993
19067500000 -32.181168 -31.141254 -0.97730684 -28.293442 -0.98113364 -28.317678 -52.306084 -123.01809
19095000000 -32.037201 -33.092285 -0.97769493 -28.829966 -0.97947037 -28.877104 -51.338474 -110.55602
19122500000 -32.094246 -35.311916 -0.97891319 -29.393976 -0.98343897 -29.425177 -52.375793 -122.30446
19150000000 -31.79657 -37.080738 -0.98128742 -29.962023 -0.98046947 -30.003706 -48.000004 -119.66846
19177500000 -31.296227 -38.906544 -0.97869527 -30.522938 -0.98011845 -30.548588 -46.522221 -108.96391
19205000000 -31.581545 -41.083645 -0.97712338 -31.068905 -0.98219836 -31.099483 -46.780754 -115.58556
19232500000 -31.383192 -42.31152 -0.97786647 -31.653799 -0.9792949 -31.673668 -44.84922 -111.7517
19260000000 -31.035742 -42.801617 -0.9757964 -32.205948 -0.97904456 -32.241451 -43.252838 -110.32095
19287500000 -31.014006 -45.518105 -0.975963 -32.752472 -0.98209095 -32.775528 -43.424091 -110.60873
19315000000 -30.959019 -47.353203 -0.97341126 -33.298321 -0.97869074 -33.346375 -42.858292 -109.86104
19342500000 -30.6425 -47.100067 -0.97398102 -33.880714 -0.9771046 -33.927116 -41.345325 -111.28647
19370000000 -30.464657 -49.350761 -0.9776755 -34.428585 -0.97831458 -34.458031 -41.389046 -111.87712
19397500000 -30.587667 -52.385345 -0.97926056 -34.983463 -0.9792015 -35.024761 -41.257881 -114.72305
19425000000 -30.206099 -51.804157 -0.972395 -35.561378 -0.97622031 -35.60598 -39.853348 -112.50625
19452500000 -30.126623 -52.753052 -0.97547108 -36.118797 -0.97775686 -36.173527 -39.538326 -112.97245
19480000000 -30.035576 -56.397385 -0.97717136 -36.663723 -0.97715515 -36.723076 -39.519703 -114.19138
19507500000 -29.846336 -55.975021 -0.97343814 -37.224377 -0.97896278 -37.267593 -38.77882 -115.02462
19535000000 -29.691275 -55.40947 -0.97166514 -37.807636 -0.97376335 -37.845856 -38.028152 -113.38694
19562500000 -29.634436 -59.400768 -0.97514087 -38.353176 -0.97655159 -38.369152 -37.955505 -113.92268
19590000000 -29.541367 -60.781757 -0.97260869 -38.917217 -0.97287655 -38.953529 -37.772327 -115.34042
19617500000 -29.24168 -60.017242 -0.96551603 -39.489819 -0.97299212 -39.53466 -36.797401 -115.4835
19645000000 -29.229361 -63.500721 -0.97413361 -40.053226 -0.97590983 -40.086594 -36.757561 -116.64964
19672500000 -28.981878 -65.064003 -0.97385275 -40.597992 -0.97475791 -40.645287 -36.895973 -116.6279
19700000000 -28.973236 -63.690567 -0.96947187 -41.17181 -0.97347635 -41.227379 -35.937653 -117.03577
19727500000 -28.854771 -66.337006 -0.97115785 -41.753532 -0.97661513 -41.77515 -35.566734 -118.58504
19755000000 -28.572714 -68.408455 -0.96998644 -42.31908 -0.97395122 -42.345242 -35.613857 -118.51295
19782500000 -28.642233 -67.361092 -0.96624482 -42.846359 -0.97225124 -42.899536 -35.270779 -117.66833
19810000000 -28.491556 -68.530174 -0.97386086 -43.421253 -0.97519112 -43.469902 -34.525749 -119.5583
19837500000 -28.227993 -71.746643 -0.97165352 -44.013893 -0.97691071 -44.01284 -34.792171 -121.00575
19865000000 -28.198925 -71.093666 -0.96868885 -44.559101 -0.97214437 -44.58707 -34.607025 -119.91557
19892500000 -28.185535 -71.992699 -0.96845686 -45.125732 -0.97104067 -45.144882 -33.969025 -120.47646
19920000000 -27.858686 -75.076164 -0.97288752 -45.671967 -0.97500318 -45.72028 -34.09877 -122.50705
19947500000 -27.744274 -73.998764 -0.97163278 -46.23653 -0.97402215 -46.273964 -34.002064 -123.05833
19975000000 -27.804457 -75.466057 -0.96929228 -46.814571 -0.97231823 -46.847126 -33.230206 -121.20758
20002500000 -27.559669 -77.64547 -0.97398329 -47.366924 -0.97508967 -47.419544 -33.083054 -124.5191
20030000000 -27.353554 -77.909996 -0.97461957 -47.928158 -0.97733021 -47.980705 -33.247433 -123.30077
20057500000 -27.557526 -78.139366 -0.97395933 -48.487778 -0.97271752 -48.520611 -32.782883 -123.11193
20085000000 -27.153736 -81.069534 -0.97329855 -49.073601 -0.97444689 -49.111824 -32.257343 -125.34347
20112500000 -26.897038 -80.98259 -0.97450906 -49.623684 -0.9777624 -49.662796 -32.680809 -126.45271
20140000000 -27.130951 -81.104568 -0.97173542 -50.179188 -0.97585994 -50.209682 -32.198235 -125.68674
20167500000 -26.887283 -83.033234 -0.97510201 -50.743504 -0.97640705 -50.790222 -31.709028 -126.57041
20195000000 -26.490288 -84.334358 -0.97339702 -51.306206 -0.97700477 -51.361683 -31.838076 -127.34669
20222500000 -26.604557 -84.699898 -0.97198635 -51.878872 -0.97882366 -51.91222 -31.671766 -128.53197
20250000000 -26.607292 -86.276932 -0.96960294 -52.443188 -0.97719014 -52.473057 -31.119181 -128.96625
20277500000 -26.149332 -87.006088 -0.97719991 -53.006054 -0.98036373 -53.052265 -31.077501 -129.41133
20305000000 -26.278238 -87.220421 -0.97407526 -53.553295 -0.9799096 -53.621708 -31.333464 -129.58228
20332500000 -26.351372 -89.041214 -0.97039324 -54.123184 -0.97638208 -54.153858 -30.710236 -129.55269
20360000000 -25.924627 -89.923286 -0.97808826 -54.693462 -0.97891515 -54.734379 -30.427254 -131.45404
20387500000 -25.789148 -90.275192 -0.97176683 -55.265865 -0.9812063 -55.312962 -30.851715 -132.17516
20415000000 -26.044857 -91.734451 -0.97302097 -55.827892 -0.97433901 -55.860168 -30.312216 -133.17093
20442500000 -25.659935 -93.228363 -0.9764958 -56.407898 -0.97944117 -56.434708 -29.860842 -132.98375
20470000000 -25.597691 -92.86985 -0.97712696 -56.945564 -0.97966921 -56.998894 -30.117416 -134.34615
20497500000 -25.66128 -94.86467 -0.97832334 -57.511463 -0.9781599 -57.557411 -29.88323 -134.34114
20525000000 -25.478559 -95.689186 -0.9776985 -58.084038 -0.97820526 -58.129726 -29.359802 -134.66267
20552500000 -25.196287 -95.502388 -0.9752627 -58.659378 -0.98052335 -58.70015 -29.438879 -136.59235
20580000000 -25.323711 -97.15731 -0.97751206 -59.222496 -0.97898716 -59.246544 -29.498878 -136.07384
20607500000 -25.199818 -98.025017 -0.97884572 -59.785801 -0.97869593 -59.832657 -28.906961 -135.77557
20635000000 -25.006865 -98.166481 -0.98203152 -60.355583 -0.98048896 -60.387604 -28.951912 -137.40804
20662500000 -24.987047 -99.266006 -0.98039067 -60.935432 -0.98196244 -60.963181 -29.014944 -138.02014
20690000000 -24.950109 -101.15417 -0.97793067 -61.491005 -0.98297507 -61.521996 -28.558491 -137.64494
20717500000 -24.753998 -100.84348 -0.98414612 -62.042175 -0.98610252 -62.108242 -28.552628 -138.54533
20745000000 -24.626814 -101.52175 -0.9824788 -62.611 -0.98439223 -62.659603 -28.627745 -139.49187
20772500000 -24.696148 -102.94844 -0.98329908 -63.195877 -0.98499334 -63.218536 -28.263554 -139.72231
20800000000 -24.404503 -103.61449 -0.98872644 -63.757591 -0.99048233 -63.794193 -28.031555 -140.02022
20827500000 -24.309906 -103.86929 -0.9894923 -64.314247 -0.98643714 -64.355843 -28.068956 -140.53267
20855000000 -24.272772 -105.84229 -0.99226755 -64.877075 -0.99228156 -64.89624 -27.794165 -140.61658
20882500000 -24.171999 -105.93889 -0.9981879 -65.440308 -0.99882513 -65.464943 -27.493546 -140.44397
20910000000 -23.909147 -106.37099 -0.99426377 -65.979881 -1.0000103 -66.030159 -27.441751 -141.79485
20937500000 -23.88365 -107.98489 -0.99629641 -66.518372 -0.99882936 -66.561981 -27.242582 -142.57793
20965000000 -23.791746 -108.99458 -0.99825764 -67.077751 -0.99610591 -67.092873 -26.951132 -142.77489
20992500000 -23.663239 -108.80359 -0.9940955 -67.603416 -0.99493331 -67.636848 -26.801136 -143.96475
21020000000 -23.578676 -110.64603 -0.99707431 -68.139778 -0.99666822 -68.205688 -26.80867 -144.82246
21047500000 -23.616339 -113.04222 -0.99154121 -68.702034 -0.99405062 -68.776443 -26.604448 -145.77858
21075000000 -23.488171 -112.15894 -0.99141371 -69.272964 -0.9959926 -69.323502 -26.447239 -146.68684
21102500000 -23.420963 -113.8442 -0.98974752 -69.828362 -0.99049306 -69.8647 -26.46422 -148.0014
21130000000 -23.43837 -115.50877 -0.98762143 -70.397186 -0.9936282 -70.437012 -26.331675 -148.87825
21157500000 -23.36767 -115.3203 -0.98991102 -70.973206 -0.99247187 -71.038559 -26.109577 -149.25774
21185000000 -23.248568 -115.83327 -0.98487806 -71.541054 -0.9891389 -71.562141 -26.166142 -149.47812
21212500000 -23.230825 -117.76604 -0.98817843 -72.101463 -0.99037308 -72.153404 -26.061838 -150.9901
21240000000 -23.206411 -118.25064 -0.9877826 -72.68084 -0.98970717 -72.737114 -25.780378 -151.00769
21267500000 -23.120722 -118.55205 -0.98381299 -73.260796 -0.98854411 -73.262497 -25.826847 -151.5304
21295000000 -23.042261 -119.69561 -0.988249 -73.827827 -0.98903 -73.84848 -25.771906 -152.10986
21322500000 -23.038553 -120.89908 -0.98822623 -74.417366 -0.9933064 -74.426849 -25.568275 -152.88983
21350000000 -22.92304 -120.71484 -0.98496574 -74.962296 -0.99281865 -74.987732 -25.535564 -153.43842
21377500000 -22.82456 -121.7589 -0.98935932 -75.50766 -0.99089432 -75.557434 -25.548109 -153.75475
21405000000 -22.876013 -122.84877 -0.99027097 -76.107468 -0.99427158 -76.134727 -25.310839 -154.16444
21432500000 -22.82513 -122.92647 -0.99440795 -76.639038 -0.9910059 -76.697968 -25.382853 -154.94746
21460000000 -22.690601 -124.13959 -0.99382281 -77.235855 -0.99514323 -77.265289 -25.255991 -155.27147
21487500000 -22.634758 -124.99332 -0.99299502 -77.802368 -0.99723226 -77.814438 -25.169828 -156.08221
21515000000 -22.695135 -125.61839 -0.99556643 -78.369804 -0.99941975 -78.394386 -25.089973 -157.05119
21542500000 -22.505735 -125.80891 -0.99627262 -78.904396 -0.99916792 -78.961075 -25.02565 -156.62021
21570000000 -22.532452 -127.50475 -1.0020615 -79.452614 -1.0047411 -79.519424 -24.894478 -157.70308
21597500000 -22.48328 -127.81232 -1.0001276 -80.058136 -1.0048155 -80.080582 -24.774359 -158.19356
21625000000 -22.387487 -128.03499 -1.0004003 -80.594994 -1.0061778 -80.634026 -24.770103 -158.36343
21652500000 -22.290499 -129.56296 -1.0035648 -81.172668 -1.008468 -81.190254 -24.625603 -158.84592
21680000000 -22.350664 -130.51324 -1.0037543 -81.725624 -1.00747 -81.75856 -24.548645 -159.96259
21707500000 -22.200312 -130.7198 -1.0015761 -82.254356 -1.0077134 -82.304192 -24.445713 -160.25259
21735000000 -22.134916 -131.8907 -1.0056883 -82.792076 -1.0096707 -82.850021 -24.36598 -160.29617
21762500000 -22.182663 -133.00142 -1.0059268 -83.403145 -1.0099699 -83.430458 -24.216408 -161.47037
21790000000 -22.133512 -133.61714 -1.0065775 -83.93763 -1.0067179 -83.959488 -24.17251 -162.72514
21817500000 -22.00955 -134.55519 -1.0045065 -84.50312 -1.0095444 -84.517967 -24.173355 -162.36295
21845000000 -22.059801 -135.75711 -1.0064359 -85.061287 -1.0064796 -85.093315 -23.924814 -163.45627
21872500000 -22.032654 -136.11838 -1.0056438 -85.630325 -1.0041418 -85.655571 -23.895536 -164.12379
21900000000 -21.94927 -136.96767 -1.0025425 -86.181137 -1.0055888 -86.207825 -23.947617 -164.43529
21927500000 -21.89152 -137.88846 -1.0026699 -86.766594 -1.0085751 -86.781998 -23.759104 -165.50436
21955000000 -21.975943 -138.70654 -1.0037726 -87.325233 -1.0083482 -87.350967 -23.637541 -166.77156
21982500000 -21.878107 -139.16275 -1.0043858 -87.874596 -1.0066595 -87.902824 -23.704136 -166.55994
22010000000 -21.747549 -140.04575 -1.0033922 -88.459816 -1.0099961 -88.485786 -23.563927 -166.95921
22037500000 -21.855591 -140.89224 -1.0061057 -89.010452 -1.0091071 -89.07914 -23.442951 -168.36281
22065000000 -21.782494 -141.21663 -1.0075268 -89.574615 -1.0085813 -89.613251 -23.489492 -168.72595
22092500000 -21.668316 -142.05106 -1.0068141 -90.14093 -1.0086849 -90.175987 -23.462996 -168.03423
22120000000 -21.654692 -143.00664 -1.0078291 -90.722557 -1.0085255 -90.748024 -23.245857 -169.88173
22147500000 -21.721594 -143.75655 -1.0101875 -91.288803 -1.0105168 -91.318298 -23.254757 -170.92691
22175000000 -21.571373 -144.18777 -1.0106194 -91.843231 -1.0118668 -91.850777 -23.390388 -170.75807
22202500000 -21.57098 -145.0966 -1.0081428 -92.411552 -1.0123024 -92.458878 -23.053949 -171.23129
22230000000 -21.637669 -146.00142 -1.0123073 -92.971291 -1.0140613 -93.02446 -23.056053 -172.46268
22257500000 -21.481363 -146.30685 -1.0142647 -93.539513 -1.0164601 -93.56192 -23.153223 -172.679
22285000000 -21.411367 -147.15924 -1.0138675 -94.125359 -1.0185752 -94.141853 -22.964806 -173.2316
22312500000 -21.509708 -148.32472 -1.011806 -94.681198 -1.0165308 -94.723816 -22.748657 -174.36127
22340000000 -21.362738 -148.64748 -1.0161421 -95.234352 -1.0210645 -95.264229 -22.958498 -174.7829
22367500000 -21.302906 -149.25485 -1.0188698 -95.810066 -1.0249628 -95.824677 -22.81151 -174.54218
22395000000 -21.333227 -150.90288 -1.0218977 -96.36174 -1.0203232 -96.396263 -22.565283 -175.86905
22422500000 -21.289816 -150.7168 -1.0176035 -96.937721 -1.0259397 -96.970955 -22.791405 -177.2437
22450000000 -21.178364 -151.28603 -1.0219756 -97.501396 -1.0275267 -97.514526 -22.709076 -176.13847
22477500000 -21.182076 -152.67514 -1.0232519 -98.072067 -1.0280629 -98.061836 -22.406555 -176.77867
22505000000 -21.159391 -153.67484 -1.026825 -98.614685 -1.0261124 -98.629524 -22.462484 -179.14818
22532500000 -21.072701 -153.47328 -1.0276139 -99.166008 -1.0294378 -99.201881 -22.521442 -178.34818
22560000000 -21.061302 -154.87512 -1.0309325 -99.730377 -1.0314889 -99.78215 -22.270697 -178.49399
22587500000 -21.013985 -156.00356 -1.0286498 -100.27937 -1.0297669 -100.32855 -22.15086 179.42517
22615000000 -20.916199 -156.10065 -1.032564 -100.83504 -1.0331854 -100.87199 -22.332674 179.02895
22642500000 -20.867489 -156.78946 -1.0293236 -101.40482 -1.032724 -101.45403 -22.119019 179.35855
22670000000 -20.937878 -158.74893 -1.0264177 -101.98 -1.0336195 -101.99728 -21.98278 177.61909
22697500000 -20.79878 -158.51445 -1.0319951 -102.53761 -1.0364047 -102.56361 -22.104822 176.5899
22725000000 -20.85173 -158.93417 -1.0343029 -103.12695 -1.0383857 -103.13925 -22.066877 176.96169
22752500000 -20.821402 -160.73349 -1.0311718 -103.65372 -1.0344373 -103.71046 -21.806284 176.10843
22780000000 -20.718359 -161.22672 -1.0362325 -104.20859 -1.0377986 -104.26199 -21.868362 173.97911
22807500000 -20.741011 -160.68279 -1.0343602 -104.7924 -1.0402211 -104.82517 -21.936813 175.06183
22835000000 -20.694948 -162.74786 -1.0366141 -105.36944 -1.0409013 -105.39848 -21.741249 174.69467
22862500000 -20.579998 -163.59949 -1.0389086 -105.92809 -1.043268 -105.96107 -21.631807 172.50589
22890000000 -20.640285 -163.19012 -1.0402405 -106.52188 -1.0464615 -106.55621 -21.766954 172.53827
22917500000 -20.563118 -164.47668 -1.0441996 -107.06907 -1.0471323 -107.11702 -21.730925 172.95395
22945000000 -20.478456 -165.86971 -1.0422786 -107.63807 -1.0464803 -107.67104 -21.528296 170.96211
22972500000 -20.496696 -165.43376 -1.0494745 -108.18236 -1.0527169 -108.21487 -21.644793 170.16566
23000000000 -20.475996 -166.39828 -1.0522591 -108.77966 -1.0541461 -108.79798 -21.581982 171.306
23027500000 -20.344681 -168.05621 -1.052168 -109.32528 -1.0548922 -109.35138 -21.424837 169.65482
23055000000 -20.40263 -167.79445 -1.0549345 -109.88091 -1.0633307 -109.92924 -21.444777 168.22505
23082500000 -20.342937 -168.59099 -1.0604151 -110.45792 -1.0591041 -110.50597 -21.46081 169.38011
23110000000 -20.207165 -170.33653 -1.0573437 -110.98805 -1.0616324 -111.02059 -21.258928 168.69746
23137500000 -20.195267 -170.2278 -1.0645715 -111.58432 -1.0640526 -111.5768 -21.222189 166.8365
23165000000 -20.270645 -170.72784 -1.0639877 -112.1356 -1.0692378 -112.14391 -21.314903 167.19791
23192500000 -20.064608 -172.26823 -1.0665427 -112.67614 -1.0656513 -112.67908 -21.148241 166.68994
23220000000 -20.018089 -172.96777 -1.0714113 -113.23236 -1.0708932 -113.26569 -20.986177 165.07692
23247500000 -20.090233 -173.14371 -1.0715805 -113.80305 -1.076396 -113.85297 -21.116941 165.39401
23275000000 -19.935242 -174.28659 -1.0737922 -114.3463 -1.0760428 -114.36873 -20.999146 165.0518
23302500000 -19.872219 -175.12802 -1.0745901 -114.89493 -1.0737295 -114.94258 -20.805254 163.83575
23330000000 -20.011848 -175.12386 -1.0787634 -115.48436 -1.0776505 -115.50178 -20.921389 163.15141
23357500000 -19.873528 -176.65771 -1.076337 -116.01959 -1.0783665 -116.05376 -20.872427 163.58498
23385000000 -19.673693 -177.20491 -1.0788039 -116.56764 -1.0804578 -116.59949 -20.744133 162.23337
23412500000 -19.825739 -177.72563 -1.0852666 -117.14079 -1.0853785 -117.18137 -20.671114 160.79718
23440000000 -19.760805 -179.04965 -1.084339 -117.67783 -1.0860642 -117.73396 -20.704762 161.32744
23467500000 -19.570965 -179.8045 -1.0848283 -118.21862 -1.0903394 -118.28634 -20.558456 160.66278
23495000000 -19.67687 179.76845 -1.0903262 -118.80349 -1.0924811 -118.83428 -20.510061 159.27655
23522500000 -19.673912 178.67487 -1.0891474 -119.35216 -1.0937723 -119.42658 -20.619667 159.32433
23550000000 -19.443439 177.84007 -1.0932642 -119.92287 -1.0938106 -119.95702 -20.483034 158.4274
23577500000 -19.485085 177.03903 -1.0967047 -120.47189 -1.0963715 -120.51671 -20.31019 157.85463
23605000000 -19.58173 176.04482 -1.0976261 -121.01685 -1.0989115 -121.06987 -20.474716 157.06674
23632500000 -19.350826 175.36938 -1.0986319 -121.56144 -1.1012229 -121.62056 -20.357548 156.82553
23660000000 -19.346487 174.60878 -1.1013227 -122.13136 -1.100848 -122.16602 -20.191135 156.12592
23687500000 -19.487833 173.66649 -1.1016235 -122.69719 -1.1050326 -122.73619 -20.224798 155.43295
23715000000 -19.324385 172.79877 -1.1055454 -123.24933 -1.10128 -123.26669 -20.226158 155.032
23742500000 -19.243134 171.99432 -1.1038098 -123.75832 -1.1058958 -123.82085 -20.136665 154.33293
23770000000 -19.345318 171.35052 -1.1085967 -124.35023 -1.1081944 -124.39635 -20.091738 153.50078
23797500000 -19.274811 170.35425 -1.1097142 -124.90044 -1.1111088 -124.93215 -20.158449 153.57524
23825000000 -19.107624 169.91522 -1.1077628 -125.42225 -1.1153616 -125.48205 -19.995689 152.61003
23852500000 -19.279257 168.83145 -1.1112505 -126.01692 -1.1137106 -126.07827 -19.949593 152.13144
23880000000 -19.244259 167.6501 -1.113346 -126.57758 -1.1156688 -126.60913 -19.997976 151.63666
23907500000 -19.054548 167.44888 -1.1156336 -127.12452 -1.117084 -127.14895 -19.911806 150.78925
23935000000 -19.173761 166.45822 -1.1185051 -127.68041 -1.1188135 -127.72955 -19.809908 150.34023
23962500000 -19.200041 165.10918 -1.1130939 -128.25832 -1.1213701 -128.30353 -19.932732 149.63237
23990000000 -19.036478 165.01767 -1.1153997 -128.78119 -1.1213802 -128.82097 -19.793465 148.96082
24017500000 -19.090149 164.22227 -1.1216245 -129.34761 -1.1263609 -129.3849 -19.706631 148.69994
24045000000 -19.144642 162.69341 -1.120458 -129.90608 -1.120061 -129.93138 -19.777596 148.07956
24072500000 -19.020252 162.34413 -1.1236247 -130.46092 -1.1224453 -130.51427 -19.692923 147.25095
24100000000 -18.977484 162.04382 -1.1264703 -130.99312 -1.1319406 -131.04013 -19.598793 146.84525
24127500000 -19.055347 160.31927 -1.1269501 -131.56729 -1.1276588 -131.62204 -19.619858 146.42044
24155000000 -19.04814 160.15115 -1.1231641 -132.142 -1.129766 -132.15491 -19.583061 145.86061
24182500000 -18.932119 159.84995 -1.132884 -132.657 -1.1352986 -132.7034 -19.468916 145.23999
24210000000 -18.990099 158.19873 -1.1303972 -133.23505 -1.1352454 -133.25429 -19.520065 145.02371
24237500000 -18.963346 157.54921 -1.1337174 -133.77507 -1.1334946 -133.8076 -19.500006 143.93217
24265000000 -18.913054 157.50952 -1.136538 -134.32178 -1.1361724 -134.33682 -19.334135 143.04045
24292500000 -18.897917 156.20082 -1.1360416 -134.87923 -1.1415625 -134.92917 -19.376717 143.18549
24320000000 -18.918016 154.92728 -1.1365811 -135.43201 -1.1381814 -135.50015 -19.426884 142.56512
24347500000 -18.858578 154.8965 -1.1404946 -135.97664 -1.1353978 -136.02855 -19.262459 141.52885
24375000000 -18.881237 154.17961 -1.1439794 -136.52191 -1.1380018 -136.57407 -19.204662 141.13872
24402500000 -18.847448 152.40648 -1.1390293 -137.09642 -1.141881 -137.15245 -19.31505 140.95389
24430000000 -18.830111 152.69426 -1.1396656 -137.63982 -1.1474227 -137.66661 -19.156147 139.79517
24457500000 -18.784786 151.73767 -1.1416931 -138.16989 -1.1463985 -138.24518 -19.069138 139.20068
24485000000 -18.809818 150.28616 -1.1420661 -138.71599 -1.1478164 -138.81224 -19.203369 138.92352
24512500000 -18.742216 149.78233 -1.1467289 -139.27327 -1.1481638 -139.33018 -19.081568 137.69237
24540000000 -18.773405 149.47171 -1.1476303 -139.84518 -1.1520563 -139.88132 -18.962322 137.10245
24567500000 -18.72513 148.01176 -1.1508617 -140.40097 -1.1518846 -140.43233 -19.101656 137.01064
24595000000 -18.729212 147.14384 -1.1484874 -140.93529 -1.1494439 -140.96921 -19.000528 136.38638
24622500000 -18.701569 147.12665 -1.155177 -141.4971 -1.1551473 -141.55109 -18.83979 135.40872
24650000000 -18.704418 145.7428 -1.1496227 -142.03529 -1.1553357 -142.1002 -18.941111 134.94472
24677500000 -18.659142 144.58917 -1.1476132 -142.61223 -1.1547123 -142.64015 -18.969088 134.5946
24705000000 -18.681709 144.87131 -1.1511185 -143.14859 -1.1544218 -143.20244 -18.774422 133.46684
24732500000 -18.61261 143.3867 -1.1565309 -143.68979 -1.1581961 -143.74211 -18.793629 133.02058
24760000000 -18.627947 142.32016 -1.1483526 -144.27086 -1.1553185 -144.29967 -18.930687 132.35478
24787500000 -18.659733 142.08929 -1.1520385 -144.8213 -1.1556175 -144.82399 -18.714043 131.72653
24815000000 -18.608315 141.10854 -1.156543 -145.39194 -1.1590708 -145.41487 -18.697176 131.2253
24842500000 -18.544546 139.92548 -1.1538863 -145.93259 -1.1552824 -145.95888 -18.850725 130.36987
24870000000 -18.584454 139.4472 -1.1590245 -146.47064 -1.1575966 -146.50858 -18.690456 130.02116
24897500000 -18.569374 138.97549 -1.1578031 -147.05817 -1.1596634 -147.06529 -18.591831 129.36501
24925000000 -18.502565 137.65842 -1.1545126 -147.56467 -1.1583434 -147.62868 -18.764212 128.19655
24952500000 -18.549911 136.82814 -1.158069 -148.12988 -1.1573211 -148.15939 -18.632513 128.069
24980000000 -18.599087 136.55095 -1.1670539 -148.67735 -1.1674079 -148.72612 -18.472755 127.59599
25007500000 -18.502941 135.46677 -1.1587392 -149.2365 -1.161999 -149.32014 -18.627045 126.22511
25035000000 -18.462044 134.46593 -1.1546549 -149.78557 -1.1640704 -149.83484 -18.66408 125.91576
25062500000 -18.547989 134.24506 -1.1669767 -150.35265 -1.1656886 -150.38278 -18.388451 125.59392
25090000000 -18.491999 132.95258 -1.1587017 -150.92183 -1.1664132 -150.94492 -18.503977 124.76862
25117500000 -18.367647 131.92786 -1.1604218 -151.44788 -1.1654971 -151.46138 -18.632063 123.57752
25145000000 -18.474258 131.55058 -1.1604069 -151.96663 -1.1690563 -152.01112 -18.409769 124.26053
25172500000 -18.457975 130.67276 -1.1649206 -152.55052 -1.1682279 -152.58432 -18.38121 123.34622
25200000000 -18.346922 129.6828 -1.1649872 -153.10605 -1.1665263 -153.13203 -18.531555 121.91476
25227500000 -18.401268 128.80675 -1.1652608 -153.66977 -1.170406 -153.71088 -18.408386 122.22385
25255000000 -18.424841 128.36589 -1.1663458 -154.21584 -1.1694392 -154.22859 -18.31653 121.14941
25282500000 -18.258636 127.17229 -1.1693077 -154.77435 -1.1714995 -154.78279 -18.440004 120.03034
25310000000 -18.341364 126.33102 -1.1624627 -155.28465 -1.1669919 -155.37019 -18.358126 119.98287
25337500000 -18.374092 125.83163 -1.1707646 -155.88272 -1.1731125 -155.92155 -18.229044 119.71762
25365000000 -18.282047 124.97018 -1.1672399 -156.43294 -1.1678736 -156.46956 -18.286482 118.22455
25392500000 -18.27305 123.73896 -1.1719406 -156.97372 -1.1698092 -156.98027 -18.382206 118.09419
25420000000 -18.32877 123.1107 -1.173299 -157.55733 -1.1775215 -157.57988 -18.192064 118.06344
25447500000 -18.27375 122.52073 -1.1726822 -158.10838 -1.1735574 -158.1414 -18.26985 116.5795
25475000000 -18.203239 121.3061 -1.170748 -158.64751 -1.1696719 -158.68611 -18.27223 115.50648
25502500000 -18.291918 120.84921 -1.1742158 -159.22188 -1.1765035 -159.2514 -18.173744 116.37707
25530000000 -18.236738 119.83349 -1.176275 -159.73831 -1.1739587 -159.79056 -18.163984 114.90504
25557500000 -18.148903 119.02139 -1.1701033 -160.25003 -1.1768839 -160.31377 -18.207397 113.7919
25585000000 -18.223381 118.08848 -1.1765985 -160.87 -1.179209 -160.90028 -18.25135 113.96091
25612500000 -18.19768 117.45916 -1.1740601 -161.38414 -1.1797982 -161.41588 -18.074032 113.37072
25640000000 -18.098768 116.88177 -1.1741737 -161.9346 -1.17731 -161.99585 -18.181061 111.88622
25667500000 -18.169504 116.07016 -1.1787404 -162.50539 -1.1775928 -162.5428 -18.157038 111.53451
25695000000 -18.207481 115.14434 -1.1838795 -163.09158 -1.1866965 -163.11446 -18.042198 111.83802
25722500000 -18.098799 114.55247 -1.179299 -163.56281 -1.1825712 -163.60385 -18.040966 110.05743
25750000000 -18.144199 113.3372 -1.1781167 -164.14209 -1.1851526 -164.2168 -18.139402 109.63129
25777500000 -18.175776 112.27912 -1.1802113 -164.7433 -1.1872511 -164.76237 -18.020672 110.02488
25805000000 -18.068769 112.25833 -1.1847527 -165.25682 -1.1924862 -165.32198 -17.969276 108.33294
25832500000 -18.03664 110.89498 -1.1866676 -165.81435 -1.1821527 -165.88913 -18.046482 107.54624
25860000000 -18.13578 109.88541 -1.1841137 -166.39262 -1.1896998 -166.43103 -18.047173 108.04116
25887500000 -18.09124 109.77425 -1.1828591 -166.9702 -1.1853818 -166.97571 -17.97658 106.67127
25915000000 -17.996414 108.72763 -1.1868482 -167.48346 -1.1875025 -167.50711 -17.954742 105.21633
25942500000 -18.017746 107.4174 -1.1919036 -167.98996 -1.188875 -168.09718 -18.010807 105.40655
25970000000 -18.088774 107.11707 -1.187639 -168.62552 -1.1904029 -168.6299 -17.941315 105.24858
25997500000 -18.006636 106.62577 -1.1909544 -169.1494 -1.1903231 -169.15985 -17.971809 103.64176
26025000000 -17.977781 105.35229 -1.1887929 -169.67778 -1.1917218 -169.73952 -17.940783 103.36555
26052500000 -18.029083 104.44384 -1.1907229 -170.26385 -1.1904774 -170.30223 -17.943468 103.39984
26080000000 -18.001326 104.26237 -1.1888852 -170.75488 -1.1953114 -170.84106 -17.870066 101.37017
26107500000 -17.933731 102.43891 -1.1885605 -171.29253 -1.1950834 -171.36131 -17.885315 101.11815
26135000000 -17.915365 102.28231 -1.1930356 -171.92662 -1.1963409 -171.9288 -17.902765 101.38383
26162500000 -18.002552 101.89868 -1.1931665 -172.44313 -1.192618 -172.46857 -17.844248 100.1162
26190000000 -17.923521 101.05245 -1.1935437 -173.00533 -1.192497 -173.01511 -17.877512 98.838112
26217500000 -17.854403 99.544807 -1.1903055 -173.52036 -1.1962703 -173.58437 -17.913576 99.229324
26245000000 -17.965782 99.421722 -1.2025976 -174.09566 -1.1992878 -174.16055 -17.84868 98.154358
26272500000 -17.886345 98.518745 -1.194672 -174.6097 -1.1933314 -174.68332 -17.786839 96.649788
26300000000 -17.850807 97.458679 -1.1888913 -175.19066 -1.1985506 -175.23882 -17.799923 96.768219
26327500000 -17.92791 96.610039 -1.1940978 -175.7478 -1.1932373 -175.80321 -17.827045 96.615822
26355000000 -17.863804 96.309593 -1.1918482 -176.28551 -1.1981242 -176.33876 -17.764528 95.110428
26382500000 -17.759592 94.792679 -1.1919388 -176.82277 -1.1998085 -176.89293 -17.800465 94.914566
26410000000 -17.884207 94.153183 -1.1973742 -177.41116 -1.1982487 -177.45674 -17.847137 94.986839
26437500000 -17.855108 93.695526 -1.195953 -177.95807 -1.2036527 -177.97237 -17.755053 93.620483
26465000000 -17.749201 92.740189 -1.1984701 -178.51425 -1.1920739 -178.51772 -17.814436 92.871643
26492500000 -17.836451 92.00576 -1.1965425 -179.09241 -1.1997792 -179.08667 -17.786943 92.427422
26520000000 -17.765469 91.25824 -1.2095252 -179.60844 -1.2049314 -179.7178 -17.778923 92.008369
26547500000 -17.71859 90.6455 -1.2146952 179.8522 -1.2060848 179.81493 -17.688011 90.969116
26575000000 -17.71636 89.328545 -1.2034243 179.29251 -1.1995127 179.21182 -17.703217 90.60376
26602500000 -17.799665 88.798752 -1.1880391 178.70961 -1.210641 178.68759 -17.901297 90.584129
26630000000 -17.680702 88.036072 -1.194509 178.16652 -1.2066672 178.11522 -17.704988 89.82386
26657500000 -17.706881 86.46759 -1.1906259 177.61002 -1.1969769 177.59482 -17.710495 88.894936
26685000000 -17.793861 86.413467 -1.200403 177.14812 -1.1926305 176.98161 -17.765924 88.005692
26712500000 -17.812958 85.628098 -1.1989371 176.5099 -1.1988126 176.56035 -17.685038 87.281212
26740000000 -17.694405 84.214516 -1.1921843 175.98225 -1.1930084 175.95657 -17.649385 86.681862
26767500000 -17.700331 83.614029 -1.1927739 175.4614 -1.2023811 175.36395 -17.713795 86.519279
26795000000 -17.706396 83.198219 -1.1933719 174.81633 -1.206431 174.79346 -17.774809 86.179497
26822500000 -17.604559 82.971092 -1.2006633 174.32951 -1.2059054 174.32263 -17.621197 84.929344
26850000000 -17.591696 81.176338 -1.1995457 173.78163 -1.1983043 173.7124 -17.64682 84.098343
26877500000 -17.742189 80.244881 -1.2030288 173.20183 -1.2077889 173.22122 -17.743088 83.760376
26905000000 -17.599241 80.781242 -1.1983016 172.74812 -1.2144558 172.66466 -17.623808 83.002861
26932500000 -17.545197 79.196609 -1.1869839 172.11668 -1.1996351 172.03978 -17.551395 82.937576
26960000000 -17.677435 77.876671 -1.2016948 171.62224 -1.1998849 171.47083 -17.739805 81.716606
26987500000 -17.700098 76.89415 -1.2081658 171.00943 -1.1996522 171.11528 -17.64064 81.46431
27015000000 -17.580847 76.683495 -1.1993799 170.44284 -1.207056 170.50085 -17.677586 80.655724
27042500000 -17.647894 75.512512 -1.1956009 169.88678 -1.2135575 169.84157 -17.620127 80.230186
27070000000 -17.820963 74.836334 -1.1981487 169.34979 -1.2059137 169.32602 -17.607649 79.971596
27097500000 -17.554142 74.569382 -1.1963699 168.81541 -1.196417 168.83995 -17.568535 78.419144
27125000000 -17.557714 73.031898 -1.2028475 168.26459 -1.1973134 168.13667 -17.576885 78.181335
27152500000 -17.67276 73.007271 -1.2026922 167.74416 -1.2019577 167.71405 -17.706764 77.274345
27180000000 -17.635071 72.744736 -1.2048497 167.13614 -1.213156 167.17072 -17.531721 77.386299
27207500000 -17.556843 71.20771 -1.2036227 166.61609 -1.201261 166.53105 -17.610098 77.003609
27235000000 -17.705709 69.76577 -1.1968565 166.07979 -1.2087846 165.95894 -17.758236 75.53643
27262500000 -17.599771 69.684441 -1.2101929 165.49806 -1.2136288 165.50467 -17.61484 75.841911
27290000000 -17.538702 68.744759 -1.2096546 164.93915 -1.2135326 164.90123 -17.620609 75.130524
27317500000 -17.641417 67.765915 -1.2049135 164.37355 -1.2110895 164.33652 -17.683456 73.087677
27345000000 -17.622301 67.506523 -1.2113738 163.94627 -1.2095119 163.78204 -17.607403 73.791771
27372500000 -17.668262 66.533272 -1.2098328 163.27777 -1.1962861 163.2119 -17.608747 73.528358
27400000000 -17.571711 65.690598 -1.2108206 162.71054 -1.2095181 162.64133 -17.617731 71.891197
27427500000 -17.629959 64.505348 -1.2098019 162.19597 -1.2102123 162.20126 -17.733925 72.155487
27455000000 -17.65659 63.820934 -1.2070097 161.68663 -1.2336262 161.65761 -17.546961 71.856323
27482500000 -17.546028 62.979488 -1.2119521 161.1384 -1.195443 161.01596 -17.651125 71.146027
27510000000 -17.537489 61.896938 -1.1993076 160.5246 -1.2101111 160.51723 -17.757013 69.787788
27537500000 -17.650059 61.011608 -1.2091707 159.95622 -1.2108452 159.92595 -17.707523 70.206932
27565000000 -17.618294 60.76075 -1.2036474 159.5105 -1.2178234 159.45605 -17.66584 68.226295
27592500000 -17.686884 59.210117 -1.207186 158.81956 -1.2142152 158.84305 -17.669149 67.415703
27620000000 -17.72669 58.243782 -1.2008923 158.33762 -1.2070767 158.34741 -17.751989 67.62027
27647500000 -17.603409 58.592014 -1.2095246 157.71283 -1.2036381 157.70323 -17.656502 67.338966
27675000000 -17.600929 56.929924 -1.1990081 157.25203 -1.216362 157.11604 -17.741522 66.465218
27702500000 -17.667841 56.159111 -1.2171077 156.66881 -1.214097 156.64667 -17.755293 66.219162
27730000000 -17.752304 55.305408 -1.2131869 156.13705 -1.2105401 156.09253 -17.755495 65.266602
27757500000 -17.685207 54.888683 -1.2077124 155.56998 -1.2032201 155.64729 -17.725428 64.158203
27785000000 -17.660484 53.263218 -1.2185225 154.93091 -1.2084632 154.94656 -17.822586 64.519783
27812500000 -17.68549 53.484779 -1.1962192 154.43143 -1.2198386 154.49973 -17.890198 63.775703
27840000000 -17.716202 52.429775 -1.2040651 153.96945 -1.220102 153.88977 -17.794031 63.305561
27867500000 -17.619247 51.150307 -1.195383 153.3326 -1.2034619 153.33678 -17.888329 61.922733
27895000000 -17.800558 51.156097 -1.2107118 152.80579 -1.207667 152.83742 -17.797724 61.560467
27922500000 -17.572519 50.402969 -1.2014686 152.20297 -1.2128234 152.25067 -17.775343 61.731953
27950000000 -17.614239 49.235344 -1.2137738 151.763 -1.1966345 151.59633 -17.931959 60.834385
27977500000 -17.711105 48.206833 -1.2087319 151.1871 -1.2079513 151.09732 -17.912411 60.338993
28005000000 -17.62953 47.816402 -1.2056413 150.58856 -1.2113301 150.52954 -17.755196 60.006424
28032500000 -17.67218 46.860767 -1.2114651 150.05081 -1.2006913 150.03143 -17.730032 58.412979
28060000000 -17.813128 44.525173 -1.2136281 149.46721 -1.1999788 149.35957 -17.991598 58.491802
28087500000 -17.722107 44.6693 -1.2155688 148.80159 -1.2027037 148.87939 -18.026867 57.794235
28115000000 -17.619337 43.574013 -1.1964225 148.47272 -1.2084919 148.34875 -17.762941 56.558884
28142500000 -17.742777 43.025143 -1.2105428 147.80402 -1.2022254 147.72736 -18.044724 55.649807
28170000000 -17.873308 42.745213 -1.2132816 147.19359 -1.2140348 147.2034 -17.927353 55.891342
28197500000 -17.679281 41.899075 -1.2079562 146.69389 -1.2143384 146.69936 -17.847652 55.173645
28225000000 -17.715784 40.116463 -1.2027365 146.08432 -1.2088847 146.12654 -18.108822 54.871468
28252500000 -17.852034 40.600796 -1.1997505 145.60269 -1.2049744 145.46497 -18.166475 53.413811
28280000000 -17.718439 38.587849 -1.2377619 144.99796 -1.2191696 144.96994 -17.942013 53.065491
28307500000 -17.634941 38.138344 -1.2005217 144.45476 -1.2111508 144.42461 -18.044619 52.308311
28335000000 -17.789183 37.117729 -1.1968228 143.82845 -1.2152711 143.94205 -18.195713 51.86174
28362500000 -17.834919 36.301758 -1.2164003 143.26463 -1.2062848 143.36967 -18.167383 50.646477
28390000000 -17.747507 34.95731 -1.2165939 142.83936 -1.2229888 142.82635 -18.253475 50.75864
28417500000 -17.889177 34.122002 -1.189852 142.29924 -1.20263 142.15161 -18.260393 48.948483
28445000000 -17.887186 34.16407 -1.2100762 141.73947 -1.2107111 141.72792 -18.245846 49.079948
28472500000 -17.884161 33.361046 -1.2130704 141.24998 -1.2214056 141.25888 -18.250156 48.170017
28500000000 -17.942448 32.365776 -1.2020766 140.65311 -1.2213178 140.58983 -18.590235 47.157902
28527500000 -17.963303 31.274788 -1.2037508 140.10486 -1.1997359 140.10973 -18.439764 47.212463
28555000000 -17.969135 30.655975 -1.2022678 139.53815 -1.2139728 139.57234 -18.362915 46.87648
28582500000 -17.95665 29.485083 -1.2147609 139.0377 -1.2072752 138.96712 -18.431982 45.997559
28610000000 -18.128801 28.858789 -1.197807 138.58231 -1.2145921 138.40013 -18.627773 45.37027
28637500000 -17.945196 28.518934 -1.2010098 137.91414 -1.2118524 137.8896 -18.541731 44.521599
28665000000 -17.963409 27.745218 -1.1827726 137.40454 -1.2158318 137.37233 -18.570608 43.784294
28692500000 -18.101059 26.38929 -1.2075821 136.82182 -1.2058538 136.7104 -18.795803 42.761551
28720000000 -18.238056 26.436943 -1.2015638 136.22188 -1.2123555 136.26691 -18.679688 43.23737
28747500000 -18.013903 25.738028 -1.2013893 135.75198 -1.1971498 135.75644 -18.727152 41.991024
28775000000 -18.13455 24.593077 -1.1787927 135.13741 -1.1963143 135.19843 -18.836283 41.357174
28802500000 -18.158031 23.799843 -1.2098546 134.61307 -1.1980041 134.60933 -18.778795 41.401386
28830000000 -17.992376 23.381826 -1.1870275 134.0748 -1.2048241 134.03578 -18.897398 40.439751
28857500000 -18.191637 22.529171 -1.1827472 133.4854 -1.1814004 133.438 -18.977036 39.570614
28885000000 -18.238903 21.860785 -1.1842297 132.97546 -1.1877155 132.86482 -18.924299 38.989555
28912500000 -18.176287 20.755032 -1.1744788 132.34949 -1.1860137 132.33815 -18.881388 38.14521
28940000000 -18.200794 19.834202 -1.1773137 131.80547 -1.1808293 131.75635 -19.141314 38.409641
28967500000 -18.430336 19.637033 -1.1737145 131.26411 -1.1844651 131.14072 -19.074961 37.650284
28995000000 -18.09355 19.01438 -1.1850108 130.75208 -1.195446 130.70024 -18.949753 37.065262
29022500000 -18.14044 17.329571 -1.1707903 130.194 -1.1697031 130.14284 -19.059381 35.914192
29050000000 -18.292328 16.826569 -1.1874385 129.58679 -1.1782762 129.58188 -19.0322 35.076687
29077500000 -18.347065 16.349649 -1.1743312 128.99182 -1.1670065 129.05753 -19.027617 35.25021
29105000000 -18.310543 15.87441 -1.1670604 128.53687 -1.1773192 128.30693 -19.157253 35.084717
29132500000 -18.307299 14.594709 -1.1645354 127.71369 -1.1687232 127.81287 -19.175896 33.485413
29160000000 -18.471836 13.712622 -1.1699166 127.33966 -1.1750307 127.27985 -19.113375 33.791683
29187500000 -18.352701 14.201837 -1.1592358 126.78025 -1.1850805 126.7367 -19.275759 33.369442
29215000000 -18.404732 13.447383 -1.1558883 126.13917 -1.165535 126.2203 -19.23897 32.548862
29242500000 -18.467379 11.28469 -1.1727988 125.70974 -1.1761373 125.68063 -19.119055 30.921183
29270000000 -18.273947 10.891133 -1.1643786 125.09972 -1.173707 125.07619 -19.266298 30.312155
29297500000 -18.49577 10.125118 -1.1829189 124.48641 -1.1733526 124.47471 -19.34741 28.197464
29325000000 -18.476236 9.2805166 -1.1750718 124.03424 -1.1656034 123.96671 -19.201838 30.062443
29352500000 -18.484596 8.6494389 -1.1676189 123.42967 -1.1611605 123.39559 -19.423361 28.286993
29380000000 -18.609621 7.5222421 -1.1565423 122.87219 -1.164117 122.8341 -19.69594 26.984533
29407500000 -18.595818 5.7532792 -1.1602184 122.35413 -1.1675193 122.32168 -19.667606 27.811991
29435000000 -18.542135 5.7021761 -1.1565058 121.75837 -1.1559583 121.80003 -19.654072 27.780497
29462500000 -18.650972 6.5286641 -1.1552345 121.16265 -1.1779343 121.20817 -19.699671 25.66119
29490000000 -18.5902 4.4272156 -1.1493157 120.6994 -1.1651202 120.63129 -19.5973 26.316109
29517500000 -18.749949 3.4372234 -1.1650411 120.03144 -1.1595705 120.01425 -19.596003 25.670942
29545000000 -18.628933 3.0201614 -1.1570599 119.42693 -1.1508311 119.49162 -19.8244 24.401403
29572500000 -18.801926 3.0193021 -1.1565207 118.89912 -1.1553276 118.91766 -19.845982 23.536684
29600000000 -18.739559 0.53484863 -1.1514527 118.4568 -1.1488422 118.33863 -19.888651 24.134815
29627500000 -18.813931 2.3701231 -1.1465617 117.80396 -1.1686192 117.7767 -19.856297 22.642567
29655000000 -18.708761 0.12191886 -1.1627131 117.29568 -1.1565167 117.22962 -19.870731 20.978304
29682500000 -18.787487 -1.0027494 -1.1511223 116.68721 -1.1726255 116.73519 -19.912739 22.169413
29710000000 -18.828449 -0.6876334 -1.1698661 116.25768 -1.1485704 116.16608 -19.81094 21.312078
29737500000 -18.87244 -2.5152824 -1.1511543 115.48164 -1.1501988 115.55749 -20.10183 20.729328
29765000000 -18.815962 -4.3629847 -1.1587213 115.11546 -1.1505791 114.98707 -20.035048 21.441565
29792500000 -18.823931 -4.6552329 -1.1452824 114.46436 -1.1448301 114.50272 -20.157141 19.742456
29820000000 -18.973402 -4.9972959 -1.1514202 113.86317 -1.1460208 113.71771 -20.205587 18.732927
29847500000 -18.845984 -7.5295844 -1.1430303 113.28944 -1.1710652 113.2779 -20.278786 18.760853
29875000000 -19.029993 -7.4894948 -1.1626153 112.73016 -1.1368091 112.79236 -20.150133 19.525593
29902500000 -18.988241 -7.1651239 -1.1540433 112.18621 -1.166996 112.2589 -20.232111 15.432833
29930000000 -19.002604 -7.8673024 -1.1500264 111.56916 -1.1433011 111.5257 -20.223175 15.935707
29957500000 -18.9454 -10.172219 -1.1548318 111.00302 -1.1653302 111.01897 -20.536386 16.618187
29985000000 -19.101068 -9.891798 -1.1298677 110.55598 -1.1471226 110.54796 -20.437643 13.637391
30012500000 -19.166813 -11.961261 -1.1370754 109.91161 -1.1373395 109.94505 -20.799555 14.899993
30040000000 -18.967037 -12.843246 -1.1504762 109.31425 -1.1606863 109.40748 -20.596565 14.438578
30067500000 -19.173901 -13.41853 -1.1343023 108.8069 -1.1582475 108.75869 -20.554218 14.174273
30095000000 -19.238005 -12.579228 -1.1417527 108.31005 -1.128737 108.22072 -20.829002 11.470759
30122500000 -19.120914 -15.028575 -1.1511139 107.65675 -1.1322517 107.70523 -20.817249 14.6031
30150000000 -19.415092 -15.54675 -1.1387457 107.07545 -1.1564933 107.22411 -20.885454 11.883091
30177500000 -19.433619 -16.261459 -1.1429744 106.58421 -1.1246344 106.58799 -21.071886 10.06564
30205000000 -19.374063 -17.969254 -1.1449865 106.01127 -1.1552229 105.94245 -21.14056 10.818026
30232500000 -19.384434 -19.788568 -1.1520327 105.43475 -1.1544216 105.42136 -21.167551 12.172562
30260000000 -19.606644 -18.918221 -1.143744 104.9836 -1.1319934 104.8254 -21.28286 7.4144874
30287500000 -19.557331 -21.046917 -1.1513109 104.3244 -1.1360487 104.26884 -21.322609 9.7462912
30315000000 -19.522957 -20.398182 -1.1400274 103.78824 -1.143162 103.70988 -21.48065 9.1778564
30342500000 -19.533581 -21.978445 -1.1401627 103.14606 -1.1355162 103.17802 -21.398643 6.5217237
30370000000 -19.650846 -23.254807 -1.1188253 102.60492 -1.139675 102.66789 -21.615082 6.4647102
30397500000 -19.678232 -24.470148 -1.1292405 102.13945 -1.1524374 101.96626 -21.65032 8.3337069
30425000000 -19.700203 -25.166077 -1.1642193 101.48184 -1.1338559 101.53763 -21.420067 6.8006697
30452500000 -19.889555 -26.304893 -1.1372941 101.0353 -1.1282026 100.89314 -21.72522 2.9662094
30480000000 -19.631886 -26.578178 -1.1487353 100.32328 -1.1415833 100.27962 -21.936626 7.089685
30507500000 -19.905163 -27.582689 -1.1368771 99.792374 -1.1564329 99.657021 -21.857006 5.2555776
30535000000 -20.060154 -27.83206 -1.1112318 99.163605 -1.1287309 99.305939 -21.972935 3.0352497
30562500000 -19.706436 -28.717398 -1.1172953 98.643021 -1.1335678 98.636848 -22.236856 3.823386
30590000000 -19.949085 -29.509546 -1.131209 97.9879 -1.1316642 98.092239 -22.230675 2.6259336
30617500000 -20.217291 -31.035437 -1.1220716 97.520203 -1.1430532 97.488831 -22.237303 -0.89716417
30645000000 -20.053715 -32.169434 -1.1497158 96.937981 -1.1339564 96.913155 -22.531937 1.1220363
30672500000 -20.085222 -32.819675 -1.1351178 96.270302 -1.1366765 96.415359 -22.754528 2.0445993
30700000000 -20.342701 -34.663601 -1.1360481 95.821877 -1.1221386 95.80201 -22.473833 -3.4062643
30727500000 -20.357899 -36.050385 -1.1439781 95.304146 -1.1324066 95.163612 -22.928061 -1.8945891
30755000000 -20.105993 -36.263969 -1.1319951 94.693535 -1.1452719 94.616875 -22.884771 -2.1363194
30782500000 -20.581247 -36.62558 -1.1380973 94.142792 -1.1599969 94.060371 -23.081451 -1.4105601
30810000000 -20.276154 -38.174469 -1.1527882 93.57943 -1.1452318 93.510384 -23.112534 -4.9808407
30837500000 -20.342209 -39.493061 -1.145342 92.95504 -1.1170231 92.902565 -23.391506 -6.4681544
30865000000 -20.618567 -39.785072 -1.1587937 92.461655 -1.1579775 92.379684 -23.499281 -5.865067
30892500000 -20.614063 -41.273674 -1.1398531 91.889824 -1.1247975 91.774002 -23.374134 -6.3615842
30920000000 -20.559826 -41.16909 -1.1299154 91.300049 -1.1392663 91.294861 -23.634958 -7.4052248
30947500000 -20.76931 -43.918064 -1.130601 90.739586 -1.1337073 90.699615 -23.906652 -4.0766521
30975000000 -20.795658 -44.235138 -1.1449505 90.165985 -1.1549371 90.21418 -23.66501 -8.75735
31002500000 -20.913168 -45.198303 -1.133538 89.49379 -1.1264535 89.586662 -23.977781 -8.3532648
31030000000 -20.996506 -45.993729 -1.1401941 89.069466 -1.1371179 88.919098 -24.427343 -9.1629124
31057500000 -21.301546 -48.340687 -1.1399604 88.474312 -1.1291422 88.566505 -24.277849 -10.777293
31085000000 -20.936642 -48.352093 -1.134226 88.038101 -1.1444403 88.035675 -24.559526 -9.9108562
31112500000 -21.028427 -47.912445 -1.1319641 87.352425 -1.1229911 87.226974 -24.927982 -10.076333
31140000000 -21.271122 -49.754604 -1.1208464 86.932037 -1.133086 86.892044 -24.368559 -12.045394
31167500000 -21.250021 -52.583572 -1.1274481 86.328011 -1.1356311 86.326241 -24.914812 -13.608221
31195000000 -21.27607 -51.984955 -1.1230816 85.615318 -1.1427538 85.658424 -25.300985 -13.858038
31222500000 -21.739811 -53.748974 -1.1087718 85.049347 -1.1503719 85.048332 -25.498825 -14.076843
31250000000 -21.536787 -55.409908 -1.1018426 84.560173 -1.1107032 84.530769 -25.198814 -16.400154
31277500000 -21.351624 -55.937218 -1.1271508 83.873917 -1.150854 83.830666 -26.007713 -12.960182
31305000000 -21.799097 -56.286598 -1.1229049 83.371689 -1.1289937 83.341255 -25.726339 -18.193466
31332500000 -22.195713 -58.637829 -1.1292194 82.70639 -1.1386195 82.748764 -25.937956 -14.820436
31360000000 -21.867794 -58.37767 -1.1192758 82.359489 -1.142802 82.238647 -26.165287 -16.945198
31387500000 -22.038258 -59.342289 -1.1384351 81.671814 -1.1300621 81.7948 -26.692226 -16.378061
31415000000 -22.320215 -61.650414 -1.1361728 81.127563 -1.1327741 81.164452 -26.356115 -17.835123
31442500000 -22.028839 -61.718956 -1.1391767 80.576202 -1.1372823 80.630081 -26.962931 -18.949411
31470000000 -22.158228 -61.75523 -1.1383729 79.964439 -1.1293093 80.036652 -27.009821 -20.50391
31497500000 -22.684092 -66.693291 -1.1149379 79.385078 -1.1264116 79.372887 -27.27668 -20.588289
31525000000 -22.42312 -65.864471 -1.1311765 78.930504 -1.1429589 78.762833 -27.523149 -21.773973
31552500000 -22.465492 -65.280556 -1.1275152 78.335266 -1.1298721 78.270676 -27.691788 -22.853455
31580000000 -22.721334 -67.370094 -1.1415739 77.698563 -1.1399006 77.651588 -27.928459 -20.203142
31607500000 -22.738201 -70.80011 -1.1377841 77.212402 -1.1279351 77.174423 -28.392765 -22.905777
31635000000 -22.580748 -68.787727 -1.1167985 76.706909 -1.1314539 76.584938 -28.9212 -24.229004
31662500000 -22.894669 -73.121086 -1.1353121 75.956978 -1.1191903 75.97448 -28.733118 -25.38928
31690000000 -23.109293 -74.300545 -1.1155677 75.58622 -1.1476351 75.489113 -28.798988 -26.564901
31717500000 -23.174475 -73.977409 -1.1070058 74.890266 -1.1291357 74.921455 -29.463522 -24.877436
31745000000 -23.26502 -75.004585 -1.1216996 74.317017 -1.1320001 74.277931 -29.518391 -28.195107
31772500000 -23.209869 -80.405518 -1.1226666 73.851509 -1.1354079 73.671646 -30.330271 -23.884745
31800000000 -23.249289 -76.981163 -1.131905 73.107277 -1.1531193 73.112885 -30.389965 -30.578876
31827500000 -23.473991 -78.489647 -1.1317377 72.613083 -1.1357965 72.673012 -30.395245 -28.122292
31855000000 -23.529913 -82.391609 -1.1417143 72.047394 -1.1263415 71.989616 -31.148073 -32.043861
31882500000 -23.851583 -81.197266 -1.1031671 71.477142 -1.1337017 71.477974 -32.176704 -30.794666
31910000000 -24.164675 -81.79129 -1.1291341 70.898636 -1.1426989 70.89624 -32.25753 -31.62682
31937500000 -23.765287 -88.187088 -1.145064 70.449028 -1.13419 70.323601 -32.037159 -33.830818
31965000000 -24.30484 -85.471222 -1.1306263 69.860909 -1.1392329 69.708839 -32.259319 -26.115318
31992500000 -24.299059 -87.333359 -1.1372954 69.313126 -1.1324019 69.049805 -34.51656 -36.954987
32020000000 -23.929964 -90.071442 -1.1306797 68.680733 -1.1432805 68.568832 -33.05735 -33.462818
32047500000 -24.157045 -92.086662 -1.1374831 68.093758 -1.1351366 68.143852 -33.619125 -32.614475
32075000000 -24.803642 -94.527313 -1.1461829 67.482918 -1.141922 67.491913 -36.389431 -30.487223
32102500000 -24.216436 -94.432938 -1.1144607 66.845314 -1.123893 66.760246 -35.148861 -34.26722
32130000000 -24.440197 -96.827225 -1.1368356 66.451096 -1.148452 66.361412 -35.219612 -37.887909
32157500000 -24.750895 -97.145889 -1.1419019 65.85144 -1.1526002 65.693535 -36.801075 -41.693378
32185000000 -25.006233 -102.89849 -1.148037 65.272125 -1.1444346 65.156563 -36.684681 -41.879177
32212500000 -24.679754 -101.31528 -1.1364479 64.708641 -1.1544013 64.66568 -39.098686 -36.080784
32240000000 -24.892103 -104.92955 -1.1542624 64.219429 -1.1451051 64.061188 -41.364502 -53.068195
32267500000 -25.243675 -105.68588 -1.1517044 63.54567 -1.1422682 63.470852 -39.134975 -36.634418
32295000000 -24.725632 -108.31636 -1.1206218 62.9939 -1.149958 62.850979 -41.79752 -46.154675
32322500000 -25.194441 -108.26833 -1.144308 62.41711 -1.1488739 62.362442 -45.559147 -62.204227
32350000000 -25.392622 -109.70882 -1.1541612 61.870068 -1.1502147 61.852589 -45.254913 -62.101753
32377500000 -25.273048 -111.08699 -1.1366634 61.240906 -1.1456254 61.189732 -49.067841 -24.968588
32405000000 -25.127897 -115.32031 -1.1565377 60.750469 -1.1589187 60.717793 -52.053925 -125.10184
32432500000 -25.544125 -117.33813 -1.1477491 60.177162 -1.1381148 59.966076 -60.683537 178.3568
32460000000 -25.580547 -120.06387 -1.1436504 59.485004 -1.141817 59.632813 -58.616356 100.8284
32487500000 -25.43309 -121.77029 -1.1346549 59.047462 -1.1654696 58.975201 -50.958286 154.425
32515000000 -25.742323 -123.90574 -1.1490902 58.470497 -1.1586909 58.453564 -41.080063 144.16646
32542500000 -25.438023 -125.6991 -1.147575 57.818722 -1.1561376 57.766525 -45.410595 153.76511
32570000000 -25.814013 -125.42871 -1.1419274 57.295219 -1.1394671 57.296497 -43.411407 142.09108
32597500000 -25.748384 -133.51413 -1.1339712 56.702351 -1.1524307 56.846653 -39.028961 151.72488
32625000000 -25.857897 -133.78633 -1.1475332 56.296078 -1.1601977 56.146961 -39.977581 131.98956
32652500000 -25.569469 -131.7589 -1.1485077 55.608196 -1.1651301 55.428661 -40.629589 153.63988
32680000000 -25.908678 -137.42937 -1.1510409 55.17942 -1.1566843 54.852962 -38.050282 146.79588
32707500000 -26.029785 -139.36214 -1.1658281 54.319061 -1.1678553 54.390392 -37.866447 144.882
32735000000 -26.104897 -139.31808 -1.154898 53.822159 -1.168107 53.883873 -38.267345 136.42671
32762500000 -25.545267 -142.88553 -1.1560593 53.340919 -1.1707771 53.15918 -35.818584 134.40781
32790000000 -25.593569 -145.9214 -1.1556309 52.655155 -1.1490541 52.703377 -33.704216 138.07921
32817500000 -25.70322 -144.9287 -1.1506158 52.279629 -1.171229 52.122036 -34.51339 138.30815
32845000000 -25.88554 -148.04033 -1.1673919 51.673191 -1.1602576 51.601379 -33.319626 132.43848
32872500000 -26.057478 -151.56958 -1.1603928 51.042099 -1.1948522 51.081631 -31.475176 141.50688
32900000000 -26.077114 -155.43944 -1.168563 50.445564 -1.1658542 50.50383 -32.366138 129.47533
32927500000 -26.061287 -154.45045 -1.1675593 49.894802 -1.1906272 49.925068 -32.692848 126.41642
32955000000 -25.741917 -159.0984 -1.1740344 49.32774 -1.176587 49.400032 -32.018612 137.37042
32982500000 -26.055744 -159.50343 -1.1623315 48.656731 -1.17147 48.788929 -31.844841 129.51094
33010000000 -26.121439 -159.1741 -1.1622773 48.047768 -1.1796923 48.180752 -30.945385 132.60905
33037500000 -25.661928 -164.28044 -1.1680131 47.541168 -1.1773629 47.568096 -29.7246 129.11908
33065000000 -25.502132 -165.57738 -1.1678845 47.003704 -1.1753742 47.018272 -29.5368 130.15042
33092500000 -26.09166 -169.35063 -1.1811055 46.433731 -1.181254 46.545448 -30.188484 131.67636
33120000000 -25.710821 -167.78091 -1.2119982 46.009636 -1.1966932 46.000885 -29.750402 133.34128
33147500000 -25.42403 -173.19809 -1.168709 45.374905 -1.1683624 45.233574 -28.97941 133.96074
33175000000 -25.885719 -173.14499 -1.1898496 44.749649 -1.1882559 44.749512 -29.178671 129.13603
33202500000 -25.861143 -177.22484 -1.182965 44.134483 -1.1993297 44.137444 -27.512142 127.14162
33230000000 -25.281851 -177.34874 -1.195475 43.650116 -1.213203 43.589653 -28.1987 127.70357
33257500000 -25.41828 179.43324 -1.1692091 43.079082 -1.1777658 43.006855 -28.20306 123.43421
33285000000 -25.292089 176.74394 -1.1882757 42.536255 -1.1897924 42.374638 -27.856207 128.19145
33312500000 -25.194202 173.78799 -1.201077 41.922485 -1.1867043 41.954926 -27.806629 126.21344
33340000000 -25.044062 173.47737 -1.2017912 41.305984 -1.212245 41.348358 -26.883238 121.14645
33367500000 -25.220726 173.32785 -1.1752506 40.922554 -1.1955518 40.78006 -26.664951 121.28329
33395000000 -25.038534 171.49867 -1.1883086 40.21003 -1.1800809 40.181484 -26.945869 125.85768
33422500000 -24.66736 167.01845 -1.2018929 39.613392 -1.1724811 39.700794 -26.804543 123.3007
33450000000 -24.584738 166.75539 -1.190962 39.058353 -1.1883838 39.041344 -25.787939 121.21691
33477500000 -24.512993 164.22934 -1.2099993 38.459309 -1.1959219 38.56039 -26.068333 122.04696
33505000000 -24.406004 161.45326 -1.205958 37.916561 -1.1775022 38.006023 -25.843754 122.63046
33532500000 -24.697996 160.10471 -1.2143079 37.431499 -1.1963325 37.423134 -25.55859 117.93188
33560000000 -24.541515 159.91357 -1.2099053 36.910973 -1.2211535 36.879517 -25.082018 120.57574
33587500000 -24.158808 157.66327 -1.1980481 36.154549 -1.1880844 36.213234 -25.441929 120.47835
33615000000 -23.803686 155.93654 -1.2053013 35.697765 -1.2037915 35.677471 -24.860062 120.6205
33642500000 -24.127329 155.79253 -1.2235882 35.115028 -1.2033147 35.10183 -24.645798 119.42309
33670000000 -24.14484 152.72884 -1.2206049 34.554337 -1.2202843 34.445343 -24.575197 117.39854
33697500000 -23.593346 148.08829 -1.2108727 34.016537 -1.2242261 34.084824 -24.742422 116.36618
33725000000 -23.72456 150.28522 -1.2492914 33.293335 -1.2319772 33.489071 -24.244511 117.99836
33752500000 -23.343536 146.87648 -1.2371571 32.871738 -1.2151403 32.763622 -24.066051 115.04831
33780000000 -23.047131 147.19751 -1.2032095 32.303619 -1.2299474 32.265686 -23.969698 115.60197
33807500000 -23.545404 143.57788 -1.2238665 31.623083 -1.2216765 31.865265 -23.463036 114.88885
33835000000 -23.353163 143.93404 -1.2038221 31.186972 -1.2432433 31.129356 -23.404408 114.96025
33862500000 -23.054192 142.56233 -1.2350097 30.573748 -1.2442157 30.665224 -23.518442 109.78353
33890000000 -23.173784 139.46158 -1.2503518 29.958508 -1.2215531 29.981867 -23.047775 112.0423
33917500000 -23.385851 138.94888 -1.2297883 29.503969 -1.2403423 29.667562 -22.796978 112.38061
33945000000 -22.805555 139.64197 -1.2518435 29.082649 -1.2358636 28.932333 -22.987089 110.18594
33972500000 -22.414715 136.54669 -1.2220973 28.333261 -1.2543372 28.293043 -22.647346 111.44888
34000000000 -22.782394 135.97064 -1.229618 27.805239 -1.2292885 27.789513 -22.45467 110.06603
34027500000 -22.864775 133.90569 -1.2312629 27.118448 -1.2253058 27.089649 -22.140661 107.67268
34055000000 -22.040882 133.68369 -1.2489902 26.725517 -1.238795 26.72958 -22.244364 109.77404
34082500000 -22.365564 131.56544 -1.2561589 26.006201 -1.2413467 26.007999 -22.393366 107.48351
34110000000 -22.10116 130.10754 -1.2692822 25.612959 -1.2288584 25.475616 -22.035368 107.34705
34137500000 -21.728765 128.92073 -1.2308031 24.930218 -1.2317013 24.944454 -22.108469 107.97501
34165000000 -21.8699 126.69635 -1.2346959 24.282993 -1.2538227 24.447958 -21.597548 106.1948
34192500000 -21.771339 127.1244 -1.2448428 23.797945 -1.2535664 23.779593 -21.614683 105.4324
34220000000 -21.424959 125.69332 -1.2588291 23.329607 -1.2630061 23.320555 -21.151001 102.94637
34247500000 -21.414822 124.72903 -1.2691768 22.678284 -1.2416998 22.726763 -21.245684 105.25196
34275000000 -21.417978 124.84847 -1.2536106 22.215973 -1.2342896 22.179911 -21.411455 101.55441
34302500000 -21.07926 122.9423 -1.2682761 21.619093 -1.2546544 21.67713 -20.667974 103.97858
34330000000 -21.011032 121.36108 -1.2479111 21.057085 -1.2578005 20.917206 -20.939564 101.01658
34357500000 -21.048145 118.0568 -1.2463943 20.501991 -1.2649925 20.545111 -20.667362 101.02908
34385000000 -20.617413 119.24214 -1.2433026 19.954552 -1.2575619 19.829729 -20.328709 99.826004
34412500000 -20.511795 119.49773 -1.2438782 19.414177 -1.2572085 19.296913 -20.257477 100.38148
34440000000 -20.453667 116.61592 -1.2854303 18.845278 -1.2714169 18.772238 -20.513918 98.969002
34467500000 -20.277445 116.41599 -1.259744 18.243931 -1.2744957 18.347687 -19.776896 99.015617
34495000000 -20.095882 115.1334 -1.2620025 17.664959 -1.2727093 17.651279 -19.911755 98.450317
34522500000 -20.031584 114.70557 -1.2837058 17.080915 -1.2794825 17.047668 -19.935268 96.983826
34550000000 -20.107485 111.30069 -1.2740558 16.616446 -1.2782427 16.630272 -19.622065 99.196228
34577500000 -19.920918 113.79294 -1.2789974 15.915337 -1.2791823 16.007505 -19.421541 96.188148
34605000000 -19.43442 110.83062 -1.2774687 15.416703 -1.2898246 15.377715 -19.477051 95.703041
34632500000 -19.826023 109.63567 -1.2885815 14.942798 -1.2794102 14.731462 -19.315178 96.3936
34660000000 -19.476048 109.29045 -1.3037114 14.377239 -1.2628157 14.256413 -19.237226 95.305984
34687500000 -19.453665 106.92611 -1.2977992 13.609324 -1.2805847 13.588449 -19.439989 94.558922
34715000000 -19.328753 105.59273 -1.2675191 13.330463 -1.3191482 13.096966 -19.181067 94.051033
34742500000 -19.332092 105.99045 -1.291701 12.673168 -1.2993921 12.512085 -18.672905 93.70018
34770000000 -18.880836 105.45591 -1.3190405 11.980063 -1.3025174 11.924184 -18.729841 90.814606
34797500000 -18.818892 101.89512 -1.328853 11.425625 -1.2923689 11.505207 -18.840029 91.839294
34825000000 -18.855703 102.01958 -1.2811104 10.939889 -1.3262093 10.97209 -18.305761 92.189598
34852500000 -18.61591 103.75626 -1.3568099 10.448437 -1.3357267 10.319613 -18.439108 90.212494
34880000000 -18.58025 100.68417 -1.3095998 9.8361397 -1.3173153 9.8391981 -18.423512 90.085548
34907500000 -18.530317 100.21861 -1.3213184 9.1367512 -1.3316795 9.1751003 -18.165171 90.040459
34935000000 -18.457006 99.774727 -1.3162328 8.7416401 -1.3289223 8.7413292 -17.932671 89.60186
34962500000 -18.336157 99.332527 -1.3313273 8.1392069 -1.3223712 8.0257206 -18.112778 87.860657
34990000000 -18.151859 97.796867 -1.3482704 7.7672791 -1.323872 7.5696135 -17.716572 88.908653
35017500000 -18.23723 96.518402 -1.333088 7.1461844 -1.3398135 7.1176124 -17.720037 88.026123
35045000000 -17.781803 96.058891 -1.3314393 6.5361485 -1.3264722 6.5686688 -18.022697 86.151184
35072500000 -17.926878 93.200165 -1.3496816 5.9638505 -1.3496172 5.9355702 -17.839556 85.003036
35100000000 -17.836052 94.711533 -1.3364793 5.4603186 -1.3431673 5.4324784 -17.434349 85.558968
35127500000 -17.721407 94.155693 -1.3694661 4.9976816 -1.3419542 4.7346945 -17.370913 84.049889
35155000000 -17.542675 93.483406 -1.3220463 4.3505349 -1.3386161 4.3049502 -17.598089 84.246124
35182500000 -17.430479 91.288719 -1.350618 3.862746 -1.3252648 3.7424626 -17.302881 84.869934
35210000000 -17.518162 92.682205 -1.3279561 3.2570744 -1.3589884 3.361387 -17.073818 83.916458
35237500000 -17.259724 90.476631 -1.3363574 2.6373196 -1.3475815 2.7092869 -17.329111 81.308144
35265000000 -17.306919 89.94912 -1.3478421 2.1253765 -1.3754812 1.9870526 -17.210827 83.391922
35292500000 -17.294033 89.023918 -1.3439877 1.4810734 -1.3617091 1.4399413 -16.879704 82.895668
35320000000 -16.98455 88.796562 -1.3378993 1.0917075 -1.3537592 0.8776055 -17.079819 80.735062
35347500000 -17.121132 86.81694 -1.3540547 0.42109329 -1.3772368 0.46574047 -17.025963 81.309898
35375000000 -16.957731 85.917603 -1.3251784 -0.15563634 -1.348235 -0.14678061 -16.881493 81.410927
35402500000 -16.8929 87.281601 -1.3218136 -0.70293927 -1.3601162 -0.8204006 -16.867517 78.968575
35430000000 -16.675228 84.508774 -1.3755903 -1.310187 -1.3438973 -1.220488 -16.619921 78.273285
35457500000 -16.590422 84.231499 -1.3561523 -1.8990306 -1.3659533 -1.8553686 -16.434628 79.437531
35485000000 -16.797531 84.114769 -1.3557026 -2.3758783 -1.3787215 -2.3954327 -16.123619 79.816292
35512500000 -16.43894 82.906204 -1.3388966 -3.0756555 -1.3751942 -3.0062962 -16.6106 76.789421
35540000000 -16.408264 80.463547 -1.3765 -3.4105392 -1.3863158 -3.5357368 -16.199545 79.157082
35567500000 -16.363554 82.274841 -1.3617824 -3.985388 -1.3727249 -4.0444021 -16.094189 76.279228
35595000000 -16.305941 81.316582 -1.3875375 -4.4547791 -1.3924618 -4.611659 -16.278986 74.949532
35622500000 -16.158854 78.725418 -1.3889276 -5.3342218 -1.3928667 -5.2410598 -16.115898 77.103485
35650000000 -16.218214 79.145264 -1.4052557 -5.7772903 -1.3919033 -5.658638 -15.8571 75.829941
35677500000 -16.055683 79.346146 -1.3868808 -6.3687797 -1.3800288 -6.3446732 -15.975085 74.438507
35705000000 -15.878285 77.037468 -1.4000278 -6.8427896 -1.4009215 -6.8838792 -16.012972 73.236954
35732500000 -16.038271 77.89743 -1.4178929 -7.3533235 -1.4028426 -7.4067783 -15.912354 74.279312
35760000000 -15.817093 76.142067 -1.3740705 -7.8873515 -1.3995417 -7.9882536 -15.653757 72.217461
35787500000 -15.784296 75.188339 -1.4043117 -8.3487959 -1.4187448 -8.4922428 -15.736833 73.197571
35815000000 -15.746624 74.034286 -1.4119 -9.155242 -1.4181168 -8.9649172 -15.642532 72.577492
35842500000 -15.966516 75.345734 -1.4175348 -9.3533821 -1.4021733 -9.5576591 -15.54438 70.241028
35870000000 -15.620258 71.559441 -1.398644 -10.261354 -1.3820542 -10.117277 -15.445838 70.702995
35897500000 -15.585035 71.745041 -1.4139146 -10.716464 -1.398953 -10.753428 -15.395937 72.155968
35925000000 -15.568872 70.910896 -1.4130561 -11.418451 -1.4074644 -11.423793 -15.359959 71.874962
35952500000 -15.383959 70.102158 -1.4141315 -11.674276 -1.4393101 -11.781238 -15.251874 68.421501
35980000000 -15.485875 69.354294 -1.4160351 -12.419782 -1.4232941 -12.507939 -15.452898 70.199348
36007500000 -15.305579 70.484917 -1.370399 -12.806937 -1.4070556 -12.586095 -15.25386 68.71402
36035000000 -15.347145 68.259979 -1.4085079 -13.453065 -1.4122968 -13.527349 -15.110612 68.79538
36062500000 -15.071818 68.229881 -1.4383637 -14.095449 -1.4371938 -14.088641 -15.394095 66.915146
36090000000 -15.075136 67.370094 -1.4557933 -14.554 -1.4258689 -14.515868 -15.160836 67.515366
36117500000 -15.275882 65.909203 -1.4260454 -14.986485 -1.4486529 -14.947219 -14.968896 66.879288
36145000000 -15.090728 66.590508 -1.4397165 -15.602664 -1.4363927 -15.737262 -15.008782 65.32618
36172500000 -15.024489 66.135727 -1.4293822 -16.090456 -1.4380361 -16.186453 -15.014679 65.274651
36200000000 -14.786314 64.844009 -1.4005184 -16.791094 -1.4203155 -16.855083 -14.748286 66.572777
36227500000 -14.801167 64.220215 -1.3963174 -17.365076 -1.4624082 -17.272594 -14.814089 65.018547
36255000000 -14.555635 61.602188 -1.4294535 -17.979065 -1.4388255 -17.991364 -14.971882 64.913269
36282500000 -14.954021 63.073498 -1.4459169 -18.323252 -1.460748 -18.36797 -14.750411 63.43996
36310000000 -14.673018 61.66013 -1.455389 -19.143003 -1.4486544 -18.969561 -14.623094 63.299736
36337500000 -14.566955 60.712097 -1.4220976 -19.591957 -1.4225236 -19.402739 -14.70994 62.022953
36365000000 -14.639791 59.777798 -1.4508617 -20.15284 -1.4462539 -20.149319 -14.447445 62.830318
36392500000 -14.618178 59.805443 -1.4463618 -20.726595 -1.4699594 -20.277849 -14.510258 61.611755
36420000000 -14.461717 58.603828 -1.4777712 -21.16197 -1.449984 -21.222519 -14.345941 59.70829
36447500000 -14.564144 58.471966 -1.4542239 -21.640804 -1.4550326 -21.923286 -14.362494 60.312523
36475000000 -14.481647 57.692196 -1.4672571 -22.180239 -1.4291333 -22.210777 -14.270468 60.862381
36502500000 -14.312606 57.777672 -1.4435117 -22.767382 -1.4517016 -22.964798 -14.411918 59.206272
36530000000 -14.260183 56.959885 -1.4318732 -23.422707 -1.4764396 -23.271397 -14.544653 58.763309
36557500000 -14.24577 54.36356 -1.4616687 -24.116768 -1.4331044 -24.147587 -14.200102 57.867741
36585000000 -14.033481 54.772774 -1.4734635 -24.415073 -1.4972978 -24.481836 -14.291287 56.40794
36612500000 -14.029611 54.920937 -1.4363303 -25.060246 -1.476221 -25.236431 -14.170254 55.347992
36640000000 -14.152352 54.471279 -1.4988652 -25.712265 -1.4544159 -25.280718 -14.101273 56.638222
36667500000 -13.938205 52.364143 -1.4834797 -26.061636 -1.509586 -26.074022 -13.996702 56.892143
36695000000 -13.917351 52.824669 -1.4485893 -26.817244 -1.4662702 -26.602112 -13.987979 54.13636
36722500000 -14.047584 51.069477 -1.4621128 -27.230049 -1.4242904 -27.365313 -14.041135 54.371399
36750000000 -14.03182 50.622818 -1.4922878 -27.940401 -1.4946371 -27.902225 -14.026043 55.445602
36777500000 -13.657414 50.671612 -1.4751389 -28.348633 -1.4703622 -28.462473 -13.936515 52.819256
36805000000 -13.87793 48.880398 -1.4750913 -28.906977 -1.5015068 -28.989529 -13.807877 52.79356
36832500000 -13.861614 47.623665 -1.4547749 -29.482792 -1.4970007 -29.415314 -13.664886 53.328991
36860000000 -13.40966 50.678192 -1.4902544 -29.928011 -1.4718041 -30.092594 -13.787015 50.426109
36887500000 -13.752902 49.052597 -1.4799697 -30.809965 -1.4754988 -30.395346 -13.596269 50.554554
36915000000 -13.742283 46.652645 -1.4875129 -31.070463 -1.4863843 -31.290751 -13.747671 51.067364
36942500000 -13.366308 47.21204 -1.5038152 -31.718853 -1.4847392 -31.748905 -13.650952 50.580872
36970000000 -13.438473 45.977676 -1.472194 -31.956837 -1.4819436 -32.338036 -13.471009 48.588779
36997500000 -13.354399 44.451332 -1.4840962 -32.768307 -1.4956011 -32.769264 -13.608568 50.102505
37025000000 -13.395167 44.719002 -1.527379 -33.503872 -1.5129267 -33.290188 -13.70593 49.054985
37052500000 -13.282516 43.992264 -1.4836291 -34.056747 -1.4780763 -33.806309 -13.506644 46.052071
37080000000 -13.310944 42.520111 -1.5037287 -34.25407 -1.5122004 -34.392754 -13.509742 47.580799
37107500000 -13.066349 42.273994 -1.5484391 -34.9147 -1.5334896 -34.989555 -13.563149 46.458351
37135000000 -13.180716 43.001808 -1.5352753 -35.50893 -1.5169312 -35.51313 -13.51215 44.451126
37162500000 -13.232972 41.260391 -1.5143863 -35.642693 -1.5163726 -36.049648 -13.307297 45.89959
37190000000 -13.157936 40.774853 -1.5317762 -36.585056 -1.5008043 -36.462856 -13.423089 45.218132
37217500000 -12.977676 42.405788 -1.5153835 -37.207191 -1.5420095 -37.079842 -13.279767 44.072441
37245000000 -13.298908 40.498501 -1.5082698 -37.665211 -1.4901122 -37.58807 -12.988857 44.267872
37272500000 -12.989412 38.276871 -1.521621 -38.246628 -1.5110308 -38.300262 -13.405041 43.445248
37300000000 -13.053147 40.284992 -1.5264739 -38.623096 -1.5405511 -39.055016 -13.264204 41.633865
37327500000 -12.883196 37.659924 -1.4814858 -39.315155 -1.5304581 -39.469631 -12.991235 42.199017
37355000000 -12.944286 36.090763 -1.4977275 -39.659554 -1.52008 -39.851078 -13.047404 41.835659
37382500000 -12.765378 37.239975 -1.535735 -40.538815 -1.5382663 -40.383865 -13.152348 41.969704
37410000000 -12.992044 36.804077 -1.4866238 -40.895294 -1.4964223 -40.944008 -13.056365 40.597908
37437500000 -12.905999 34.647202 -1.5154892 -41.406197 -1.5272708 -41.420055 -12.911537 40.571339
37465000000 -12.716195 35.492779 -1.51028 -41.788757 -1.5381446 -42.235477 -13.145453 39.276005
37492500000 -12.767156 36.254032 -1.5112522 -42.560822 -1.53176 -42.515282 -12.791787 37.712547
37520000000 -12.816316 32.571896 -1.4900093 -42.940544 -1.5297247 -42.998005 -12.7965 39.348652
37547500000 -12.485776 32.904964 -1.5615476 -43.388855 -1.5170292 -43.830624 -12.896178 37.606796
37575000000 -12.703639 33.252411 -1.514847 -44.238209 -1.5315003 -43.881386 -12.870996 37.178234
37602500000 -12.597891 31.621605 -1.5694855 -44.524864 -1.5623455 -44.60482 -12.748137 37.076389
37630000000 -12.44511 31.308098 -1.5240767 -45.377068 -1.5492634 -45.376156 -12.753552 35.59481
37657500000 -12.550247 31.278088 -1.5219564 -45.912296 -1.5389009 -45.697701 -12.815893 35.102104
37685000000 -12.519064 29.632465 -1.5360425 -46.328205 -1.5232682 -46.416435 -12.498823 34.972286
37712500000 -12.386786 29.319609 -1.5380195 -46.823608 -1.5753145 -46.848133 -12.702161 34.206707
37740000000 -12.401363 29.861574 -1.5421767 -47.260246 -1.5613385 -47.279762 -12.565201 34.176113
37767500000 -12.42012 27.228733 -1.5337951 -48.007706 -1.5206406 -47.724644 -12.571915 33.264874
37795000000 -12.232801 27.250629 -1.5346107 -48.577171 -1.5398284 -48.725914 -12.64367 33.063309
37822500000 -12.321411 26.291012 -1.5122362 -49.242271 -1.5184398 -49.152363 -12.512538 31.86244
37850000000 -12.332487 27.063484 -1.5286329 -49.743912 -1.5492123 -49.655231 -12.541651 32.22897
37877500000 -12.112808 25.161264 -1.5472254 -50.017174 -1.5315534 -50.353302 -12.475808 31.092886
37905000000 -12.182051 25.094271 -1.5753094 -50.597378 -1.5301036 -50.537304 -12.542725 29.228214
37932500000 -12.237373 25.137346 -1.5718083 -51.239613 -1.5678031 -51.347 -12.463257 29.57457
37960000000 -12.105496 23.23241 -1.5427043 -51.811172 -1.5784714 -51.913361 -12.297254 29.911957
37987500000 -12.081954 22.863777 -1.5524672 -52.147911 -1.5676442 -52.267757 -12.290177 28.649687
38015000000 -12.226277 23.528387 -1.5089593 -52.791008 -1.5486724 -52.823219 -12.467728 27.74581
38042500000 -12.056933 21.132719 -1.5600307 -53.315216 -1.5834223 -53.356487 -12.471261 29.292521
38070000000 -12.00695 22.284353 -1.5885513 -53.776474 -1.5636759 -54.013996 -12.208842 27.988049
38097500000 -12.220841 20.920223 -1.5333021 -54.505894 -1.5950689 -54.308807 -12.421199 26.603907
38125000000 -12.101629 20.572536 -1.5217195 -55.061459 -1.5634885 -54.877464 -12.329028 26.939621
38152500000 -12.065636 19.834852 -1.5686735 -55.752113 -1.5761209 -55.699364 -12.354859 26.916277
38180000000 -12.135117 19.461243 -1.5342889 -55.970726 -1.5716414 -56.107876 -12.226936 26.054337
38207500000 -11.94413 19.538015 -1.5581155 -56.75993 -1.5807651 -56.348778 -12.297508 25.643162
38235000000 -11.911523 18.53281 -1.5591407 -57.280773 -1.5500315 -57.178734 -12.262299 25.933357
38262500000 -11.946519 16.819994 -1.5992692 -57.838863 -1.6033401 -57.783775 -12.338093 24.558186
38290000000 -11.984709 16.925377 -1.5352318 -58.224796 -1.5891055 -58.202229 -12.308325 23.294918
38317500000 -11.881963 16.893641 -1.5551857 -58.830601 -1.6239612 -58.725681 -12.260763 24.291723
38345000000 -11.649282 16.695278 -1.5515898 -59.373604 -1.5850813 -59.126633 -12.29471 22.863279
38372500000 -11.97226 15.110747 -1.5596489 -59.92358 -1.5714567 -59.966862 -12.19099 22.433739
38400000000 -11.867813 14.237039 -1.5750765 -60.397316 -1.6055688 -60.660149 -12.17685 21.397404
38427500000 -12.063096 13.389366 -1.5638487 -60.97422 -1.5857716 -61.155075 -12.280961 20.286825
38455000000 -11.747061 13.953493 -1.5157945 -61.486202 -1.573444 -61.35593 -12.222505 21.390739
38482500000 -11.805446 12.372189 -1.5610729 -62.397308 -1.5776777 -61.958279 -12.236194 20.43788
38510000000 -11.851608 11.932311 -1.6095085 -62.762863 -1.5851071 -62.8755 -12.225495 19.9459
38537500000 -11.832443 12.464245 -1.6142077 -63.090641 -1.5963705 -63.347828 -12.123265 19.654232
38565000000 -11.750777 10.988965 -1.5475825 -63.732265 -1.5376072 -63.756134 -12.196354 18.059669
38592500000 -11.817161 10.587412 -1.5527732 -64.121735 -1.5956539 -64.305984 -12.263727 18.5695
38620000000 -11.738336 9.931735 -1.6348443 -64.550201 -1.6245971 -64.6744 -12.240184 17.352531
38647500000 -11.796919 9.9022379 -1.5725638 -65.500931 -1.5666286 -65.185623 -12.020386 17.936058
38675000000 -11.732599 9.6223326 -1.5766169 -65.786423 -1.6036009 -65.816246 -12.153871 16.990507
38702500000 -11.688643 8.3229771 -1.5693265 -66.704041 -1.590515 -66.399658 -12.130533 16.567553
38730000000 -11.768 7.3523359 -1.5501355 -66.765732 -1.5511739 -66.688728 -12.102615 16.044991
38757500000 -11.716936 7.6906343 -1.5379903 -67.383072 -1.5796306 -67.474266 -12.072782 15.13871
38785000000 -11.615037 6.5136738 -1.5630403 -67.741486 -1.5899576 -67.851807 -12.083765 14.342339
38812500000 -11.692759 6.2951155 -1.5828416 -68.303429 -1.5692679 -68.242676 -11.958589 13.300661
38840000000 -11.649879 6.9529433 -1.5561453 -69.030182 -1.5614779 -69.063309 -12.089471 14.527205
38867500000 -11.597673 5.3577199 -1.6240113 -69.859764 -1.6209295 -69.474831 -12.117832 13.525131
38895000000 -11.677216 3.9526975 -1.5903963 -70.087341 -1.6167766 -70.132591 -11.972306 13.555123
38922500000 -11.621912 3.7012441 -1.5452497 -70.834274 -1.5660493 -70.46418 -12.161489 11.87572
38950000000 -11.47747 4.062005 -1.5478135 -71.566498 -1.5828096 -71.504753 -12.185261 12.071246
38977500000 -11.66424 3.782665 -1.5982993 -71.658279 -1.5758191 -71.732849 -12.022916 12.214743
39005000000 -11.585816 2.3503811 -1.5506864 -72.055847 -1.6019516 -72.069794 -12.112468 10.708138
39032500000 -11.563726 1.441933 -1.5465616 -72.77491 -1.5725541 -72.894073 -12.165043 11.376069
39060000000 -11.774672 1.4424388 -1.5836128 -73.447929 -1.5945277 -73.326523 -12.24585 10.392262
39087500000 -11.658485 0.48748639 -1.5579699 -73.791496 -1.5518255 -73.958176 -12.020109 9.9675312
39115000000 -11.542788 0.29707271 -1.5351954 -74.402054 -1.5759951 -74.564438 -12.210349 8.4492617
39142500000 -11.630416 -0.47347006 -1.6195111 -75.059486 -1.5584627 -75.138847 -12.221867 8.7163353
39170000000 -11.628959 -1.0822493 -1.5706896 -75.290634 -1.5587411 -75.551353 -11.953431 9.5645084
39197500000 -11.694759 -2.8884654 -1.5498558 -75.81897 -1.5449091 -75.999069 -12.151625 5.281528
39225000000 -11.761221 -2.9975269 -1.5594928 -76.922043 -1.5117145 -76.803139 -12.194271 6.6971359
39252500000 -11.672652 -4.2393203 -1.5865403 -77.17614 -1.6007562 -77.187126 -12.027764 6.8040538
39280000000 -11.538135 -2.8788998 -1.5446147 -77.609711 -1.5653445 -77.645065 -12.18877 5.3590798
39307500000 -11.674861 -2.9574161 -1.5238973 -78.464119 -1.5384537 -78.268112 -12.084121 4.7734361
39335000000 -11.616737 -4.838295 -1.5772835 -79.074928 -1.6379741 -78.759193 -11.953454 6.4863243
39362500000 -11.419365 -4.0398927 -1.5947154 -79.321869 -1.6120636 -79.218262 -12.197733 4.0291238
39390000000 -11.673126 -4.6648698 -1.5123293 -79.848587 -1.518525 -79.857941 -12.114501 3.0557203
39417500000 -11.628317 -6.1562572 -1.567909 -80.264053 -1.5814044 -80.501228 -12.120122 4.3589058
39445000000 -11.697176 -6.8035235 -1.586139 -81.04467 -1.5942823 -80.897728 -12.049752 3.0770667
39472500000 -11.625766 -5.5709486 -1.5093273 -81.508499 -1.5223817 -81.599075 -12.106982 1.4520565
39500000000 -11.643852 -7.9183545 -1.5563424 -82.116661 -1.5548383 -82.206017 -12.231899 1.3795058
39527500000 -11.581963 -9.0842857 -1.5542092 -82.507675 -1.5639931 -82.349777 -12.203151 3.4275508
39555000000 -11.729815 -8.0731621 -1.5227933 -83.177094 -1.5274982 -83.091988 -12.167067 -1.468276
39582500000 -11.665663 -9.6213303 -1.5249839 -83.499138 -1.5497561 -83.723923 -12.239987 -0.47043729
39610000000 -11.630184 -10.786753 -1.5555004 -84.248093 -1.5658114 -84.282097 -12.15289 0.64217401
39637500000 -11.490983 -9.4211903 -1.5371786 -84.810661 -1.5701432 -84.41671 -12.000481 -0.1569721
39665000000 -11.796743 -9.6759129 -1.5134413 -85.440208 -1.5480975 -85.103355 -11.995308 -1.6426678
39692500000 -11.718001 -12.759833 -1.5931685 -85.543549 -1.5598235 -85.898407 -12.263703 -0.81034887
39720000000 -11.712683 -10.478395 -1.5978239 -86.258202 -1.5671611 -86.518463 -12.135461 -2.0861351
39747500000 -11.7482 -12.446332 -1.5324816 -86.911469 -1.5638046 -86.472519 -12.078047 -4.5022707
39775000000 -11.890001 -14.364203 -1.5434788 -87.436066 -1.5703663 -87.649193 -12.264672 -1.6553563
39802500000 -11.643962 -12.027895 -1.6040611 -87.919487 -1.5691241 -87.982307 -12.232978 -3.2386503
39830000000 -11.739391 -12.675251 -1.5379084 -88.27285 -1.5177789 -88.295029 -12.077464 -5.7533154
39857500000 -11.756702 -14.6068 -1.5468551 -88.899773 -1.5222042 -89.413338 -12.026784 -4.7274446
39885000000 -11.642831 -14.002608 -1.5983509 -89.706345 -1.530833 -89.396935 -12.265897 -3.5741253
39912500000 -11.979335 -14.613545 -1.5088435 -90.055138 -1.5682511 -90.20311 -12.186263 -6.7093592
39940000000 -11.717567 -15.998593 -1.5074263 -90.729202 -1.5426966 -90.563431 -12.245897 -6.9743462
39967500000 -11.504342 -17.243565 -1.5094254 -91.152733 -1.5306857 -91.209099 -12.32957 -4.4992161
39995000000 -11.859327 -16.891842 -1.56586 -92.016792 -1.5670359 -91.753807 -12.262982 -6.7722101
40022500000 -11.859189 -17.108599 -1.5187185 -92.307487 -1.4758152 -92.458916 -12.066548 -8.9068298
40050000000 -11.70438 -18.750818 -1.5110059 -92.607002 -1.5805078 -92.865524 -12.227471 -7.4611731
40077500000 -11.944283 -17.345741 -1.542217 -93.39299 -1.5773933 -93.354958 -12.370469 -8.6499062
40105000000 -11.836703 -18.696072 -1.5379137 -93.86573 -1.4960521 -94.069794 -12.175118 -10.49599
40132500000 -11.842771 -20.324387 -1.5182867 -94.359612 -1.4926156 -94.378052 -12.487338 -8.9185944
40160000000 -11.879403 -20.034948 -1.5279402 -95.375122 -1.5926168 -95.067993 -12.307199 -9.4973469
40187500000 -11.971397 -21.071495 -1.5353605 -95.393028 -1.5498 -95.205772 -12.176879 -11.359582
40215000000 -11.782152 -21.723581 -1.5237145 -95.775337 -1.5097966 -96.130051 -12.399906 -10.344233
40242500000 -11.889381 -21.377146 -1.5000999 -96.905724 -1.5203335 -96.853264 -12.675747 -10.08809
40270000000 -12.18179 -22.5753 -1.4802186 -96.81617 -1.5336878 -97.173569 -12.244143 -13.244485
40297500000 -12.013953 -23.238161 -1.5108185 -97.491188 -1.4896865 -97.696152 -12.66132 -12.864094
40325000000 -11.73742 -23.256651 -1.4975396 -98.186401 -1.452231 -98.173988 -12.552178 -12.56352
40352500000 -12.281681 -24.16054 -1.4787738 -98.758057 -1.4859873 -98.760986 -12.438321 -14.256527
40380000000 -12.146919 -24.718763 -1.4718267 -99.10495 -1.5225695 -99.444298 -12.474197 -15.002088
40407500000 -11.982946 -24.364622 -1.4919351 -100.16265 -1.5020072 -99.664909 -12.602145 -13.771688
40435000000 -12.05036 -25.130207 -1.532791 -100.49956 -1.4938798 -100.55169 -12.581268 -15.543986
40462500000 -12.188894 -26.721556 -1.5154558 -101.16251 -1.508054 -101.24887 -12.438407 -17.114929
40490000000 -11.914075 -25.420666 -1.4922523 -101.65424 -1.4769229 -101.57591 -12.570393 -16.644766
40517500000 -12.277134 -27.29192 -1.5114362 -102.21011 -1.4788011 -102.06019 -12.753254 -16.612532
40545000000 -12.254632 -28.411585 -1.4745467 -102.50978 -1.4978364 -102.6115 -12.613549 -18.412508
40572500000 -12.148746 -27.629614 -1.520591 -103.14487 -1.4587257 -103.17126 -12.797267 -17.69326
40600000000 -12.400492 -28.523525 -1.4697986 -103.77881 -1.4998342 -104.07994 -12.989216 -17.947609
40627500000 -12.260264 -30.029665 -1.4636075 -104.26242 -1.4726928 -104.41484 -12.78663 -19.144682
40655000000 -12.166207 -29.850481 -1.4765676 -104.74557 -1.4746987 -104.82765 -12.704119 -19.336329
40682500000 -12.203182 -30.011251 -1.48897 -105.32503 -1.4844087 -105.48515 -13.028691 -20.138626
40710000000 -12.27128 -31.362522 -1.4984636 -105.91509 -1.5038447 -106.19156 -12.760302 -21.148895
40737500000 -12.348763 -30.730696 -1.4505891 -106.22813 -1.4581676 -106.76086 -12.819214 -21.300058
40765000000 -12.374922 -30.757183 -1.4398085 -106.95264 -1.4463181 -107.19742 -12.979823 -20.414858
40792500000 -12.361556 -33.109512 -1.4850777 -107.61253 -1.4200976 -107.77649 -12.91747 -22.631548
40820000000 -12.370603 -33.526257 -1.4137676 -107.96939 -1.4883059 -108.4933 -12.784216 -22.544327
40847500000 -12.676641 -33.20018 -1.4618032 -108.86176 -1.422812 -108.73511 -13.195196 -22.092106
40875000000 -12.41429 -35.067226 -1.4254872 -109.55649 -1.4650879 -109.37872 -13.209555 -23.465193
40902500000 -12.629177 -34.687202 -1.4802678 -110.25652 -1.4571631 -110.01913 -13.133667 -24.375422
40930000000 -12.645115 -35.232399 -1.4774488 -110.64274 -1.4869099 -110.48476 -12.906823 -23.280027
40957500000 -12.699932 -35.261288 -1.4145907 -110.86829 -1.4726808 -111.03016 -13.168384 -25.994198
40985000000 -12.507349 -37.219151 -1.4316654 -111.27854 -1.4319797 -111.6477 -13.240899 -25.218163
41012500000 -12.806579 -36.410049 -1.4720632 -112.33752 -1.405113 -112.25648 -13.323019 -26.251932
41040000000 -12.628696 -35.666271 -1.4383068 -112.71947 -1.4634172 -112.71434 -13.37806 -25.22789
41067500000 -12.61278 -36.118614 -1.4356385 -113.09926 -1.3780588 -113.34154 -13.241689 -26.228552
41095000000 -12.776896 -37.445358 -1.4688118 -113.94811 -1.457258 -113.85935 -13.40618 -26.219904
41122500000 -12.861095 -37.578468 -1.4691203 -114.41868 -1.4494494 -114.35268 -13.311112 -27.893961
41150000000 -12.748173 -39.998108 -1.3991195 -114.90823 -1.4490439 -115.02868 -13.304602 -28.653187
41177500000 -12.964977 -39.001869 -1.3978261 -115.61853 -1.4610327 -115.60128 -13.646741 -27.975231
41205000000 -12.924064 -40.749481 -1.4383731 -116.04743 -1.3882523 -115.89215 -13.194351 -28.152674
41232500000 -12.776221 -39.231472 -1.3748616 -116.65145 -1.4384755 -116.48952 -13.411827 -29.375494
41260000000 -12.98128 -40.71191 -1.4230279 -117.27484 -1.4004129 -117.55479 -13.588748 -29.699043
41287500000 -12.994912 -41.537418 -1.3980789 -117.7613 -1.4509737 -117.8187 -13.723116 -29.632015
41315000000 -13.085047 -40.380562 -1.3913615 -118.04041 -1.392104 -118.36122 -13.474359 -29.985609
41342500000 -13.116577 -42.898479 -1.424736 -118.74374 -1.4021339 -119.12168 -13.81003 -30.956467
41370000000 -13.385716 -43.059498 -1.4116496 -119.39392 -1.393937 -119.49144 -13.597526 -31.320543
41397500000 -13.096007 -41.896107 -1.4179643 -119.56362 -1.3985611 -119.7239 -13.628987 -30.292032
41425000000 -13.401966 -42.917297 -1.3804314 -120.32292 -1.3962984 -120.47779 -13.862887 -32.744152
41452500000 -13.425238 -45.711796 -1.4135618 -121.05486 -1.4164146 -121.46385 -14.185858 -32.221436
41480000000 -13.649922 -43.756779 -1.3633748 -121.5836 -1.4686346 -121.43626 -13.909091 -34.053169
41507500000 -13.406115 -44.168343 -1.3738059 -122.27977 -1.4271322 -122.16284 -14.020986 -34.407784
41535000000 -13.473993 -45.908875 -1.3518313 -123.03337 -1.353255 -122.85961 -14.164158 -34.493832
41562500000 -13.608043 -44.699406 -1.4199073 -123.48705 -1.4078696 -123.46433 -13.891053 -33.572929
41590000000 -13.602939 -46.154102 -1.3904833 -123.70686 -1.376837 -124.19389 -13.916795 -34.023842
41617500000 -13.616718 -49.013512 -1.3788079 -124.55211 -1.399556 -124.50655 -14.418783 -37.676048
41645000000 -13.681614 -47.600327 -1.3794868 -124.87523 -1.3730832 -125.02929 -14.219244 -35.946922
41672500000 -13.753052 -47.156902 -1.4019853 -125.63379 -1.3350382 -125.44019 -14.143546 -36.417099
41700000000 -13.695434 -49.727776 -1.3467771 -125.86176 -1.3637983 -126.12814 -14.612494 -37.607536
41727500000 -13.926927 -50.979919 -1.3589791 -126.79932 -1.3271685 -126.96124 -14.772022 -37.391571
41755000000 -14.173427 -49.337078 -1.4102088 -127.1246 -1.4110621 -127.43369 -14.260852 -36.63113
41782500000 -14.15589 -50.274479 -1.3163204 -127.90674 -1.3510978 -127.54852 -14.348332 -38.911858
41810000000 -13.922304 -50.363979 -1.381641 -128.42458 -1.3839488 -128.24326 -15.065446 -38.5322
41837500000 -14.129428 -50.752167 -1.4126791 -128.84241 -1.4015033 -128.85275 -14.652656 -37.65366
41865000000 -14.131322 -51.941284 -1.378158 -129.23996 -1.3915167 -129.54303 -14.568133 -39.004501
41892500000 -14.466293 -53.827381 -1.3561349 -130.20836 -1.3617764 -130.24362 -15.040616 -39.787643
41920000000 -14.387391 -52.917374 -1.3639368 -130.89642 -1.3789707 -130.77412 -15.140101 -39.469326
41947500000 -14.224494 -54.219177 -1.3704493 -131.23302 -1.3581715 -131.30345 -14.575317 -40.172741
41975000000 -14.485714 -53.13345 -1.3062215 -131.76382 -1.3076506 -131.8286 -15.045496 -42.112247
42002500000 -14.675119 -53.925579 -1.3496275 -132.47833 -1.3266183 -132.46469 -15.260823 -38.123825
42030000000 -14.554001 -54.74194 -1.3654137 -132.76619 -1.3851687 -132.84006 -15.198663 -41.451012
42057500000 -14.597823 -55.885216 -1.3449438 -133.09717 -1.332936 -133.22865 -15.407206 -44.08992
42085000000 -14.705129 -54.43877 -1.2823448 -134.06168 -1.2860453 -134.5336 -15.644089 -42.63678
42112500000 -14.766232 -55.55864 -1.3528244 -134.65315 -1.3271906 -134.76683 -15.364389 -41.07991
42140000000 -14.60077 -56.920116 -1.3236045 -134.91685 -1.3491017 -135.10542 -15.385011 -42.563511
42167500000 -14.926911 -57.127377 -1.3114547 -135.85349 -1.3314624 -135.4218 -15.812534 -43.294838
42195000000 -15.138367 -56.033165 -1.3374516 -136.6803 -1.4339521 -136.70528 -15.67334 -43.57666
42222500000 -15.121912 -57.917175 -1.3115839 -137.12103 -1.3442727 -137.06886 -15.384835 -45.298
42250000000 -15.177197 -55.917698 -1.3021376 -137.37221 -1.2854899 -137.664 -15.827142 -45.865799
42277500000 -15.533687 -58.101334 -1.356805 -138.23766 -1.3276063 -138.1416 -15.971072 -44.269093
42305000000 -15.48246 -57.654591 -1.3155649 -138.20303 -1.3080592 -138.60129 -15.594364 -44.777626
42332500000 -15.517658 -58.085773 -1.3273565 -138.88686 -1.3113699 -138.95305 -15.970023 -46.584
42360000000 -16.156412 -59.653419 -1.3062495 -139.73573 -1.3069252 -139.94882 -16.364454 -47.678185
42387500000 -15.465937 -61.920502 -1.3670443 -140.30177 -1.2855117 -140.76694 -16.018965 -47.047539
42415000000 -15.802387 -60.062862 -1.2880929 -140.74832 -1.3158621 -140.95819 -16.363676 -48.017597
42442500000 -16.210712 -61.876755 -1.2785957 -141.67447 -1.3110331 -141.51418 -16.606874 -48.659058
42470000000 -15.864753 -63.091156 -1.3082589 -142.15051 -1.3304626 -142.1559 -16.093386 -46.253159
42497500000 -15.888288 -59.741276 -1.2891004 -142.21417 -1.3193411 -142.49681 -16.029795 -49.014408
42525000000 -16.460526 -61.461895 -1.2833337 -142.99962 -1.2625006 -143.23949 -17.429018 -49.892036
42552500000 -16.543533 -62.767296 -1.3232973 -143.89226 -1.3105497 -143.67998 -16.876116 -46.005352
42580000000 -16.847635 -63.50811 -1.3049293 -143.97003 -1.3276408 -144.56664 -16.878397 -45.879578
42607500000 -16.630804 -64.045189 -1.3306918 -145.23669 -1.3093985 -145.02109 -17.076778 -49.432732
42635000000 -17.155704 -64.886551 -1.2713457 -145.32663 -1.3151913 -145.59581 -17.188038 -50.743637
42662500000 -17.005602 -62.194557 -1.3036919 -146.46312 -1.2905165 -146.30502 -17.400705 -49.208042
42690000000 -16.723774 -63.406128 -1.3071744 -147.09912 -1.2546941 -146.76047 -17.427219 -49.138233
42717500000 -17.171192 -63.721241 -1.2812686 -147.43202 -1.337016 -147.62354 -17.924583 -50.867031
42745000000 -16.997824 -66.235374 -1.2593681 -147.49562 -1.3438113 -147.82928 -17.737457 -47.442863
42772500000 -17.491478 -64.70565 -1.2944772 -148.08569 -1.2844152 -148.48486 -17.457497 -53.275482
42800000000 -17.423565 -68.0513 -1.3145024 -149.09221 -1.3111186 -149.13068 -18.491463 -49.278183
42827500000 -17.594492 -67.346329 -1.2752622 -149.4762 -1.2993219 -149.38852 -18.145 -53.270668
42855000000 -18.158855 -68.605042 -1.2889837 -150.18105 -1.3371149 -150.24222 -18.200478 -53.727882
42882500000 -17.880247 -68.457039 -1.33698 -151.00995 -1.2845987 -150.41202 -18.593203 -56.421364
42910000000 -17.716002 -68.574532 -1.2756779 -151.16586 -1.2552111 -151.1785 -18.604649 -51.481731
42937500000 -18.073893 -66.075089 -1.2539865 -151.89221 -1.2610918 -151.67792 -18.81617 -52.242474
42965000000 -18.369364 -67.063866 -1.2570716 -152.24364 -1.2921392 -152.48238 -18.733055 -54.581783
42992500000 -18.283333 -69.124405 -1.3439785 -152.61659 -1.2951322 -152.7563 -19.085674 -51.017288
43020000000 -19.160675 -66.877731 -1.2837292 -153.70671 -1.2710648 -153.86327 -18.498785 -48.948883
43047500000 -19.234873 -65.607697 -1.2869083 -153.8374 -1.2281659 -154.28108 -19.628056 -54.867878
43075000000 -18.923161 -67.477364 -1.2338614 -154.87825 -1.274462 -154.67528 -19.312656 -55.503609
43102500000 -18.837196 -63.613522 -1.2271287 -155.05453 -1.2374194 -155.545 -19.372728 -53.252613
43130000000 -19.759596 -66.368172 -1.284503 -156.3434 -1.2990398 -155.78253 -19.441423 -54.655933
43157500000 -19.139608 -72.558853 -1.3254846 -156.51967 -1.2103902 -156.48041 -19.231236 -55.145302
43185000000 -19.521744 -70.060944 -1.2691234 -157.10323 -1.2669545 -157.25302 -20.013988 -53.857594
43212500000 -19.858522 -65.270309 -1.2940587 -157.64934 -1.3200971 -157.5477 -20.536766 -54.581154
43240000000 -19.598911 -74.604965 -1.3178587 -158.23521 -1.313607 -157.99739 -21.093882 -55.746597
43267500000 -20.436161 -69.106804 -1.3474863 -158.35387 -1.2832432 -159.12508 -20.934771 -57.568394
43295000000 -20.353664 -69.846443 -1.2999274 -159.35164 -1.277932 -159.42532 -20.283125 -54.301647
43322500000 -20.981016 -65.869057 -1.2816969 -159.84814 -1.2660484 -160.21382 -21.284246 -56.75219
43350000000 -20.744598 -71.287926 -1.289935 -160.39008 -1.2853124 -160.36697 -20.589201 -55.068439
43377500000 -20.715136 -66.541138 -1.2242484 -161.28879 -1.2825685 -161.22206 -21.086607 -52.939583
43405000000 -21.714499 -71.641663 -1.2023848 -161.45016 -1.2598372 -161.89996 -22.060459 -54.926155
43432500000 -21.698534 -66.611717 -1.2881405 -162.3228 -1.2894114 -161.98256 -21.683287 -52.049362
43460000000 -21.802879 -71.568207 -1.3099424 -162.80492 -1.2675884 -162.75514 -21.647501 -50.488338
43487500000 -21.771662 -69.987389 -1.319769 -163.22287 -1.2807655 -163.69545 -21.836699 -52.245571
43515000000 -21.678043 -72.816986 -1.2432687 -164.00734 -1.2189039 -164.04077 -22.111046 -51.060829
43542500000 -22.532333 -68.569527 -1.2139779 -164.95927 -1.2676249 -164.39508 -22.696844 -53.579758
43570000000 -22.863253 -69.706581 -1.3177823 -165.15804 -1.2919586 -165.36739 -23.608973 -54.829811
43597500000 -23.400442 -74.850227 -1.2389909 -165.57304 -1.2521218 -166.09131 -22.560764 -55.080544
43625000000 -23.626513 -67.991165 -1.3065894 -166.24089 -1.3085448 -166.47783 -23.100517 -53.671391
43652500000 -24.284101 -68.175781 -1.2851195 -166.52869 -1.2971261 -167.17741 -25.042627 -43.904289
43680000000 -24.674879 -70.110062 -1.2462956 -167.96375 -1.3059676 -167.18816 -24.151981 -51.125526
43707500000 -23.586277 -66.341431 -1.2746731 -168.04178 -1.2464101 -168.00633 -24.288771 -53.580326
43735000000 -25.258188 -63.009315 -1.2377312 -168.48994 -1.2742103 -168.68022 -24.936438 -53.024769
43762500000 -25.137423 -67.418724 -1.2812129 -169.49214 -1.3230484 -169.61311 -25.641136 -45.07795
43790000000 -24.816137 -74.282539 -1.3026676 -170.02565 -1.2535591 -169.79709 -24.572525 -42.050129
43817500000 -25.993095 -54.921101 -1.2617294 -170.21362 -1.3092054 -170.51578 -25.158514 -49.906841
43845000000 -25.158693 -68.937447 -1.2579976 -170.76381 -1.2514449 -171.0448 -25.666632 -49.33812
43872500000 -25.998863 -62.70182 -1.2760057 -171.33484 -1.233608 -171.64355 -25.078365 -40.809368
43900000000 -25.90132 -60.784729 -1.2731278 -172.19441 -1.2668713 -172.21873 -26.027342 -43.72007
43927500000 -26.441618 -53.613819 -1.2746789 -173.01274 -1.2696123 -173.11082 -26.865887 -45.961285
43955000000 -26.678167 -58.368687 -1.249532 -173.504 -1.2781079 -172.94585 -25.675539 -31.273428
43982500000 -28.253887 -51.39637 -1.2767743 -173.78806 -1.2914163 -174.33609 -27.082905 -38.791759
44010000000 -28.053919 -51.299267 -1.3074844 -173.95338 -1.2097336 -174.47769 -28.26565 -33.437977
44037500000 -26.770985 -51.678333 -1.2683631 -175.08611 -1.2919673 -175.46346 -28.063816 -15.887783
44065000000 -28.890644 -50.246334 -1.2949383 -176.16296 -1.3246197 -175.69154 -26.824755 -32.393711
44092500000 -30.874001 -38.743866 -1.3225218 -176.30167 -1.3183377 -176.32773 -29.505545 -20.728109
44120000000 -30.017866 -43.998108 -1.2502531 -177.1198 -1.2681999 -177.0471 -27.98214 -21.362831
44147500000 -27.11797 -39.92384 -1.2887316 -178.0497 -1.2687895 -177.69962 -27.502346 -21.027922
44175000000 -30.585697 -25.138105 -1.3115611 -177.66586 -1.2614379 -178.30339 -28.60043 -22.362545
44202500000 -30.697765 -24.378328 -1.2343898 -178.5312 -1.3109442 -178.12004 -28.837309 -7.1759529
44230000000 -28.667511 -19.153219 -1.2633752 -179.28265 -1.2577047 -179.45874 -27.172388 -15.405477
44257500000 -33.343662 -2.4635074 -1.319875 -179.92845 -1.3021044 -179.59886 -26.838055 -16.573011
44285000000 -29.838043 -13.050288 -1.2926637 179.8792 -1.3353511 179.69264 -29.503864 -8.0533857
44312500000 -28.467928 -8.2728319 -1.2308908 179.06601 -1.2387251 178.89568 -27.81815 7.726584
44340000000 -31.065937 -14.605267 -1.3020394 178.35315 -1.3341593 178.28452 -28.042339 -4.8739767
44367500000 -29.277868 6.9232354 -1.2752568 178.21359 -1.2737515 177.79984 -29.603832 -5.7344923
44395000000 -27.396894 1.0490563 -1.350091 177.49149 -1.2925578 176.82666 -28.618874 4.0986876
44422500000 -31.208813 5.2176046 -1.2941777 176.52606 -1.2865835 176.64371 -27.347355 4.3001018
44450000000 -28.386793 16.208851 -1.3254362 175.98953 -1.3343303 176.29568 -28.367542 13.84575
44477500000 -28.189142 15.074473 -1.2602797 175.67642 -1.3207145 175.75031 -25.873228 19.688314
44505000000 -26.469776 17.476257 -1.2643839 174.60956 -1.3004138 174.78145 -26.184715 16.888292
44532500000 -28.543346 24.13098 -1.3420769 174.07661 -1.3397156 174.57976 -27.328918 18.439444
44560000000 -26.77248 15.637218 -1.3252901 173.87344 -1.3127822 173.79379 -26.602364 29.407612
44587500000 -26.71069 15.450515 -1.3081162 173.12628 -1.3104194 173.07146 -25.077715 28.06695
44615000000 -26.852486 23.721531 -1.3291245 172.69318 -1.3633461 172.76645 -25.482283 26.084091
44642500000 -27.084211 17.614532 -1.3262786 172.07167 -1.3075936 171.97989 -26.514755 28.526201
44670000000 -25.465208 24.265533 -1.2881559 171.41023 -1.2794262 171.73206 -25.033983 30.063293
44697500000 -25.561926 25.810827 -1.3371191 170.68361 -1.3570576 170.73932 -25.574028 24.220806
44725000000 -24.879549 30.975971 -1.3170871 170.67426 -1.3485249 170.42447 -25.873775 25.922922
44752500000 -24.21368 31.105837 -1.3529171 170.02025 -1.3174899 169.5222 -24.049879 33.844387
44780000000 -25.235155 30.159 -1.349185 169.5714 -1.3133144 168.80792 -23.184219 27.861876
44807500000 -23.562326 29.259623 -1.3187642 168.06587 -1.3682339 168.73613 -24.622612 29.394361
44835000000 -23.372732 30.895227 -1.289757 168.15543 -1.320196 167.95528 -23.95055 33.283703
44862500000 -23.290291 33.543743 -1.373417 167.31253 -1.2905123 167.36661 -23.333048 33.140694
44890000000 -22.996185 27.733995 -1.3487432 166.64815 -1.3403795 166.60506 -23.776232 36.769245
44917500000 -21.860561 32.524082 -1.3717179 166.49426 -1.3579507 166.39946 -22.594933 35.405136
44945000000 -22.631893 30.412193 -1.3292084 165.79797 -1.362064 165.83757 -22.226196 33.441051
44972500000 -22.46468 35.913212 -1.3548681 165.43127 -1.3679941 164.7971 -22.527142 28.882811
45000000000 -22.441793 32.63245 -1.3378729 164.22621 -1.3468226 164.52385 -22.776649 38.872063
