!Keysight Technologies,N5224A,MY55441802,A.10.65.16
!Date: Wednesday, May 13, 2026 18:27:31
!Correction: S11(Full 2 Port(1,2)) 
!S21(Full 2 Port(1,2)) 
!S12(Full 2 Port(1,2)) 
!S22(Full 2 Port(1,2)) 
!S2P File: Measurements: S11, S21, S12, S22:
# Hz S  dB   R 50
1000000000 -1.1480463 -83.223007 -5.3545184 -16.69589 5.7479591 -14.956754 -8.3519382 -87.014832
1100000000 -0.10110943 154.67061 -8.9263992 33.633068 -0.3104302 5.4641471 -2.8767178 45.48674
1200000000 1.5935245 1.0235224 -14.039242 -138.77667 -15.23582 -73.893578 -0.70844656 -27.247545
1300000000 6.936151 -68.287781 0.85037655 -29.96002 9.7089672 -24.303186 -11.444704 -61.077171
1400000000 1.4214464 164.34666 -8.037385 53.839493 -1.4851102 11.133346 -3.2520919 45.128643
1500000000 3.4629576 -1.224938 -8.4073858 -161.94655 -11.017013 -131.41302 -0.70285946 -28.80983
1600000000 11.150578 -44.538361 5.203021 -18.288895 11.870887 -13.168491 -4.8134775 27.333462
1700000000 3.3539233 169.42831 -5.6820478 74.780464 -3.1410913 20.97473 -2.9263468 42.009304
1800000000 6.6631341 -5.5225067 -3.0521791 179.93381 -3.8471603 -171.22595 0.90813386 -34.264847
1900000000 10.400547 -36.225269 5.6559038 -6.0392532 10.176477 -6.117208 -2.1693864 62.207233
2000000000 6.4053288 170.43599 -0.48211586 84.31694 -3.0677595 41.13998 -0.72139072 32.900826
2100000000 11.998245 -4.6125312 5.0968618 178.29149 5.1305985 175.51155 4.7519341 -29.429216
2200000000 10.648273 -39.473717 6.1699252 -9.0153379 9.7092409 -11.522099 -0.94858247 55.670677
2300000000 11.206326 164.26053 7.1694479 91.099922 1.9099585 66.989998 4.0846715 28.380871
2400000000 16.051487 22.846552 10.694654 -154.41002 11.368665 -158.00885 7.797822 -3.3140805
2500000000 8.0478029 -64.46991 5.9592061 -32.061287 8.0322294 -35.079754 -3.0865545 24.878693
2600000000 22.350189 -139.08557 19.932186 156.82533 15.336891 150.15144 14.746511 79.244041
2700000000 10.849068 111.08537 8.5979967 -69.512459 9.9098454 -73.551094 0.79472184 90.066399
2800000000 7.6888614 -77.232872 6.4603381 -42.947472 8.0387087 -46.127247 -2.4620395 5.070004
2900000000 9.6260204 -22.268568 10.062794 -79.918976 7.8187642 -81.307388 1.5649697 -155.87886
3000000000 7.9741659 106.95246 6.6314139 -74.942719 8.0580444 -75.966125 -2.315407 81.930756
3100000000 3.5410929 -105.60271 5.0411797 -60.074596 5.834043 -63.736301 -5.2177377 -21.204229
3200000000 6.2450857 -27.516562 7.5828481 -83.58902 5.9847193 -80.115891 -1.8816792 -154.98853
3300000000 2.8250549 99.898331 4.0121837 -78.201553 5.0258212 -77.17733 -8.0984869 76.227386
3400000000 2.1031399 -106.26623 4.2347755 -64.613739 4.6863761 -66.375145 -7.0447969 -20.522476
3500000000 1.9009799 -43.675716 4.457922 -90.283501 3.3410311 -83.39138 -8.1379251 -157.73119
3600000000 2.4126859 101.13796 3.8782508 -81.620522 4.7092066 -80.383804 -9.0174265 77.292679
3700000000 0.71839833 -131.76408 3.7229879 -78.291809 3.8271053 -79.723595 -8.5204935 -38.843163
3800000000 -0.52463025 -42.042076 3.5258961 -90.776405 2.2993946 -85.413063 -11.660859 -151.69661
3900000000 -0.52808636 99.657257 2.6720471 -83.711998 3.2561724 -82.856354 -13.880152 83.308174
4000000000 -0.029530512 -140.20975 3.4204912 -87.50338 3.3892872 -89.489517 -9.5992622 -58.282669
4100000000 -0.56417942 -52.970005 3.4807129 -95.624207 2.3098733 -92.954933 -11.76028 -152.31985
4200000000 -3.9303296 74.139557 1.5670865 -94.034966 1.9441987 -95.000061 -18.333557 43.197861
4300000000 -3.2608888 -153.83086 2.4540284 -94.876175 2.2985516 -96.339302 -12.170736 -74.685188
4400000000 -4.4771752 -55.296413 2.1114893 -98.845772 1.3495501 -97.629875 -16.04351 -162.97488
4500000000 -5.7394228 76.129601 1.2542106 -97.018265 1.7269396 -96.460144 -21.253384 55.594086
4600000000 -4.8883743 -156.18008 1.8729359 -100.29481 1.8332328 -101.84932 -13.093457 -88.484451
4700000000 -5.3686161 -67.458794 1.6885518 -103.78208 1.3283988 -103.60966 -16.186083 -160.54239
4800000000 -6.805881 66.905907 0.93722069 -104.13622 1.4485527 -103.36426 -22.267445 34.182495
4900000000 -7.0717916 -171.23398 1.3726946 -106.15511 1.2782598 -106.97641 -14.976722 -93.082634
5000000000 -6.9912858 -73.624947 1.1837826 -110.86166 0.98071522 -109.46815 -18.563274 -173.08716
5100000000 -8.8433704 56.205189 0.86521399 -110.0219 1.15777 -107.15879 -22.705538 44.588707
5200000000 -8.0392094 179.15385 0.94373423 -112.9479 0.91636086 -113.38941 -16.654123 -106.41057
5300000000 -7.9110384 -86.084984 0.94171447 -116.21907 0.81408304 -115.49921 -19.422857 -171.0285
5400000000 -10.67686 52.271942 0.46057168 -115.292 0.82559913 -113.80718 -27.37792 27.274023
5500000000 -8.6643 164.67659 0.94634235 -118.5109 0.85351861 -118.73122 -17.940779 -104.60315
5600000000 -9.6841631 -83.344879 0.6491915 -120.48643 0.57731491 -119.9622 -22.116972 -171.02791
5700000000 -8.3513165 26.935781 0.71338749 -125.37009 1.0307703 -123.017 -21.757809 7.8881922
5800000000 -11.572616 161.83444 0.45200193 -123.25323 0.44395545 -123.26842 -20.352749 -117.9672
5900000000 -10.041181 -97.635025 0.4474498 -127.00433 0.4778845 -126.68116 -22.564688 -177.54326
6000000000 -12.183113 24.878239 0.17250036 -129.20184 0.47588477 -127.80927 -26.535421 -14.475992
6100000000 -10.916406 152.29773 0.62525403 -128.9808 0.60147542 -129.34509 -20.265652 -113.4174
6200000000 -12.839999 -103.0873 0.13902144 -131.90895 0.17895709 -131.85193 -23.253004 -171.99348
6300000000 -12.405146 22.696152 0.26545489 -134.73232 0.39233384 -133.4902 -27.563164 -8.2513533
6400000000 -12.55172 142.74535 0.2707215 -136.28975 0.26497519 -136.63992 -22.966024 -120.57119
6500000000 -13.504009 -113.7408 0.025358558 -137.12184 0.02635395 -137.37946 -25.770885 176.36287
6600000000 -16.110725 17.048595 -0.13341591 -139.4583 -0.040965203 -138.99075 -37.795685 -52.335758
6700000000 -13.310498 138.10336 0.18601391 -141.24257 0.25572142 -141.64545 -21.487501 -124.29398
6800000000 -14.288365 -118.82433 0.031986263 -142.60466 0.095070727 -143.11531 -25.44392 -160.43605
6900000000 -15.587343 0.80516195 -0.15695156 -145.76158 -0.041540314 -145.79321 -36.862312 -53.141415
7000000000 -15.991729 129.35811 -0.03759313 -147.58167 0.0456568 -148.01646 -23.4163 -151.82349
7100000000 -15.24409 -123.13942 0.035079174 -148.5994 0.084347531 -149.06387 -25.001514 -172.14618
7200000000 -16.788469 -0.31020615 -0.20224594 -151.44951 -0.080436938 -151.09416 -37.150497 -64.422272
7300000000 -14.642513 116.83596 0.00097932899 -154.46309 0.10377932 -154.70316 -22.962307 -159.9377
7400000000 -15.858815 -127.078 -0.072763175 -155.05931 0.030398034 -155.55046 -26.430517 169.46602
7500000000 -16.084654 -20.158733 -0.14087766 -158.18236 -0.028190332 -157.4626 -32.958088 -36.149635
7600000000 -17.866127 109.64823 -0.2973564 -159.28009 -0.1917654 -159.72568 -25.890558 -166.72098
7700000000 -15.558559 -138.98338 -0.049873032 -161.86693 0.053102151 -162.44522 -25.868593 158.04527
7800000000 -17.533272 -14.302771 -0.15284969 -162.92343 -0.10870345 -162.56438 -35.801697 -1.8288989
7900000000 -16.611925 105.07313 -0.25835112 -165.6049 -0.15525584 -165.91078 -26.709063 -164.4202
8000000000 -17.022377 -145.9873 -0.17388277 -168.41945 -0.094304129 -168.81572 -28.701561 151.5121
8100000000 -16.532629 -21.902338 -0.10513537 -169.53299 -0.046988435 -169.07918 -31.649088 -3.4551983
8200000000 -18.996761 95.068268 -0.41079161 -171.2173 -0.29707697 -171.58519 -31.070658 -168.16557
8300000000 -16.849693 -138.78842 -0.16100958 -173.86249 -0.052091796 -174.3587 -30.100485 152.77348
8400000000 -17.328415 -31.646074 -0.22602275 -175.84369 -0.14364617 -175.82556 -33.296272 -29.980717
8500000000 -19.298038 82.641586 -0.38047108 -177.1748 -0.29624203 -177.64429 -32.96537 -172.73396
8600000000 -19.623909 -149.43344 -0.36717135 -179.66576 -0.29107326 179.88123 -34.527004 155.27443
8700000000 -18.396624 -32.521988 -0.28467426 178.27501 -0.1967456 178.30992 -32.766487 -40.386662
8800000000 -19.737783 75.057983 -0.38711485 176.79474 -0.28400734 176.52177 -34.311928 -167.99557
8900000000 -20.431389 -154.59949 -0.4459427 174.36177 -0.3402617 173.93629 -35.743244 157.88188
9000000000 -18.137375 -42.386772 -0.3566083 171.87286 -0.25413546 171.60179 -31.233337 -62.119423
9100000000 -20.425953 58.121017 -0.41193318 170.62459 -0.32823655 170.18689 -34.350105 -160.7494
9200000000 -21.343796 -166.96562 -0.46307728 168.41301 -0.37641758 167.9124 -35.673733 155.89903
9300000000 -19.271025 -52.811447 -0.431916 166.06952 -0.35517824 165.78931 -32.09967 -63.97332
9400000000 -19.986753 59.070454 -0.3769871 164.24338 -0.29735205 163.99635 -34.367069 -150.51636
9500000000 -21.558708 -179.60426 -0.47071123 162.13364 -0.38298881 161.72279 -36.872547 159.88919
9600000000 -19.245829 -58.570831 -0.50936162 160.07454 -0.40213811 159.71933 -31.959843 -77.886093
9700000000 -20.686514 37.978466 -0.46473038 157.72478 -0.39084804 157.463 -36.174923 -167.30171
9800000000 -22.735563 -166.97392 -0.50712925 156.5632 -0.40782836 156.08464 -37.950653 -175.19334
9900000000 -18.465599 -60.716427 -0.45534101 154.50783 -0.34824368 153.98174 -31.497526 -72.707352
10000000000 -20.67363 37.86417 -0.46285304 151.59802 -0.40262663 151.22787 -36.512226 -168.53423
10100000000 -20.95248 177.30331 -0.40988711 150.0934 -0.34046665 149.55775 -38.994091 165.05629
10200000000 -18.950977 -76.02037 -0.50458747 148.16257 -0.42390549 147.58647 -30.116943 -83.097595
10300000000 -24.229671 22.047823 -0.56804633 146.0009 -0.51590151 145.75389 -38.008663 -138.0835
10400000000 -21.836592 -170.9763 -0.47650334 143.82785 -0.37888435 143.53516 -44.06509 -152.0753
10500000000 -19.08861 -81.582672 -0.49148735 142.63237 -0.359328 141.94261 -29.769344 -77.964958
10600000000 -23.825876 21.85355 -0.59319961 139.95016 -0.51531488 139.47412 -35.773952 -121.64812
10700000000 -22.261663 176.89439 -0.50962764 137.69337 -0.41545263 137.14847 -39.792332 -129.32251
10800000000 -19.693882 -89.197281 -0.49817345 136.43373 -0.4057138 135.61028 -28.859962 -83.484642
10900000000 -25.157587 -8.0016403 -0.56878459 133.96672 -0.53127736 133.74467 -32.396378 -109.25287
11000000000 -22.095045 -173.97855 -0.53604388 131.63441 -0.44460639 131.39607 -34.967644 -118.82139
11100000000 -18.464277 -99.516159 -0.47805089 129.82617 -0.35114554 129.14404 -27.407766 -92.379372
11200000000 -24.294804 -17.303034 -0.55078435 127.77578 -0.50337619 127.46226 -30.973127 -110.15887
11300000000 -25.422289 167.6904 -0.6715433 125.58844 -0.57616109 125.2463 -31.566395 -124.54996
11400000000 -19.294188 -103.44409 -0.506679 123.76755 -0.41603372 123.01505 -26.881971 -104.37202
11500000000 -23.114771 -29.487505 -0.44530806 121.66022 -0.45923093 121.32588 -29.029922 -115.674
11600000000 -23.989685 168.16696 -0.65353358 119.54428 -0.56528801 119.17015 -30.408001 -127.12085
11700000000 -17.931189 -113.42429 -0.46583471 117.26862 -0.37974977 116.50491 -25.324455 -112.77141
11800000000 -22.566803 -37.651611 -0.42737663 114.98278 -0.43878186 114.80242 -28.663012 -133.11
11900000000 -24.847178 148.0038 -0.66676092 113.26634 -0.57850915 113.00417 -29.91325 -135.94345
12000000000 -19.352695 -120.86182 -0.55806184 111.18882 -0.47210085 110.52007 -25.172792 -121.4478
12100000000 -22.225578 -39.846935 -0.41640997 108.60957 -0.37953448 108.38645 -26.976168 -142.18987
12200000000 -23.987577 149.09306 -0.64266372 107.2715 -0.55083925 106.90427 -28.937618 -143.00891
12300000000 -18.810753 -133.64027 -0.58347642 105.37977 -0.47754949 104.42879 -25.252529 -128.83176
12400000000 -24.137232 -57.610558 -0.47234365 102.1923 -0.46226633 101.94004 -26.960844 -150.82137
12500000000 -25.00569 145.39555 -0.63064909 100.91441 -0.56240058 100.85088 -28.621004 -151.79044
12600000000 -19.083906 -138.09981 -0.61823034 98.916321 -0.50779897 98.256294 -25.298023 -135.94153
12700000000 -25.76993 -63.516075 -0.50286138 96.130035 -0.48143771 95.938911 -26.784883 -151.30696
12800000000 -24.418493 136.71687 -0.6597954 94.672615 -0.55979359 94.388626 -27.425154 -154.12061
12900000000 -19.970869 -155.56818 -0.67017615 93.090889 -0.55941498 92.301186 -25.121874 -147.05956
13000000000 -26.462309 -91.589226 -0.63885993 90.232651 -0.58379251 89.600502 -26.698605 -155.26041
13100000000 -25.258598 137.84352 -0.67202187 88.293205 -0.58539921 88.228859 -27.272156 -157.48924
13200000000 -19.932497 -160.58806 -0.62637556 86.932045 -0.52476925 86.208275 -25.034321 -150.61066
13300000000 -25.08132 -103.19254 -0.61285895 83.797691 -0.60431111 83.3088 -26.432945 -158.6553
13400000000 -25.859705 120.85527 -0.69010073 81.828392 -0.61506867 81.606476 -26.715822 -157.63306
13500000000 -19.953499 -176.77039 -0.64194119 80.561859 -0.54274189 79.964737 -24.276781 -157.48741
13600000000 -25.757463 -120.45531 -0.67247963 78.169533 -0.61964422 77.483437 -25.107113 -160.2123
13700000000 -25.152937 117.33192 -0.70063472 75.541069 -0.62887895 75.3396 -26.142595 -164.86693
13800000000 -19.174536 177.07306 -0.64496517 73.996796 -0.5270744 73.384987 -23.998135 -161.30986
13900000000 -23.597103 -125.88165 -0.60489893 71.867561 -0.62963843 71.067848 -24.196486 -163.22568
14000000000 -26.81444 120.6014 -0.76997799 69.473976 -0.73579139 69.362053 -24.852833 -169.28709
14100000000 -19.58297 174.34137 -0.64391667 67.92469 -0.5344817 67.4263 -23.263756 -168.60898
14200000000 -23.782234 -135.72911 -0.59111351 65.737419 -0.59123665 65.007507 -23.623693 -171.74431
14300000000 -24.780554 120.80386 -0.78713244 63.433674 -0.72170252 63.200336 -24.614473 -176.56311
14400000000 -18.332251 165.34334 -0.66165441 61.190109 -0.5225203 60.584106 -22.615902 -175.2226
14500000000 -23.849874 -151.54758 -0.61257231 59.394241 -0.6172477 58.754906 -23.448071 179.9585
14600000000 -25.656055 115.62186 -0.76608747 57.255005 -0.75242227 57.089233 -24.221525 176.23656
14700000000 -20.000746 159.79659 -0.71984339 55.429169 -0.6075592 54.798786 -22.531385 177.21344
14800000000 -24.390038 -156.002 -0.60761857 53.152565 -0.59407586 52.298912 -22.64292 170.90584
14900000000 -25.814167 117.01138 -0.80362719 50.993755 -0.75966001 50.931366 -24.038124 167.98845
15000000000 -19.518301 149.17516 -0.79585075 48.916836 -0.67263144 48.265724 -22.435642 167.07738
15100000000 -23.839819 178.51534 -0.68527973 46.556129 -0.68065852 46.055042 -22.718718 161.20801
15200000000 -25.584476 113.39734 -0.8034246 44.951252 -0.79096085 44.884026 -24.120071 159.65225
15300000000 -20.621336 138.46486 -0.84690952 43.072269 -0.75304216 42.475719 -22.859268 159.41518
15400000000 -24.721907 176.58522 -0.72271854 40.338329 -0.68520743 39.667076 -22.696539 153.6678
15500000000 -27.110937 107.54059 -0.79925257 38.597984 -0.80094296 38.558319 -24.333607 151.34946
15600000000 -20.126646 129.40868 -0.8975125 36.831654 -0.79336441 36.279381 -22.853737 150.5667
15700000000 -23.297869 156.08633 -0.79753953 34.319424 -0.78017348 33.756042 -23.10701 150.02483
15800000000 -25.655367 95.921585 -0.84824008 32.506859 -0.81643754 32.521275 -24.28948 146.38568
15900000000 -19.933689 119.37263 -0.91060436 31.162104 -0.81544083 30.544548 -22.656597 144.91402
16000000000 -24.675045 153.19957 -0.86312777 28.390343 -0.82735896 27.568977 -23.295206 144.07356
16100000000 -25.501287 83.929314 -0.83963108 26.511892 -0.80317122 26.300449 -24.313026 138.52568
16200000000 -19.489401 110.91228 -0.89938211 24.966875 -0.81812227 24.459881 -22.568464 138.23457
16300000000 -23.918659 140.05756 -0.8640182 22.654993 -0.84633094 21.949657 -23.236807 140.1015
16400000000 -23.72286 75.202179 -0.84107524 20.279285 -0.80357403 20.262764 -24.429037 133.22948
16500000000 -19.774857 103.98322 -0.89398193 19.156158 -0.80391192 18.702759 -22.316477 134.02126
16600000000 -25.18417 134.6655 -0.8772679 16.60253 -0.8396489 15.78878 -23.079945 133.05661
16700000000 -25.017132 72.940697 -0.87876689 14.450923 -0.83762795 14.132728 -24.077587 125.70107
16800000000 -19.879253 98.525978 -0.87677503 12.985277 -0.79949099 12.42599 -22.461588 127.90015
16900000000 -24.179798 116.53417 -0.87848794 10.962473 -0.84858662 10.213936 -23.048481 128.90564
17000000000 -23.378904 66.49588 -0.8614403 8.3953762 -0.83899277 8.1100874 -23.764233 120.94852
17100000000 -20.455811 88.44931 -0.86415184 6.8013067 -0.8044247 6.321537 -22.378487 121.25151
17200000000 -24.475639 108.03672 -0.86384726 4.6319175 -0.83745879 4.0007939 -23.097643 121.26009
17300000000 -24.885412 67.034767 -0.89016205 2.4991918 -0.86022967 2.121949 -23.695419 114.42708
17400000000 -21.002546 81.776733 -0.87977678 0.55763656 -0.8133806 0.077022091 -22.456921 114.83916
17500000000 -24.122145 96.713234 -0.85895175 -1.3306811 -0.80927062 -1.9345326 -23.050949 116.11818
17600000000 -23.918077 57.713646 -0.86727864 -3.5645466 -0.8384102 -3.9819031 -23.88076 107.07102
17700000000 -20.65102 69.636543 -0.86461771 -5.6418591 -0.82447422 -6.1438575 -22.642794 107.19405
17800000000 -24.646492 92.877739 -0.83875269 -7.7587996 -0.80388945 -8.3408909 -23.286339 107.33314
17900000000 -25.360237 48.535675 -0.84920722 -9.7228451 -0.82390821 -10.102143 -24.508722 98.794907
18000000000 -21.3036 66.156731 -0.88049668 -11.963849 -0.84163672 -12.337234 -22.969776 100.73331
18100000000 -24.951178 84.744209 -0.84618837 -13.969546 -0.78300112 -14.417775 -23.470318 102.84367
18200000000 -24.933865 36.673832 -0.85472274 -15.859206 -0.81018412 -16.364477 -24.410065 91.545311
18300000000 -20.95874 56.392204 -0.86672157 -17.937803 -0.82972103 -18.40114 -23.122356 91.14003
18400000000 -26.622917 80.972572 -0.83787769 -20.208185 -0.7815184 -20.797695 -24.180876 92.976685
18500000000 -25.187689 26.870298 -0.80213904 -21.926529 -0.78640449 -22.489801 -25.048573 80.90374
18600000000 -21.704906 50.56728 -0.85723668 -24.211905 -0.84199542 -24.622671 -23.765974 86.885834
18700000000 -26.796396 70.299973 -0.84931272 -26.449717 -0.79494262 -26.83856 -25.047518 89.109154
18800000000 -24.402201 15.978174 -0.80675423 -28.446964 -0.77265328 -28.903854 -25.403831 76.80661
18900000000 -21.68153 39.862091 -0.83847046 -30.453047 -0.83192962 -30.817865 -23.852362 79.664902
19000000000 -26.737747 51.014343 -0.87567222 -32.595055 -0.82051462 -33.009289 -25.362413 77.948685
19100000000 -25.06242 12.080363 -0.79421902 -34.496544 -0.77179796 -35.119587 -26.144274 65.172195
19200000000 -22.493116 32.985699 -0.83068019 -36.664661 -0.83715832 -37.129051 -25.317537 74.923096
19300000000 -27.069157 41.290268 -0.88770837 -38.819889 -0.83045417 -39.207447 -26.202583 75.912735
19400000000 -25.283077 0.26796299 -0.82491386 -41.09066 -0.78087515 -41.567089 -26.973919 65.264023
19500000000 -23.030638 18.812653 -0.83753353 -43.218307 -0.84278899 -43.47187 -25.713802 70.148079
19600000000 -26.900639 33.777523 -0.89354092 -45.160088 -0.84839702 -45.415192 -26.681581 66.248589
19700000000 -26.607731 -5.5678134 -0.85380059 -47.224236 -0.80978966 -47.762966 -27.761362 56.180126
19800000000 -23.623455 10.935854 -0.86940515 -49.527481 -0.86633778 -49.829525 -27.340654 61.682018
19900000000 -27.514919 26.673903 -0.92122358 -51.366325 -0.8614794 -51.642445 -28.136024 65.082916
20000000000 -27.805174 -19.901402 -0.91729528 -53.464802 -0.85100961 -54.111195 -29.114115 58.875164
20100000000 -23.718155 -3.185343 -0.87589717 -55.856243 -0.8764379 -56.056721 -27.788258 57.433483
20200000000 -28.646502 20.889975 -0.93126065 -57.734871 -0.86857325 -57.836411 -28.63397 58.274902
20300000000 -28.006104 -34.946186 -0.91512144 -59.551186 -0.855295 -60.129879 -30.643911 46.070904
20400000000 -23.889174 -8.9099903 -0.91906697 -62.063908 -0.90325898 -62.347061 -29.608313 48.680725
20500000000 -29.498133 12.328272 -0.98278362 -63.822033 -0.89062595 -64.055832 -30.951366 57.206917
20600000000 -27.742264 -52.659069 -0.95662105 -65.738792 -0.84920073 -66.493439 -32.102139 47.001579
20700000000 -24.406525 -22.319946 -0.91499043 -68.040443 -0.91262031 -68.555672 -30.659361 40.743324
20800000000 -33.549389 -1.6125129 -0.95772403 -70.128418 -0.88954759 -70.380272 -32.209366 47.032021
20900000000 -28.240643 -66.604759 -0.9366709 -71.716019 -0.86688232 -72.569016 -35.249889 29.343479
21000000000 -25.750679 -33.518681 -0.96124399 -74.088982 -0.95179266 -74.713196 -34.573093 37.30019
21100000000 -34.157345 -17.014935 -1.0014154 -76.125687 -0.9366892 -76.483864 -37.25853 53.537178
21200000000 -27.587164 -80.069229 -0.96061468 -78.034233 -0.87748992 -78.884811 -39.390858 42.068329
21300000000 -26.222725 -48.671864 -0.95514989 -80.389511 -0.96431309 -80.915138 -36.612 35.03466
21400000000 -34.025139 -58.030354 -1.0042567 -82.437561 -0.9416883 -82.704468 -40.815742 32.515388
21500000000 -28.006975 -93.890503 -0.94771838 -84.107338 -0.89431202 -85.103661 -47.900253 -37.307766
21600000000 -26.716948 -65.958725 -0.94618148 -86.396713 -0.98260182 -87.201561 -55.627132 -161.6579
21700000000 -34.586605 -72.257324 -1.034499 -88.607185 -0.99989486 -88.987312 -43.949036 123.08636
21800000000 -27.385212 -114.67805 -1.0026143 -90.612 -0.94272405 -91.382034 -43.169525 160.26794
21900000000 -26.602016 -91.70787 -0.96914697 -92.789925 -1.0024894 -93.23893 -45.732197 171.76085
22000000000 -33.954044 -104.02566 -1.0198724 -94.845131 -1.0148506 -94.968674 -49.518005 156.04158
22100000000 -26.656694 -131.92398 -1.0092438 -96.826736 -0.9595511 -97.554153 -36.979691 -171.95448
22200000000 -26.220377 -102.16681 -0.97200918 -99.082581 -1.0121211 -99.655838 -36.161598 -166.38716
22300000000 -34.067989 -135.34212 -1.0706069 -100.90908 -1.0673115 -101.19907 -36.99012 174.2724
22400000000 -25.090832 -155.39984 -1.0900651 -103.09134 -1.0326065 -103.85207 -31.839664 174.88945
22500000000 -26.035261 -126.27235 -1.0146658 -105.25231 -1.0483764 -105.53539 -33.102924 179.34538
22600000000 -30.330755 -165.73401 -1.0719658 -107.26038 -1.0567693 -107.07549 -33.13871 161.19301
22700000000 -24.316849 -163.04358 -1.1045079 -109.21684 -1.0281407 -109.73717 -29.396542 165.22148
22800000000 -26.302454 -131.94153 -1.0421958 -111.64013 -1.0440253 -111.94646 -31.380955 168.22549
22900000000 -29.559914 -174.13957 -1.1146264 -113.38609 -1.1036615 -113.37424 -31.042227 159.07779
23000000000 -23.516481 -173.88573 -1.145233 -115.14606 -1.078787 -115.88603 -27.857349 168.02054
23100000000 -25.903076 -156.97314 -1.1249762 -117.37075 -1.1010435 -117.89834 -28.19319 168.32257
23200000000 -26.116682 169.40482 -1.1520354 -119.2431 -1.1051332 -119.28794 -27.445223 156.16434
23300000000 -22.851959 178.14618 -1.2080605 -121.05732 -1.1017362 -121.62859 -25.645052 158.07422
23400000000 -25.108299 -173.7713 -1.1456044 -123.40453 -1.1392856 -123.9044 -26.435978 159.28183
23500000000 -25.07588 162.74214 -1.1834559 -125.2737 -1.1375035 -125.38609 -25.815662 152.53841
23600000000 -22.528601 164.66481 -1.1959097 -126.79697 -1.1219453 -127.50871 -24.044209 155.14685
23700000000 -23.901545 167.54381 -1.1491295 -128.98283 -1.1424192 -129.85439 -24.14456 155.63734
23800000000 -23.477709 151.86263 -1.1929681 -130.88129 -1.1257368 -131.32372 -23.376274 146.47516
23900000000 -21.715204 151.60536 -1.1659911 -132.69348 -1.0966498 -133.57582 -22.225271 145.57016
24000000000 -22.251396 157.99794 -1.1556007 -134.87161 -1.1598343 -135.7265 -22.75276 145.58257
24100000000 -22.617023 145.00423 -1.160207 -137.20996 -1.1340134 -137.43126 -22.631205 138.39323
24200000000 -21.031273 144.30185 -1.1491388 -138.83972 -1.1009325 -139.51311 -21.392809 139.03032
24300000000 -21.745327 145.17769 -1.120688 -140.86633 -1.1317604 -141.76659 -21.621643 141.17291
24400000000 -21.874109 133.12274 -1.1206653 -143.08226 -1.1283189 -143.62222 -21.26379 133.30847
24500000000 -20.268127 132.82669 -1.1128745 -144.83383 -1.0694022 -145.80402 -19.99176 132.9346
24600000000 -20.791254 137.79636 -1.083051 -147.10944 -1.1103884 -147.93222 -20.57435 132.70631
24700000000 -20.633043 126.91296 -1.0959462 -149.36049 -1.1173042 -149.68791 -20.441116 123.88499
24800000000 -19.497147 127.82389 -1.085824 -151.36775 -1.0525314 -151.98026 -19.492233 125.41952
24900000000 -20.347759 128.07062 -1.0532933 -153.57195 -1.0979688 -154.12424 -20.101994 125.54697
25000000000 -20.348255 115.93186 -1.0843598 -155.64282 -1.1211474 -156.05484 -19.680475 118.18803
25100000000 -19.11426 116.94018 -1.098959 -157.64531 -1.0779111 -158.31143 -18.858835 119.88501
25200000000 -19.658201 116.78476 -1.0672028 -159.7412 -1.1028068 -160.3605 -19.337877 118.25855
25300000000 -19.166569 110.94678 -1.0982863 -161.99173 -1.1250825 -162.19806 -18.982334 110.32844
25400000000 -18.423098 111.09868 -1.1059266 -164.08891 -1.0839145 -164.55136 -18.422489 111.85159
25500000000 -18.896627 110.22067 -1.0767101 -166.20309 -1.1135343 -166.75243 -18.979429 108.9383
25600000000 -18.92012 102.44051 -1.1187108 -168.31653 -1.1519357 -168.52924 -18.642523 103.97478
25700000000 -18.316498 99.501648 -1.1435306 -170.362 -1.1402915 -170.72597 -18.177069 105.50914
25800000000 -18.334692 98.448883 -1.1282912 -172.38358 -1.1443405 -172.76546 -18.594488 102.0477
25900000000 -18.311842 95.472733 -1.1573354 -174.43294 -1.1568708 -174.58926 -18.194836 97.492203
26000000000 -17.643961 92.003456 -1.1679403 -176.45468 -1.1515687 -176.86481 -17.966448 98.917999
26100000000 -17.80335 92.693466 -1.152259 -178.51097 -1.1698743 -178.99092 -18.285112 96.680649
26200000000 -18.125917 88.557716 -1.1660798 179.38385 -1.1840593 179.16162 -17.896414 92.886162
26300000000 -17.562288 83.519463 -1.1731833 177.47812 -1.1676323 177.17342 -17.570272 92.929794
26400000000 -17.55641 83.980576 -1.173864 175.30389 -1.1713588 174.9118 -17.760044 91.277107
26500000000 -17.738245 79.105835 -1.163574 173.21581 -1.1682289 173.05258 -17.482416 85.968651
26600000000 -16.970934 77.107658 -1.1853983 171.22249 -1.1779395 170.91612 -17.362076 86.743004
26700000000 -17.187416 79.532387 -1.1989031 169.09125 -1.1997447 168.68149 -17.625467 84.934677
26800000000 -17.585299 73.149139 -1.1872771 166.94901 -1.1982945 166.819 -17.170614 81.567871
26900000000 -16.648748 69.90744 -1.1982428 165.10175 -1.2009959 164.79485 -16.894974 81.344032
27000000000 -17.036177 70.796982 -1.207997 162.86395 -1.1861038 162.52432 -16.984266 77.476341
27100000000 -17.015898 62.851879 -1.2048284 160.7032 -1.1977426 160.62141 -16.85737 74.608231
27200000000 -16.267313 61.625526 -1.2196954 158.74928 -1.2454398 158.55959 -17.071028 73.818428
27300000000 -16.641432 63.143993 -1.243365 156.84528 -1.2360827 156.28555 -17.123383 70.626495
27400000000 -17.110163 55.656208 -1.2276217 154.76151 -1.1229402 154.06711 -16.681042 74.722
27500000000 -16.308249 54.156773 -1.2470472 152.71768 -1.1794733 152.11148 -16.720119 76.182426
27600000000 -16.775707 54.911724 -1.2680438 150.49979 -1.2041304 150.23119 -17.377001 63.490051
27700000000 -16.85021 48.200413 -1.2525709 148.3474 -1.2186538 148.26898 -15.911235 60.166679
27800000000 -16.200115 45.878105 -1.2538331 146.3499 -1.2738392 146.16914 -16.348436 66.775497
27900000000 -16.666557 47.591827 -1.3042282 144.43097 -1.2819699 143.98502 -17.80629 58.54755
28000000000 -16.899549 40.754868 -1.317144 142.16565 -1.262267 141.95316 -15.999681 50.576653
28100000000 -16.193598 39.886452 -1.3044586 140.05927 -1.3051454 140.08026 -14.974936 63.995403
28200000000 -16.491503 41.637424 -1.4002149 138.35155 -1.3294969 137.47371 -20.599888 83.244865
28300000000 -16.974892 30.74876 -1.5869943 138.96423 -1.5010396 138.9877 -22.754152 -149.09985
28400000000 -16.210938 31.794716 -1.1430672 134.8925 -1.2346219 134.16151 -21.636496 58.540077
28500000000 -16.788691 31.512262 -1.3022792 132.3674 -1.2228726 131.9048 -16.843634 40.313152
28600000000 -16.861769 26.144724 -1.3219503 130.3741 -1.2947962 130.15471 -16.602873 44.379768
28700000000 -16.462858 24.07386 -1.3422366 128.4084 -1.3629982 128.08589 -16.713305 42.522373
28800000000 -16.77763 25.166897 -1.3629851 126.39816 -1.34412 125.94958 -16.648178 43.115814
28900000000 -17.148336 18.202503 -1.3744377 124.50397 -1.3382618 124.03967 -17.051014 40.649624
29000000000 -16.686813 17.250072 -1.3411815 122.69774 -1.3672824 122.34808 -16.647793 37.250717
29100000000 -17.192415 16.474552 -1.3402404 120.33092 -1.326854 119.96797 -16.438055 38.439201
29200000000 -16.985518 9.1027832 -1.3408122 118.32942 -1.3285531 117.77248 -16.931101 32.608692
29300000000 -16.629622 8.5012999 -1.3528914 116.23621 -1.4065861 116.02656 -16.544069 27.418072
29400000000 -17.535343 7.8257995 -1.4095722 114.3614 -1.4370638 114.03194 -16.95801 27.008602
29500000000 -17.637329 2.5606894 -1.3875282 112.42897 -1.3835225 112.06715 -17.9993 23.049818
29600000000 -17.574976 2.6495938 -1.3824798 110.53676 -1.4087868 110.53957 -17.807743 21.426331
29700000000 -18.288187 0.017589236 -1.3844917 108.50057 -1.3849102 108.43621 -17.944481 25.796654
29800000000 -18.274199 -4.290132 -1.3517473 106.40715 -1.3258651 106.19605 -18.465162 23.686861
29900000000 -18.018776 -4.1239944 -1.3130976 104.18612 -1.352519 104.26762 -17.758642 19.570684
30000000000 -18.488901 -5.2161756 -1.3653375 102.14069 -1.3933405 102.20109 -17.858927 19.442375
30100000000 -18.651052 -7.3256006 -1.3887337 100.24997 -1.3873073 100.01382 -18.857111 14.154922
30200000000 -18.563946 -10.518191 -1.3754236 98.082832 -1.357424 98.276276 -18.654764 11.571702
30300000000 -18.752527 -13.666767 -1.3895059 96.199814 -1.3658271 96.310669 -18.904446 15.63804
30400000000 -19.131237 -17.134911 -1.4408935 94.294701 -1.3775239 94.097473 -19.73213 14.153227
30500000000 -19.412201 -20.85306 -1.3921105 92.038605 -1.3592981 92.154205 -19.169117 7.5349827
30600000000 -19.597216 -21.819752 -1.415364 90.09446 -1.371981 90.305573 -19.315586 10.894363
30700000000 -20.094841 -22.485273 -1.4464593 88.310043 -1.4058474 88.051422 -20.691341 5.2328429
30800000000 -20.28721 -27.141043 -1.4169698 86.24189 -1.3534591 86.145714 -20.306522 -0.5599615
30900000000 -20.244251 -30.566521 -1.452384 84.327614 -1.3638575 84.289482 -20.776733 7.9646444
31000000000 -20.715761 -33.785969 -1.4318141 82.542229 -1.3758558 82.31945 -22.671038 4.5171905
31100000000 -21.263702 -36.027458 -1.4287003 80.636314 -1.3379786 80.294701 -21.591522 0.32980996
31200000000 -22.224407 -34.120205 -1.386006 78.798599 -1.3123231 78.548203 -21.979399 8.9136438
31300000000 -23.348801 -35.692326 -1.3750983 76.873528 -1.3360465 76.234116 -24.305027 1.5955191
31400000000 -23.491014 -57.601547 -1.4070299 74.578659 -1.3186743 73.594078 -22.328024 -0.6057446
31500000000 -20.907179 -55.660076 -1.3880221 72.536339 -1.2470931 71.210991 -22.671488 14.341472
31600000000 -21.344818 -51.300514 -1.3624355 71.219223 -1.3187661 70.637589 -26.216249 10.769145
31700000000 -24.818245 -57.879086 -1.3226678 68.752342 -1.2850126 68.045586 -24.574766 -7.6241407
31800000000 -23.773561 -71.550209 -1.2910358 66.801903 -1.3025649 66.201012 -24.563902 8.544075
31900000000 -23.792974 -59.43906 -1.3071922 64.702591 -1.2317176 63.981853 -26.575207 11.891596
32000000000 -26.160854 -62.389565 -1.2473177 62.671188 -1.2542164 61.553951 -26.351374 -2.9646759
32100000000 -25.071951 -74.618805 -1.2518357 60.33604 -1.2551086 59.807247 -25.724045 11.943989
32200000000 -25.286245 -71.336876 -1.2440681 58.239399 -1.2056422 57.663593 -27.688099 12.914114
32300000000 -27.931458 -86.77536 -1.15736 56.273426 -1.2234907 55.436474 -28.054028 0.2333028
32400000000 -26.943382 -95.7323 -1.1966099 53.872559 -1.2382543 53.508736 -27.584667 12.166603
32500000000 -28.850859 -85.706932 -1.1742754 51.742741 -1.1921471 51.096245 -30.928766 23.069202
32600000000 -30.805847 -108.34124 -1.1594417 49.691257 -1.2044437 48.9086 -30.769665 15.110233
32700000000 -28.72427 -106.28909 -1.195861 47.304169 -1.2110696 47.063465 -28.53068 30.135527
32800000000 -30.857054 -105.92934 -1.188849 45.261963 -1.1790562 44.863277 -30.157137 42.221127
32900000000 -30.880192 -145.89336 -1.1638846 43.054455 -1.1891648 42.632832 -30.947931 30.175493
33000000000 -29.973948 -148.69716 -1.1415697 40.775471 -1.2182194 40.734184 -28.930655 37.041542
33100000000 -33.466087 -168.65524 -1.187529 38.708202 -1.1991433 38.350937 -30.294506 58.741035
33200000000 -30.37525 173.9001 -1.1731604 36.490322 -1.2094257 36.068653 -32.161991 61.74892
33300000000 -31.036921 -172.2903 -1.196543 34.220318 -1.2027785 34.194019 -28.331841 67.403694
33400000000 -31.331553 165.28828 -1.2584757 32.294018 -1.2139918 32.13419 -26.125238 76.667755
33500000000 -27.903116 157.2243 -1.2319728 30.078083 -1.2200603 29.741676 -27.489624 70.583153
33600000000 -27.347836 154.90881 -1.2318504 27.877953 -1.2155924 27.875336 -26.160156 63.445053
33700000000 -26.800291 138.56184 -1.2546296 25.770363 -1.23524 25.636759 -26.01841 76.602829
33800000000 -25.03577 134.94827 -1.273639 23.757627 -1.2738587 23.252434 -26.469437 79.844269
33900000000 -25.305391 137.74251 -1.2939172 21.630375 -1.2671907 21.352417 -24.27243 78.199837
34000000000 -25.166355 122.85348 -1.3292071 19.649851 -1.2692016 19.426529 -23.049143 84.005539
34100000000 -23.262051 122.3615 -1.336987 17.632475 -1.2912382 17.091402 -22.919064 79.434372
34200000000 -23.383289 120.6487 -1.3241727 15.362018 -1.2930162 15.087056 -22.140627 72.762955
34300000000 -22.695662 111.65924 -1.3512949 13.412675 -1.3051045 13.00033 -21.991907 75.738556
34400000000 -21.223122 111.32013 -1.370196 11.46195 -1.3746827 10.824654 -22.404854 78.77507
34500000000 -21.530596 111.28717 -1.400885 9.3852339 -1.3979923 8.9179859 -21.370451 78.683777
34600000000 -20.924917 100.39445 -1.3965415 7.6565928 -1.3678101 7.1082478 -20.069033 80.301987
34700000000 -19.987024 98.899261 -1.3808292 5.7243509 -1.3735018 5.0701013 -19.783487 77.900307
34800000000 -20.383011 96.324699 -1.3655978 3.3492074 -1.3725469 2.8455975 -19.900238 72.914139
34900000000 -19.814468 89.903725 -1.3779171 1.2870293 -1.3591861 0.79538947 -19.203749 73.056641
35000000000 -19.106695 92.817978 -1.3768606 -0.62758642 -1.3926092 -1.2701285 -19.282591 75.075661
35100000000 -19.319424 90.913574 -1.3980798 -2.8874221 -1.4113342 -3.3704226 -19.097359 73.311279
35200000000 -18.606285 84.70311 -1.3993266 -4.9198098 -1.4031254 -5.4741845 -18.205566 73.152534
35300000000 -18.027493 82.498291 -1.4024153 -6.8995037 -1.4239109 -7.5278668 -17.663712 75.061584
35400000000 -18.104923 79.900467 -1.4107426 -9.0116434 -1.4421371 -9.5671225 -17.252874 70.891228
35500000000 -18.069073 76.097389 -1.4315321 -11.176916 -1.4524287 -11.644086 -16.658733 67.587784
35600000000 -17.820738 75.779305 -1.4184473 -13.100173 -1.443105 -13.628608 -16.463961 68.36248
35700000000 -17.210039 73.647942 -1.4226891 -15.31597 -1.4532385 -15.74784 -16.192989 64.454033
35800000000 -16.9244 70.781296 -1.4564822 -17.560337 -1.4783597 -17.983496 -15.310245 60.823471
35900000000 -16.578218 66.197952 -1.4836299 -19.624479 -1.5094165 -20.127512 -15.465261 59.011086
36000000000 -16.400179 64.468262 -1.4997594 -21.59457 -1.543328 -22.050875 -15.715556 54.880161
36100000000 -16.424744 60.8456 -1.5529265 -23.683702 -1.5846274 -24.04563 -15.237256 52.670174
36200000000 -16.221334 55.639084 -1.5853473 -25.619493 -1.61745 -26.042139 -15.178765 53.285191
36300000000 -16.006748 54.799274 -1.6112958 -27.43969 -1.6437401 -27.748632 -15.460053 49.981167
36400000000 -16.360886 52.171204 -1.6474155 -29.213873 -1.6699293 -29.515972 -14.789959 46.581974
36500000000 -16.138226 48.479847 -1.6529725 -30.954519 -1.6776954 -31.351473 -14.738091 46.059189
36600000000 -16.143562 49.179058 -1.6184552 -32.617607 -1.6502994 -33.072041 -15.199869 41.776737
36700000000 -16.539076 47.893745 -1.5860031 -34.445126 -1.6174794 -34.779049 -14.95053 38.881111
36800000000 -16.170694 45.404747 -1.5568258 -36.548927 -1.587489 -36.905708 -15.128735 43.941925
36900000000 -15.700658 47.087116 -1.5177295 -38.75758 -1.5550288 -39.092487 -15.441694 43.407894
37000000000 -15.569745 45.213474 -1.4963641 -40.901329 -1.538473 -41.130184 -14.300541 40.110855
37100000000 -14.934816 40.588352 -1.5387645 -43.192944 -1.5778946 -43.410698 -14.063637 40.263954
37200000000 -14.840322 39.751652 -1.5561191 -45.237839 -1.5992029 -45.505615 -14.584826 34.243534
37300000000 -15.515581 37.307049 -1.5604618 -47.014671 -1.5935732 -47.210083 -14.18364 30.805532
37400000000 -15.013423 33.409351 -1.5606483 -48.966816 -1.6001065 -49.14793 -14.304256 36.191563
37500000000 -14.481777 35.464046 -1.5379784 -51.143948 -1.5849214 -51.354984 -14.625473 32.483776
37600000000 -14.740394 31.332199 -1.5396677 -53.42952 -1.57212 -53.425919 -13.88448 28.984175
37700000000 -14.196629 25.500423 -1.5716699 -55.385235 -1.6164159 -55.247677 -13.689092 31.797983
37800000000 -14.26548 27.3494 -1.5999064 -57.366882 -1.6352971 -57.322315 -14.237565 26.443201
37900000000 -15.078094 24.68257 -1.5743729 -59.408295 -1.5904392 -59.364685 -13.44589 21.812838
38000000000 -14.308948 19.853622 -1.6110677 -61.463692 -1.615797 -61.297146 -13.554339 24.512184
38100000000 -14.325094 22.126526 -1.6555253 -63.215115 -1.6712699 -63.205048 -14.467992 20.507286
38200000000 -14.924899 17.995445 -1.6324 -65.181175 -1.6256641 -65.182289 -13.616639 16.374859
38300000000 -14.125202 11.411702 -1.6156719 -67.185638 -1.6061374 -66.948448 -13.522895 20.422619
38400000000 -14.211641 15.618995 -1.6419371 -68.829437 -1.6300508 -68.758179 -14.589225 17.09824
38500000000 -15.204289 10.773995 -1.639603 -71.031601 -1.6075422 -71.050537 -13.772511 11.232232
38600000000 -14.46135 6.9038582 -1.5909349 -73.145546 -1.5595335 -72.884789 -13.64775 15.584094
38700000000 -14.468924 11.789347 -1.6007417 -74.700119 -1.5735841 -74.788322 -14.422673 12.504889
38800000000 -15.388516 6.2162724 -1.6253438 -76.850304 -1.5822777 -77.118584 -13.696147 5.6977863
38900000000 -14.224798 0.7004723 -1.580871 -78.966133 -1.5286293 -79.055756 -13.820095 10.696358
39000000000 -14.479357 6.2208695 -1.5737691 -80.494583 -1.5326585 -80.864983 -15.017509 7.1348634
39100000000 -15.273723 -0.29289615 -1.5720756 -82.777649 -1.5349869 -83.263611 -13.846108 4.2958651
39200000000 -14.250333 -5.8101759 -1.5343122 -85.060448 -1.5064664 -85.240273 -13.762435 7.5389462
39300000000 -14.39681 -0.9832527 -1.5347209 -86.863663 -1.494593 -87.247513 -14.761123 2.4807565
39400000000 -15.475374 -9.6525011 -1.5111785 -88.711205 -1.5280904 -89.409393 -13.75274 -3.072932
39500000000 -14.383853 -12.632236 -1.5432732 -91.049324 -1.5053961 -91.43071 -13.930627 0.24255885
39600000000 -14.873348 -5.6615629 -1.4974992 -92.811539 -1.4852095 -93.442551 -15.036128 -6.3606076
39700000000 -15.590219 -12.960361 -1.4881573 -94.757553 -1.4996961 -95.595932 -14.446921 -9.025012
39800000000 -14.578984 -17.145458 -1.4756196 -97.2799 -1.4770987 -97.576149 -14.30603 -2.0116956
39900000000 -14.74029 -13.337292 -1.4534721 -99.292984 -1.477829 -99.669403 -14.910728 -7.9669967
40000000000 -15.863838 -21.942837 -1.4244699 -101.14858 -1.4749686 -101.84422 -14.255739 -13.67297
