!Keysight Technologies,N5224A,MY55441802,A.10.65.16
!Date: Wednesday, May 13, 2026 18:33:58
!Correction: S11(Full 2 Port(1,2)) 
!S21(Full 2 Port(1,2)) 
!S12(Full 2 Port(1,2)) 
!S22(Full 2 Port(1,2)) 
!S2P File: Measurements: S11, S21, S12, S22:
# Hz S  dB   R 50
1000000000 -1.7919317 -79.312416 -4.6424818 -17.197826 5.4937463 -15.083939 -9.4801598 -90.165558
1100000000 -0.479516 153.67322 -7.5732002 32.537628 -0.0017813317 3.7366946 -1.8798112 44.550301
1200000000 1.7146471 0.79103678 -12.897015 -140.31337 -15.799396 -77.998901 -0.49376532 -25.852236
1300000000 5.8043661 -60.00539 1.2651587 -28.609037 9.1874847 -22.486195 -11.57588 -64.643204
1400000000 1.1968948 162.21515 -6.7770648 52.657108 -1.1327006 10.859255 -2.6259043 46.764706
1500000000 3.7442265 -1.8007793 -7.016952 -164.67773 -10.629335 -139.39214 -0.22025391 -27.429319
1600000000 8.930625 -37.668915 4.7558055 -17.548244 10.562147 -12.251781 -6.4748468 23.653399
1700000000 3.4399652 165.86995 -4.2195754 71.615959 -2.6304088 21.002542 -2.6171532 40.945267
1800000000 7.3138161 -6.3403478 -1.2635561 176.73955 -2.4619732 -177.34836 1.8049814 -33.582001
1900000000 8.0310249 -37.609772 4.9058065 -10.158715 8.8313141 -10.209036 -4.1915498 56.059517
2000000000 6.8638053 164.91891 1.1243534 77.919212 -1.8089814 39.863731 -0.1815832 27.629313
2100000000 14.012053 -3.3122778 8.2547321 178.19031 8.0635729 173.58391 7.0728655 -25.955053
2200000000 8.2979736 -44.227104 5.1067185 -15.521803 8.1921244 -17.893375 -3.2159848 48.439896
2300000000 12.904888 149.01736 10.166892 74.798073 5.1280961 54.703262 5.9804339 13.603673
2400000000 18.358889 42.234463 14.010687 -136.18102 14.494758 -140.8571 10.334449 18.843784
2500000000 5.9427552 -66.03891 4.9376864 -35.997948 6.7668781 -38.680843 -5.3995686 19.639256
2600000000 25.746288 -31.189663 24.675064 -95.741608 20.397264 -101.29778 18.345562 -171.64896
2700000000 8.5064001 121.39774 7.3247261 -60.782764 8.5206652 -65.34005 -1.4526784 103.30602
2800000000 5.4847565 -76.944366 5.3105817 -45.782139 6.7080417 -48.445824 -4.8973932 0.17804512
2900000000 6.8550858 -15.250453 8.421793 -73.01812 6.2773128 -74.446526 -1.1507597 -146.66597
3000000000 5.8325481 113.73953 5.6399341 -69.543083 6.9503427 -70.786781 -4.2915401 90.050652
3100000000 1.4253083 -101.86337 4.1603904 -60.014194 4.8725109 -63.11047 -7.2215252 -24.255926
3200000000 4.0423884 -22.243563 6.4761019 -78.518402 4.9357224 -75.318893 -4.0087571 -147.56357
3300000000 1.2523315 104.34013 3.5406454 -75.463486 4.4801602 -74.328926 -9.2844639 81.694504
3400000000 0.31281438 -103.80357 3.5389335 -64.948067 3.9362152 -66.274384 -8.7226839 -22.721066
3500000000 0.24547727 -39.669239 3.9180405 -86.533684 2.7998838 -80.106758 -9.6817341 -150.34969
3600000000 0.98870343 105.52831 3.4758043 -79.205711 4.2287235 -77.822166 -9.927083 84.071426
3700000000 -0.77482146 -128.12137 3.1656783 -77.431618 3.2549071 -78.42701 -10.048765 -38.4473
3800000000 -1.8972293 -39.819801 3.1503568 -88.516159 1.9060552 -83.43528 -13.038803 -145.2383
3900000000 -2.21246 103.08165 2.2692978 -82.415642 2.772855 -81.33757 -15.041295 89.599495
4000000000 -1.5739381 -136.06845 2.8830316 -86.377434 2.8461142 -87.942154 -11.391562 -58.757767
4100000000 -1.9906108 -50.763317 3.0797715 -93.288193 1.8795887 -91.033463 -13.22903 -146.57974
4200000000 -5.6248431 77.607834 1.3205304 -92.531052 1.6449623 -93.216957 -19.840193 50.020618
4300000000 -4.5065193 -148.80246 2.155597 -93.610367 1.9987336 -94.864098 -13.606345 -76.667412
4400000000 -5.8423595 -54.91861 1.8437157 -97.365021 1.0567912 -96.365967 -17.565914 -159.53094
4500000000 -7.2660289 78.834106 1.0605065 -96.480263 1.4879532 -95.702278 -21.864649 59.912399
4600000000 -5.9909182 -151.5462 1.6396611 -99.100418 1.5974888 -100.49332 -14.231071 -89.58847
4700000000 -6.4971189 -66.696976 1.484552 -102.60668 1.0961645 -102.53004 -17.268414 -158.18845
4800000000 -8.4094543 69.431175 0.76533604 -103.50454 1.2568957 -102.5763 -22.847807 42.452995
4900000000 -8.0939293 -166.76826 1.1935296 -105.08637 1.0969085 -105.86926 -16.162542 -94.117035
5000000000 -8.1223612 -74.348793 1.0306014 -109.90078 0.79717869 -108.63241 -19.416122 -170.91533
5100000000 -10.697908 59.678001 0.70068532 -109.42654 0.97472352 -106.41324 -22.89893 53.958099
5200000000 -9.0754576 -176.44583 0.78425014 -112.04624 0.74959755 -112.40601 -18.177176 -108.41216
5300000000 -9.1122084 -86.788322 0.82494479 -115.2163 0.65879077 -114.4688 -20.32848 -166.87682
5400000000 -12.580597 55.526752 0.32019141 -114.82838 0.67919445 -113.19699 -27.83497 45.763256
5500000000 -9.7425222 169.58847 0.79889572 -117.68037 0.71074069 -117.93394 -19.933529 -109.91718
5600000000 -10.814148 -85.655327 0.54051363 -119.72732 0.44521606 -119.25516 -23.271278 -171.16647
5700000000 -10.245038 30.217144 0.54130381 -124.31516 0.86329812 -121.88044 -23.175587 18.819805
5800000000 -12.43607 167.03464 0.3755849 -122.74577 0.3542248 -122.73358 -22.095186 -127.13264
5900000000 -11.134532 -99.433647 0.35953096 -126.21138 0.35462025 -125.86369 -23.543055 179.73282
6000000000 -14.292404 28.524755 0.072811864 -128.59491 0.37390459 -127.09452 -28.318802 4.1545882
6100000000 -11.827311 157.34901 0.5132665 -128.38382 0.48328963 -128.7067 -22.331869 -121.7733
6200000000 -13.973581 -106.5469 0.054676201 -131.39815 0.075514168 -131.27055 -24.223404 -178.76289
6300000000 -14.732674 27.240536 0.14598496 -134.09421 0.28247827 -132.7901 -28.694786 16.092463
6400000000 -13.364671 148.87228 0.20075923 -135.60429 0.17990021 -135.95308 -25.656746 -129.70729
6500000000 -14.438379 -117.65916 -0.034014143 -136.76677 -0.053391173 -136.98611 -26.216413 165.07919
6600000000 -18.969879 22.584925 -0.19484343 -139.06425 -0.10743851 -138.54654 -38.890984 53.206867
6700000000 -14.042125 144.33792 0.10229206 -140.79611 0.15123124 -141.14445 -24.213976 -133.00026
6800000000 -15.251575 -123.9718 -0.033934698 -142.32596 0.0095941247 -142.78067 -26.965166 -170.70747
6900000000 -18.560604 4.4389758 -0.23354717 -145.34929 -0.11771566 -145.32602 -38.947651 42.304729
7000000000 -16.632315 136.75555 -0.093206957 -147.1568 -0.022247752 -147.55301 -25.443163 -170.54483
7100000000 -16.238632 -128.75894 -0.037841972 -148.2585 -0.0035453616 -148.69495 -26.357933 176.56496
7200000000 -19.871059 5.8424425 -0.25994301 -151.1274 -0.14716417 -150.79906 -39.423084 40.303638
7300000000 -15.401779 124.21455 -0.040622968 -153.90556 0.040860765 -154.10338 -24.685444 -179.63889
7400000000 -17.051538 -134.24634 -0.14346373 -154.76765 -0.060037903 -155.18535 -26.985722 152.19383
7500000000 -19.246647 -14.666458 -0.19713035 -157.76137 -0.092838481 -157.03711 -32.444969 16.330198
7600000000 -18.226704 117.95084 -0.3288286 -158.98808 -0.23573172 -159.35506 -27.557735 166.65002
7700000000 -16.764589 -146.11455 -0.13288476 -161.52568 -0.04285042 -162.00624 -26.094116 142.21056
7800000000 -20.970942 -5.0006208 -0.22162846 -162.60481 -0.17928369 -162.29633 -30.629267 41.34129
7900000000 -16.999701 112.59907 -0.30079758 -165.28099 -0.21319139 -165.54593 -29.216078 164.81731
8000000000 -18.07616 -153.67798 -0.21272062 -167.98431 -0.14945719 -168.31915 -27.948307 131.81874
8100000000 -19.676626 -12.457233 -0.17371377 -169.10272 -0.12827173 -168.69582 -28.255548 32.084076
8200000000 -19.003099 105.51618 -0.43305841 -171.08087 -0.33485198 -171.34685 -33.037395 133.11081
8300000000 -18.346245 -147.46951 -0.21403168 -173.52559 -0.12171586 -173.90692 -29.622351 126.28254
8400000000 -20.796989 -22.004589 -0.2948986 -175.45033 -0.21880779 -175.4433 -30.97084 22.435068
8500000000 -19.268303 94.493698 -0.40337774 -177.00403 -0.32515144 -177.40659 -33.169495 111.12192
8600000000 -20.845461 -160.97038 -0.4026829 -179.38068 -0.33364645 -179.78535 -32.200333 105.66577
8700000000 -21.986889 -20.363808 -0.33815691 178.59569 -0.26704177 178.58614 -30.87307 11.962241
8800000000 -19.788706 86.620323 -0.41946983 176.966 -0.33185074 176.76453 -34.490448 100.08534
8900000000 -21.738903 -167.64281 -0.47245252 174.54443 -0.38301039 174.21739 -32.580421 95.842461
9000000000 -21.446865 -29.82983 -0.38360754 172.21927 -0.29827148 171.98169 -31.257483 -8.0038891
9100000000 -20.234823 73.387123 -0.43845612 170.83946 -0.35862753 170.50189 -36.098717 92.876236
9200000000 -22.293201 178.61575 -0.49038553 168.54976 -0.40910506 168.13235 -32.333599 93.310417
9300000000 -23.041729 -40.145596 -0.45266077 166.40152 -0.38880771 166.1024 -31.059233 -5.352849
9400000000 -19.738218 71.624504 -0.41033006 164.43959 -0.34177494 164.24483 -39.006252 69.950592
9500000000 -22.287157 167.61618 -0.48652777 162.35455 -0.41125903 162.00177 -33.328262 86.937439
9600000000 -22.659317 -45.286568 -0.51336873 160.32741 -0.42686307 160.02162 -32.177177 -14.162926
9700000000 -20.682283 53.449356 -0.48289415 157.90454 -0.42081404 157.71812 -35.990849 64.856689
9800000000 -24.30592 175.84651 -0.52688289 156.6937 -0.43893215 156.3212 -36.737221 75.752983
9900000000 -21.72518 -48.607338 -0.48525178 154.68332 -0.39237693 154.20709 -31.220655 -17.901871
10000000000 -20.394804 52.786732 -0.4725427 151.84126 -0.41997132 151.52948 -36.032036 56.979488
10100000000 -22.087231 164.9019 -0.44150949 150.31976 -0.3746866 149.85602 -35.251823 69.401733
10200000000 -22.411398 -64.236046 -0.51317704 148.39052 -0.44862664 147.85301 -30.930319 -32.792099
10300000000 -23.550812 43.015663 -0.56824535 146.16081 -0.52684319 145.9425 -36.605038 26.548183
10400000000 -23.885508 174.77731 -0.49592054 144.01642 -0.41341284 143.79251 -35.71003 37.924435
10500000000 -22.513906 -69.389999 -0.50703937 142.78207 -0.39548773 142.17 -29.670694 -33.155712
10600000000 -23.0263 40.294601 -0.59546006 140.05487 -0.52818894 139.67552 -36.623009 -2.4811149
10700000000 -23.918837 163.8194 -0.51928097 137.88354 -0.43110636 137.44598 -37.541313 21.549652
10800000000 -23.045897 -77.117752 -0.50874126 136.63528 -0.4298555 135.86113 -29.191326 -41.100754
10900000000 -25.055119 18.055073 -0.57184947 134.07408 -0.54391873 133.89407 -34.098789 -33.770794
11000000000 -24.606096 174.43279 -0.5419839 131.83444 -0.45799261 131.64102 -38.699566 -20.297798
11100000000 -21.629704 -88.693695 -0.48855746 130.09146 -0.37988329 129.49738 -28.576269 -55.285908
11200000000 -24.524683 6.3134742 -0.54897684 127.8558 -0.51765078 127.63213 -32.903873 -48.09404
11300000000 -27.235159 150.09673 -0.65695375 125.71011 -0.57149911 125.45737 -37.755455 -60.933933
11400000000 -22.300631 -92.355202 -0.5071944 123.9197 -0.4260214 123.26212 -28.722061 -71.024559
11500000000 -23.789698 -8.2429123 -0.45308542 121.77677 -0.4753733 121.52729 -31.500948 -64.404877
11600000000 -26.103878 155.4308 -0.64757872 119.65735 -0.56297719 119.35208 -35.727337 -77.554024
11700000000 -20.812321 -104.35357 -0.46596435 117.49434 -0.39024171 116.81472 -27.382879 -87.450592
11800000000 -23.344332 -17.321533 -0.42807871 115.18027 -0.45097995 115.03474 -33.322159 -86.611687
11900000000 -26.40279 131.63037 -0.65725076 113.30088 -0.57938939 113.11018 -36.037575 -94.067131
12000000000 -22.463934 -111.48422 -0.54210514 111.31716 -0.46787697 110.76712 -27.261467 -97.27758
12100000000 -23.203466 -20.86916 -0.42763668 108.79507 -0.40429881 108.64469 -31.474236 -112.00044
12200000000 -25.769764 137.18445 -0.64050281 107.28345 -0.55329514 107.02695 -34.683098 -114.07199
12300000000 -21.671701 -127.20136 -0.57755232 105.48396 -0.47596493 104.6385 -27.653614 -106.91351
12400000000 -25.490999 -36.381214 -0.47130057 102.34812 -0.46448916 102.15701 -31.529711 -124.27666
12500000000 -26.665825 132.43265 -0.62063688 100.95744 -0.5571894 100.93993 -34.789352 -132.99297
12600000000 -21.996098 -131.35083 -0.60829872 98.98735 -0.50790119 98.416519 -27.858271 -116.4238
12700000000 -27.199827 -39.4538 -0.49194416 96.242844 -0.48223287 96.135414 -30.6998 -127.40974
12800000000 -26.117643 126.03807 -0.65495831 94.664482 -0.56156832 94.498322 -31.784128 -139.30048
12900000000 -22.82408 -151.11259 -0.66124779 93.053421 -0.5534693 92.365906 -27.879448 -133.19481
13000000000 -28.710773 -71.722969 -0.62686622 90.240074 -0.57545877 89.72094 -30.341814 -136.21976
13100000000 -27.034042 131.30199 -0.66950327 88.32531 -0.58732182 88.324295 -30.996927 -144.72391
13200000000 -22.477831 -156.29514 -0.61915964 86.908836 -0.52507663 86.26696 -27.544804 -138.63371
13300000000 -27.546204 -87.782814 -0.59554386 83.826263 -0.59559649 83.412392 -29.480185 -143.47313
13400000000 -27.480227 113.55946 -0.68190193 81.854935 -0.61180449 81.700043 -29.955261 -146.54289
13500000000 -22.390652 -174.23476 -0.63697183 80.531776 -0.54225177 80.030647 -26.477896 -149.02205
13600000000 -28.124899 -110.14417 -0.66582054 78.063683 -0.61866498 77.475822 -27.405363 -149.1748
13700000000 -27.010641 114.78364 -0.69979298 75.583908 -0.62925678 75.451332 -28.973543 -158.51161
13800000000 -21.216326 -179.54865 -0.64538676 74.047035 -0.5313136 73.515099 -25.974871 -155.64401
13900000000 -25.646025 -118.99609 -0.59994173 71.815872 -0.62984538 71.116135 -26.046963 -155.39284
14000000000 -28.631605 121.83197 -0.76019967 69.514732 -0.72835588 69.464302 -27.059002 -165.44542
14100000000 -21.437082 177.77107 -0.63929886 67.956985 -0.53452891 67.544678 -24.867975 -165.57605
14200000000 -25.769312 -132.22639 -0.58744478 65.697037 -0.59461111 65.055466 -25.264294 -166.83897
14300000000 -26.249044 123.88576 -0.77595788 63.368637 -0.71357572 63.223839 -26.625343 -175.55081
14400000000 -19.952745 169.42285 -0.65977085 61.319473 -0.52597803 60.800117 -24.07996 -174.06293
14500000000 -25.698612 -151.37262 -0.60798484 59.376835 -0.6166665 58.82122 -25.025063 -178.00999
14600000000 -26.764442 118.53426 -0.75410283 57.177601 -0.74199522 57.067966 -25.911333 175.86317
14700000000 -21.541889 161.72165 -0.70935398 55.426159 -0.60124749 54.881233 -23.770542 176.91795
14800000000 -26.030706 -157.34981 -0.61225235 53.117329 -0.60236955 52.348797 -23.907278 170.93492
14900000000 -26.55517 120.17636 -0.79001069 50.866463 -0.74761456 50.873871 -25.579702 164.88805
15000000000 -20.815821 150.8734 -0.778422 48.900463 -0.65772372 48.332748 -23.686289 165.41339
15100000000 -25.083208 175.78847 -0.67698807 46.511925 -0.6783638 46.090008 -23.815039 160.39288
15200000000 -26.082708 118.14223 -0.79534084 44.802868 -0.7833308 44.805389 -25.287333 156.29327
15300000000 -21.640814 140.25595 -0.828906 42.953812 -0.73601651 42.428379 -23.763384 156.3297
15400000000 -25.656832 170.72289 -0.72206116 40.292801 -0.68695104 39.716862 -23.419588 152.12703
15500000000 -26.708076 113.22726 -0.79932374 38.476891 -0.80042285 38.484806 -25.118883 146.74019
15600000000 -20.956493 131.4677 -0.88025624 36.70137 -0.7764712 36.219456 -23.442842 145.98944
15700000000 -23.718521 151.84634 -0.78962404 34.235085 -0.77936858 33.73867 -23.561123 146.67509
15800000000 -25.225504 103.71732 -0.85327905 32.37904 -0.82549536 32.443722 -24.605209 140.64301
15900000000 -20.59668 121.12058 -0.90383911 30.967592 -0.80933106 30.435822 -22.830011 138.56343
16000000000 -24.886839 145.08934 -0.85596192 28.318407 -0.8228597 27.606512 -23.392878 138.76392
16100000000 -24.806187 94.268929 -0.85514849 26.416677 -0.81618226 26.240978 -24.439291 130.89624
16200000000 -20.008301 113.82154 -0.89867312 24.850302 -0.81771445 24.386116 -22.650515 130.78076
16300000000 -23.796593 134.75995 -0.85855633 22.551008 -0.84598845 21.905289 -23.324089 133.5295
16400000000 -23.075844 86.537895 -0.8479799 20.271854 -0.81618541 20.267719 -24.344904 124.01699
16500000000 -20.015022 107.50197 -0.89713478 19.024378 -0.81069469 18.636093 -22.156158 126.18893
16600000000 -24.544004 126.19659 -0.87072009 16.50704 -0.84029764 15.791935 -22.916197 126.28308
16700000000 -23.805992 83.777206 -0.88331318 14.377183 -0.84364343 14.121008 -23.784801 116.50228
16800000000 -19.989361 102.30064 -0.88435221 12.872566 -0.80586356 12.371253 -22.243912 119.59443
16900000000 -23.425333 112.72337 -0.88021296 10.818102 -0.84849405 10.135653 -22.794922 121.66953
17000000000 -22.38673 77.717789 -0.86349934 8.3665552 -0.8444975 8.1292439 -23.274069 111.4063
17100000000 -20.342588 93.038994 -0.86835086 6.7111888 -0.81129259 6.2740636 -21.984909 112.97569
17200000000 -23.479755 103.59383 -0.86124766 4.5332565 -0.83655477 3.9743462 -22.646141 113.61682
17300000000 -23.282032 75.789215 -0.88658547 2.3769233 -0.8619805 2.0759683 -23.040827 105.73956
17400000000 -20.755682 86.569084 -0.87695634 0.46284845 -0.81169629 0.044643357 -21.900253 106.68465
17500000000 -23.219706 93.915207 -0.8630746 -1.4470724 -0.81239641 -1.966668 -22.459011 108.27647
17600000000 -22.471481 68.211082 -0.86640054 -3.6752353 -0.83918214 -4.0344515 -23.022026 98.229881
17700000000 -20.343918 76.012016 -0.86319435 -5.7160354 -0.82248825 -6.1652551 -21.840246 98.827217
17800000000 -23.574495 87.890434 -0.83625358 -7.8090038 -0.80277187 -8.34513 -22.363306 99.877327
17900000000 -23.4007 59.41288 -0.84504789 -9.8374872 -0.8270421 -10.172651 -23.403151 90.140656
18000000000 -20.954084 71.559357 -0.87305456 -12.056246 -0.83591318 -12.373308 -22.027449 92.548935
18100000000 -23.749262 80.728859 -0.84332168 -14.055066 -0.78515315 -14.414751 -22.394459 95.028351
18200000000 -23.081059 50.766567 -0.85685611 -15.963805 -0.81586188 -16.383982 -22.992237 82.90625
18300000000 -20.513889 63.077049 -0.86824173 -18.063034 -0.82899731 -18.470791 -21.87826 82.70533
18400000000 -24.653095 73.757904 -0.83862758 -20.243488 -0.7797159 -20.773355 -22.759241 85.117378
18500000000 -23.17202 41.928307 -0.80984807 -22.00104 -0.79748851 -22.515963 -23.301531 73.082138
18600000000 -21.145576 56.993393 -0.85299486 -24.341576 -0.83819741 -24.715607 -22.329763 77.804031
18700000000 -24.937399 65.284325 -0.84125626 -26.506472 -0.79042965 -26.840462 -23.386387 80.003235
18800000000 -22.73114 31.811798 -0.8086971 -28.514755 -0.78108323 -28.90851 -23.396975 67.691551
18900000000 -20.983917 48.144371 -0.83937901 -30.565422 -0.83430207 -30.876188 -22.162264 70.529099
19000000000 -24.464886 49.961651 -0.86952931 -32.697453 -0.81589013 -33.047661 -23.427362 68.746758
19100000000 -23.009773 27.843115 -0.7959339 -34.561466 -0.77871752 -35.114468 -23.744225 56.77956
19200000000 -21.710489 41.874126 -0.83586574 -36.778397 -0.84262604 -37.195637 -23.374857 64.511803
19300000000 -24.846228 43.237068 -0.88368005 -38.949326 -0.82523894 -39.291145 -24.08836 64.952126
19400000000 -23.530859 18.273287 -0.82565141 -41.153641 -0.78494549 -41.555065 -24.411421 55.010098
19500000000 -22.226669 29.630041 -0.84433442 -43.327271 -0.84926891 -43.536247 -23.646448 59.136501
19600000000 -24.739485 36.41132 -0.89179039 -45.30497 -0.84374863 -45.510365 -24.28805 55.612904
19700000000 -24.51391 13.505417 -0.85291916 -47.331135 -0.81121391 -47.787617 -24.947887 46.565514
19800000000 -22.868679 22.940115 -0.87283903 -49.658405 -0.87294161 -49.904282 -24.951408 50.54884
19900000000 -25.48937 31.124151 -0.92831951 -51.528214 -0.86447144 -51.761158 -25.460831 52.31739
20000000000 -25.835594 5.0277152 -0.91920966 -53.565521 -0.85566849 -54.145985 -26.017233 46.290218
20100000000 -23.068382 11.181711 -0.88400745 -55.934383 -0.88681048 -56.078243 -25.149473 44.391861
20200000000 -26.196754 24.605797 -0.93620104 -57.824219 -0.87593985 -57.891762 -25.82481 44.356579
20300000000 -26.406706 -9.2773952 -0.91824132 -59.65451 -0.85972291 -60.162567 -27.107653 34.682507
20400000000 -23.453058 3.6219473 -0.92131257 -62.118145 -0.90990478 -62.320873 -26.624054 35.522659
20500000000 -27.242254 16.322456 -0.98296422 -63.916664 -0.89074028 -64.061646 -27.667929 40.665298
20600000000 -27.036146 -25.346287 -0.95792782 -65.808624 -0.85066253 -66.489014 -28.299778 32.108421
20700000000 -24.119938 -8.795167 -0.91743052 -68.11837 -0.91280109 -68.551811 -27.290695 27.575199
20800000000 -30.177103 4.4158578 -0.95539093 -70.178505 -0.88443965 -70.386559 -28.537279 31.491722
20900000000 -28.211609 -38.920948 -0.93862283 -71.79834 -0.86958069 -72.588135 -30.167055 17.210003
21000000000 -25.799358 -19.122942 -0.96059597 -74.186844 -0.95466638 -74.739922 -30.033569 20.767073
21100000000 -31.386377 -6.8110256 -0.99999416 -76.161026 -0.93590742 -76.463631 -32.019791 26.468576
21200000000 -28.411676 -53.644737 -0.95975053 -78.067612 -0.87777442 -78.846375 -32.676647 16.670197
21300000000 -26.815819 -32.715908 -0.94874495 -80.458099 -0.95708203 -80.910309 -31.448034 15.0022
21400000000 -32.434895 -36.697105 -0.99246591 -82.468697 -0.92870456 -82.688278 -33.21489 9.4271431
21500000000 -29.49844 -68.775894 -0.93891317 -84.117813 -0.88516319 -85.061592 -35.513329 -15.101248
21600000000 -27.939283 -47.811691 -0.9297238 -86.463524 -0.96736056 -87.21064 -38.758892 -14.645432
21700000000 -34.180656 -42.709137 -1.0175301 -88.730118 -0.98304111 -89.055717 -39.776741 10.134359
21800000000 -30.076977 -93.393394 -0.98924762 -90.68187 -0.93011451 -91.380524 -44.311066 -19.068426
21900000000 -28.922558 -75.677513 -0.95589364 -92.87175 -0.99217212 -93.245857 -44.050884 -43.191242
22000000000 -35.66785 -77.051689 -0.99744904 -94.969681 -0.98989612 -95.032509 -42.198742 -18.177492
22100000000 -29.483459 -117.04438 -0.98722565 -96.9384 -0.93786985 -97.585495 -44.105305 -118.20849
22200000000 -28.905748 -88.935616 -0.95446312 -99.195587 -0.99868721 -99.685951 -39.153908 -118.38296
22300000000 -38.227886 -127.67256 -1.0511304 -101.08038 -1.0452479 -101.31061 -42.393951 -136.19788
22400000000 -28.175297 -150.62547 -1.0614799 -103.18971 -1.0045021 -103.87588 -34.186207 -166.26315
22500000000 -29.166512 -123.08977 -0.99594361 -105.38868 -1.0299144 -105.59848 -34.897339 -159.60352
22600000000 -32.557125 -168.95607 -1.0431509 -107.44504 -1.0261289 -107.2052 -36.121284 167.02225
22700000000 -26.931122 -161.67041 -1.0740311 -109.44711 -0.99663734 -109.87699 -31.047716 170.16512
22800000000 -29.748634 -131.28363 -1.0179336 -111.90063 -1.022372 -112.10088 -33.274605 178.71797
22900000000 -31.123663 178.7636 -1.1067407 -113.66854 -1.0922962 -113.59873 -33.083698 163.75874
23000000000 -25.777737 -175.57101 -1.1296562 -115.41879 -1.0606595 -116.07677 -29.00124 171.5961
23100000000 -28.207846 -164.48491 -1.1205318 -117.61896 -1.0990112 -118.06333 -29.590858 176.21547
23200000000 -26.506142 166.89778 -1.1536652 -119.50066 -1.1048099 -119.498 -28.782057 161.41624
23300000000 -24.186045 176.30844 -1.2028359 -121.30114 -1.0948886 -121.81014 -26.396961 162.79109
23400000000 -26.284037 174.9801 -1.1416738 -123.61382 -1.1366086 -124.03718 -27.076298 166.16789
23500000000 -24.948656 156.41861 -1.1850936 -125.49252 -1.1377487 -125.54659 -26.382284 157.78331
23600000000 -23.304693 158.99974 -1.193151 -127.04192 -1.1191659 -127.69292 -24.230452 159.78831
23700000000 -24.302933 154.58722 -1.1461288 -129.17068 -1.143008 -129.94765 -24.184179 160.99461
23800000000 -23.066515 145.63678 -1.1891996 -131.07611 -1.1181804 -131.43599 -23.413801 149.89299
23900000000 -22.167603 147.01073 -1.1618556 -132.93829 -1.0885912 -133.73616 -22.199217 148.66322
24000000000 -22.567036 148.04453 -1.1483542 -135.11288 -1.1512939 -135.90053 -22.673742 149.61377
24100000000 -22.036486 139.43643 -1.156927 -137.43436 -1.132367 -137.57927 -22.583298 142.07729
24200000000 -21.214281 139.06779 -1.1544203 -139.07018 -1.1054281 -139.6718 -21.174477 142.77383
24300000000 -21.649551 133.62616 -1.1175774 -141.09053 -1.1304176 -141.88445 -21.332342 145.11713
24400000000 -21.047571 127.31253 -1.119911 -143.26115 -1.1245261 -143.73735 -20.988636 137.02638
24500000000 -20.422644 127.72762 -1.1119319 -145.03616 -1.0621077 -145.9397 -19.647358 136.27075
24600000000 -20.650881 127.7041 -1.0823948 -147.31841 -1.1086007 -148.08156 -20.177387 136.42847
24700000000 -19.88553 122.01053 -1.0908663 -149.5612 -1.1133729 -149.82741 -20.073578 127.50352
24800000000 -19.597193 122.90717 -1.0829644 -151.55019 -1.0456271 -152.10469 -19.11348 128.63853
24900000000 -19.928612 117.24729 -1.0494655 -153.78519 -1.0972102 -154.23495 -19.609293 129.80681
25000000000 -19.464453 110.45052 -1.0822991 -155.8728 -1.1166269 -156.19681 -19.263517 122.20853
25100000000 -19.083769 110.89011 -1.0934417 -157.86531 -1.0704792 -158.45818 -18.355543 123.92227
25200000000 -19.208719 107.0332 -1.0679955 -159.94736 -1.1033517 -160.48289 -18.79937 122.86896
25300000000 -18.492018 105.95595 -1.0977035 -162.20798 -1.1238736 -162.33832 -18.510557 114.64219
25400000000 -18.354155 105.60097 -1.1000469 -164.2785 -1.0740705 -164.66142 -17.898613 116.33395
25500000000 -18.477848 100.96864 -1.0713362 -166.37332 -1.1059564 -166.80896 -18.402819 114.14052
25600000000 -18.147928 96.535164 -1.1130884 -168.53006 -1.1459423 -168.6391 -18.059864 109.03178
25700000000 -18.032906 93.569893 -1.1295749 -170.58528 -1.1240779 -170.87312 -17.500032 110.49764
25800000000 -17.76832 90.227753 -1.1164061 -172.60135 -1.1322398 -172.86243 -17.886106 107.62724
25900000000 -17.530993 90.278755 -1.1476557 -174.70546 -1.1464818 -174.75299 -17.478672 102.64388
26000000000 -17.297716 87.269791 -1.1550326 -176.76765 -1.1314529 -177.0551 -17.174839 103.97964
26100000000 -17.233074 84.728821 -1.1381819 -178.79321 -1.1541551 -179.15401 -17.465845 101.94778
26200000000 -17.217119 82.833229 -1.1623622 179.07608 -1.1808102 178.97115 -17.053783 97.844742
26300000000 -17.010752 77.928818 -1.1688639 177.1427 -1.1586087 176.94005 -16.743151 97.545738
26400000000 -16.826672 75.913986 -1.1692591 175.00157 -1.1643345 174.74092 -16.939354 96.094803
26500000000 -16.665386 74.154236 -1.1663908 172.93669 -1.1689728 172.91301 -16.688725 90.847008
26600000000 -16.42996 71.941193 -1.1912411 170.89418 -1.1762445 170.69102 -16.562376 91.678574
26700000000 -16.413109 71.18132 -1.1979604 168.83072 -1.1925855 168.52377 -16.806698 89.956604
26800000000 -16.561964 67.595726 -1.1955053 166.6869 -1.2034951 166.69849 -16.391138 86.750198
26900000000 -16.16188 64.09684 -1.2086576 164.79887 -1.2008352 164.60225 -16.086248 86.689804
27000000000 -16.277416 62.266766 -1.2106341 162.61273 -1.1769637 162.39172 -16.238392 82.968079
27100000000 -15.972396 58.176067 -1.2073692 160.50328 -1.1919124 160.54871 -16.102833 80.018639
27200000000 -15.754457 56.820923 -1.2234157 158.46779 -1.2374744 158.37062 -16.267 79.99176
27300000000 -15.838257 56.212685 -1.2413988 156.52594 -1.2221406 156.06871 -16.374952 76.98941
27400000000 -16.05924 51.347412 -1.2427467 154.47955 -1.1286082 153.90765 -16.092857 79.465813
27500000000 -15.72888 48.906796 -1.2562307 152.37195 -1.1684941 151.8943 -16.086695 81.858597
27600000000 -15.99597 47.170406 -1.2780787 150.13397 -1.2016584 149.99707 -16.736521 68.927513
27700000000 -15.909604 43.224834 -1.266101 148.03331 -1.2182522 148.07573 -15.259249 65.579002
27800000000 -15.629019 40.36972 -1.2734481 146.09468 -1.2782068 145.96095 -15.59027 73.103188
27900000000 -15.901732 40.052094 -1.3225694 144.15321 -1.2874652 143.7841 -17.241894 65.972786
28000000000 -15.956157 35.34877 -1.3367877 141.91431 -1.2739575 141.83455 -15.457915 55.96011
28100000000 -15.721839 34.385864 -1.3160601 139.84346 -1.3140562 139.93175 -14.131953 70.015625
28200000000 -15.945 34.071125 -1.4244065 138.15929 -1.3252217 137.34647 -19.270006 97.043205
28300000000 -16.157763 24.322992 -1.6362442 139.31921 -1.4694963 140.06096 -18.425322 -153.40788
28400000000 -15.665679 26.40082 -1.1125932 134.74756 -1.154803 134.13875 -21.564598 80.353867
28500000000 -16.161932 23.235453 -1.3035221 132.23006 -1.2023655 131.88348 -16.548676 47.215706
28600000000 -16.027363 20.503502 -1.3186886 130.24413 -1.2869284 130.13625 -15.953981 52.630806
28700000000 -16.043287 18.023327 -1.3356793 128.25784 -1.3486043 128.01251 -16.274889 51.038643
28800000000 -16.232132 17.126236 -1.3522923 126.25648 -1.3210055 125.88298 -16.159775 51.39621
28900000000 -16.28804 12.428797 -1.3674275 124.3187 -1.3243693 123.97378 -16.57147 49.88208
29000000000 -16.259199 10.313341 -1.3461783 122.55109 -1.3593714 122.32014 -16.387392 45.69809
29100000000 -16.600925 7.7366033 -1.3192827 120.34781 -1.2911019 120.0879 -16.190046 48.123924
29200000000 -16.204754 3.8679681 -1.3043294 118.23003 -1.2771466 117.78001 -16.644207 44.240463
29300000000 -16.227299 2.6334295 -1.3156786 116.02307 -1.3585745 115.87935 -16.341076 38.776554
29400000000 -16.846004 -0.31289926 -1.3788362 114.10908 -1.3946213 113.85957 -16.564375 38.909843
29500000000 -16.8584 -2.5055141 -1.3596684 112.27638 -1.3434436 112.0289 -17.680511 36.091278
29600000000 -17.083355 -3.932446 -1.3488296 110.35457 -1.3641018 110.46148 -17.561647 33.550144
29700000000 -17.4179 -8.6555157 -1.3341159 108.31303 -1.3151245 108.39273 -17.604433 38.369793
29800000000 -17.323416 -10.96894 -1.2896701 106.2058 -1.2451494 106.11062 -18.200167 38.436123
29900000000 -17.511522 -11.167515 -1.2402059 103.81975 -1.2601447 104.00581 -17.547741 34.121262
30000000000 -17.754744 -13.995494 -1.2897247 101.58518 -1.2961007 101.72015 -17.458828 34.971943
30100000000 -17.746305 -13.552145 -1.3166138 99.638985 -1.2941633 99.506683 -18.332977 31.646412
30200000000 -17.772305 -17.870005 -1.3285167 97.275238 -1.2876688 97.566368 -17.959431 28.024605
30300000000 -17.704323 -24.440767 -1.3713279 95.337402 -1.3271554 95.506447 -18.029726 30.299532
30400000000 -18.002123 -27.499054 -1.43803 93.505104 -1.3501893 93.373329 -18.857861 29.157764
30500000000 -18.707518 -33.008541 -1.4109652 91.3004 -1.353829 91.467804 -18.680225 21.373112
30600000000 -18.85038 -36.409184 -1.4440696 89.481377 -1.3746016 89.707932 -18.823898 24.39152
30700000000 -19.583044 -34.37635 -1.4500461 87.782944 -1.3873981 87.542389 -20.450991 21.473696
30800000000 -19.884962 -40.430466 -1.4310957 85.644424 -1.3455263 85.55497 -20.273325 14.966459
30900000000 -19.411739 -45.209015 -1.467953 83.755554 -1.3566905 83.730492 -20.479202 24.539541
31000000000 -20.18219 -47.812817 -1.447992 81.969498 -1.369938 81.762833 -22.562981 25.245899
31100000000 -20.701992 -56.341728 -1.4514639 80.101479 -1.3444413 79.734245 -21.808258 19.353905
31200000000 -21.171495 -53.672104 -1.4058713 78.219994 -1.3159299 77.929642 -21.909435 30.103674
31300000000 -23.541506 -52.750706 -1.3890632 76.351868 -1.330246 75.705017 -24.67337 29.962408
31400000000 -21.781942 -86.466484 -1.443774 74.021286 -1.3291277 73.016647 -22.49041 20.966339
31500000000 -18.26248 -68.139931 -1.4164053 71.759247 -1.2498318 70.549324 -21.577545 36.824333
31600000000 -18.695436 -36.423023 -1.4375564 70.462395 -1.3848757 69.942596 -24.818254 47.896107
31700000000 -28.341507 -75.107994 -1.3389481 68.442841 -1.2974294 67.689148 -25.201124 28.104292
31800000000 -21.631666 -107.27391 -1.3201553 66.486687 -1.318886 65.806076 -23.690084 42.105888
31900000000 -21.904938 -81.7621 -1.3385619 64.216011 -1.2446719 63.494511 -24.915972 51.584103
32000000000 -26.258329 -91.734688 -1.2808309 62.252148 -1.2703162 61.135433 -26.0005 40.516815
32100000000 -23.014681 -110.74026 -1.2798858 59.960354 -1.2732276 59.393093 -24.014265 49.468021
32200000000 -23.176155 -100.14792 -1.2722337 57.864475 -1.2128438 57.272137 -24.88888 56.897041
32300000000 -25.958941 -123.05676 -1.1791588 55.885109 -1.233326 55.016216 -26.126646 52.011673
32400000000 -23.481647 -134.19099 -1.2179356 53.458988 -1.249902 53.070911 -24.594982 57.387497
32500000000 -25.340879 -123.69068 -1.1929193 51.301338 -1.1945566 50.636646 -25.211235 70.936211
32600000000 -27.102394 -148.52049 -1.182888 49.289234 -1.2181126 48.492245 -25.582813 67.508102
32700000000 -24.224306 -146.33611 -1.2209116 46.821815 -1.2262554 46.593189 -23.418282 67.662384
32800000000 -25.200258 -141.44066 -1.2064379 44.83345 -1.1765338 44.437561 -23.533339 75.530312
32900000000 -24.944515 -171.61153 -1.1928847 42.599602 -1.2042586 42.186119 -24.133772 72.158806
33000000000 -23.108675 -175.05655 -1.1761013 40.32655 -1.2395825 40.248554 -22.939831 70.487648
33100000000 -25.25209 -179.85704 -1.2111453 38.214386 -1.2052499 37.852745 -22.745409 80.893425
33200000000 -24.345131 163.15158 -1.1995986 36.068035 -1.2273391 35.63002 -23.086611 83.882881
33300000000 -23.558531 170.86369 -1.2341703 33.726357 -1.231602 33.684956 -21.342537 81.158188
33400000000 -24.556639 164.80072 -1.2880678 31.834785 -1.2280537 31.679457 -20.202911 83.51339
33500000000 -22.509922 151.16072 -1.2698995 29.652122 -1.2423551 29.311617 -20.839224 80.758575
33600000000 -21.207983 151.89685 -1.2824287 27.432974 -1.2567241 27.410292 -20.160269 76.230392
33700000000 -21.747889 143.55391 -1.2984723 25.296949 -1.2640517 25.135565 -19.950356 81.602722
33800000000 -20.532524 132.99638 -1.3106672 23.439751 -1.3068221 22.890726 -20.167835 82.778023
33900000000 -20.20429 137.90314 -1.3484683 21.282495 -1.3175682 20.968321 -18.901043 81.153938
34000000000 -21.122099 129.08807 -1.3734099 19.262686 -1.3016495 19.021364 -18.281687 84.05381
34100000000 -19.565699 122.90153 -1.3721105 17.343781 -1.3158395 16.775789 -18.19026 80.557549
34200000000 -19.06991 125.07107 -1.3687118 15.122773 -1.3301582 14.818715 -17.652002 75.648132
34300000000 -19.335791 118.65006 -1.3918972 13.110611 -1.3322868 12.639028 -17.605186 78.258385
34400000000 -18.086163 113.56348 -1.3854588 11.209501 -1.3864645 10.483973 -17.70928 79.480667
34500000000 -17.815331 116.15285 -1.4234256 9.1661863 -1.4205132 8.6283703 -16.971928 78.933167
34600000000 -18.087965 108.72981 -1.4211876 7.2691107 -1.383112 6.6048989 -16.191605 79.241531
34700000000 -17.239159 103.36215 -1.3927022 5.2899227 -1.3813579 4.5194707 -15.919376 76.606445
34800000000 -17.002886 104.49722 -1.3967776 2.9615302 -1.4023595 2.3683333 -15.983228 72.311142
34900000000 -17.155628 99.542435 -1.4223903 0.81195331 -1.405509 0.23459944 -15.636955 71.983032
35000000000 -16.257776 97.297455 -1.4136783 -1.0441018 -1.4338875 -1.7942224 -15.705571 72.391518
35100000000 -15.980065 98.107986 -1.4335796 -3.1868701 -1.4598372 -3.6777368 -15.575218 71.062706
35200000000 -16.067392 93.094337 -1.4518778 -5.3086662 -1.4582815 -5.8922696 -15.018482 70.590057
35300000000 -15.429898 87.019592 -1.4454097 -7.2724209 -1.4756155 -7.9965806 -14.702857 71.392899
35400000000 -15.304516 86.662827 -1.4610827 -9.2944927 -1.494723 -9.8544426 -14.547802 67.849762
35500000000 -15.799272 83.49057 -1.4875075 -11.415949 -1.5121239 -11.942641 -14.192395 65.978607
35600000000 -15.420375 80.183578 -1.4605293 -13.308234 -1.4928645 -13.886212 -14.098346 66.92704
35700000000 -14.631959 81.080162 -1.4461867 -15.413452 -1.485604 -15.851662 -13.961484 64.283836
35800000000 -14.798729 78.429024 -1.4803381 -17.738932 -1.504614 -18.171406 -13.246136 61.940014
35900000000 -14.361643 71.366692 -1.4974757 -19.88061 -1.5282451 -20.398281 -13.292522 60.648148
36000000000 -14.041918 71.593193 -1.5000496 -21.898863 -1.5488529 -22.328768 -13.489874 57.997547
36100000000 -14.372801 68.161293 -1.5602585 -24.081854 -1.5938915 -24.437754 -12.99145 56.232132
36200000000 -14.099165 61.209068 -1.606619 -26.087013 -1.640671 -26.507101 -12.783287 55.933292
36300000000 -13.807066 61.009518 -1.6431049 -27.810541 -1.6781591 -28.101803 -13.066925 51.851593
36400000000 -14.420228 59.579018 -1.6752741 -29.434618 -1.6959465 -29.693476 -12.779388 48.215317
36500000000 -14.194201 54.209923 -1.6511759 -31.15914 -1.6755872 -31.490911 -12.871974 49.171314
36600000000 -13.890937 56.618343 -1.581782 -32.917618 -1.6162343 -33.294907 -13.276057 46.76619
36700000000 -14.331033 56.53846 -1.5349592 -34.989716 -1.5702273 -35.255253 -12.967865 45.020283
36800000000 -13.74859 50.928585 -1.517169 -37.348053 -1.5452926 -37.668186 -12.859661 49.271328
36900000000 -12.962353 52.028404 -1.5082042 -39.666416 -1.5500075 -39.917503 -12.968563 48.513508
37000000000 -13.327765 50.077 -1.5209552 -41.811089 -1.5620373 -41.963207 -12.111571 44.776466
37100000000 -12.837207 42.692162 -1.5529927 -44.037025 -1.5889348 -44.179878 -11.902794 44.844028
37200000000 -12.474082 44.105438 -1.5621221 -46.215393 -1.602631 -46.376057 -12.276178 40.294952
37300000000 -13.220629 41.955883 -1.5886405 -48.272633 -1.6193755 -48.360561 -11.78276 36.788383
37400000000 -12.696836 34.935944 -1.6418811 -50.35955 -1.6725771 -50.439339 -11.768188 39.607506
37500000000 -12.018661 36.461235 -1.6648988 -52.290791 -1.7125592 -52.399773 -12.145129 35.164101
37600000000 -12.694364 32.488739 -1.6934452 -54.317387 -1.7162836 -54.233349 -11.655287 31.573357
37700000000 -12.213948 25.207958 -1.70763 -56.156754 -1.751006 -55.943592 -11.659567 33.876881
37800000000 -12.186909 27.816364 -1.7379702 -58.070869 -1.7686229 -57.948799 -12.186871 29.448473
37900000000 -13.289622 25.854605 -1.7376379 -60.05011 -1.7432953 -59.922882 -11.518901 24.785639
38000000000 -12.754887 19.331444 -1.7645586 -61.908768 -1.7621789 -61.676167 -11.769032 27.467075
38100000000 -12.436264 22.728889 -1.780707 -63.623207 -1.7910893 -63.537235 -12.581337 24.5033
38200000000 -13.289646 19.729757 -1.7736629 -65.644608 -1.7607231 -65.571678 -11.815563 20.70266
38300000000 -12.555076 10.657758 -1.7672347 -67.605591 -1.74573 -67.317345 -11.708902 24.100019
38400000000 -12.441546 15.426141 -1.7896714 -69.15007 -1.7749618 -69.005302 -12.715604 21.367887
38500000000 -13.706326 12.059415 -1.7943838 -71.242989 -1.7552185 -71.222603 -11.99389 15.451122
38600000000 -13.113453 5.3591933 -1.7482179 -73.291061 -1.7065076 -72.994682 -11.914039 19.102341
38700000000 -12.788836 11.531983 -1.7394431 -74.769615 -1.7124186 -74.78804 -12.70782 16.373798
38800000000 -14.090698 7.5768919 -1.7643903 -76.831299 -1.7179338 -77.060524 -12.114918 10.03409
38900000000 -12.947525 -1.1972504 -1.7198416 -78.965858 -1.6563653 -78.993614 -12.242451 14.742928
39000000000 -12.932136 5.6304402 -1.6937714 -80.442551 -1.6513802 -80.734085 -13.377652 11.847027
39100000000 -14.069665 0.86524582 -1.6931045 -82.634293 -1.6452683 -83.099953 -12.354711 8.8753185
39200000000 -13.101731 -7.8257976 -1.6529112 -84.948654 -1.6156645 -85.079414 -12.303784 12.02581
39300000000 -12.978281 -2.3072987 -1.6427728 -86.744438 -1.5969094 -87.073166 -13.224665 7.7274833
39400000000 -14.389758 -8.5910635 -1.6126169 -88.524727 -1.6211959 -89.157562 -12.482568 2.3243594
39500000000 -13.392364 -14.881651 -1.6472682 -90.911446 -1.5963424 -91.172073 -12.602102 5.6474519
39600000000 -13.516536 -7.485106 -1.5889883 -92.658409 -1.5674257 -93.168777 -13.745373 0.25624949
39700000000 -14.607463 -12.301419 -1.5842285 -94.522194 -1.5854521 -95.281563 -13.168761 -2.7178361
39800000000 -13.549025 -19.81629 -1.5674428 -97.061302 -1.5488949 -97.273018 -13.013861 3.716692
39900000000 -13.444668 -15.03514 -1.5277524 -99.037422 -1.542473 -99.327835 -13.695258 -1.1296202
40000000000 -14.928041 -22.693577 -1.502821 -100.93447 -1.5338558 -101.53989 -13.139422 -6.5210338
