!Keysight Technologies,N5224A,MY55441802,A.10.65.16
!Date: Wednesday, May 13, 2026 18:38:34
!Correction: S11(Full 2 Port(1,2)) 
!S21(Full 2 Port(1,2)) 
!S12(Full 2 Port(1,2)) 
!S22(Full 2 Port(1,2)) 
!S2P File: Measurements: S11, S21, S12, S22:
# Hz S  dB   R 50
1000000000 -3.8563049 -80.030136 -2.9775314 -9.5979967 5.7074094 -4.5612812 -5.441999 -57.023109
1100000000 -0.86477667 154.06119 -6.2922411 26.545092 0.10904359 -2.3913043 -0.85234678 31.035547
1200000000 1.8051752 0.21133301 -11.460409 -141.57018 -15.372224 -78.808899 -0.4477286 -27.276268
1300000000 4.0451841 -51.887688 1.8498394 -23.796072 8.7963886 -17.791418 -10.05968 -53.80331
1400000000 0.82337916 161.16249 -5.1632371 45.696117 -0.77677447 4.5154586 -1.2253395 32.306152
1500000000 3.8757396 -2.8063121 -5.8472395 -166.20566 -10.15271 -143.07755 0.080887794 -27.770092
1600000000 8.0792694 -31.763062 4.7398515 -18.94145 10.012297 -12.799012 -7.6981373 14.679829
1700000000 3.3281169 162.20728 -2.2544007 65.190956 -1.6107347 16.887489 -0.57381445 29.874664
1800000000 7.6384358 -7.6321473 -0.14332943 175.04753 -1.6556925 179.25134 2.4319584 -34.14872
1900000000 7.0323243 -33.988903 4.6758871 -15.098803 8.1623602 -13.794554 -6.2023182 48.385777
2000000000 7.0617228 159.4637 2.8026323 70.679176 -0.41172618 35.663342 1.5342815 19.728727
2100000000 15.816028 -0.86225522 10.929152 179.76669 10.53721 173.95122 9.1875706 -22.760826
2200000000 7.4404159 -40.41861 5.002038 -19.797676 7.7584829 -20.836063 -4.7444177 40.96376
2300000000 14.025153 132.06126 12.619781 58.037605 7.674108 40.055248 8.0918951 -2.1643293
2400000000 18.441843 61.656631 14.857473 -117.61792 15.168673 -122.8917 10.707222 38.089073
2500000000 4.7922258 -63.27346 4.763814 -39.884472 6.3484612 -41.657593 -7.3503084 6.85571
2600000000 17.213579 -4.1852374 17.369316 -68.587517 13.289273 -73.503159 10.225748 -143.1003
2700000000 6.9126983 122.44442 6.5790534 -60.439438 7.6450229 -65.356796 -2.5216827 102.21769
2800000000 4.268167 -74.207779 5.0280218 -48.093338 6.2768197 -50.103851 -6.2564082 -11.201889
2900000000 4.5262432 -12.910798 7.2256551 -70.471008 5.1664195 -71.84243 -3.1846774 -142.46654
3000000000 4.5657635 113.20702 5.1852031 -70.346252 6.3859878 -71.841026 -4.7217679 86.985161
3100000000 0.27120447 -98.987892 3.9495759 -60.539021 4.5975761 -63.15115 -7.9268899 -33.443508
3200000000 1.9015981 -19.774063 5.554471 -76.660217 4.0672998 -73.739708 -5.5304484 -143.51843
3300000000 0.45206854 104.91859 3.4137125 -75.848686 4.2973747 -74.849953 -9.0020723 81.547546
3400000000 -0.86268365 -103.40195 3.217103 -65.940422 3.5697627 -66.974609 -9.7126226 -30.039204
3500000000 -1.3709745 -38.126534 3.516824 -85.425743 2.4114783 -79.337852 -10.244267 -143.66687
3600000000 0.12061479 107.1937 3.2953007 -78.970879 4.0026655 -77.637131 -10.000344 87.206841
3700000000 -1.8473393 -127.91961 2.799432 -78.113441 2.8818223 -78.854736 -11.310848 -44.457867
3800000000 -3.4381402 -39.836021 2.888449 -88.217461 1.6596277 -83.394669 -13.272767 -135.98003
3900000000 -3.0132051 105.19904 2.1239741 -82.402267 2.5944135 -81.327888 -15.101518 94.303963
4000000000 -2.5202041 -135.55717 2.5343997 -87.164688 2.4934585 -88.492668 -13.055923 -66.237564
4100000000 -3.4684877 -51.833527 2.8267403 -92.972504 1.62263 -91.016228 -13.605248 -138.76265
4200000000 -6.7181153 80.424873 1.1691499 -92.294243 1.4713929 -92.871773 -21.164972 57.944035
4300000000 -5.1852207 -148.17061 1.9350181 -94.437553 1.7872398 -95.593857 -15.031703 -87.22139
4400000000 -7.2358952 -55.940166 1.6916702 -97.11953 0.89770508 -96.313103 -17.965292 -150.87012
4500000000 -8.4357538 81.163795 0.8678537 -96.826508 1.2881583 -96.050667 -23.626265 61.83054
4600000000 -6.7644343 -150.55894 1.4735007 -99.73632 1.4305494 -101.07197 -15.163664 -101.43411
4700000000 -7.7865791 -67.924461 1.3344849 -102.46481 0.92774642 -102.53488 -17.435061 -153.44115
4800000000 -9.3778572 71.343216 0.62668365 -104.04053 1.1150838 -103.13256 -24.120028 40.347931
4900000000 -8.8135376 -165.34464 1.0900922 -105.52674 0.99719286 -106.28275 -16.888287 -106.26338
5000000000 -9.4439173 -75.915016 0.89857191 -109.84469 0.64755017 -108.68011 -19.420233 -166.14114
5100000000 -11.687133 62.398129 0.56970018 -110.16045 0.86461991 -107.17217 -23.970488 49.346931
5200000000 -9.864501 -175.87181 0.68257749 -112.33752 0.65668499 -112.73096 -18.429947 -121.14379
5300000000 -10.374632 -88.262527 0.71474332 -115.33353 0.5290823 -114.67817 -19.759462 -163.43257
5400000000 -13.456623 58.745407 0.24007615 -115.49025 0.60405278 -113.9305 -28.829973 44.347988
5500000000 -10.516441 170.08623 0.69865155 -117.98579 0.60762906 -118.26068 -20.305996 -123.10092
5600000000 -12.235643 -87.821365 0.43590769 -120.14803 0.32472059 -119.73318 -22.177547 -167.98318
5700000000 -11.340392 33.84877 0.43648246 -124.59829 0.77969366 -122.22677 -23.9988 18.641005
5800000000 -13.085349 166.96532 0.29128316 -123.201 0.26990241 -123.22596 -22.03639 -139.50977
5900000000 -12.559595 -101.99135 0.26962489 -126.69162 0.24957068 -126.34719 -22.269724 -175.48032
6000000000 -15.482393 33.012722 0.007258526 -128.90294 0.31810641 -127.5265 -29.987123 11.029282
6100000000 -12.445345 157.23433 0.42288789 -128.9229 0.38904494 -129.30782 -22.777903 -134.10358
6200000000 -15.359929 -110.06305 0.007866797 -132.05109 0.0093937228 -131.95186 -22.729069 -175.78471
6300000000 -15.806314 31.872812 0.075292349 -134.51836 0.21738462 -133.26289 -30.651737 23.948282
6400000000 -13.97014 149.03111 0.12533541 -136.24466 0.10264742 -136.60283 -26.412779 -146.30783
6500000000 -15.8125 -121.40631 -0.082861021 -137.49063 -0.10978679 -137.66125 -24.771406 171.43056
6600000000 -20.025623 28.443192 -0.2493643 -139.64561 -0.16143827 -139.17226 -39.510887 102.07216
6700000000 -14.634398 144.74773 0.038375065 -141.50456 0.084295243 -141.91377 -25.060904 -146.20985
6800000000 -16.626064 -126.91684 -0.080000974 -142.9725 -0.045989789 -143.4234 -25.44652 -168.73547
6900000000 -19.752235 9.9750137 -0.28463811 -145.92375 -0.17689732 -145.97601 -42.788651 100.4602
7000000000 -17.189531 137.43477 -0.12184123 -147.88348 -0.060703717 -148.29831 -24.88571 177.44856
7100000000 -17.699034 -130.46571 -0.08705204 -148.93524 -0.062246386 -149.32832 -25.236731 179.50095
7200000000 -20.888287 10.64248 -0.30910009 -151.93948 -0.19958933 -151.65503 -48.145142 83.734589
7300000000 -16.308512 124.52233 -0.085027613 -154.4995 -0.0061323079 -154.72894 -24.030916 170.13779
7400000000 -18.66157 -134.774 -0.20922104 -155.47368 -0.12947182 -155.86296 -25.959436 155.24051
7500000000 -20.332752 -9.2508717 -0.24104893 -158.52359 -0.14212194 -157.90775 -36.235596 7.3907704
7600000000 -19.013332 116.51019 -0.35499111 -159.69281 -0.26708016 -160.09538 -26.320148 161.4769
7700000000 -18.489756 -147.32213 -0.20555979 -162.29231 -0.12457131 -162.75655 -25.044992 146.72566
7800000000 -21.561008 1.8698674 -0.24807537 -163.4666 -0.21841966 -163.18698 -33.099705 44.364132
7900000000 -17.874594 111.79713 -0.33452681 -166.01295 -0.25615495 -166.2648 -27.850317 160.40552
8000000000 -19.958765 -154.00148 -0.26677743 -168.80083 -0.20745249 -169.0876 -26.532913 140.79723
8100000000 -20.290659 -7.0871305 -0.21546359 -169.92149 -0.1734377 -169.57033 -30.297085 33.041126
8200000000 -19.900524 103.02321 -0.47023895 -171.95085 -0.37588656 -172.23628 -31.512163 136.03816
8300000000 -20.229738 -146.15611 -0.27011138 -174.38768 -0.18241361 -174.77318 -28.154259 139.67598
8400000000 -21.511599 -17.116747 -0.33515698 -176.24045 -0.27141264 -176.28029 -34.074612 25.818871
8500000000 -20.301184 93.210587 -0.43220738 -177.93417 -0.36395726 -178.33791 -32.305038 117.98645
8600000000 -22.613544 -157.90182 -0.42273158 179.6955 -0.36319414 179.31302 -31.027121 127.66135
8700000000 -21.968637 -16.269051 -0.36453572 177.66922 -0.30372593 177.65793 -34.312893 8.7149429
8800000000 -20.962742 84.395096 -0.45292768 175.96736 -0.37113559 175.76225 -33.973686 111.29779
8900000000 -23.829966 -161.85625 -0.49940589 173.64479 -0.4136585 173.32249 -32.040051 122.69205
9000000000 -21.632568 -26.29505 -0.41864473 171.33687 -0.34319198 171.0679 -35.389 -21.025885
9100000000 -21.467094 69.664391 -0.4677617 169.80229 -0.39816669 169.45815 -36.098965 110.32539
9200000000 -24.264158 -175.23344 -0.50983506 167.58945 -0.43666136 167.15878 -31.955746 119.60577
9300000000 -22.630426 -36.690502 -0.47119901 165.36986 -0.4205614 165.08897 -35.591614 -21.975271
9400000000 -21.237862 67.750908 -0.44329196 163.38326 -0.38359809 163.20526 -40.192772 104.11103
9500000000 -24.545475 175.76753 -0.51326752 161.35829 -0.44396073 161.03778 -33.333199 119.44469
9600000000 -22.165283 -43.465496 -0.53464061 159.24391 -0.45734707 158.94881 -37.630249 -45.020081
9700000000 -21.935129 48.628445 -0.50069302 156.90109 -0.4421877 156.71539 -37.771729 98.897667
9800000000 -26.216566 -169.18266 -0.55102718 155.64294 -0.46584308 155.25102 -36.233978 128.33917
9900000000 -21.176815 -47.970081 -0.50340509 153.53816 -0.4231022 153.06276 -35.948391 -51.479115
10000000000 -21.950638 46.282234 -0.49421927 150.78944 -0.4499523 150.49091 -38.823566 102.41262
10100000000 -24.06591 177.32507 -0.47343159 149.21344 -0.4152106 148.74991 -35.666615 117.94335
10200000000 -21.562674 -62.598881 -0.52611905 147.21664 -0.46890518 146.70708 -34.004036 -69.884758
10300000000 -25.286886 30.990147 -0.58732021 144.96991 -0.5501892 144.78333 -46.345947 97.694717
10400000000 -25.411386 -165.77374 -0.52704138 142.87408 -0.44758099 142.63022 -39.704098 113.52892
10500000000 -21.545588 -68.937355 -0.52828813 141.5864 -0.42312777 140.97359 -33.124344 -66.383377
10600000000 -25.342934 27.622637 -0.61925364 138.84834 -0.55602211 138.48022 -51.376701 -113.13481
10700000000 -25.268486 -175.60735 -0.5368371 136.71533 -0.45417136 136.26282 -41.109364 138.96642
10800000000 -21.818289 -77.121849 -0.52956563 135.41138 -0.45572641 134.6693 -32.322498 -74.448746
10900000000 -26.787464 -3.2235487 -0.59235007 132.73163 -0.56648409 132.5699 -38.66544 -97.136528
11000000000 -24.863731 -162.38405 -0.56159145 130.6042 -0.48194468 130.41953 -39.877895 -166.90089
11100000000 -20.380201 -88.396217 -0.51631778 128.83412 -0.41165093 128.27167 -30.963081 -91.639587
11200000000 -26.027143 -15.070477 -0.57050014 126.48537 -0.53937089 126.27908 -35.578362 -103.52594
11300000000 -27.957045 -174.77144 -0.66978019 124.44759 -0.58649176 124.19889 -35.076176 -153.36731
11400000000 -20.808758 -94.152817 -0.53212452 122.5733 -0.4570483 121.94452 -29.834316 -110.68221
11500000000 -24.859489 -30.48686 -0.47509339 120.35197 -0.50337481 120.1178 -32.68235 -113.19833
11600000000 -25.909376 -173.79207 -0.66166633 118.30691 -0.58452219 118.02451 -33.124245 -150.54936
11700000000 -19.431488 -104.1368 -0.49028605 116.11129 -0.42035604 115.47726 -27.534157 -122.9997
11800000000 -24.40399 -39.779312 -0.46239424 113.74344 -0.48764488 113.6292 -31.740763 -143.10234
11900000000 -27.447266 168.0798 -0.68118089 111.87637 -0.60436994 111.70058 -31.729858 -160.09445
12000000000 -20.701775 -112.18421 -0.56456333 109.89997 -0.49496913 109.35559 -26.783442 -132.39857
12100000000 -24.312775 -43.30127 -0.46248475 107.36232 -0.44071612 107.21487 -28.803236 -152.94443
12200000000 -25.604406 170.45674 -0.66299945 105.81821 -0.57926053 105.56306 -29.779749 -167.71417
12300000000 -19.906605 -125.41985 -0.59647399 104.01947 -0.49972352 103.18561 -26.469137 -143.63019
12400000000 -25.716806 -67.398582 -0.50844753 100.84303 -0.50553465 100.66809 -27.790892 -164.34198
12500000000 -26.228504 169.54692 -0.65518576 99.387856 -0.59087735 99.391701 -28.738264 -177.96304
12600000000 -20.0448 -131.28314 -0.63831139 97.464554 -0.53872335 96.911339 -26.194519 -153.44525
12700000000 -27.285942 -77.721802 -0.53252673 94.701965 -0.51910681 94.608452 -27.330833 -167.22873
12800000000 -25.50379 162.89742 -0.69220823 93.133888 -0.59848869 92.96228 -27.006819 -178.45857
12900000000 -20.512182 -147.3654 -0.69048345 91.492226 -0.5858404 90.808975 -25.303448 -167.13524
13000000000 -25.943331 -107.72061 -0.66167372 88.669739 -0.61443001 88.127876 -26.580343 -174.72169
13100000000 -25.219423 168.19698 -0.71026921 86.715294 -0.62851983 86.717773 -26.524029 176.83994
13200000000 -20.093172 -152.17407 -0.65703511 85.280594 -0.56770599 84.667976 -25.037266 -172.93877
13300000000 -24.547951 -117.6488 -0.63876969 82.185936 -0.63924885 81.801018 -25.920088 179.94724
13400000000 -26.064684 159.3741 -0.73077017 80.287636 -0.65723336 80.138023 -25.93647 175.34663
13500000000 -19.930761 -166.4225 -0.68180388 78.923553 -0.58974582 78.415733 -23.914219 -179.07034
13600000000 -23.783735 -134.17444 -0.71120614 76.428596 -0.66422743 75.818092 -24.32585 179.59883
13700000000 -24.881811 157.24069 -0.74473786 74.051949 -0.67670739 73.916084 -24.684517 167.81975
13800000000 -18.989298 -172.75775 -0.68689436 72.459877 -0.57722843 71.952667 -23.314791 173.71304
13900000000 -22.153399 -140.04063 -0.63729143 70.11499 -0.66734874 69.422417 -23.433146 175.14943
14000000000 -24.805416 161.97836 -0.80453849 67.837128 -0.76936108 67.79509 -23.675749 164.84883
14100000000 -18.918589 -176.52278 -0.69520867 66.32267 -0.59326082 65.931877 -22.134279 167.25926
14200000000 -22.002209 -151.45306 -0.635548 64.035278 -0.64212948 63.386131 -22.491148 166.04848
14300000000 -22.824295 154.48138 -0.82011861 61.703945 -0.75588346 61.55349 -22.991041 156.04333
14400000000 -17.969528 174.60037 -0.71557271 59.643459 -0.58346945 59.151691 -21.656254 160.08441
14500000000 -21.417471 -164.52289 -0.67054307 57.75349 -0.67831385 57.198441 -22.063286 156.64577
14600000000 -22.947968 148.61911 -0.79449314 55.500744 -0.78179586 55.391125 -22.537477 150.04715
14700000000 -18.88386 167.52676 -0.74751902 53.783646 -0.64142162 53.253681 -21.158401 153.96051
14800000000 -21.699236 -172.4964 -0.66107094 51.407444 -0.65243489 50.642323 -21.135553 149.54482
14900000000 -22.398294 145.35657 -0.83598959 49.093071 -0.79048556 49.09446 -22.006422 141.49229
15000000000 -18.40786 157.29567 -0.81824851 47.21278 -0.69638729 46.674427 -20.909986 143.97588
15100000000 -20.873459 170.10059 -0.73210895 44.763836 -0.73186779 44.320908 -20.904711 140.4315
15200000000 -22.002546 140.76086 -0.84707177 43.033852 -0.82826877 42.999386 -21.741564 135.01834
15300000000 -19.057322 148.14346 -0.87254101 41.20282 -0.77843821 40.670551 -20.766312 136.43233
15400000000 -21.268265 164.01598 -0.77704543 38.581379 -0.74249876 37.95491 -20.453276 134.35909
15500000000 -22.196609 135.31062 -0.85493547 36.694218 -0.85191172 36.667557 -21.445412 127.27334
15600000000 -18.567873 140.07445 -0.92505604 34.917645 -0.82025284 34.437477 -20.371407 128.07794
15700000000 -20.035543 151.44244 -0.84083545 32.455318 -0.82927555 31.946499 -20.557081 128.60689
15800000000 -21.499905 125.93597 -0.91415131 30.61105 -0.88334423 30.607922 -21.094042 122.1783
15900000000 -18.323055 130.83029 -0.9505046 29.179781 -0.85852748 28.606291 -19.91021 121.97784
16000000000 -20.762192 143.99471 -0.90365392 26.605465 -0.87335306 25.844564 -20.294748 122.34255
16100000000 -21.203775 116.37208 -0.91106373 24.6758 -0.87851727 24.425903 -20.802925 114.91226
16200000000 -17.897982 123.42481 -0.94380945 23.048731 -0.86592275 22.563522 -19.648985 115.73431
16300000000 -20.098364 136.09245 -0.90422851 20.746792 -0.89457452 20.089617 -20.238674 117.01387
16400000000 -20.269524 107.08363 -0.9065541 18.501581 -0.88182354 18.439644 -20.6187 108.71767
16500000000 -17.896158 117.18916 -0.94511217 17.20739 -0.86399686 16.79307 -19.225 111.3465
16600000000 -20.572466 127.5864 -0.91617638 14.726163 -0.88983035 13.982769 -19.853746 110.94627
16700000000 -20.543304 103.55343 -0.93365628 12.594898 -0.90319854 12.278018 -20.190218 102.33747
16800000000 -17.911762 111.41055 -0.93080652 11.040643 -0.85870737 10.521457 -19.297701 104.97208
16900000000 -19.975376 117.78521 -0.92092699 8.9515572 -0.89709425 8.2554007 -19.792057 105.64678
17000000000 -19.679592 95.901886 -0.90849566 6.5540771 -0.9002977 6.2723846 -19.892363 97.258858
17100000000 -18.185217 103.48637 -0.91168451 4.8357449 -0.86168516 4.3992591 -19.048962 99.113762
17200000000 -20.039505 109.20255 -0.90478742 2.6238344 -0.88495672 2.0637798 -19.628456 98.770752
17300000000 -20.244614 92.37661 -0.92979777 0.47357276 -0.91231358 0.14702025 -19.78924 91.970444
17400000000 -18.548761 97.13208 -0.91970354 -1.4286516 -0.85976261 -1.8552674 -19.035746 93.318047
17500000000 -20.065563 101.27477 -0.90826607 -3.3745224 -0.86328268 -3.9047685 -19.569769 93.570053
17600000000 -19.758739 84.624725 -0.90853065 -5.6036415 -0.8945477 -5.9797001 -19.724125 85.290352
17700000000 -18.356829 87.288986 -0.90755159 -7.6511941 -0.87502438 -8.0961218 -18.9951 86.299599
17800000000 -20.332975 94.681549 -0.88001323 -9.7650986 -0.84904659 -10.286439 -19.452768 86.485062
17900000000 -20.507751 76.579826 -0.89174026 -11.80552 -0.88178283 -12.155737 -20.001511 77.787506
18000000000 -18.893703 82.526939 -0.91754454 -14.027761 -0.88410062 -14.335113 -19.185667 80.328896
18100000000 -20.609571 87.778214 -0.88954169 -16.013065 -0.83123785 -16.375412 -19.570747 81.999794
18200000000 -20.404329 68.938377 -0.90403491 -17.939402 -0.87455386 -18.378637 -19.749033 72.032875
18300000000 -18.599033 74.388832 -0.91506094 -20.072826 -0.88311952 -20.479403 -19.030941 72.231331
18400000000 -21.202932 80.701004 -0.88173884 -22.219221 -0.82901639 -22.74485 -19.790438 73.14521
18500000000 -20.634792 60.151352 -0.86169153 -24.025499 -0.85908681 -24.532539 -19.987438 63.512924
18600000000 -19.184017 68.266762 -0.89621246 -26.384882 -0.88987762 -26.748831 -19.480288 67.305153
18700000000 -21.594538 73.280571 -0.8867653 -28.534008 -0.83794987 -28.836779 -20.345865 67.872025
18800000000 -20.560774 49.968906 -0.85587746 -30.543243 -0.83870941 -30.934385 -20.191931 58.586536
18900000000 -19.086493 60.064007 -0.88541895 -32.611523 -0.88890415 -32.90728 -19.381857 61.050343
19000000000 -21.444952 60.819351 -0.91263813 -34.759933 -0.86291224 -35.099728 -20.339502 58.850811
19100000000 -20.797194 45.533012 -0.84201938 -36.610928 -0.83712775 -37.161564 -20.436699 49.490776
19200000000 -19.722349 53.104069 -0.87994117 -38.874069 -0.89694923 -39.248745 -20.374737 54.900394
19300000000 -21.877335 54.431511 -0.92490333 -41.057446 -0.87306345 -41.387146 -21.008373 54.676907
19400000000 -21.353827 36.371731 -0.86664158 -43.228333 -0.83846956 -43.634644 -21.102171 47.064369
19500000000 -20.356447 43.041061 -0.88791376 -45.424366 -0.90376651 -45.59074 -20.659796 50.230976
19600000000 -21.9424 47.134762 -0.93235081 -47.426155 -0.88790244 -47.630665 -21.147964 47.045963
19700000000 -22.130835 32.000698 -0.89023566 -49.450562 -0.86213601 -49.889332 -21.553587 39.788086
19800000000 -20.985579 36.218491 -0.9111951 -51.78236 -0.91689789 -51.971001 -21.67086 42.026932
19900000000 -22.638985 41.218243 -0.95963174 -53.674698 -0.90299994 -53.893364 -22.170231 42.985714
20000000000 -23.293947 24.709265 -0.94702107 -55.760117 -0.89441711 -56.289684 -22.581587 37.576385
20100000000 -21.51771 24.776892 -0.91731173 -58.181896 -0.92872649 -58.273022 -22.047367 37.008945
20200000000 -23.488943 34.543037 -0.97249055 -60.079651 -0.91280895 -60.127254 -22.596746 37.185478
20300000000 -24.324371 12.501719 -0.95490897 -61.954613 -0.90485746 -62.441406 -23.344936 29.33766
20400000000 -22.033268 17.721985 -0.96204907 -64.417068 -0.95674509 -64.575226 -23.106436 29.226362
20500000000 -24.425966 26.942135 -1.0276356 -66.219894 -0.93664825 -66.361282 -23.985067 32.367954
20600000000 -25.166523 -0.95530665 -1.0045934 -68.151047 -0.907323 -68.802444 -24.375116 25.216446
20700000000 -22.798836 5.57373 -0.969971 -70.468826 -0.9732486 -70.854034 -23.855707 21.750689
20800000000 -26.577423 16.850592 -1.0143952 -72.50779 -0.94832438 -72.690063 -25.070091 24.253258
20900000000 -26.613903 -13.649484 -0.9989481 -74.13105 -0.93700707 -74.891144 -26.257288 15.768294
21000000000 -24.460932 -5.0205092 -1.0205438 -76.522301 -1.0197773 -77.015099 -26.215548 19.22493
21100000000 -27.931826 5.6456213 -1.0656538 -78.487259 -1.0034606 -78.765755 -27.34528 22.718075
21200000000 -27.82259 -31.058151 -1.0309283 -80.327484 -0.95638508 -81.059692 -28.053568 15.217286
21300000000 -26.070187 -18.154043 -1.0104165 -82.685387 -1.0215615 -83.069443 -27.526251 15.972671
21400000000 -30.18885 -16.513083 -1.0482956 -84.724976 -0.98475981 -84.903069 -28.495794 14.322003
21500000000 -29.233347 -46.404766 -1.0026113 -86.345596 -0.95385146 -87.234955 -30.253325 0.1010989
21600000000 -28.148493 -33.815685 -0.97675735 -88.533882 -1.0178334 -89.203751 -32.340485 2.6955807
21700000000 -32.692024 -18.398088 -1.0368247 -90.95034 -1.0054158 -91.248581 -32.156528 14.83567
21800000000 -31.531523 -70.779617 -1.0156721 -92.984131 -0.96325833 -93.624847 -35.567871 3.4815347
21900000000 -29.998341 -58.254002 -0.98380536 -95.174629 -1.0242683 -95.483093 -38.035839 2.6574509
22000000000 -35.819225 -46.666531 -1.0151553 -97.332458 -1.0062181 -97.362076 -35.949741 19.96892
22100000000 -31.988256 -99.283073 -1.0083106 -99.3741 -0.9631514 -99.981506 -44.634022 56.193996
22200000000 -30.114313 -73.705414 -0.98455566 -101.65015 -1.026098 -102.04832 -45.97155 46.115627
22300000000 -43.037636 -91.528717 -1.0710285 -103.57627 -1.0628875 -103.76331 -38.495613 50.930092
22400000000 -30.747797 -143.0865 -1.0836822 -105.79187 -1.0293865 -106.43019 -40.826199 112.32687
22500000000 -30.945038 -114.83686 -1.0358657 -108.01123 -1.066342 -108.16853 -49.584759 113.53301
22600000000 -34.352753 -156.72696 -1.1031154 -110.1075 -1.0813446 -109.84158 -39.471924 85.681992
22700000000 -28.14222 -155.9319 -1.1330216 -111.94978 -1.0572368 -112.36915 -34.451653 144.18365
22800000000 -30.507044 -132.84824 -1.0802234 -114.33495 -1.0819763 -114.50665 -37.577774 149.98366
22900000000 -30.90106 -179.67375 -1.1590322 -116.12518 -1.1395833 -116.04318 -34.363941 128.2439
23000000000 -26.347401 -176.88361 -1.1737617 -117.91428 -1.107147 -118.54339 -30.235167 150.16522
23100000000 -28.54648 -169.342 -1.1651369 -120.09938 -1.142635 -120.50765 -31.181084 153.09157
23200000000 -26.408304 167.9912 -1.1955376 -122.02785 -1.1423115 -122.00623 -29.254717 135.88837
23300000000 -24.361486 176.50528 -1.2419184 -123.83973 -1.1329359 -124.33256 -26.871666 143.46571
23400000000 -26.004892 171.74557 -1.1835959 -126.15092 -1.1752957 -126.53825 -27.76837 145.86426
23500000000 -24.37875 157.01991 -1.2272102 -128.03445 -1.1764355 -128.10973 -26.539696 136.99358
23600000000 -23.120155 158.83023 -1.2278713 -129.63387 -1.1550018 -130.27693 -24.420765 143.18388
23700000000 -23.788963 152.80945 -1.18349 -131.77779 -1.1804827 -132.51183 -24.491451 144.77695
23800000000 -22.46666 146.88467 -1.2238663 -133.69994 -1.1551856 -134.06058 -23.186853 133.71404
23900000000 -21.888924 147.73885 -1.196927 -135.59483 -1.124846 -136.37917 -21.878351 134.06345
24000000000 -21.950134 147.25856 -1.185033 -137.80719 -1.1873147 -138.57071 -22.405771 133.80489
24100000000 -21.248787 141.02281 -1.1980739 -140.10577 -1.17004 -140.27824 -21.994764 125.6898
24200000000 -20.685984 140.53096 -1.1912789 -141.79695 -1.1434207 -142.39612 -20.660061 127.99306
24300000000 -20.911177 133.55928 -1.1554633 -143.82686 -1.1678772 -144.59718 -20.967625 129.71933
24400000000 -20.185925 129.99142 -1.160409 -146.01437 -1.1654823 -146.48056 -20.382347 121.57252
24500000000 -19.851151 130.41087 -1.1479251 -147.80423 -1.1025399 -148.71945 -19.109608 122.73968
24600000000 -19.863087 128.89586 -1.1216087 -150.11893 -1.146915 -150.84041 -19.647635 122.12927
24700000000 -19.022541 125.22063 -1.1344941 -152.38316 -1.1558496 -152.63686 -19.263115 113.00965
24800000000 -18.915133 125.51989 -1.1255271 -154.40451 -1.0900015 -154.94403 -18.409967 115.15536
24900000000 -18.949692 119.00692 -1.0985926 -156.66867 -1.1407775 -157.09192 -18.941626 115.31096
25000000000 -18.434286 114.26022 -1.1314548 -158.75534 -1.1632973 -159.09248 -18.394293 108.39255
25100000000 -18.285393 113.94087 -1.1428941 -160.78088 -1.117781 -161.37215 -17.58713 110.82738
25200000000 -18.276289 109.25224 -1.1191301 -162.87361 -1.1535939 -163.41962 -17.986919 108.95488
25300000000 -17.485237 109.36117 -1.1561892 -165.15479 -1.1804705 -165.30237 -17.489786 101.36777
25400000000 -17.522366 108.58672 -1.158129 -167.24826 -1.1320645 -167.63776 -16.993628 103.18287
25500000000 -17.426682 102.95222 -1.137962 -169.36742 -1.1686337 -169.78844 -17.401875 100.30506
25600000000 -17.069857 100.008 -1.1855977 -171.4906 -1.2136549 -171.63956 -16.984037 95.598259
25700000000 -17.135523 96.661781 -1.2019989 -173.5766 -1.1942732 -173.87228 -16.538074 97.180099
25800000000 -16.80109 92.707993 -1.1922153 -175.5544 -1.2036053 -175.84055 -16.844551 93.959938
25900000000 -16.549349 93.600784 -1.2245452 -177.649 -1.2227479 -177.72012 -16.368393 89.667809
26000000000 -16.470966 90.491623 -1.2295108 -179.71483 -1.2053001 179.97287 -16.176153 90.731247
26100000000 -16.321346 87.657494 -1.2120572 178.25768 -1.2237192 177.87445 -16.382355 88.480347
26200000000 -16.216896 86.406296 -1.2378912 176.1447 -1.2574823 176.00111 -15.932711 85.050865
26300000000 -16.18248 81.953552 -1.240172 174.19516 -1.23383 173.93663 -15.684851 84.789505
26400000000 -15.895856 79.201889 -1.2403409 172.05168 -1.2374983 171.74593 -15.812359 83.100273
26500000000 -15.64766 78.302032 -1.2401206 169.98384 -1.2489088 169.92555 -15.459692 78.455368
26600000000 -15.534225 76.144676 -1.2641329 167.9017 -1.2545434 167.64777 -15.432013 78.68
26700000000 -15.443701 74.903564 -1.2699955 165.80461 -1.2704533 165.45085 -15.600539 76.521866
26800000000 -15.532924 71.995041 -1.272143 163.65897 -1.2886122 163.6342 -15.218616 74.093704
26900000000 -15.283937 68.36451 -1.2874498 161.75417 -1.2894715 161.53609 -14.970391 73.673798
27000000000 -15.29385 66.241173 -1.2918839 159.56699 -1.266235 159.31084 -14.98462 70.082588
27100000000 -15.005866 62.753674 -1.2953569 157.45114 -1.2852865 157.52022 -14.900719 67.499641
27200000000 -14.889322 61.18718 -1.3097152 155.41972 -1.3366091 155.32619 -15.164258 66.213791
27300000000 -14.906054 60.236691 -1.3191813 153.50613 -1.3129096 152.96095 -15.020386 63.646721
27400000000 -15.111517 56.695354 -1.30602 151.42062 -1.1850227 150.6291 -14.521815 67.927528
27500000000 -14.861474 53.912197 -1.3529545 149.27629 -1.2789888 148.59891 -14.662887 67.854637
27600000000 -15.020708 51.790504 -1.3790039 147.08865 -1.2999316 146.8981 -15.196445 56.708958
27700000000 -14.936418 48.559628 -1.3703775 145.00137 -1.3256376 145.02806 -13.983701 54.426083
27800000000 -14.791977 45.686272 -1.3800875 143.05798 -1.4003359 142.94293 -14.470291 59.529163
27900000000 -14.940728 44.630394 -1.4324232 141.09215 -1.4056177 140.68042 -15.514722 51.091846
28000000000 -15.03423 40.345333 -1.4499779 138.91562 -1.3867534 138.81308 -13.967488 44.732082
28100000000 -14.992513 38.992645 -1.4418347 136.93474 -1.4392734 137.11877 -13.504643 56.530556
28200000000 -15.286297 38.675369 -1.5284274 135.30066 -1.4718753 134.41347 -18.893961 67.395462
28300000000 -15.491489 31.998367 -1.6947216 136.00333 -1.6478198 135.69724 -27.081234 -152.36565
28400000000 -15.078007 32.66238 -1.2573627 131.85942 -1.3835596 131.01529 -18.689821 46.435802
28500000000 -15.500394 29.880079 -1.4187163 129.42876 -1.3255857 128.94034 -14.897738 36.015324
28600000000 -15.366527 27.704149 -1.4177581 127.50887 -1.3861341 127.38131 -14.863234 40.058441
28700000000 -15.451458 26.065437 -1.4284164 125.56205 -1.4499004 125.35296 -14.96603 37.371395
28800000000 -15.664418 25.272491 -1.4257345 123.61372 -1.4035456 123.21926 -14.904325 38.523792
28900000000 -15.649977 22.382393 -1.4072177 121.56918 -1.3756893 121.19153 -15.332059 36.731472
29000000000 -15.500415 20.417709 -1.3802562 119.60333 -1.4055158 119.36705 -15.023344 33.297092
29100000000 -15.718845 16.686258 -1.3792224 117.36918 -1.3615865 117.09239 -14.897509 35.179283
29200000000 -15.453613 13.491398 -1.3502164 115.30457 -1.3357232 114.83354 -15.322371 31.242357
29300000000 -15.55039 13.065615 -1.3466763 113.03287 -1.3987899 112.89507 -14.922724 27.176701
29400000000 -15.977613 10.658956 -1.4033494 110.98748 -1.4307573 110.72756 -15.102766 27.483841
29500000000 -15.824674 8.929306 -1.3854537 108.93348 -1.3832585 108.67944 -15.884308 23.98225
29600000000 -15.957073 7.6784186 -1.3776743 106.83819 -1.4025187 106.98653 -15.597697 22.23546
29700000000 -16.060493 2.0131609 -1.4085522 104.54128 -1.400813 104.60078 -15.379549 24.779308
29800000000 -16.067619 -1.8897616 -1.4370574 102.48103 -1.3979169 102.36265 -15.879643 20.55636
29900000000 -16.553654 -3.2490647 -1.4240124 100.44977 -1.4441763 100.65197 -15.471052 15.371758
30000000000 -16.989807 -5.8568873 -1.4696507 98.585983 -1.4856113 98.728119 -15.823885 15.237823
30100000000 -17.022951 -4.1595354 -1.4779296 96.840805 -1.4701003 96.720711 -16.856133 10.524592
30200000000 -17.34762 -7.1257834 -1.4558717 94.746552 -1.4259443 95.043121 -16.800394 8.6296015
30300000000 -17.335495 -12.766611 -1.442749 92.747589 -1.4071958 92.94384 -17.095222 13.998816
30400000000 -17.53945 -14.24402 -1.4895056 90.736549 -1.4169856 90.615494 -17.65724 12.954369
30500000000 -18.425991 -17.849035 -1.4550108 88.428787 -1.4075409 88.618073 -17.113558 6.3010454
30600000000 -18.452358 -20.799997 -1.4830803 86.457413 -1.4302373 86.697876 -17.236322 8.8626089
30700000000 -18.814472 -17.313429 -1.5012034 84.668785 -1.4568013 84.501198 -18.490459 3.2344987
30800000000 -19.381504 -23.145914 -1.4976728 82.492981 -1.425131 82.454247 -18.126123 -2.8124754
30900000000 -18.970139 -29.460798 -1.5341995 80.655891 -1.4350989 80.682213 -18.746847 4.3451028
31000000000 -19.955769 -29.281958 -1.5124139 78.92746 -1.4486195 78.749268 -20.587326 1.2913293
31100000000 -20.958523 -37.669888 -1.5118346 77.023338 -1.4143993 76.699341 -19.789186 -2.4568241
31200000000 -20.996021 -32.458553 -1.4561757 75.123154 -1.375052 74.926483 -20.329201 5.8366275
31300000000 -23.109564 -21.647322 -1.4313484 73.219879 -1.3912399 72.649757 -22.498877 0.099244311
31400000000 -23.639339 -68.607124 -1.4936659 70.851196 -1.3994538 69.851494 -20.86433 -1.3390224
31500000000 -17.915686 -53.702793 -1.4674095 68.467514 -1.3094031 67.244774 -21.398174 13.710068
31600000000 -17.177851 -18.668417 -1.5011249 67.150047 -1.450045 66.727043 -24.819695 11.209069
31700000000 -28.341 -12.10518 -1.3919295 65.236557 -1.3655559 64.585388 -23.170931 -6.0634151
31800000000 -24.667341 -91.706429 -1.3727745 63.221306 -1.3792822 62.643223 -23.027805 11.211862
31900000000 -22.545824 -56.350769 -1.3927681 60.912994 -1.3083016 60.253189 -25.100071 14.790683
32000000000 -28.156754 -41.171211 -1.336346 58.947327 -1.3417324 57.944675 -25.096594 1.9165821
32100000000 -26.319675 -85.642647 -1.340813 56.590954 -1.3366393 56.124176 -24.178078 16.863976
32200000000 -24.636971 -69.545052 -1.3332877 54.543335 -1.2855679 54.016533 -25.904318 20.665121
32300000000 -31.787325 -76.928413 -1.2452163 52.515663 -1.3068855 51.76371 -26.551256 10.68623
32400000000 -28.575628 -116.03088 -1.2831182 50.155411 -1.3164475 49.846161 -25.786457 22.304916
32500000000 -29.595093 -83.874054 -1.2562379 47.955616 -1.2614316 47.384914 -28.250942 35.124737
32600000000 -40.091312 -108.58386 -1.2448545 45.94434 -1.2850536 45.263954 -28.411125 28.699392
32700000000 -30.411701 -127.73862 -1.2782067 43.504192 -1.2833456 43.307842 -25.910391 40.348846
32800000000 -31.698114 -107.65622 -1.2637455 41.483829 -1.2387536 41.133545 -26.880739 51.652615
32900000000 -33.389572 174.04189 -1.2462848 39.242237 -1.2631704 38.89677 -27.65761 44.140228
33000000000 -28.453293 174.00984 -1.2307808 36.94252 -1.2924371 36.946632 -25.786413 48.302509
33100000000 -33.359146 160.08813 -1.2598735 34.803165 -1.2595475 34.488731 -26.473364 64.503723
33200000000 -29.238279 127.80654 -1.2466993 32.671177 -1.2797213 32.31884 -27.360769 69.096161
33300000000 -28.642071 151.37881 -1.2811588 30.255894 -1.2814959 30.240591 -24.458406 70.582573
33400000000 -30.509798 137.74847 -1.3277174 28.331959 -1.2777352 28.211197 -22.911446 76.805595
33500000000 -25.683159 125.7472 -1.3159748 26.115654 -1.2978904 25.842718 -23.661215 72.2435
33600000000 -23.843735 131.96582 -1.3290781 23.917116 -1.3058748 23.9112 -22.507244 66.732323
33700000000 -24.332321 119.83593 -1.3473275 21.711758 -1.3161401 21.601267 -22.44556 75.458305
33800000000 -22.006498 110.01009 -1.3625683 19.82955 -1.3667325 19.389708 -22.745174 77.939682
33900000000 -22.039228 117.25658 -1.400097 17.648254 -1.3767667 17.413282 -20.953588 76.946594
34000000000 -22.733072 104.48923 -1.4255236 15.616739 -1.3633428 15.445806 -20.055382 81.468468
34100000000 -20.596596 101.06715 -1.4232857 13.676007 -1.3803118 13.210966 -19.899019 77.412132
34200000000 -20.153465 105.94728 -1.4266697 11.427904 -1.396585 11.227987 -19.116617 71.940399
34300000000 -20.339426 97.84182 -1.4542873 9.3631144 -1.4043895 8.9682493 -19.051706 74.887352
34400000000 -18.718969 94.715881 -1.4549984 7.4365716 -1.4625907 6.892765 -19.098375 76.284615
34500000000 -18.679619 98.846184 -1.4977589 5.411293 -1.4969573 5.0172105 -18.172422 75.425743
34600000000 -18.782909 89.47467 -1.4948093 3.4784837 -1.4609922 2.9591839 -17.271725 76.23719
34700000000 -17.741619 84.89386 -1.4692653 1.5043033 -1.4613193 0.93347877 -16.955246 73.297928
34800000000 -17.712387 87.575111 -1.4813938 -0.82715732 -1.4840276 -1.2807754 -16.98164 68.634041
34900000000 -17.807014 82.116455 -1.5107261 -3.0127656 -1.4884999 -3.4576354 -16.450602 68.285255
35000000000 -16.803116 80.922844 -1.5254823 -4.8580399 -1.5383323 -5.4489565 -16.481565 68.801971
35100000000 -16.672211 82.514412 -1.5537231 -6.7956691 -1.5675397 -7.2083716 -16.343454 66.539284
35200000000 -16.801458 78.081833 -1.5451639 -8.8196039 -1.5422199 -9.3137321 -15.669341 65.560921
35300000000 -15.894532 73.030312 -1.5329503 -10.92201 -1.5533421 -11.522736 -15.421085 65.986328
35400000000 -15.779333 73.295135 -1.5572212 -12.936179 -1.5838423 -13.427563 -15.380334 62.279797
35500000000 -16.315054 69.449722 -1.5868459 -15.042042 -1.6058428 -15.461602 -15.012455 60.238445
35600000000 -15.880528 65.95034 -1.5751557 -16.879248 -1.5990733 -17.330215 -14.998268 61.860886
35700000000 -15.285076 68.631531 -1.5595312 -18.744005 -1.5871472 -19.120411 -14.943016 58.969887
35800000000 -15.644964 67.076469 -1.5603391 -20.931845 -1.5762423 -21.301056 -14.261756 57.55291
35900000000 -14.857385 60.806858 -1.5456927 -23.119375 -1.5688949 -23.594358 -14.275349 57.20734
36000000000 -14.574734 62.619469 -1.5357921 -25.109186 -1.5776185 -25.514572 -14.589595 54.72221
36100000000 -14.957748 59.936474 -1.5600903 -27.313457 -1.5885048 -27.645802 -14.057958 53.690495
36200000000 -14.381039 53.854107 -1.5721514 -29.48481 -1.6000037 -29.888666 -13.783864 55.225647
36300000000 -13.820467 55.58363 -1.5867742 -31.442036 -1.6154519 -31.724318 -14.028053 52.655983
36400000000 -14.231779 53.832401 -1.5999445 -33.395626 -1.6171201 -33.617882 -13.367156 49.774525
36500000000 -13.634196 47.46759 -1.5836207 -35.565975 -1.6078813 -35.878426 -13.078085 50.951038
36600000000 -13.185845 48.769817 -1.5663605 -37.705746 -1.5992479 -38.046738 -13.255026 47.600735
36700000000 -13.664372 46.184929 -1.5913265 -39.896912 -1.6258053 -40.119884 -12.735574 44.032856
36800000000 -13.067816 39.430248 -1.6413698 -42.171299 -1.6676389 -42.425144 -12.605809 46.618832
36900000000 -12.518631 40.572197 -1.6817117 -44.248508 -1.7123907 -44.41898 -12.800721 44.083424
37000000000 -13.049299 37.582977 -1.7208873 -46.075245 -1.7522426 -46.164955 -12.011977 39.55518
37100000000 -12.586628 30.293962 -1.7579466 -47.951534 -1.7872396 -47.995201 -12.004346 39.143154
37200000000 -12.488003 32.740131 -1.7520944 -49.79472 -1.788096 -49.890797 -12.589981 33.901196
37300000000 -13.516836 30.67485 -1.7481636 -51.578827 -1.7684517 -51.612659 -12.228202 30.717287
37400000000 -12.879363 24.860666 -1.7486556 -53.508465 -1.7713741 -53.532177 -12.456938 35.332127
37500000000 -12.201249 28.960323 -1.710168 -55.493103 -1.7464653 -55.552139 -12.890738 32.386185
37600000000 -12.796552 25.502823 -1.6950238 -57.857666 -1.7108687 -57.73843 -12.12773 29.730585
37700000000 -12.06448 18.02626 -1.7240295 -60.027023 -1.7547686 -59.711926 -11.939606 32.351131
37800000000 -12.017968 20.83411 -1.7682014 -62.007034 -1.786728 -61.793945 -12.444132 27.096153
37900000000 -13.17452 18.277365 -1.7714156 -64.070778 -1.7634475 -63.857483 -11.677254 22.090145
38000000000 -12.474316 11.695154 -1.8122982 -66.005676 -1.7942358 -65.695541 -11.878387 24.964476
38100000000 -12.187601 15.933679 -1.8307538 -67.689201 -1.8308798 -67.524185 -12.805306 21.224812
38200000000 -13.082319 12.171271 -1.8342631 -69.741684 -1.8033303 -69.629532 -11.947289 17.128216
38300000000 -12.243654 3.0916836 -1.8323435 -71.687813 -1.7984585 -71.343582 -11.918342 20.798666
38400000000 -12.189808 8.4567204 -1.8486557 -73.172012 -1.8172743 -72.977821 -13.045713 18.044493
38500000000 -13.502495 4.3873582 -1.8555723 -75.319717 -1.8001647 -75.290283 -12.211125 12.153248
38600000000 -12.780852 -1.877051 -1.8070321 -77.440666 -1.7497838 -77.088531 -12.158823 16.685719
38700000000 -12.564651 4.5608215 -1.7973729 -78.911751 -1.7559788 -78.882919 -13.029898 13.986998
38800000000 -13.849813 -0.19483298 -1.8268932 -80.982483 -1.7635268 -81.170334 -12.3009 7.6318645
38900000000 -12.618509 -8.1796026 -1.7805567 -83.147903 -1.7033668 -83.164276 -12.413514 12.840714
39000000000 -12.636651 -0.98999423 -1.7512271 -84.596603 -1.6987067 -84.866554 -13.598288 9.5909433
39100000000 -13.855876 -6.4559979 -1.7548901 -86.837219 -1.697822 -87.260605 -12.48527 6.8285408
39200000000 -12.7572 -14.625645 -1.7182391 -89.200653 -1.6672398 -89.326881 -12.343483 10.391911
39300000000 -12.678262 -9.0647087 -1.7075233 -91.007591 -1.6544927 -91.334793 -13.27281 5.6954064
39400000000 -14.073299 -16.284702 -1.6846328 -92.836182 -1.6785452 -93.427322 -12.465384 0.057595756
39500000000 -13.023115 -22.158798 -1.7260349 -95.190712 -1.6655387 -95.456108 -12.619246 3.3474014
39600000000 -13.287926 -14.548368 -1.6621987 -96.93103 -1.6315916 -97.451355 -13.799623 -2.1703188
39700000000 -14.362537 -20.246031 -1.6583853 -98.80381 -1.6490964 -99.565392 -13.160857 -5.2913833
39800000000 -13.268065 -26.849579 -1.6458274 -101.34299 -1.6161432 -101.578 -13.046216 1.3501453
39900000000 -13.287393 -21.590914 -1.6035511 -103.36658 -1.6108894 -103.62382 -13.76158 -3.580024
40000000000 -14.737236 -30.190687 -1.5774857 -105.26118 -1.6029713 -105.86326 -13.142237 -8.8657837
