!Keysight Technologies,N5224A,MY55441802,A.10.65.16
!Date: Wednesday, May 13, 2026 18:40:28
!Correction: S11(Full 2 Port(1,2)) 
!S21(Full 2 Port(1,2)) 
!S12(Full 2 Port(1,2)) 
!S22(Full 2 Port(1,2)) 
!S2P File: Measurements: S11, S21, S12, S22:
# Hz S  dB   R 50
1000000000 -4.8400083 -78.943222 -2.3967752 -7.683157 5.5452595 -2.2247665 -5.1290669 -50.691273
1100000000 -1.1330566 153.76068 -5.5637555 24.816271 0.15261661 -3.952601 -0.47096825 28.343813
1200000000 1.8786453 -0.08715716 -10.795883 -142.81589 -15.679207 -81.657455 -0.30930018 -26.450296
1300000000 3.1085153 -45.156532 2.1630137 -22.059832 8.5286827 -15.730238 -9.6308498 -52.291092
1400000000 0.59695745 160.12952 -4.3547034 43.515354 -0.5613851 2.8337364 -0.64459914 29.774168
1500000000 4.0126171 -3.4733887 -5.1699729 -167.93245 -9.9242744 -147.43311 0.37716043 -27.288723
1600000000 7.2765589 -27.50185 4.6200781 -18.658875 9.5276012 -12.353937 -8.4072161 11.607774
1700000000 3.2752049 159.81595 -1.4795077 62.084888 -1.2812077 15.600272 -0.27491358 27.349659
1800000000 7.9794497 -8.6998005 0.73890799 173.16887 -0.94280982 175.95285 2.9794865 -34.074497
1900000000 6.3666711 -32.031143 4.535924 -16.122782 7.7986259 -14.491852 -6.9756804 45.716022
2000000000 7.2597699 154.57095 3.8251736 65.174324 0.43478912 32.858818 2.1025605 15.207868
2100000000 17.910242 -0.32080445 13.675876 179.4713 13.180365 172.64357 11.58826 -20.66678
2200000000 6.6091685 -40.133415 4.6655693 -21.948484 7.2354212 -22.582922 -5.8428206 37.860924
2300000000 14.159965 115.95 13.525702 41.626175 8.6834784 25.168467 8.5037498 -17.126301
2400000000 18.388643 80.648232 15.424904 -99.354294 15.635593 -105.13618 10.939865 58.71859
2500000000 3.9312201 -62.237579 4.4372301 -41.460388 5.8931394 -42.976315 -8.6105862 1.8538595
2600000000 14.665407 1.013773 15.361996 -63.603897 11.366935 -68.264549 7.763083 -136.9644
2700000000 5.7608914 125.20396 6.0432658 -58.344616 7.0538492 -63.404457 -3.4351773 105.65409
2800000000 3.373003 -72.389595 4.6683369 -49.023815 5.8412647 -50.786873 -7.2845368 -15.715927
2900000000 3.4023483 -11.032666 6.6788316 -68.680466 4.6571779 -70.110863 -4.3605857 -139.20583
3000000000 3.6559541 115.15733 4.8666921 -68.928314 6.0077224 -70.525444 -5.2343254 89.11776
3100000000 -0.7793656 -95.377991 3.6466076 -60.40736 4.2506375 -62.67189 -8.6793699 -37.029343
3200000000 1.0245535 -18.072514 5.2026248 -75.385246 3.7286739 -72.51754 -6.3520732 -140.72261
3300000000 -0.33697578 106.16772 3.2465415 -75.176628 4.0798192 -74.11248 -9.1646986 82.681824
3400000000 -1.8926665 -101.12859 2.8976977 -66.101509 3.2220347 -66.863724 -10.546728 -32.246933
3500000000 -2.1090567 -36.755688 3.3063135 -84.425537 2.206023 -78.505974 -10.869823 -140.30862
3600000000 -0.5084703 108.72217 3.1900721 -78.229637 3.8584664 -76.857254 -9.9035873 89.675362
3700000000 -2.6500354 -125.93752 2.551049 -77.851006 2.6262121 -78.498947 -12.135576 -44.603718
3800000000 -4.0805731 -39.36935 2.7582471 -87.625648 1.5230856 -82.942802 -13.834985 -131.33072
3900000000 -3.8537867 106.9146 1.9951392 -81.887146 2.4142768 -80.735497 -15.127635 96.675285
4000000000 -3.1109266 -133.16483 2.366045 -86.941521 2.3228099 -88.054077 -13.91088 -67.027252
4100000000 -4.0916986 -50.905178 2.7038827 -92.264977 1.4912516 -90.391678 -14.243684 -134.21292
4200000000 -7.5554457 81.361641 1.0792316 -91.898056 1.3614264 -92.322067 -21.274176 61.132412
4300000000 -5.8489337 -144.80289 1.7897143 -94.037659 1.6474593 -95.129578 -16.095341 -89.688385
4400000000 -7.7217851 -55.913437 1.6136893 -96.673538 0.81351465 -95.974876 -18.915075 -147.48102
4500000000 -9.2210569 82.169838 0.79801095 -96.643433 1.1965615 -95.836754 -23.379297 62.141636
4600000000 -7.2952757 -147.53485 1.4004884 -99.437027 1.3550713 -100.7159 -15.779114 -103.59409
4700000000 -8.2207098 -67.871872 1.2776258 -102.16105 0.85094255 -102.25349 -18.191324 -151.31435
4800000000 -10.229828 71.451233 0.56278151 -104.02518 1.0343381 -102.98821 -23.643225 41.193523
4900000000 -9.5057402 -162.60666 1.0005646 -105.30884 0.91570663 -106.00644 -17.604584 -108.6952
5000000000 -9.869586 -76.280106 0.83569157 -109.61147 0.58176166 -108.48215 -20.262102 -164.79468
5100000000 -12.580918 62.756927 0.51673776 -110.13071 0.8088482 -107.10519 -23.182203 49.041225
5200000000 -10.484529 -173.1145 0.6244362 -112.04356 0.59995013 -112.48915 -19.250574 -123.12019
5300000000 -10.813326 -88.314705 0.67681491 -115.02872 0.47387907 -114.41619 -20.460449 -161.07129
5400000000 -14.409652 59.141941 0.21262728 -115.47537 0.56096232 -113.86507 -27.252155 45.900593
5500000000 -11.233798 173.36264 0.64298785 -117.76969 0.54481262 -118.01955 -21.333536 -125.8868
5600000000 -12.696392 -88.253334 0.3947522 -120.01207 0.27265432 -119.55093 -23.170525 -167.19498
5700000000 -12.347399 33.83102 0.35919416 -124.47875 0.71063185 -121.98874 -23.651623 20.343138
5800000000 -13.6443 170.3083 0.25828096 -123.08635 0.24490464 -123.13045 -22.944946 -143.62166
5900000000 -12.987121 -102.16902 0.22315963 -126.47863 0.19597568 -126.18456 -23.158464 -176.43222
6000000000 -16.717661 33.582615 -0.02789703 -128.70544 0.2810725 -127.3422 -28.717327 20.04351
6100000000 -13.209413 160.42055 0.37266999 -128.79759 0.32517171 -129.20149 -24.099098 -137.40584
6200000000 -15.673635 -110.66137 -0.0092941215 -132.02411 -0.01959672 -131.89752 -23.511759 -177.11801
6300000000 -17.017036 31.707142 0.036521334 -134.53522 0.17769055 -133.19397 -28.980659 28.664764
6400000000 -14.558258 152.98917 0.088900305 -136.09363 0.065864824 -136.44237 -28.101856 -150.40041
6500000000 -16.076885 -121.641 -0.1000309 -137.4718 -0.12930888 -137.62617 -25.670467 169.39568
6600000000 -21.992184 28.95179 -0.29004613 -139.56937 -0.1955429 -139.10445 -35.818855 83.87722
6700000000 -15.259481 149.01056 0.01038396 -141.41449 0.046289086 -141.87225 -27.101568 -151.87541
6800000000 -16.820333 -127.9444 -0.092242427 -142.95332 -0.070105784 -143.43864 -26.630592 -169.63086
6900000000 -21.311739 9.3984003 -0.3022829 -145.90759 -0.20242244 -145.94444 -37.943504 74.969185
7000000000 -17.806448 142.5901 -0.13115025 -147.87811 -0.077615097 -148.26085 -25.864807 168.15877
7100000000 -17.953585 -131.29491 -0.10761308 -148.95903 -0.090363562 -149.30794 -26.609924 177.19644
7200000000 -22.495089 10.569326 -0.3337132 -152.02238 -0.22330548 -151.72141 -40.595871 54.135551
7300000000 -16.915148 129.04503 -0.096000686 -154.41718 -0.018443083 -154.63065 -24.808672 161.4277
7400000000 -18.874552 -135.70505 -0.2295098 -155.4635 -0.15112038 -155.86342 -26.998657 148.96783
7500000000 -21.899261 -9.2683001 -0.26025099 -158.49783 -0.16499792 -157.93846 -33.461281 16.401747
7600000000 -19.565945 120.78812 -0.35306749 -159.71217 -0.27827561 -160.11316 -27.134796 151.95946
7700000000 -18.900806 -148.66991 -0.22241513 -162.30576 -0.15498318 -162.74651 -25.662201 141.09134
7800000000 -23.156626 4.6031709 -0.26195917 -163.57608 -0.23620662 -163.26521 -30.604404 40.293537
7900000000 -18.397074 115.93599 -0.34939715 -166.08018 -0.27292091 -166.26657 -28.784874 148.51456
8000000000 -20.307194 -155.2708 -0.2808224 -168.8119 -0.22148573 -169.04669 -27.089211 134.43481
8100000000 -21.748823 -4.6421385 -0.24333613 -169.93375 -0.19883877 -169.63225 -28.539934 34.032619
8200000000 -20.27276 107.84746 -0.47303507 -171.9985 -0.3843686 -172.30205 -31.655338 115.78036
8300000000 -20.683979 -148.58473 -0.27659377 -174.37862 -0.19745949 -174.78673 -28.665455 132.75337
8400000000 -23.021441 -12.798794 -0.34231186 -176.23697 -0.29000634 -176.29355 -31.264479 29.913794
8500000000 -20.694462 98.478554 -0.42900982 -178.06123 -0.36803406 -178.40045 -31.249807 97.293816
8600000000 -23.133154 -162.24535 -0.4292523 179.59171 -0.37517852 179.26295 -31.144526 113.82261
8700000000 -23.381657 -11.572546 -0.38079661 177.59747 -0.3213281 177.58334 -31.772583 17.308786
8800000000 -21.310431 88.990372 -0.4586986 175.85689 -0.37691531 175.66132 -32.105461 87.68335
8900000000 -24.226307 -165.25081 -0.49868786 173.5679 -0.41167715 173.24629 -31.733608 108.13465
9000000000 -22.869589 -21.29567 -0.41876104 171.31166 -0.35146767 171.02077 -32.91634 -1.8222564
9100000000 -21.73192 75.112206 -0.46103314 169.71902 -0.39639914 169.38223 -33.541931 81.655273
9200000000 -24.613995 -178.61429 -0.49883556 167.47523 -0.43161479 167.07286 -31.2883 104.64494
9300000000 -23.859495 -31.058273 -0.4644087 165.2605 -0.4200969 165.00392 -32.820583 -3.7654099
9400000000 -21.449345 71.963364 -0.44454172 163.23621 -0.38566974 163.10063 -35.307022 67.636375
9500000000 -25.075354 172.22675 -0.50937676 161.24043 -0.43815932 160.95956 -32.350163 101.84543
9600000000 -23.264738 -37.428192 -0.52847713 159.1488 -0.45248839 158.85353 -35.139549 -15.506971
9700000000 -22.091963 52.825592 -0.49864191 156.78737 -0.44101101 156.59973 -33.934887 67.906113
9800000000 -27.164045 -174.42175 -0.54533863 155.54163 -0.46339068 155.14833 -35.215 100.70335
9900000000 -22.22064 -41.256496 -0.49642363 153.43456 -0.42606586 152.94899 -34.364277 -22.611599
10000000000 -21.966883 50.784157 -0.48167503 150.68567 -0.44416213 150.40796 -34.464218 67.152084
10100000000 -25.139067 171.56688 -0.47531247 149.04561 -0.42095581 148.62877 -34.114586 90.605469
10200000000 -22.703747 -56.101433 -0.52158433 147.05357 -0.46711081 146.59042 -33.966728 -41.787926
10300000000 -24.821297 37.056881 -0.57910931 144.80191 -0.54304743 144.6394 -36.906757 50.595814
10400000000 -26.98884 -170.36089 -0.52413458 142.73303 -0.44481713 142.50432 -36.000237 78.202538
10500000000 -22.50181 -61.042206 -0.51588917 141.46719 -0.41963956 140.85516 -32.740292 -39.863384
10600000000 -24.663139 33.637959 -0.6044873 138.70279 -0.54644656 138.34625 -40.165504 20.934965
10700000000 -26.768415 178.56035 -0.52150148 136.5703 -0.4458552 136.13647 -37.951023 81.83831
10800000000 -22.865089 -68.641815 -0.51875544 135.25563 -0.45240262 134.55121 -32.445854 -46.138344
10900000000 -26.174324 6.7665944 -0.57882452 132.52774 -0.55815637 132.40797 -39.123432 -28.257105
11000000000 -26.879404 -164.31796 -0.55094457 130.43272 -0.47388959 130.29703 -47.437954 92.580193
11100000000 -21.39958 -80.35733 -0.50943619 128.72252 -0.40688011 128.17683 -32.482693 -64.551903
11200000000 -25.244589 -4.2573009 -0.55483794 126.30577 -0.52526641 126.11678 -37.436916 -49.211666
11300000000 -30.63965 -179.88542 -0.64922833 124.30695 -0.56980777 124.0603 -46.217812 -172.37381
11400000000 -21.928091 -84.908646 -0.51951724 122.43594 -0.45336312 121.82565 -32.705837 -87.93956
11500000000 -24.491087 -20.357 -0.46316135 120.18051 -0.49878332 119.97229 -36.15239 -73.119865
11600000000 -28.452709 -175.30692 -0.64028537 118.11628 -0.56941175 117.87134 -42.351475 -148.84396
11700000000 -20.39031 -95.293861 -0.47314304 115.94417 -0.40360907 115.3762 -30.15004 -108.76555
11800000000 -23.796991 -27.402187 -0.44504634 113.57257 -0.4674927 113.51289 -39.30772 -116.51108
11900000000 -30.701561 160.04417 -0.66755784 111.68191 -0.58930004 111.51794 -39.863586 -165.69473
12000000000 -21.939049 -101.78079 -0.54425734 109.75303 -0.47731322 109.23387 -29.778271 -119.4146
12100000000 -23.623825 -32.425823 -0.45213425 107.22617 -0.43071339 107.08069 -34.393768 -143.54912
12200000000 -28.779352 168.3192 -0.6402576 105.63165 -0.56400037 105.39317 -35.915161 -177.58781
12300000000 -21.210957 -116.14713 -0.57345039 103.811 -0.48141354 103.03995 -29.87286 -133.36763
12400000000 -25.292692 -50.770817 -0.48483238 100.66302 -0.48643652 100.55656 -33.006462 -162.09476
12500000000 -29.758366 167.06328 -0.63448167 99.160645 -0.57128793 99.202621 -34.17873 168.66541
12600000000 -21.43997 -121.00854 -0.61851364 97.268639 -0.5203054 96.752632 -30.12743 -145.4536
12700000000 -26.648296 -57.339283 -0.51409543 94.515991 -0.50239265 94.46508 -32.541451 -163.80504
12800000000 -29.110682 160.61095 -0.669249 92.953804 -0.5784511 92.765984 -31.651205 174.47523
12900000000 -22.247934 -137.40318 -0.66087002 91.277512 -0.56172651 90.607147 -29.045994 -164.74226
13000000000 -26.473867 -86.439171 -0.63237774 88.456535 -0.58966362 87.957588 -31.457228 -174.13972
13100000000 -28.925999 169.69954 -0.68265587 86.468285 -0.60325235 86.517014 -31.345127 170.02852
13200000000 -21.815838 -141.52023 -0.63228256 85.042641 -0.5430699 84.477287 -28.957355 -170.63152
13300000000 -25.34775 -97.587128 -0.61223918 81.944672 -0.61006331 81.622391 -30.727188 -179.00323
13400000000 -30.582176 160.86758 -0.70469624 80.079414 -0.6307435 79.940201 -30.752153 171.65184
13500000000 -22.007212 -157.20102 -0.65532839 78.712387 -0.56507343 78.203705 -27.472441 -177.27907
13600000000 -25.000822 -114.72044 -0.68084824 76.179024 -0.6367439 75.60701 -28.28557 -177.1512
13700000000 -28.943012 160.6254 -0.70927358 73.829056 -0.64597237 73.709961 -28.945505 162.50464
13800000000 -20.957172 -163.61475 -0.65853387 72.235916 -0.5515157 71.76358 -26.847561 174.29698
13900000000 -23.325678 -123.77433 -0.60630184 69.834923 -0.63793635 69.231415 -27.085386 179.1564
14000000000 -28.936245 171.83492 -0.77315295 67.580208 -0.73816186 67.57711 -27.561047 163.24785
14100000000 -20.884766 -166.80681 -0.67348707 66.078423 -0.57313567 65.701126 -25.315123 168.05649
14200000000 -23.483177 -136.18498 -0.60811263 63.810593 -0.61467779 63.212868 -25.944105 168.03233
14300000000 -26.134775 160.60027 -0.78496093 61.473526 -0.72141588 61.32325 -26.780638 152.99857
14400000000 -19.877598 -177.56522 -0.6761772 59.496925 -0.54943484 59.016434 -24.752653 159.94058
14500000000 -23.457041 -149.59268 -0.62703896 57.462875 -0.63290125 56.952629 -25.679327 156.44234
14600000000 -26.630001 152.91544 -0.75193977 55.190342 -0.7389133 55.106384 -26.305403 147.1008
14700000000 -21.252031 175.90895 -0.70223099 53.452248 -0.60094887 52.951969 -24.232882 154.41882
14800000000 -23.953169 -156.48784 -0.63159639 51.082863 -0.62357426 50.394928 -24.34444 150.20859
14900000000 -26.121469 151.00528 -0.80148846 48.742069 -0.7535634 48.776955 -25.5149 138.83862
15000000000 -20.775337 164.22162 -0.78236258 46.893856 -0.66346025 46.371101 -23.879011 142.92236
15100000000 -23.398268 -177.32739 -0.70541191 44.446754 -0.69866973 44.05957 -24.033182 139.20267
15200000000 -25.560471 146.5556 -0.81227738 42.710838 -0.79227334 42.707882 -25.213236 130.93225
15300000000 -21.655636 154.36275 -0.83245254 40.874374 -0.74274284 40.378262 -23.80353 134.68765
15400000000 -23.914251 176.71367 -0.74143165 38.276127 -0.70847583 37.709671 -23.497181 133.44099
15500000000 -25.977842 139.69841 -0.81806135 36.36277 -0.81149459 36.38847 -24.903471 123.05881
15600000000 -21.09807 145.12761 -0.88165021 34.587891 -0.77786291 34.140694 -23.320932 125.3204
15700000000 -22.825798 160.09941 -0.80108505 32.150269 -0.78512037 31.709003 -23.746557 128.00734
15800000000 -25.054743 127.75742 -0.87310588 30.317472 -0.83631992 30.324148 -24.478075 118.63891
15900000000 -21.031303 133.89323 -0.90170312 28.823002 -0.80948883 28.283287 -22.773359 120.22279
16000000000 -24.074078 152.98129 -0.85328174 26.271807 -0.81909114 25.580624 -23.428173 122.99706
16100000000 -24.7824 114.79399 -0.86067265 24.318232 -0.8244065 24.109716 -24.135786 111.74747
16200000000 -20.588541 126.01265 -0.89196044 22.665937 -0.81751597 22.21945 -22.411741 114.51005
16300000000 -23.294575 142.9118 -0.85653681 20.35145 -0.84306866 19.76897 -23.361601 117.86066
16400000000 -23.554867 104.58687 -0.86185092 18.129078 -0.82778329 18.097115 -23.927576 105.80792
16500000000 -20.605244 118.35163 -0.89641708 16.78355 -0.81400102 16.405716 -21.903822 111.23671
16600000000 -24.198065 132.44182 -0.8681919 14.334977 -0.83597124 13.660529 -22.845604 112.4337
16700000000 -23.855169 99.814507 -0.88074577 12.234432 -0.84303451 11.925635 -23.361519 99.847885
16800000000 -20.739195 112.22007 -0.87850666 10.620835 -0.80708277 10.114656 -22.056963 105.10685
16900000000 -23.566925 120.13185 -0.8673228 8.5157175 -0.84138161 7.8674979 -22.788126 107.84
17000000000 -22.791294 90.810432 -0.85429186 6.1140838 -0.84000993 5.8590884 -23.017084 96.21315
17100000000 -21.201054 102.76595 -0.8587358 4.3594894 -0.80853724 3.9644434 -21.782204 99.800018
17200000000 -23.839668 108.46275 -0.85542721 2.1638832 -0.82922506 1.6727767 -22.663395 101.36919
17300000000 -23.646172 86.132187 -0.87812656 0.027533108 -0.8521874 -0.28225636 -22.942854 92.446388
17400000000 -21.703901 95.20903 -0.86465424 -1.9011823 -0.80409408 -2.2973576 -21.810045 94.909897
17500000000 -24.081972 98.848991 -0.85575438 -3.8334808 -0.80961329 -4.3172574 -22.600574 97.453331
17600000000 -22.913151 76.97319 -0.85259765 -6.0824623 -0.83099937 -6.4322667 -22.935904 86.325325
17700000000 -21.426559 82.862114 -0.85024619 -8.1609688 -0.81909376 -8.5576973 -21.795301 88.557373
17800000000 -24.441589 89.949478 -0.82701868 -10.275826 -0.79287899 -10.71306 -22.433249 90.686623
17900000000 -23.869963 64.677055 -0.83821899 -12.295846 -0.81750059 -12.616036 -23.401453 79.361565
18000000000 -22.178041 77.080711 -0.86093563 -14.548595 -0.82484722 -14.820279 -22.081369 83.670807
18100000000 -25.089708 80.620018 -0.83476663 -16.504398 -0.77250904 -16.821136 -22.560535 88.368011
18200000000 -23.570341 55.412094 -0.84558123 -18.443676 -0.80830055 -18.868761 -22.964876 74.780785
18300000000 -21.609373 66.825539 -0.85293388 -20.625345 -0.81936002 -21.008366 -21.84654 75.447655
18400000000 -25.83584 70.271812 -0.8208409 -22.752829 -0.76691979 -23.225639 -22.880444 79.601707
18500000000 -23.544048 42.869156 -0.80173588 -24.576321 -0.79169732 -25.036261 -23.361906 66.495651
18600000000 -22.51944 57.905861 -0.83686322 -26.978371 -0.824799 -27.290741 -22.383471 72.435898
18700000000 -26.346157 57.811466 -0.83272517 -29.10375 -0.77763152 -29.342342 -23.592068 76.580643
18800000000 -23.181719 30.875381 -0.80068296 -31.140568 -0.77134627 -31.484573 -23.574652 63.590771
18900000000 -22.206844 46.898804 -0.82730067 -33.239182 -0.82316208 -33.504948 -22.169024 67.166649
19000000000 -25.556789 40.410393 -0.85272241 -35.378067 -0.79745078 -35.648247 -23.55007 67.337799
19100000000 -23.260698 23.849567 -0.77918351 -37.234066 -0.76580793 -37.746323 -23.95215 54.730892
19200000000 -22.933676 36.892933 -0.8233701 -39.53503 -0.83203411 -39.882912 -23.479546 63.747883
19300000000 -25.930624 30.150877 -0.86961192 -41.741108 -0.808272 -41.982544 -24.295073 66.746147
19400000000 -23.525587 11.446649 -0.81101722 -43.897575 -0.76905972 -44.22987 -24.622663 56.839596
19500000000 -23.291008 23.022581 -0.8350721 -46.132767 -0.83986533 -46.263721 -23.6868 61.809864
19600000000 -25.731104 19.819366 -0.87955379 -48.141991 -0.8256799 -48.277336 -24.401978 59.945301
19700000000 -24.325975 2.2502472 -0.83846849 -50.158928 -0.79641426 -50.540455 -25.202343 51.574177
19800000000 -23.868813 11.644361 -0.86385638 -52.508331 -0.85950077 -52.692383 -24.983973 55.941574
19900000000 -26.754427 7.7779121 -0.91542506 -54.395618 -0.84993231 -54.541706 -25.444569 60.260014
20000000000 -25.418566 -11.490752 -0.90241617 -56.442417 -0.8346284 -56.939232 -26.25499 55.278263
20100000000 -24.051796 -3.2282951 -0.87215757 -58.89278 -0.86971927 -58.959778 -25.314806 53.920082
20200000000 -27.204475 -3.703043 -0.92786264 -60.790588 -0.85457027 -60.782169 -25.804977 57.818153
20300000000 -25.279039 -27.552402 -0.90765643 -62.67379 -0.84160465 -63.129013 -27.394239 51.241123
20400000000 -24.159117 -12.685973 -0.91787255 -65.155304 -0.89789879 -65.314827 -26.662849 50.00536
20500000000 -27.723326 -17.911325 -0.98244208 -66.935875 -0.88045913 -67.074272 -27.105558 59.762085
20600000000 -24.865353 -42.449444 -0.95964032 -68.892242 -0.84746563 -69.53698 -28.152342 53.533798
20700000000 -23.855848 -28.63674 -0.92518896 -71.257233 -0.91730034 -71.645737 -27.503687 45.944366
20800000000 -28.197277 -40.582157 -0.97425485 -73.282722 -0.89588535 -73.437355 -28.432854 56.791935
20900000000 -24.761467 -57.645321 -0.95776355 -74.889977 -0.8840574 -75.61692 -30.853113 55.373814
21000000000 -24.546095 -45.163689 -0.98320085 -77.295685 -0.97000569 -77.800735 -29.703642 58.163872
21100000000 -27.543854 -56.833279 -1.0295415 -79.250572 -0.95625484 -79.52581 -29.810303 69.273216
21200000000 -24.15115 -72.200035 -0.99919701 -81.084053 -0.91075295 -81.800987 -31.178322 66.748825
21300000000 -24.548197 -62.338448 -0.98148555 -83.406448 -0.97984904 -83.802177 -30.402697 63.82505
21400000000 -26.412504 -78.299301 -1.0087881 -85.432175 -0.93549353 -85.59462 -30.546638 70.383514
21500000000 -24.136147 -84.731941 -0.96255386 -87.079697 -0.90232378 -87.955894 -33.397041 75.452423
21600000000 -24.569284 -78.690491 -0.94675249 -89.277443 -0.97538257 -89.975456 -33.020054 89.967659
21700000000 -27.1957 -90.07962 -0.99390757 -91.635986 -0.94900596 -91.918694 -30.084902 89.03392
21800000000 -24.234413 -99.657471 -0.96424812 -93.752747 -0.89443576 -94.379196 -30.759731 95.819443
21900000000 -24.074532 -93.132782 -0.94770777 -96.119087 -0.96840912 -96.412422 -31.252146 94.870918
22000000000 -25.68251 -102.94511 -1.0009553 -98.229477 -0.98075402 -98.238594 -30.416052 87.182144
22100000000 -23.28043 -113.40477 -0.99677551 -100.14894 -0.93592805 -100.73879 -29.838711 110.15228
22200000000 -23.371191 -104.28844 -0.97605503 -102.39207 -1.0022304 -102.80528 -30.011749 108.35334
22300000000 -25.769657 -122.47289 -1.0645171 -104.25106 -1.0417364 -104.45596 -28.873348 97.780869
22400000000 -22.946884 -133.04102 -1.0555778 -106.34666 -0.98272514 -106.9847 -27.651962 112.94595
22500000000 -23.105944 -124.16105 -1.0178468 -108.6394 -1.0307883 -108.82213 -29.223963 108.74449
22600000000 -24.2586 -138.20914 -1.0697792 -110.73975 -1.0269936 -110.49199 -27.14937 98.282593
22700000000 -21.973417 -141.18443 -1.1052654 -112.59126 -1.0088549 -113.01353 -26.385397 114.34337
22800000000 -23.030546 -132.15021 -1.0444213 -114.93867 -1.0245811 -115.15002 -27.576778 110.97975
22900000000 -23.782667 -150.79309 -1.1184893 -116.82856 -1.0808144 -116.80401 -26.151714 102.96328
23000000000 -21.667698 -153.91025 -1.1357079 -118.62531 -1.0509071 -119.30722 -25.550711 117.32433
23100000000 -22.465204 -150.11606 -1.140841 -120.79137 -1.0979482 -121.27064 -26.400703 117.37968
23200000000 -21.910286 -164.46309 -1.1727823 -122.69069 -1.1038423 -122.73361 -24.57238 110.75163
23300000000 -20.615911 -162.10527 -1.2094194 -124.48707 -1.0833998 -125.03754 -23.488882 117.44845
23400000000 -21.787893 -164.40669 -1.157217 -126.81301 -1.1276264 -127.27479 -24.372187 115.8101
23500000000 -21.277508 -175.59901 -1.2008673 -128.67365 -1.1352158 -128.85126 -23.318613 110.99007
23600000000 -20.4888 -176.32329 -1.1948529 -130.27016 -1.1092535 -131.00589 -22.343468 118.39942
23700000000 -21.186954 179.64993 -1.1506364 -132.40868 -1.133072 -133.25751 -22.662859 118.98538
23800000000 -20.391109 173.06439 -1.1916989 -134.31107 -1.1138889 -134.79015 -21.289331 111.7871
23900000000 -20.020023 173.43401 -1.1578385 -136.23178 -1.0799519 -137.08278 -20.476309 113.81381
24000000000 -20.083448 171.78889 -1.1530373 -138.42395 -1.1416931 -139.28024 -21.021046 112.35585
24100000000 -19.660158 165.47452 -1.1665657 -140.69225 -1.131833 -140.96938 -20.458021 105.3581
24200000000 -19.310368 164.45323 -1.154161 -142.39374 -1.0991837 -143.06824 -19.614004 109.03337
24300000000 -19.956808 158.46425 -1.1135935 -144.41867 -1.1166997 -145.27937 -20.141617 109.7021
24400000000 -19.324911 153.64038 -1.1199471 -146.61404 -1.1181719 -147.16498 -19.43272 102.84534
24500000000 -19.131941 154.15506 -1.0994254 -148.40105 -1.0506905 -149.37572 -18.486755 105.53512
24600000000 -19.188929 152.0406 -1.0762914 -150.73317 -1.0932426 -151.54115 -19.142485 103.82734
24700000000 -18.487505 146.9451 -1.0888885 -152.98009 -1.1088612 -153.3129 -18.596788 95.650833
24800000000 -18.473526 147.97049 -1.0784267 -155.01416 -1.038642 -155.58727 -18.039099 98.678329
24900000000 -18.830729 140.61249 -1.0529991 -157.27383 -1.0824764 -157.76112 -18.686943 97.903587
25000000000 -18.408234 135.62035 -1.084775 -159.35138 -1.1074876 -159.77083 -18.07169 91.774162
25100000000 -18.449266 135.79671 -1.0897831 -161.35054 -1.0588026 -162.02786 -17.538431 95.1894
25200000000 -18.60483 130.27057 -1.0654352 -163.46614 -1.0892129 -164.08322 -17.981806 92.913445
25300000000 -17.698524 129.10979 -1.1054357 -165.7215 -1.1202681 -165.95131 -17.353041 85.873756
25400000000 -17.88427 129.02205 -1.1020672 -167.81967 -1.0704172 -168.26549 -17.088722 88.176743
25500000000 -17.992039 122.33989 -1.0813304 -169.94463 -1.096766 -170.45082 -17.533678 84.855232
25600000000 -17.678059 118.70464 -1.1300112 -172.05351 -1.1473495 -172.31844 -17.038061 80.783752
25700000000 -17.984159 116.17661 -1.1405008 -174.14577 -1.1229233 -174.53603 -16.797899 82.838669
25800000000 -17.788179 110.37169 -1.1288242 -176.12419 -1.1269637 -176.51668 -17.104923 79.200523
25900000000 -17.343491 111.33875 -1.161032 -178.21059 -1.149173 -178.4126 -16.612419 75.568802
26000000000 -17.469368 108.48466 -1.1596577 179.71373 -1.1299866 179.29211 -16.58004 76.840416
26100000000 -17.422462 104.16896 -1.1418532 177.66978 -1.1410211 177.1636 -16.786825 74.338455
26200000000 -17.236746 102.82314 -1.1662105 175.59317 -1.1746368 175.27408 -16.336374 71.292679
26300000000 -17.495224 98.474464 -1.1647023 173.59494 -1.1548743 173.21758 -16.213387 71.532845
26400000000 -17.265684 94.375198 -1.1627638 171.44658 -1.1523355 171.02306 -16.381893 69.926003
26500000000 -16.90185 93.297485 -1.1620272 169.41531 -1.1643577 169.19989 -15.963557 65.210388
26600000000 -16.961742 91.270119 -1.182731 167.29256 -1.1725243 166.92093 -16.078209 65.64077
26700000000 -16.875273 88.844124 -1.1818542 165.16551 -1.1797637 164.68774 -16.301908 63.486801
26800000000 -16.988577 86.174835 -1.1854465 163.03932 -1.2008183 162.86504 -15.943754 61.554615
26900000000 -16.963303 81.923737 -1.1962134 161.07765 -1.2034621 160.78534 -15.766678 61.523659
27000000000 -17.039667 78.727165 -1.1979328 158.89209 -1.1751704 158.55914 -15.775246 58.055012
27100000000 -16.726652 75.25621 -1.2027028 156.81512 -1.1980249 156.7254 -15.729321 55.25565
27200000000 -16.70903 73.712448 -1.2204369 154.75502 -1.2506011 154.61566 -16.077852 54.017296
27300000000 -16.685087 72.132706 -1.2251657 152.82196 -1.2229737 152.23116 -15.926074 51.865837
27400000000 -16.997 69.083542 -1.2040129 150.74332 -1.0979459 149.77771 -15.524734 58.082981
27500000000 -16.836643 65.245842 -1.2556397 148.55536 -1.2055618 147.82675 -15.849858 57.377666
27600000000 -17.091217 62.516239 -1.2780893 146.35555 -1.2091886 146.0842 -16.368332 44.832729
27700000000 -16.996248 58.57922 -1.2675948 144.26247 -1.2253269 144.2267 -15.022831 43.648994
27800000000 -16.952967 55.043667 -1.2789649 142.29871 -1.3018956 142.18553 -15.830941 49.016247
27900000000 -17.161476 53.93327 -1.3271089 140.35521 -1.3068732 139.92543 -16.896925 38.807446
28000000000 -17.359591 48.91243 -1.3420079 138.17572 -1.2777019 137.97336 -15.115647 34.5835
28100000000 -17.411478 47.227993 -1.3389199 136.15952 -1.32259 136.28748 -14.975557 48.391121
28200000000 -17.937069 46.782997 -1.4197304 134.57047 -1.3671241 133.80998 -21.95212 53.605961
28300000000 -18.364666 39.059273 -1.5720528 135.07617 -1.5934368 134.87007 -25.032648 -110.90617
28400000000 -17.898186 40.993408 -1.1434841 131.164 -1.3044459 130.62225 -20.898102 25.004511
28500000000 -18.387611 38.067764 -1.2853526 128.61023 -1.2091612 128.14545 -16.453451 25.318005
28600000000 -18.146507 35.644585 -1.2749808 126.70207 -1.2462617 126.46178 -16.808483 30.441986
28700000000 -18.222132 34.657074 -1.277477 124.6627 -1.2962111 124.38152 -16.842218 27.581892
28800000000 -18.317707 32.95932 -1.2841465 122.55706 -1.263567 122.11415 -16.766726 30.522308
28900000000 -18.342741 28.672256 -1.2687712 120.50228 -1.2382036 120.02675 -17.35243 28.793482
29000000000 -18.077749 25.579336 -1.2423123 118.38686 -1.2716097 118.08338 -16.744133 25.228319
29100000000 -18.492949 19.148804 -1.2713925 116.07685 -1.2547238 115.80709 -16.58223 27.13134
29200000000 -18.197716 14.536393 -1.2581561 114.13977 -1.2463853 113.59064 -17.197382 21.022984
29300000000 -18.575027 14.016587 -1.2641854 111.93009 -1.3165127 111.72824 -16.748886 16.172842
29400000000 -19.233629 10.320588 -1.324122 109.96503 -1.3513366 109.68365 -17.172001 16.99139
29500000000 -19.165203 8.4195776 -1.3015038 108.05074 -1.3047297 107.71528 -18.436518 11.61171
29600000000 -19.651505 6.8402596 -1.3031042 106.11553 -1.3318534 106.1647 -18.214684 9.6582203
29700000000 -20.1933 -0.22036901 -1.2845082 104.11984 -1.2780067 104.14836 -18.566574 16.24168
29800000000 -20.06773 -1.4044737 -1.2375175 101.95245 -1.2058693 101.78995 -19.440998 15.025088
29900000000 -20.516569 -1.0191641 -1.1886435 99.50338 -1.22365 99.655571 -18.460543 11.708042
30000000000 -20.788504 -5.2929635 -1.2481405 97.253914 -1.2677863 97.365089 -18.509312 13.248888
30100000000 -20.556684 -3.4327784 -1.2765336 95.289696 -1.2783176 95.120399 -19.678862 7.3187041
30200000000 -20.909094 -8.8686781 -1.2932472 92.954666 -1.2688835 93.189667 -19.185066 4.1234813
30300000000 -20.85961 -19.957869 -1.3372805 91.014961 -1.2985866 91.171104 -19.61788 8.2609415
30400000000 -21.299255 -22.52149 -1.3969464 89.205704 -1.3239988 89.04335 -20.922785 6.606133
30500000000 -22.678278 -29.808729 -1.3645256 86.935226 -1.3237133 87.101883 -20.27116 -1.3727528
30600000000 -22.883904 -35.675354 -1.4019341 85.097191 -1.3432481 85.328239 -20.744953 3.7589209
30700000000 -23.882586 -29.231533 -1.4083673 83.406319 -1.3629206 83.193298 -22.889782 -2.9986165
30800000000 -24.868015 -39.091633 -1.3845783 81.269775 -1.3146625 81.188316 -22.384254 -9.7230911
30900000000 -23.599464 -46.540051 -1.4156762 79.293747 -1.3101475 79.273796 -23.258354 4.9120698
31000000000 -25.226974 -48.953621 -1.3971245 77.500015 -1.3283578 77.306839 -26.462053 2.2843258
31100000000 -26.07815 -67.970833 -1.4029026 75.561874 -1.3045332 75.215652 -25.047237 -3.1827404
31200000000 -26.65131 -60.108116 -1.3512875 73.632889 -1.2696493 73.406898 -25.683756 15.017918
31300000000 -33.965847 -48.162971 -1.3287184 71.755135 -1.2828095 71.146446 -30.284107 12.157585
31400000000 -24.686853 -119.66383 -1.3958366 69.390541 -1.3002734 68.392342 -26.896049 8.3185196
31500000000 -20.120205 -76.134491 -1.3766634 66.955185 -1.2362967 65.706261 -26.504351 40.985439
31600000000 -20.137442 -25.361486 -1.4240942 65.784943 -1.3796279 65.318504 -31.579168 67.109291
31700000000 -37.914574 145.35464 -1.2946708 63.821239 -1.274404 63.078758 -31.94895 14.310853
31800000000 -22.949966 -140.37837 -1.2801597 61.784275 -1.2911704 61.159496 -27.931746 48.353291
31900000000 -25.698156 -101.0796 -1.3010305 59.498146 -1.2153132 58.782932 -29.06485 70.783531
32000000000 -32.878712 -153.48947 -1.2381426 57.517372 -1.2442249 56.426476 -31.513988 57.879284
32100000000 -24.617304 -146.95328 -1.2390931 55.133602 -1.2380339 54.614182 -26.956097 63.805325
32200000000 -26.074894 -128.59485 -1.2377158 53.006958 -1.182628 52.441036 -27.327055 77.473915
32300000000 -26.793152 -171.06953 -1.1466576 50.960217 -1.2109802 50.149719 -29.108261 75.700645
32400000000 -22.991852 -168.59636 -1.1912665 48.567135 -1.2287884 48.194576 -26.243912 76.02076
32500000000 -26.073164 -163.75935 -1.1666826 46.332962 -1.1695613 45.697498 -25.636795 92.795563
32600000000 -25.451544 166.94406 -1.1609311 44.332813 -1.2036588 43.565189 -26.051611 89.138771
32700000000 -23.144625 -179.22409 -1.2051442 41.833572 -1.2089632 41.628654 -23.583172 82.906975
32800000000 -24.741207 -175.31216 -1.1877501 39.845455 -1.1596059 39.468079 -23.175182 90.195114
32900000000 -22.611578 158.21867 -1.1810124 37.584743 -1.1984195 37.190105 -23.615923 86.885567
33000000000 -20.843323 160.81691 -1.1707207 35.26852 -1.2352542 35.266483 -22.366934 82.229317
33100000000 -22.575563 153.82848 -1.203593 33.164352 -1.1964852 32.803596 -21.767427 90.483566
33200000000 -21.410593 140.65382 -1.1903049 31.051399 -1.2233515 30.605928 -21.860567 92.801865
33300000000 -20.889294 149.30095 -1.2339604 28.60771 -1.2323989 28.551104 -20.280235 87.969376
33400000000 -21.692909 143.89226 -1.289369 26.717585 -1.2242146 26.54558 -19.072199 88.111031
33500000000 -19.789965 135.30365 -1.2777597 24.505777 -1.252617 24.163851 -19.571207 85.002449
33600000000 -18.696634 137.17435 -1.3013064 22.295971 -1.2800666 22.255749 -18.870649 79.45314
33700000000 -19.17104 130.69424 -1.3200316 20.136564 -1.2839706 19.918795 -18.694298 82.921295
33800000000 -18.11017 121.66635 -1.3299369 18.311405 -1.3341923 17.752373 -18.795885 83.193901
33900000000 -17.953251 125.97335 -1.3777115 16.160379 -1.3537964 15.829719 -17.689571 81.16806
34000000000 -18.684355 118.83262 -1.4057258 14.15996 -1.3380287 13.881763 -17.038736 82.829247
34100000000 -17.526947 113.72423 -1.4027082 12.218822 -1.3539889 11.633266 -16.928169 79.012169
34200000000 -17.030983 115.96604 -1.4109881 10.017327 -1.3822844 9.7016115 -16.418755 74.066521
34300000000 -17.331043 111.04157 -1.4394847 7.9642849 -1.3889222 7.4826798 -16.399015 75.028656
34400000000 -16.353716 106.43992 -1.4388574 6.0903382 -1.447721 5.4010739 -16.438034 75.197052
34500000000 -16.154308 109.01998 -1.4850168 4.1439447 -1.4895768 3.6325383 -15.848431 73.680954
34600000000 -16.535101 102.32965 -1.4799496 2.2366674 -1.4512074 1.6096437 -15.219855 73.54274
34700000000 -15.907434 97.127357 -1.4458176 0.29892799 -1.444528 -0.40244672 -15.017461 70.720299
34800000000 -15.785936 98.823166 -1.4538774 -1.9845061 -1.4623996 -2.5275195 -15.138113 66.501099
34900000000 -16.024218 94.961716 -1.4746691 -4.1419358 -1.4606029 -4.6776175 -14.751507 65.803429
35000000000 -15.264892 92.79171 -1.4780272 -6.0375299 -1.5016433 -6.7269449 -14.874615 65.977005
35100000000 -15.08079 93.755371 -1.5110006 -7.9907804 -1.5350065 -8.4839573 -14.834366 64.232712
35200000000 -15.417707 90.089737 -1.5144284 -10.021976 -1.5218993 -10.592534 -14.264818 63.434673
35300000000 -14.807096 85.430878 -1.4909528 -11.983321 -1.5193578 -12.683869 -14.036716 63.731152
35400000000 -14.551311 85.830833 -1.4992175 -13.985473 -1.5346992 -14.556641 -14.002419 59.999844
35500000000 -15.050907 83.401474 -1.5164784 -16.167992 -1.5438428 -16.659142 -13.687736 57.863956
35600000000 -14.664856 79.004913 -1.4972264 -18.134581 -1.5286664 -18.668741 -13.653061 59.146774
35700000000 -13.9663 79.865479 -1.4903094 -20.086479 -1.5251079 -20.534409 -13.595613 55.996529
35800000000 -14.366166 78.259071 -1.5070859 -22.290075 -1.5319805 -22.727077 -12.989559 53.977749
35900000000 -13.932031 71.173004 -1.5006373 -24.479923 -1.5302552 -25.029392 -13.018346 53.095142
36000000000 -13.597011 71.826889 -1.4967206 -26.486021 -1.5464609 -26.965109 -13.315328 50.088928
36100000000 -14.078609 69.522591 -1.5368197 -28.650457 -1.5708915 -29.021593 -12.898111 48.493122
36200000000 -13.795953 62.668095 -1.559901 -30.75905 -1.5919286 -31.195637 -12.679534 49.066757
36300000000 -13.304047 63.417263 -1.5785643 -32.679482 -1.613151 -33.014374 -12.9091 45.597855
36400000000 -13.909844 62.524815 -1.6157097 -34.505219 -1.6383517 -34.798214 -12.427043 42.168701
36500000000 -13.653162 55.54612 -1.6118964 -36.362328 -1.6368325 -36.758923 -12.420939 42.617321
36600000000 -13.273477 57.655258 -1.5607131 -38.124729 -1.6011914 -38.589352 -12.82355 39.191345
36700000000 -13.894915 57.7187 -1.5237728 -40.148983 -1.5598426 -40.487392 -12.514266 36.960571
36800000000 -13.369124 51.01532 -1.5115421 -42.536118 -1.5406959 -42.906837 -12.477156 41.011593
36900000000 -12.51802 51.912231 -1.5102772 -44.89748 -1.5540872 -45.20697 -12.609471 39.404449
37000000000 -13.006928 49.739822 -1.5448308 -47.003021 -1.5863408 -47.199795 -11.662272 35.504791
37100000000 -12.698564 41.563141 -1.598415 -49.089256 -1.6361214 -49.27771 -11.587536 34.951229
37200000000 -12.460853 43.227036 -1.6058413 -50.983936 -1.648854 -51.216705 -12.097687 29.16917
37300000000 -13.53316 43.07552 -1.5952584 -52.831543 -1.6289352 -52.963512 -11.715722 25.870197
37400000000 -12.989185 35.702564 -1.6058095 -54.966099 -1.6379991 -55.069553 -11.918461 30.10434
37500000000 -12.063745 38.386127 -1.6033522 -57.01474 -1.6545973 -57.188107 -12.284715 25.574677
37600000000 -12.851917 35.029808 -1.6202639 -59.197071 -1.6501513 -59.169525 -11.687812 22.391874
37700000000 -12.398311 26.303959 -1.6351511 -61.184315 -1.6780453 -60.982265 -11.758223 25.187801
37800000000 -12.193679 29.491035 -1.6636288 -63.142258 -1.7040776 -63.03693 -12.29877 19.786205
37900000000 -13.500288 28.326929 -1.6655319 -65.166443 -1.6767632 -65.066093 -11.532807 15.399
38000000000 -12.993623 20.743326 -1.6941149 -67.08239 -1.6936727 -66.854988 -11.880331 18.372072
38100000000 -12.489407 25.016378 -1.7062482 -68.828163 -1.7259684 -68.735725 -12.797091 13.872634
38200000000 -13.562993 22.56879 -1.6979363 -70.848946 -1.6910208 -70.770012 -11.960794 10.656772
38300000000 -12.911248 11.510468 -1.6835762 -72.898727 -1.6632402 -72.593307 -12.008336 14.803937
38400000000 -12.636367 17.096788 -1.6992892 -74.484383 -1.6854686 -74.320877 -13.123226 11.070642
38500000000 -14.179431 14.689879 -1.7055264 -76.648544 -1.6682329 -76.660286 -12.218272 5.554728
38600000000 -13.60395 6.5015192 -1.6626087 -78.806633 -1.6177665 -78.534698 -12.253762 9.7015648
38700000000 -13.130969 13.107641 -1.6572275 -80.343735 -1.6294516 -80.36438 -13.168674 6.0107851
38800000000 -14.644152 9.909977 -1.6883141 -82.415901 -1.6417309 -82.668076 -12.394547 0.059190333
38900000000 -13.540936 -0.86901581 -1.6453615 -84.607414 -1.577167 -84.658913 -12.672856 4.9340777
39000000000 -13.352955 7.2282767 -1.620254 -86.068939 -1.5768515 -86.396713 -13.956623 0.093400635
39100000000 -14.832174 2.8450503 -1.6208217 -88.301224 -1.5806103 -88.797218 -12.880914 -1.8661902
39200000000 -13.902803 -7.6957307 -1.5837955 -90.681084 -1.5440272 -90.854591 -12.930549 1.9468596
39300000000 -13.646359 -1.6085117 -1.5742517 -92.535484 -1.5309793 -92.889832 -13.873996 -3.8097136
39400000000 -15.474166 -7.4450326 -1.5495191 -94.324501 -1.5614886 -94.977119 -12.998713 -8.9887285
39500000000 -14.408586 -15.609732 -1.5889442 -96.678322 -1.5405446 -97.013809 -13.369481 -5.5477118
39600000000 -14.529613 -6.535583 -1.5277925 -98.431084 -1.5097804 -98.991035 -14.611032 -12.822542
39700000000 -15.913037 -11.036359 -1.512585 -100.30293 -1.5273596 -101.14593 -13.979776 -15.01609
39800000000 -14.82533 -19.907637 -1.4995532 -102.91956 -1.4857814 -103.22439 -14.086447 -7.3060956
39900000000 -14.61714 -13.879683 -1.4604948 -104.94785 -1.4805766 -105.27907 -14.832452 -13.63338
40000000000 -16.640839 -21.566092 -1.4344665 -106.8572 -1.4825685 -107.51427 -14.158092 -18.388954
