!Keysight Technologies,N5224A,MY55441802,A.10.65.16
!Date: Wednesday, May 13, 2026 18:42:49
!Correction: S11(Full 2 Port(1,2)) 
!S21(Full 2 Port(1,2)) 
!S12(Full 2 Port(1,2)) 
!S22(Full 2 Port(1,2)) 
!S2P File: Measurements: S11, S21, S12, S22:
# Hz S  dB   R 50
1000000000 -6.0036182 -80.312637 -1.8600528 -4.8392563 5.4623122 1.7217814 -4.1348209 -42.635639
1100000000 -1.4602215 154.23587 -4.7521086 21.417694 0.28087696 -7.2697682 0.2087561 23.098612
1200000000 1.9420217 -0.57229751 -9.9898806 -143.84541 -15.747098 -82.818237 -0.15599626 -26.785353
1300000000 2.2654338 -40.757786 2.3610153 -20.41717 8.2550707 -14.186196 -9.2696171 -50.46833
1400000000 0.30062345 159.54286 -3.5787311 39.684765 -0.34448001 -0.15874827 -0.10068139 24.410883
1500000000 4.0850587 -4.1346455 -4.5977631 -169.34781 -9.7475863 -150.24196 0.62557787 -27.614477
1600000000 6.8693538 -24.1157 4.6571426 -19.542999 9.2716675 -12.767028 -9.113472 4.1827855
1700000000 3.1126413 156.77022 -0.4185344 57.38958 -0.71536028 12.791514 0.49327686 21.819956
1800000000 8.2901793 -10.141836 1.585555 170.77672 -0.29690573 172.28671 3.5588043 -34.914604
1900000000 5.6998634 -29.618744 4.4460859 -18.375511 7.4417324 -16.097095 -8.4291706 40.067909
2000000000 7.3235817 148.3904 4.9942513 57.916698 1.4251382 28.122557 2.9432313 8.4689369
2100000000 19.293749 -1.3734121 15.424711 177.59648 14.827022 170.2856 13.186401 -21.363977
2200000000 5.8629193 -38.569336 4.5300808 -24.483767 6.8630872 -24.612265 -7.2304339 31.668446
2300000000 13.52344 103.04789 13.60146 28.232431 8.8621969 12.629461 8.3248663 -29.191938
2400000000 17.509735 96.061401 15.037121 -84.911667 15.16269 -91.097816 10.208985 74.413048
2500000000 3.2622447 -60.39394 4.2864585 -42.906872 5.6231551 -44.007946 -9.9427834 -6.6982155
2600000000 11.330169 6.3192029 12.972262 -58.849674 9.1126328 -63.080963 4.7311406 -129.85904
2700000000 4.9941134 127.34641 5.704689 -57.260509 6.6682758 -62.453415 -4.0639482 107.27769
2800000000 2.6753256 -70.427788 4.5076947 -49.894032 5.5985589 -51.219753 -8.0699577 -23.261721
2900000000 2.0319831 -8.3874483 6.128077 -66.683044 4.1619267 -68.189957 -5.3569841 -134.31267
3000000000 3.2092376 116.1264 4.7278476 -68.639549 5.8302693 -70.334534 -5.4368157 89.275658
3100000000 -1.491871 -93.245239 3.4951065 -60.288101 4.0554867 -62.27158 -9.1420822 -41.924526
3200000000 -0.22913365 -15.671848 4.7999239 -73.883766 3.3568997 -71.237007 -6.9798141 -136.26819
3300000000 -0.67789084 107.80209 3.2024183 -74.78273 4.0217028 -73.716019 -9.1331282 84.129074
3400000000 -2.55197 -100.16913 2.7415767 -66.085754 3.0469868 -66.674278 -11.070642 -36.123077
3500000000 -3.0247669 -34.748871 3.154609 -83.371605 2.0622106 -77.647148 -10.7995 -135.0517
3600000000 -0.89798528 111.19369 3.104862 -77.440208 3.7621605 -76.054688 -10.048586 92.828201
3700000000 -3.3051636 -125.55533 2.3710225 -77.78743 2.4430604 -78.262306 -12.776006 -48.134113
3800000000 -5.158915 -37.829666 2.6197896 -86.743713 1.3866081 -82.271255 -13.507125 -124.55772
3900000000 -4.1660137 109.47285 1.9139792 -81.361023 2.3317761 -80.153175 -15.472683 100.9479
4000000000 -3.7967401 -132.63315 2.1604459 -86.889091 2.108691 -87.861626 -14.868429 -71.507629
4100000000 -4.9505773 -50.187611 2.6167433 -91.550476 1.3896887 -89.849663 -13.926767 -128.47171
4200000000 -8.0582581 84.571465 1.012719 -91.284782 1.2952573 -91.642868 -22.331806 67.253448
4300000000 -6.3156877 -143.60818 1.7008383 -93.884766 1.5648946 -94.917442 -16.488365 -96.421005
4400000000 -8.6253271 -55.382072 1.5579376 -96.090813 0.74874282 -95.482033 -18.516083 -139.64708
4500000000 -9.7393503 85.507217 0.70482397 -96.27066 1.1088891 -95.422897 -25.236507 64.271988
4600000000 -7.8890252 -146.5686 1.3118806 -99.235619 1.2711397 -100.4511 -15.865063 -109.22264
4700000000 -9.0187044 -66.626091 1.2384149 -101.57487 0.7945264 -101.70802 -17.728241 -145.59242
4800000000 -10.452916 74.419205 0.52185667 -103.75675 1.0028807 -102.69628 -24.765726 39.265675
4900000000 -9.9788027 -161.82552 0.96311927 -105.06995 0.88267142 -105.75512 -17.461388 -113.87545
5000000000 -10.769647 -75.081642 0.79956549 -109.07958 0.53137809 -107.98783 -19.661081 -157.72446
5100000000 -12.874976 65.932205 0.46270695 -109.97003 0.76212561 -106.91624 -24.558504 45.147106
5200000000 -10.970467 -172.34354 0.58975512 -111.69949 0.5677613 -112.12654 -18.945662 -126.06422
5300000000 -11.590132 -86.703285 0.65706497 -114.6414 0.44284609 -113.9987 -19.596188 -156.26587
5400000000 -14.442034 61.97308 0.18987179 -115.31036 0.5438205 -113.70236 -28.953854 41.419254
5500000000 -11.872206 173.71353 0.59564441 -117.43901 0.50392884 -117.68504 -20.943193 -130.19113
5600000000 -13.624579 -86.58419 0.37467349 -119.70509 0.24056351 -119.23862 -22.03438 -160.0773
5700000000 -12.622531 36.437767 0.3273336 -124.1887 0.68721628 -121.70276 -24.412958 15.610346
5800000000 -14.255797 170.21417 0.22439781 -122.85149 0.2109178 -122.89565 -22.340166 -145.1841
5900000000 -13.905289 -100.8884 0.21029837 -126.23926 0.17442673 -125.89243 -22.094667 -167.64543
6000000000 -16.776272 37.152325 -0.034771435 -128.41435 0.27600577 -127.0603 -30.015654 13.648446
6100000000 -13.832376 160.60211 0.33176431 -128.52119 0.28372586 -128.92821 -23.589653 -138.6416
6200000000 -16.683548 -109.3302 -0.01456221 -131.82257 -0.032949917 -131.63737 -22.543221 -168.63828
6300000000 -17.196587 35.758736 0.019545585 -134.16609 0.16612661 -132.81706 -30.586054 24.258249
6400000000 -15.23539 153.33191 0.067857236 -135.79961 0.046236847 -136.16466 -27.220785 -150.43657
6500000000 -17.135748 -120.2879 -0.1034304 -137.31531 -0.13451304 -137.42191 -24.542459 -176.94005
6600000000 -21.870478 32.030636 -0.30185655 -139.32457 -0.20719084 -138.88382 -40.964691 108.52963
6700000000 -16.124937 149.92851 -0.019469492 -141.18832 0.018891228 -141.6781 -26.777157 -151.94006
6800000000 -17.921665 -126.01542 -0.10987498 -142.75267 -0.090487272 -143.19698 -25.173727 -159.5905
6900000000 -21.520985 12.202656 -0.32225624 -145.64883 -0.22333409 -145.69547 -48.021881 117.99963
7000000000 -18.877043 143.4102 -0.14946915 -147.64691 -0.09619461 -148.02786 -25.690413 171.9263
7100000000 -19.068727 -127.2108 -0.12810877 -148.70267 -0.11336687 -149.01405 -25.565704 -170.76202
7200000000 -22.530834 12.388436 -0.3497057 -151.83948 -0.23935618 -151.54063 -50.443832 -81.857735
7300000000 -18.190647 130.10231 -0.11584737 -154.0517 -0.037804637 -154.27199 -24.666294 165.64148
7400000000 -20.201321 -130.65285 -0.2550742 -155.19347 -0.1785288 -155.56003 -26.786743 164.88126
7500000000 -21.778471 -5.8689833 -0.26459584 -158.26944 -0.17033783 -157.71021 -35.731899 -19.864689
7600000000 -20.83918 121.08311 -0.35490027 -159.4118 -0.27924272 -159.82111 -26.999378 161.38081
7700000000 -20.166838 -142.96573 -0.24098644 -162.03995 -0.17342786 -162.4351 -25.564665 155.06651
7800000000 -22.969835 5.1543803 -0.26951116 -163.3923 -0.24514416 -163.06371 -34.146271 23.591309
7900000000 -19.599762 116.26855 -0.35755098 -165.79904 -0.28184125 -165.98337 -28.884995 161.35794
8000000000 -21.765011 -148.47906 -0.29209861 -168.54947 -0.22995585 -168.75117 -26.955345 151.96574
8100000000 -21.591116 -3.9349189 -0.24888495 -169.69298 -0.20492233 -169.3765 -30.984522 20.171333
8200000000 -21.816505 107.76275 -0.47922608 -171.79071 -0.39040285 -172.0856 -33.721474 133.36444
8300000000 -21.597158 -139.68753 -0.2804305 -174.1555 -0.19860075 -174.52849 -28.452929 155.00095
8400000000 -22.725185 -13.19279 -0.34744176 -176.00533 -0.297618 -176.03604 -34.866982 9.2355423
8500000000 -22.409214 99.114944 -0.43743935 -177.85732 -0.37531239 -178.19702 -34.322422 108.78484
8600000000 -24.11972 -151.69333 -0.43179756 179.7943 -0.37413239 179.48993 -32.358311 143.28941
8700000000 -23.18527 -14.484451 -0.38974759 177.77472 -0.3312133 177.79538 -34.672455 -10.319253
8800000000 -23.22595 89.177765 -0.46875817 176.02936 -0.38685131 175.86325 -36.589172 97.584213
8900000000 -25.039612 -151.16882 -0.50048935 173.77951 -0.41307607 173.48956 -33.514446 138.6588
9000000000 -22.616886 -23.610598 -0.42355025 171.53085 -0.35574806 171.26886 -34.135136 -36.077522
9100000000 -23.684069 74.264938 -0.47091374 169.88409 -0.40568957 169.57077 -39.547771 89.681229
9200000000 -25.573029 -164.97104 -0.50595891 167.66249 -0.4383187 167.2811 -33.510029 131.97897
9300000000 -23.556557 -34.644535 -0.47078174 165.44197 -0.42478812 165.20665 -33.847309 -40.054138
9400000000 -23.470444 72.376877 -0.45554638 163.42284 -0.39667764 163.29651 -44.437584 58.364876
9500000000 -25.777597 -171.7348 -0.5142172 161.44449 -0.44404694 161.17783 -35.026081 133.4552
9600000000 -22.884462 -41.590031 -0.53123951 159.31683 -0.45310554 159.03058 -34.732941 -60.331047
9700000000 -24.115686 51.144287 -0.50369871 156.99001 -0.44355917 156.81364 -41.4832 66.770988
9800000000 -26.919579 -156.28232 -0.55244279 155.71996 -0.46956548 155.33337 -37.846272 148.14365
9900000000 -22.040245 -45.517578 -0.50102299 153.57933 -0.43232232 153.12245 -33.566952 -63.817783
10000000000 -23.970978 50.472038 -0.48844546 150.89565 -0.45091832 150.65448 -44.55547 72.953667
10100000000 -24.913818 -172.40602 -0.48038712 149.24899 -0.4262715 148.8475 -38.149551 130.06738
10200000000 -22.394253 -59.782249 -0.52418005 147.23001 -0.46866643 146.77576 -31.802595 -75.297905
10300000000 -27.394169 33.530315 -0.5861237 144.98395 -0.54760587 144.82689 -50.901703 -5.4338617
10400000000 -26.082527 -156.0378 -0.53472036 142.92337 -0.45656997 142.69557 -42.336929 130.30704
10500000000 -22.385181 -64.804489 -0.52757841 141.65605 -0.43167052 141.05919 -31.490526 -70.375389
10600000000 -27.27549 31.355951 -0.61385387 138.8795 -0.55579412 138.53043 -41.516426 -75.693581
10700000000 -25.67753 -167.25386 -0.52517748 136.78064 -0.44922143 136.36613 -42.492882 153.51474
10800000000 -22.533381 -73.325737 -0.52598417 135.44009 -0.45815477 134.74919 -31.023689 -73.162857
10900000000 -28.800789 -1.2382098 -0.58835667 132.69095 -0.56595099 132.5625 -35.412064 -79.927917
11000000000 -25.399685 -154.84071 -0.55926526 130.65266 -0.48104241 130.52773 -40.047142 -150.19223
11100000000 -21.306343 -82.984901 -0.52358371 128.96222 -0.42146564 128.43398 -30.453909 -86.590073
11200000000 -27.438786 -10.445886 -0.56302989 126.48853 -0.53430504 126.29665 -33.443787 -85.775536
11300000000 -28.119759 -167.0517 -0.65146512 124.51315 -0.5740658 124.28236 -36.006466 -141.71576
11400000000 -21.734137 -88.50869 -0.52514052 122.64892 -0.45996934 122.04881 -29.704348 -102.60774
11500000000 -26.396137 -26.57275 -0.47422031 120.40404 -0.50621182 120.18371 -31.738075 -93.059853
11600000000 -26.477133 -167.49782 -0.64743561 118.33319 -0.57615429 118.10863 -34.477509 -136.72922
11700000000 -20.343086 -97.409752 -0.4825207 116.19391 -0.41479161 115.63157 -27.799757 -114.95736
11800000000 -25.536133 -31.203825 -0.45640552 113.84203 -0.48144767 113.76317 -32.79108 -119.83321
11900000000 -29.013916 172.53282 -0.67793983 111.89535 -0.59841609 111.74216 -33.996513 -146.80553
12000000000 -22.078701 -103.62453 -0.54701817 110.02749 -0.4815008 109.52068 -27.23609 -121.78132
12100000000 -25.559814 -33.603931 -0.46239671 107.55128 -0.44624659 107.39003 -30.307842 -134.65919
12200000000 -26.91444 174.08026 -0.64949965 105.86372 -0.5708608 105.65128 -32.474747 -158.09135
12300000000 -21.354692 -117.48522 -0.57725185 104.08965 -0.48376259 103.32764 -27.469778 -132.5778
12400000000 -27.356861 -55.441402 -0.49427259 100.98162 -0.49890473 100.85987 -29.962383 -148.16908
12500000000 -28.000166 170.39943 -0.64264327 99.40023 -0.5790149 99.469421 -32.141331 -170.21181
12600000000 -21.895264 -122.089 -0.62345225 97.564362 -0.52582079 97.062744 -27.966093 -140.59009
12700000000 -28.928032 -58.273071 -0.51809752 94.842911 -0.5074299 94.775475 -29.814182 -150.35513
12800000000 -27.606441 161.6532 -0.67335159 93.217278 -0.58140749 93.062515 -30.208673 -171.24548
12900000000 -22.576851 -138.72807 -0.66333091 91.534355 -0.56298667 90.882584 -27.569988 -156.71185
13000000000 -28.042452 -91.573692 -0.6347248 88.735939 -0.59422415 88.245995 -29.716166 -159.7079
13100000000 -28.058603 167.79768 -0.68800581 86.740425 -0.60871875 86.810112 -30.457054 -174.8073
13200000000 -22.467915 -142.44127 -0.63838863 85.306923 -0.54938936 84.766304 -27.870184 -161.35608
13300000000 -26.861607 -98.86628 -0.60919547 82.223488 -0.60851479 81.923355 -29.488514 -164.49281
13400000000 -29.953957 157.23178 -0.70655376 80.378761 -0.63055569 80.260437 -30.158268 -174.93729
13500000000 -22.643339 -157.53336 -0.65554035 78.977516 -0.56504786 78.485527 -27.041769 -169.06029
13600000000 -26.373652 -115.488 -0.67771953 76.430649 -0.63650924 75.860909 -27.710999 -166.27258
13700000000 -28.888502 156.95255 -0.70617473 74.115303 -0.64530605 74.024597 -29.385321 175.3197
13800000000 -21.898872 -162.33911 -0.66319287 72.517181 -0.5561384 72.061554 -27.068989 -175.3819
13900000000 -24.568979 -121.80456 -0.60854346 70.074265 -0.6399132 69.488823 -26.902933 -167.47543
14000000000 -29.544476 168.26369 -0.7746166 67.870476 -0.73849094 67.877792 -28.178925 176.65457
14100000000 -21.779373 -164.28708 -0.67776459 66.374748 -0.5773046 66.007874 -25.688269 178.21979
14200000000 -24.902172 -134.14561 -0.61505407 64.159241 -0.62177104 63.597229 -26.076576 -179.47078
14300000000 -27.11496 156.66663 -0.77534741 61.794964 -0.71278614 61.672867 -27.784956 164.93552
14400000000 -21.233772 -175.61232 -0.66328079 59.806744 -0.53782648 59.346222 -25.68788 169.4608
14500000000 -25.131348 -143.69855 -0.6278187 57.669315 -0.63459915 57.193863 -26.587341 170.2502
14600000000 -28.50355 152.37471 -0.75730187 55.421177 -0.74439347 55.364986 -27.616035 160.82501
14700000000 -22.682629 179.57904 -0.70474887 53.788189 -0.60478342 53.316559 -25.190659 164.38647
14800000000 -25.719881 -150.19362 -0.63672537 51.393578 -0.63096595 50.744946 -25.457293 160.44513
14900000000 -28.180262 150.01645 -0.7991069 49.002243 -0.75289178 49.073807 -27.368782 148.98584
15000000000 -22.345922 167.93939 -0.78140098 47.223663 -0.66290706 46.730732 -25.446169 152.38113
15100000000 -25.336363 -172.0179 -0.70535374 44.812359 -0.69879276 44.454037 -25.559168 149.12192
15200000000 -27.809381 146.06828 -0.80515563 43.015049 -0.78645015 43.027229 -27.492943 139.81123
15300000000 -23.599758 158.09496 -0.82597995 41.184536 -0.73604143 40.719357 -25.72965 143.06503
15400000000 -26.438644 -175.38403 -0.73175371 38.633663 -0.69946903 38.12392 -25.335705 141.65617
15500000000 -28.814035 138.93858 -0.80969954 36.678917 -0.8012206 36.74448 -27.578228 129.21736
15600000000 -23.245193 148.76761 -0.86548477 34.873688 -0.76317096 34.460911 -25.667259 130.62503
15700000000 -25.309822 166.50757 -0.79246002 32.436016 -0.77308047 32.048294 -26.16239 135.50331
15800000000 -28.058519 127.39142 -0.8668592 30.601479 -0.82742977 30.631588 -27.458796 123.46411
15900000000 -23.470594 137.64136 -0.89298612 29.066639 -0.79992247 28.554729 -25.2533 123.09457
16000000000 -27.296591 161.55484 -0.84463811 26.582693 -0.80635887 25.940722 -26.04085 127.83881
16100000000 -28.043781 112.38371 -0.85499495 24.603928 -0.81310385 24.41954 -27.516743 112.05408
16200000000 -23.166628 129.71741 -0.88295931 22.909645 -0.80762237 22.486124 -25.307055 114.82831
16300000000 -26.511501 153.06345 -0.8472957 20.616089 -0.83011156 20.070801 -26.669691 121.36302
16400000000 -26.729826 103.00135 -0.85686773 18.415432 -0.81677258 18.397928 -27.865299 103.31396
16500000000 -23.361475 123.81902 -0.8905704 17.034222 -0.80663973 16.676834 -24.958929 110.96616
16600000000 -28.326769 144.69246 -0.85864913 14.601806 -0.81972879 13.979309 -26.430271 114.5964
16700000000 -27.539673 98.216026 -0.87293524 12.525334 -0.8272531 12.229051 -27.464186 95.042984
16800000000 -23.783346 118.50819 -0.87146318 10.891558 -0.79683441 10.402876 -25.555895 103.34597
16900000000 -27.767267 131.22588 -0.85471106 8.7491503 -0.82473946 8.1278076 -26.849863 107.70462
17000000000 -26.454231 90.85289 -0.84781325 6.3659673 -0.8270449 6.1057949 -27.390789 89.571686
17100000000 -24.599146 110.27219 -0.855488 4.5993705 -0.80373311 4.2138138 -25.693577 96.933838
17200000000 -28.535868 119.83346 -0.85239899 2.4010005 -0.81893599 1.9505693 -27.168192 100.95361
17300000000 -28.066233 86.108734 -0.87515062 0.28986126 -0.84114808 -0.029929582 -27.710329 86.29113
17400000000 -25.57589 102.79839 -0.86104965 -1.6619265 -0.80184156 -2.0334342 -26.08304 91.32872
17500000000 -29.416204 110.48675 -0.85755891 -3.5888824 -0.80681866 -4.0490532 -27.531845 96.000694
17600000000 -27.186323 77.649307 -0.85041767 -5.8119812 -0.82235962 -6.1764898 -27.959846 77.2948
17700000000 -25.39518 89.872238 -0.84775198 -7.894424 -0.81417114 -8.2866793 -26.287922 82.700638
17800000000 -30.648767 103.11826 -0.82400376 -9.9894915 -0.78548187 -10.397118 -27.491013 87.691315
17900000000 -29.071491 60.698029 -0.83702695 -12.010504 -0.80880284 -12.342031 -29.048113 65.897301
18000000000 -26.96134 86.083656 -0.85881323 -14.270814 -0.82031524 -14.532687 -27.074823 76.406845
18100000000 -32.376656 95.54776 -0.83529979 -16.219946 -0.76975435 -16.492994 -28.06683 85.914085
18200000000 -28.625994 52.725475 -0.84683383 -18.130468 -0.80160755 -18.595661 -28.377722 60.671314
18300000000 -26.228966 74.653999 -0.84933603 -20.350159 -0.81496042 -20.747078 -26.701059 64.157333
18400000000 -34.734406 87.010841 -0.81563747 -22.449533 -0.76094604 -22.898699 -28.849939 71.227455
18500000000 -28.782106 34.978889 -0.80174005 -24.237724 -0.78617978 -24.754761 -28.868187 46.005363
18600000000 -28.041182 66.958817 -0.83377188 -26.695127 -0.81889528 -27.025106 -27.872274 59.610764
18700000000 -37.353508 69.616913 -0.82921565 -28.788378 -0.76905 -29.013229 -30.715578 67.317345
18800000000 -28.253969 22.306696 -0.79904217 -30.789837 -0.7637558 -31.220318 -29.506689 40.674137
18900000000 -27.746286 54.961025 -0.82240999 -32.918713 -0.81888074 -33.246025 -27.471096 52.051525
19000000000 -34.818821 36.238014 -0.84686178 -35.072292 -0.79008901 -35.356773 -30.310677 48.527786
19100000000 -28.72187 16.156153 -0.77834165 -36.875015 -0.75781977 -37.468296 -29.476524 23.243935
19200000000 -29.443012 44.670189 -0.8201285 -39.218597 -0.83215451 -39.630585 -30.249344 42.065914
19300000000 -36.52702 24.351419 -0.86613619 -41.458221 -0.80476993 -41.708241 -32.460041 44.928127
19400000000 -29.420429 -0.34078595 -0.80620712 -43.562031 -0.76203477 -43.982307 -31.562975 22.05522
19500000000 -30.357805 26.007113 -0.83250946 -45.827667 -0.84335119 -46.020393 -30.972431 38.858906
19600000000 -35.946415 15.332951 -0.87692744 -47.856789 -0.82463342 -48.000195 -32.321754 31.030472
19700000000 -31.054258 -12.229226 -0.83267057 -49.829189 -0.79047292 -50.289768 -32.3447 8.1569386
19800000000 -31.648134 15.614592 -0.85762388 -52.191372 -0.8612116 -52.423817 -33.726563 18.240566
19900000000 -39.476826 -2.1859953 -0.91112703 -54.128967 -0.84694695 -54.2631 -35.64703 29.380459
20000000000 -32.423344 -30.521448 -0.89511514 -56.145859 -0.83159655 -56.700634 -35.814636 7.8620148
20100000000 -31.324799 -9.0108967 -0.86614966 -58.633274 -0.87486142 -58.719601 -33.886627 14.139751
20200000000 -39.528271 -29.278425 -0.92838973 -60.541447 -0.85853529 -60.500088 -35.983807 18.391823
20300000000 -31.082275 -55.909687 -0.90679836 -62.377979 -0.84592521 -62.870308 -36.844616 -19.634541
20400000000 -31.854383 -20.268156 -0.91629618 -64.817688 -0.90465546 -65.009499 -36.065346 -12.089895
20500000000 -39.180817 -67.137711 -0.98322576 -66.628426 -0.88307673 -66.732628 -42.39817 0.92311096
20600000000 -29.872229 -70.383965 -0.95606804 -68.570618 -0.84844959 -69.23156 -39.983246 -37.284657
20700000000 -30.670721 -41.826195 -0.91519958 -70.909676 -0.91801542 -71.339233 -36.365677 -27.790207
20800000000 -35.272602 -100.5073 -0.96625197 -72.976273 -0.89089733 -73.101463 -42.768036 -38.647873
20900000000 -29.000654 -86.562004 -0.95358276 -74.599113 -0.88111007 -75.360512 -37.445259 -83.536224
21000000000 -30.916739 -67.969109 -0.97995526 -77.038483 -0.97320169 -77.579605 -39.916264 -82.91629
21100000000 -33.1394 -107.41479 -1.0320832 -78.990051 -0.9613148 -79.253006 -40.896343 -127.19378
21200000000 -27.456751 -98.314384 -1.0065895 -80.824112 -0.92135626 -81.578499 -37.198608 -116.30837
21300000000 -29.634453 -91.760666 -0.9896242 -83.06498 -1.0003968 -83.504593 -37.97604 -113.74863
21400000000 -29.80142 -121.66627 -1.0066009 -85.067902 -0.93616813 -85.20549 -37.288708 -136.82735
21500000000 -27.519075 -112.19995 -0.95705104 -86.766396 -0.90158427 -87.676445 -33.488167 -133.26318
21600000000 -29.110008 -108.58957 -0.9522025 -89.025543 -0.9917931 -89.752754 -32.416485 -145.78679
21700000000 -29.976738 -136.99602 -1.0172261 -91.287781 -0.97768253 -91.54718 -33.915169 -164.77823
21800000000 -27.20256 -132.41507 -0.95988709 -93.283012 -0.89602244 -93.929817 -32.301357 -166.28143
21900000000 -28.488689 -122.9436 -0.93840224 -95.750984 -0.9759475 -96.090004 -32.84668 -160.67993
22000000000 -29.05545 -140.14517 -0.99527943 -97.871773 -0.9823764 -97.876732 -34.89259 -160.45927
22100000000 -26.001331 -138.47354 -0.99029624 -99.777748 -0.93794119 -100.37682 -30.410242 -166.75737
22200000000 -27.532522 -129.20413 -0.96392697 -102.03325 -1.0102228 -102.47401 -29.889013 -161.70509
22300000000 -28.16914 -159.31288 -1.0600257 -103.9705 -1.0491269 -104.14186 -31.129641 -172.44238
22400000000 -24.790295 -157.31946 -1.0585043 -106.00869 -0.99772799 -106.62964 -27.777119 -179.38202
22500000000 -26.217283 -149.99583 -1.0014266 -108.34216 -1.0347579 -108.501 -28.89731 -175.18126
22600000000 -25.956636 -167.12962 -1.0687194 -110.4186 -1.0419099 -110.1142 -29.987774 168.75954
22700000000 -24.192659 -161.8261 -1.0860833 -112.29886 -1.002664 -112.67567 -26.754171 167.88054
22800000000 -26.555044 -155.28908 -1.0444224 -114.69396 -1.0450187 -114.86662 -28.080034 175.99426
22900000000 -25.526045 -177.45392 -1.1332269 -116.49812 -1.1100008 -116.40141 -28.161093 162.68327
23000000000 -23.702627 -174.55634 -1.1461672 -118.21571 -1.0738174 -118.83533 -25.502024 165.57329
23100000000 -25.206409 -173.32356 -1.1327486 -120.37255 -1.1102052 -120.76018 -26.108034 167.91206
23200000000 -23.445261 174.88512 -1.1656531 -122.30564 -1.1054038 -122.25758 -25.759104 153.66045
23300000000 -22.739082 -177.70122 -1.2022337 -124.15009 -1.0817257 -124.61688 -24.117947 153.91144
23400000000 -24.259518 174.86273 -1.1423576 -126.45957 -1.1267325 -126.83268 -24.998688 155.6451
23500000000 -22.927923 166.01187 -1.1905725 -128.36993 -1.133068 -128.43648 -24.6609 146.75732
23600000000 -22.472651 167.92809 -1.1917228 -129.97798 -1.1123904 -130.61162 -23.034664 149.67923
23700000000 -23.200914 160.26898 -1.1475258 -132.08289 -1.138783 -132.80672 -23.29336 151.32198
23800000000 -21.880974 157.24393 -1.1915722 -134.00851 -1.1142575 -134.36186 -22.570721 139.51016
23900000000 -21.923983 159.97211 -1.1622701 -135.90704 -1.0815288 -136.66066 -21.55875 138.92397
24000000000 -22.031143 156.56227 -1.1505221 -138.09407 -1.1432849 -138.8336 -22.222235 138.98878
24100000000 -21.30994 151.9893 -1.1608299 -140.37117 -1.1260549 -140.54376 -22.201479 129.99831
24200000000 -21.267611 152.27415 -1.1528785 -142.07156 -1.0998417 -142.6516 -21.016508 131.69653
24300000000 -21.833241 142.53244 -1.1138476 -144.09619 -1.115417 -144.83856 -21.464659 134.2963
24400000000 -20.84903 140.79501 -1.1196201 -146.29404 -1.1151108 -146.7437 -21.121586 125.00336
24500000000 -21.057018 142.68108 -1.1064861 -148.09114 -1.0518571 -148.97755 -19.816526 125.60538
24600000000 -21.106092 139.34567 -1.0835472 -150.39706 -1.1006423 -151.1134 -20.600639 125.57192
24700000000 -20.060543 136.8763 -1.0938144 -152.62523 -1.1097845 -152.88292 -20.444609 114.89935
24800000000 -20.489017 138.54655 -1.0861682 -154.63005 -1.0426815 -155.12077 -19.593649 117.08391
24900000000 -20.67732 127.59397 -1.0595487 -156.86952 -1.086727 -157.26541 -20.396654 118.05037
25000000000 -20.042744 124.44654 -1.0873022 -158.97125 -1.1058868 -159.30153 -19.998999 109.22384
25100000000 -20.434418 125.64616 -1.0990677 -160.96291 -1.0638384 -161.56346 -19.18725 112.95621
25200000000 -20.41814 117.92998 -1.0721508 -163.02621 -1.0963165 -163.54861 -19.768375 111.54989
25300000000 -19.299416 120.12494 -1.1048352 -165.2843 -1.1191008 -165.42393 -19.333094 101.72735
25400000000 -19.865931 120.30966 -1.0991741 -167.38156 -1.0650029 -167.72343 -18.868416 104.53513
25500000000 -19.839127 111.15306 -1.0749005 -169.46001 -1.0888693 -169.8678 -19.560057 101.61054
25600000000 -19.324699 109.30942 -1.1186334 -171.61717 -1.1313344 -171.78488 -19.10667 95.65934
25700000000 -19.906666 106.17923 -1.1243415 -173.71701 -1.1058288 -174.01398 -18.636955 98.335953
25800000000 -19.489439 99.511581 -1.1099044 -175.68915 -1.1094224 -175.9606 -19.146732 94.464394
25900000000 -18.930761 103.22566 -1.1379268 -177.81824 -1.1245074 -177.93829 -18.605558 88.912743
26000000000 -19.288067 100.43435 -1.1362786 -179.95564 -1.1022263 179.7308 -18.458612 90.656166
26100000000 -19.105545 94.462601 -1.1194491 178.01344 -1.1175271 177.62088 -18.811104 87.754509
26200000000 -18.777767 94.668953 -1.1467037 175.89574 -1.1548637 175.67598 -18.318295 83.187645
26300000000 -19.275309 89.671638 -1.1477081 173.86418 -1.1352489 173.59714 -18.126932 83.29113
26400000000 -18.832855 83.998695 -1.1460456 171.74278 -1.131888 171.44655 -18.375368 81.269485
26500000000 -18.277605 85.368782 -1.1507393 169.70456 -1.1459315 169.56863 -18.007919 75.084679
26600000000 -18.59507 83.465141 -1.1738186 167.53456 -1.1547983 167.26634 -18.09514 75.971931
26700000000 -18.365095 80.053528 -1.1756456 165.42531 -1.1656017 165.06944 -18.41943 73.245354
26800000000 -18.382328 78.490654 -1.1842721 163.32706 -1.1918223 163.21729 -17.965599 70.443863
26900000000 -18.518103 73.507034 -1.2005191 161.3242 -1.1972377 161.11186 -17.746723 70.400429
27000000000 -18.46839 68.616371 -1.2032716 159.18071 -1.170809 158.96863 -17.85943 65.931129
27100000000 -17.944115 66.400269 -1.2080013 157.14659 -1.1900351 157.13544 -17.78157 62.480244
27200000000 -18.22245 64.389313 -1.2254678 155.0919 -1.2411649 154.98967 -18.219872 61.818363
27300000000 -18.211866 62.3871 -1.2268362 153.1758 -1.2097311 152.69391 -18.163137 58.867413
27400000000 -18.502239 60.423733 -1.2154641 151.10197 -1.1077751 150.3692 -17.739895 65.391747
27500000000 -18.511034 56.657043 -1.2518458 148.88644 -1.1917007 148.35526 -18.181402 66.332771
27600000000 -18.692461 53.351089 -1.2797313 146.63307 -1.2056254 146.45255 -18.768929 49.881485
27700000000 -18.495541 50.352711 -1.2675967 144.59439 -1.2171212 144.5446 -16.912518 48.67054
27800000000 -18.538437 46.88797 -1.2835735 142.67624 -1.2901797 142.55487 -17.849464 57.223057
27900000000 -18.647572 45.37466 -1.3305587 140.74425 -1.2986319 140.38388 -19.641026 44.273117
28000000000 -18.683577 41.130524 -1.337858 138.5356 -1.2698543 138.35875 -17.038204 38.173435
28100000000 -18.910957 39.603153 -1.3343611 136.47081 -1.3048512 136.54539 -16.301371 57.746861
28200000000 -19.484581 38.095325 -1.4346385 134.90884 -1.3343626 134.29477 -25.533121 90.620354
28300000000 -19.938173 28.562901 -1.6177392 136.03221 -1.555899 136.87379 -18.149847 -127.49146
28400000000 -19.402296 34.752602 -1.0719515 131.69693 -1.1781315 131.4929 -29.566397 32.63147
28500000000 -19.732145 30.028465 -1.2411604 128.90962 -1.1617293 128.57034 -18.610764 27.816006
28600000000 -19.094929 29.040009 -1.2483228 126.87399 -1.2114667 126.64732 -18.449778 37.266514
28700000000 -19.378944 27.239731 -1.2600818 124.76776 -1.26712 124.46691 -18.650522 33.574799
28800000000 -19.373413 23.343611 -1.2868136 122.65846 -1.2560048 122.24277 -18.420198 35.61565
28900000000 -19.360775 19.294752 -1.2955257 120.72389 -1.2607675 120.26044 -19.140392 32.623058
29000000000 -19.589062 16.792223 -1.2596381 118.80904 -1.2838259 118.5155 -18.698526 28.077145
29100000000 -19.668303 10.268453 -1.259672 116.48374 -1.2355652 116.22691 -18.428545 31.673115
29200000000 -19.098682 7.9404979 -1.2422923 114.4522 -1.2222295 113.92638 -19.15172 25.376709
29300000000 -19.627666 7.7259326 -1.2483224 112.1866 -1.299907 111.98473 -18.557203 19.30534
29400000000 -20.072247 2.705157 -1.3133364 110.1661 -1.3347365 109.89363 -19.014963 20.660765
29500000000 -19.924452 3.2994556 -1.2906692 108.28944 -1.2878115 107.95383 -20.547338 15.811278
29600000000 -20.350363 1.4082153 -1.2800008 106.15744 -1.303583 106.2216 -19.978933 14.780043
29700000000 -20.245808 -8.1388636 -1.2915862 103.90053 -1.2741504 103.97578 -19.669571 21.657997
29800000000 -20.089211 -10.611971 -1.3056304 101.82372 -1.2637675 101.67478 -20.43189 16.395788
29900000000 -21.09853 -12.504333 -1.2840216 99.672539 -1.3103601 99.818069 -19.585424 9.7547474
30000000000 -21.416374 -17.055012 -1.3331568 97.687531 -1.344048 97.804886 -19.991158 11.078191
30100000000 -21.332762 -11.505346 -1.3479829 95.880745 -1.3421896 95.709633 -21.520273 3.4995971
30200000000 -21.886463 -17.116848 -1.3450465 93.689171 -1.3196729 93.939888 -21.189196 0.79393208
30300000000 -21.422911 -27.68185 -1.3517163 91.74575 -1.3080739 91.914894 -21.796726 9.2863007
30400000000 -21.795187 -27.891729 -1.4008327 89.824677 -1.3209037 89.707962 -23.062859 9.2223005
30500000000 -23.323763 -35.821156 -1.3596574 87.549263 -1.3126551 87.724739 -22.027328 0.57392257
30600000000 -23.057402 -39.506481 -1.3821595 85.535156 -1.3183311 85.789604 -22.097971 7.521132
30700000000 -23.841829 -30.804581 -1.4039961 83.792969 -1.3534778 83.585312 -24.244732 -1.6625623
30800000000 -24.779917 -42.635658 -1.3897927 81.705223 -1.3178546 81.616486 -23.526636 -9.9433327
30900000000 -22.992237 -48.318913 -1.4177691 79.682388 -1.3026695 79.681229 -24.250452 7.5650177
31000000000 -24.682228 -48.93071 -1.4024475 77.903168 -1.3246406 77.716103 -27.612234 3.6217015
31100000000 -25.132717 -69.669197 -1.4116578 75.979958 -1.3080151 75.62532 -25.666647 -2.429491
31200000000 -25.306604 -58.857105 -1.357024 74.040672 -1.2673007 73.814438 -26.170433 16.467064
31300000000 -32.244713 -40.244991 -1.3318709 72.157646 -1.2818289 71.571556 -30.957619 9.1999979
31400000000 -23.672859 -116.05364 -1.411237 69.728477 -1.3107468 68.737152 -26.493219 3.7298813
31500000000 -18.645254 -71.461479 -1.3892279 67.264297 -1.2365834 66.035263 -25.936922 34.058468
31600000000 -18.282236 -20.44697 -1.443361 66.078865 -1.3893602 65.678238 -31.897379 58.033302
31700000000 -39.96994 101.09171 -1.2974045 64.249809 -1.2707957 63.5569 -31.148012 4.4990177
31800000000 -22.172125 -135.35506 -1.2850357 62.267059 -1.2904168 61.609024 -28.095085 39.844986
31900000000 -24.164459 -87.216461 -1.305923 59.846561 -1.2150601 59.146858 -29.963108 57.998142
32000000000 -35.092281 -117.64053 -1.2485795 57.845509 -1.2486542 56.796261 -31.974207 33.953911
32100000000 -24.522993 -134.35863 -1.2555979 55.45916 -1.248008 54.934929 -27.650288 48.530388
32200000000 -25.148108 -107.84456 -1.2594281 53.365387 -1.2002032 52.834873 -29.100174 60.098495
32300000000 -29.089558 -153.28648 -1.17474 51.322559 -1.2344038 50.55014 -31.514877 49.101139
32400000000 -23.741188 -155.55595 -1.2227662 48.953033 -1.2537363 48.618206 -28.464308 57.509708
32500000000 -27.227674 -136.72626 -1.2031151 46.766071 -1.2001491 46.171162 -29.237436 80.738625
32600000000 -29.068756 -179.49545 -1.1974555 44.816536 -1.2334799 44.085255 -30.164631 74.346008
32700000000 -24.7374 -162.5824 -1.2386693 42.342052 -1.237029 42.149181 -26.38962 70.759995
32800000000 -26.68494 -148.48592 -1.2185724 40.399132 -1.1852347 40.03756 -26.353191 81.533638
32900000000 -25.820185 168.10989 -1.2093859 38.180016 -1.2226276 37.800606 -27.510866 74.936447
33000000000 -22.778334 171.77606 -1.195682 35.878399 -1.2543825 35.839207 -25.69356 71.168076
33100000000 -26.450916 171.32835 -1.2255989 33.757065 -1.2139705 33.440166 -25.311588 85.509682
33200000000 -25.011993 144.62593 -1.2181764 31.722021 -1.2420471 31.321903 -25.729403 89.295128
33300000000 -23.783428 162.47911 -1.2574123 29.254982 -1.2460102 29.190672 -23.442402 82.965187
33400000000 -25.923517 159.95432 -1.3004361 27.375067 -1.234984 27.22999 -21.960625 84.897171
33500000000 -23.140184 141.07317 -1.285181 25.204062 -1.2572805 24.892218 -22.797256 80.553764
33600000000 -21.222939 146.45566 -1.3079959 22.982321 -1.2751338 22.932487 -21.890591 73.164856
33700000000 -22.532116 139.98668 -1.3199357 20.799601 -1.2789035 20.611067 -21.789618 79.20742
33800000000 -20.979326 124.98911 -1.3316965 18.99427 -1.3239335 18.481947 -22.087734 80.428612
33900000000 -20.596516 134.14758 -1.3765078 16.794945 -1.3471434 16.470505 -20.495537 78.424011
34000000000 -22.356371 125.5462 -1.3961798 14.759474 -1.3226511 14.534438 -19.649036 81.002243
34100000000 -20.488791 116.50814 -1.3909204 12.834961 -1.3359798 12.30497 -19.591208 75.50219
34200000000 -19.621185 122.40531 -1.408648 10.645761 -1.3673902 10.332673 -18.943419 69.53511
34300000000 -20.521152 117.37842 -1.4355642 8.5815086 -1.378788 8.1082458 -19.07518 71.540352
34400000000 -18.934172 109.34193 -1.4334565 6.7376018 -1.4316199 6.1095338 -19.230728 72.404457
34500000000 -18.49995 114.96861 -1.4832996 4.8347063 -1.4763099 4.32163 -18.426264 71.680527
34600000000 -19.469095 106.80043 -1.4756771 2.8987341 -1.4339637 2.3152206 -17.60854 72.418472
34700000000 -18.476627 98.785667 -1.4360024 1.0253006 -1.420491 0.35010055 -17.294863 68.919937
34800000000 -18.288166 103.29239 -1.4392037 -1.2013026 -1.4355034 -1.7696546 -17.403906 63.70042
34900000000 -18.981293 99.263618 -1.4477524 -3.3636594 -1.4251544 -3.8986452 -16.988144 63.358189
35000000000 -17.656336 95.941269 -1.4351109 -5.3200011 -1.4430079 -5.966361 -17.128851 64.496544
35100000000 -17.254774 99.441803 -1.4688439 -7.2957716 -1.4769303 -7.8003111 -16.968281 62.280495
35200000000 -18.012901 94.908455 -1.4808877 -9.3579521 -1.4759649 -9.9475765 -16.260731 61.211796
35300000000 -17.14465 87.678673 -1.4449645 -11.262218 -1.4614155 -11.963587 -16.060421 61.187214
35400000000 -16.599394 90.524109 -1.4283179 -13.2787 -1.4566879 -13.873125 -16.124622 57.461903
35500000000 -17.41552 88.057014 -1.4377843 -15.566148 -1.4565489 -16.066732 -15.760612 56.029194
35600000000 -16.741198 81.504333 -1.4103295 -17.727757 -1.4317156 -18.229673 -15.601742 58.531765
35700000000 -15.732627 83.494415 -1.4168882 -19.763052 -1.4423255 -20.231911 -15.468247 54.798492
35800000000 -16.422915 81.444679 -1.4508469 -22.034422 -1.4614056 -22.473236 -14.679382 52.449203
35900000000 -15.872895 71.887299 -1.4513458 -24.191296 -1.4651916 -24.709072 -14.763888 51.288235
36000000000 -15.408859 74.277489 -1.443415 -26.186647 -1.4825969 -26.682804 -15.167094 47.71468
36100000000 -16.173456 71.790367 -1.4848895 -28.41028 -1.510188 -28.811394 -14.689003 46.328632
36200000000 -15.729113 63.008297 -1.5152695 -30.569178 -1.5355679 -30.987919 -14.593933 47.838154
36300000000 -14.999454 65.758881 -1.5448484 -32.443329 -1.5701547 -32.788479 -14.914791 45.313774
36400000000 -15.743191 65.352074 -1.5658133 -34.169575 -1.5769885 -34.493134 -14.047757 42.568985
36500000000 -15.14857 56.256851 -1.5326984 -36.251526 -1.5479208 -36.642738 -13.829316 43.316467
36600000000 -14.501931 58.23539 -1.5078526 -38.353775 -1.5360631 -38.822342 -14.079278 38.607723
36700000000 -15.391338 56.557796 -1.5289555 -40.476227 -1.5538188 -40.805279 -13.548528 34.587799
36800000000 -14.817307 46.912201 -1.5683297 -42.724426 -1.5863234 -43.052269 -13.650637 37.609352
36900000000 -13.974113 49.424583 -1.5872922 -44.70134 -1.6204324 -45.006142 -14.047289 34.432968
37000000000 -14.898414 47.379299 -1.6060525 -46.507584 -1.6396973 -46.738369 -13.131191 30.659918
37100000000 -14.446948 37.783672 -1.6210881 -48.465534 -1.6486726 -48.653427 -13.199722 31.392076
37200000000 -14.090773 41.80825 -1.6054035 -50.435364 -1.641542 -50.673306 -13.772199 25.186768
37300000000 -15.552749 41.838074 -1.6001085 -52.331295 -1.6304251 -52.538342 -13.227846 21.953661
37400000000 -14.796545 32.374123 -1.6100415 -54.372051 -1.6333164 -54.509819 -13.537721 27.371939
37500000000 -13.641526 37.820648 -1.5849112 -56.345303 -1.6274362 -56.533123 -14.003393 22.79627
37600000000 -14.600878 34.597553 -1.5842276 -58.650703 -1.6120355 -58.669147 -13.134807 19.690254
37700000000 -13.867379 23.460316 -1.5965877 -60.633217 -1.6315657 -60.458527 -13.16766 23.406185
37800000000 -13.591446 28.92256 -1.6171663 -62.592278 -1.6464888 -62.504467 -13.767411 17.273905
37900000000 -15.309162 28.614849 -1.6073107 -64.70282 -1.6111093 -64.647926 -12.787217 12.91855
38000000000 -14.46245 18.700871 -1.6370538 -66.794228 -1.6264992 -66.586311 -13.08312 16.746077
38100000000 -13.799898 24.77602 -1.6581931 -68.535675 -1.6684161 -68.443817 -14.1141 11.191648
38200000000 -15.165915 22.346502 -1.6482186 -70.50692 -1.6337136 -70.504204 -13.13377 7.8736348
38300000000 -14.165557 9.0062695 -1.623418 -72.72065 -1.5926031 -72.438156 -13.14624 13.281135
38400000000 -13.673491 16.407896 -1.6448649 -74.386955 -1.6190579 -74.21595 -14.316836 9.0788422
38500000000 -15.64299 14.007087 -1.6635838 -76.571953 -1.6215392 -76.614639 -13.15517 3.1780918
38600000000 -14.806399 3.327877 -1.6328789 -78.773643 -1.5764614 -78.540329 -13.206181 7.8835845
38700000000 -14.063297 12.515859 -1.6266108 -80.291962 -1.5909868 -80.336075 -14.205063 3.6853473
38800000000 -15.986106 9.1441298 -1.6657568 -82.374016 -1.6144284 -82.668236 -13.224693 -2.7136779
38900000000 -14.526163 -4.4955897 -1.6300943 -84.591087 -1.5568504 -84.684586 -13.565716 2.9197669
39000000000 -14.180688 5.8070135 -1.6079415 -86.052917 -1.5537986 -86.401901 -14.975787 -2.6466711
39100000000 -16.075541 1.258824 -1.6151866 -88.230598 -1.5727069 -88.805275 -13.690284 -4.0958405
39200000000 -14.705112 -12.186 -1.5876391 -90.63179 -1.5391438 -90.814186 -13.717191 0.26070774
39300000000 -14.296039 -3.6210093 -1.5736111 -92.456245 -1.5224825 -92.833092 -14.768471 -6.4474783
39400000000 -16.57234 -10.080752 -1.5459335 -94.224976 -1.5615233 -94.946213 -13.70823 -11.335861
39500000000 -15.10885 -20.2612 -1.5899402 -96.643875 -1.5336218 -97.006302 -14.086679 -7.1935358
39600000000 -15.014062 -8.247633 -1.5295696 -98.414467 -1.5068206 -99.027184 -15.327438 -15.505889
39700000000 -16.769239 -13.182796 -1.5256672 -100.28983 -1.5374792 -101.17493 -14.574268 -17.538824
39800000000 -15.276094 -24.198153 -1.5181861 -102.94947 -1.4968176 -103.26613 -14.694818 -8.8630018
39900000000 -14.930305 -16.683094 -1.4886811 -104.94659 -1.5000839 -105.28859 -15.423711 -15.625284
40000000000 -17.197302 -25.655539 -1.4715935 -106.82306 -1.5160909 -107.4928 -14.565141 -20.39797
