! Quiescent point : V1=-1.66492E-02 I1=+1.29868E-03 V2=-2.25386E-02 I2=-1.29926E-03
! Pulsed point : V1=-1.69455E-02 I1=+1.30763E-03 V2=-2.27701E-02 I2=-1.32530E-03
! Period : +2.00000E-04
! Input Supply timing : delay=+1.60000E-06 width=+2.20000E-06
! Output Supply timing : delay=+1.70000E-06 width=+2.00000E-06
! VNA timing : delay=+2.40000E-06 width=+1.10000E-06
# Hz S RI R 50
+2.70000E+10 +3.64683E-02 -1.51881E-01 -9.95677E-01 -8.12359E-02 -9.78436E-01 +2.56257E-02 -3.04515E-02 -1.24050E-01
+2.71000E+10 -1.19703E-02 -1.07736E-01 -1.01062E+00 -6.60027E-02 -9.36845E-01 -4.78390E-03 +2.35409E-02 -1.01022E-01
+2.72000E+10 +6.00893E-02 -1.54451E-01 -9.76717E-01 -3.13122E-02 -9.72197E-01 -7.18760E-02 +4.44277E-02 -9.71546E-02
+2.73000E+10 +3.21085E-02 -6.63139E-02 -9.48879E-01 +1.14866E-02 -9.51806E-01 -2.61339E-04 +2.67077E-02 -5.95229E-02
+2.74000E+10 -1.34370E-03 -1.61310E-01 -9.63392E-01 -3.11188E-02 -1.01049E+00 +1.96674E-02 +2.09430E-02 -7.75221E-02
+2.75000E+10 +3.61266E-02 -9.31460E-02 -9.10735E-01 +2.50402E-02 -1.01276E+00 -2.51132E-02 +3.62636E-02 -1.13632E-01
+2.76000E+10 +1.27698E-02 -7.52755E-02 -9.92028E-01 -4.08639E-02 -1.00221E+00 +4.20067E-02 +5.54649E-02 -1.54494E-01
+2.77000E+10 -8.51170E-02 -1.50019E-01 -9.10085E-01 +8.15741E-02 -9.29974E-01 -4.88131E-02 +1.32036E-02 -1.36058E-01
+2.78000E+10 +1.20426E-02 -1.05002E-01 -9.50926E-01 +6.06552E-02 -8.80551E-01 -4.08818E-02 +1.05685E-01 -9.66836E-02
+2.79000E+10 +1.77991E-02 -7.67340E-02 -9.64525E-01 +8.96785E-02 -1.00727E+00 +5.11958E-02 -6.13386E-02 -1.47363E-01
+2.80000E+10 +2.75497E-02 -1.15766E-01 -9.53344E-01 +9.79067E-02 -1.01639E+00 +3.95893E-02 -1.08558E-01 -1.21961E-01
+2.81000E+10 +5.41714E-02 -5.51748E-02 -9.79395E-01 +9.52520E-02 -9.65196E-01 +5.62642E-02 -7.87828E-02 -2.23956E-01
+2.82000E+10 -3.29306E-02 -4.71483E-02 -9.60980E-01 +9.13617E-02 -9.56896E-01 +4.58872E-02 +4.92592E-02 -1.03213E-01
+2.83000E+10 +1.98542E-02 -4.91352E-02 -1.04711E+00 +1.50987E-01 -9.34796E-01 +1.01542E-01 +4.54147E-02 -1.76521E-01
+2.84000E+10 +1.32026E-01 -1.60241E-01 -9.63106E-01 +8.21652E-02 -9.80335E-01 +9.27015E-02 +2.06907E-02 -1.91255E-01
+2.85000E+10 +1.22690E-02 -1.13054E-01 -9.79219E-01 +8.19535E-02 -9.02135E-01 +1.17188E-01 -4.08002E-02 -5.68251E-02
+2.86000E+10 +4.25840E-02 -1.13822E-01 -1.04446E+00 +9.84810E-02 -9.50241E-01 +1.60679E-01 +5.87126E-02 -1.04479E-01
+2.87000E+10 -6.99001E-02 -1.59544E-01 -9.79663E-01 +1.10683E-01 -9.66900E-01 +5.99066E-02 -5.67878E-02 -1.43580E-02
+2.88000E+10 +3.28612E-02 -1.35513E-01 -9.70520E-01 +1.42566E-01 -1.01405E+00 +1.50496E-01 +4.14284E-02 -7.14617E-02
+2.89000E+10 +6.88182E-02 -1.55067E-01 -9.27002E-01 +1.46494E-01 -9.21975E-01 +1.10561E-01 +2.09077E-02 -6.59953E-02
+2.90000E+10 -1.70444E-02 -1.14779E-01 -9.58601E-01 +1.05311E-01 -9.28278E-01 +1.87468E-01 +4.52543E-03 -9.44994E-02
+2.91000E+10 +4.40759E-02 -1.89111E-01 -9.50782E-01 +2.14130E-01 -9.87852E-01 +2.03560E-01 -9.58186E-02 -1.09293E-01
+2.92000E+10 +7.20584E-02 -3.33396E-02 -9.65508E-01 +1.88030E-01 -9.82175E-01 +1.90663E-01 -2.85612E-02 -7.37765E-02
+2.93000E+10 -9.44329E-03 -3.93526E-02 -1.02062E+00 +1.61931E-01 -9.14363E-01 +1.91035E-01 -4.20117E-02 -8.92609E-03
+2.94000E+10 -3.86260E-03 -5.96223E-02 -8.87589E-01 +1.10183E-01 -9.35579E-01 +2.67118E-01 +2.79076E-02 -6.15048E-02
+2.95000E+10 -5.33869E-02 -2.96556E-02 -9.02667E-01 +2.24549E-01 -9.70886E-01 +2.42385E-01 -8.76508E-02 -1.12808E-01
+2.96000E+10 +6.32834E-02 -1.38513E-01 -9.38528E-01 +2.75016E-01 -1.00670E+00 +2.47892E-01 -2.99051E-02 -1.97521E-01
+2.97000E+10 -6.74181E-02 -9.85995E-02 -9.20513E-01 +3.22343E-01 -1.01473E+00 +2.36554E-01 -1.95542E-02 -1.19614E-01
+2.98000E+10 -5.41714E-02 -9.27477E-02 -9.70225E-01 +2.75095E-01 -9.42672E-01 +1.92077E-01 +1.04311E-02 -6.49350E-02
+2.99000E+10 +2.56314E-02 -3.93706E-02 -9.20256E-01 +2.85061E-01 -1.04565E+00 +2.56379E-01 -5.01453E-02 -9.25524E-02
+3.00000E+10 -3.76407E-02 -9.30971E-02 -9.33929E-01 +2.50788E-01 -9.61227E-01 +3.01494E-01 -2.87607E-02 -1.36650E-01
+3.01000E+10 +3.02090E-02 -1.07371E-01 -9.87496E-01 +2.80334E-01 -9.70535E-01 +2.46877E-01 +1.73769E-03 -4.15156E-02
+3.02000E+10 +1.09608E-03 -1.98686E-01 -9.18873E-01 +3.76736E-01 -9.19166E-01 +2.39711E-01 +3.26042E-02 -1.29062E-01
+3.03000E+10 -5.44870E-03 -1.10682E-01 -9.35450E-01 +2.91008E-01 -8.83459E-01 +3.20500E-01 -2.56150E-02 -9.37225E-02
+3.04000E+10 +4.66736E-02 -1.24421E-01 -9.53333E-01 +2.74918E-01 -9.01346E-01 +3.67533E-01 +5.54381E-03 -1.05587E-01
+3.05000E+10 +2.55549E-02 -1.40717E-01 -7.98818E-01 +4.07793E-01 -8.94228E-01 +3.75153E-01 -1.13512E-01 -1.24981E-01
+3.06000E+10 -4.02576E-03 -1.30367E-01 -8.76691E-01 +4.37610E-01 -8.47778E-01 +3.43928E-01 -2.05560E-02 -1.24396E-01
+3.07000E+10 +6.58746E-03 -1.57762E-01 -9.14186E-01 +2.28473E-01 -8.25768E-01 +4.01449E-01 -4.99287E-02 -1.79332E-01
+3.08000E+10 +4.40802E-02 -3.89520E-02 -9.94082E-01 +3.25250E-01 -8.63376E-01 +3.20044E-01 -1.31827E-02 +2.79990E-02
+3.09000E+10 +2.34693E-02 -1.55336E-01 -8.64524E-01 +3.17370E-01 -8.64411E-01 +4.87647E-01 -7.98229E-02 -8.11146E-02
+3.10000E+10 -9.99291E-02 -4.54650E-02 -8.42268E-01 +3.54986E-01 -8.75658E-01 +3.74281E-01 -1.75712E-01 -3.87693E-02
+3.11000E+10 +6.32026E-03 -1.42919E-01 -9.07225E-01 +3.38692E-01 -8.91393E-01 +3.63068E-01 -7.05103E-02 -8.18702E-02
+3.12000E+10 -4.39742E-02 -1.01961E-01 -8.92105E-01 +4.79382E-01 -9.22870E-01 +3.68156E-01 +1.59005E-02 -1.23564E-01
+3.13000E+10 +1.40327E-01 -1.19568E-01 -9.43298E-01 +4.92384E-01 -9.25549E-01 +3.94154E-01 -4.06316E-02 -2.01946E-01
+3.14000E+10 +4.54549E-02 -1.85429E-01 -8.63442E-01 +4.24610E-01 -8.49277E-01 +4.04130E-01 -6.80751E-02 -8.65737E-02
+3.15000E+10 +6.46253E-02 -7.64676E-02 -8.13551E-01 +4.75106E-01 -8.05622E-01 +5.03319E-01 -7.17457E-03 -1.43265E-01
+3.16000E+10 -2.75732E-02 -7.94007E-02 -8.25282E-01 +4.56276E-01 -7.99006E-01 +4.48103E-01 -6.35532E-02 -1.06951E-01
+3.17000E+10 +5.48933E-02 -1.00379E-01 -8.75765E-01 +4.59728E-01 -8.84187E-01 +5.40984E-01 -1.36501E-03 -1.66512E-01
+3.18000E+10 +7.18675E-02 -1.62685E-01 -8.59647E-01 +4.43119E-01 -8.57460E-01 +4.65905E-01 +4.28096E-02 -6.81431E-02
+3.19000E+10 +8.88500E-03 -4.63858E-02 -8.76448E-01 +4.03546E-01 -8.54345E-01 +5.07758E-01 +2.13622E-02 -3.80925E-03
+3.20000E+10 +8.78734E-02 -1.57213E-01 -9.28396E-01 +5.67263E-01 -7.90119E-01 +5.04096E-01 -2.68122E-02 -1.21636E-01
+3.21000E+10 +4.00614E-02 -5.44813E-02 -9.66169E-01 +5.53622E-01 -8.95121E-01 +5.09073E-01 -8.29502E-02 -1.36085E-01
+3.22000E+10 +8.06385E-02 -9.36218E-02 -8.59808E-01 +5.21654E-01 -7.38531E-01 +4.15573E-01 -1.64134E-01 -1.88692E-01
+3.23000E+10 +1.20155E-01 -7.10575E-02 -7.50020E-01 +5.25805E-01 -8.28796E-01 +5.02340E-01 -4.61609E-02 -5.05388E-02
+3.24000E+10 -3.07026E-02 -1.64072E-01 -8.71355E-01 +5.78527E-01 -7.30719E-01 +4.96654E-01 -1.43032E-01 -3.12349E-02
+3.25000E+10 +5.43090E-03 -2.00204E-01 -7.88831E-01 +5.38035E-01 -8.21927E-01 +5.31284E-01 -5.91335E-02 -1.06817E-01
+3.26000E+10 -3.28584E-02 -1.43713E-01 -8.69170E-01 +5.31103E-01 -8.50625E-01 +5.88390E-01 +2.40017E-04 -2.65012E-02
+3.27000E+10 -2.30566E-02 -5.48985E-02 -8.40364E-01 +4.70420E-01 -7.14220E-01 +6.35963E-01 -1.20839E-01 -1.14133E-01
+3.28000E+10 -3.76990E-02 -6.40510E-02 -8.43780E-01 +4.58194E-01 -7.96769E-01 +5.08905E-01 -1.43387E-01 -6.54619E-02
+3.29000E+10 +1.99733E-02 -9.74435E-02 -7.78976E-01 +5.59090E-01 -9.28639E-01 +6.81625E-01 +2.19009E-02 -6.32715E-02
+3.30000E+10 -2.20333E-02 -1.44711E-01 -8.38262E-01 +6.01700E-01 -8.31329E-01 +6.92538E-01 +1.16574E-01 -1.40630E-01
+3.31000E+10 -1.28933E-02 -1.42187E-01 -7.49280E-01 +5.92205E-01 -8.69842E-01 +5.94562E-01 +5.39991E-02 -3.26083E-02
+3.32000E+10 -1.22102E-02 -1.55175E-01 -7.85420E-01 +6.12279E-01 -6.69551E-01 +6.33238E-01 +5.72829E-03 -6.12148E-02
+3.33000E+10 -4.54322E-02 -9.67334E-02 -7.49226E-01 +6.19009E-01 -7.26546E-01 +7.07281E-01 -1.10879E-02 -3.64355E-02
+3.34000E+10 +1.43089E-01 -9.80440E-02 -7.38818E-01 +6.42682E-01 -7.52115E-01 +7.26419E-01 -1.88120E-01 -2.60323E-02
+3.35000E+10 +1.26614E-01 -1.56407E-01 -7.92802E-01 +5.58323E-01 -6.56162E-01 +7.32094E-01 +7.61595E-02 -3.27209E-02
+3.36000E+10 +1.76472E-01 -1.11813E-01 -7.27161E-01 +6.41072E-01 -7.71166E-01 +5.75879E-01 -1.74101E-02 -3.95487E-02
+3.37000E+10 +1.26178E-01 -9.99619E-02 -8.37813E-01 +7.41498E-01 -7.98638E-01 +6.58013E-01 -1.10119E-01 -8.67696E-02
+3.38000E+10 +4.44733E-02 -1.79753E-01 -7.36241E-01 +6.77181E-01 -6.69666E-01 +7.61727E-01 -8.29669E-02 -5.26988E-02
+3.39000E+10 +9.35170E-02 -1.05120E-01 -6.52588E-01 +6.57272E-01 -7.64282E-01 +6.10586E-01 -5.69138E-02 -8.01342E-02
+3.40000E+10 +4.23846E-02 -1.16829E-01 -7.12200E-01 +6.32906E-01 -8.25145E-01 +7.91590E-01 -5.11203E-02 -1.68052E-01
+3.41000E+10 -4.14742E-02 -7.59413E-04 -7.34057E-01 +6.71093E-01 -7.28141E-01 +6.79144E-01 -4.57973E-02 -1.02040E-01
+3.42000E+10 +9.33622E-02 -1.23963E-01 -8.23739E-01 +7.58325E-01 -5.52936E-01 +7.50948E-01 -8.63018E-02 -2.60179E-02
+3.43000E+10 -1.16580E-01 -1.95474E-01 -5.43843E-01 +6.16247E-01 -6.85978E-01 +7.26082E-01 -6.71647E-02 -1.64352E-01
+3.44000E+10 +5.78741E-02 -1.97527E-01 -5.48961E-01 +6.78406E-01 -7.46754E-01 +6.44899E-01 +2.68630E-02 -1.42927E-02
+3.45000E+10 +3.02060E-02 -8.00593E-02 -6.18469E-01 +6.41056E-01 -6.77216E-01 +6.67997E-01 -8.81836E-03 -5.91481E-02
+3.46000E+10 +5.64975E-02 -2.22444E-01 -7.44563E-01 +6.80776E-01 -6.91926E-01 +6.71860E-01 -4.77797E-02 -1.15625E-01
+3.47000E+10 +5.14677E-02 -7.59392E-02 -6.56493E-01 +7.03984E-01 -7.19780E-01 +7.16924E-01 -1.65643E-02 -2.17766E-02
+3.48000E+10 +5.00141E-02 -2.92275E-01 -5.21748E-01 +7.82266E-01 -5.80825E-01 +6.54428E-01 -4.95432E-02 -1.37749E-01
+3.49000E+10 +2.32022E-02 -9.15749E-02 -6.86697E-01 +5.99881E-01 -6.35984E-01 +8.01003E-01 -5.83148E-02 +1.15839E-01
+3.50000E+10 +9.06884E-02 -1.45710E-01 -6.19546E-01 +7.71033E-01 -6.50312E-01 +6.77137E-01 -1.03932E-01 +4.53915E-02
+3.51000E+10 +7.49401E-02 -1.03665E-01 -6.66825E-01 +7.10660E-01 -5.78556E-01 +8.97703E-01 -6.36657E-03 -6.96145E-02
+3.52000E+10 +1.09509E-02 -7.82246E-02 -5.02779E-01 +6.92378E-01 -5.50651E-01 +8.44275E-01 -1.10179E-01 -6.05514E-02
+3.53000E+10 -4.86271E-03 -1.45850E-01 -5.80414E-01 +7.84579E-01 -6.58397E-01 +9.01059E-01 +7.96631E-03 -9.35404E-02
+3.54000E+10 +8.51952E-02 -1.40027E-01 -5.29746E-01 +7.58634E-01 -5.25394E-01 +7.65570E-01 -8.86394E-02 +7.59966E-03
+3.55000E+10 -3.67537E-02 +1.79184E-02 -7.10398E-01 +6.04406E-01 -5.46938E-01 +8.50167E-01 -1.45266E-01 +2.73063E-02
+3.56000E+10 +9.84252E-03 -1.19211E-01 -5.74003E-01 +7.40700E-01 -5.60818E-01 +6.97130E-01 -6.35503E-02 -1.45721E-01
+3.57000E+10 -7.24840E-02 -1.32229E-01 -5.97420E-01 +7.77704E-01 -5.22632E-01 +8.89630E-01 +1.08425E-01 -1.19997E-01
+3.58000E+10 +1.13228E-01 -1.93960E-02 -6.20100E-01 +8.09729E-01 -6.08777E-01 +8.74223E-01 +1.96836E-02 -6.28541E-02
+3.59000E+10 +5.37899E-02 -3.27445E-01 -5.92772E-01 +1.04748E+00 -5.68329E-01 +7.52521E-01 -2.06466E-01 -1.28064E-01
+3.60000E+10 +2.89926E-02 -1.73121E-01 -6.87326E-01 +9.17143E-01 -5.44106E-01 +7.68223E-01 +9.32390E-02 +7.31808E-02
+3.61000E+10 +5.88481E-02 -1.92544E-01 -4.81453E-01 +9.30974E-01 -5.86437E-01 +8.54146E-01 +6.54058E-02 -1.24776E-01
+3.62000E+10 -6.94091E-02 -4.74156E-02 -5.99723E-01 +8.41773E-01 -3.73280E-01 +7.91319E-01 -1.53460E-01 -1.13286E-01
+3.63000E+10 +9.82041E-02 -8.27531E-02 -5.88745E-01 +7.43135E-01 -5.20904E-01 +6.58112E-01 +1.27047E-02 -7.41231E-03
+3.64000E+10 +1.13186E-01 -1.38533E-01 -3.62669E-01 +8.86618E-01 -4.54027E-01 +9.33372E-01 -1.17970E-01 -1.04785E-01
+3.65000E+10 -2.60925E-02 -3.01246E-01 -2.66452E-01 +8.87635E-01 -5.35642E-01 +9.83532E-01 +3.77505E-02 +6.96625E-02
+3.66000E+10 +8.19601E-03 -1.95114E-02 -3.52240E-01 +7.00805E-01 -5.53281E-01 +7.33808E-01 -5.39263E-02 -9.96665E-02
+3.67000E+10 +3.03780E-02 -1.89643E-01 -3.10180E-01 +9.50205E-01 -4.68101E-01 +9.86332E-01 -9.52849E-02 +5.60693E-02
+3.68000E+10 -8.63022E-02 -2.79719E-01 -2.10020E-01 +9.06773E-01 -2.92379E-01 +9.59023E-01 -1.74422E-01 -2.73978E-02
+3.69000E+10 +5.98730E-02 -1.27907E-01 -4.51720E-01 +8.51965E-01 -4.58893E-01 +9.18742E-01 +7.73297E-02 -1.23335E-01
+3.70000E+10 +5.65656E-04 -2.88039E-01 -3.82723E-01 +8.70488E-01 -5.66588E-01 +1.00251E+00 -1.29698E-01 -2.56888E-02
+3.71000E+10 -3.61928E-02 -2.88040E-01 -3.57182E-01 +1.05866E+00 -4.97713E-01 +8.93319E-01 -5.98033E-02 -8.91582E-02
+3.72000E+10 +3.50472E-02 -2.23496E-02 -2.66691E-01 +9.92023E-01 -4.69577E-01 +8.32488E-01 -3.92493E-02 -3.63733E-02
+3.73000E+10 +1.26719E-01 -9.76649E-02 -3.77582E-01 +8.98353E-01 -4.30731E-01 +8.89025E-01 +6.52611E-02 -3.17920E-02
+3.74000E+10 +1.46742E-01 -1.69267E-01 -4.81021E-01 +9.77148E-01 -4.47477E-01 +1.13081E+00 -1.69508E-01 -1.36673E-01
+3.75000E+10 +1.02929E-01 -7.99839E-02 -4.37691E-01 +8.96228E-01 -5.70770E-01 +7.44564E-01 +2.69369E-02 -1.46381E-01
+3.76000E+10 -1.55097E-02 -1.03305E-01 -3.64856E-01 +1.04126E+00 -3.52346E-01 +9.41998E-01 -1.42251E-01 -5.78429E-02
+3.77000E+10 -1.05912E-01 -2.13927E-01 -2.59880E-01 +9.84162E-01 -2.41422E-01 +9.91823E-01 +3.81363E-02 -1.72634E-01
+3.78000E+10 -1.44732E-01 -1.63855E-01 -4.14436E-01 +9.14664E-01 -4.77904E-01 +9.45332E-01 -1.09679E-01 +1.03150E-01
+3.79000E+10 +9.88468E-02 -1.47344E-01 -5.06869E-01 +9.21001E-01 -4.29686E-01 +9.88366E-01 -6.07967E-02 +8.86223E-03
+3.80000E+10 +1.51212E-01 -2.44688E-01 -4.04125E-01 +7.61639E-01 -4.62992E-01 +9.38036E-01 +6.10997E-02 +1.23595E-01
+3.81000E+10 -7.26420E-03 -2.37584E-01 -3.02141E-01 +8.40354E-01 -2.73992E-01 +8.62498E-01 -1.02946E-01 -8.96858E-02
+3.82000E+10 -6.88293E-02 -3.84577E-02 -2.48624E-01 +9.87646E-01 -4.37529E-01 +7.93912E-01 +4.26165E-03 +1.45608E-02
+3.83000E+10 -2.84214E-02 -1.53489E-01 -3.60382E-01 +8.88808E-01 -3.41162E-01 +1.15565E+00 +5.10935E-02 -6.34981E-02
+3.84000E+10 +1.88676E-01 -3.18874E-02 -2.43309E-01 +8.85722E-01 -3.29378E-01 +9.92079E-01 -6.21536E-02 +8.19167E-02
+3.85000E+10 +1.32365E-01 -1.75950E-01 -2.68423E-01 +7.99881E-01 -3.26140E-01 +9.56580E-01 -2.86194E-01 -4.96956E-02
+3.86000E+10 -2.20870E-02 +3.71781E-03 -2.91502E-01 +1.01977E+00 -3.38838E-01 +1.03459E+00 -1.07528E-01 +3.94833E-02
+3.87000E+10 +1.43211E-01 -2.96690E-01 -3.69025E-01 +8.95946E-01 -3.39894E-01 +9.63444E-01 +6.73208E-02 +6.24390E-02
+3.88000E+10 +5.43757E-02 -1.63441E-01 -3.18978E-01 +9.18625E-01 -2.35577E-01 +1.05107E+00 +9.98447E-02 -9.20450E-02
+3.89000E+10 +1.08265E-02 -8.14627E-02 -4.33182E-01 +1.02574E+00 -1.65565E-01 +8.99075E-01 +6.56218E-02 -2.40617E-02
+3.90000E+10 -2.20685E-02 -1.32721E-01 -1.61525E-01 +9.89903E-01 -4.76563E-01 +1.02639E+00 -8.81437E-02 +2.08965E-01
+3.91000E+10 +9.80471E-02 -1.96003E-01 -3.75671E-01 +1.01720E+00 -1.18594E-01 +8.76388E-01 -1.03560E-02 -4.08041E-02
+3.92000E+10 +5.79491E-02 -4.21969E-01 -1.65311E-01 +9.67165E-01 -1.74169E-01 +9.72936E-01 -8.21335E-02 -1.77864E-01
+3.93000E+10 -1.74460E-03 -2.23019E-01 -9.41541E-02 +8.68440E-01 -2.29774E-01 +1.07488E+00 -7.25163E-02 -8.26309E-02
+3.94000E+10 +2.63700E-01 -2.47524E-01 -2.96269E-01 +9.19203E-01 -1.26933E-01 +1.04151E+00 -1.77338E-01 +5.30694E-03
+3.95000E+10 +1.94518E-02 -1.64616E-01 -1.84718E-01 +1.00696E+00 -1.96650E-01 +9.93650E-01 +1.32630E-01 +2.60070E-01
+3.96000E+10 -6.82926E-02 -6.10088E-03 -3.20701E-01 +8.32680E-01 -2.77820E-01 +8.52660E-01 +3.86050E-01 +1.44071E-02
+3.97000E+10 +1.06079E-01 +2.50308E-02 -2.10690E-01 +8.61958E-01 -2.12674E-01 +1.02335E+00 -1.73391E-02 +8.85035E-02
+3.98000E+10 +1.72889E-01 -2.55977E-01 -2.60762E-01 +1.04627E+00 -1.11859E-01 +8.13293E-01 -9.68123E-02 +2.50387E-01
+3.99000E+10 +1.04780E-01 -1.27294E-01 -1.25165E-01 +9.64753E-01 -3.90690E-01 +8.97173E-01 -2.43832E-02 +5.76846E-02
+4.00000E+10 +1.35423E-01 -3.49492E-01 -2.09587E-01 +1.03188E+00 -2.24332E-01 +1.00029E+00 -2.44911E-02 +1.33211E-01
