! Quiescent point : V1=-1.63289E-02 I1=+1.29106E-03 V2=-2.21139E-02 I2=-1.29472E-03
! Pulsed point : V1=-1.58884E-02 I1=+1.29271E-03 V2=-2.14235E-02 I2=-1.27756E-03
! Period : +2.00000E-04
! Input Supply timing : delay=+1.60000E-06 width=+2.20000E-06
! Output Supply timing : delay=+1.70000E-06 width=+2.00000E-06
! VNA timing : delay=+2.40000E-06 width=+1.10000E-06
# Hz S RI R 50
+2.70000E+10 -3.67912E-02 -9.42330E-02 -9.82017E-01 -3.32305E-02 -9.43303E-01 -3.50677E-02 +3.01963E-02 -1.34066E-01
+2.71000E+10 +3.69131E-02 -1.25284E-01 -1.02055E+00 -4.37768E-02 -9.97644E-01 -3.68327E-02 -1.94753E-02 -9.94354E-02
+2.72000E+10 +2.30831E-02 -6.85170E-02 -9.89302E-01 -4.22558E-02 -1.02724E+00 -3.42097E-02 -1.90607E-02 -2.12478E-01
+2.73000E+10 -7.27385E-03 -1.87957E-01 -1.01079E+00 -2.50484E-02 -9.84131E-01 -3.82878E-02 -4.44961E-02 -1.05439E-01
+2.74000E+10 -2.80199E-02 -7.27916E-02 -9.84025E-01 +9.42285E-02 -1.00751E+00 -4.04176E-02 +1.24326E-02 -1.43622E-01
+2.75000E+10 +4.79637E-02 -6.75545E-02 -9.75340E-01 -2.15055E-02 -1.02170E+00 +3.08302E-02 +2.14121E-02 -9.98565E-02
+2.76000E+10 -1.07573E-02 -1.07290E-01 -9.34132E-01 +7.36838E-02 -1.00850E+00 +4.59777E-02 -4.72126E-03 -1.64998E-01
+2.77000E+10 +1.30103E-03 -1.34222E-01 -9.64650E-01 +9.00715E-02 -9.64350E-01 -5.41963E-02 +5.91200E-02 -9.16458E-02
+2.78000E+10 -7.30982E-02 -1.16187E-01 -9.52067E-01 +2.21966E-02 -9.99760E-01 +8.88259E-02 -6.16653E-02 -5.15152E-02
+2.79000E+10 -4.46009E-02 -9.31178E-02 -9.35278E-01 +7.49477E-02 -1.05921E+00 +1.33528E-01 +7.87843E-03 -1.47429E-01
+2.80000E+10 +2.03732E-02 -2.02732E-02 -9.87922E-01 +2.03371E-01 -9.54638E-01 +3.59593E-02 -8.27982E-02 -1.67104E-01
+2.81000E+10 -3.25291E-02 -3.40434E-02 -1.03789E+00 +9.55751E-02 -9.38139E-01 +4.37627E-02 +2.60175E-02 -1.05552E-01
+2.82000E+10 -1.25299E-02 -9.10998E-02 -9.32062E-01 +7.09896E-02 -1.02492E+00 +1.68647E-01 +9.04233E-03 -1.18605E-01
+2.83000E+10 +5.67775E-03 -1.48824E-01 -1.00517E+00 +2.31052E-01 -9.27458E-01 +2.86814E-03 -3.41191E-02 -1.23909E-02
+2.84000E+10 -6.69761E-02 -1.48818E-01 -9.51154E-01 +1.57487E-01 -1.02721E+00 +7.75040E-02 -1.91933E-02 -8.88572E-02
+2.85000E+10 +3.18990E-02 -8.71785E-02 -9.63803E-01 +8.82996E-02 -9.10348E-01 +1.48259E-01 -5.34292E-02 -1.38352E-01
+2.86000E+10 +4.69055E-02 -1.44414E-01 -9.84782E-01 +1.50555E-01 -1.04480E+00 +8.69085E-02 +1.01100E-02 -8.65662E-02
+2.87000E+10 -2.16100E-03 -1.68385E-01 -9.54504E-01 +2.30651E-01 -9.31867E-01 +1.61679E-01 -5.88815E-02 -1.27360E-01
+2.88000E+10 -2.46763E-02 -1.29718E-01 -8.91363E-01 +1.28121E-01 -8.99991E-01 +1.89019E-01 -9.52009E-02 +1.95175E-02
+2.89000E+10 -3.42976E-02 -1.07801E-01 -9.46452E-01 +2.24722E-01 -9.30489E-01 +1.77758E-01 -9.09897E-02 -1.29336E-01
+2.90000E+10 +9.47199E-02 -1.34050E-01 -1.03853E+00 +1.72255E-01 -1.02368E+00 +1.98324E-01 -1.17243E-02 -1.42874E-01
+2.91000E+10 +6.92818E-02 -1.26931E-01 -9.38049E-01 +1.68629E-01 -9.03138E-01 +2.16456E-01 -1.50844E-02 -1.23620E-01
+2.92000E+10 +1.04635E-01 -1.14415E-01 -1.02753E+00 +1.61241E-01 -9.17424E-01 +2.12204E-01 -6.44020E-02 -8.05221E-02
+2.93000E+10 -1.84437E-02 -1.55708E-01 -8.84665E-01 +3.14477E-01 -9.13159E-01 +2.52023E-01 -1.22483E-01 -9.65275E-02
+2.94000E+10 +6.66569E-02 -1.10058E-01 -9.20739E-01 +2.12867E-01 -9.32243E-01 +2.89281E-01 -3.40011E-02 -1.31116E-01
+2.95000E+10 +6.38325E-03 -7.56760E-02 -9.25478E-01 +2.34677E-01 -9.21626E-01 +2.37521E-01 -7.22547E-02 -1.85110E-02
+2.96000E+10 -2.04487E-02 -1.39445E-01 -9.20400E-01 +2.52379E-01 -9.23411E-01 +3.47567E-01 -9.31857E-02 -4.89724E-02
+2.97000E+10 -3.58297E-02 -6.36746E-02 -9.72262E-01 +3.76985E-01 -9.73081E-01 +2.67027E-01 -5.37872E-02 -8.62038E-02
+2.98000E+10 -1.44626E-02 -7.92109E-02 -1.05170E+00 +3.47785E-01 -9.16412E-01 +2.41651E-01 +1.64092E-02 -6.82604E-02
+2.99000E+10 +3.60862E-02 -1.51091E-01 -9.82338E-01 +2.99244E-01 -9.15292E-01 +2.86924E-01 -5.65770E-02 -7.68224E-02
+3.00000E+10 -1.03256E-01 -1.18957E-01 -9.06945E-01 +2.53586E-01 -9.25042E-01 +3.22527E-01 -1.25613E-01 -1.28062E-01
+3.01000E+10 -5.30359E-02 -1.65302E-01 -9.21211E-01 +3.03404E-01 -8.71696E-01 +3.01307E-01 -1.32709E-01 -1.38913E-01
+3.02000E+10 +4.00658E-02 -1.46578E-01 -8.47371E-01 +2.90273E-01 -9.28000E-01 +3.09760E-01 -8.03351E-02 -3.90877E-02
+3.03000E+10 +1.25603E-03 -3.84814E-02 -9.08608E-01 +3.17765E-01 -9.70110E-01 +3.38069E-01 -2.21995E-03 -8.80176E-02
+3.04000E+10 -1.69481E-02 -1.68739E-01 -9.18551E-01 +2.63598E-01 -8.59247E-01 +3.70996E-01 -3.92410E-02 -1.25799E-01
+3.05000E+10 -2.01048E-02 -1.60908E-01 -8.88833E-01 +4.01997E-01 -9.40038E-01 +3.60802E-01 -5.94870E-02 -6.99249E-02
+3.06000E+10 +6.66722E-02 -2.17625E-02 -8.24615E-01 +4.10456E-01 -8.81621E-01 +2.93850E-01 -2.40891E-02 -4.87870E-02
+3.07000E+10 +3.93936E-02 -1.70663E-01 -8.62412E-01 +3.73738E-01 -9.23189E-01 +3.85882E-01 -6.97997E-02 -5.99587E-02
+3.08000E+10 +3.57993E-02 -1.67578E-01 -9.08140E-01 +3.48063E-01 -9.68631E-01 +4.46535E-01 -5.98644E-02 -1.16119E-01
+3.09000E+10 +6.72657E-03 -1.09228E-01 -9.56477E-01 +4.12687E-01 -9.40541E-01 +4.13724E-01 -3.94662E-02 -1.94401E-01
+3.10000E+10 -9.87448E-02 -1.24835E-01 -8.64794E-01 +3.99896E-01 -9.52242E-01 +4.46195E-01 -5.30058E-02 -7.49533E-03
+3.11000E+10 -6.37334E-02 -1.46423E-01 -9.92432E-01 +3.82051E-01 -8.89611E-01 +4.46572E-01 -1.14689E-01 -1.10517E-01
+3.12000E+10 -1.04431E-01 -1.60767E-01 -9.41424E-01 +5.33480E-01 -9.44200E-01 +3.97238E-01 +4.87202E-03 -7.77884E-02
+3.13000E+10 +2.66341E-02 -9.21689E-02 -9.21222E-01 +4.81824E-01 -8.52100E-01 +3.67966E-01 -6.69773E-02 -5.51869E-02
+3.14000E+10 +3.84994E-02 -6.18898E-02 -8.45885E-01 +2.87057E-01 -8.69490E-01 +4.46737E-01 -1.24938E-01 -1.38676E-01
+3.15000E+10 +2.54200E-02 -2.20835E-01 -7.50303E-01 +4.93837E-01 -8.21674E-01 +4.65753E-01 -1.35173E-01 -2.04964E-01
+3.16000E+10 +1.28612E-02 -1.03349E-01 -8.37093E-01 +4.79607E-01 -7.99451E-01 +5.09013E-01 -1.77970E-01 -6.02471E-02
+3.17000E+10 -4.57859E-02 -1.26569E-01 -7.59399E-01 +5.13947E-01 -8.73170E-01 +4.94642E-01 -1.38733E-01 -1.46731E-01
+3.18000E+10 -3.25584E-02 -1.70254E-01 -8.16960E-01 +3.90844E-01 -8.04830E-01 +4.78775E-01 -1.12847E-02 -4.14464E-02
+3.19000E+10 +3.50114E-02 -8.78966E-02 -8.48646E-01 +4.94126E-01 -7.71937E-01 +4.50611E-01 -1.04217E-01 -1.08418E-01
+3.20000E+10 -1.97789E-02 -2.24634E-01 -8.85544E-01 +4.84260E-01 -8.97689E-01 +4.76589E-01 -9.57440E-02 -9.47393E-02
+3.21000E+10 -2.99207E-03 -5.87652E-02 -7.88759E-01 +5.98824E-01 -7.46061E-01 +5.04778E-01 -1.64648E-01 +1.72756E-02
+3.22000E+10 +2.50529E-02 -1.75465E-01 -7.50646E-01 +5.14228E-01 -8.02237E-01 +5.98595E-01 -1.69583E-01 -1.12154E-02
+3.23000E+10 +3.03463E-02 -8.58015E-02 -7.93679E-01 +4.99718E-01 -8.41400E-01 +5.12779E-01 -4.97873E-02 -4.85781E-02
+3.24000E+10 -1.22287E-01 -1.89277E-01 -7.36706E-01 +5.63435E-01 -8.45935E-01 +6.16794E-01 -1.44301E-01 -4.99881E-02
+3.25000E+10 -6.01314E-02 -1.51229E-01 -8.01331E-01 +5.14493E-01 -8.21082E-01 +5.62873E-01 -1.14013E-01 -6.06448E-02
+3.26000E+10 +1.33944E-01 -1.80926E-01 -8.42098E-01 +5.05554E-01 -7.59482E-01 +6.18768E-01 -9.38708E-02 -3.80052E-03
+3.27000E+10 -4.50589E-02 -1.27862E-01 -6.25504E-01 +6.04032E-01 -8.00109E-01 +5.24930E-01 -2.42301E-03 -1.26454E-01
+3.28000E+10 +6.36479E-02 -2.29078E-01 -7.93805E-01 +5.06496E-01 -7.74844E-01 +5.50168E-01 -1.69448E-02 -1.16917E-01
+3.29000E+10 -8.58609E-02 -1.69597E-01 -8.41407E-01 +6.32339E-01 -8.11055E-01 +5.53111E-01 -1.15458E-02 -2.66204E-01
+3.30000E+10 -2.80871E-02 -1.55740E-01 -7.64821E-01 +6.02679E-01 -7.41879E-01 +6.97674E-01 -9.37491E-02 -4.80698E-02
+3.31000E+10 +3.47618E-03 -2.15416E-01 -6.51671E-01 +6.02467E-01 -7.91627E-01 +5.50606E-01 -5.49094E-02 -1.35516E-01
+3.32000E+10 -1.67810E-02 -1.49302E-01 -8.76882E-01 +5.36592E-01 -7.41375E-01 +5.85636E-01 -3.47869E-02 -6.77442E-02
+3.33000E+10 +5.07403E-02 -8.29948E-03 -7.38878E-01 +6.14766E-01 -7.74403E-01 +5.59302E-01 +5.81651E-03 +7.53063E-03
+3.34000E+10 +1.00082E-01 -1.26865E-01 -8.05696E-01 +6.86123E-01 -8.07310E-01 +5.15204E-01 +2.06841E-03 -4.60873E-02
+3.35000E+10 +1.22475E-01 -1.71580E-01 -6.84488E-01 +6.30925E-01 -7.19470E-01 +6.71551E-01 -2.72640E-01 -5.41538E-02
+3.36000E+10 +1.04020E-01 -1.48544E-01 -6.80694E-01 +6.59965E-01 -8.39804E-01 +7.41220E-01 -9.81585E-03 -2.39630E-01
+3.37000E+10 -5.91932E-03 -1.68301E-01 -6.80891E-01 +6.11502E-01 -6.80854E-01 +6.29540E-01 -1.52203E-01 -9.80689E-02
+3.38000E+10 +1.29766E-01 -1.56008E-01 -7.40323E-01 +7.03128E-01 -7.42823E-01 +7.04981E-01 -1.03856E-01 +6.13670E-03
+3.39000E+10 +1.00481E-02 +4.79145E-02 -6.71444E-01 +4.64759E-01 -6.66164E-01 +6.78288E-01 -8.64254E-02 +2.17290E-02
+3.40000E+10 +7.17253E-02 -1.20076E-01 -7.22782E-01 +7.14351E-01 -7.17742E-01 +6.50583E-01 -1.33378E-01 -8.66348E-05
+3.41000E+10 +1.18699E-01 -4.40872E-02 -8.79205E-01 +8.45492E-01 -7.26567E-01 +7.61273E-01 -3.73828E-02 +8.76878E-02
+3.42000E+10 +9.37519E-02 -1.07011E-01 -7.98582E-01 +7.43893E-01 -7.27750E-01 +6.87916E-01 -2.51255E-02 -1.19935E-01
+3.43000E+10 +3.80192E-02 -1.93257E-01 -7.01498E-01 +7.17634E-01 -7.00062E-01 +6.11344E-01 -3.68476E-02 -5.60907E-02
+3.44000E+10 +2.37878E-02 -2.33316E-01 -5.29285E-01 +6.64228E-01 -7.37150E-01 +6.90287E-01 -1.17112E-01 -5.10310E-02
+3.45000E+10 +8.14188E-02 -8.95665E-02 -6.70190E-01 +6.73252E-01 -6.83045E-01 +8.47444E-01 -1.27870E-01 -6.32273E-02
+3.46000E+10 -4.03982E-02 -2.58656E-01 -5.38885E-01 +8.33799E-01 -5.94805E-01 +5.85520E-01 -9.48248E-02 +6.28297E-02
+3.47000E+10 +1.72662E-02 -2.84639E-01 -4.81664E-01 +7.89356E-01 -6.55932E-01 +8.34311E-01 -1.52497E-01 -1.17554E-01
+3.48000E+10 +7.35078E-02 -2.16285E-01 -6.06883E-01 +7.31360E-01 -6.78463E-01 +7.38047E-01 -1.42330E-02 +1.77709E-02
+3.49000E+10 +9.49015E-02 -5.52924E-02 -6.31784E-01 +7.40486E-01 -7.04973E-01 +7.15464E-01 -9.56703E-02 -6.17714E-02
+3.50000E+10 +2.93050E-02 -2.11730E-01 -5.91193E-01 +7.39775E-01 -6.63390E-01 +8.01670E-01 -1.11036E-01 -1.24882E-01
+3.51000E+10 -6.35687E-02 -1.95292E-01 -6.48577E-01 +7.13899E-01 -5.88581E-01 +8.19298E-01 -1.12584E-01 -3.36808E-02
+3.52000E+10 +6.82984E-02 -1.52629E-01 -5.15665E-01 +8.93726E-01 -6.70568E-01 +7.11738E-01 +4.21074E-02 -5.78901E-02
+3.53000E+10 -5.37862E-02 -1.94472E-01 -5.29332E-01 +7.14728E-01 -5.86464E-01 +8.57245E-01 -1.86858E-01 +1.06823E-01
+3.54000E+10 -9.91126E-02 -1.54574E-01 -6.05255E-01 +8.35586E-01 -5.15639E-01 +7.25684E-01 -8.39068E-02 +1.35882E-02
+3.55000E+10 +1.58669E-01 -1.53250E-01 -5.72986E-01 +8.29045E-01 -5.13620E-01 +8.20401E-01 -1.02417E-01 -1.45049E-02
+3.56000E+10 +7.82021E-03 -1.24345E-01 -7.10962E-01 +8.59497E-01 -5.30206E-01 +8.24824E-01 -7.22373E-02 +1.22916E-01
+3.57000E+10 -1.33389E-01 -2.27963E-01 -5.97092E-01 +7.87328E-01 -5.08679E-01 +7.75642E-01 -3.97047E-02 +3.26154E-02
+3.58000E+10 -5.46457E-02 -1.10525E-01 -5.88063E-01 +7.21580E-01 -4.51609E-01 +8.47569E-01 -7.56154E-02 +1.13761E-01
+3.59000E+10 -6.42524E-02 -2.19436E-01 -5.52051E-01 +8.14505E-01 -5.84705E-01 +9.10605E-01 -1.12744E-01 -2.19894E-01
+3.60000E+10 +1.69664E-02 -1.02557E-01 -5.27805E-01 +8.39255E-01 -6.57020E-01 +8.48579E-01 -1.19110E-01 +1.13300E-01
+3.61000E+10 -2.29649E-02 -3.12457E-01 -3.91413E-01 +7.16776E-01 -6.51211E-01 +9.09171E-01 -4.58198E-02 +7.96116E-02
+3.62000E+10 -7.71965E-02 -2.09090E-01 -4.66303E-01 +8.24125E-01 -5.33366E-01 +7.75170E-01 +1.85315E-02 +7.06914E-02
+3.63000E+10 -1.03090E-02 -1.68257E-01 -6.00052E-01 +8.12270E-01 -4.24984E-01 +9.44293E-01 -9.15764E-02 -1.88901E-01
+3.64000E+10 -1.26312E-01 -2.17409E-01 -5.43634E-01 +6.98244E-01 -5.24105E-01 +9.01612E-01 -2.14015E-02 -4.77265E-02
+3.65000E+10 +8.79871E-02 -3.52003E-02 -4.18190E-01 +8.58554E-01 -5.10617E-01 +7.67595E-01 -9.35186E-03 -1.57841E-01
+3.66000E+10 +1.03533E-01 -8.63848E-02 -4.39698E-01 +8.20814E-01 -5.98320E-01 +1.06917E+00 -7.49023E-02 -2.49093E-01
+3.67000E+10 +1.54383E-01 -1.66654E-01 -6.99787E-01 +9.54557E-01 -3.98990E-01 +8.92105E-01 +6.41972E-03 -2.27989E-01
+3.68000E+10 +2.03338E-02 -2.98700E-02 -2.78337E-01 +1.00121E+00 -5.50904E-01 +9.05486E-01 -2.02724E-01 -5.81699E-02
+3.69000E+10 +1.65641E-01 -2.53599E-01 -5.63439E-01 +9.43299E-01 -3.95417E-01 +9.30988E-01 +3.68970E-02 -4.90839E-02
+3.70000E+10 -1.28750E-03 -1.96929E-01 -4.90468E-01 +8.89020E-01 -4.27215E-01 +8.77792E-01 -1.55112E-01 +2.11261E-02
+3.71000E+10 +1.37090E-01 -3.10849E-01 -4.71056E-01 +1.07847E+00 -4.31315E-01 +1.00020E+00 +6.09969E-02 -1.19977E-01
+3.72000E+10 +2.49186E-02 -2.71296E-01 -4.17316E-01 +9.64267E-01 -2.98044E-01 +1.03077E+00 -2.76175E-02 -3.36980E-03
+3.73000E+10 -5.80974E-02 -1.48379E-01 -3.97775E-01 +9.24302E-01 -4.33738E-01 +9.76453E-01 -7.71323E-02 -1.22853E-01
+3.74000E+10 +6.03086E-03 -1.97239E-01 -4.21269E-01 +9.21665E-01 -3.97121E-01 +8.99560E-01 +2.89236E-02 -4.74811E-02
+3.75000E+10 +1.77159E-02 -4.49597E-01 -1.73794E-01 +1.10093E+00 -2.25723E-01 +8.83093E-01 +5.28753E-02 -5.94766E-02
+3.76000E+10 +2.07843E-01 -1.58870E-01 -3.29803E-01 +8.70839E-01 -3.10189E-01 +8.52936E-01 -6.92136E-02 +1.30243E-01
+3.77000E+10 +4.41944E-02 -1.32873E-01 -3.33553E-01 +9.12552E-01 -4.13225E-01 +7.98855E-01 +1.27883E-01 +8.39562E-02
+3.78000E+10 -1.71161E-02 -1.32618E-01 -4.28172E-01 +1.01614E+00 -4.43938E-01 +1.09276E+00 -7.53662E-02 -2.84034E-03
+3.79000E+10 +2.23116E-02 -1.06915E-01 -4.41559E-01 +8.98291E-01 -2.60353E-01 +9.44919E-01 -2.26976E-02 +9.59046E-02
+3.80000E+10 -7.83957E-02 -1.71088E-01 -3.37584E-01 +9.44335E-01 -3.41207E-01 +8.48938E-01 -1.45732E-01 -1.28073E-02
+3.81000E+10 +9.34488E-02 -9.21009E-02 -4.00051E-01 +8.60468E-01 -4.60003E-01 +7.90065E-01 +2.63637E-02 +2.04055E-02
+3.82000E+10 -1.75240E-01 -2.16509E-01 -3.54546E-01 +9.64508E-01 -4.08242E-01 +8.53950E-01 -1.31644E-01 +1.35142E-01
+3.83000E+10 -2.69298E-01 -1.56616E-01 -3.24993E-01 +8.99644E-01 -3.25992E-01 +8.42962E-01 -9.83226E-03 +1.41615E-01
+3.84000E+10 -1.28580E-02 -1.74650E-01 -2.72510E-01 +1.04258E+00 -5.86612E-02 +9.55844E-01 -3.43825E-02 +9.21985E-02
+3.85000E+10 -1.09081E-02 +5.78081E-02 -3.09742E-01 +9.33099E-01 -3.30861E-01 +9.29086E-01 -3.19509E-02 -3.98212E-02
+3.86000E+10 +6.71134E-02 -1.29312E-01 -1.43501E-01 +8.48464E-01 -3.73062E-01 +9.67620E-01 -1.44369E-01 +8.80003E-02
+3.87000E+10 -1.48686E-01 +9.59558E-02 -2.23001E-01 +9.81333E-01 -1.26289E-01 +1.11600E+00 -2.55762E-01 -9.35876E-02
+3.88000E+10 +1.79529E-01 -3.64041E-01 -2.85646E-01 +8.27833E-01 -2.15531E-01 +8.95341E-01 +9.55233E-02 +4.87564E-02
+3.89000E+10 -6.45768E-02 -2.29618E-01 -1.20419E-01 +1.02185E+00 -2.12537E-01 +1.04008E+00 -1.66711E-02 -1.65088E-02
+3.90000E+10 +2.70065E-03 -8.33603E-02 -2.40706E-01 +1.08148E+00 -1.98150E-01 +1.06488E+00 -4.99679E-02 -9.63780E-02
+3.91000E+10 +3.13280E-02 -3.57079E-01 -1.50210E-01 +1.04774E+00 -4.19019E-01 +7.54622E-01 -5.45986E-02 +7.65355E-02
+3.92000E+10 +1.22806E-01 -5.67645E-01 -2.12319E-01 +9.10216E-01 -1.96377E-01 +6.95835E-01 +2.84543E-02 +1.13179E-01
+3.93000E+10 -8.17167E-02 -2.25974E-01 -3.71453E-01 +1.00225E+00 -1.93885E-01 +1.04284E+00 +3.62189E-01 +3.68198E-03
+3.94000E+10 -9.48906E-02 -4.26644E-01 -4.35634E-02 +9.71273E-01 -1.80427E-01 +1.15296E+00 -1.79474E-01 +1.33738E-01
+3.95000E+10 -1.18056E-01 -1.53259E-01 -2.13816E-01 +1.06937E+00 -2.13325E-01 +1.02617E+00 -1.67226E-01 -3.32970E-01
+3.96000E+10 -1.81785E-01 -1.48820E-01 -1.66035E-01 +1.08798E+00 -2.40602E-01 +1.02993E+00 -8.00313E-02 +1.69126E-02
+3.97000E+10 +1.79638E-01 +2.71777E-03 -3.87135E-02 +8.31951E-01 -1.49382E-01 +8.27662E-01 -2.35043E-01 +1.12691E-01
+3.98000E+10 +1.17612E-01 -4.02889E-01 -9.71493E-02 +9.46216E-01 -1.88547E-01 +8.56234E-01 -9.30790E-02 +1.79450E-01
+3.99000E+10 +8.52218E-02 -7.44252E-02 -2.05564E-01 +9.49883E-01 -4.59793E-03 +8.38807E-01 -5.80160E-02 -6.35255E-02
+4.00000E+10 -4.33864E-04 -1.85835E-01 +4.39603E-03 +9.59384E-01 -2.77643E-01 +8.91870E-01 +8.00226E-02 +7.91927E-02
