! Quiescent point : V1=-1.60085E-02 I1=+1.29925E-03 V2=-2.23054E-02 I2=-1.28412E-03
! Pulsed point : V1=-1.63289E-02 I1=+1.28836E-03 V2=-2.25777E-02 I2=-1.30532E-03
! Period : +2.00000E-04
! Input Supply timing : delay=+1.60000E-06 width=+2.20000E-06
! Output Supply timing : delay=+1.70000E-06 width=+2.00000E-06
! VNA timing : delay=+2.40000E-06 width=+1.10000E-06
# Hz S RI R 50
+2.70000E+10 +5.86623E-02 -1.24904E-01 -9.37406E-01 -5.05398E-02 -1.02921E+00 -5.59234E-02 -5.96475E-03 -9.21048E-02
+2.71000E+10 -8.28482E-04 -8.04153E-02 -9.99711E-01 -3.82565E-02 -9.76079E-01 -6.84842E-02 +1.00988E-02 -1.42503E-01
+2.72000E+10 +3.52590E-02 -6.20696E-02 -9.96911E-01 +3.11225E-02 -9.87751E-01 +1.19945E-02 +2.70268E-02 -1.56455E-01
+2.73000E+10 +4.24179E-02 -1.10133E-01 -9.96247E-01 -1.31379E-02 -9.94305E-01 +4.08445E-02 +3.18546E-02 -1.39265E-01
+2.74000E+10 -8.81269E-03 -5.92619E-02 -9.97697E-01 +3.02955E-02 -9.43613E-01 -1.54234E-02 +2.98299E-02 -9.52236E-02
+2.75000E+10 +3.20678E-02 -1.49100E-01 -9.41943E-01 -2.10969E-02 -9.57599E-01 -1.23569E-02 +3.30578E-02 -9.33414E-02
+2.76000E+10 +4.49118E-02 -3.81435E-02 -9.26682E-01 +7.13979E-03 -9.54656E-01 +4.63643E-02 +4.38182E-02 -1.06443E-01
+2.77000E+10 +6.07428E-02 -4.94168E-02 -9.48780E-01 +5.34059E-02 -9.74468E-01 +3.95988E-02 -4.57598E-02 -7.80816E-02
+2.78000E+10 +2.57475E-02 -5.20347E-02 -1.02656E+00 +9.78184E-02 -8.64347E-01 +9.60556E-02 -2.83364E-03 -7.70474E-02
+2.79000E+10 +4.89622E-02 +1.29061E-02 -9.91683E-01 +6.17721E-02 -9.52644E-01 +6.83644E-03 -5.11654E-02 -1.31981E-01
+2.80000E+10 -3.25158E-02 -7.04259E-02 -1.03768E+00 +1.06819E-02 -9.31899E-01 +1.05500E-01 -9.89381E-02 -9.94730E-02
+2.81000E+10 -1.20677E-02 -9.50031E-02 -8.98733E-01 +1.67686E-01 -9.19510E-01 +9.57051E-02 +3.39819E-03 -1.25598E-01
+2.82000E+10 +7.59481E-02 -1.09120E-01 -9.70987E-01 +1.09184E-01 -1.05809E+00 +1.37709E-01 -3.20868E-02 -1.17413E-01
+2.83000E+10 -9.75315E-02 -1.34993E-01 -9.22011E-01 +3.17514E-02 -9.51616E-01 +1.74587E-01 +4.57885E-02 -6.52644E-02
+2.84000E+10 +4.39818E-02 -5.96080E-02 -9.34787E-01 +5.92595E-02 -9.28494E-01 +8.99127E-02 -3.38845E-02 -1.39746E-01
+2.85000E+10 +4.51594E-02 -9.69384E-02 -9.95750E-01 +2.01720E-01 -1.01218E+00 +4.76152E-02 +2.50599E-02 -1.19178E-01
+2.86000E+10 -7.21521E-03 -5.54777E-02 -8.98003E-01 +1.11467E-01 -9.91994E-01 +1.19576E-01 -3.52211E-02 -1.03857E-01
+2.87000E+10 +9.11897E-02 -1.42501E-01 -1.07451E+00 +1.52460E-01 -9.43736E-01 +1.68329E-01 +1.69216E-02 -1.31844E-01
+2.88000E+10 +1.13548E-01 -5.25562E-02 -1.11430E+00 +1.72619E-01 -9.29442E-01 +8.62013E-02 +2.50745E-02 -4.25041E-02
+2.89000E+10 -6.49573E-03 -8.17380E-02 -9.60693E-01 +1.62119E-01 -9.26492E-01 +7.63282E-02 -2.51706E-03 -1.14177E-01
+2.90000E+10 +1.13393E-01 -1.55904E-01 -9.46955E-01 +2.12220E-01 -8.97648E-01 +1.78038E-01 -5.90462E-02 -6.96717E-02
+2.91000E+10 +2.32150E-02 -5.83223E-02 -9.29133E-01 +2.85664E-01 -9.43041E-01 +2.31345E-01 +6.04063E-02 -9.55262E-02
+2.92000E+10 +3.50578E-02 -1.03636E-01 -1.03472E+00 +2.23783E-01 -9.30916E-01 +2.29733E-01 +3.64871E-02 -8.97746E-02
+2.93000E+10 -7.03393E-04 -7.31523E-03 -9.42333E-01 +1.40377E-01 -9.35836E-01 +2.94580E-01 -5.73399E-02 -1.09085E-01
+2.94000E+10 +3.74211E-02 -1.13304E-01 -9.56212E-01 +2.39440E-01 -9.06745E-01 +2.04916E-01 -1.08948E-01 -6.00136E-02
+2.95000E+10 -2.53626E-02 +4.97986E-02 -9.63892E-01 +2.44593E-01 -9.56784E-01 +2.63530E-01 -1.70975E-03 -6.83729E-02
+2.96000E+10 +5.09110E-02 -9.61003E-02 -8.89655E-01 +1.50101E-01 -9.16818E-01 +2.33059E-01 +6.68812E-02 -1.28890E-02
+2.97000E+10 -1.08398E-02 -1.20671E-01 -9.12219E-01 +3.21291E-01 -1.02126E+00 +1.91409E-01 -1.14719E-01 -9.37890E-02
+2.98000E+10 +6.54931E-02 -7.92336E-02 -1.00881E+00 +2.25011E-01 -9.27345E-01 +2.44154E-01 +8.71942E-03 -1.30176E-02
+2.99000E+10 -3.41572E-02 -1.70317E-01 -8.67798E-01 +3.02639E-01 -9.73286E-01 +2.98924E-01 +5.93036E-03 -1.63757E-01
+3.00000E+10 +2.58431E-02 -1.93740E-02 -9.66835E-01 +3.26253E-01 -9.26256E-01 +3.34180E-01 +4.82955E-02 -7.26726E-02
+3.01000E+10 +7.91039E-03 -1.04078E-01 -9.55904E-01 +3.11279E-01 -9.22712E-01 +2.88478E-01 +1.42651E-01 -4.58816E-02
+3.02000E+10 +3.47250E-03 -3.12672E-02 -9.50437E-01 +2.63378E-01 -8.44133E-01 +3.18914E-01 +1.88000E-02 -8.87684E-02
+3.03000E+10 +1.91277E-02 -2.95752E-02 -8.82252E-01 +3.34944E-01 -8.12609E-01 +2.33212E-01 +2.06830E-02 -1.31066E-02
+3.04000E+10 -5.51955E-02 -1.49939E-01 -9.67655E-01 +3.29898E-01 -8.93365E-01 +2.72294E-01 +7.45629E-02 -1.38572E-01
+3.05000E+10 +1.07269E-01 -3.26496E-02 -9.51071E-01 +4.02594E-01 -9.85910E-01 +3.63142E-01 +8.30500E-02 -1.07353E-01
+3.06000E+10 -1.49523E-01 +3.18513E-02 -9.47719E-01 +3.38946E-01 -8.48256E-01 +3.53891E-01 +4.45798E-02 -1.46881E-01
+3.07000E+10 +8.40594E-02 +4.02663E-02 -8.93302E-01 +3.82507E-01 -8.87735E-01 +3.62258E-01 +4.09149E-02 -5.58552E-02
+3.08000E+10 -2.63900E-02 -5.87195E-02 -9.44867E-01 +4.21104E-01 -8.82649E-01 +4.35025E-01 +2.37434E-02 -1.67959E-01
+3.09000E+10 -1.02151E-01 -3.68956E-02 -8.36879E-01 +4.00422E-01 -8.93840E-01 +3.98585E-01 -6.27343E-02 -1.31518E-01
+3.10000E+10 -6.09669E-02 -9.51876E-02 -1.00769E+00 +4.76349E-01 -7.82332E-01 +3.77597E-01 -1.39024E-02 -9.74119E-02
+3.11000E+10 +6.03681E-02 -3.64002E-02 -8.57767E-01 +5.11870E-01 -9.56983E-01 +4.30025E-01 +9.21216E-04 -6.88654E-02
+3.12000E+10 -4.18045E-02 -8.42200E-02 -8.59046E-01 +3.94144E-01 -8.91723E-01 +3.47057E-01 +1.52884E-02 -3.74225E-02
+3.13000E+10 -3.15966E-02 -1.35134E-01 -8.03695E-01 +5.04738E-01 -8.60415E-01 +3.32250E-01 +7.67811E-03 -8.16700E-02
+3.14000E+10 +8.64035E-02 +4.67811E-03 -8.36209E-01 +4.51703E-01 -9.00965E-01 +4.18537E-01 -1.99400E-02 +1.15728E-02
+3.15000E+10 +2.56770E-02 -1.09284E-01 -8.18945E-01 +3.78052E-01 -8.85270E-01 +4.12693E-01 -4.13904E-02 +3.90776E-03
+3.16000E+10 +6.77010E-04 -1.72289E-01 -8.41518E-01 +4.27645E-01 -9.31536E-01 +4.73160E-01 +2.06955E-02 +1.72253E-02
+3.17000E+10 +3.82107E-02 -7.73601E-02 -8.63132E-01 +4.95521E-01 -9.06654E-01 +5.22763E-01 +1.36960E-02 -2.38692E-02
+3.18000E+10 +6.43743E-03 -8.88290E-02 -7.02476E-01 +5.17473E-01 -9.09077E-01 +5.43237E-01 +1.28776E-01 -1.74878E-01
+3.19000E+10 +3.24730E-02 -4.85639E-02 -8.64590E-01 +4.94404E-01 -9.12086E-01 +5.04874E-01 -6.73869E-03 -1.25092E-01
+3.20000E+10 +2.35108E-02 +2.05590E-02 -8.36674E-01 +5.45346E-01 -8.11808E-01 +3.78157E-01 +5.45512E-02 -2.66977E-02
+3.21000E+10 +9.79949E-02 -1.43912E-02 -8.72416E-01 +5.61962E-01 -8.16036E-01 +4.81564E-01 +1.50462E-02 -3.65047E-02
+3.22000E+10 +4.11575E-02 -9.24644E-02 -7.76240E-01 +4.97937E-01 -7.30066E-01 +5.12862E-01 +7.37054E-02 -1.32086E-01
+3.23000E+10 -8.27242E-02 -1.40391E-03 -8.34751E-01 +5.22266E-01 -8.15587E-01 +5.11198E-01 -4.88258E-02 -9.63155E-02
+3.24000E+10 -3.48223E-03 -1.04547E-01 -7.80493E-01 +6.19962E-01 -7.65299E-01 +4.67787E-01 -4.27471E-02 -2.45400E-02
+3.25000E+10 +1.05654E-02 -2.39879E-03 -7.52087E-01 +4.47715E-01 -8.32922E-01 +4.85017E-01 +1.62921E-01 -4.75870E-02
+3.26000E+10 -8.77394E-02 -9.33324E-02 -8.18817E-01 +7.03531E-01 -8.00964E-01 +6.74788E-01 -5.13712E-02 -1.26292E-01
+3.27000E+10 -1.39685E-02 -8.00936E-02 -6.54005E-01 +5.64042E-01 -8.04380E-01 +5.95378E-01 +5.33013E-02 -6.30379E-02
+3.28000E+10 +7.37078E-02 +4.95707E-03 -8.99383E-01 +5.35906E-01 -7.51146E-01 +5.74473E-01 +5.84952E-02 -1.26331E-01
+3.29000E+10 -2.44770E-02 -1.23488E-01 -8.48417E-01 +6.91490E-01 -7.39395E-01 +6.30186E-01 +8.02618E-02 -5.05776E-02
+3.30000E+10 -2.34022E-02 -9.31370E-02 -8.62597E-01 +5.99504E-01 -8.20632E-01 +6.12715E-01 +1.19211E-01 +1.15805E-02
+3.31000E+10 +7.84479E-02 -3.25158E-02 -8.16954E-01 +6.65196E-01 -7.45280E-01 +5.73704E-01 -5.16338E-02 -6.05018E-02
+3.32000E+10 -3.65944E-02 -6.33629E-02 -7.00392E-01 +5.67176E-01 -7.92115E-01 +6.00046E-01 -4.11955E-02 -2.80257E-02
+3.33000E+10 -1.10092E-02 -7.51031E-02 -6.26721E-01 +6.94115E-01 -8.06997E-01 +7.26357E-01 -1.06489E-01 -4.30138E-02
+3.34000E+10 +1.16217E-01 -2.04710E-02 -8.41798E-01 +6.52894E-01 -6.08647E-01 +6.78846E-01 +4.59864E-03 -1.93964E-01
+3.35000E+10 +7.09659E-02 -3.95155E-02 -7.70172E-01 +5.40746E-01 -6.71089E-01 +6.22616E-01 -4.19939E-02 -3.07884E-02
+3.36000E+10 -3.53558E-02 -1.22309E-01 -7.90857E-01 +6.72020E-01 -6.22736E-01 +6.20663E-01 +8.80120E-02 -3.90946E-02
+3.37000E+10 -1.00512E-01 +2.01283E-02 -5.80575E-01 +5.56266E-01 -6.88828E-01 +7.39780E-01 +6.82522E-02 +3.71372E-02
+3.38000E+10 +3.34247E-02 +2.99982E-03 -8.21771E-01 +7.22136E-01 -7.95416E-01 +6.72242E-01 +1.16068E-01 -1.12675E-01
+3.39000E+10 -4.24063E-02 -1.85291E-02 -6.19173E-01 +6.05298E-01 -6.42742E-01 +5.63173E-01 +9.22437E-03 +1.64811E-01
+3.40000E+10 +5.78483E-03 -8.05975E-02 -7.40116E-01 +7.04648E-01 -6.57689E-01 +7.17432E-01 -7.09776E-02 -8.33642E-02
+3.41000E+10 -4.35618E-02 -9.38209E-02 -6.94031E-01 +6.63513E-01 -5.83528E-01 +6.49588E-01 -9.19904E-02 +4.82900E-02
+3.42000E+10 +6.76540E-02 -8.23830E-02 -6.68379E-01 +6.42890E-01 -7.42566E-01 +7.98583E-01 +7.64436E-02 -1.57915E-01
+3.43000E+10 +1.07653E-01 -3.44436E-02 -6.12954E-01 +5.82475E-01 -6.61805E-01 +7.75089E-01 +1.39452E-02 -1.33426E-01
+3.44000E+10 +2.01751E-03 -4.08588E-02 -6.99227E-01 +6.78578E-01 -6.51896E-01 +7.31482E-01 -7.59656E-02 +3.45420E-02
+3.45000E+10 -6.99212E-03 -1.05089E-01 -6.66791E-01 +6.96208E-01 -6.44815E-01 +7.42834E-01 -1.63431E-03 -1.50492E-02
+3.46000E+10 +7.67420E-02 +5.56594E-02 -6.26057E-01 +6.40268E-01 -7.22728E-01 +6.95112E-01 +6.54050E-02 +1.52951E-02
+3.47000E+10 +1.06794E-01 -4.93158E-02 -6.35396E-01 +7.71496E-01 -6.61032E-01 +8.16407E-01 +5.04529E-02 -1.77932E-01
+3.48000E+10 -6.50114E-02 -6.89055E-02 -7.01904E-01 +7.99936E-01 -5.19965E-01 +7.83534E-01 +3.47635E-02 -2.30737E-01
+3.49000E+10 +4.48997E-02 -1.01927E-01 -5.85877E-01 +7.03140E-01 -5.10895E-01 +6.86084E-01 +6.99096E-02 -9.35961E-02
+3.50000E+10 +2.72770E-03 -2.64323E-02 -5.59827E-01 +7.68195E-01 -6.03889E-01 +8.08307E-01 +4.85996E-02 +3.80865E-02
+3.51000E+10 -8.90390E-02 -1.41144E-01 -6.83171E-01 +8.76672E-01 -5.13817E-01 +5.20942E-01 +8.30390E-02 -2.06003E-02
+3.52000E+10 -2.21626E-02 +7.46597E-02 -6.32332E-01 +8.26654E-01 -5.78163E-01 +7.39135E-01 +9.72130E-02 -8.85519E-02
+3.53000E+10 +6.68468E-02 -7.71800E-02 -5.59332E-01 +6.76985E-01 -4.01550E-01 +9.28956E-01 -1.93254E-02 -1.24026E-01
+3.54000E+10 +6.60160E-02 +8.04521E-02 -5.27845E-01 +6.98387E-01 -5.11012E-01 +5.75470E-01 +7.96676E-02 +5.15394E-02
+3.55000E+10 +6.36369E-02 -1.13219E-01 -7.26411E-01 +7.67969E-01 -6.37546E-01 +6.94332E-01 +2.56447E-01 +4.46290E-02
+3.56000E+10 +2.02593E-01 -2.22129E-01 -6.04202E-01 +8.14720E-01 -5.65906E-01 +8.65722E-01 -1.86945E-03 -1.04321E-01
+3.57000E+10 -2.24508E-02 -9.81026E-02 -4.94581E-01 +6.95561E-01 -6.61751E-01 +5.83321E-01 -9.27604E-02 -1.43017E-01
+3.58000E+10 -3.81975E-02 -9.38412E-02 -5.05360E-01 +8.00786E-01 -5.55087E-01 +8.95628E-01 -5.94194E-02 -1.23650E-01
+3.59000E+10 +1.17926E-01 -1.01995E-01 -5.46136E-01 +8.79457E-01 -5.31688E-01 +9.73303E-01 +1.72694E-01 -8.00452E-02
+3.60000E+10 -2.31575E-03 -1.72965E-01 -6.25502E-01 +8.43797E-01 -5.48846E-01 +8.38189E-01 -1.16765E-01 -2.43533E-03
+3.61000E+10 +7.42806E-02 +3.86177E-02 -5.85078E-01 +8.39453E-01 -5.49664E-01 +7.90518E-01 +1.21878E-01 -1.30947E-02
+3.62000E+10 -4.55549E-02 -3.03843E-02 -3.93107E-01 +9.21737E-01 -6.08211E-01 +9.86699E-01 +7.67937E-03 -1.42805E-01
+3.63000E+10 +7.73148E-02 -4.52813E-02 -5.01620E-01 +8.43119E-01 -6.55586E-01 +8.75105E-01 +1.14171E-01 +3.96495E-02
+3.64000E+10 +1.12682E-01 -6.82252E-02 -5.24664E-01 +7.45531E-01 -5.92967E-01 +8.22373E-01 +1.75072E-02 +8.01245E-02
+3.65000E+10 +7.19208E-02 +1.06958E-01 -4.58035E-01 +8.51953E-01 -4.10829E-01 +6.78677E-01 +5.59437E-02 -3.90606E-02
+3.66000E+10 +2.04455E-01 -1.73208E-01 -4.72531E-01 +9.71597E-01 -4.55800E-01 +1.04989E+00 -1.33388E-02 +9.25042E-05
+3.67000E+10 -1.12287E-01 +2.69966E-02 -3.89483E-01 +6.04692E-01 -5.06593E-01 +7.38223E-01 +2.07689E-01 +7.22440E-02
+3.68000E+10 +6.73585E-02 -9.81068E-02 -4.95293E-01 +7.11495E-01 -4.29508E-01 +9.73598E-01 +2.34482E-01 -6.76230E-02
+3.69000E+10 -3.75481E-02 -5.81358E-02 -3.61989E-01 +8.58504E-01 -4.90390E-01 +8.15933E-01 +1.41548E-02 +3.94942E-03
+3.70000E+10 -6.90893E-02 -2.45707E-01 -3.46861E-01 +1.03968E+00 -3.73928E-01 +8.07118E-01 +2.04307E-01 -4.93643E-02
+3.71000E+10 +4.89483E-02 +3.93590E-02 -3.41025E-01 +8.36446E-01 -5.73157E-01 +8.56964E-01 +1.81763E-01 +1.04747E-01
+3.72000E+10 +8.22714E-02 -1.06862E-01 -3.60476E-01 +8.21333E-01 -5.59263E-01 +8.46944E-01 -2.10836E-02 -3.80069E-02
+3.73000E+10 +9.67255E-02 +1.31416E-01 -5.49689E-01 +8.46207E-01 -2.25091E-01 +8.36486E-01 +1.38544E-01 -1.21993E-01
+3.74000E+10 -6.45986E-02 -5.79437E-02 -2.59411E-01 +1.07274E+00 -4.76082E-01 +9.10849E-01 -6.08371E-02 -2.49372E-02
+3.75000E+10 +1.41496E-01 -5.11911E-02 -2.76122E-01 +9.83134E-01 -3.75567E-01 +9.27542E-01 +2.01784E-01 +3.89556E-03
+3.76000E+10 +8.93355E-02 -1.18629E-01 -2.62820E-01 +7.48465E-01 -3.34618E-01 +9.92400E-01 -1.02308E-02 -1.70305E-01
+3.77000E+10 +7.16841E-02 +3.15199E-02 -3.63559E-01 +8.74395E-01 -6.14622E-01 +9.69019E-01 +1.41823E-01 -2.02763E-01
+3.78000E+10 +1.40191E-01 +4.19191E-02 -3.07091E-01 +7.93606E-01 -2.32247E-01 +8.77399E-01 -1.11205E-02 -1.41045E-01
+3.79000E+10 +1.27343E-01 +1.76573E-02 -6.27562E-02 +8.30553E-01 -4.59570E-01 +1.03016E+00 +2.50480E-01 -2.39216E-01
+3.80000E+10 +1.59725E-01 +1.59692E-01 -2.38909E-01 +9.02388E-01 -5.04842E-01 +1.03489E+00 +2.17291E-01 +1.87608E-02
+3.81000E+10 +3.53954E-02 -2.09749E-01 -2.00911E-01 +1.09243E+00 -2.91586E-01 +9.20330E-01 +2.08516E-01 -1.06850E-01
+3.82000E+10 +5.04116E-02 -4.60035E-02 -2.77593E-01 +8.58516E-01 -3.26947E-01 +1.06467E+00 +1.32292E-01 -4.77883E-02
+3.83000E+10 +5.61451E-02 +1.87928E-02 -1.90993E-01 +9.75211E-01 -3.00725E-01 +8.64932E-01 +6.65690E-02 -1.14879E-01
+3.84000E+10 -9.85674E-02 -4.31479E-02 -4.75359E-01 +9.93017E-01 -3.25135E-01 +8.94729E-01 +1.70710E-01 -2.43819E-01
+3.85000E+10 +2.77999E-01 +3.49160E-02 -3.12365E-01 +8.96092E-01 -1.34839E-01 +9.60474E-01 -2.32323E-02 -1.45555E-01
+3.86000E+10 -1.33241E-02 -1.47387E-01 -6.00864E-01 +1.01171E+00 -1.26506E-01 +8.86571E-01 +7.63492E-02 +1.76082E-01
+3.87000E+10 +3.65049E-01 -9.69191E-02 -1.57498E-01 +8.62563E-01 -2.62261E-01 +9.17765E-01 +1.43072E-01 -2.21326E-02
+3.88000E+10 +1.95320E-02 -9.04333E-02 -1.51886E-01 +8.23555E-01 -4.63582E-02 +7.89168E-01 +2.21216E-01 -8.70837E-02
+3.89000E+10 +7.28819E-02 -3.60710E-02 -3.02900E-01 +1.00676E+00 -2.50805E-01 +9.26030E-01 -1.48512E-02 -1.20416E-01
+3.90000E+10 +1.91234E-02 -8.26154E-02 -3.07015E-01 +9.75084E-01 -2.16482E-01 +7.79987E-01 +7.52212E-02 -1.14942E-01
+3.91000E+10 +3.88751E-02 +7.42660E-03 -1.36815E-01 +1.02976E+00 -3.24161E-01 +1.06847E+00 +1.12900E-01 -1.02258E-01
+3.92000E+10 +2.77270E-02 -7.14102E-03 -1.50900E-01 +1.16814E+00 -1.66356E-01 +1.05378E+00 +1.10084E-01 -1.64194E-01
+3.93000E+10 +4.02117E-01 +1.84316E-02 -3.04176E-01 +1.01084E+00 -2.52673E-01 +1.03194E+00 +1.34587E-02 -1.52546E-01
+3.94000E+10 +4.11856E-02 -1.58350E-01 -1.62238E-01 +9.68571E-01 -8.90732E-02 +1.00847E+00 +4.86320E-02 -6.85317E-02
+3.95000E+10 -4.33937E-02 -1.94805E-02 -1.10619E-01 +9.42909E-01 -2.77002E-01 +8.80589E-01 +4.44141E-02 +6.16387E-02
+3.96000E+10 -7.74924E-02 +9.52495E-02 -6.84386E-02 +8.90764E-01 -1.06950E-01 +1.02223E+00 -1.84221E-01 -5.82685E-02
+3.97000E+10 -1.79805E-02 -1.57427E-01 +1.10446E-01 +9.07212E-01 -2.40426E-01 +1.22626E+00 +1.80748E-01 -2.09797E-01
+3.98000E+10 +4.64494E-02 +6.94417E-03 -6.36294E-02 +8.73290E-01 -1.49725E-01 +7.45188E-01 +2.79742E-01 -9.52214E-02
+3.99000E+10 +2.06871E-01 -6.98140E-02 -1.65538E-01 +6.64641E-01 -1.06245E-01 +1.25777E+00 +1.16322E-01 +2.67806E-02
+4.00000E+10 +2.09777E-01 -8.08434E-03 -2.76756E-02 +1.16286E+00 -1.95088E-01 +1.01451E+00 +1.42879E-01 -3.90208E-01
