! Quiescent point : V1=-1.76102E-02 I1=+1.37078E-03 V2=-2.32797E-02 I2=-1.35528E-03
! Pulsed point : V1=-1.72979E-02 I1=+1.38910E-03 V2=-2.30541E-02 I2=-1.34140E-03
! Period : +2.00000E-04
! Input Supply timing : delay=+1.60000E-06 width=+2.20000E-06
! Output Supply timing : delay=+1.70000E-06 width=+2.00000E-06
! VNA timing : delay=+2.40000E-06 width=+1.10000E-06
# Hz S RI R 50
+2.70000E+10 -1.04912E-02 -1.36557E-01 -9.87146E-01 +1.37536E-02 -9.75134E-01 -5.59148E-02 +3.07388E-02 -1.32027E-01
+2.71000E+10 -1.23629E-02 -1.28539E-01 -8.95429E-01 +1.52209E-02 -9.66848E-01 -5.28694E-02 -7.26891E-02 -9.07365E-02
+2.72000E+10 -4.26694E-02 -7.15207E-02 -9.65525E-01 -1.07405E-03 -9.73132E-01 -2.31339E-02 -5.33486E-04 -1.56116E-01
+2.73000E+10 -6.88372E-02 -9.66813E-02 -9.31089E-01 +9.93669E-02 -9.61132E-01 -1.60482E-02 -2.61568E-02 -7.27730E-02
+2.74000E+10 -1.14027E-02 -9.65743E-02 -1.00775E+00 -3.00176E-02 -9.44837E-01 -3.63090E-02 +1.90304E-02 -6.02282E-02
+2.75000E+10 -5.47523E-03 -1.28270E-01 -1.04383E+00 -9.29756E-02 -1.01865E+00 -5.19989E-02 -2.00726E-02 -1.16028E-01
+2.76000E+10 +2.18600E-02 -9.57423E-02 -1.01915E+00 +4.10065E-02 -9.65760E-01 +6.06609E-02 +4.81039E-03 -6.68547E-02
+2.77000E+10 -3.68336E-02 -1.88433E-01 -9.66053E-01 +2.40239E-02 -9.99146E-01 +8.15399E-02 +3.84523E-02 -1.35102E-01
+2.78000E+10 +4.90349E-02 -1.98360E-01 -9.36536E-01 +1.05617E-01 -9.70289E-01 +3.37490E-02 +1.68961E-03 -7.78732E-02
+2.79000E+10 -1.21812E-01 -5.52932E-02 -9.61144E-01 -2.67861E-02 -9.26017E-01 +8.45099E-02 -1.37521E-02 -1.17889E-01
+2.80000E+10 -3.35206E-02 -1.67325E-01 -9.38808E-01 +4.97504E-02 -9.70258E-01 +7.51505E-02 -1.89242E-02 -7.28111E-02
+2.81000E+10 +3.99271E-02 -3.34938E-02 -9.83861E-01 +9.38122E-02 -9.15064E-01 +4.47180E-02 -1.31263E-01 -7.78959E-02
+2.82000E+10 +6.48016E-02 -1.23331E-01 -1.01966E+00 +9.36318E-02 -9.85495E-01 +1.72659E-02 +2.67071E-02 -1.44058E-01
+2.83000E+10 +9.38703E-02 -1.25942E-01 -9.31747E-01 +1.04754E-01 -9.35850E-01 +1.71644E-01 +5.61497E-02 -7.53517E-02
+2.84000E+10 -9.01547E-02 -1.49340E-01 -9.60201E-01 +4.29045E-03 -9.37107E-01 +7.07940E-02 -3.92923E-03 -1.11239E-01
+2.85000E+10 -3.26782E-02 -6.15594E-02 -9.34694E-01 +2.19527E-01 -9.88554E-01 +1.43810E-01 +2.69002E-02 -1.73762E-01
+2.86000E+10 +5.44823E-02 -8.17478E-02 -9.80663E-01 +2.17665E-01 -1.03005E+00 +1.76623E-01 -5.41184E-03 -6.75460E-02
+2.87000E+10 -6.13534E-03 -1.81827E-01 -1.00194E+00 +1.61139E-01 -9.52627E-01 +1.31670E-01 +1.97989E-02 -1.65173E-02
+2.88000E+10 +2.03573E-02 -1.19056E-01 -1.00001E+00 +2.18590E-01 -9.44198E-01 +1.73914E-01 -1.95588E-02 -1.59158E-01
+2.89000E+10 +3.04489E-02 -5.05376E-02 -1.00042E+00 +1.21571E-01 -8.96980E-01 +1.30260E-01 -5.07443E-02 -8.77593E-02
+2.90000E+10 +4.96376E-02 -1.54677E-01 -9.99798E-01 +1.65700E-01 -9.80960E-01 +2.27118E-01 -7.64977E-02 -9.10965E-02
+2.91000E+10 +3.35529E-02 -5.38077E-02 -9.18977E-01 +2.77283E-01 -9.90689E-01 +2.04179E-01 +1.43397E-03 -6.34897E-02
+2.92000E+10 +3.96025E-02 -1.55043E-01 -9.83145E-01 +1.99795E-01 -9.58278E-01 +2.03335E-01 -1.70505E-02 -5.65966E-02
+2.93000E+10 +1.34294E-01 -6.06850E-02 -9.97401E-01 +1.30236E-01 -9.08963E-01 +2.11398E-01 -8.66574E-02 -5.13499E-02
+2.94000E+10 -9.22888E-03 -1.44546E-01 -9.02115E-01 +2.39392E-01 -9.30379E-01 +2.20935E-01 -2.46099E-02 -1.39597E-01
+2.95000E+10 +6.14097E-02 -7.27292E-02 -9.65851E-01 +3.67368E-01 -9.55845E-01 +2.43493E-01 -2.05551E-03 -1.18899E-01
+2.96000E+10 -2.20846E-02 -1.43605E-01 -9.52932E-01 +3.19833E-01 -9.26406E-01 +2.44733E-01 -8.79044E-03 -2.81637E-02
+2.97000E+10 +2.03797E-02 -1.14350E-01 -9.17669E-01 +2.95990E-01 -9.16488E-01 +2.70535E-01 -2.40982E-02 -7.18585E-02
+2.98000E+10 +3.49314E-02 -9.74475E-02 -9.87727E-01 +2.34489E-01 -9.47029E-01 +2.00329E-01 -6.03468E-02 -5.16710E-02
+2.99000E+10 -9.35086E-03 -4.23455E-02 -9.35967E-01 +2.72432E-01 -9.54282E-01 +2.62084E-01 -8.41482E-02 -1.22425E-01
+3.00000E+10 +4.41303E-02 +3.43323E-03 -9.51275E-01 +2.81922E-01 -8.70206E-01 +3.34831E-01 -3.97936E-03 -7.28463E-02
+3.01000E+10 +5.65864E-02 -5.30521E-02 -8.96371E-01 +2.80053E-01 -9.61998E-01 +3.07032E-01 -1.48908E-02 -5.92932E-02
+3.02000E+10 -1.00587E-02 -1.68471E-01 -9.26310E-01 +2.50255E-01 -9.41559E-01 +3.48762E-01 -3.91894E-02 -1.55138E-01
+3.03000E+10 -1.01172E-01 -6.90968E-02 -8.84269E-01 +3.34819E-01 -9.03808E-01 +3.20881E-01 -2.54438E-02 -7.65586E-02
+3.04000E+10 +9.77609E-02 -1.39771E-01 -9.69660E-01 +2.83889E-01 -8.96544E-01 +3.29732E-01 -4.08470E-02 -8.15935E-02
+3.05000E+10 +6.38990E-02 -6.97658E-02 -9.00895E-01 +3.63134E-01 -1.00798E+00 +3.99974E-01 +4.03429E-03 -1.18423E-01
+3.06000E+10 +4.42668E-02 -3.14351E-02 -9.30321E-01 +4.09137E-01 -8.45485E-01 +3.22958E-01 +1.80010E-03 -6.83188E-02
+3.07000E+10 +1.17223E-01 -1.22804E-01 -1.06563E+00 +3.77879E-01 -9.77733E-01 +3.81054E-01 +7.76747E-02 -1.28590E-01
+3.08000E+10 +1.04584E-01 -5.73404E-02 -8.98527E-01 +3.31251E-01 -7.93012E-01 +3.93466E-01 +1.85634E-02 +4.24612E-02
+3.09000E+10 -5.26486E-02 -8.71306E-02 -8.65673E-01 +3.95186E-01 -9.61200E-01 +4.60954E-01 -1.09698E-01 -1.16516E-01
+3.10000E+10 +8.48370E-02 +1.79943E-02 -8.43143E-01 +4.51555E-01 -8.83511E-01 +3.81104E-01 +1.49959E-02 -7.33562E-02
+3.11000E+10 +4.40890E-03 -6.81833E-02 -7.75552E-01 +4.23341E-01 -8.49441E-01 +3.20431E-01 -8.47372E-02 -6.78292E-02
+3.12000E+10 +1.37783E-02 -1.45730E-01 -8.87591E-01 +3.82908E-01 -8.38837E-01 +4.55916E-01 +9.94210E-02 -7.39545E-02
+3.13000E+10 +1.39585E-01 -6.61311E-02 -8.70041E-01 +3.68978E-01 -9.22320E-01 +4.40734E-01 -2.28359E-02 -6.39061E-02
+3.14000E+10 -1.61405E-02 -5.48132E-02 -8.23960E-01 +4.33015E-01 -7.69148E-01 +4.62329E-01 +1.99378E-03 -1.53099E-01
+3.15000E+10 +6.13573E-02 -1.41249E-01 -7.72202E-01 +4.74544E-01 -8.68204E-01 +5.09466E-01 -4.71235E-02 +4.86305E-03
+3.16000E+10 +1.18273E-01 -1.41154E-01 -7.87802E-01 +4.50540E-01 -8.93905E-01 +4.56291E-01 -7.37944E-02 +2.17778E-02
+3.17000E+10 +3.55937E-02 -2.06510E-01 -9.44711E-01 +5.31772E-01 -8.46264E-01 +4.77722E-01 -2.07232E-02 -1.13956E-01
+3.18000E+10 +1.58709E-01 -7.73525E-02 -8.29237E-01 +5.34050E-01 -9.09200E-01 +4.33892E-01 +4.86960E-02 -4.82856E-02
+3.19000E+10 +7.92569E-02 -8.65212E-02 -8.31749E-01 +4.81738E-01 -8.45914E-01 +5.18937E-01 -8.29033E-02 -1.84925E-01
+3.20000E+10 -1.48656E-04 -1.73191E-01 -8.44980E-01 +5.40997E-01 -8.16157E-01 +5.84623E-01 -4.73697E-02 -3.86841E-02
+3.21000E+10 +3.36350E-02 -1.59268E-01 -7.87711E-01 +4.22655E-01 -9.04327E-01 +3.81183E-01 -7.56134E-02 -8.53514E-02
+3.22000E+10 +1.39488E-01 -8.39800E-02 -7.44183E-01 +6.35734E-01 -8.19985E-01 +5.10642E-01 -3.14099E-02 -7.88507E-02
+3.23000E+10 -4.12150E-02 -1.02925E-01 -8.36642E-01 +4.99033E-01 -7.78120E-01 +5.31448E-01 -1.85029E-01 -2.67371E-02
+3.24000E+10 -6.27362E-03 -1.25962E-01 -8.60088E-01 +5.12790E-01 -8.03713E-01 +5.72226E-01 -5.36150E-02 -4.17429E-02
+3.25000E+10 -8.10537E-02 -1.55025E-01 -7.85675E-01 +6.00379E-01 -7.52860E-01 +5.41187E-01 -7.90538E-02 -8.54680E-02
+3.26000E+10 +1.34325E-01 -3.77342E-02 -7.92843E-01 +6.52403E-01 -7.83338E-01 +5.77958E-01 -6.15252E-02 +3.57250E-02
+3.27000E+10 +1.44362E-01 -8.36611E-02 -7.78856E-01 +6.11633E-01 -8.16678E-01 +5.11724E-01 -1.10133E-01 -4.99562E-02
+3.28000E+10 +4.26477E-02 -1.04859E-01 -7.52896E-01 +5.97695E-01 -8.18088E-01 +5.15422E-01 -1.09694E-01 +3.77923E-02
+3.29000E+10 +1.17400E-01 -7.17113E-02 -8.03633E-01 +6.20938E-01 -8.31626E-01 +5.02838E-01 -5.87220E-02 -2.98484E-02
+3.30000E+10 -1.79758E-02 -2.36050E-01 -7.36916E-01 +5.34782E-01 -6.11191E-01 +5.28601E-01 -1.16122E-01 -1.17011E-01
+3.31000E+10 +1.82952E-01 -6.57150E-02 -8.55398E-01 +6.22772E-01 -8.07223E-01 +6.07504E-01 -1.27630E-02 +4.74133E-02
+3.32000E+10 +6.64332E-02 -1.46919E-01 -7.81546E-01 +6.49903E-01 -7.26204E-01 +7.55457E-01 -1.30180E-01 -1.65442E-01
+3.33000E+10 +3.96410E-02 -1.26468E-01 -6.44615E-01 +7.42383E-01 -8.24258E-01 +7.30653E-01 -2.35601E-03 -1.82702E-01
+3.34000E+10 +1.07701E-01 -5.42826E-02 -7.90029E-01 +6.91996E-01 -6.82941E-01 +6.40895E-01 -4.62452E-02 -9.12483E-02
+3.35000E+10 +9.19424E-02 -1.71355E-01 -6.89552E-01 +5.46226E-01 -7.31875E-01 +5.24803E-01 -6.47678E-02 -5.37266E-02
+3.36000E+10 -1.04736E-02 -1.89415E-01 -6.90768E-01 +6.72729E-01 -6.95845E-01 +7.37207E-01 -9.20949E-02 +1.05282E-01
+3.37000E+10 +1.38541E-01 -1.95053E-01 -7.26916E-01 +5.40406E-01 -6.58798E-01 +7.47147E-01 -1.06279E-01 -5.40336E-02
+3.38000E+10 -2.41951E-02 -5.69600E-02 -7.16720E-01 +6.78261E-01 -6.14822E-01 +5.50428E-01 -2.36186E-02 +8.71187E-02
+3.39000E+10 -5.63990E-03 -8.63805E-02 -5.98694E-01 +6.17790E-01 -9.76189E-01 +7.97099E-01 -7.55380E-02 -3.30635E-03
+3.40000E+10 -2.91756E-02 -1.04609E-01 -7.51711E-01 +6.60361E-01 -6.50070E-01 +7.13447E-01 -1.80512E-02 +5.80797E-03
+3.41000E+10 +2.70823E-02 -1.87381E-01 -7.19291E-01 +5.39107E-01 -7.48825E-01 +5.27321E-01 +5.86737E-02 +6.78139E-02
+3.42000E+10 +6.14556E-02 -2.11544E-01 -7.31197E-01 +7.67797E-01 -5.90987E-01 +6.35921E-01 -8.42775E-02 +2.40431E-02
+3.43000E+10 -1.10165E-03 -9.17123E-02 -7.06822E-01 +6.60605E-01 -6.70085E-01 +6.54740E-01 -9.40772E-02 -2.27724E-02
+3.44000E+10 -6.67525E-02 -2.06215E-01 -5.68039E-01 +7.37715E-01 -6.81224E-01 +8.16835E-01 +1.34584E-02 +1.21258E-01
+3.45000E+10 -1.06320E-02 -1.12442E-01 -6.49922E-01 +7.53245E-01 -7.04223E-01 +7.44794E-01 -9.83002E-02 -1.95155E-03
+3.46000E+10 +1.20775E-01 -2.06294E-01 -6.91133E-01 +7.54425E-01 -6.43280E-01 +7.55481E-01 -1.00799E-01 -6.15364E-03
+3.47000E+10 +1.42799E-01 -1.37246E-01 -6.64075E-01 +7.60753E-01 -6.94026E-01 +6.95155E-01 -2.16795E-02 -5.44792E-02
+3.48000E+10 +1.14732E-01 -2.62598E-02 -5.30243E-01 +7.25880E-01 -6.67229E-01 +6.40324E-01 -1.12522E-01 -1.19913E-02
+3.49000E+10 +1.40871E-02 -7.70805E-02 -5.81077E-01 +7.64928E-01 -6.35852E-01 +6.75776E-01 -3.99137E-02 +1.22162E-02
+3.50000E+10 +1.73344E-02 -1.48660E-01 -5.23415E-01 +6.36634E-01 -5.90922E-01 +6.76709E-01 -5.18277E-02 -2.25759E-01
+3.51000E+10 +4.12453E-02 -7.97466E-03 -4.42656E-01 +7.86223E-01 -5.78367E-01 +9.14069E-01 -1.05223E-01 -4.62546E-02
+3.52000E+10 -5.41281E-02 -6.68954E-02 -5.98060E-01 +7.60004E-01 -5.05075E-01 +7.54905E-01 +2.03981E-02 -2.27319E-02
+3.53000E+10 +1.34292E-01 -9.71767E-02 -5.59614E-01 +6.23078E-01 -4.91405E-01 +7.88350E-01 -1.91425E-01 -5.92740E-02
+3.54000E+10 +8.71596E-02 -1.21793E-01 -6.20837E-01 +8.05874E-01 -4.83419E-01 +6.95314E-01 -1.12388E-03 -6.43193E-02
+3.55000E+10 +1.10598E-01 -1.50088E-01 -5.44733E-01 +7.60908E-01 -4.84409E-01 +7.50906E-01 -2.04945E-01 +1.82367E-02
+3.56000E+10 +1.20551E-01 -1.75694E-01 -5.32747E-01 +7.94435E-01 -6.27491E-01 +8.06434E-01 -1.14710E-01 +6.37519E-02
+3.57000E+10 +1.18302E-01 -1.27480E-01 -5.34926E-01 +7.82504E-01 -5.19713E-01 +9.28611E-01 -5.53974E-02 +6.89020E-02
+3.58000E+10 +8.50789E-02 -1.65746E-01 -5.19924E-01 +8.60821E-01 -5.54249E-01 +7.76832E-01 +1.21884E-02 +2.33983E-02
+3.59000E+10 +5.24658E-02 -1.05423E-01 -6.11342E-01 +7.30700E-01 -4.59737E-01 +8.46652E-01 +1.01800E-01 -8.55568E-02
+3.60000E+10 +1.27177E-01 -3.15685E-01 -4.80965E-01 +7.02799E-01 -4.44815E-01 +7.64215E-01 -1.95011E-01 +1.65332E-01
+3.61000E+10 +1.10317E-01 -1.15871E-01 -4.06525E-01 +1.09847E+00 -6.20465E-01 +8.24831E-01 -3.80967E-03 -2.29330E-02
+3.62000E+10 +6.92313E-02 -1.29363E-01 -5.42382E-01 +8.10283E-01 -4.85119E-01 +8.55429E-01 +5.48438E-02 +7.64486E-02
+3.63000E+10 +1.74792E-01 -1.95796E-01 -5.29019E-01 +9.03957E-01 -5.69664E-01 +9.45146E-01 +8.08218E-02 -7.29395E-02
+3.64000E+10 -3.19529E-02 -3.38512E-01 -5.44700E-01 +1.10644E+00 -5.49375E-01 +7.56269E-01 +8.83163E-02 +1.07100E-01
+3.65000E+10 +2.80856E-01 -1.53684E-01 -3.83972E-01 +7.68782E-01 -7.33746E-01 +1.00517E+00 +8.35647E-04 +7.79199E-02
+3.66000E+10 +2.28506E-01 -1.71698E-01 -3.91578E-01 +8.53796E-01 -3.00678E-01 +9.86437E-01 -2.14438E-01 +1.50809E-01
+3.67000E+10 +7.94944E-02 -3.17453E-02 -3.17466E-01 +9.85697E-01 -5.68971E-01 +1.03585E+00 -2.25199E-01 -6.45595E-02
+3.68000E+10 +1.80537E-01 -1.65851E-01 -6.20754E-01 +1.00298E+00 -4.51427E-01 +9.28431E-01 -8.08525E-02 -4.77292E-02
+3.69000E+10 +8.34017E-02 -1.89803E-01 -2.50054E-01 +1.02279E+00 -5.29218E-01 +8.60194E-01 -1.91209E-01 -4.81492E-02
+3.70000E+10 +1.48108E-01 -1.73914E-01 -4.01797E-01 +7.87424E-01 -5.93273E-01 +7.49673E-01 +1.04289E-01 +7.08320E-02
+3.71000E+10 +1.33586E-02 -2.41878E-01 -4.25547E-01 +9.93767E-01 -4.64221E-01 +8.62440E-01 +5.66882E-02 +1.16132E-01
+3.72000E+10 +1.43794E-01 -2.28309E-01 -6.16853E-01 +1.04477E+00 -4.60593E-01 +9.29197E-01 +5.10003E-02 -5.54025E-02
+3.73000E+10 -4.77549E-03 -2.66754E-01 -2.93211E-01 +7.97070E-01 -1.51416E-01 +7.59214E-01 +2.52939E-02 +8.71367E-02
+3.74000E+10 -3.63467E-03 -1.90836E-01 -4.66315E-01 +9.34016E-01 -4.87739E-01 +8.48355E-01 +1.19846E-01 +2.72348E-03
+3.75000E+10 +1.11412E-01 -3.44784E-01 -2.45205E-01 +8.93804E-01 -3.56278E-01 +1.20280E+00 +4.71861E-02 -7.47884E-03
+3.76000E+10 +1.26819E-02 -2.51975E-01 -3.81397E-01 +8.86357E-01 -3.31619E-01 +1.00201E+00 -6.66300E-02 -1.77024E-02
+3.77000E+10 +1.02862E-01 -1.08005E-01 -2.70956E-01 +9.04497E-01 -3.52320E-01 +8.86031E-01 +5.90273E-02 +4.55674E-02
+3.78000E+10 +1.17377E-01 -2.02001E-01 -3.98967E-01 +8.44443E-01 -3.31741E-01 +9.43339E-01 +2.80024E-02 +4.35245E-02
+3.79000E+10 +5.90575E-02 -2.15431E-01 -1.31371E-01 +8.93023E-01 -2.20509E-01 +9.39683E-01 -2.65238E-02 +9.22922E-02
+3.80000E+10 +1.43978E-02 -8.57335E-02 -3.88373E-01 +8.68562E-01 -3.48556E-01 +8.95109E-01 +3.32451E-03 +2.31626E-01
+3.81000E+10 +1.77060E-02 -2.31775E-01 -1.75255E-01 +8.93229E-01 -2.80006E-01 +9.11514E-01 -3.93480E-02 +7.77329E-02
+3.82000E+10 +1.03445E-01 -3.56804E-01 -3.77073E-01 +9.92809E-01 -1.82960E-01 +9.07496E-01 -1.95873E-01 -4.09275E-02
+3.83000E+10 +1.96752E-01 -1.67323E-01 -3.36982E-01 +9.51939E-01 -3.14323E-01 +8.80579E-01 +1.87061E-01 +1.14160E-01
+3.84000E+10 +7.39731E-03 -2.08001E-02 -4.74748E-01 +8.48430E-01 -8.32985E-02 +8.96245E-01 -5.49546E-02 -2.74408E-03
+3.85000E+10 +1.12737E-01 -1.97629E-02 -2.51404E-01 +9.51333E-01 -1.73682E-01 +9.45818E-01 +4.41503E-02 -1.31215E-02
+3.86000E+10 -1.13793E-01 +3.73278E-02 -6.02295E-01 +7.87635E-01 -1.15722E-01 +7.62569E-01 -7.02087E-03 -1.24656E-01
+3.87000E+10 +2.25255E-01 -1.23572E-01 -1.55751E-01 +8.18119E-01 -2.34766E-01 +8.87173E-01 -2.24787E-01 +1.05177E-01
+3.88000E+10 +8.78204E-02 -2.95124E-01 -3.18558E-02 +6.07699E-01 -2.44438E-01 +8.76189E-01 +9.14571E-02 -7.93638E-02
+3.89000E+10 +3.03276E-02 -1.74989E-01 -4.20332E-01 +8.73040E-01 -2.16757E-01 +8.97919E-01 +5.94032E-03 +3.79231E-01
+3.90000E+10 -7.17832E-02 -1.12524E-01 -1.73164E-01 +9.94528E-01 -1.17441E-01 +9.30201E-01 -1.73453E-02 +2.51452E-01
+3.91000E+10 -1.17887E-02 -1.85442E-01 -3.17720E-01 +8.66453E-01 -9.46263E-02 +7.75866E-01 -8.00468E-02 +2.24672E-02
+3.92000E+10 -4.70220E-03 -1.47195E-01 -1.68215E-01 +1.05175E+00 -2.15195E-01 +1.07843E+00 +4.69930E-04 +1.40305E-01
+3.93000E+10 +1.26841E-01 -3.01842E-01 -1.47649E-01 +1.01549E+00 -1.63674E-01 +1.12444E+00 +4.03877E-02 +1.77862E-01
+3.94000E+10 -5.31235E-02 -2.08656E-01 -3.01267E-01 +8.92174E-01 -3.76342E-01 +8.46296E-01 +1.98075E-01 +7.23987E-02
+3.95000E+10 +4.50298E-02 -3.02728E-01 +1.85536E-02 +9.74545E-01 +1.51157E-02 +1.05625E+00 -5.06076E-02 +4.20100E-02
+3.96000E+10 -2.30572E-02 -5.69544E-02 -1.52966E-01 +9.93831E-01 -1.68115E-01 +9.88649E-01 -8.02826E-03 +1.40223E-01
+3.97000E+10 +1.19969E-01 -2.87577E-02 -2.44459E-01 +8.74508E-01 -2.35230E-01 +1.07269E+00 +2.73469E-01 +1.06090E-01
+3.98000E+10 -6.38029E-02 -1.74262E-01 -1.95994E-01 +1.24068E+00 -2.49840E-01 +8.21726E-01 +6.55513E-02 -2.85754E-02
+3.99000E+10 +8.88649E-02 -2.74366E-01 -3.06963E-01 +9.26535E-01 -1.94074E-02 +8.76501E-01 +4.78707E-02 +2.35029E-01
+4.00000E+10 -8.69374E-02 -2.16955E-01 +5.74880E-02 +9.78170E-01 -2.58172E-01 +1.03217E+00 +1.36862E-01 -3.55812E-02
