! Quiescent point : V1=-1.64089E-02 I1=+1.29697E-03 V2=-2.23221E-02 I2=-1.30330E-03
! Pulsed point : V1=-1.65931E-02 I1=+1.31541E-03 V2=-2.19273E-02 I2=-1.30310E-03
! Period : +2.00000E-04
! Input Supply timing : delay=+1.60000E-06 width=+2.20000E-06
! Output Supply timing : delay=+1.70000E-06 width=+2.00000E-06
! VNA timing : delay=+2.40000E-06 width=+1.10000E-06
# Hz S RI R 50
+2.70000E+10 +4.38268E-02 -1.66614E-01 -9.15668E-01 -1.40276E-01 -1.03833E+00 -1.29195E-01 -4.90950E-02 -1.96599E-01
+2.71000E+10 -3.55681E-02 -2.03824E-01 -9.88331E-01 -5.59924E-02 -9.65180E-01 -5.37244E-02 -2.03788E-02 -1.62409E-01
+2.72000E+10 -2.74183E-02 -1.41284E-01 -9.63270E-01 +9.33815E-03 -9.67320E-01 -3.58919E-02 +5.38557E-02 -1.53922E-01
+2.73000E+10 +7.57918E-02 -1.01705E-01 -9.39045E-01 +4.29611E-02 -9.53831E-01 +8.69231E-03 +4.04959E-02 -1.25282E-01
+2.74000E+10 +4.30792E-02 -1.29255E-01 -9.16659E-01 -4.88962E-02 -9.79724E-01 +6.52861E-02 -3.53057E-02 -9.46245E-02
+2.75000E+10 -3.54330E-02 -1.38426E-01 -1.03454E+00 +6.30621E-02 -9.59816E-01 -3.58745E-02 +4.54265E-02 -1.36569E-01
+2.76000E+10 -5.52310E-02 -1.83981E-01 -9.92592E-01 +1.40600E-02 -9.59790E-01 -2.42940E-02 +1.38748E-02 -1.26849E-01
+2.77000E+10 -3.16382E-02 -2.23698E-01 -1.02085E+00 -1.54969E-02 -9.70973E-01 +1.08683E-01 +1.08395E-02 -1.27660E-01
+2.78000E+10 -5.11310E-03 -1.61573E-01 -9.40012E-01 +6.58563E-02 -9.24463E-01 +8.94550E-02 +6.40018E-02 -1.56518E-01
+2.79000E+10 +8.58830E-03 -1.08406E-01 -9.57213E-01 +3.82080E-02 -9.77825E-01 +5.42140E-02 +3.74594E-03 -1.32717E-01
+2.80000E+10 -2.49209E-02 -2.01796E-01 -1.02940E+00 +1.23730E-02 -9.51318E-01 -8.89770E-04 -5.76918E-02 -1.69033E-01
+2.81000E+10 -3.93753E-02 -1.60513E-01 -1.09684E+00 +8.07032E-02 -9.52581E-01 +6.64605E-02 -1.44859E-02 -8.39839E-02
+2.82000E+10 -9.41756E-02 -9.23586E-02 -1.05808E+00 +9.30944E-02 -9.42441E-01 +3.72991E-02 -2.59827E-02 -9.84411E-02
+2.83000E+10 +2.58440E-02 -1.38814E-01 -9.95050E-01 +1.12318E-01 -9.35048E-01 +2.08148E-01 +4.86999E-03 -1.56178E-01
+2.84000E+10 +1.53197E-03 -1.63902E-01 -9.18468E-01 +8.97641E-02 -9.84208E-01 +8.01561E-02 -7.25437E-02 -1.08680E-01
+2.85000E+10 -9.50215E-02 -1.72969E-01 -1.01122E+00 -6.69421E-03 -8.92555E-01 +7.06919E-02 -5.11137E-02 -1.10068E-01
+2.86000E+10 -3.92995E-02 -1.48822E-01 -9.26889E-01 +9.49661E-02 -9.64020E-01 +9.11505E-02 +5.13279E-02 -1.39682E-01
+2.87000E+10 -6.14582E-02 -1.54977E-01 -9.82785E-01 +6.55392E-02 -9.48441E-01 +1.42471E-01 +2.45749E-03 -1.66312E-01
+2.88000E+10 -6.27838E-02 -1.85641E-01 -8.81286E-01 +9.22921E-02 -8.66019E-01 +2.39675E-01 +5.80553E-03 -1.55125E-01
+2.89000E+10 -2.78215E-02 -1.39901E-01 -9.30327E-01 +1.80660E-01 -9.46810E-01 +1.06468E-01 -1.64585E-02 -1.12697E-01
+2.90000E+10 -2.31309E-02 -1.43565E-01 -8.65270E-01 +1.72040E-01 -9.26833E-01 +2.13730E-01 -5.16629E-02 -1.08515E-01
+2.91000E+10 -5.98371E-03 -2.00390E-01 -9.68776E-01 +2.05404E-01 -9.61080E-01 +1.42834E-01 +9.25031E-02 -1.89150E-01
+2.92000E+10 +6.33274E-02 -1.24358E-01 -9.00473E-01 +2.09116E-01 -9.06823E-01 +1.91863E-01 +6.52070E-02 -1.68887E-01
+2.93000E+10 -5.98998E-02 -1.05789E-01 -9.65543E-01 +2.49075E-01 -9.67713E-01 +2.44656E-01 -5.69493E-02 -1.90496E-01
+2.94000E+10 -1.68848E-02 -5.50864E-02 -9.48354E-01 +2.01673E-01 -8.85051E-01 +1.60548E-01 +1.72493E-02 -1.28425E-01
+2.95000E+10 -4.12339E-02 -1.86665E-01 -1.00093E+00 +2.63684E-01 -9.89531E-01 +1.38395E-01 -1.56904E-02 -2.70313E-01
+2.96000E+10 -5.17857E-02 -1.85570E-01 -9.32567E-01 +2.20256E-01 -9.84606E-01 +2.21461E-01 +9.45465E-03 -1.41395E-01
+2.97000E+10 -9.51341E-03 -1.63290E-01 -9.83311E-01 +2.77406E-01 -9.41017E-01 +1.68902E-01 +1.99387E-03 -1.04997E-01
+2.98000E+10 +7.75001E-02 -1.32893E-01 -9.09795E-01 +3.65329E-01 -9.89106E-01 +2.73493E-01 +9.54250E-03 -1.64926E-01
+2.99000E+10 +2.51825E-02 -1.52763E-01 -9.20830E-01 +2.32127E-01 -1.02021E+00 +2.69583E-01 -8.96480E-02 -2.31989E-01
+3.00000E+10 +8.93955E-03 -1.16423E-01 -9.05826E-01 +3.22091E-01 -9.24672E-01 +2.69282E-01 -3.14205E-02 -1.08907E-01
+3.01000E+10 -6.36071E-02 -1.14194E-01 -9.05682E-01 +3.10706E-01 -9.13058E-01 +3.46827E-01 -2.57859E-02 -1.25432E-01
+3.02000E+10 -3.72880E-02 -1.66864E-01 -8.79163E-01 +2.75053E-01 -8.85327E-01 +3.17323E-01 -3.68226E-02 -9.60916E-02
+3.03000E+10 +3.73130E-02 -1.47210E-01 -9.48530E-01 +3.71525E-01 -9.24069E-01 +3.28769E-01 +2.19423E-02 -1.53680E-01
+3.04000E+10 -4.69571E-02 -1.30961E-01 -8.50340E-01 +3.73651E-01 -8.78614E-01 +3.84451E-01 -5.24195E-02 -1.25820E-01
+3.05000E+10 -6.44084E-03 -1.11035E-01 -9.67658E-01 +3.71691E-01 -8.63158E-01 +3.08365E-01 -4.92617E-02 -1.26645E-01
+3.06000E+10 +4.71228E-02 -7.10468E-02 -9.31282E-01 +3.40472E-01 -8.43402E-01 +3.98649E-01 -7.14608E-02 -1.69793E-01
+3.07000E+10 -1.56835E-01 -2.42346E-01 -8.71049E-01 +3.04266E-01 -9.85964E-01 +2.95262E-01 -9.01250E-02 -1.63969E-01
+3.08000E+10 -4.38948E-02 -1.85743E-01 -9.86130E-01 +3.31991E-01 -8.26652E-01 +3.34935E-01 -3.66093E-02 -1.61918E-01
+3.09000E+10 -7.17218E-02 -1.76363E-01 -8.54565E-01 +4.11423E-01 -8.32367E-01 +3.90874E-01 -1.61843E-02 -1.76477E-01
+3.10000E+10 -4.16733E-02 -2.05150E-01 -8.36838E-01 +3.37228E-01 -8.13512E-01 +3.82893E-01 -6.22288E-02 -1.20019E-01
+3.11000E+10 -6.13031E-02 -1.99199E-01 -9.24605E-01 +3.44615E-01 -8.73638E-01 +4.34902E-01 -1.10141E-01 -6.26716E-02
+3.12000E+10 +3.01534E-02 -1.11315E-01 -9.07677E-01 +3.61800E-01 -8.67038E-01 +4.45008E-01 +2.22423E-02 -1.29322E-01
+3.13000E+10 +1.09643E-02 -1.88213E-01 -9.14128E-01 +4.19927E-01 -8.23163E-01 +3.53739E-01 +2.18050E-02 -1.37578E-01
+3.14000E+10 -1.16208E-01 -1.06303E-01 -8.80515E-01 +3.66819E-01 -8.88494E-01 +4.48282E-01 -6.33577E-02 -1.44728E-01
+3.15000E+10 -1.13226E-01 -3.73169E-02 -8.66884E-01 +3.85367E-01 -8.77262E-01 +4.43671E-01 -1.35256E-02 -1.19994E-01
+3.16000E+10 -9.93715E-02 -9.28699E-02 -8.92958E-01 +4.98457E-01 -8.88230E-01 +5.01782E-01 +3.62343E-02 -2.41964E-01
+3.17000E+10 +4.35467E-02 -2.29469E-01 -8.91303E-01 +3.48699E-01 -7.76123E-01 +4.40253E-01 -3.55346E-02 -1.65299E-01
+3.18000E+10 -2.08428E-02 -1.24653E-01 -9.28117E-01 +3.99008E-01 -8.58127E-01 +4.51070E-01 -4.55634E-02 -2.23898E-01
+3.19000E+10 -1.35959E-01 -2.03862E-01 -8.28340E-01 +4.87168E-01 -8.29516E-01 +2.84545E-01 +1.01473E-01 -9.71867E-02
+3.20000E+10 +2.15123E-02 -2.06663E-01 -7.52990E-01 +3.95636E-01 -9.21366E-01 +5.05106E-01 -1.07661E-01 -9.11307E-02
+3.21000E+10 +7.02737E-02 -6.89595E-03 -7.87316E-01 +3.98418E-01 -7.73879E-01 +4.86334E-01 -7.47292E-02 -6.61248E-02
+3.22000E+10 -9.08800E-02 -2.34962E-01 -8.43178E-01 +4.69275E-01 -9.12847E-01 +3.90762E-01 +2.02475E-01 -2.57991E-01
+3.23000E+10 -8.38378E-02 -1.69165E-01 -8.09672E-01 +4.32003E-01 -8.26708E-01 +5.02045E-01 -1.09468E-01 -1.87196E-01
+3.24000E+10 -7.33367E-03 -1.31541E-01 -9.18618E-01 +4.52204E-01 -7.23758E-01 +5.92564E-01 +1.73464E-03 -1.31371E-01
+3.25000E+10 +8.02577E-03 -1.93126E-01 -8.77834E-01 +5.60284E-01 -8.38354E-01 +4.94314E-01 -5.68739E-02 -2.18549E-01
+3.26000E+10 -1.63134E-01 -1.05645E-01 -8.86517E-01 +4.24809E-01 -8.54266E-01 +4.72608E-01 -1.29720E-01 -7.43290E-02
+3.27000E+10 -2.55575E-02 -1.48625E-01 -6.96395E-01 +5.95465E-01 -7.07478E-01 +4.16044E-01 +3.82215E-02 -2.37233E-01
+3.28000E+10 +9.47447E-04 -8.51871E-02 -8.26747E-01 +5.55806E-01 -8.89996E-01 +5.69920E-01 -6.21810E-02 -1.36406E-01
+3.29000E+10 -6.47217E-03 -1.58654E-01 -8.80837E-01 +5.35657E-01 -7.20281E-01 +5.24521E-01 +3.68490E-02 -1.45882E-01
+3.30000E+10 +8.55425E-02 -2.51388E-01 -8.33766E-01 +5.34295E-01 -8.30311E-01 +5.38080E-01 -3.26586E-02 -1.77052E-01
+3.31000E+10 -3.01484E-02 -1.98429E-01 -8.65057E-01 +5.32857E-01 -7.93324E-01 +5.92840E-01 -2.94670E-02 -1.65969E-01
+3.32000E+10 -8.56116E-02 -9.13356E-02 -6.67354E-01 +5.78590E-01 -9.32725E-01 +5.22558E-01 +5.23170E-02 -2.19744E-02
+3.33000E+10 -5.02379E-03 -1.77685E-01 -8.85379E-01 +5.17707E-01 -7.63988E-01 +6.36062E-01 -1.96977E-02 -9.49239E-02
+3.34000E+10 -3.41537E-02 -2.65375E-01 -6.92983E-01 +4.74380E-01 -7.74435E-01 +6.35828E-01 -9.66664E-02 -1.02255E-01
+3.35000E+10 -2.30336E-02 -1.68369E-01 -8.32488E-01 +5.97263E-01 -7.06112E-01 +6.25419E-01 -1.19892E-02 -9.78861E-02
+3.36000E+10 -1.30912E-01 -1.09332E-01 -6.83732E-01 +6.21528E-01 -7.40705E-01 +6.15655E-01 -4.58377E-02 -2.03407E-01
+3.37000E+10 -1.52547E-02 -1.64041E-01 -6.74059E-01 +5.55032E-01 -7.54656E-01 +6.53733E-01 -5.91738E-02 -1.33705E-01
+3.38000E+10 -3.59068E-02 -1.62613E-01 -7.44479E-01 +5.35679E-01 -8.04670E-01 +5.72622E-01 -5.84202E-02 -1.27086E-01
+3.39000E+10 +5.66787E-02 -1.12634E-01 -7.94047E-01 +6.01344E-01 -7.48581E-01 +6.11127E-01 -1.12762E-01 -1.88349E-01
+3.40000E+10 -2.89078E-02 -9.79394E-02 -7.28315E-01 +6.43344E-01 -7.08539E-01 +6.06467E-01 -6.79194E-02 -1.46316E-01
+3.41000E+10 -1.40534E-01 -1.45931E-01 -6.43227E-01 +5.41427E-01 -7.26237E-01 +6.16468E-01 -1.02460E-01 -1.43111E-01
+3.42000E+10 -9.62376E-02 -1.59584E-01 -6.12686E-01 +7.16502E-01 -6.29155E-01 +6.77861E-01 -3.61782E-02 -1.50368E-01
+3.43000E+10 -6.02458E-02 -1.25433E-01 -6.49701E-01 +8.09112E-01 -7.89422E-01 +7.71431E-01 -3.77785E-02 -1.23762E-01
+3.44000E+10 -4.48134E-02 -1.65935E-01 -6.18834E-01 +6.08556E-01 -7.09075E-01 +6.93384E-01 -6.74940E-02 -4.00860E-02
+3.45000E+10 -1.08932E-01 -2.63032E-01 -7.02822E-01 +6.65357E-01 -8.06037E-01 +7.49792E-01 +2.10857E-02 -1.65171E-01
+3.46000E+10 -1.10241E-01 -1.64872E-01 -5.69742E-01 +8.63420E-01 -5.80177E-01 +7.10479E-01 -1.12296E-01 -1.15075E-01
+3.47000E+10 -5.46641E-02 -1.37638E-01 -7.14016E-01 +5.96913E-01 -6.79277E-01 +7.55818E-01 -1.61164E-01 -1.95188E-01
+3.48000E+10 -1.23413E-01 -4.86574E-02 -7.42685E-01 +7.34524E-01 -6.00717E-01 +8.06134E-01 -5.10544E-03 -1.22954E-01
+3.49000E+10 -7.54889E-02 -4.90688E-02 -6.08878E-01 +7.04071E-01 -6.26129E-01 +7.45858E-01 -2.22125E-01 +1.04214E-02
+3.50000E+10 -7.40460E-02 -1.91008E-01 -6.33827E-01 +7.65694E-01 -6.71442E-01 +8.31555E-01 -6.24180E-02 -3.35342E-02
+3.51000E+10 -4.83801E-02 -1.22032E-01 -6.76506E-01 +7.33768E-01 -5.31674E-01 +8.28612E-01 -7.11159E-02 -1.82628E-01
+3.52000E+10 -2.78099E-02 -1.10470E-01 -5.19004E-01 +6.13919E-01 -5.75272E-01 +9.43570E-01 -4.54874E-02 -1.87148E-01
+3.53000E+10 -1.51834E-01 -2.57370E-01 -6.11026E-01 +8.89694E-01 -5.17153E-01 +7.91682E-01 -1.97240E-01 -1.71150E-01
+3.54000E+10 -8.40205E-03 -1.75783E-01 -5.73252E-01 +7.84136E-01 -6.74870E-01 +7.63008E-01 -1.14406E-01 -1.83322E-01
+3.55000E+10 -1.63878E-01 -8.23725E-02 -5.52536E-01 +7.99942E-01 -5.04401E-01 +7.73550E-01 +4.09829E-02 -9.52480E-02
+3.56000E+10 +1.36821E-02 -8.28768E-02 -5.61156E-01 +6.95946E-01 -5.40927E-01 +7.57767E-01 -6.04944E-02 -1.48162E-01
+3.57000E+10 -6.43424E-02 -9.09654E-02 -5.66791E-01 +6.91271E-01 -5.36413E-01 +7.60112E-01 +7.18529E-02 -1.39557E-01
+3.58000E+10 -2.06709E-01 -3.47877E-02 -4.12027E-01 +7.53661E-01 -7.21989E-01 +7.44868E-01 -3.93422E-02 -2.21525E-01
+3.59000E+10 +6.04439E-02 -1.70347E-01 -4.71657E-01 +9.68558E-01 -5.39267E-01 +7.95428E-01 -8.70029E-02 +7.72797E-02
+3.60000E+10 +1.41826E-03 -3.40543E-02 -6.18273E-01 +7.93239E-01 -6.57472E-01 +7.80968E-01 -6.42798E-02 -1.66887E-01
+3.61000E+10 -2.02364E-02 -1.42066E-01 -5.93215E-01 +8.20271E-01 -5.98553E-01 +8.70301E-01 +6.67753E-02 -8.76284E-02
+3.62000E+10 +1.31398E-01 -9.06647E-02 -5.92181E-01 +7.58459E-01 -5.24797E-01 +9.32612E-01 +9.84605E-02 -1.36333E-01
+3.63000E+10 -1.17653E-01 -9.05917E-03 -4.43912E-01 +7.26916E-01 -6.11901E-01 +8.00812E-01 -1.25812E-01 -1.88107E-01
+3.64000E+10 -5.80359E-02 -1.37994E-01 -3.51913E-01 +8.01984E-01 -5.39399E-01 +8.92986E-01 -1.35861E-01 -1.45046E-01
+3.65000E+10 -7.13549E-02 -6.50626E-02 -5.71326E-01 +8.08665E-01 -5.33282E-01 +8.97973E-01 -3.76406E-01 -6.45928E-03
+3.66000E+10 -5.75440E-03 -1.82391E-01 -4.87762E-01 +9.24560E-01 -4.20932E-01 +7.45475E-01 -7.49954E-02 -2.50023E-01
+3.67000E+10 -6.96640E-02 -5.89422E-02 -3.11801E-01 +8.07917E-01 -4.90319E-01 +9.81689E-01 +5.13044E-02 -4.58608E-02
+3.68000E+10 -9.41900E-02 -1.89251E-01 -4.02518E-01 +7.69661E-01 -5.50662E-01 +8.43901E-01 +3.54962E-02 -4.22584E-02
+3.69000E+10 -2.81400E-03 -1.70997E-01 -5.69605E-01 +9.94673E-01 -4.84852E-01 +8.63392E-01 -3.50901E-02 -9.38718E-02
+3.70000E+10 +4.01990E-02 -2.93687E-02 -4.83058E-01 +7.18398E-01 -3.68433E-01 +9.35496E-01 -1.79932E-01 -2.58953E-01
+3.71000E+10 -1.77439E-01 -1.45494E-01 -4.43500E-01 +9.07443E-01 -3.16347E-01 +8.66992E-01 -8.39308E-02 -1.60379E-01
+3.72000E+10 -8.28505E-02 +1.71809E-02 -4.81041E-01 +7.15912E-01 -3.42852E-01 +7.49130E-01 -2.21162E-02 -5.68363E-02
+3.73000E+10 -6.74730E-02 -1.80439E-01 -4.11328E-01 +9.03962E-01 -4.44871E-01 +9.16708E-01 -8.07394E-02 -1.90463E-01
+3.74000E+10 -3.84679E-02 -1.77687E-01 -4.15434E-01 +9.02444E-01 -4.86136E-01 +8.25827E-01 +1.08827E-01 -5.38180E-02
+3.75000E+10 -8.97971E-02 -2.03157E-01 -4.80662E-01 +8.64411E-01 -5.09629E-01 +8.59737E-01 +1.30729E-02 -4.09634E-02
+3.76000E+10 -8.85773E-02 -7.02820E-03 -3.09348E-01 +9.14818E-01 -4.28092E-01 +7.46706E-01 -1.11289E-01 -8.47015E-02
+3.77000E+10 -1.58838E-01 +6.69684E-03 -4.48775E-01 +9.90559E-01 -3.49106E-01 +7.60692E-01 -1.36490E-01 -1.63229E-01
+3.78000E+10 -1.08492E-01 -1.68658E-01 -4.43391E-01 +8.09265E-01 -3.09367E-01 +7.44092E-01 -1.91725E-01 -3.59312E-03
+3.79000E+10 -9.60576E-03 -8.07497E-02 -2.37067E-01 +8.07015E-01 -4.21796E-01 +1.09812E+00 +1.06397E-01 -2.06717E-01
+3.80000E+10 -3.30393E-02 -1.65102E-01 -3.66365E-01 +1.01687E+00 -2.63715E-01 +8.63893E-01 -1.77497E-02 -9.46269E-02
+3.81000E+10 -2.21304E-01 -1.29230E-01 -2.99001E-01 +8.20487E-01 -3.25365E-01 +8.49329E-01 -4.01339E-02 -6.51277E-02
+3.82000E+10 -3.01380E-02 -4.75200E-02 -3.74183E-01 +9.65369E-01 -2.22554E-01 +1.03272E+00 +2.10501E-01 -1.39281E-01
+3.83000E+10 -4.70413E-02 -1.01697E-01 -3.52135E-01 +8.60436E-01 -4.35062E-01 +7.77358E-01 -7.65252E-02 -1.58041E-01
+3.84000E+10 -5.01742E-02 -7.28865E-02 -1.77938E-01 +8.72450E-01 -3.99278E-01 +8.12206E-01 -1.90838E-02 -7.47495E-02
+3.85000E+10 -2.99120E-01 -1.17799E-01 -1.81083E-01 +1.12026E+00 -2.92094E-01 +8.84355E-01 -1.71040E-03 +1.31527E-01
+3.86000E+10 -1.31540E-01 -1.65248E-01 -2.04946E-01 +1.16821E+00 -2.17318E-01 +8.91941E-01 -1.10921E-01 -2.44490E-01
+3.87000E+10 +8.74553E-02 -9.56778E-02 -3.02670E-01 +1.02206E+00 -2.58378E-01 +8.17449E-01 -2.08686E-02 +1.36030E-01
+3.88000E+10 -4.55667E-02 -1.34819E-01 -1.29122E-01 +9.96975E-01 -3.02746E-01 +1.02189E+00 -8.51065E-02 -2.68316E-03
+3.89000E+10 +5.97891E-02 -1.32284E-01 -1.18233E-01 +1.09800E+00 -2.01574E-01 +8.16159E-01 -3.06456E-01 -5.94736E-02
+3.90000E+10 -4.37526E-02 -2.53917E-01 -1.34357E-01 +9.78657E-01 -3.79359E-01 +9.37074E-01 -7.70099E-02 -8.60946E-02
+3.91000E+10 +1.88503E-01 -2.07736E-01 -1.38364E-01 +9.48620E-01 -4.91960E-01 +1.10679E+00 -1.55696E-02 -1.60388E-02
+3.92000E+10 -1.44911E-01 +2.24181E-02 -1.69219E-01 +1.03078E+00 -3.80348E-01 +9.81800E-01 +1.07216E-01 -4.38395E-02
+3.93000E+10 -2.64300E-02 -1.59248E-01 -1.35274E-01 +7.42474E-01 -5.43976E-02 +8.90523E-01 +1.05152E-01 +2.48313E-02
+3.94000E+10 +2.37454E-02 -1.31782E-02 -3.58635E-01 +8.61806E-01 -4.67830E-02 +7.73800E-01 -1.71791E-01 -1.77362E-01
+3.95000E+10 -1.82578E-01 -3.21396E-02 -4.33167E-01 +1.11226E+00 -8.89052E-02 +9.32731E-01 -1.54765E-01 -8.65218E-03
+3.96000E+10 +1.18523E-01 -1.52560E-01 -3.41865E-01 +9.55604E-01 -1.42538E-01 +9.41108E-01 -1.78526E-01 -1.69506E-01
+3.97000E+10 +4.31318E-02 -3.15164E-01 -3.23332E-01 +8.37895E-01 -2.92996E-01 +9.91833E-01 +1.74012E-01 -9.23983E-02
+3.98000E+10 -3.33695E-02 +2.67410E-02 -2.99117E-01 +1.01202E+00 -1.39478E-01 +1.13633E+00 -1.75764E-01 -1.18404E-01
+3.99000E+10 +5.54435E-02 -1.92032E-01 -2.49510E-01 +9.48939E-01 -8.83501E-02 +8.52632E-01 +4.13486E-02 -1.17933E-01
+4.00000E+10 -2.69467E-02 -9.54078E-02 -1.57211E-01 +9.81925E-01 -3.07503E-02 +1.17160E+00 -9.87280E-02 -1.27931E-01
