! Quiescent point : V1=-1.66492E-02 I1=+1.33118E-03 V2=-2.24720E-02 I2=-1.30986E-03
! Pulsed point : V1=-1.63289E-02 I1=+1.29639E-03 V2=-2.20739E-02 I2=-1.31198E-03
! Period : +2.00000E-04
! Input Supply timing : delay=+1.60000E-06 width=+2.20000E-06
! Output Supply timing : delay=+1.70000E-06 width=+2.00000E-06
! VNA timing : delay=+2.40000E-06 width=+1.10000E-06
# Hz S RI R 50
+2.70000E+10 +1.49565E-02 -1.24734E-01 -1.02242E+00 +4.59775E-02 -1.07250E+00 +6.92132E-02 -1.14444E-01 -5.71895E-02
+2.71000E+10 +1.09434E-02 -5.96516E-02 -1.04143E+00 -4.64425E-03 -9.39126E-01 +4.64873E-03 +2.00903E-02 -5.62303E-02
+2.72000E+10 -4.27417E-02 -1.11510E-01 -9.32099E-01 +7.51367E-02 -9.95472E-01 -2.96545E-02 -2.06397E-02 -6.29849E-02
+2.73000E+10 +5.35219E-02 -2.98926E-02 -9.68695E-01 +6.81422E-02 -9.68123E-01 +6.28863E-02 +2.05295E-02 -6.54199E-02
+2.74000E+10 +1.62986E-02 -1.63453E-02 -9.07345E-01 -4.05620E-03 -1.01460E+00 +4.85246E-02 +7.23254E-03 -3.69560E-02
+2.75000E+10 +2.09357E-02 +1.07653E-02 -9.67991E-01 +1.54853E-02 -9.96383E-01 +8.54997E-02 -3.73962E-02 -1.20433E-01
+2.76000E+10 +2.82798E-02 +7.34957E-03 -9.93249E-01 +8.44546E-02 -9.42553E-01 +4.14958E-02 +3.38295E-02 -2.95380E-02
+2.77000E+10 +4.20610E-02 -3.20507E-02 -9.90885E-01 +8.95076E-02 -9.99165E-01 +9.72263E-02 -1.45120E-02 -4.47797E-02
+2.78000E+10 +7.98612E-04 -8.44380E-02 -9.54129E-01 +1.08261E-01 -9.76484E-01 +6.40528E-02 +8.05083E-03 -6.68381E-02
+2.79000E+10 -3.69774E-02 -2.63564E-03 -9.86774E-01 +9.02007E-02 -9.96939E-01 +1.09162E-01 +4.82784E-02 -4.77753E-02
+2.80000E+10 -3.58708E-03 -5.97752E-02 -9.76953E-01 +6.28422E-02 -8.80397E-01 +1.50566E-01 -3.47708E-02 -6.61176E-02
+2.81000E+10 +1.94543E-02 -7.11112E-02 -1.01689E+00 +2.22011E-01 -1.01189E+00 +1.48706E-01 -4.98491E-02 +2.18138E-02
+2.82000E+10 +3.44053E-03 +3.28602E-03 -9.20872E-01 +9.68796E-02 -9.71072E-01 +9.29317E-02 -3.23268E-02 -4.69686E-02
+2.83000E+10 -2.61346E-02 -1.31222E-01 -9.91907E-01 +1.83186E-01 -9.58203E-01 +1.91017E-01 -2.48459E-02 +5.21951E-03
+2.84000E+10 -1.96326E-02 -1.67348E-01 -9.60931E-01 +2.33888E-01 -9.67736E-01 +1.53100E-01 +6.07543E-02 -6.32774E-02
+2.85000E+10 +1.26271E-01 -2.69059E-02 -9.91833E-01 +1.37365E-01 -1.03629E+00 +1.54937E-01 -5.84494E-02 -4.20553E-02
+2.86000E+10 +4.84495E-02 -1.03558E-01 -1.02584E+00 +2.21389E-01 -9.81299E-01 +1.56275E-01 +8.04050E-02 -4.44250E-02
+2.87000E+10 +7.05429E-02 -1.28360E-01 -9.84729E-01 +1.66424E-01 -9.66785E-01 +2.13649E-01 -1.54577E-02 -5.66353E-02
+2.88000E+10 -4.51489E-02 -5.61448E-04 -9.53054E-01 +2.03789E-01 -9.34033E-01 +1.96326E-01 +3.05701E-02 -8.79169E-02
+2.89000E+10 +1.17868E-02 +1.13744E-02 -8.82853E-01 +2.21497E-01 -9.59670E-01 +1.87853E-01 -4.69701E-02 -5.01038E-02
+2.90000E+10 +3.09846E-02 -5.34486E-03 -9.60253E-01 +1.74062E-01 -9.66427E-01 +2.41343E-01 -1.91988E-02 -7.01919E-02
+2.91000E+10 -6.03896E-02 -8.35262E-02 -9.11127E-01 +2.37757E-01 -8.73140E-01 +2.44868E-01 +2.50309E-02 +1.91431E-02
+2.92000E+10 -3.22019E-03 -9.01849E-02 -9.41531E-01 +3.00116E-01 -9.82060E-01 +2.02626E-01 -5.94695E-03 -1.21555E-01
+2.93000E+10 +7.59032E-02 -3.05343E-03 -9.32945E-01 +2.04230E-01 -9.81945E-01 +3.01473E-01 -1.56344E-02 +1.37234E-02
+2.94000E+10 +1.25432E-02 -7.24822E-02 -1.00799E+00 +3.93744E-01 -9.76463E-01 +2.72384E-01 +2.08577E-04 -5.65133E-02
+2.95000E+10 -5.20154E-02 -5.87462E-02 -9.56652E-01 +3.41021E-01 -9.51041E-01 +2.29102E-01 +5.04517E-02 -7.53603E-02
+2.96000E+10 -2.23727E-02 -9.52836E-02 -9.46105E-01 +3.00609E-01 -9.31579E-01 +2.52241E-01 +1.04939E-02 -5.03535E-02
+2.97000E+10 +1.19668E-02 +2.24856E-02 -8.55581E-01 +2.34735E-01 -9.98328E-01 +3.52991E-01 +3.49841E-04 -3.02307E-03
+2.98000E+10 -2.91679E-02 -8.84529E-02 -8.90145E-01 +2.66005E-01 -1.00656E+00 +3.19489E-01 +8.65545E-02 -9.85661E-02
+2.99000E+10 -2.36683E-02 +1.77876E-02 -8.73811E-01 +2.81214E-01 -8.64047E-01 +3.14432E-01 -3.48857E-03 -2.69758E-02
+3.00000E+10 +2.55010E-02 -6.82427E-02 -8.62034E-01 +3.28541E-01 -1.01636E+00 +3.63501E-01 +9.68661E-02 +6.27922E-03
+3.01000E+10 +8.41279E-02 +4.02724E-02 -9.20576E-01 +4.25100E-01 -9.07458E-01 +3.28138E-01 -1.77150E-02 -5.48713E-02
+3.02000E+10 -3.51121E-02 -6.16903E-02 -9.44567E-01 +3.43823E-01 -8.95288E-01 +2.80551E-01 -1.26475E-02 -3.70720E-04
+3.03000E+10 -9.33711E-02 -1.25683E-02 -8.82034E-01 +2.97969E-01 -8.30156E-01 +4.03199E-01 -8.50099E-03 -7.02194E-02
+3.04000E+10 +9.80952E-02 +3.74896E-03 -7.72462E-01 +3.23672E-01 -9.59315E-01 +3.17044E-01 +8.88692E-02 -8.14296E-02
+3.05000E+10 +1.09998E-01 +7.08593E-02 -8.14020E-01 +4.08336E-01 -8.65729E-01 +4.90659E-01 +7.95993E-02 -1.17314E-01
+3.06000E+10 -4.63896E-02 -1.18758E-01 -9.25994E-01 +4.09526E-01 -9.14209E-01 +3.32324E-01 +6.67212E-02 -9.51105E-02
+3.07000E+10 +5.91221E-02 -5.06964E-02 -8.90511E-01 +3.92527E-01 -7.81935E-01 +4.21451E-01 +1.14053E-02 -7.94701E-02
+3.08000E+10 +5.23889E-02 -8.71116E-02 -8.94551E-01 +4.10592E-01 -8.35342E-01 +5.14427E-01 +6.70728E-02 +3.62884E-02
+3.09000E+10 +1.99726E-02 -3.85522E-02 -9.03613E-01 +2.90773E-01 -9.64126E-01 +4.32115E-01 -3.39519E-02 -1.38427E-01
+3.10000E+10 +3.95623E-02 -2.55038E-02 -8.65208E-01 +5.12871E-01 -9.08593E-01 +4.65607E-01 +2.27863E-02 -6.62965E-02
+3.11000E+10 -5.44030E-02 -1.10942E-02 -6.95264E-01 +4.80464E-01 -9.67120E-01 +4.93683E-01 -7.44332E-03 -7.67841E-02
+3.12000E+10 +6.64454E-02 +3.01968E-02 -7.01623E-01 +4.51582E-01 -8.65736E-01 +5.28152E-01 +4.23035E-02 +2.78012E-02
+3.13000E+10 -3.32674E-02 +1.67261E-02 -7.82108E-01 +4.04500E-01 -7.79706E-01 +5.38187E-01 +2.42740E-02 -7.93642E-02
+3.14000E+10 -6.64327E-02 -4.90352E-02 -8.83202E-01 +5.13941E-01 -7.36965E-01 +5.30316E-01 -2.78723E-02 +2.16030E-02
+3.15000E+10 +1.93307E-02 -1.76333E-03 -8.03402E-01 +4.29267E-01 -8.37757E-01 +4.08814E-01 -6.49038E-02 +1.26415E-02
+3.16000E+10 +3.06322E-02 -5.85957E-02 -9.03623E-01 +5.41045E-01 -9.74361E-01 +5.17131E-01 +1.16717E-01 -2.05230E-01
+3.17000E+10 -8.61176E-02 -9.01450E-02 -8.36848E-01 +4.68884E-01 -8.26262E-01 +6.01528E-01 +7.90784E-02 -6.24610E-02
+3.18000E+10 +4.03740E-03 -1.51199E-01 -7.52582E-01 +5.37165E-01 -8.30497E-01 +4.65185E-01 +1.04761E-01 -9.33060E-02
+3.19000E+10 +2.38846E-02 +3.04594E-02 -7.89916E-01 +4.98802E-01 -7.44084E-01 +5.72405E-01 +3.81141E-02 -9.84415E-02
+3.20000E+10 +3.97993E-02 +9.79656E-02 -7.05482E-01 +4.95750E-01 -8.65449E-01 +5.71865E-01 -1.02840E-02 +2.58689E-02
+3.21000E+10 +1.35171E-02 -1.03236E-01 -8.24392E-01 +5.79327E-01 -7.82579E-01 +5.46568E-01 -1.41763E-02 -5.88721E-02
+3.22000E+10 -8.47537E-02 +1.52830E-02 -9.08030E-01 +5.53771E-01 -8.43716E-01 +5.27105E-01 +6.58398E-02 +1.78827E-03
+3.23000E+10 -2.55836E-02 -3.11168E-02 -6.67861E-01 +4.29263E-01 -7.15478E-01 +5.54646E-01 +4.62200E-02 -1.11291E-01
+3.24000E+10 -4.17654E-02 -8.34100E-02 -7.63839E-01 +5.43273E-01 -7.72054E-01 +5.86766E-01 -2.47700E-02 -1.54816E-01
+3.25000E+10 -5.83124E-03 -9.48856E-02 -7.47467E-01 +6.20356E-01 -7.40349E-01 +6.30358E-01 -2.33789E-02 -1.15466E-02
+3.26000E+10 +1.15266E-01 -5.10623E-02 -6.94086E-01 +5.76901E-01 -6.95954E-01 +6.17001E-01 -1.26831E-02 -4.65242E-02
+3.27000E+10 -8.43059E-02 +1.75998E-03 -6.61523E-01 +5.59835E-01 -7.10735E-01 +5.31420E-01 +6.56580E-02 -3.07441E-03
+3.28000E+10 -3.05459E-02 -6.94833E-02 -7.27600E-01 +6.45334E-01 -7.87909E-01 +7.29755E-01 +8.46913E-02 -1.64258E-02
+3.29000E+10 +4.51478E-02 -3.84035E-02 -7.96910E-01 +4.93048E-01 -7.54759E-01 +6.15728E-01 +3.38286E-02 +3.81587E-02
+3.30000E+10 +1.14986E-01 -1.33975E-01 -7.45975E-01 +5.53671E-01 -8.67803E-01 +6.21724E-01 +4.12524E-02 -2.36122E-03
+3.31000E+10 -1.18077E-01 -1.14292E-01 -6.96593E-01 +6.37791E-01 -7.63706E-01 +6.96775E-01 -2.45652E-02 -1.24122E-01
+3.32000E+10 +9.15494E-02 -3.76768E-02 -6.46801E-01 +6.64030E-01 -7.96053E-01 +6.94184E-01 +3.58693E-02 -8.05563E-02
+3.33000E+10 -1.19997E-02 +1.87761E-02 -7.06330E-01 +6.71075E-01 -6.17219E-01 +6.42335E-01 +6.61374E-02 -7.49285E-02
+3.34000E+10 -9.17326E-03 -8.45855E-02 -5.99036E-01 +6.79602E-01 -6.51675E-01 +6.97792E-01 +2.85300E-02 -5.12847E-02
+3.35000E+10 -5.58909E-02 -6.41890E-02 -7.66806E-01 +7.18742E-01 -5.98848E-01 +7.00959E-01 +1.04853E-01 +2.22568E-02
+3.36000E+10 +2.38549E-02 +2.49906E-02 -5.99918E-01 +6.10887E-01 -6.30228E-01 +7.03513E-01 -1.72731E-03 +2.81540E-02
+3.37000E+10 +1.18248E-01 +1.21472E-02 -6.75665E-01 +6.75007E-01 -8.09101E-01 +6.33284E-01 +7.17973E-02 -9.91067E-02
+3.38000E+10 +1.20970E-01 -1.99091E-01 -6.74336E-01 +7.15733E-01 -7.74638E-01 +7.01429E-01 +4.09285E-02 -5.57583E-02
+3.39000E+10 -2.42234E-02 -5.79694E-02 -6.92816E-01 +6.16437E-01 -6.31884E-01 +6.07031E-01 +7.12643E-02 -1.10581E-01
+3.40000E+10 -5.44784E-02 -2.32928E-02 -6.61240E-01 +6.28448E-01 -6.71625E-01 +6.14155E-01 +1.44734E-01 -8.65892E-03
+3.41000E+10 -3.19122E-02 -1.72324E-01 -5.51635E-01 +6.43013E-01 -5.09536E-01 +7.77821E-01 -2.15844E-02 +7.32880E-03
+3.42000E+10 +1.10573E-01 -9.64673E-02 -5.45288E-01 +7.66607E-01 -6.57465E-01 +8.22114E-01 +5.33006E-02 -2.12787E-01
+3.43000E+10 +1.57730E-01 -1.13212E-01 -6.24540E-01 +6.39890E-01 -6.88329E-01 +6.48092E-01 +1.32916E-01 -2.40547E-02
+3.44000E+10 +7.85865E-03 -6.26775E-02 -6.02921E-01 +7.45892E-01 -7.02739E-01 +7.79467E-01 +7.20302E-02 -3.79887E-02
+3.45000E+10 +6.31477E-02 -7.36855E-02 -5.80517E-01 +8.34579E-01 -6.64747E-01 +7.26958E-01 +1.02005E-02 -1.01128E-01
+3.46000E+10 -1.95557E-02 -1.97073E-02 -5.97521E-01 +6.50421E-01 -6.61294E-01 +7.57427E-01 -4.09109E-02 -9.97269E-03
+3.47000E+10 +3.86756E-02 +3.55975E-02 -5.58584E-01 +8.63210E-01 -5.62758E-01 +8.50401E-01 -6.67767E-02 -7.96762E-02
+3.48000E+10 +1.09239E-01 +1.06858E-03 -5.78676E-01 +8.47017E-01 -6.29097E-01 +7.74672E-01 -8.07862E-03 -1.73501E-01
+3.49000E+10 -5.31969E-02 -1.23064E-01 -5.93781E-01 +7.21478E-01 -4.45632E-01 +8.71399E-01 +2.14202E-02 -1.42946E-01
+3.50000E+10 +4.64964E-02 -1.27727E-01 -6.26369E-01 +8.96624E-01 -5.17587E-01 +8.33545E-01 -1.13578E-01 -3.36791E-02
+3.51000E+10 -7.86748E-02 -1.43447E-01 -6.31039E-01 +7.34073E-01 -6.40461E-01 +8.20040E-01 +1.50220E-02 +1.54356E-01
+3.52000E+10 +2.36146E-02 -5.95932E-03 -5.55260E-01 +8.66295E-01 -4.65900E-01 +6.61168E-01 +8.82661E-02 -1.39081E-01
+3.53000E+10 +1.63020E-02 -9.99017E-03 -5.24356E-01 +7.53001E-01 -5.86660E-01 +9.82044E-01 +7.18009E-02 -1.92674E-01
+3.54000E+10 +6.57224E-02 -2.25213E-02 -5.07811E-01 +8.39914E-01 -4.09809E-01 +7.20315E-01 +2.10523E-01 -1.27633E-01
+3.55000E+10 +3.33188E-02 -2.27481E-02 -4.13059E-01 +7.07678E-01 -6.52375E-01 +7.21563E-01 -2.35266E-02 +1.37429E-01
+3.56000E+10 +1.90207E-02 -7.03474E-02 -6.35354E-01 +9.25283E-01 -4.06848E-01 +7.43071E-01 -3.71780E-02 -4.53715E-03
+3.57000E+10 +5.92622E-02 -1.94998E-02 -4.75324E-01 +5.53383E-01 -3.99851E-01 +8.15249E-01 -1.99781E-01 -1.88540E-02
+3.58000E+10 -2.24313E-02 -1.70064E-01 -5.21344E-01 +8.95730E-01 -3.15630E-01 +7.69098E-01 +1.70108E-01 -1.28419E-01
+3.59000E+10 +8.95126E-03 -1.64072E-01 -5.61393E-01 +7.08933E-01 -4.89037E-01 +7.39993E-01 +1.58278E-01 -1.76681E-01
+3.60000E+10 +1.01585E-01 +3.16405E-02 -6.54926E-01 +7.93395E-01 -4.73981E-01 +8.48107E-01 -6.38944E-02 +7.52376E-02
+3.61000E+10 -1.80642E-02 -6.15568E-02 -5.80962E-01 +8.66799E-01 -3.13216E-01 +9.11915E-01 +4.77997E-02 -1.19573E-02
+3.62000E+10 +1.11909E-01 +9.00376E-02 -5.63687E-01 +7.96155E-01 -5.11561E-01 +9.88948E-01 -2.47948E-03 -2.26591E-01
+3.63000E+10 +1.02579E-02 -1.11744E-01 -4.67323E-01 +7.56795E-01 -4.60230E-01 +8.71316E-01 +1.21100E-01 +6.87976E-02
+3.64000E+10 +1.69037E-02 -5.21183E-02 -4.68213E-01 +9.69590E-01 -3.67939E-01 +8.17908E-01 +7.35568E-02 -1.25025E-01
+3.65000E+10 +1.70238E-01 -6.58291E-02 -5.25853E-01 +9.67359E-01 -5.08164E-01 +9.04454E-01 +1.62136E-01 -1.02957E-01
+3.66000E+10 +1.87268E-01 +3.88654E-02 -5.21837E-01 +9.64024E-01 -3.35112E-01 +1.05942E+00 -3.88444E-02 -1.45105E-01
+3.67000E+10 -9.66143E-02 +5.66447E-02 -4.01927E-01 +7.28559E-01 -4.38563E-01 +7.84266E-01 +2.01831E-01 -8.40153E-02
+3.68000E+10 +8.08480E-02 -1.44540E-02 -3.76168E-01 +1.08547E+00 -5.26883E-01 +9.34991E-01 +3.09223E-02 -1.87167E-01
+3.69000E+10 -1.12700E-01 +2.03838E-02 -2.75060E-01 +8.57807E-01 -5.03309E-01 +9.41911E-01 +1.09929E-01 -3.11668E-03
+3.70000E+10 +2.70823E-01 -9.99126E-02 -4.43234E-01 +8.97592E-01 -4.72856E-01 +9.20714E-01 +7.38267E-02 -2.17208E-02
+3.71000E+10 -3.78198E-02 +6.61165E-02 -3.79932E-01 +8.29137E-01 -2.24806E-01 +9.07299E-01 -9.03718E-04 +5.07576E-03
+3.72000E+10 +1.01556E-01 -5.38865E-02 -3.56927E-01 +8.99827E-01 -4.88040E-01 +8.35501E-01 +2.16493E-01 -2.13875E-01
+3.73000E+10 +5.29978E-02 -2.00024E-01 -3.70059E-01 +8.17456E-01 -3.32608E-01 +9.05014E-01 +1.30290E-02 -4.01376E-02
+3.74000E+10 +1.09143E-01 -1.15160E-01 -3.28631E-01 +1.06540E+00 -4.12904E-01 +1.04817E+00 +3.00846E-03 -1.11511E-02
+3.75000E+10 +1.75484E-01 -4.15503E-02 -4.23075E-01 +9.93321E-01 -3.36934E-01 +1.00093E+00 +5.37763E-03 -3.85030E-02
+3.76000E+10 -1.48891E-02 -7.79686E-02 -3.02009E-01 +1.00060E+00 -3.15760E-01 +9.12796E-01 +1.40612E-01 -1.13641E-01
+3.77000E+10 +5.00214E-02 -1.83910E-01 -4.24436E-01 +1.06974E+00 -3.51101E-01 +7.99704E-01 +2.20667E-02 -1.27039E-01
+3.78000E+10 -9.25241E-03 -1.97297E-01 -2.03206E-01 +8.95209E-01 -2.30823E-01 +8.08285E-01 -3.30346E-02 -1.76657E-01
+3.79000E+10 -3.70589E-02 -2.93790E-02 -3.16736E-01 +9.46538E-01 -4.17367E-01 +1.04244E+00 -4.59989E-02 -2.81086E-02
+3.80000E+10 -4.31300E-03 -7.96618E-02 -2.64588E-01 +8.15781E-01 -1.64539E-01 +8.48589E-01 +5.95889E-02 -7.43305E-02
+3.81000E+10 -8.61371E-02 +9.44951E-03 -3.11886E-01 +8.65037E-01 -2.00734E-01 +7.93738E-01 +2.07939E-01 -2.39782E-01
+3.82000E+10 +4.57352E-02 -3.48141E-02 -2.23809E-01 +9.84569E-01 -2.20700E-01 +9.66748E-01 +4.98244E-02 -1.91873E-01
+3.83000E+10 +8.04310E-02 -7.06189E-02 -3.58020E-01 +9.65169E-01 -3.84458E-01 +8.42650E-01 +1.02739E-02 -3.06609E-01
+3.84000E+10 -2.49029E-04 -8.38302E-02 -3.31069E-01 +8.67731E-01 -6.83083E-02 +1.20135E+00 -1.87102E-02 -1.23341E-01
+3.85000E+10 +9.29455E-03 -1.48987E-01 -2.44053E-01 +8.43201E-01 -8.10333E-02 +1.16675E+00 +3.72887E-02 -1.11157E-01
+3.86000E+10 +1.79866E-01 -1.34237E-01 -9.84232E-02 +8.67838E-01 -2.96014E-01 +1.02469E+00 +1.17757E-01 +5.35202E-02
+3.87000E+10 +1.58211E-01 -1.10362E-01 -1.91169E-01 +9.76866E-01 -2.44815E-02 +1.06019E+00 +1.11472E-01 -1.10047E-01
+3.88000E+10 +1.40127E-01 -1.05643E-02 -1.41621E-01 +9.70832E-01 -1.82398E-01 +9.53535E-01 +2.37260E-02 -5.51485E-02
+3.89000E+10 +8.11811E-02 -1.06877E-01 -3.08239E-01 +7.96218E-01 -9.43398E-02 +9.98953E-01 -2.53324E-02 -1.61527E-01
+3.90000E+10 -9.40502E-02 -1.37717E-01 +4.63660E-02 +9.88558E-01 -1.96290E-01 +1.02517E+00 +3.50849E-01 -4.73159E-02
+3.91000E+10 +7.97202E-02 +1.36509E-01 -1.57304E-01 +7.99663E-01 +1.01287E-01 +8.55746E-01 -5.54686E-02 -2.01102E-01
+3.92000E+10 -7.82381E-03 -5.58795E-03 +1.89261E-02 +1.02232E+00 -9.70086E-03 +9.87996E-01 +5.12629E-02 -3.89823E-02
+3.93000E+10 +1.04406E-01 -1.62964E-01 -4.17588E-02 +1.12056E+00 +2.67051E-02 +9.93808E-01 +1.00760E-01 -5.04049E-02
+3.94000E+10 +2.37628E-02 -2.64973E-01 -2.38523E-01 +1.03248E+00 -1.52453E-01 +1.05405E+00 -2.87474E-02 -1.22984E-01
+3.95000E+10 +2.05643E-01 -1.87988E-01 -4.95002E-02 +9.55304E-01 +7.13877E-02 +9.43617E-01 +3.64433E-01 +7.73030E-02
+3.96000E+10 -1.52198E-02 +2.31900E-02 -5.90489E-02 +9.48982E-01 -2.54080E-01 +1.03519E+00 -4.17397E-02 -9.54695E-02
+3.97000E+10 +8.11902E-02 +1.90641E-02 +8.80858E-02 +8.12734E-01 -1.83324E-01 +8.85947E-01 -1.35033E-01 -9.39461E-02
+3.98000E+10 -6.42220E-02 -5.19428E-02 +1.03061E-01 +1.07886E+00 +2.99723E-03 +1.09944E+00 +5.44105E-02 -1.52969E-01
+3.99000E+10 -3.84954E-02 -5.19401E-02 -7.48566E-02 +9.14714E-01 -7.98645E-02 +1.02181E+00 +1.80039E-01 -2.43730E-01
+4.00000E+10 -1.29710E-01 -1.46113E-01 +1.63480E-01 +9.55393E-01 -9.98339E-02 +1.05058E+00 -6.68673E-02 -2.52434E-01
