! Quiescent point : V1=-1.64890E-02 I1=+1.28698E-03 V2=-2.16725E-02 I2=-1.26495E-03
! Pulsed point : V1=-1.63289E-02 I1=+1.28996E-03 V2=-2.22846E-02 I2=-1.29200E-03
! Period : +2.00000E-04
! Input Supply timing : delay=+1.60000E-06 width=+2.20000E-06
! Output Supply timing : delay=+1.70000E-06 width=+2.00000E-06
! VNA timing : delay=+2.40000E-06 width=+1.10000E-06
# Hz S RI R 50
+2.70000E+10 +3.51843E-02 -1.35186E-01 -9.42717E-01 -8.01091E-02 -9.52088E-01 -2.74980E-02 -2.71607E-02 -1.34811E-01
+2.71000E+10 -6.26258E-02 -1.36562E-01 -1.01437E+00 -7.98052E-02 -9.65643E-01 -4.79188E-02 +7.39272E-02 -1.23908E-01
+2.72000E+10 +6.54737E-02 -1.80115E-01 -9.82588E-01 -1.71509E-02 -9.93275E-01 +1.78531E-02 +1.18564E-02 -1.35901E-01
+2.73000E+10 -1.96707E-03 -1.61660E-01 -9.99407E-01 +2.87003E-02 -8.87529E-01 +5.24136E-02 -2.64743E-02 -1.49810E-01
+2.74000E+10 -1.41433E-02 -1.48217E-01 -9.30295E-01 -3.95470E-02 -1.01763E+00 -3.73685E-02 -3.13350E-02 -1.27921E-01
+2.75000E+10 -3.00824E-02 -1.18261E-01 -9.26147E-01 +7.73915E-02 -9.94816E-01 +1.64211E-02 +3.31047E-02 -1.35325E-01
+2.76000E+10 -3.01198E-02 -3.98060E-02 -1.05663E+00 +3.81106E-02 -9.78131E-01 +5.60882E-02 -5.38150E-02 -1.12527E-01
+2.77000E+10 +1.11083E-01 -1.42474E-01 -9.05618E-01 +1.33923E-02 -9.61586E-01 +6.97560E-02 +4.78106E-02 -1.23029E-01
+2.78000E+10 -5.59311E-02 -1.35218E-01 -9.27545E-01 +7.37866E-02 -1.03063E+00 -4.08255E-03 -3.44297E-02 -1.67380E-01
+2.79000E+10 +7.84924E-02 -2.25017E-01 -9.22543E-01 +1.82080E-01 -9.09351E-01 +1.10980E-01 -2.95183E-02 -1.43655E-01
+2.80000E+10 +3.91341E-02 -1.00570E-01 -9.35052E-01 +6.97077E-02 -1.01787E+00 +4.02123E-02 -5.75065E-02 -2.18341E-01
+2.81000E+10 +4.99744E-02 -1.24165E-01 -9.34798E-01 +1.15115E-01 -1.02294E+00 +1.14716E-01 +9.92908E-03 +2.37962E-03
+2.82000E+10 +4.93031E-02 -1.40036E-01 -1.01147E+00 +7.04132E-02 -9.84593E-01 +1.14293E-01 -3.18868E-03 -1.31034E-01
+2.83000E+10 +3.69448E-02 -1.42497E-01 -8.70500E-01 +1.08875E-01 -9.23761E-01 +3.83379E-02 -3.26507E-02 -1.68082E-01
+2.84000E+10 -7.79187E-02 -6.97259E-02 -1.13359E+00 +1.53071E-01 -9.51190E-01 +9.60372E-02 -2.37233E-02 -1.91505E-01
+2.85000E+10 +5.71616E-03 -1.64072E-01 -1.01792E+00 +1.79996E-01 -9.60265E-01 +1.40445E-01 -4.60179E-02 -1.30476E-01
+2.86000E+10 -1.66045E-02 -1.75916E-01 -9.43262E-01 +1.71827E-01 -9.83448E-01 +1.18194E-01 +3.90166E-02 -1.53046E-01
+2.87000E+10 -3.06447E-03 -7.58655E-02 -9.32544E-01 +1.43014E-01 -1.01500E+00 +9.55107E-02 +2.54805E-02 -8.46469E-02
+2.88000E+10 -8.94003E-02 -8.48413E-02 -9.47300E-01 +2.09354E-01 -1.00681E+00 +1.55063E-01 -6.74220E-02 -1.00929E-01
+2.89000E+10 -8.18677E-02 -1.03851E-01 -1.02664E+00 +2.78624E-01 -9.76467E-01 +1.30666E-01 -7.26389E-02 -8.24379E-02
+2.90000E+10 +1.09387E-01 -1.62035E-01 -9.47111E-01 +1.82844E-01 -9.16439E-01 +1.92398E-01 -1.84800E-02 -1.11774E-01
+2.91000E+10 -3.49672E-02 -1.79360E-01 -8.56939E-01 +1.85032E-01 -9.83219E-01 +2.11531E-01 -6.88540E-02 -1.58006E-01
+2.92000E+10 +2.06716E-02 -1.39892E-01 -9.16065E-01 +1.92968E-01 -9.11473E-01 +2.20073E-01 -1.92060E-02 -8.08677E-02
+2.93000E+10 +5.33200E-03 -1.09386E-01 -9.63142E-01 +3.15609E-01 -8.92224E-01 +1.93496E-01 -7.93806E-02 -1.75500E-01
+2.94000E+10 +1.19379E-02 -6.70233E-02 -9.61159E-01 +2.70440E-01 -9.38877E-01 +1.71110E-01 -8.51795E-03 -1.65429E-01
+2.95000E+10 -3.61306E-02 -1.38644E-01 -9.27880E-01 +1.45428E-01 -9.50462E-01 +2.31848E-01 -4.38163E-02 -1.54670E-01
+2.96000E+10 -8.05202E-03 -1.77131E-01 -9.06731E-01 +2.34656E-01 -9.13927E-01 +2.84510E-01 -5.78338E-02 -1.48515E-01
+2.97000E+10 +5.77003E-02 -1.06860E-01 -9.70725E-01 +1.98408E-01 -8.70329E-01 +2.72403E-01 -1.42484E-02 -1.05117E-01
+2.98000E+10 +4.48069E-02 -1.58967E-01 -9.69315E-01 +3.11012E-01 -9.78528E-01 +2.34452E-01 +6.05964E-02 -5.06812E-02
+2.99000E+10 -7.67441E-03 -1.80213E-01 -1.00811E+00 +2.85559E-01 -9.34231E-01 +1.94875E-01 -6.34323E-02 -1.21296E-01
+3.00000E+10 -2.63189E-02 -1.47206E-01 -8.45743E-01 +2.50274E-01 -9.26751E-01 +3.65575E-01 +3.38746E-03 -8.48900E-02
+3.01000E+10 +1.37535E-01 -1.63420E-01 -9.07989E-01 +3.67803E-01 -8.82717E-01 +4.16288E-01 -1.14799E-01 -1.26513E-01
+3.02000E+10 -1.11114E-01 -1.86537E-01 -8.84850E-01 +3.33906E-01 -9.54748E-01 +4.08844E-01 -5.14106E-02 -1.24309E-01
+3.03000E+10 +3.48886E-02 -1.49410E-01 -9.77342E-01 +4.01402E-01 -9.43103E-01 +3.22702E-01 -5.83503E-02 +1.75513E-02
+3.04000E+10 -3.19195E-03 -2.67868E-02 -7.81948E-01 +3.76252E-01 -8.97699E-01 +3.55652E-01 +5.14958E-02 -1.46549E-01
+3.05000E+10 -6.05503E-04 -1.52689E-01 -9.51745E-01 +3.22472E-01 -9.87380E-01 +3.03762E-01 -9.06334E-04 -9.43293E-02
+3.06000E+10 +2.58042E-02 -1.31514E-01 -9.23849E-01 +3.72328E-01 -8.76532E-01 +3.44574E-01 -9.66365E-03 -1.29840E-01
+3.07000E+10 +3.06128E-02 -1.00995E-01 -8.95638E-01 +3.42973E-01 -8.91611E-01 +3.59048E-01 -4.38898E-02 -1.31787E-01
+3.08000E+10 +2.57198E-02 -1.32432E-01 -9.54874E-01 +4.25200E-01 -8.64001E-01 +3.86201E-01 -1.75081E-02 -9.15611E-02
+3.09000E+10 -9.70966E-03 -1.00314E-01 -8.72647E-01 +3.48221E-01 -8.57372E-01 +4.78939E-01 -1.23303E-01 -7.64405E-02
+3.10000E+10 +2.36481E-02 -8.95605E-02 -8.39036E-01 +3.08729E-01 -9.77018E-01 +4.29406E-01 -3.10538E-02 -1.17509E-01
+3.11000E+10 +7.38110E-02 -1.98244E-01 -8.94183E-01 +4.32738E-01 -8.99347E-01 +4.28725E-01 -1.30023E-01 -1.88632E-01
+3.12000E+10 +1.48376E-02 -8.69149E-02 -9.10246E-01 +4.50631E-01 -9.89374E-01 +4.20610E-01 -2.09388E-02 -3.67057E-02
+3.13000E+10 -4.34442E-02 -6.72084E-02 -8.40007E-01 +4.11825E-01 -9.59893E-01 +4.79784E-01 -1.31346E-01 -3.38740E-02
+3.14000E+10 +9.08409E-03 -1.79538E-01 -7.47554E-01 +5.10904E-01 -7.90843E-01 +4.31000E-01 -9.27166E-02 -1.43421E-01
+3.15000E+10 +6.91125E-02 -1.05059E-01 -9.93387E-01 +4.83121E-01 -8.98503E-01 +4.13178E-01 -4.67652E-02 -1.99635E-01
+3.16000E+10 -4.56914E-02 -1.41867E-01 -7.49781E-01 +4.01733E-01 -8.20360E-01 +4.66696E-01 -1.08544E-01 -9.15346E-02
+3.17000E+10 -1.20116E-02 -9.75450E-02 -9.64527E-01 +4.85278E-01 -8.59715E-01 +3.32163E-01 -5.95941E-02 -7.61432E-02
+3.18000E+10 +3.54789E-02 -6.56119E-02 -7.83875E-01 +5.11363E-01 -7.96432E-01 +4.95426E-01 -6.14221E-02 -6.58195E-02
+3.19000E+10 +4.26087E-03 -1.40169E-01 -9.42356E-01 +5.16088E-01 -8.24363E-01 +6.28406E-01 -7.15259E-02 -9.40508E-02
+3.20000E+10 +5.39810E-02 -1.72565E-01 -7.72769E-01 +5.56645E-01 -8.32237E-01 +4.39062E-01 -6.23090E-02 -1.49783E-01
+3.21000E+10 +6.61744E-02 -2.18847E-01 -8.39663E-01 +5.69363E-01 -8.70099E-01 +5.33846E-01 -4.51410E-02 -4.39563E-02
+3.22000E+10 +5.75724E-02 -1.47205E-01 -7.81994E-01 +5.53303E-01 -7.94097E-01 +5.35180E-01 -4.55027E-02 -7.00917E-02
+3.23000E+10 +4.99058E-03 -7.67476E-02 -9.05020E-01 +5.21936E-01 -8.59433E-01 +5.73205E-01 -2.44824E-02 -2.12324E-01
+3.24000E+10 +8.55478E-02 -1.75705E-01 -7.20764E-01 +5.99015E-01 -7.69613E-01 +5.26953E-01 -9.06641E-02 -4.04804E-02
+3.25000E+10 -3.47720E-02 -1.22499E-01 -7.14366E-01 +6.03853E-01 -7.97871E-01 +6.05322E-01 +2.49791E-02 -9.15825E-02
+3.26000E+10 +7.85043E-02 -2.07117E-01 -8.09343E-01 +5.61614E-01 -7.87867E-01 +5.43465E-01 -1.14735E-01 -4.68321E-02
+3.27000E+10 -2.62323E-02 -2.00552E-01 -7.28966E-01 +7.20510E-01 -8.29062E-01 +5.49787E-01 -3.19596E-02 -1.55327E-01
+3.28000E+10 +5.37914E-02 -1.62031E-01 -7.89950E-01 +5.22664E-01 -7.91656E-01 +5.86870E-01 -6.49030E-02 -8.84485E-02
+3.29000E+10 +6.67542E-02 -2.60321E-01 -7.08711E-01 +4.94646E-01 -7.16877E-01 +6.22818E-01 -3.53930E-02 -1.86070E-02
+3.30000E+10 -1.02696E-01 -1.04129E-01 -6.84461E-01 +6.00679E-01 -6.73248E-01 +6.71588E-01 -1.74323E-02 -2.50569E-02
+3.31000E+10 -3.43751E-02 -1.76434E-01 -7.57159E-01 +5.89439E-01 -6.99326E-01 +7.05164E-01 -1.72216E-01 -1.14682E-02
+3.32000E+10 -5.09561E-02 -5.60759E-02 -7.13270E-01 +6.54559E-01 -7.81900E-01 +7.89356E-01 -1.88676E-01 -1.85047E-01
+3.33000E+10 -5.22090E-02 -1.21529E-01 -7.90315E-01 +5.84774E-01 -9.10647E-01 +6.44233E-01 -4.91478E-04 -1.58647E-01
+3.34000E+10 +6.74978E-02 -2.87695E-01 -6.60881E-01 +7.02392E-01 -7.06508E-01 +7.05679E-01 -1.71888E-01 -7.13976E-02
+3.35000E+10 -7.45831E-02 -1.90938E-01 -6.70881E-01 +6.57309E-01 -8.07402E-01 +6.54203E-01 -1.08643E-01 -5.61259E-02
+3.36000E+10 +2.68437E-02 -1.16674E-01 -7.66596E-01 +6.76491E-01 -8.32192E-01 +6.77506E-01 -3.19750E-02 -9.13555E-02
+3.37000E+10 -1.23092E-01 -1.47961E-01 -6.47123E-01 +6.37083E-01 -7.71203E-01 +6.04362E-01 -1.09289E-01 +4.27707E-02
+3.38000E+10 +2.17123E-02 -1.43453E-01 -8.91828E-01 +7.25707E-01 -7.03324E-01 +6.77478E-01 -9.76244E-02 -1.10830E-01
+3.39000E+10 +4.09394E-02 -5.42049E-02 -7.47973E-01 +6.46203E-01 -6.67628E-01 +7.20925E-01 -7.14195E-02 -4.21779E-02
+3.40000E+10 -2.07981E-01 -2.55666E-01 -7.63677E-01 +7.43603E-01 -6.08847E-01 +6.80709E-01 -1.52806E-01 -5.57028E-02
+3.41000E+10 -1.02552E-01 -2.01268E-01 -5.49419E-01 +5.89584E-01 -6.35277E-01 +6.30766E-01 -1.59250E-01 -6.36324E-02
+3.42000E+10 -1.08705E-01 -1.50765E-01 -7.27857E-01 +6.48134E-01 -5.74224E-01 +6.72081E-01 -1.59169E-02 +7.54052E-02
+3.43000E+10 +1.06102E-01 -2.40371E-01 -7.19653E-01 +6.96838E-01 -7.88763E-01 +6.56706E-01 -1.03129E-01 -1.28318E-01
+3.44000E+10 +8.47194E-02 -1.94159E-01 -5.85031E-01 +6.91439E-01 -7.97609E-01 +6.65095E-01 -1.78370E-01 +3.69283E-03
+3.45000E+10 -4.37807E-02 -1.29791E-01 -6.45848E-01 +7.83395E-01 -6.84030E-01 +6.44727E-01 -1.00068E-01 -1.06251E-01
+3.46000E+10 -1.37841E-02 -1.27289E-01 -5.87765E-01 +7.24216E-01 -7.54606E-01 +6.08177E-01 -3.83627E-02 +3.95041E-02
+3.47000E+10 -8.30022E-02 -1.35503E-01 -5.69839E-01 +8.20225E-01 -6.63009E-01 +6.53479E-01 -1.10854E-01 -3.99844E-02
+3.48000E+10 +4.33858E-02 -2.25153E-01 -6.65225E-01 +8.18284E-01 -6.93857E-01 +6.30154E-01 -4.79377E-02 +6.27898E-02
+3.49000E+10 +9.71329E-02 -1.08199E-01 -6.87860E-01 +7.54686E-01 -6.08205E-01 +6.70064E-01 -1.35244E-01 -8.53743E-02
+3.50000E+10 +5.21966E-02 -1.39985E-01 -5.28838E-01 +7.73544E-01 -5.59102E-01 +6.56030E-01 +6.29686E-03 -3.68988E-03
+3.51000E+10 -6.49875E-02 -1.34965E-01 -6.50712E-01 +7.46763E-01 -7.11065E-01 +7.69235E-01 -1.35258E-01 -3.68640E-02
+3.52000E+10 -1.69158E-02 -1.90707E-01 -6.05701E-01 +9.20297E-01 -6.46978E-01 +7.44981E-01 -2.24807E-01 -3.43127E-02
+3.53000E+10 -1.39944E-02 -9.33878E-02 -5.12615E-01 +7.52720E-01 -5.61290E-01 +7.98365E-01 -9.14627E-02 -1.47307E-01
+3.54000E+10 -5.69806E-02 -5.65490E-02 -6.44157E-01 +7.45563E-01 -6.50599E-01 +7.91172E-01 +4.89943E-02 +9.29238E-04
+3.55000E+10 +3.85267E-02 -1.35359E-01 -5.17160E-01 +6.89795E-01 -6.01411E-01 +7.63031E-01 -3.01522E-02 -3.07516E-02
+3.56000E+10 -1.49185E-01 -8.95978E-02 -4.37453E-01 +8.48610E-01 -5.52955E-01 +8.71820E-01 -1.06926E-01 -5.82222E-02
+3.57000E+10 -5.34945E-02 -1.37789E-01 -5.08325E-01 +8.78835E-01 -6.65795E-01 +8.05191E-01 +5.00275E-02 +1.21521E-02
+3.58000E+10 +4.10699E-02 -1.60723E-01 -4.98074E-01 +7.49006E-01 -5.62134E-01 +6.14280E-01 +5.59005E-03 -1.18051E-01
+3.59000E+10 -6.49558E-02 +5.59187E-02 -5.35998E-01 +8.63432E-01 -3.70988E-01 +8.23964E-01 -2.12434E-02 -1.69778E-01
+3.60000E+10 +5.21782E-02 -2.50394E-01 -5.51153E-01 +7.70441E-01 -6.22819E-01 +7.72459E-01 -9.90472E-02 +9.05719E-02
+3.61000E+10 -1.59694E-01 -1.67468E-01 -6.30842E-01 +7.46298E-01 -4.86574E-01 +8.84207E-01 -8.28597E-02 -2.21463E-01
+3.62000E+10 -5.31898E-02 -3.03914E-01 -4.80890E-01 +8.36476E-01 -5.36040E-01 +7.10239E-01 +1.37458E-01 +7.78023E-02
+3.63000E+10 -8.12180E-02 +8.14602E-03 -5.02582E-01 +9.93756E-01 -5.22222E-01 +7.07833E-01 -5.92058E-02 -1.02314E-01
+3.64000E+10 +7.96800E-02 -5.99007E-02 -4.85058E-01 +7.55116E-01 -5.70122E-01 +8.48189E-01 +1.38427E-02 -3.66556E-02
+3.65000E+10 +5.74516E-02 -2.73934E-01 -5.31567E-01 +9.59879E-01 -3.04085E-01 +1.01377E+00 -3.99375E-02 -3.53425E-02
+3.66000E+10 +7.69095E-02 -1.87646E-01 -4.39580E-01 +9.16440E-01 -4.73143E-01 +8.38040E-01 -1.26775E-01 +1.25461E-01
+3.67000E+10 -1.14272E-01 -1.55428E-01 -3.41016E-01 +8.56079E-01 -3.98994E-01 +9.51162E-01 -1.60386E-01 -1.56302E-01
+3.68000E+10 +2.66991E-02 -3.37182E-01 -1.59564E-01 +8.67832E-01 -4.34892E-01 +9.56366E-01 -2.39755E-01 +6.38298E-02
+3.69000E+10 -1.49449E-01 -1.26028E-01 -3.20894E-01 +8.57266E-01 -3.71540E-01 +8.99814E-01 -1.22626E-01 -2.04852E-03
+3.70000E+10 -7.91318E-02 -5.53953E-02 -1.97609E-01 +8.76310E-01 -4.72788E-01 +8.01650E-01 +1.51106E-01 -5.84792E-02
+3.71000E+10 +4.03792E-02 -2.15712E-01 -3.20500E-01 +7.49825E-01 -4.66289E-01 +7.60782E-01 -2.01523E-01 +5.56774E-02
+3.72000E+10 -1.20075E-01 -2.26055E-01 -2.96717E-01 +9.21397E-01 -2.31225E-01 +9.88158E-01 -1.25735E-01 -2.36552E-01
+3.73000E+10 +8.37116E-02 -2.41888E-01 -4.88966E-01 +8.51941E-01 -4.84738E-01 +9.19935E-01 +1.25916E-02 -7.39084E-05
+3.74000E+10 +1.45401E-03 +6.61184E-02 -3.85553E-01 +8.73054E-01 -4.83636E-01 +8.26630E-01 -5.41141E-02 +5.36849E-02
+3.75000E+10 -1.98252E-01 -1.61048E-02 -3.49834E-01 +1.00221E+00 -5.64469E-01 +9.49019E-01 -5.71880E-02 -2.53563E-02
+3.76000E+10 -7.08522E-03 -2.07193E-01 -2.18506E-01 +8.66370E-01 -3.43177E-01 +9.34709E-01 -1.91679E-01 +4.53425E-02
+3.77000E+10 +4.57774E-02 +4.85870E-04 -2.83889E-01 +8.04711E-01 -1.70514E-01 +8.30472E-01 -3.09837E-01 +4.48671E-02
+3.78000E+10 +9.59168E-02 -2.08275E-01 -4.99509E-01 +8.73417E-01 -4.89926E-01 +8.32500E-01 +9.78448E-02 -7.93337E-03
+3.79000E+10 +6.40253E-02 -1.56967E-01 -3.53679E-01 +8.82681E-01 -3.57453E-01 +9.44389E-01 +1.53365E-02 -2.80852E-02
+3.80000E+10 -9.18587E-02 -1.33474E-01 -3.08698E-01 +7.39077E-01 -2.06519E-01 +1.04102E+00 -2.43067E-01 +1.48175E-03
+3.81000E+10 +2.79554E-02 -2.63145E-01 -3.95864E-01 +9.87260E-01 -3.78404E-01 +7.25557E-01 -8.89494E-02 -1.82817E-02
+3.82000E+10 -1.46245E-01 -2.34394E-01 -3.39604E-01 +7.73208E-01 -2.96067E-01 +1.00546E+00 -8.10548E-02 -1.08950E-01
+3.83000E+10 +4.15793E-02 -2.61832E-01 -3.49068E-01 +8.94505E-01 -2.21993E-01 +8.66065E-01 -2.05882E-01 -3.43252E-02
+3.84000E+10 +4.34207E-02 -1.07391E-02 -4.47046E-01 +9.75364E-01 -1.92766E-01 +1.05591E+00 +1.26401E-01 -4.19234E-02
+3.85000E+10 -1.30852E-01 -2.50228E-01 -2.65488E-01 +9.87802E-01 -1.78106E-01 +1.00652E+00 -4.85862E-02 -1.50956E-01
+3.86000E+10 +3.90239E-02 -2.26912E-01 -2.49961E-01 +6.37794E-01 -2.20964E-01 +8.81369E-01 -9.39843E-03 -1.56687E-01
+3.87000E+10 -3.02537E-02 -1.19932E-01 -2.12361E-01 +1.15847E+00 -1.99683E-01 +1.03029E+00 -4.97595E-02 +1.74197E-01
+3.88000E+10 +8.00400E-02 -1.74695E-01 -1.94357E-01 +7.54107E-01 -1.93983E-01 +9.80675E-01 -3.86843E-01 +4.61212E-03
+3.89000E+10 -8.98178E-02 -1.82068E-01 -1.31730E-01 +1.03595E+00 -2.59842E-01 +1.11499E+00 -1.58849E-01 -1.20886E-01
+3.90000E+10 -5.30637E-02 -2.27256E-01 -1.60423E-01 +8.55856E-01 -7.06330E-02 +1.01140E+00 +1.38360E-01 +6.07589E-02
+3.91000E+10 +2.33262E-03 -2.47006E-01 -1.96361E-01 +9.82870E-01 -2.81519E-01 +9.83603E-01 -1.38587E-01 -1.25686E-01
+3.92000E+10 +3.05645E-02 -7.63522E-03 -3.71473E-01 +9.03577E-01 -2.49543E-01 +8.25703E-01 -2.09901E-01 +8.88567E-02
+3.93000E+10 -6.64473E-02 -2.43710E-01 -8.59910E-02 +1.01858E+00 -2.90241E-01 +1.12512E+00 -1.91862E-01 -7.66411E-02
+3.94000E+10 +1.32740E-01 -1.84329E-01 -6.15780E-02 +9.98471E-01 +1.23396E-02 +8.43203E-01 -1.29400E-01 +1.24942E-01
+3.95000E+10 +2.07681E-01 +1.93571E-01 -1.93782E-01 +7.69034E-01 -1.78489E-01 +7.51933E-01 +1.21073E-01 +2.51099E-02
+3.96000E+10 +9.57281E-02 -4.78686E-02 -3.37096E-01 +1.04849E+00 -7.94747E-02 +1.14513E+00 +1.07928E-01 +2.04155E-01
+3.97000E+10 -8.38076E-02 -2.86357E-02 -1.54174E-01 +9.95985E-01 -2.06672E-01 +6.69270E-01 +9.39962E-02 +1.40629E-02
+3.98000E+10 -7.72325E-02 -2.08748E-01 -2.20243E-01 +8.10272E-01 -1.44803E-01 +1.07111E+00 -9.37425E-02 -1.15065E-01
+3.99000E+10 -6.97416E-02 -3.56821E-01 -1.99370E-02 +1.01543E+00 -2.90009E-01 +8.91608E-01 +3.64479E-02 -3.82156E-02
+4.00000E+10 +1.92689E-02 -1.91524E-01 -2.50918E-01 +8.83983E-01 -1.24631E-01 +8.25253E-01 +2.11251E-01 -2.09465E-01
