! Quiescent point : V1=-1.66492E-02 I1=+1.32593E-03 V2=-2.24803E-02 I2=-1.30078E-03
! Pulsed point : V1=-1.67693E-02 I1=+1.31051E-03 V2=-2.22021E-02 I2=-1.30809E-03
! Period : +2.00000E-04
! Input Supply timing : delay=+1.60000E-06 width=+2.20000E-06
! Output Supply timing : delay=+1.70000E-06 width=+2.00000E-06
! VNA timing : delay=+2.40000E-06 width=+1.10000E-06
# Hz S RI R 50
+2.70000E+10 +5.14014E-02 -1.16801E-01 -9.65495E-01 -3.32306E-02 -9.03293E-01 +3.71063E-02 +6.55934E-03 -7.97528E-02
+2.71000E+10 +2.10114E-02 -5.78788E-02 -9.68635E-01 -1.17786E-03 -9.71429E-01 +7.99922E-04 -2.62377E-02 -1.03466E-01
+2.72000E+10 +7.38233E-02 -6.41061E-02 -9.75026E-01 +5.08684E-04 -9.68214E-01 +6.79836E-03 -2.86088E-02 -1.26113E-01
+2.73000E+10 -2.28058E-02 -8.17331E-02 -9.82918E-01 +3.93376E-02 -9.51046E-01 +3.29706E-02 -2.43509E-02 +3.19517E-02
+2.74000E+10 -6.80528E-02 -5.10489E-02 -9.59749E-01 +3.19660E-02 -9.93752E-01 +6.06201E-02 -4.69626E-02 -4.01345E-02
+2.75000E+10 +6.63687E-02 -2.60551E-02 -9.24666E-01 +1.07177E-02 -1.02741E+00 +6.32320E-02 -1.37389E-02 +5.45623E-03
+2.76000E+10 +6.77964E-02 -7.12997E-02 -9.79821E-01 +8.65815E-02 -1.02219E+00 +1.53259E-01 -2.79779E-02 -1.10739E-01
+2.77000E+10 +3.42005E-02 -4.09562E-02 -1.00570E+00 +1.84815E-01 -9.41402E-01 +9.85165E-02 -2.50800E-02 -1.19566E-01
+2.78000E+10 +3.60182E-02 -1.04044E-01 -9.43211E-01 +1.42080E-02 -9.64052E-01 +8.98929E-02 -1.43906E-02 -2.08231E-01
+2.79000E+10 +2.06686E-02 -9.88160E-03 -9.18659E-01 +2.40877E-01 -9.37099E-01 +9.60702E-02 -1.10502E-02 -5.03367E-02
+2.80000E+10 +5.80264E-02 -5.10941E-02 -9.72103E-01 +1.63758E-01 -9.85064E-01 +1.26934E-01 -1.30944E-03 -7.32359E-02
+2.81000E+10 +1.44605E-01 -1.73842E-02 -9.29840E-01 +1.54074E-01 -1.02365E+00 +1.44255E-01 -2.23192E-02 -9.72979E-02
+2.82000E+10 +7.49017E-03 -4.83650E-02 -1.00555E+00 +1.67220E-01 -9.82900E-01 +1.26127E-01 +3.42959E-02 -2.49518E-02
+2.83000E+10 +9.57002E-02 -6.26624E-02 -1.03669E+00 +6.96431E-02 -1.11046E+00 +1.42454E-01 -4.03939E-02 -5.43501E-02
+2.84000E+10 -7.38080E-02 -1.54636E-02 -8.68166E-01 +2.47889E-01 -9.73515E-01 +1.44543E-01 -6.50552E-02 -6.67748E-02
+2.85000E+10 +4.85052E-02 -1.54676E-01 -9.89804E-01 +1.91347E-01 -9.67273E-01 +1.67306E-01 +7.66625E-02 -8.08536E-02
+2.86000E+10 +9.09339E-02 -7.47619E-02 -8.71211E-01 +2.36359E-01 -9.61269E-01 +2.40580E-01 -6.59211E-03 -1.32254E-01
+2.87000E+10 +4.97291E-02 -2.13926E-02 -9.91757E-01 +1.05199E-01 -9.02439E-01 +2.75165E-01 +9.44838E-03 -9.19285E-02
+2.88000E+10 +5.77037E-02 -3.98875E-02 -9.86335E-01 +1.44095E-01 -9.92432E-01 +1.70080E-01 +6.52604E-03 -1.72579E-01
+2.89000E+10 -4.68694E-02 -1.27759E-02 -9.38425E-01 +1.24898E-01 -9.90642E-01 +1.58181E-01 -6.35218E-02 -2.97502E-02
+2.90000E+10 +4.85655E-02 -9.48874E-02 -1.00034E+00 +2.03573E-01 -1.00668E+00 +2.24031E-01 +1.26959E-02 -2.52032E-02
+2.91000E+10 -1.05248E-02 -3.23928E-02 -1.00027E+00 +2.72404E-01 -8.97217E-01 +1.86160E-01 -2.52576E-02 -1.29455E-03
+2.92000E+10 -5.48162E-03 -5.24842E-02 -9.96369E-01 +3.00945E-01 -1.01077E+00 +2.27878E-01 -4.10242E-02 -5.89892E-02
+2.93000E+10 +5.79224E-02 -5.29150E-02 -9.76527E-01 +3.34125E-01 -9.77042E-01 +2.13215E-01 +3.95750E-03 -1.23106E-01
+2.94000E+10 -2.27229E-02 -1.10624E-01 -8.74282E-01 +2.32115E-01 -1.04782E+00 +3.02717E-01 +8.95371E-02 -9.23908E-02
+2.95000E+10 +6.51912E-02 -8.89818E-02 -9.90309E-01 +3.80766E-01 -9.64308E-01 +3.27350E-01 +9.82483E-03 -5.11417E-02
+2.96000E+10 +6.68145E-02 -7.87522E-02 -9.35931E-01 +2.72270E-01 -9.00487E-01 +2.92886E-01 +6.05325E-03 -7.97533E-02
+2.97000E+10 +3.31985E-02 -6.91641E-02 -9.20881E-01 +3.52756E-01 -9.64796E-01 +3.19542E-01 -8.85175E-02 -1.13441E-02
+2.98000E+10 -1.85453E-02 -4.18799E-02 -8.84448E-01 +2.51954E-01 -8.92819E-01 +3.96407E-01 -1.81308E-02 -7.28845E-02
+2.99000E+10 +1.37980E-02 -1.83939E-02 -1.00169E+00 +3.24328E-01 -9.40522E-01 +2.57309E-01 +7.20174E-02 -1.01701E-01
+3.00000E+10 +1.36571E-02 -5.99813E-02 -9.35557E-01 +2.95735E-01 -8.73486E-01 +3.68984E-01 +4.86808E-03 -6.54147E-02
+3.01000E+10 -6.60752E-03 -4.87907E-02 -8.75829E-01 +2.99965E-01 -8.58781E-01 +3.42560E-01 -3.19966E-02 -4.37116E-02
+3.02000E+10 +5.39287E-02 -1.09208E-01 -9.70806E-01 +3.16519E-01 -8.98677E-01 +4.70278E-01 +5.65690E-03 -2.97024E-02
+3.03000E+10 -5.06901E-02 -6.46902E-03 -8.83579E-01 +4.30545E-01 -8.99697E-01 +3.90638E-01 +1.48864E-02 -1.05393E-02
+3.04000E+10 +1.67427E-02 -1.49990E-01 -8.71878E-01 +3.33708E-01 -9.02995E-01 +3.65754E-01 +2.14716E-02 -1.10895E-02
+3.05000E+10 +9.80932E-02 -1.04483E-01 -8.72659E-01 +4.32635E-01 -8.56835E-01 +3.78894E-01 +3.58687E-02 -4.69824E-02
+3.06000E+10 +1.05647E-01 -9.91510E-02 -8.40610E-01 +4.28976E-01 -8.21739E-01 +4.32990E-01 -9.70880E-02 -6.42633E-02
+3.07000E+10 +1.30437E-01 -1.13151E-01 -8.78223E-01 +3.91398E-01 -8.60393E-01 +4.62946E-01 -4.10511E-02 -6.77487E-02
+3.08000E+10 -8.77908E-03 -1.47736E-01 -9.32079E-01 +5.09573E-01 -9.89175E-01 +4.03769E-01 -2.19070E-04 -1.28191E-02
+3.09000E+10 +5.35759E-02 -8.12120E-02 -8.50813E-01 +4.70004E-01 -8.52234E-01 +3.58455E-01 +7.51493E-02 -7.00707E-03
+3.10000E+10 +6.38419E-02 -1.59050E-01 -9.75004E-01 +5.01220E-01 -8.82577E-01 +3.30102E-01 +3.40952E-02 -9.66546E-02
+3.11000E+10 +8.92247E-04 -2.46937E-02 -7.86823E-01 +4.50440E-01 -7.82928E-01 +4.06174E-01 -1.15605E-02 -1.35868E-01
+3.12000E+10 +1.58756E-01 -4.38672E-03 -7.77796E-01 +4.89469E-01 -9.30598E-01 +4.37594E-01 -4.22963E-02 -8.35331E-02
+3.13000E+10 -2.88192E-02 -8.42423E-02 -7.80874E-01 +5.46005E-01 -8.74913E-01 +5.38562E-01 -4.19459E-03 -2.65038E-02
+3.14000E+10 +2.23305E-02 -3.58060E-02 -8.99877E-01 +4.82642E-01 -7.53574E-01 +5.19454E-01 -3.30189E-02 -1.07801E-01
+3.15000E+10 -8.39645E-02 -3.28226E-02 -7.58984E-01 +5.55827E-01 -9.07088E-01 +4.53530E-01 -2.85179E-02 -9.42777E-02
+3.16000E+10 -2.54799E-02 -1.70746E-01 -8.11107E-01 +5.00451E-01 -8.42761E-01 +5.39242E-01 +2.93606E-02 -1.10941E-01
+3.17000E+10 +3.97874E-02 -6.41395E-02 -7.66336E-01 +5.47488E-01 -8.42556E-01 +4.50725E-01 -6.35763E-02 +7.49301E-02
+3.18000E+10 -7.97688E-02 -3.30108E-02 -8.75137E-01 +4.92305E-01 -7.55811E-01 +5.54943E-01 -3.21520E-03 -6.03221E-02
+3.19000E+10 +1.72388E-03 -3.06168E-03 -7.66085E-01 +5.31269E-01 -8.80206E-01 +5.55460E-01 -3.34391E-02 -5.79330E-02
+3.20000E+10 -2.79301E-02 -1.41132E-01 -8.25277E-01 +6.31310E-01 -7.49287E-01 +6.01786E-01 -5.47272E-02 -8.05198E-02
+3.21000E+10 +5.70902E-02 -2.01889E-02 -8.23287E-01 +4.48034E-01 -7.09648E-01 +5.07952E-01 -8.02612E-02 -2.25059E-02
+3.22000E+10 +6.59115E-02 -9.14011E-02 -7.74879E-01 +4.68109E-01 -8.49463E-01 +5.72692E-01 -1.22179E-02 -1.32370E-01
+3.23000E+10 +1.32912E-02 -9.10824E-02 -8.64166E-01 +6.12113E-01 -8.06291E-01 +5.44503E-01 -1.31634E-01 -1.49852E-02
+3.24000E+10 -6.79434E-02 -4.51879E-02 -8.43468E-01 +6.19193E-01 -8.45561E-01 +5.48341E-01 -8.64683E-02 -4.26918E-03
+3.25000E+10 -2.51571E-02 -5.07802E-02 -7.89309E-01 +6.24792E-01 -8.18113E-01 +5.28667E-01 -6.68245E-02 -6.75048E-02
+3.26000E+10 -2.54572E-02 +3.22303E-02 -7.91210E-01 +4.82002E-01 -7.72714E-01 +5.47143E-01 -2.12065E-02 -3.91713E-02
+3.27000E+10 -3.92354E-02 +3.26119E-02 -7.42598E-01 +6.30327E-01 -7.91484E-01 +6.79593E-01 -3.43450E-02 -3.60855E-02
+3.28000E+10 -3.99764E-02 -3.69039E-02 -8.32391E-01 +6.90505E-01 -7.78835E-01 +4.87133E-01 +4.51932E-02 +3.83748E-02
+3.29000E+10 +4.76891E-02 -4.66256E-02 -7.80117E-01 +6.00223E-01 -7.67136E-01 +5.99007E-01 -5.52727E-02 -6.51395E-02
+3.30000E+10 +8.18279E-02 -8.42974E-02 -7.58604E-01 +6.96596E-01 -7.68794E-01 +5.21419E-01 +5.31088E-02 +3.27798E-02
+3.31000E+10 +9.28161E-03 +1.18852E-03 -8.15750E-01 +5.65232E-01 -7.17368E-01 +6.09236E-01 +1.05543E-01 -4.81256E-02
+3.32000E+10 -1.53592E-02 -6.39861E-02 -5.76035E-01 +7.70599E-01 -6.82041E-01 +6.91944E-01 -3.78706E-02 -4.43778E-02
+3.33000E+10 +3.39105E-02 -2.95333E-02 -7.66866E-01 +7.13508E-01 -7.51100E-01 +6.51448E-01 -6.23266E-03 -7.28966E-02
+3.34000E+10 +4.97106E-02 -7.01634E-02 -7.37704E-01 +6.58631E-01 -7.49369E-01 +6.48775E-01 -9.51765E-02 +4.48259E-02
+3.35000E+10 +5.91165E-02 +6.40050E-03 -6.50858E-01 +7.09983E-01 -7.38151E-01 +6.97388E-01 -5.31500E-02 -1.40795E-01
+3.36000E+10 -1.49314E-02 -1.27085E-01 -7.28972E-01 +7.29886E-01 -7.80038E-01 +7.93447E-01 +9.95526E-02 -1.71382E-01
+3.37000E+10 +1.49233E-01 -7.79366E-02 -6.53416E-01 +8.12991E-01 -7.81346E-01 +6.22143E-01 +5.52165E-02 -1.23746E-01
+3.38000E+10 +1.57156E-02 -1.58820E-01 -6.72083E-01 +7.18756E-01 -5.38885E-01 +6.88644E-01 -1.05597E-02 +2.05569E-03
+3.39000E+10 +7.37544E-02 -9.03737E-03 -5.81514E-01 +7.10822E-01 -8.92783E-01 +6.79179E-01 +6.68856E-02 -1.57660E-01
+3.40000E+10 +8.58024E-02 +3.06417E-02 -7.03293E-01 +6.31167E-01 -5.25399E-01 +8.87142E-01 -1.23289E-01 -8.40398E-02
+3.41000E+10 +3.78013E-02 -8.06711E-02 -6.44377E-01 +6.92026E-01 -6.32337E-01 +5.88567E-01 +1.15307E-01 +8.87863E-02
+3.42000E+10 +7.46523E-02 -1.27206E-01 -7.54770E-01 +6.89620E-01 -6.04499E-01 +7.53083E-01 -4.31454E-02 -9.89399E-03
+3.43000E+10 +1.30755E-01 -1.39484E-01 -6.65176E-01 +6.69976E-01 -7.15320E-01 +8.52339E-01 +3.83554E-02 -4.21061E-02
+3.44000E+10 -4.63244E-02 -1.05553E-01 -6.68682E-01 +6.37998E-01 -6.29861E-01 +6.77202E-01 +3.68403E-02 +8.71939E-02
+3.45000E+10 +1.10822E-01 -9.59785E-02 -6.23174E-01 +7.04018E-01 -6.32314E-01 +8.75961E-01 -6.52873E-03 -9.16451E-02
+3.46000E+10 -1.02620E-01 -1.15636E-01 -4.72652E-01 +7.58298E-01 -5.62487E-01 +7.82041E-01 -1.89861E-02 -8.77004E-02
+3.47000E+10 +1.39746E-01 -9.71243E-02 -6.02437E-01 +6.85668E-01 -6.45830E-01 +8.12865E-01 +4.45503E-02 -3.73202E-02
+3.48000E+10 +8.44138E-02 +6.32960E-03 -5.54319E-01 +8.03574E-01 -6.25323E-01 +7.14241E-01 -2.41538E-02 -6.71181E-02
+3.49000E+10 -5.69945E-02 -9.10914E-02 -5.32838E-01 +7.58980E-01 -4.95445E-01 +7.55364E-01 -1.85571E-01 +1.63399E-03
+3.50000E+10 +8.35271E-02 -1.57175E-01 -5.91753E-01 +7.94672E-01 -5.34530E-01 +8.31670E-01 -5.46920E-02 -1.37809E-01
+3.51000E+10 +3.36738E-02 -1.25416E-01 -6.28074E-01 +6.89905E-01 -5.32411E-01 +8.88742E-01 +7.27468E-02 -4.32319E-02
+3.52000E+10 +1.60284E-01 +1.91006E-02 -5.82304E-01 +7.52680E-01 -4.43990E-01 +8.33379E-01 +3.04837E-02 -1.65642E-01
+3.53000E+10 -3.25022E-02 -1.47890E-01 -6.13145E-01 +8.05219E-01 -4.35318E-01 +6.35518E-01 +1.87690E-02 -1.06578E-01
+3.54000E+10 -2.74638E-02 +3.08773E-02 -6.09405E-01 +7.91308E-01 -6.74536E-01 +7.58811E-01 -5.84547E-02 +4.91711E-02
+3.55000E+10 +1.73784E-01 +1.26204E-01 -5.11240E-01 +7.43616E-01 -4.79739E-01 +8.87042E-01 -1.49014E-02 -3.78225E-02
+3.56000E+10 +1.67827E-02 -2.50671E-01 -6.44337E-01 +7.51428E-01 -6.35855E-01 +9.83433E-01 +6.56117E-02 +1.52630E-01
+3.57000E+10 +9.09488E-03 -5.39940E-02 -4.34784E-01 +8.23294E-01 -4.93626E-01 +8.79969E-01 +7.92898E-02 -2.00382E-01
+3.58000E+10 +6.89068E-02 -2.05571E-01 -5.20590E-01 +7.93834E-01 -4.94284E-01 +7.98089E-01 -9.47153E-02 -1.40602E-02
+3.59000E+10 +7.89513E-02 -2.72705E-01 -6.98844E-01 +9.46897E-01 -3.05843E-01 +8.26310E-01 -6.20634E-02 -1.12254E-01
+3.60000E+10 -5.88570E-02 -1.74587E-01 -6.36263E-01 +8.72532E-01 -5.01219E-01 +8.47809E-01 +1.22636E-01 -7.27077E-02
+3.61000E+10 -5.73225E-02 -1.41520E-01 -2.19703E-01 +5.85340E-01 -4.55223E-01 +8.05699E-01 -9.02752E-02 -1.34387E-02
+3.62000E+10 +1.40658E-01 -1.17719E-01 -5.42504E-01 +7.48470E-01 -6.04802E-01 +9.57557E-01 +1.83628E-01 +1.30143E-01
+3.63000E+10 -1.95985E-01 -2.64352E-01 -2.89738E-01 +8.67483E-01 -4.59532E-01 +8.86185E-01 +1.92161E-02 -9.83567E-02
+3.64000E+10 -3.46259E-02 +3.13065E-02 -5.52383E-01 +8.40340E-01 -3.34988E-01 +9.65082E-01 +1.29382E-01 +6.74367E-03
+3.65000E+10 +1.83217E-02 -8.17039E-03 -6.07686E-01 +7.34892E-01 -4.65712E-01 +1.14239E+00 +2.83554E-02 +7.04867E-02
+3.66000E+10 +2.99145E-02 -2.48597E-01 -2.61497E-01 +8.05547E-01 -2.21942E-01 +6.65193E-01 +1.29715E-01 -6.79910E-02
+3.67000E+10 +3.20756E-02 -4.75620E-02 -3.50172E-01 +8.48455E-01 -4.30843E-01 +7.35928E-01 +2.13219E-01 +1.29127E-01
+3.68000E+10 +1.29166E-01 -1.09850E-01 -4.02246E-01 +7.87361E-01 -4.31395E-01 +9.00994E-01 -1.71678E-01 -9.24150E-02
+3.69000E+10 -1.55010E-01 -1.53300E-01 -3.63247E-01 +8.95267E-01 -6.61858E-02 +5.96232E-01 -3.55615E-02 +1.84428E-01
+3.70000E+10 -3.29534E-02 -1.10448E-01 -5.83199E-01 +8.61065E-01 -4.06806E-01 +9.19363E-01 +7.65050E-03 +1.05761E-01
+3.71000E+10 +1.51717E-01 -2.37502E-02 -4.30872E-01 +9.12282E-01 -3.60779E-01 +8.23016E-01 +9.39414E-03 -4.44087E-04
+3.72000E+10 -1.71686E-02 -2.08291E-01 -3.12583E-01 +8.41578E-01 -3.36021E-01 +1.03109E+00 +9.90262E-02 -9.35375E-03
+3.73000E+10 +9.51037E-02 -2.63097E-01 -3.75017E-01 +1.05148E+00 -4.73774E-01 +9.50431E-01 -9.33245E-02 -1.71725E-01
+3.74000E+10 -2.00996E-02 -9.67502E-02 -5.13090E-01 +8.01100E-01 -3.34251E-01 +8.63402E-01 +2.87989E-02 -2.31025E-01
+3.75000E+10 -1.93539E-01 +5.51217E-02 -4.77882E-01 +8.87464E-01 -1.61577E-01 +9.00868E-01 +2.48232E-02 -6.20911E-02
+3.76000E+10 +1.31150E-02 -1.80448E-01 -3.08891E-01 +8.56753E-01 -5.16667E-01 +9.73734E-01 -1.17081E-02 +1.51437E-01
+3.77000E+10 +5.18329E-02 -2.97728E-01 -3.60887E-01 +9.58501E-01 -3.30923E-01 +9.18481E-01 +5.36310E-02 +3.79887E-03
+3.78000E+10 +1.12454E-01 +4.58665E-02 -3.01409E-01 +8.87303E-01 -2.74887E-01 +8.81740E-01 -8.90310E-02 -4.24748E-02
+3.79000E+10 +2.85622E-02 -2.09137E-01 -3.30898E-01 +9.41902E-01 -4.06626E-01 +1.02160E+00 +1.37796E-01 +2.59770E-02
+3.80000E+10 +2.78562E-02 +1.22613E-02 -2.39306E-01 +8.40228E-01 -1.22400E-01 +1.06046E+00 +1.99962E-01 -8.24666E-02
+3.81000E+10 +7.94704E-02 +4.81103E-02 -3.82176E-01 +1.05988E+00 -1.74417E-01 +8.34483E-01 +9.67825E-02 +1.43227E-01
+3.82000E+10 -4.41888E-02 -1.29561E-01 -2.46677E-01 +8.27834E-01 -2.15847E-01 +8.29782E-01 +6.65998E-02 -6.64803E-02
+3.83000E+10 +9.25249E-02 -1.43559E-01 -3.21098E-01 +9.42035E-01 -1.86856E-01 +9.04473E-01 -5.70561E-02 +4.53696E-03
+3.84000E+10 +4.11130E-02 -9.79166E-02 -2.17206E-01 +1.02316E+00 -1.11623E-01 +1.04887E+00 -1.45223E-01 -1.66043E-01
+3.85000E+10 +2.61171E-01 -1.31461E-01 -1.05597E-01 +9.03262E-01 -1.74608E-01 +9.79333E-01 -3.43095E-02 +1.09026E-01
+3.86000E+10 +1.50743E-01 -1.63088E-01 -5.32667E-01 +9.22512E-01 -1.57713E-01 +8.27610E-01 -1.46160E-01 +6.88850E-02
+3.87000E+10 +2.34904E-03 -7.68713E-02 -2.67691E-01 +8.32155E-01 -1.55998E-01 +9.96687E-01 -4.36497E-02 -2.22178E-01
+3.88000E+10 -2.23045E-04 -4.32410E-02 -1.22461E-01 +1.18648E+00 -3.14757E-01 +8.58642E-01 +1.17156E-01 -2.87529E-02
+3.89000E+10 -1.45572E-01 -2.34562E-01 -1.62766E-01 +1.01157E+00 -2.16274E-01 +9.93754E-01 -1.58547E-03 -1.79941E-01
+3.90000E+10 +1.46789E-01 -1.29055E-01 -2.65860E-01 +1.02475E+00 -1.69479E-01 +1.00101E+00 -1.85259E-01 -7.81950E-03
+3.91000E+10 +1.73068E-01 -1.58743E-01 -3.21894E-01 +8.97724E-01 -2.55559E-01 +1.22613E+00 +2.85164E-01 +8.30040E-02
+3.92000E+10 -1.55790E-01 -1.88679E-01 -1.51803E-01 +9.56653E-01 -7.58665E-02 +1.01345E+00 -1.28883E-01 +2.02452E-01
+3.93000E+10 -1.35520E-02 +3.26861E-02 -1.82171E-01 +9.62930E-01 -1.89945E-01 +8.45362E-01 +1.19086E-01 +4.06486E-03
+3.94000E+10 -2.16315E-01 -2.35157E-01 +1.41073E-02 +6.91811E-01 -6.46444E-02 +9.15273E-01 -2.38238E-01 +1.14992E-01
+3.95000E+10 +4.03054E-03 -1.08235E-01 -1.97115E-01 +1.07088E+00 -1.72454E-01 +8.02674E-01 +8.14895E-02 -1.91978E-01
+3.96000E+10 -1.07301E-01 -2.48060E-01 -1.81827E-01 +9.80721E-01 -1.25563E-01 +8.54070E-01 -1.19749E-01 -4.27443E-02
+3.97000E+10 +5.86114E-02 +3.02756E-01 -1.88658E-01 +8.96623E-01 -2.18395E-01 +8.93315E-01 +1.42795E-01 +9.92268E-02
+3.98000E+10 -1.41520E-01 -3.42548E-01 -1.90225E-01 +1.11371E+00 -9.56770E-02 +8.53309E-01 +6.55221E-02 -6.15797E-02
+3.99000E+10 +5.96519E-02 +9.08116E-02 -1.91357E-01 +9.81368E-01 -1.18317E-01 +9.59872E-01 -1.65533E-02 +1.76698E-01
+4.00000E+10 +2.19966E-01 -9.21020E-02 +1.65633E-01 +8.74800E-01 -1.75238E-01 +1.09000E+00 -1.49019E-01 -1.63398E-01
