!Keysight Technologies,N5224A,MY55441802,A.10.65.16
!Date: Wednesday, May 13, 2026 19:06:48
!Correction: S11(Full 2 Port(1,2)) 
!S21(Full 2 Port(1,2)) 
!S12(Full 2 Port(1,2)) 
!S22(Full 2 Port(1,2)) 
!S2P File: Measurements: S11, S21, S12, S22:
# Hz S  dB   R 50
1000000000 -0.95014811 -113.36263 -26.897366 17.620314 -21.787287 11.368392 0.65988475 -166.22881
1100000000 -0.21306977 164.69748 -32.626133 -62.188354 -30.872152 -52.751221 0.46795031 59.289253
1200000000 1.7584659 9.3978662 -47.787449 80.126625 -52.244015 138.36055 6.8545251 5.2054691
1300000000 4.6333284 -133.38953 -36.563717 -21.181095 -26.730963 -22.409077 -2.2236307 133.88786
1400000000 0.61745691 171.11406 -32.764862 -52.653404 -30.977106 -52.734215 1.1909176 55.283241
1500000000 5.091084 16.2728 -25.906221 79.948425 -31.246191 114.76449 17.729401 24.864481
1600000000 6.6987162 -145.71846 -41.779877 -46.045525 -29.158077 -40.199928 -2.6960242 115.51601
1700000000 0.51102388 171.96144 -33.402664 -40.626545 -32.064213 -39.710011 1.5465785 66.652138
1800000000 13.538689 22.005093 -22.255775 178.87572 -23.996532 -166.6331 9.2004347 110.9473
1900000000 7.363893 -152.33092 -39.320236 -63.368801 -29.482203 -47.216171 -2.3320801 104.36021
2000000000 0.64718878 170.1508 -33.152088 -33.029499 -32.594006 -35.609818 1.2089058 70.380562
2100000000 16.645632 117.85624 -21.712656 -81.09333 -22.872967 -76.963036 2.0328522 95.954681
2200000000 7.260891 -155.70479 -38.378719 -44.547283 -29.427626 -50.056911 -2.6834955 94.800735
2300000000 0.12398691 170.25627 -33.981316 -33.254089 -33.610516 -38.765564 -0.010780085 69.991974
2400000000 12.789634 145.74692 -25.458605 -58.699726 -26.809467 -53.620476 0.37883458 79.585762
2500000000 5.0129056 -170.08182 -36.548832 -41.388638 -31.371815 -54.139549 -2.586576 84.22319
2600000000 -0.034191936 169.44345 -34.372524 -36.796455 -33.907867 -43.745663 -0.51007432 65.433266
2700000000 6.3689227 163.83081 -30.845747 -50.41613 -31.017076 -48.321033 -0.17621186 62.204445
2800000000 4.8784127 -171.2291 -34.240898 -33.270061 -31.152342 -53.624058 -2.8577509 70.830444
2900000000 -0.27611727 169.7484 -34.645126 -41.712139 -34.169476 -47.946972 -1.1557002 57.693317
3000000000 5.1218982 164.53252 -31.603407 -58.706261 -31.87171 -52.517807 0.20190708 49.949844
3100000000 3.8191736 -176.82269 -33.379997 -38.032909 -31.865381 -54.956432 -2.5001118 56.879215
3200000000 -0.3414076 169.53981 -34.512054 -46.478397 -34.346264 -52.968288 -1.5778135 46.999012
3300000000 3.6637485 163.87456 -32.118584 -61.766514 -32.163136 -58.828537 0.36038712 42.528641
3400000000 3.6586032 -176.35675 -32.924145 -43.323624 -31.929819 -56.867222 -2.0167897 43.675018
3500000000 -0.45018554 169.48193 -34.309799 -51.950329 -34.249981 -59.223804 -1.7185965 34.259705
3600000000 3.9951582 165.86061 -31.769186 -61.925602 -31.795956 -58.227139 0.10635201 36.173908
3700000000 3.862746 177.8295 -32.217426 -52.080967 -31.984011 -63.497208 -1.6968839 32.144848
3800000000 -0.46463844 168.99034 -33.822037 -57.764912 -33.955975 -64.519051 -1.2370288 21.721375
3900000000 2.7493496 165.48827 -32.564842 -65.073143 -32.295761 -63.118141 -0.62269646 25.892603
4000000000 3.4038899 177.36655 -31.901909 -59.742668 -31.986359 -68.221436 -1.6210884 20.246534
4100000000 -0.48659369 169.85504 -33.448395 -60.872162 -33.418606 -70.628685 -0.90911776 11.516929
4200000000 2.0420425 163.06808 -33.280254 -72.514366 -32.591339 -67.613403 -1.1475961 12.981354
4300000000 3.1115196 174.57774 -31.71982 -69.39711 -32.007103 -73.70295 -1.5858871 7.1451335
4400000000 -0.42236012 168.44171 -33.391285 -66.930939 -33.387222 -74.98262 -0.7473017 1.9633292
4500000000 1.5634474 165.10741 -33.567989 -75.879852 -33.223915 -71.605049 -1.2679132 -0.43754604
4600000000 2.5145695 173.34099 -31.742872 -75.418076 -32.11586 -78.178589 -1.4743376 -6.7486296
4700000000 -0.40388614 168.75862 -33.090172 -71.869049 -33.029171 -79.986443 -0.75099134 -9.0253983
4800000000 1.2960507 162.48065 -33.461784 -82.238945 -33.164352 -78.787125 -1.2144649 -13.11458
4900000000 2.4255686 170.13327 -31.821518 -82.721214 -32.181068 -83.517517 -1.3715452 -19.843884
5000000000 -0.35216588 167.33954 -33.045067 -78.707077 -33.048534 -86.054543 -0.81711149 -21.262749
5100000000 0.79615253 162.79898 -33.562515 -86.779152 -33.330715 -83.98584 -1.0860376 -25.238863
5200000000 1.995786 167.87198 -32.091835 -88.905396 -32.368271 -89.056717 -1.2786423 -32.965202
5300000000 -0.31869686 167.0526 -32.717125 -85.194702 -32.780167 -91.340828 -0.80780816 -35.17667
5400000000 0.75214195 161.45113 -33.363941 -92.093666 -32.995838 -89.536621 -1.0493225 -37.233887
5500000000 2.0810974 166.85349 -32.012318 -94.500877 -32.260712 -93.929237 -1.2954537 -45.71936
5600000000 -0.35285133 165.90724 -32.640396 -92.240501 -32.671833 -97.638542 -0.78828132 -49.202763
5700000000 0.76851952 159.80843 -33.222595 -97.004517 -32.740044 -95.079132 -1.0105585 -48.635605
5800000000 1.6256866 165.67192 -32.235813 -100.71728 -32.353909 -99.927063 -1.2655519 -58.408138
5900000000 -0.20783228 165.75412 -32.264484 -99.923203 -32.384769 -105.19753 -0.57707554 -63.336571
6000000000 0.46396989 159.42384 -33.065235 -102.97825 -32.672478 -102.16118 -1.2268136 -61.499844
6100000000 1.8917128 165.28105 -32.151367 -106.67732 -32.162621 -106.19402 -1.3087281 -71.275856
6200000000 -0.21232152 164.63774 -32.256279 -107.92886 -32.375877 -111.78469 -0.48384005 -76.209419
6300000000 0.38969037 158.84198 -33.080879 -109.08795 -32.80759 -109.19023 -1.3479612 -75.293549
6400000000 1.6507298 162.55528 -32.32077 -114.52502 -32.272469 -113.99989 -1.3927301 -83.739861
6500000000 -0.037971292 164.17636 -32.339161 -114.79597 -32.451759 -117.95815 -0.60350388 -86.774109
6600000000 0.11990666 158.41653 -33.278996 -115.75819 -33.081993 -116.75332 -1.3790157 -89.911903
6700000000 1.5102748 163.63779 -32.553005 -118.78636 -32.368832 -118.9894 -1.2759781 -97.19207
6800000000 -0.04820285 163.3717 -32.477467 -120.48809 -32.556171 -122.26756 -0.52933311 -98.330315
6900000000 0.0071777832 157.07924 -33.28339 -120.92828 -33.158989 -123.17747 -1.229439 -102.90683
7000000000 1.0420642 160.44115 -32.745693 -125.12579 -32.591125 -124.59492 -1.2911956 -110.36912
7100000000 0.033382919 163.16307 -32.467468 -126.64922 -32.562176 -128.17366 -0.71941233 -110.89603
7200000000 -0.12262607 156.53929 -33.321743 -127.76521 -33.260681 -129.97025 -1.107106 -115.06869
7300000000 1.3095104 159.17639 -32.895321 -129.50737 -32.75045 -129.27766 -1.2689828 -122.70752
7400000000 0.13540658 162.12569 -32.800434 -132.0033 -32.888336 -133.37596 -1.0735159 -125.29896
7500000000 -0.22975691 155.79488 -33.131226 -131.5211 -33.205448 -134.62111 -1.0740142 -126.73695
7600000000 0.78372622 156.55643 -33.15416 -134.82597 -33.041798 -135.01933 -1.3082317 -134.18941
7700000000 0.22605254 160.62962 -32.878147 -138.34354 -32.958515 -139.205 -1.0614635 -139.52164
7800000000 -0.26781702 155.37181 -33.201286 -136.17374 -33.304455 -139.04514 -1.2782325 -139.25064
7900000000 0.93889242 155.61064 -33.185753 -138.44708 -33.05595 -138.83493 -1.3732637 -146.17159
8000000000 0.22124974 159.07832 -32.803265 -142.5815 -32.921574 -143.49454 -0.95309931 -151.79169
8100000000 -0.306492 154.62474 -32.980175 -140.14162 -33.169994 -143.45085 -1.3887546 -151.71251
8200000000 0.52345794 155.0154 -33.131004 -143.00099 -33.003799 -143.11209 -1.4956925 -158.1792
8300000000 0.22948541 158.80016 -32.573082 -146.08266 -32.651142 -147.28697 -0.93590933 -163.11737
8400000000 -0.31958795 153.93431 -32.757275 -145.00925 -33.021908 -148.19319 -1.4294255 -164.60208
8500000000 0.64528352 154.08116 -32.836296 -147.01669 -32.700703 -147.69434 -1.5443238 -170.4715
8600000000 0.19396122 156.45026 -32.500305 -151.19753 -32.509586 -151.88966 -1.1456975 -174.04701
8700000000 -0.35284013 153.2525 -32.526142 -151.19705 -32.791248 -154.0356 -1.4922862 -176.70219
8800000000 0.41971898 153.59911 -32.665115 -152.40686 -32.523911 -152.82228 -1.5601832 177.72343
8900000000 0.17818214 156.20097 -32.297886 -156.46423 -32.301464 -156.64876 -1.2382751 174.47443
9000000000 -0.37331074 152.30797 -32.290817 -156.86732 -32.573116 -159.90601 -1.5295798 171.37961
9100000000 0.41569245 151.79243 -32.354179 -158.13107 -32.248077 -158.94629 -1.5526611 165.79576
9200000000 0.27627891 154.09148 -32.147629 -162.22198 -32.140049 -162.45186 -1.3295871 162.90324
9300000000 -0.41470677 151.79874 -32.137371 -163.77769 -32.336853 -165.82303 -1.5892017 159.71857
9400000000 0.43150261 150.93221 -32.137512 -164.31149 -32.055492 -164.66759 -1.5701199 154.20724
9500000000 0.30098438 153.6442 -31.943462 -168.03192 -31.912766 -168.06821 -1.411728 151.49767
9600000000 -0.45743263 151.13847 -31.958284 -169.76421 -32.133835 -171.92361 -1.5987725 148.32549
9700000000 0.21743777 148.75362 -31.937735 -170.97878 -31.878969 -171.66138 -1.5467539 142.92998
9800000000 0.20374739 152.83946 -31.858997 -173.86339 -31.775137 -174.24382 -1.4655639 140.1657
9900000000 -0.45276481 150.77388 -31.830803 -175.94846 -31.928684 -178.32443 -1.6462692 137.01823
10000000000 0.35288268 148.24562 -31.799303 -176.85773 -31.723579 -177.45941 -1.5613418 131.73991
10100000000 0.52885348 151.56943 -31.581001 179.59392 -31.596016 179.5585 -1.4928716 128.22548
10200000000 -0.42366773 150.10669 -31.726711 177.82993 -31.784037 175.70407 -1.7085421 125.67844
10300000000 0.03055498 147.79047 -31.819563 176.32071 -31.788643 175.86629 -1.5987773 120.76523
10400000000 0.23466173 150.59361 -31.609243 173.58725 -31.55563 173.32993 -1.467414 117.08861
10500000000 -0.41167536 149.71097 -31.639858 172.36078 -31.591379 170.3353 -1.7432023 114.17068
10600000000 0.079317018 146.89757 -31.746031 170.53168 -31.713614 170.02557 -1.643647 109.63425
10700000000 0.38590285 149.20294 -31.409521 168.01474 -31.365467 167.57272 -1.4351269 106.208
10800000000 -0.36017108 148.56654 -31.520405 166.87286 -31.439665 164.64206 -1.7439407 102.80924
10900000000 -0.098418348 146.67068 -31.615791 165.05771 -31.64822 164.06393 -1.6853536 98.423531
11000000000 0.22330414 148.93604 -31.270214 162.55539 -31.16288 162.41393 -1.4881427 95.468369
11100000000 -0.35340992 148.03059 -31.312725 160.98106 -31.164591 159.02525 -1.7243198 91.574806
11200000000 -0.1136618 145.34535 -31.38756 158.97247 -31.435898 157.90065 -1.7002351 87.004913
11300000000 0.14284462 146.92351 -31.109549 156.46585 -31.028988 156.13809 -1.5412221 84.371758
11400000000 -0.32967079 146.83226 -31.06908 154.5406 -30.979395 152.4967 -1.7274895 80.358635
11500000000 -0.15056287 145.09967 -31.162725 152.89909 -31.283487 151.07077 -1.7033939 75.49662
11600000000 0.16936387 146.994 -30.899672 150.12849 -30.880623 149.85469 -1.6264646 72.827164
11700000000 -0.33255997 146.43304 -30.858797 147.96382 -30.743692 146.14796 -1.7474749 68.950752
11800000000 -0.11582106 143.61011 -30.935266 146.89664 -31.030169 144.73357 -1.6437683 64.426697
11900000000 0.089487858 145.00597 -30.77244 143.14508 -30.705225 142.76427 -1.6700156 61.2939
12000000000 -0.3700113 144.98535 -30.592245 140.87337 -30.545351 138.95566 -1.774645 57.38921
12100000000 -0.068912588 142.8678 -30.741081 139.54614 -30.859844 137.55103 -1.6683969 53.411819
12200000000 0.18435499 145.01515 -30.553108 135.45975 -30.560768 134.90108 -1.6962128 49.665092
12300000000 -0.2892305 144.83197 -30.453718 132.99275 -30.389318 131.0105 -1.7750233 45.867325
12400000000 -0.099187687 141.93378 -30.632193 131.30478 -30.820709 129.14932 -1.6915504 42.277248
12500000000 0.12981279 143.79468 -30.623117 127.23345 -30.627026 126.73117 -1.6776351 38.216377
12600000000 -0.34160554 143.42813 -30.597467 124.89465 -30.528658 122.95799 -1.7417921 33.966476
12700000000 -0.0601216 141.00575 -30.791849 123.34973 -30.954718 121.191 -1.6979709 30.451118
12800000000 0.27335656 142.49379 -30.773624 119.76353 -30.754423 119.02976 -1.6985482 26.571442
12900000000 -0.25275147 142.7202 -30.796303 117.26002 -30.775278 115.70419 -1.7594724 22.193989
13000000000 -0.17162229 140.19235 -31.018137 115.67324 -31.196362 113.32365 -1.7118475 18.553976
13100000000 0.15683541 142.20837 -31.112673 112.92066 -31.159771 112.24688 -1.7134867 14.784084
13200000000 -0.2416102 142.14633 -31.148071 110.46263 -31.137329 109.17414 -1.751213 10.138435
13300000000 -0.23696804 138.93654 -31.426203 109.29369 -31.615795 107.01147 -1.6729106 6.4034686
13400000000 0.2352009 139.55891 -31.648153 106.85192 -31.651957 106.23413 -1.774725 2.6204274
13500000000 -0.19115238 140.92052 -31.7817 105.55588 -31.77614 104.76244 -1.7930491 -2.1114759
13600000000 -0.32514453 138.67613 -32.130611 106.34977 -32.233803 103.76009 -1.7099729 -5.8502059
13700000000 0.10977074 139.36041 -32.250561 107.49446 -32.326645 106.56657 -1.8203039 -9.381299
13800000000 -0.12131316 140.90335 -31.600071 108.84479 -31.57023 108.13976 -1.8023329 -14.403913
13900000000 -0.31897724 138.13351 -31.048973 106.88488 -31.203697 103.83746 -1.6595211 -18.201323
14000000000 0.080697849 137.79112 -31.109592 101.59807 -31.171537 100.49726 -1.8349354 -22.411699
14100000000 -0.10085797 139.20811 -31.122683 98.044724 -31.112087 97.520027 -1.8374852 -27.295177
14200000000 -0.31220675 137.06358 -31.361933 98.389816 -31.507462 95.084755 -1.7211769 -30.905285
14300000000 0.1135134 137.20264 -31.367077 97.244064 -31.459404 95.889275 -1.8409804 -35.053875
14400000000 -0.027171751 138.37233 -31.170172 93.942955 -31.142307 93.430763 -1.8653921 -40.058563
14500000000 -0.35762861 136.26318 -31.315687 94.940071 -31.378256 91.322487 -1.75638 -43.62191
14600000000 -0.049743883 135.68993 -31.251554 93.922188 -31.39703 92.36731 -1.8496263 -48.0266
14700000000 -0.16984782 137.26762 -30.950455 90.786987 -30.936802 90.062042 -1.8737577 -53.294559
14800000000 -0.32431996 135.60388 -30.908024 90.841103 -31.015581 86.39962 -1.7803193 -57.087704
14900000000 -0.074273452 134.98955 -30.890657 89.092606 -31.078169 87.287697 -1.8653005 -60.777653
15000000000 -0.082083985 135.74431 -30.686224 86.093742 -30.67864 85.24279 -1.907167 -66.200882
15100000000 -0.30616802 134.68443 -30.543999 85.665077 -30.666639 81.524574 -1.7645826 -70.47625
15200000000 -0.13165094 134.088 -30.522253 84.854248 -30.87248 83.047974 -1.8730065 -74.094658
15300000000 -0.19030412 134.86879 -30.345215 82.220993 -30.395367 81.193001 -1.9445018 -79.59111
15400000000 -0.33732852 133.65501 -29.939314 81.491333 -30.202391 76.911942 -1.7939397 -84.212753
15500000000 -0.16259536 133.04527 -29.797342 79.961372 -30.2866 77.799881 -1.8856139 -87.384048
15600000000 -0.1363149 133.81619 -29.713253 76.031982 -29.762524 75.455818 -1.9937993 -92.745811
15700000000 -0.3340044 133.15051 -29.373764 74.410439 -29.598587 70.89254 -1.7909219 -97.366287
15800000000 -0.10335312 132.50829 -29.243217 72.894836 -29.798573 71.47628 -1.9038554 -100.81654
15900000000 -0.13806416 133.41759 -29.245707 69.18129 -29.375853 69.124329 -2.0109787 -106.22404
16000000000 -0.34497654 131.95787 -28.811466 67.434975 -29.227808 64.257683 -1.8333474 -110.95296
16100000000 -0.065878101 131.07124 -28.548199 65.290459 -29.146505 64.142616 -1.9093734 -114.37147
16200000000 -0.049540009 132.34883 -28.601797 60.744629 -28.713787 61.218452 -2.0342772 -119.62082
16300000000 -0.35185531 131.6111 -28.31559 58.018372 -28.602089 56.025928 -1.8533756 -123.99337
16400000000 -0.023369232 130.56059 -28.114256 55.19836 -28.663668 55.081268 -1.9410963 -127.77257
16500000000 -0.023346154 132.25688 -28.323833 50.877975 -28.403915 52.128857 -1.9993197 -133.25829
16600000000 -0.36279789 130.64377 -28.103188 47.738735 -28.337252 45.913746 -1.8854314 -137.4346
16700000000 -0.089569621 129.15907 -27.932262 44.653118 -28.465866 44.382759 -1.9782497 -141.26776
16800000000 0.049322877 131.16971 -28.274628 40.948349 -28.266731 42.104095 -1.9924282 -146.39314
16900000000 -0.3102645 130.30664 -28.200987 38.303474 -28.32003 37.254139 -1.9115758 -150.46268
17000000000 0.0015533124 128.59756 -28.096695 35.208733 -28.51226 35.518837 -1.9840639 -154.72925
17100000000 0.04285749 130.13731 -28.433395 32.289028 -28.405621 33.16563 -1.9457017 -159.55862
17200000000 -0.28809473 129.11423 -28.355742 29.298456 -28.418673 28.249029 -1.8944039 -163.46306
17300000000 -0.14783223 127.56876 -28.316021 26.714071 -28.680435 26.104115 -1.9683119 -167.74535
17400000000 0.023669323 128.82104 -28.595242 24.217552 -28.497559 24.852083 -1.9036381 -172.48679
17500000000 -0.2549715 128.74454 -28.568951 22.116001 -28.510841 21.355749 -1.858 -176.30508
17600000000 -0.058509268 126.7199 -28.494738 19.077518 -28.844894 18.808609 -1.9534874 179.38362
17700000000 0.092480287 127.63785 -28.746408 16.946476 -28.746416 17.189566 -1.8768978 174.65663
17800000000 -0.22080979 127.47383 -28.698339 14.511543 -28.606985 13.436465 -1.8044509 171.15857
17900000000 -0.19182795 125.69193 -28.610575 11.917568 -28.961988 10.798021 -1.9475108 167.04709
18000000000 0.0082823597 126.73725 -28.809269 9.9337234 -28.778254 9.9713888 -1.8240262 162.13287
18100000000 -0.19546926 126.91508 -28.791479 7.693439 -28.656706 6.9466066 -1.7195901 158.85477
18200000000 -0.10258752 124.64059 -28.745003 4.8943009 -29.136227 3.8500612 -1.9072295 154.27332
18300000000 0.10700709 125.52158 -28.981869 2.108932 -29.016851 2.1556399 -1.8095934 149.52353
18400000000 -0.18985143 125.34271 -28.944971 -0.28518704 -28.857813 -1.4817675 -1.7547513 146.67114
18500000000 -0.17472722 123.70004 -28.884485 -2.8258333 -29.321154 -4.3654737 -1.9211578 142.21378
18600000000 0.042896546 124.63131 -29.184107 -5.0002489 -29.224321 -5.1478486 -1.7658334 137.70047
18700000000 -0.18233101 124.89002 -29.229765 -6.8084593 -29.118486 -7.7414951 -1.729224 135.04994
18800000000 -0.12065729 122.64989 -29.271418 -9.3277636 -29.682608 -10.401745 -1.858095 130.11133
18900000000 0.064560771 123.43966 -29.510674 -11.207918 -29.55526 -10.951258 -1.7316933 125.60287
19000000000 -0.1937422 123.19963 -29.435431 -12.870662 -29.346222 -14.124014 -1.7708763 122.61517
19100000000 -0.13379845 121.6934 -29.327166 -15.395694 -29.733862 -16.832857 -1.8896959 118.26328
19200000000 0.039779432 122.60871 -29.480274 -17.309189 -29.597891 -17.20702 -1.7751254 114.34563
19300000000 -0.19250233 122.46742 -29.451708 -19.394815 -29.373058 -20.766884 -1.7674106 111.30325
19400000000 -0.13207437 120.66602 -29.484894 -22.562628 -29.795774 -23.989536 -1.8385279 106.98993
19500000000 0.012376039 121.22816 -29.636164 -25.052002 -29.761374 -25.265778 -1.7513386 103.29868
19600000000 -0.17010067 121.33756 -29.721031 -27.875149 -29.632523 -29.109539 -1.7846848 99.602142
19700000000 -0.1545243 119.7053 -29.791269 -31.005053 -30.047623 -32.392536 -1.8553184 95.779724
19800000000 0.046540141 120.23453 -30.040163 -33.111805 -30.175444 -33.367119 -1.8168536 92.298378
19900000000 -0.14513099 120.34808 -30.256622 -35.251472 -30.193655 -36.689045 -1.7876625 89.05687
20000000000 -0.17166395 118.78204 -30.47521 -37.807018 -30.713142 -39.490822 -1.8151463 85.250145
20100000000 0.0068477369 119.05439 -30.82107 -39.224346 -30.963247 -39.942558 -1.7641563 81.518723
20200000000 -0.16422805 119.52482 -31.064461 -40.948792 -30.995249 -42.177929 -1.7315948 77.999931
20300000000 -0.2364946 118.08243 -31.297174 -42.443279 -31.426846 -43.967468 -1.8122438 74.109154
20400000000 0.010389657 117.92711 -31.624058 -42.981606 -31.776154 -43.549686 -1.7853762 70.619591
20500000000 -0.097261615 118.66558 -31.898689 -43.199539 -31.857534 -44.584057 -1.7647445 67.653465
20600000000 -0.25130194 117.06139 -32.157345 -43.225788 -32.328922 -45.463627 -1.7838573 63.69825
20700000000 -0.066971377 116.79543 -32.446724 -41.862 -32.61655 -42.632252 -1.7443606 60.027939
20800000000 -0.14108261 117.64375 -32.354301 -39.59259 -32.330421 -40.928963 -1.7724081 56.749073
20900000000 -0.27050164 116.72449 -31.79776 -37.868961 -31.90168 -39.953281 -1.8311818 52.98024
21000000000 -0.057515696 116.18171 -31.1483 -40.707626 -31.39587 -41.795525 -1.7915595 49.917564
21100000000 -0.082929052 116.72578 -31.179886 -45.94508 -31.219612 -47.237206 -1.7986981 46.581356
21200000000 -0.23365314 115.24909 -31.594316 -48.330357 -31.733036 -50.712208 -1.784711 42.879486
21300000000 -0.092112273 114.8037 -31.977186 -47.820137 -32.201866 -49.020653 -1.7657416 39.493748
21400000000 -0.15569243 115.53754 -32.017673 -46.913654 -31.988678 -48.710297 -1.80212 35.785675
21500000000 -0.27825835 114.4501 -31.947445 -46.882114 -32.051651 -49.451092 -1.8168124 32.112309
21600000000 -0.11812174 113.92091 -31.907398 -44.835354 -32.190193 -46.143505 -1.8322579 28.831213
21700000000 -0.15566655 114.42005 -31.45052 -43.69149 -31.518875 -45.315784 -1.8398401 25.570532
21800000000 -0.27406543 113.67233 -30.799099 -45.527885 -30.933905 -48.346813 -1.839883 21.976004
21900000000 -0.1768769 113.09032 -30.448202 -47.498905 -30.738762 -49.070259 -1.8046726 18.569309
22000000000 -0.14047168 113.75994 -30.363022 -51.616905 -30.446125 -53.160545 -1.7926334 15.130978
22100000000 -0.27501708 112.89921 -30.360691 -52.810932 -30.498213 -55.685722 -1.8458725 11.206348
22200000000 -0.12337413 111.88274 -30.099195 -53.370724 -30.483841 -55.14772 -1.783366 7.5443835
22300000000 -0.086259261 112.38618 -29.993402 -56.243217 -30.210566 -57.892269 -1.8281281 4.5591059
22400000000 -0.30807486 111.72974 -29.942665 -57.666557 -30.220417 -60.921352 -1.89247 0.41173044
22500000000 -0.20004891 111.09456 -29.70734 -57.573734 -30.140024 -59.244377 -1.7544603 -3.1108575
22600000000 -0.16881602 112.20164 -29.410332 -58.336918 -29.657051 -59.821857 -1.829034 -5.7606702
22700000000 -0.32245836 111.57042 -28.889883 -61.322151 -29.158121 -63.920586 -1.9220537 -10.389399
22800000000 -0.10251193 109.95934 -28.578192 -64.491707 -29.05196 -65.982246 -1.7182598 -14.011685
22900000000 -0.032908164 110.9921 -28.652824 -67.719749 -29.02113 -68.941124 -1.8248867 -16.864639
23000000000 -0.26205102 110.19106 -28.622444 -70.214821 -28.979521 -72.758995 -1.9468801 -21.864906
23100000000 -0.13892797 109.24184 -28.370342 -71.215157 -28.916752 -72.408676 -1.8070149 -25.526016
23200000000 -0.083973274 110.8299 -28.12912 -73.385147 -28.479029 -74.13636 -1.9021091 -27.756289
23300000000 -0.30160248 110.06256 -27.887428 -76.713272 -28.241167 -78.244568 -2.0163083 -32.543812
23400000000 -0.097791448 108.15749 -27.648943 -79.357994 -28.194542 -80.34655 -1.8070365 -36.499546
23500000000 -0.02321152 109.24637 -27.55858 -82.242485 -27.976566 -82.650978 -1.8708823 -39.202255
23600000000 -0.2234294 108.73911 -27.46553 -86.037125 -27.875341 -87.074425 -2.0217161 -44.344688
23700000000 -0.042656288 107.41508 -27.377014 -88.803223 -27.940237 -89.531448 -1.8852624 -48.491402
23800000000 0.042142998 108.48836 -27.277889 -91.811188 -27.653925 -91.55452 -1.9801973 -51.147629
23900000000 -0.20575298 108.10753 -27.257092 -95.284889 -27.5753 -95.944763 -2.1334915 -55.851875
24000000000 -0.14088163 106.51982 -27.2066 -98.18885 -27.690248 -98.521461 -1.9676194 -60.190399
24100000000 -0.01519048 107.356 -27.157434 -100.70299 -27.551207 -100.39117 -1.9801904 -62.94878
24200000000 -0.20431924 107.28819 -27.236336 -103.92385 -27.549488 -103.9285 -2.1544578 -67.940269
24300000000 -0.066679172 105.11822 -27.260559 -106.69097 -27.68066 -106.92039 -2.0046377 -72.408813
24400000000 0.10230204 105.89513 -27.234116 -109.01716 -27.563362 -108.8759 -2.0749686 -75.667816
24500000000 -0.15651979 105.94745 -27.306589 -112.22363 -27.484434 -112.30445 -2.2461472 -80.799423
24600000000 -0.16540256 104.46225 -27.276428 -114.63637 -27.654789 -115.24799 -2.0843277 -84.958336
24700000000 -0.001501472 105.59135 -27.255154 -116.84089 -27.589712 -116.45718 -2.1793025 -87.938309
24800000000 -0.19121079 105.58524 -27.331175 -119.63616 -27.489193 -119.52475 -2.2731941 -93.293961
24900000000 -0.10594274 102.99448 -27.331223 -121.83054 -27.713707 -122.45482 -2.0839646 -97.297295
25000000000 0.063468754 103.40078 -27.345642 -124.08517 -27.688643 -124.34538 -2.2243624 -100.98938
25100000000 -0.18597522 103.43233 -27.434214 -126.98278 -27.571489 -127.41289 -2.2435679 -106.6501
25200000000 -0.176431 102.11275 -27.406521 -129.08574 -27.771133 -130.29498 -2.1300118 -110.44401
25300000000 -0.009715247 103.16831 -27.367094 -131.46193 -27.755331 -131.48906 -2.3168218 -114.2701
25400000000 -0.18392773 103.22134 -27.417385 -134.26318 -27.612345 -134.30904 -2.2812459 -119.74866
25500000000 -0.16572767 100.99926 -27.403048 -136.35071 -27.841734 -137.45326 -2.1825316 -123.10445
25600000000 -0.057404611 101.1589 -27.39558 -138.71251 -27.868721 -139.0507 -2.3156352 -127.61507
25700000000 -0.23696046 101.04047 -27.459749 -141.56389 -27.761023 -142.07358 -2.2417428 -133.06316
25800000000 -0.2097052 99.963348 -27.483469 -143.90315 -27.947918 -144.90918 -2.2142632 -136.5845
25900000000 -0.065529965 100.72672 -27.486244 -146.6264 -27.952002 -146.39896 -2.3592546 -141.38823
26000000000 -0.18847688 100.74051 -27.592876 -149.58119 -27.887438 -149.47285 -2.2623487 -146.46222
26100000000 -0.22687124 99.248222 -27.705872 -151.92511 -28.187927 -152.43782 -2.237288 -150.24695
26200000000 -0.16132472 99.327026 -27.759739 -154.72476 -28.341377 -154.06648 -2.3485804 -155.21457
26300000000 -0.26470515 99.27356 -27.99605 -157.23802 -28.309772 -156.34549 -2.2815816 -160.05208
26400000000 -0.25429186 98.146446 -28.145063 -159.09064 -28.593182 -158.73175 -2.28529 -164.04501
26500000000 -0.064224951 98.419815 -28.22716 -160.79346 -28.734682 -159.35153 -2.40663 -168.74062
26600000000 -0.17904022 98.528008 -28.518232 -162.71858 -28.784929 -161.61606 -2.3128271 -173.51048
26700000000 -0.25429896 97.464211 -28.741907 -163.7829 -29.08684 -162.89618 -2.3221071 -177.25841
26800000000 -0.19858983 97.478012 -28.850527 -164.62738 -29.246649 -162.8147 -2.3949044 177.50909
26900000000 -0.32602546 97.851509 -29.041767 -164.58443 -29.161541 -163.30563 -2.3261364 172.82501
27000000000 -0.34278294 96.575523 -28.955095 -164.69945 -29.008827 -163.23805 -2.4111822 168.81685
27100000000 -0.11893772 96.331886 -28.568483 -164.59186 -28.85141 -162.39534 -2.4854875 164.12422
27200000000 -0.19186749 96.916946 -28.185944 -166.27368 -28.32707 -165.48625 -2.4222426 159.90202
27300000000 -0.21874295 96.072891 -27.94409 -170.20955 -27.982279 -169.80176 -2.4384654 155.88605
27400000000 -0.11913888 95.879227 -28.008087 -174.13687 -28.026283 -171.89076 -2.2865157 152.25662
27500000000 -0.19417302 96.040558 -28.40303 -177.33342 -28.083988 -175.55666 -1.8205904 148.94984
27600000000 -0.27672207 94.932686 -28.639002 -179.32478 -28.621258 -178.28224 -2.4707825 143.71242
27700000000 -0.16364671 94.100456 -28.778677 179.30688 -29.01366 -179.48892 -2.5028248 136.41679
27800000000 -0.22058205 94.336296 -29.02634 179.84846 -29.108345 -179.92989 -2.2042251 133.39223
27900000000 -0.30435002 93.875252 -29.014187 -178.4408 -29.035465 -179.10132 -2.5643816 131.35461
28000000000 -0.21319623 93.633934 -28.610424 -178.32021 -28.843025 -177.31267 -2.7656143 123.04237
28100000000 -0.18179904 94.138771 -27.977968 -179.97455 -28.233383 179.74409 -2.0851741 118.71616
28200000000 -0.2974748 93.687279 -27.65202 174.65862 -27.367151 171.43575 -2.2638812 123.93726
28300000000 -0.24305852 92.699089 -28.24523 173.66756 -27.258173 173.44452 -2.57535 156.07176
28400000000 -0.26365101 92.830093 -28.114634 166.73067 -27.422693 164.12119 -0.96480006 116.20574
28500000000 -0.36724785 92.405678 -28.584278 167.64217 -28.346827 167.67152 -2.228555 106.13501
28600000000 -0.26052538 91.290001 -28.462109 168.17674 -28.75182 169.04239 -2.4093449 102.82256
28700000000 -0.21550459 91.852104 -28.312525 168.09752 -28.555838 167.74004 -2.4751818 98.004875
28800000000 -0.38447616 91.529411 -28.060928 167.49252 -28.117409 166.51884 -2.256429 94.781807
28900000000 -0.33914819 90.915161 -27.650833 165.05528 -27.872265 165.15364 -2.3580854 92.420151
29000000000 -0.3201192 91.373772 -27.596878 162.47624 -27.812279 162.6749 -2.4066958 87.666039
29100000000 -0.47257239 91.083992 -27.269304 161.09816 -27.322695 160.37962 -2.2298563 84.115295
29200000000 -0.31275269 90.074135 -26.904152 156.5164 -27.076517 156.64659 -2.3107581 81.135788
29300000000 -0.17783968 90.595146 -26.975386 152.02928 -27.149029 152.42836 -2.320086 76.668228
29400000000 -0.31388184 90.109924 -27.221727 149.159 -27.382824 148.42549 -2.2104771 73.213791
29500000000 -0.19237332 88.956924 -27.414843 146.7776 -27.655849 147.07237 -2.3011589 70.107971
29600000000 -0.20088693 89.206062 -27.587543 145.65248 -27.827456 146.13922 -2.2831993 66.109047
29700000000 -0.40282628 88.526932 -27.655361 145.20836 -27.777515 144.32863 -2.1550272 62.914265
29800000000 -0.36068413 87.605446 -27.511454 144.16441 -27.685114 143.43181 -2.1988852 59.374062
29900000000 -0.28455296 88.553551 -27.39135 142.87186 -27.513031 143.19472 -2.1149712 55.152931
30000000000 -0.37092596 88.682159 -27.226137 141.31371 -27.393538 140.45302 -2.0975919 51.693001
30100000000 -0.20872135 87.722603 -27.089609 138.69333 -27.315037 138.46338 -2.224555 47.751453
30200000000 -0.1206769 87.717575 -27.037989 136.89873 -27.284418 137.16714 -2.1303189 43.770187
30300000000 -0.32272789 86.967323 -27.005703 135.13062 -27.195761 134.28769 -2.1005991 41.436119
30400000000 -0.31137052 85.800919 -26.868137 133.90355 -27.041601 132.90527 -2.2182698 37.914017
30500000000 -0.2443583 86.699059 -26.656347 131.94643 -26.824867 131.77888 -2.0292342 33.244511
30600000000 -0.33270445 86.846565 -26.439714 130.09796 -26.638712 129.55653 -1.9800025 30.927711
30700000000 -0.19677211 85.62603 -26.239143 127.05589 -26.510508 126.59364 -2.2277348 26.381828
30800000000 -0.096578643 85.648743 -26.067253 123.81555 -26.308491 123.7921 -2.030566 21.683302
30900000000 -0.27382675 85.00209 -25.975628 121.01319 -26.284391 120.7416 -2.0180578 20.413239
31000000000 -0.35171133 84.785431 -25.972361 118.26469 -26.191372 117.11124 -2.2972434 15.966091
31100000000 -0.43477982 83.937241 -25.892399 114.79488 -26.047863 114.36019 -1.9817313 11.322167
31200000000 -0.37488618 78.546722 -25.836285 110.97616 -26.01988 111.54899 -2.0122736 10.037624
31300000000 -0.082539432 82.942215 -25.886271 109.55904 -26.208715 108.59936 -2.405025 4.6129675
31400000000 -0.41498962 84.370483 -25.881739 106.577 -26.052776 104.79468 -1.9954216 -0.70267063
31500000000 -0.13578972 75.87249 -25.763969 102.3676 -25.665005 102.17361 -1.8363985 -1.1602622
31600000000 0.84236723 66.958618 -26.206692 98.673447 -26.260902 98.953461 -2.2295957 -5.8187737
31700000000 0.71472752 83.801125 -25.937855 99.32132 -26.329062 98.945801 -2.0688982 -10.510766
31800000000 -0.53821594 89.091438 -26.047163 97.389145 -26.33404 97.379112 -2.1239908 -12.133759
31900000000 -0.64530545 80.459167 -26.015594 94.125938 -26.276596 93.322655 -2.3723571 -16.258331
32000000000 0.074554496 81.022789 -26.064856 91.88443 -26.437397 91.264099 -2.1859732 -21.025112
32100000000 -0.38040182 83.197052 -26.071268 89.699806 -26.295656 89.339897 -2.1890593 -23.257607
32200000000 -0.64322686 80.035637 -26.092831 87.439728 -26.328697 86.418655 -2.3819141 -27.719425
32300000000 -0.1862238 80.41069 -26.111137 85.070518 -26.446972 84.468491 -2.2201688 -32.292976
32400000000 -0.42509145 82.386948 -26.087748 83.164063 -26.418049 82.675728 -2.2788186 -34.989777
32500000000 -0.52844393 79.136642 -26.146301 80.695557 -26.47328 79.644005 -2.4534461 -39.768051
32600000000 -0.23330742 78.929657 -26.130322 78.561447 -26.534864 77.795456 -2.3101902 -44.010689
32700000000 -0.52222067 80.010681 -26.118202 76.276772 -26.395142 75.685646 -2.3963192 -46.453938
32800000000 -0.69180143 78.448196 -26.113543 74.308693 -26.325796 72.625092 -2.54178 -51.182564
32900000000 -0.39130408 78.754219 -26.118801 71.766495 -26.498011 70.746277 -2.3170702 -55.37508
33000000000 -0.4537991 80.481483 -26.111595 69.780792 -26.529026 68.806267 -2.340637 -58.194065
33100000000 -0.59472328 77.917053 -26.20162 66.647194 -26.572388 65.663223 -2.4838796 -63.76767
33200000000 -0.37309289 77.59449 -26.24822 64.651489 -26.777122 63.950863 -2.3518577 -68.786652
33300000000 -0.60723644 78.233368 -26.340036 63.005386 -26.769375 62.049126 -2.5055974 -71.678146
33400000000 -0.70743644 77.079025 -26.36968 61.504589 -26.774221 60.618927 -2.7617426 -75.82608
33500000000 -0.46395242 77.651711 -26.352093 60.359699 -26.850695 59.628441 -2.4877627 -80.413467
33600000000 -0.50755364 79.174698 -26.168539 58.98428 -26.634014 58.510975 -2.4313796 -83.15107
33700000000 -0.56802577 77.459587 -26.044479 56.596012 -26.500433 55.965881 -2.5570927 -88.949196
33800000000 -0.33018449 77.270218 -25.917097 53.315517 -26.530434 53.703037 -2.4824827 -94.044121
33900000000 -0.47690308 77.736977 -25.805645 50.382221 -26.357895 50.771267 -2.6069837 -97.692207
34000000000 -0.50542533 75.875046 -25.808062 47.051891 -26.31048 47.430824 -2.7673373 -102.49696
34100000000 -0.27234998 75.828033 -25.905745 43.816917 -26.494028 44.815365 -2.7072868 -106.68568
34200000000 -0.35992897 76.816025 -26.004759 41.40884 -26.494541 42.456036 -2.707876 -110.31841
34300000000 -0.48046839 75.396095 -26.161486 38.865135 -26.651112 39.865528 -2.7294841 -115.37411
34400000000 -0.28795585 75.377113 -26.364748 37.174423 -26.90255 39.061031 -2.7164967 -120.1667
34500000000 -0.39825639 76.866745 -26.343149 35.407379 -26.832876 37.47361 -2.7858803 -124.88142
34600000000 -0.48638856 74.797859 -26.304949 31.874161 -26.689314 34.155025 -2.8445215 -129.58678
34700000000 -0.24295492 73.779495 -26.552462 28.736118 -26.954397 31.110785 -2.8695095 -134.22632
34800000000 -0.29141077 74.483643 -26.913301 27.172768 -27.307415 29.011488 -2.8803935 -138.65355
34900000000 -0.48183259 73.44899 -27.243996 26.804024 -27.53392 29.008568 -2.9277463 -143.48116
35000000000 -0.30410439 73.340958 -27.492237 27.371071 -27.710169 29.578285 -2.9225516 -148.12154
35100000000 -0.30887109 75.264076 -27.513405 28.507421 -27.787397 30.75069 -2.9721925 -152.86342
35200000000 -0.48446488 73.888519 -27.256838 29.723061 -27.368988 31.402 -3.017179 -157.76385
35300000000 -0.28356808 72.30455 -26.819178 28.775328 -26.941746 30.142609 -2.9999268 -162.29387
35400000000 -0.26207405 73.32 -26.332874 27.18964 -26.628063 28.722246 -3.0517392 -166.42549
35500000000 -0.52215111 72.692703 -25.96261 24.766506 -26.12501 25.769434 -3.0475779 -171.21239
35600000000 -0.35555226 71.612686 -25.573519 21.336853 -25.67749 21.977318 -2.8976724 -175.75623
35700000000 -0.11221603 73.273315 -25.209965 16.011259 -25.45096 17.191326 -2.9189188 179.73271
35800000000 -0.34642744 72.648895 -25.337545 9.5190287 -25.520981 10.290818 -2.9330664 173.8885
35900000000 -0.25627446 70.061989 -25.815563 4.2624249 -26.018784 4.9191394 -2.8470249 169.78065
36000000000 -0.17386258 70.976006 -26.454477 2.725215 -26.764828 3.4208362 -2.8754416 166.38203
36100000000 -0.45895296 71.054832 -26.959919 3.8326347 -27.146425 4.1770477 -2.9087737 160.64464
36200000000 -0.40679246 69.204559 -26.911983 5.3020687 -27.111137 5.6355362 -2.7244108 155.80881
36300000000 -0.17273054 70.371483 -26.542229 5.2395973 -26.811737 5.9782152 -2.8014812 152.67458
36400000000 -0.39227372 70.665306 -26.263573 2.9881086 -26.468384 3.7558827 -2.962326 147.39554
36500000000 -0.37842768 68.550896 -26.065063 0.10774792 -26.347324 0.57229257 -2.7852926 142.97986
36600000000 -0.14972232 69.470009 -25.897921 -2.5766191 -26.25816 -1.8638284 -2.8504641 140.40498
36700000000 -0.39532569 69.864044 -25.841194 -6.5009589 -26.161381 -5.5544848 -2.9425483 135.60524
36800000000 -0.31537253 67.357468 -26.180811 -9.8631239 -26.44976 -9.2865725 -2.5722599 131.46553
36900000000 -0.026123423 67.561005 -26.580648 -11.344882 -26.904488 -9.7508183 -2.5644205 128.2753
37000000000 -0.3338275 68.013374 -26.71982 -10.755462 -26.988312 -8.9843636 -2.7154012 122.45159
37100000000 -0.42187652 65.331108 -26.535707 -10.327456 -26.78931 -8.9772062 -2.5872686 118.52183
37200000000 -0.20389271 66.858559 -26.181877 -11.242596 -26.452812 -9.39606 -2.7434437 115.94031
37300000000 -0.53861201 68.226387 -25.833605 -13.374138 -26.032196 -11.432462 -2.7751822 111.0489
37400000000 -0.48032779 65.322136 -25.615339 -16.311106 -25.720299 -15.113165 -2.4950192 107.83248
37500000000 -0.076804914 65.764969 -25.466381 -19.476143 -25.67359 -18.480129 -2.6553559 104.9482
37600000000 -0.41833141 66.546043 -25.511265 -23.142862 -25.643486 -21.401173 -2.6111643 99.694199
37700000000 -0.41299909 63.451168 -25.609444 -25.582027 -25.738188 -24.707397 -2.3581986 96.860222
37800000000 -0.11349446 64.911697 -25.692331 -27.497461 -25.819473 -26.514704 -2.6098683 93.438622
37900000000 -0.43896493 66.766731 -25.695524 -29.022945 -25.755619 -27.88555 -2.5289168 87.568794
38000000000 -0.49953324 63.659824 -25.605679 -30.563211 -25.693903 -30.10284 -2.3259149 85.808922
38100000000 -0.052621357 64.595787 -25.507475 -32.029797 -25.647202 -31.571051 -2.6669874 83.177505
38200000000 -0.40218079 66.136772 -25.373131 -34.480942 -25.487305 -33.629555 -2.4832473 76.983261
38300000000 -0.52920228 61.662376 -25.236029 -37.008377 -25.356918 -36.669022 -2.1358538 75.606987
38400000000 -0.052379854 62.623753 -25.141476 -39.024994 -25.320601 -39.048752 -2.5459967 73.495087
38500000000 -0.43298924 65.060112 -25.113285 -41.971645 -25.226141 -41.667362 -2.4350076 66.290062
38600000000 -0.60552698 61.840672 -25.040895 -44.39209 -25.139967 -44.494408 -2.0444152 65.296227
38700000000 -0.034432903 62.218086 -24.969496 -46.861088 -25.229101 -46.763329 -2.4737968 62.784924
38800000000 -0.40907434 64.955139 -25.000481 -49.538284 -25.155334 -49.353119 -2.4364047 55.615532
38900000000 -0.66668558 60.572536 -24.944769 -52.46851 -25.072281 -52.64172 -2.0964115 55.239494
39000000000 -0.10081608 60.993561 -24.825932 -54.204609 -25.144379 -54.401245 -2.582957 53.743435
39100000000 -0.41490236 63.773476 -24.865131 -57.288525 -25.04718 -57.191124 -2.2798514 47.355354
39200000000 -0.70633382 60.243931 -24.764782 -60.186733 -24.935379 -60.22253 -1.9653625 46.358185
39300000000 -0.22093512 60.075947 -24.769321 -63.042511 -24.993517 -63.497627 -2.4532735 43.428131
39400000000 -0.48991403 63.17942 -24.831367 -66.215607 -25.070147 -66.268158 -2.2792861 37.322376
39500000000 -0.72956645 60.202755 -24.92625 -69.141975 -25.089914 -69.647858 -2.105303 36.576656
39600000000 -0.18498452 60.00716 -24.987776 -72.108559 -25.304157 -72.621246 -2.5934782 33.617016
39700000000 -0.34535891 62.303082 -25.185495 -75.072319 -25.511871 -74.851334 -2.358459 28.667192
39800000000 -0.53952879 59.055511 -25.478868 -77.302956 -25.697855 -77.665024 -2.0998659 28.559534
39900000000 -0.19621277 58.61911 -25.647713 -79.20137 -25.955667 -79.560211 -2.3988211 24.507113
40000000000 -0.40951416 60.816257 -25.814926 -80.481461 -26.108789 -80.503937 -2.1313605 19.102459
