!Keysight Technologies,N5224A,MY55441802,A.10.65.16
!Date: Wednesday, May 13, 2026 18:59:41
!Correction: S11(Full 2 Port(1,2)) 
!S21(Full 2 Port(1,2)) 
!S12(Full 2 Port(1,2)) 
!S22(Full 2 Port(1,2)) 
!S2P File: Measurements: S11, S21, S12, S22:
# Hz S  dB   R 50
1000000000 0.8892777 -109.09862 -31.525558 12.933424 -22.487907 8.6409693 0.0643427 -177.61327
1100000000 0.28427678 161.59062 -35.992107 -44.032707 -31.521528 -48.014221 -0.87384677 67.676743
1200000000 1.3557336 6.8438101 -55.329693 74.911537 -57.039703 154.04001 7.2831607 9.6203184
1300000000 7.4367089 -131.11499 -37.990875 -26.615658 -26.326105 -25.254978 -2.2473056 132.26588
1400000000 1.1590854 169.57234 -35.319981 -35.137108 -31.993082 -49.478321 0.081745259 60.402924
1500000000 3.7618773 11.265406 -32.242809 115.33832 -33.115288 150.88989 17.9478 47.368065
1600000000 10.372203 -148.71016 -42.093655 -54.079411 -27.386862 -47.245007 -2.7276733 114.60321
1700000000 1.2891227 169.42487 -33.692924 -27.087517 -32.186058 -35.351608 0.72377664 69.448402
1800000000 8.8166571 14.335703 -29.964844 -174.8188 -32.292313 -156.33495 7.5155001 112.93951
1900000000 11.9972 -157.89439 -38.371296 -74.98999 -26.91124 -56.082947 -2.3235364 103.87891
2000000000 1.3040513 166.96037 -33.786182 -23.043398 -32.895267 -32.15221 0.5172208 72.582695
2100000000 15.177093 44.415356 -26.41428 -142.6002 -26.614685 -131.47963 1.2573985 95.339005
2200000000 11.491146 -164.09001 -37.22694 -54.259785 -27.201509 -60.941914 -2.6248019 94.726402
2300000000 0.31768459 166.81221 -33.994991 -27.132113 -33.916737 -35.113644 -0.51942289 71.692093
2400000000 17.507647 91.573669 -22.794241 -103.6229 -24.542248 -95.304794 0.0089037437 79.145615
2500000000 8.3608809 -174.45796 -35.562351 -48.745319 -30.056877 -61.668747 -2.515898 84.303879
2600000000 -0.04018322 166.07338 -34.436291 -34.738167 -34.069485 -41.063755 -0.9950425 66.572937
2700000000 10.076147 147.70396 -28.821791 -58.068535 -29.204931 -56.543648 -0.35643649 63.207386
2800000000 7.9759974 -177.70174 -33.600567 -42.215233 -30.356956 -62.660881 -2.7505326 71.459221
2900000000 -0.44819495 167.82742 -34.651108 -40.443241 -34.354031 -47.552017 -1.4111629 58.418781
3000000000 7.9993563 152.51292 -30.335173 -60.320217 -30.299213 -54.917374 -0.047844652 51.555626
3100000000 6.3406706 176.92432 -33.023167 -43.891499 -31.488836 -63.168186 -2.389895 57.934349
3200000000 -0.54141796 168.41576 -34.84333 -45.611507 -34.595604 -51.464008 -1.6965386 48.586941
3300000000 5.6403008 153.41679 -31.7262 -63.594929 -32.0508 -59.060959 0.020331418 43.654099
3400000000 6.0377188 179.32956 -32.600208 -47.738899 -31.355131 -61.909348 -1.9590375 45.061893
3500000000 -0.67421407 169.52631 -34.564358 -51.701843 -34.541645 -57.837318 -1.8698859 36.879002
3600000000 5.7478533 156.7382 -31.260357 -62.863247 -31.376221 -59.942989 -0.23182508 36.398003
3700000000 5.9046845 171.71524 -32.014538 -57.855984 -31.691154 -69.061462 -1.6655116 33.532124
3800000000 -0.63643807 169.33144 -34.208595 -57.971252 -34.370743 -64.341675 -1.5832592 24.363167
3900000000 4.1385469 158.25066 -32.477753 -65.967651 -32.048203 -62.616409 -0.77068281 26.009081
4000000000 5.3340244 170.77533 -31.750402 -65.01593 -31.812225 -73.436142 -1.5743235 21.853558
4100000000 -0.58158475 171.13866 -33.931709 -61.260494 -33.836678 -70.422691 -1.2219156 13.364913
4200000000 2.9577105 155.10992 -33.086216 -72.154793 -32.58181 -68.618164 -1.168113 13.854034
4300000000 4.5947533 168.10081 -31.785067 -72.49633 -32.199451 -77.486694 -1.5271198 9.064292
4400000000 -0.48485932 169.35777 -33.924957 -66.860794 -33.80547 -75.207085 -0.98065704 3.4731801
4500000000 2.2107279 159.64977 -33.725189 -74.129242 -33.323997 -70.385429 -1.3075078 1.0118893
4600000000 3.7512231 167.88803 -31.937761 -77.841759 -32.336544 -81.097168 -1.4396535 -4.3759851
4700000000 -0.32958451 169.8679 -33.646603 -71.860992 -33.506756 -80.23037 -0.90053976 -7.2451162
4800000000 1.7915759 157.46642 -33.702187 -80.676628 -33.304924 -77.491814 -1.2677085 -11.433591
4900000000 3.4289782 164.81161 -32.131393 -83.952469 -32.531364 -85.178825 -1.3499666 -17.360779
5000000000 -0.30020475 168.28938 -33.599075 -78.040321 -33.537193 -85.603004 -0.95667076 -18.899227
5100000000 1.0580827 158.76491 -33.851017 -85.168198 -33.533863 -82.5625 -1.1570897 -23.531862
5200000000 2.9085317 162.75368 -32.352123 -90.115967 -32.715893 -90.532898 -1.2628001 -30.264551
5300000000 -0.15889087 167.91623 -33.272549 -84.694542 -33.299103 -90.870255 -0.95320356 -32.620502
5400000000 0.94051534 157.97159 -33.701462 -90.371475 -33.397861 -88.434486 -1.09091 -35.345531
5500000000 2.9898965 161.23346 -32.364716 -95.565643 -32.558941 -95.12413 -1.2769846 -42.889099
5600000000 -0.23366544 166.75623 -33.233707 -91.250648 -33.257652 -96.775589 -0.89746612 -46.45686
5700000000 0.8915987 155.39612 -33.502163 -94.94001 -33.017078 -92.941124 -1.0428263 -46.424381
5800000000 2.2849679 161.4342 -32.648964 -100.09819 -32.775162 -99.636818 -1.250576 -55.358372
5900000000 -0.004527193 166.5462 -32.892284 -98.224319 -32.965641 -103.32992 -0.64652902 -60.399014
6000000000 0.47042945 156.03951 -33.48703 -100.26717 -33.146759 -99.751625 -1.2370681 -59.076874
6100000000 2.6081607 160.61856 -32.413849 -104.89993 -32.41124 -104.68867 -1.298113 -68.074539
6200000000 -0.0062527051 165.11026 -32.733078 -104.84579 -32.789307 -109.12316 -0.5718407 -73.151871
6300000000 0.38339242 155.88651 -33.321598 -105.60508 -33.076023 -105.78008 -1.3429904 -72.708969
6400000000 2.1991386 157.89923 -32.56142 -112.97483 -32.500469 -112.41571 -1.3817679 -80.243027
6500000000 0.26475933 164.2717 -32.694725 -112.18451 -32.906143 -115.40752 -0.76696378 -83.185585
6600000000 0.064268731 156.22957 -33.469654 -113.06442 -33.300289 -114.15078 -1.3560376 -87.002319
6700000000 2.0496907 158.77992 -32.748848 -117.76558 -32.511414 -117.49133 -1.241393 -93.406517
6800000000 0.26548648 163.39209 -32.84399 -118.22404 -32.895298 -120.36572 -0.62788236 -95.019379
6900000000 -0.11272389 155.32208 -33.516071 -118.34843 -33.405186 -120.48844 -1.199924 -99.719566
7000000000 1.4137651 156.29518 -33.00787 -123.41092 -32.852432 -122.96108 -1.2796042 -106.41455
7100000000 0.38280019 162.66942 -32.733803 -124.27203 -32.81815 -125.87853 -0.79652953 -107.80387
7200000000 -0.23342031 155.14304 -33.448544 -124.93602 -33.384464 -126.92974 -1.0866302 -111.71548
7300000000 1.6465954 153.99457 -33.004555 -128.93182 -32.844482 -128.95766 -1.2932786 -118.66425
7400000000 0.43939841 161.33922 -33.029633 -131.03476 -33.070843 -132.62885 -1.100463 -121.83472
7500000000 -0.39742523 155.03479 -33.408363 -130.2227 -33.45499 -133.19315 -1.0555522 -123.27022
7600000000 0.98881263 153.05547 -33.509464 -133.80754 -33.363522 -134.02449 -1.3191689 -130.20195
7700000000 0.62834448 159.45926 -33.18959 -136.53773 -33.265034 -137.8851 -1.0942196 -135.63776
7800000000 -0.38681304 154.77754 -33.411057 -133.52838 -33.516823 -136.45117 -1.2487228 -135.6701
7900000000 1.1573746 151.79192 -33.339233 -137.1142 -33.157299 -136.9726 -1.3768132 -142.07249
8000000000 0.52817923 157.73874 -32.99527 -141.24223 -33.071648 -142.49426 -1.0385118 -147.75351
8100000000 -0.4257789 154.11848 -33.07225 -138.34991 -33.27533 -141.63213 -1.3534267 -148.01865
8200000000 0.67144215 151.98846 -33.215004 -142.09523 -33.086693 -142.14655 -1.4869269 -153.91365
8300000000 0.56241679 157.72328 -32.774345 -146.45561 -32.785538 -147.86349 -1.0103743 -159.22476
8400000000 -0.43179438 153.67451 -32.937069 -144.62457 -33.18869 -147.90878 -1.3974 -160.72798
8500000000 0.69629413 151.24525 -33.07481 -147.00015 -32.929413 -147.97842 -1.5438523 -166.04321
8600000000 0.41473109 155.40144 -32.931091 -151.56145 -32.933598 -152.41635 -1.1954845 -170.17192
8700000000 -0.4332583 153.12898 -32.913559 -150.89044 -33.169476 -153.87131 -1.4568558 -172.75349
8800000000 0.4980202 150.8679 -33.04668 -152.57716 -32.904346 -153.24127 -1.5693381 -177.80869
8900000000 0.42283556 154.91995 -32.822155 -156.40994 -32.816132 -157.01817 -1.2748334 178.47009
9000000000 -0.45331606 152.28345 -32.846401 -156.49118 -33.121468 -159.51711 -1.4940906 175.40865
9100000000 0.44500643 149.39957 -32.944191 -157.78848 -32.824383 -158.47842 -1.5641074 170.30034
9200000000 0.49540535 152.64349 -32.831482 -161.66023 -32.811253 -162.1248 -1.3677953 166.98134
9300000000 -0.45473439 151.93344 -32.806355 -162.65901 -33.02124 -164.98775 -1.5504971 163.80334
9400000000 0.46899748 148.4895 -32.811871 -162.9397 -32.743187 -163.71019 -1.5793108 158.79001
9500000000 0.5240016 151.67343 -32.749889 -166.54778 -32.709061 -166.64169 -1.4537762 155.57411
9600000000 -0.47759187 151.32599 -32.742073 -167.61037 -32.918526 -169.71844 -1.5560412 152.40706
9700000000 0.19554104 146.49673 -32.696152 -168.76889 -32.636124 -169.4178 -1.5593525 147.53328
9800000000 0.42307034 151.15482 -32.662991 -171.34074 -32.578232 -171.7807 -1.5062649 144.16216
9900000000 -0.44317293 151.01106 -32.613922 -172.50195 -32.727314 -174.85449 -1.602994 141.10345
10000000000 0.31464568 145.8138 -32.513302 -173.36293 -32.449997 -174.2634 -1.5761276 136.2798
10100000000 0.7563253 149.28053 -32.323513 -176.50671 -32.342812 -176.95476 -1.5159453 132.3273
10200000000 -0.38232714 150.30286 -32.43766 -177.58165 -32.520786 -179.82076 -1.6631675 129.75954
10300000000 -0.019671496 146.26054 -32.464619 -178.63718 -32.380283 -179.23906 -1.6090293 125.19594
10400000000 0.45160991 148.62048 -32.209026 178.28888 -32.123425 178.28543 -1.4940075 121.17561
10500000000 -0.32301456 149.76833 -32.172882 177.79698 -32.118393 175.62056 -1.7064124 118.23267
10600000000 0.0087573575 145.32372 -32.204552 176.23093 -32.158325 175.49222 -1.648841 113.9889
10700000000 0.5160296 146.93396 -31.800676 173.27184 -31.755337 172.84515 -1.471948 110.21113
10800000000 -0.27950707 148.41516 -31.856722 172.35458 -31.772858 170.08044 -1.7211822 106.82177
10900000000 -0.1706439 145.5768 -31.858154 170.46446 -31.875889 169.51178 -1.6998022 102.69786
11000000000 0.34798509 146.89636 -31.470388 167.47305 -31.400471 167.03311 -1.5360792 99.374855
11100000000 -0.24803823 147.72714 -31.504595 165.76433 -31.348661 163.7164 -1.7218094 95.600029
11200000000 -0.19551016 144.37184 -31.501272 163.60413 -31.535809 162.42075 -1.7390391 91.307693
11300000000 0.18631466 144.95212 -31.286776 160.54878 -31.176992 160.14276 -1.5876625 88.280739
11400000000 -0.25404304 146.53168 -31.201092 158.39209 -31.116158 156.28357 -1.7384888 84.460564
11500000000 -0.2231953 144.13626 -31.263599 156.50711 -31.368607 154.54723 -1.761394 79.843361
11600000000 0.2280889 145.06761 -31.064615 153.27957 -31.025879 152.78654 -1.6739339 76.848923
11700000000 -0.2284319 146.01967 -31.073118 150.8291 -30.988356 148.79913 -1.7549523 73.140686
11800000000 -0.20369981 142.80716 -31.157639 149.492 -31.270998 147.43785 -1.7014847 68.751221
11900000000 0.13882159 143.12628 -31.084715 145.89011 -31.023384 145.51717 -1.7094696 65.344467
12000000000 -0.28343219 144.59863 -30.997095 144.13463 -30.939415 142.10378 -1.7784419 61.603855
12100000000 -0.16412207 142.01082 -31.083027 143.04306 -31.188639 140.93559 -1.7237409 57.738937
12200000000 0.22251926 142.98196 -30.94532 139.24672 -30.933397 138.51505 -1.7559187 53.719212
12300000000 -0.17891063 144.28284 -30.839508 136.96069 -30.797115 135.06361 -1.7820126 50.112923
12400000000 -0.18515359 141.13722 -30.981216 135.56412 -31.178204 133.34973 -1.754131 46.69136
12500000000 0.17323032 141.99652 -30.948896 131.94754 -30.971449 131.06593 -1.7436204 42.264793
12600000000 -0.22853076 143.01227 -30.915548 129.76047 -30.849371 127.75181 -1.7590272 38.308029
12700000000 -0.14797452 140.31837 -31.066669 128.31775 -31.204845 126.19942 -1.7703004 34.977165
12800000000 0.29823038 140.53958 -30.974567 124.77536 -30.950558 124.01758 -1.7536138 30.793646
12900000000 -0.13459855 142.00801 -31.011877 122.51167 -30.963123 120.90572 -1.7707165 26.598949
13000000000 -0.24164549 139.63539 -31.141958 120.91182 -31.302031 118.49898 -1.764396 23.1008
13100000000 0.17138857 140.24585 -31.167734 117.84612 -31.198597 117.17036 -1.763321 19.06189
13200000000 -0.11147991 141.23657 -31.198526 115.32179 -31.168343 114.01895 -1.7638296 14.59092
13300000000 -0.29936913 138.55609 -31.43008 114.02466 -31.583544 111.46136 -1.7223521 10.995261
13400000000 0.20754361 137.62459 -31.605688 110.86143 -31.610935 110.19127 -1.8159972 6.961102
13500000000 -0.073771507 139.73787 -31.782967 109.42617 -31.771757 108.39104 -1.7971603 2.3704724
13600000000 -0.36840677 138.33575 -32.089935 109.96478 -32.197521 107.36462 -1.7499127 -1.2418225
13700000000 0.046186414 137.27278 -32.283901 110.09144 -32.37254 109.06455 -1.8582251 -5.0906978
13800000000 -0.0063127493 139.43452 -31.850264 111.30255 -31.809769 110.31628 -1.8046762 -9.9051352
13900000000 -0.35743001 137.84637 -31.426201 110.81191 -31.579037 107.60368 -1.7141275 -13.563217
14000000000 -0.01309682 136.01097 -31.386545 106.81757 -31.459774 105.58908 -1.8673828 -18.010437
14100000000 -0.036967218 137.87769 -31.299091 104.01843 -31.264694 103.48471 -1.8439957 -22.601282
14200000000 -0.36879256 136.99557 -31.239075 104.73264 -31.351301 101.38984 -1.7715676 -26.120518
14300000000 0.034176227 135.75296 -31.093224 101.78683 -31.152351 100.39848 -1.861617 -30.558489
14400000000 0.048811026 136.84979 -30.921505 98.05793 -30.877708 97.345688 -1.8530018 -35.263432
14500000000 -0.38060284 136.16255 -30.984751 98.440277 -31.07831 94.675049 -1.7960438 -38.797211
14600000000 -0.13130929 134.58614 -30.938028 96.372116 -31.073208 94.632759 -1.8594027 -43.420513
14700000000 -0.10190289 136.16769 -30.730682 93.032982 -30.71011 92.250092 -1.8594649 -48.42593
14800000000 -0.32985783 135.39551 -30.618793 91.986931 -30.735035 87.510521 -1.8119102 -52.204868
14900000000 -0.15360138 133.97519 -30.827463 89.162025 -31.033226 87.29924 -1.8891838 -56.121525
15000000000 -0.079855584 134.51976 -30.926529 86.864738 -30.9109 85.987389 -1.8940407 -61.223038
15100000000 -0.34519139 134.53961 -30.71693 88.103966 -30.835058 83.848885 -1.8026178 -65.359085
15200000000 -0.22819033 133.50345 -30.526457 87.266533 -30.881477 85.205421 -1.8804929 -69.275627
15300000000 -0.18025912 134.25436 -30.355194 83.873688 -30.394073 82.70269 -1.9175078 -74.49231
15400000000 -0.31494305 133.87849 -30.003115 82.422813 -30.241146 77.744713 -1.8202724 -78.985275
15500000000 -0.18767461 132.72507 -29.936863 80.450294 -30.422928 78.165154 -1.8967663 -82.526154
15600000000 -0.060148545 133.01686 -29.964283 76.685387 -30.043989 75.928162 -1.9648997 -87.538208
15700000000 -0.2498433 132.96169 -29.72245 75.432777 -29.955872 71.707413 -1.8070649 -92.12252
15800000000 -0.11919145 131.68704 -29.592085 74.179955 -30.135063 72.542191 -1.9010016 -95.85434
15900000000 -0.068933696 132.24474 -29.580107 70.337173 -29.734451 70.145195 -1.9912932 -100.98531
16000000000 -0.29451144 131.75191 -29.235746 68.192245 -29.6591 64.77636 -1.8559834 -105.64422
16100000000 -0.10892148 130.41165 -29.074827 65.687149 -29.6735 64.393288 -1.9180201 -109.21426
16200000000 0.01957068 131.17691 -29.313267 61.380302 -29.453304 61.768917 -2.0204999 -114.20827
16300000000 -0.2587254 131.41109 -29.199476 59.398911 -29.500893 57.182938 -1.874131 -118.59745
16400000000 -0.03026752 129.66156 -29.115963 57.51091 -29.669981 57.445908 -1.9404533 -122.52213
16500000000 0.071718276 130.90575 -29.392199 54.463425 -29.510447 55.596325 -1.9954966 -127.6562
16600000000 -0.24743383 130.2747 -29.221388 52.861572 -29.476435 50.897667 -1.9053292 -131.86972
16700000000 -0.097367011 128.41119 -28.999117 51.272148 -29.55019 50.801544 -1.9578556 -135.81055
16800000000 0.13540772 129.55347 -29.267605 48.586666 -29.269453 49.783157 -1.9679837 -140.66245
16900000000 -0.19119318 129.5659 -29.057173 47.168262 -29.201015 45.990917 -1.9087774 -144.85797
17000000000 -0.024303071 127.54387 -28.835499 44.674133 -29.276579 44.825455 -1.9438504 -149.22977
17100000000 0.09113241 128.41492 -29.028547 42.553257 -29.030754 43.451309 -1.9136957 -153.7509
17200000000 -0.18479376 128.218 -28.817066 40.487759 -28.904545 39.225792 -1.8905222 -157.83891
17300000000 -0.16422853 126.77062 -28.588671 38.18446 -28.968468 37.563004 -1.917171 -162.19196
17400000000 0.032038271 127.08579 -28.680067 35.702297 -28.60458 36.318256 -1.8635577 -166.659
17500000000 -0.16490336 127.53122 -28.471844 33.665592 -28.432247 32.79668 -1.8523763 -170.67619
17600000000 -0.10800526 125.79673 -28.204264 30.640106 -28.558651 30.183859 -1.9096962 -175.13515
17700000000 0.057163212 125.8826 -28.253584 27.838833 -28.261345 28.236145 -1.8431764 -179.55701
17800000000 -0.16787528 126.26865 -28.062366 24.850456 -27.999365 23.695805 -1.8098769 176.82643
17900000000 -0.23181136 124.99844 -27.848248 21.447342 -28.225361 20.269112 -1.918448 172.55289
18000000000 -0.041333973 125.07743 -27.961731 18.214838 -27.950226 18.346336 -1.7950139 167.90228
18100000000 -0.15042602 125.61475 -27.880983 15.178666 -27.765766 14.30098 -1.7464759 164.50551
18200000000 -0.17215866 123.94899 -27.772764 11.634963 -28.176332 10.453252 -1.9100847 159.77812
18300000000 0.025012515 124.07893 -27.994755 7.7654428 -28.035969 7.8321404 -1.8180587 155.35382
18400000000 -0.16618317 124.31429 -27.949883 4.4440374 -27.87166 3.1995852 -1.7992293 152.44281
18500000000 -0.22218339 123.14253 -27.884819 1.1326692 -28.341204 -0.52133268 -1.9418405 147.90865
18600000000 -0.02639477 123.326 -28.218346 -2.0713711 -28.268034 -2.2585511 -1.7875032 143.67339
18700000000 -0.15532357 123.78266 -28.350218 -4.7805181 -28.268549 -5.7355194 -1.7831523 140.9259
18800000000 -0.17809598 122.09574 -28.467007 -8.0664949 -28.894058 -9.1095028 -1.8866408 136.01802
18900000000 -0.010460976 122.23169 -28.83741 -10.564507 -28.9065 -10.218686 -1.7661612 131.77917
19000000000 -0.17701066 122.30622 -28.944828 -12.313927 -28.866964 -13.576136 -1.8096855 128.74486
19100000000 -0.16721173 121.21335 -28.95579 -14.684094 -29.398905 -16.093203 -1.896917 124.3884
19200000000 -0.011623982 121.52247 -29.275635 -16.148918 -29.374012 -15.951359 -1.7736542 120.59354
19300000000 -0.16478096 121.50498 -29.334976 -17.184528 -29.257196 -18.645706 -1.7788051 117.43815
19400000000 -0.15388244 120.15457 -29.362833 -19.5576 -29.686804 -20.819592 -1.8219533 113.04623
19500000000 -0.036510821 120.15923 -29.48382 -21.034349 -29.57938 -21.061146 -1.7366025 109.43655
19600000000 -0.1408006 120.31352 -29.447592 -23.048271 -29.363329 -24.220844 -1.7947643 105.62272
19700000000 -0.16109724 119.15029 -29.355288 -25.70952 -29.604324 -27.023878 -1.8541646 101.72772
19800000000 -0.014753041 119.09659 -29.457897 -27.965172 -29.559223 -28.025534 -1.8278625 98.41391
19900000000 -0.11789296 119.12047 -29.487333 -30.25029 -29.40003 -31.793121 -1.833882 95.083961
20000000000 -0.17897387 118.16837 -29.512415 -33.572834 -29.792767 -35.131191 -1.8423496 91.258804
20100000000 -0.06837149 117.88821 -29.735687 -36.12336 -29.892033 -36.873222 -1.8100038 87.820915
20200000000 -0.14064671 118.15852 -29.880562 -39.427876 -29.798964 -40.64209 -1.8051112 84.304817
20300000000 -0.24072234 117.39227 -30.073473 -42.462814 -30.231056 -44.147411 -1.8660026 80.443924
20400000000 -0.087104619 116.6429 -30.474466 -45.042793 -30.610416 -45.525574 -1.8369617 77.257744
20500000000 -0.12745136 117.1615 -30.917791 -47.063259 -30.862169 -48.517925 -1.8408991 74.317101
20600000000 -0.29808173 116.36768 -31.479748 -48.704365 -31.633728 -50.928154 -1.8170606 70.248413
20700000000 -0.191461 115.87502 -32.173386 -48.354439 -32.34454 -49.073112 -1.7743918 66.801437
20800000000 -0.19550164 116.45985 -32.635162 -45.443634 -32.597721 -46.878338 -1.819394 63.398342
20900000000 -0.31604236 116.23077 -32.650272 -40.810738 -32.744774 -42.999992 -1.86077 59.518269
21000000000 -0.18981019 115.51764 -32.099037 -37.834679 -32.323006 -38.817131 -1.8394685 56.676407
21100000000 -0.16376868 115.83837 -31.545256 -38.966084 -31.596766 -40.023731 -1.8781906 53.416969
21200000000 -0.28807899 115.2502 -31.271893 -39.446659 -31.40065 -41.936352 -1.8304015 49.804417
21300000000 -0.17158678 114.81082 -30.809029 -40.449059 -31.006847 -41.446404 -1.8025136 46.724972
21400000000 -0.14351207 115.07499 -30.264259 -43.978584 -30.250734 -45.546104 -1.8321476 42.977184
21500000000 -0.21279712 114.23996 -30.05768 -49.097263 -30.178196 -51.591927 -1.8005052 39.282486
21600000000 -0.10552949 113.47623 -30.23477 -52.909752 -30.535519 -54.17104 -1.8010134 36.135715
21700000000 -0.10809883 113.31467 -30.536961 -55.980698 -30.617241 -57.578907 -1.8004154 32.652416
21800000000 -0.21627052 112.80367 -30.825361 -57.707081 -30.946306 -60.599392 -1.7784593 28.901327
21900000000 -0.2042733 112.11608 -31.186174 -58.031418 -31.478638 -59.550922 -1.7645004 25.627012
22000000000 -0.19780445 112.37077 -31.488125 -56.967342 -31.545481 -58.696289 -1.7802538 21.9764
22100000000 -0.30915344 112.08593 -31.486769 -55.031704 -31.638533 -57.876522 -1.8020413 18.100698
22200000000 -0.23707224 111.36854 -31.104628 -51.764763 -31.467112 -53.568676 -1.771198 14.667184
22300000000 -0.15915813 111.78795 -30.36977 -51.677021 -30.585142 -53.536896 -1.8444157 11.572567
22400000000 -0.2653724 111.6344 -29.586845 -55.020782 -29.832809 -58.360825 -1.8584703 7.5459971
22500000000 -0.17664312 110.84515 -29.181959 -59.394917 -29.606688 -61.15321 -1.7373033 4.3536305
22600000000 -0.10448561 111.05977 -29.170191 -64.173279 -29.414604 -65.751732 -1.8307384 1.3253694
22700000000 -0.24452959 110.52156 -29.290354 -68.331573 -29.547792 -70.866142 -1.8749436 -3.3010912
22800000000 -0.14999914 108.97175 -29.543388 -69.688988 -29.987473 -71.051025 -1.7100885 -6.5834846
22900000000 -0.076414667 109.70198 -29.774399 -69.492676 -30.115492 -70.683167 -1.8524005 -9.6770735
23000000000 -0.25872365 109.46021 -29.598137 -69.479958 -29.924103 -71.977692 -1.9278067 -14.598272
23100000000 -0.1884034 108.67784 -29.120111 -69.448952 -29.645559 -70.959518 -1.8090088 -17.938643
23200000000 -0.095600598 109.74538 -28.707132 -71.779175 -29.036592 -72.726532 -1.9222858 -20.379873
23300000000 -0.24361698 109.22799 -28.396814 -75.729195 -28.743059 -77.396996 -1.9984114 -25.175684
23400000000 -0.10341086 107.41984 -28.212029 -78.802139 -28.737341 -79.692619 -1.8086555 -28.878826
23500000000 -0.029448509 107.92725 -28.215454 -81.517998 -28.630938 -81.997444 -1.8956572 -31.807055
23600000000 -0.17747983 107.52329 -28.206074 -84.792183 -28.605104 -85.849144 -2.0170012 -36.921719
23700000000 -0.078639574 106.36055 -28.137299 -86.612595 -28.698141 -87.463554 -1.901937 -40.908611
23800000000 -0.029011142 106.87199 -28.043983 -88.572525 -28.388155 -88.552376 -2.016031 -43.707848
23900000000 -0.21357113 106.58956 -27.94072 -91.083687 -28.270105 -91.889435 -2.1410401 -48.330963
24000000000 -0.21651317 105.46128 -27.768185 -93.215767 -28.254223 -93.632057 -1.9836277 -52.556816
24100000000 -0.14920332 105.80303 -27.580185 -95.324356 -27.96213 -95.160301 -2.0063374 -55.501808
24200000000 -0.27580932 105.90764 -27.483658 -98.34977 -27.806601 -98.565331 -2.1574688 -60.477623
24300000000 -0.20126995 104.4012 -27.340956 -101.33131 -27.755308 -101.71404 -2.0266616 -64.903725
24400000000 -0.08442352 104.87067 -27.187088 -104.22089 -27.531141 -104.13767 -2.1037123 -68.255249
24500000000 -0.25545573 104.98575 -27.174793 -108.15912 -27.369518 -108.35538 -2.2619884 -73.27375
24600000000 -0.27396032 104.11287 -27.106644 -111.25042 -27.500603 -112.05793 -2.1116357 -77.41774
24700000000 -0.1501554 104.7456 -27.099102 -114.15919 -27.416327 -114.01025 -2.2000668 -80.537941
24800000000 -0.25792539 104.71279 -27.187786 -117.59754 -27.375227 -117.47521 -2.2834134 -85.85553
24900000000 -0.19518416 102.76803 -27.221092 -120.0339 -27.610846 -120.7963 -2.1131589 -89.83326
25000000000 -0.07154128 102.83442 -27.287697 -122.4871 -27.60351 -122.91051 -2.258126 -93.669922
25100000000 -0.24332519 102.7098 -27.387821 -125.43876 -27.552759 -125.93078 -2.2638841 -99.265205
25200000000 -0.23876646 101.76585 -27.381752 -127.52602 -27.761438 -128.76167 -2.172693 -103.04178
25300000000 -0.11375742 102.49174 -27.33527 -129.94263 -27.732908 -130.10605 -2.355891 -106.99496
25400000000 -0.23718366 102.39338 -27.398428 -132.84303 -27.605255 -133.07195 -2.3013535 -112.47448
25500000000 -0.22502999 100.65061 -27.398224 -134.90584 -27.839874 -136.15944 -2.214129 -115.78689
25600000000 -0.15925841 100.62992 -27.391718 -137.37132 -27.867783 -137.66029 -2.3676906 -120.59852
25700000000 -0.29709753 100.3148 -27.44277 -140.17436 -27.759821 -140.70135 -2.2844698 -126.07911
25800000000 -0.26508349 99.606529 -27.462679 -142.52278 -27.916851 -143.56581 -2.2625148 -129.44652
25900000000 -0.17382769 100.16772 -27.461296 -145.34123 -27.909718 -145.41254 -2.4221787 -134.47002
26000000000 -0.25403222 99.890793 -27.551693 -148.39757 -27.853016 -148.41519 -2.3023796 -139.79199
26100000000 -0.27787116 98.848724 -27.669926 -150.83548 -28.137789 -151.4873 -2.3019614 -143.53146
26200000000 -0.2642931 98.783607 -27.701818 -153.68741 -28.272346 -153.1082 -2.4432929 -148.66496
26300000000 -0.32261315 98.475639 -27.899633 -156.22585 -28.234226 -155.46017 -2.3520613 -153.6722
26400000000 -0.31156406 97.677422 -28.042707 -158.45081 -28.502871 -158.25467 -2.3630974 -157.66373
26500000000 -0.19597279 97.758812 -28.115614 -160.44513 -28.632177 -159.16649 -2.5140135 -162.58774
26600000000 -0.276521 97.585403 -28.396729 -162.70576 -28.691689 -161.6344 -2.3982954 -167.53421
26700000000 -0.34648997 97.012428 -28.680033 -164.30519 -29.062798 -163.31233 -2.4294884 -171.17192
26800000000 -0.36263978 96.939911 -28.82169 -165.60107 -29.279739 -163.94635 -2.5307465 -176.75826
26900000000 -0.44380477 97.028511 -29.147123 -165.62741 -29.309706 -164.33441 -2.4169607 178.58641
27000000000 -0.45945933 96.303337 -29.232298 -165.4606 -29.353662 -164.16702 -2.5447328 174.81897
27100000000 -0.3260076 96.080521 -29.016024 -164.17468 -29.342007 -162.05373 -2.6541231 169.56454
27200000000 -0.36185426 96.536011 -28.709667 -163.41583 -28.807512 -162.56224 -2.4924195 165.19212
27300000000 -0.36804992 96.387901 -28.183182 -164.90837 -28.196537 -164.48927 -2.5598521 162.4695
27400000000 -0.31581435 96.413467 -27.83559 -168.20131 -27.963814 -165.92421 -2.968626 160.9265
27500000000 -0.31195727 96.485878 -27.516739 -171.81096 -27.239235 -169.37186 -1.9582062 157.78775
27600000000 -0.29698834 95.80159 -27.294613 -176.35022 -27.296719 -175.19688 -2.7079403 149.95505
27700000000 -0.2051391 95.001213 -27.193089 178.43098 -27.34502 179.57578 -2.6334116 141.88539
27800000000 -0.19798717 94.618965 -27.328014 174.39735 -27.386683 174.66141 -2.1645839 139.37842
27900000000 -0.21846804 94.292542 -27.582891 170.89708 -27.589266 170.58907 -2.5807724 138.14297
28000000000 -0.17846918 93.927391 -27.772285 167.28761 -28.005758 168.18752 -2.890569 128.13458
28100000000 -0.14357382 93.690666 -27.852751 163.82414 -28.10549 163.55573 -1.9308085 122.63132
28200000000 -0.2345749 93.216812 -28.486883 159.72345 -28.093521 156.90883 -1.8771517 132.65042
28300000000 -0.26850334 92.652405 -29.617395 165.22906 -28.409237 168.74565 -0.98986071 179.43015
28400000000 -0.29975 92.581673 -29.017002 157.37994 -28.170315 156.08301 -0.076538898 128.08432
28500000000 -0.32142246 92.308456 -29.720848 159.12181 -29.462692 159.49773 -2.4147892 112.65449
28600000000 -0.25268263 91.539886 -29.81229 159.85168 -30.131838 160.76213 -2.3218446 107.07341
28700000000 -0.22182801 91.646538 -29.815985 160.85327 -30.039793 160.7592 -2.2581949 103.23891
28800000000 -0.30319211 91.33139 -29.723324 161.84975 -29.794067 161.13521 -2.1844225 100.12139
28900000000 -0.28793135 90.936447 -29.274939 162.086 -29.491482 162.22186 -2.2866457 97.002357
29000000000 -0.26348612 90.913292 -28.803595 159.38606 -28.99436 159.6293 -2.2739828 92.594048
29100000000 -0.32533351 90.336952 -28.656404 155.51033 -28.692167 154.70258 -2.1521034 89.135704
29200000000 -0.25339183 89.29126 -28.68115 151.5153 -28.907272 151.54314 -2.2260623 85.814133
29300000000 -0.2116511 89.356918 -29.022722 148.62787 -29.203724 149.02065 -2.2042661 81.530586
29400000000 -0.32235995 89.086899 -29.432165 148.10815 -29.564745 147.74005 -2.1316905 78.097824
29500000000 -0.25142658 88.520172 -29.484108 148.94884 -29.751316 149.15874 -2.2107193 74.777725
29600000000 -0.26965046 88.57872 -29.375679 149.0502 -29.579319 149.8862 -2.1813862 71.044754
29700000000 -0.38919294 87.980476 -29.238241 148.46083 -29.352024 147.58992 -2.0851235 67.878235
29800000000 -0.35094258 87.304939 -29.086372 147.37894 -29.218637 146.80334 -2.1034193 64.177132
29900000000 -0.31918061 87.806358 -28.952206 146.71497 -29.074976 146.81117 -2.0347891 60.329216
30000000000 -0.37207758 87.60627 -28.731754 146.02631 -28.898527 145.10339 -2.0554063 56.966862
30100000000 -0.25659603 87.201439 -28.44137 144.15691 -28.661673 144.08826 -2.15453 53.078541
30200000000 -0.24863261 87.036911 -28.216785 142.64404 -28.442955 142.91473 -2.0542576 49.582783
30300000000 -0.36929274 86.302948 -27.923363 140.89317 -28.114985 139.78339 -2.0534201 47.344402
30400000000 -0.32586285 85.789993 -27.656281 138.24829 -27.796827 137.45355 -2.1348667 43.80608
30500000000 -0.32652405 86.43644 -27.398237 135.16478 -27.570427 134.92946 -1.926903 39.53672
30600000000 -0.34691119 85.78611 -27.254061 131.97406 -27.410082 131.36594 -1.9195377 37.355762
30700000000 -0.18713373 85.359993 -27.210855 127.9536 -27.463234 127.90935 -2.1413352 32.826458
30800000000 -0.23505771 85.337318 -27.24383 124.8425 -27.461018 124.74899 -1.9202677 28.667837
30900000000 -0.34591305 83.847092 -27.294647 122.76081 -27.537783 122.05636 -1.9392425 27.516283
31000000000 -0.23808509 83.920128 -27.387383 120.3232 -27.599819 119.49837 -2.2016222 22.936111
31100000000 -0.40701047 84.650703 -27.381701 118.01904 -27.535929 117.68725 -1.834939 18.711878
31200000000 -0.2804158 83.869888 -27.400959 116.50906 -27.622801 116.90731 -1.9208403 17.829357
31300000000 0.17401515 83.276398 -27.357756 114.55808 -27.650312 113.3785 -2.3680291 11.939327
31400000000 -0.66985148 85.920792 -27.471781 111.82501 -27.576204 110.55101 -1.8180381 6.1396432
31500000000 -1.5203092 77.275101 -27.406065 109.65339 -27.241783 108.73148 -1.3952898 6.8467937
31600000000 -0.69697261 72.552917 -27.363844 108.26847 -27.406395 108.37838 -1.8578455 2.8533831
31700000000 0.25382331 82.813202 -27.068972 107.38009 -27.414385 107.33722 -1.9306593 -1.5042491
31800000000 -0.56467032 87.2285 -27.007988 105.64105 -27.270861 105.37398 -2.0146415 -3.3486023
31900000000 -0.68806553 80.809677 -26.885897 102.79626 -27.120266 101.6811 -2.2334206 -7.1959281
32000000000 -0.10733252 81.10466 -26.761755 100.33031 -27.173256 99.596786 -2.0569379 -11.588756
32100000000 -0.44914934 83.018478 -26.715534 97.713379 -26.921722 97.402275 -2.0531189 -13.575749
32200000000 -0.6657688 80.482971 -26.622869 94.904762 -26.853645 93.840019 -2.2337251 -17.714819
32300000000 -0.27523986 80.620224 -26.586151 91.81813 -26.921585 91.266251 -2.0746922 -21.995838
32400000000 -0.45243031 82.157608 -26.527102 89.459389 -26.812632 89.013832 -2.1274805 -24.442144
32500000000 -0.53412324 79.456367 -26.525761 86.23304 -26.852222 84.971275 -2.3103237 -28.768669
32600000000 -0.28576866 79.177391 -26.539921 83.373573 -26.944393 82.45105 -2.1569989 -32.623363
32700000000 -0.5318892 79.919441 -26.612259 80.592949 -26.876251 79.985855 -2.2117074 -34.559383
32800000000 -0.65822119 78.651405 -26.664669 77.762268 -26.887068 76.062325 -2.3423903 -39.028286
32900000000 -0.41062605 78.823952 -26.774439 74.916451 -27.145201 73.759193 -2.1141596 -43.052475
33000000000 -0.45451754 80.063385 -26.933716 72.8172 -27.264303 71.965294 -2.1465585 -45.469906
33100000000 -0.56767416 77.926552 -27.151276 69.727234 -27.490932 68.525375 -2.3073175 -50.649601
33200000000 -0.40727901 77.556519 -27.334005 67.861061 -27.843134 67.041611 -2.168617 -55.23103
33300000000 -0.60481906 77.885765 -27.581249 66.947678 -27.98613 65.939186 -2.2946923 -57.454563
33400000000 -0.67891127 77.057388 -27.779722 66.807343 -28.178556 65.52285 -2.5660975 -61.319553
33500000000 -0.50996137 77.560776 -27.856422 66.83709 -28.375311 66.163673 -2.2806246 -65.818199
33600000000 -0.53696984 78.73851 -27.727425 67.929611 -28.140131 67.279449 -2.2340531 -68.029221
33700000000 -0.57548249 77.440948 -27.479836 67.60672 -27.912838 66.878815 -2.4069636 -73.666374
33800000000 -0.39374438 77.326782 -27.103575 65.981819 -27.73012 66.386971 -2.3123391 -78.488937
33900000000 -0.50689155 77.688332 -26.708586 64.686356 -27.224136 64.792313 -2.4594615 -81.533119
34000000000 -0.50541127 76.171066 -26.344635 61.948616 -26.848057 62.079063 -2.6843863 -86.020241
34100000000 -0.31046337 76.154716 -26.053604 58.812424 -26.653265 59.048927 -2.5871124 -90.000343
34200000000 -0.34711745 76.710823 -25.809639 55.342411 -26.293612 55.726131 -2.5504696 -92.88205
34300000000 -0.41184029 75.620544 -25.72541 51.221088 -26.180964 51.825466 -2.5994563 -98.002701
34400000000 -0.27848572 75.598366 -25.740549 47.435314 -26.311575 48.784184 -2.5779536 -102.85824
34500000000 -0.36382127 76.439011 -25.690014 44.251724 -26.177141 45.862011 -2.6723034 -107.22373
34600000000 -0.38955268 74.663887 -25.672857 39.886158 -26.075203 41.668217 -2.7948048 -111.58907
34700000000 -0.21850598 73.833595 -25.757673 36.045582 -26.24609 38.122532 -2.8066273 -116.02895
34800000000 -0.27634239 74.112404 -25.931665 32.80798 -26.408762 34.478527 -2.7916856 -120.25731
34900000000 -0.39677468 73.219055 -26.224028 30.011953 -26.568422 31.872684 -2.8493125 -124.89196
35000000000 -0.27770111 73.352074 -26.630476 28.365055 -26.93293 30.531878 -2.8429642 -129.60995
35100000000 -0.298298 74.653038 -26.754614 27.769848 -27.103867 30.118929 -2.90395 -134.38582
35200000000 -0.40620118 73.357399 -26.807846 27.216158 -26.992577 29.174713 -2.9627905 -139.16508
35300000000 -0.27929619 72.237778 -26.603378 26.52585 -26.83219 28.005966 -2.9749568 -143.52759
35400000000 -0.24936685 72.915443 -26.204247 23.495991 -26.498594 25.203947 -3.0114894 -147.84314
35500000000 -0.41890988 72.276093 -26.162264 18.935802 -26.358004 20.065636 -2.9739888 -152.76309
35600000000 -0.2927911 71.274323 -26.458355 15.058322 -26.576054 16.078835 -2.8587365 -157.66483
35700000000 -0.13479385 72.294228 -26.720268 12.524539 -26.952854 13.690607 -2.9625802 -162.59796
35800000000 -0.34221303 71.790283 -27.091145 10.297414 -27.237173 10.959686 -3.0511565 -168.51642
35900000000 -0.28406894 69.774254 -27.41674 8.8260813 -27.667099 9.5775909 -2.992203 -172.42346
36000000000 -0.2210919 70.522682 -27.680882 9.5012865 -27.978729 10.180091 -3.0123127 -175.92659
36100000000 -0.41796845 70.467003 -27.77466 10.154956 -28.013752 10.57487 -3.0238404 178.19675
36200000000 -0.38915497 68.850212 -27.708981 11.116611 -27.954203 11.38786 -2.8855247 172.91292
36300000000 -0.20639852 69.664902 -27.343481 11.364573 -27.643862 12.085929 -2.9938297 169.31859
36400000000 -0.39167532 69.809341 -26.978909 10.00501 -27.22654 10.555667 -3.1714208 163.87245
36500000000 -0.3840583 67.977219 -26.59029 7.755446 -26.909027 8.3590012 -3.0102832 159.07703
36600000000 -0.21949075 68.673477 -26.184278 4.8190808 -26.567636 5.7105827 -3.0526407 156.36285
36700000000 -0.43928251 68.89257 -25.957312 0.45057836 -26.314285 1.1627922 -3.1562626 151.17786
36800000000 -0.37396646 66.949829 -26.135389 -4.0726175 -26.445459 -3.4874768 -2.794843 146.19312
36900000000 -0.14229751 67.092194 -26.409119 -7.4234195 -26.774958 -5.8624768 -2.7851298 142.41687
37000000000 -0.37710413 67.449707 -26.596708 -9.1265745 -26.931362 -7.1883159 -3.0005202 136.28526
37100000000 -0.45708913 65.244057 -26.59623 -9.9714794 -26.900496 -8.7458258 -2.8810103 132.05501
37200000000 -0.2873095 66.545731 -26.49896 -11.94156 -26.838234 -10.153037 -2.9879692 129.49968
37300000000 -0.54700464 67.661194 -26.537092 -13.81865 -26.808838 -11.913208 -3.0288336 124.25621
37400000000 -0.46823674 65.285774 -26.582361 -15.496918 -26.712374 -14.112891 -2.7099254 120.2578
37500000000 -0.1328963 65.434273 -26.512268 -16.976446 -26.732809 -15.576317 -2.8449936 116.99744
37600000000 -0.42374992 65.668854 -26.510565 -18.908722 -26.706026 -17.085371 -2.8356929 111.46644
37700000000 -0.42241409 63.192986 -26.434492 -20.496586 -26.592873 -19.439848 -2.55966 108.04889
37800000000 -0.21674289 64.422523 -26.363836 -22.220064 -26.474627 -21.169685 -2.771687 104.29566
37900000000 -0.49861231 65.901672 -26.249416 -24.388577 -26.345907 -22.883839 -2.759119 98.054337
38000000000 -0.51787281 63.392838 -26.20874 -26.241671 -26.241352 -25.632217 -2.5449893 95.805519
38100000000 -0.17366724 64.145454 -26.07218 -27.846874 -26.202332 -27.398581 -2.8360968 93.170212
38200000000 -0.47534809 65.147446 -25.946379 -30.95685 -26.082956 -29.742493 -2.6941261 86.757057
38300000000 -0.54614329 61.505505 -25.898113 -33.13953 -25.983126 -32.60487 -2.3274364 84.761055
38400000000 -0.17222646 62.51453 -25.798416 -35.075619 -25.915743 -35.003601 -2.7116435 82.51181
38500000000 -0.530029 64.362335 -25.766491 -38.121952 -25.864859 -37.707855 -2.6531065 75.17395
38600000000 -0.6514107 61.496632 -25.690697 -40.869095 -25.800837 -40.291306 -2.2394896 73.771828
38700000000 -0.17845494 62.065922 -25.609034 -42.64957 -25.804802 -42.787354 -2.6361229 71.20768
38800000000 -0.52194089 64.230011 -25.59771 -45.406067 -25.708464 -45.464424 -2.6205227 63.863628
38900000000 -0.67366338 60.396946 -25.48373 -48.432682 -25.645815 -48.554462 -2.2482252 63.274284
39000000000 -0.22267519 61.068962 -25.365253 -50.682388 -25.679583 -51.093285 -2.7256401 61.925426
39100000000 -0.50610203 63.045563 -25.503742 -54.306259 -25.685019 -54.520523 -2.4159374 54.835827
39200000000 -0.71542662 59.918137 -25.510866 -57.458115 -25.674664 -57.457737 -2.0665543 53.652813
39300000000 -0.32712778 60.044277 -25.629391 -59.766773 -25.798649 -60.309696 -2.5737331 50.715542
39400000000 -0.60694706 62.438934 -25.692196 -62.768845 -25.901789 -62.510754 -2.4298515 44.199223
39500000000 -0.75595266 59.736233 -25.76255 -65.377045 -25.89986 -65.879669 -2.197371 43.40889
39600000000 -0.33062911 59.837334 -25.803341 -68.081268 -26.129463 -68.438995 -2.6861708 40.606033
39700000000 -0.50551641 61.572147 -25.973284 -70.487694 -26.272951 -70.773766 -2.4512031 35.256332
39800000000 -0.63380027 58.813194 -26.271593 -73.07811 -26.514181 -73.34301 -2.1350715 34.881729
39900000000 -0.3504779 58.713276 -26.453396 -75.134338 -26.740768 -75.616493 -2.441829 30.974962
40000000000 -0.57316476 60.552319 -26.643751 -76.367043 -26.89706 -76.668335 -2.1764302 25.349743
