!Keysight Technologies,N5224A,MY55441802,A.10.65.16
!Date: Wednesday, May 13, 2026 18:50:28
!Correction: S11(Full 2 Port(1,2)) 
!S21(Full 2 Port(1,2)) 
!S12(Full 2 Port(1,2)) 
!S22(Full 2 Port(1,2)) 
!S2P File: Measurements: S11, S21, S12, S22:
# Hz S  dB   R 50
1000000000 1.421414 -108.07046 -34.325581 10.51588 -22.471741 8.467145 -0.49814916 169.51614
1100000000 0.47734419 160.96815 -36.806286 -37.119766 -31.429249 -51.272812 -0.35575047 73.265503
1200000000 1.2528951 6.0631094 -51.819885 81.635818 -51.124866 161.40643 8.2660112 14.154315
1300000000 8.3231821 -130.95837 -38.85857 -34.959717 -25.816589 -24.574423 -2.1379488 130.8728
1400000000 1.3971751 169.48219 -35.57999 -22.348091 -32.309517 -41.839596 0.17404598 69.309387
1500000000 3.4170883 9.662343 -34.218052 153.13596 -35.117756 -177.74139 16.328339 74.756157
1600000000 11.748626 -151.65878 -41.519478 -54.654636 -26.014189 -51.670002 -2.8127615 114.7136
1700000000 1.685073 169.35912 -34.408401 -15.52363 -32.308372 -31.818211 0.12585233 75.49173
1800000000 7.8246794 12.119458 -33.318783 -171.50412 -34.311001 -160.33727 6.7012172 107.97298
1900000000 13.899369 -163.41153 -37.260792 -74.395981 -25.245665 -60.976112 -2.4892678 103.39677
2000000000 1.6476449 166.0793 -33.824856 -19.777897 -33.34407 -29.624819 -0.18953209 74.439148
2100000000 13.139626 29.54423 -28.625147 -153.87973 -29.238218 -149.08302 1.5046266 95.305984
2200000000 13.521112 -171.37407 -35.881996 -58.482513 -25.741236 -68.1026 -2.7008791 93.429237
2300000000 0.45923421 164.9178 -33.568333 -27.163383 -33.870373 -35.208244 -0.8657397 71.17318
2400000000 17.235802 63.992119 -24.290457 -127.42616 -24.411339 -122.43758 0.084403954 81.611237
2500000000 10.098747 -178.58551 -34.924644 -52.778114 -28.905048 -67.014648 -2.5162373 83.128571
2600000000 -0.039970241 164.08531 -33.82058 -33.146793 -33.843792 -39.119709 -0.94721639 65.720894
2700000000 11.933206 138.17213 -27.426382 -62.73959 -28.194025 -60.514519 -0.53137803 65.444
2800000000 9.3079777 177.40575 -32.965687 -46.459465 -29.368631 -67.29969 -2.687685 70.6474
2900000000 -0.56867009 166.75858 -34.369839 -39.739159 -34.134682 -46.373074 -1.2653393 58.70639
3000000000 9.441433 146.36853 -29.251612 -61.738811 -29.207846 -59.347336 -0.29409698 52.808987
3100000000 7.429944 172.7963 -32.567539 -47.858906 -30.941969 -66.965492 -2.3508458 57.349915
3200000000 -0.68356001 167.93088 -34.506264 -44.375557 -34.31847 -50.074532 -1.5717553 49.854988
3300000000 6.5583267 148.46655 -31.038696 -63.147198 -30.839989 -60.874699 -0.10657228 44.236866
3400000000 7.2192807 176.81952 -31.897282 -50.4198 -30.75996 -65.148232 -1.9190451 44.590023
3500000000 -0.81087857 169.83482 -34.392418 -50.529572 -34.34436 -56.887451 -1.8004273 38.143246
3600000000 6.614984 152.23145 -30.752258 -62.133789 -30.523407 -60.642384 -0.33299395 36.769463
3700000000 6.8371038 168.66708 -31.551071 -60.207798 -31.125326 -71.190704 -1.6173458 33.185257
3800000000 -0.74012232 169.79181 -34.106102 -56.667519 -34.164482 -63.008366 -1.5360707 25.684013
3900000000 4.7706161 154.97766 -31.925985 -66.562668 -31.492355 -61.564709 -0.86221582 26.151854
4000000000 6.1862206 167.20775 -31.27961 -66.518707 -31.42745 -76.88195 -1.518123 21.58683
4100000000 -0.62589663 172.06081 -33.744751 -61.075813 -33.694782 -69.982323 -1.2605635 14.721298
4200000000 3.3663878 151.28127 -32.782276 -71.907181 -32.294827 -67.985336 -1.1842043 13.913303
4300000000 5.1801987 164.70923 -31.418177 -73.746353 -31.841032 -79.097374 -1.4628046 8.9134512
4400000000 -0.51783353 170.12494 -33.759312 -66.187256 -33.707706 -74.440353 -1.0280439 4.5409417
4500000000 2.472367 156.81561 -33.133953 -74.071655 -32.932671 -70.070854 -1.2543981 1.4409225
4600000000 4.3083687 165.10405 -31.739897 -78.292694 -32.084801 -82.06588 -1.3517344 -4.288835
4700000000 -0.29530093 170.73969 -33.487083 -71.748932 -33.365837 -79.335152 -0.94399649 -6.7000928
4800000000 1.980589 155.01468 -33.296726 -80.248444 -33.006699 -76.910439 -1.2238561 -10.463065
4900000000 3.862304 162.11356 -31.859587 -84.416145 -32.228615 -86.15287 -1.2756709 -17.062927
5000000000 -0.27807456 169.08002 -33.392643 -77.331932 -33.338287 -84.158447 -0.86886257 -18.708256
5100000000 1.1874175 156.80476 -33.494358 -84.044426 -33.23447 -81.024246 -1.1600341 -22.157019
5200000000 3.3285851 160.18358 -32.105793 -90.295784 -32.445702 -90.923401 -1.2094846 -29.768375
5300000000 -0.0740797 168.65314 -33.078243 -83.632126 -33.088501 -89.949471 -0.79325706 -31.833464
5400000000 0.98827434 156.47435 -33.360336 -88.746559 -33.103859 -86.923691 -1.1384542 -34.292385
5500000000 3.3799324 158.68396 -32.046436 -95.671646 -32.256039 -94.609856 -1.23975 -42.387115
5600000000 -0.17629054 167.52206 -33.031506 -89.735542 -33.011925 -95.372528 -0.78576875 -44.986244
5700000000 0.90201372 153.35785 -33.194752 -93.447289 -32.734619 -91.953415 -1.087302 -45.647854
5800000000 2.558953 159.54344 -32.39402 -99.389137 -32.490707 -98.876617 -1.2069612 -54.952511
5900000000 0.09757597 167.10536 -32.687885 -96.792465 -32.722282 -101.76675 -0.597458 -58.65012
6000000000 0.44709942 154.5345 -33.113857 -98.680161 -32.762623 -98.300133 -1.2337636 -58.384384
6100000000 3.0009818 158.44098 -32.068756 -104.94649 -32.08522 -104.21761 -1.2416579 -67.603798
6200000000 0.099529669 165.65948 -32.583717 -104.03825 -32.592052 -107.92239 -0.55401254 -71.768005
6300000000 0.33317015 154.73308 -33.053276 -104.50574 -32.790634 -104.77835 -1.3187295 -71.87957
6400000000 2.4198127 155.72758 -32.313831 -112.49682 -32.162025 -111.59051 -1.3147756 -79.691483
6500000000 0.40121129 164.5863 -32.455292 -111.01763 -32.575546 -113.9286 -0.70607662 -82.343384
6600000000 0.002236452 155.47762 -33.192738 -111.86264 -33.009441 -112.84289 -1.3361977 -86.108559
6700000000 2.2708967 156.49957 -32.499889 -117.16965 -32.221294 -117.09615 -1.1943564 -92.875366
6800000000 0.41550875 163.74763 -32.571259 -117.01659 -32.6292 -119.27863 -0.57625276 -94.260681
6900000000 -0.21242423 154.73959 -33.221718 -116.99104 -33.083111 -119.25285 -1.1951106 -98.873222
7000000000 1.5521079 154.35782 -32.706783 -122.49268 -32.580215 -122.28182 -1.2425691 -105.87106
7100000000 0.5571664 162.69029 -32.499825 -123.19469 -32.550373 -124.78836 -0.74131793 -106.92284
7200000000 -0.32560778 154.95061 -33.195145 -123.49855 -33.105961 -125.61248 -1.0868952 -110.99287
7300000000 1.7813463 151.46426 -32.742195 -127.99993 -32.582043 -128.07883 -1.2496237 -118.16059
7400000000 0.59945828 161.34158 -32.730549 -129.68843 -32.795071 -131.22107 -1.0458921 -121.03012
7500000000 -0.49357697 155.108 -33.070637 -128.42696 -33.113026 -131.58051 -1.061428 -122.59122
7600000000 1.0389082 151.78815 -33.198833 -132.15091 -33.051346 -132.45071 -1.2808509 -129.86087
7700000000 0.80069679 159.25243 -32.835026 -135.38753 -32.971081 -137.03925 -1.0187453 -134.89246
7800000000 -0.46736434 154.97058 -33.092373 -131.98309 -33.18148 -134.88795 -1.2562664 -135.15627
7900000000 1.2265465 150.34303 -33.014511 -136.11443 -32.820576 -136.15482 -1.3444458 -141.87035
8000000000 0.66843599 157.44783 -32.758064 -140.29544 -32.768257 -141.21753 -0.95085347 -147.06313
8100000000 -0.49568889 154.40915 -32.753574 -137.03557 -32.9118 -140.1906 -1.3608571 -147.61494
8200000000 0.68907905 150.93468 -32.902611 -141.03934 -32.815582 -141.32951 -1.4482253 -153.86552
8300000000 0.70156455 157.4174 -32.489067 -145.3331 -32.531834 -146.72455 -0.95553344 -158.43007
8400000000 -0.49947673 154.02066 -32.664268 -143.35831 -32.901428 -146.73509 -1.3906155 -160.50009
8500000000 0.69465673 150.18423 -32.835194 -146.13351 -32.641518 -146.66806 -1.4871987 -166.08629
8600000000 0.51444602 155.20488 -32.700729 -150.5174 -32.686268 -151.1774 -1.1619054 -169.66864
8700000000 -0.47879055 153.51712 -32.712547 -149.51677 -32.94574 -152.455 -1.4429876 -172.57938
8800000000 0.52080286 149.90623 -32.815231 -150.8214 -32.681957 -151.41103 -1.5057406 -177.83321
8900000000 0.5181042 154.53661 -32.679111 -154.43396 -32.652367 -154.98843 -1.245785 178.71378
9000000000 -0.49148422 152.72528 -32.613678 -154.01181 -32.886932 -157.11699 -1.4783127 175.52257
9100000000 0.41503185 148.65103 -32.666458 -155.22246 -32.549812 -155.86005 -1.5022708 170.30234
9200000000 0.58035731 152.31924 -32.528908 -159.08975 -32.472546 -159.09003 -1.3111501 167.03836
9300000000 -0.47871241 152.40237 -32.425327 -159.7027 -32.630188 -161.85446 -1.5351495 163.82906
9400000000 0.47085828 147.47491 -32.325813 -160.16026 -32.248638 -160.82959 -1.5290673 158.71893
9500000000 0.6021089 150.99118 -32.278534 -163.9994 -32.203156 -164.16202 -1.3556026 155.74153
9600000000 -0.49229813 151.81451 -32.171181 -165.17122 -32.343102 -167.43272 -1.5467502 152.41406
9700000000 0.14565846 145.79892 -32.083801 -166.82483 -32.031342 -167.77855 -1.5090753 147.33482
9800000000 0.49603066 150.69579 -31.995895 -169.44348 -31.972368 -170.14166 -1.424192 144.4724
9900000000 -0.45919955 151.54796 -31.996258 -171.32843 -32.07988 -173.88124 -1.5874695 141.14806
10000000000 0.22159258 145.09473 -31.889725 -172.82593 -31.849234 -173.59203 -1.5142387 136.108
10100000000 0.81098163 148.58099 -31.720911 -176.12711 -31.732885 -176.79626 -1.4451776 132.72092
10200000000 -0.38437325 150.85394 -31.905275 -177.41283 -31.970737 -179.83043 -1.6388502 129.88016
10300000000 -0.07438384 146.04665 -31.93124 -178.9375 -31.900898 -179.60034 -1.53903 125.143
10400000000 0.52271956 148.18503 -31.766552 177.9254 -31.692055 177.50433 -1.444206 121.52586
10500000000 -0.30207059 150.32182 -31.794985 177.47285 -31.723309 175.14223 -1.6721658 118.4838
10600000000 -0.068109721 145.05891 -31.848696 175.72508 -31.804037 175.00774 -1.5787902 114.13879
10700000000 0.55899352 146.39919 -31.587263 172.91013 -31.482222 172.51062 -1.4074577 110.63744
10800000000 -0.26559967 148.93341 -31.614719 172.17758 -31.540976 169.90015 -1.6778448 107.17552
10900000000 -0.23493506 145.60562 -31.664618 170.51936 -31.679836 169.62856 -1.6221991 102.97111
11000000000 0.40488359 146.4389 -31.352896 167.60756 -31.269928 167.33704 -1.45488 99.897469
11100000000 -0.21279021 148.17543 -31.373234 166.39473 -31.223719 164.18994 -1.6663508 96.064148
11200000000 -0.26356873 144.46346 -31.363401 164.56007 -31.410309 163.34357 -1.6522104 91.652283
11300000000 0.175781 144.57561 -31.203617 162.06969 -31.076132 161.4348 -1.5036725 88.889183
11400000000 -0.23196256 146.93445 -31.073828 160.04759 -30.977678 157.77527 -1.6779124 84.99173
11500000000 -0.28335425 144.24696 -31.088732 158.36697 -31.195368 156.54704 -1.6631213 80.303268
11600000000 0.2142244 144.5741 -30.888502 155.3242 -30.829765 154.83022 -1.5862002 77.582504
11700000000 -0.18542819 146.31644 -30.851151 153.02917 -30.755415 150.9651 -1.7000631 73.851189
11800000000 -0.27044967 143.02133 -30.879217 151.70224 -30.983782 149.66621 -1.6225644 69.461479
11900000000 0.12976176 142.83318 -30.798559 147.94676 -30.750412 147.57785 -1.6162465 66.293686
12000000000 -0.25312108 144.98152 -30.708853 146.12846 -30.642469 144.03127 -1.7260773 62.526154
12100000000 -0.23522857 142.17593 -30.769581 145.01141 -30.868948 142.82988 -1.6390915 58.584862
12200000000 0.2087533 142.57623 -30.657581 141.26996 -30.5846 140.55942 -1.654415 54.956745
12300000000 -0.13999051 144.56432 -30.546755 139.17122 -30.485046 137.09116 -1.7297786 51.270103
12400000000 -0.24802276 141.38568 -30.647999 137.50465 -30.812746 135.44662 -1.6613587 47.665123
12500000000 0.16881308 141.74297 -30.630745 133.84677 -30.591925 133.13429 -1.639762 43.779621
12600000000 -0.18298323 143.33548 -30.597254 131.79887 -30.508272 129.74956 -1.7068805 39.668114
12700000000 -0.21930151 140.64258 -30.708 130.28558 -30.865347 128.10753 -1.6733829 36.159122
12800000000 0.25679463 140.20445 -30.651999 126.63692 -30.61113 125.92694 -1.6655086 32.422565
12900000000 -0.10719854 142.1929 -30.66748 124.70233 -30.614491 123.08305 -1.7189898 28.142494
13000000000 -0.29665178 139.98839 -30.796467 123.11185 -30.944258 120.68613 -1.6715958 24.514496
13100000000 0.14766121 139.90311 -30.765064 120.06535 -30.826046 119.1959 -1.6790146 20.828068
13200000000 -0.073082849 141.36829 -30.840174 117.53642 -30.785973 116.02903 -1.7156844 16.27179
13300000000 -0.35443613 139.06035 -31.046524 116.15019 -31.223824 113.59112 -1.6408141 12.546433
13400000000 0.13463785 137.35274 -31.23769 113.22312 -31.244009 112.22108 -1.7312591 8.7205334
13500000000 -0.043567415 139.82571 -31.384432 111.85746 -31.369055 110.88614 -1.7533827 4.1258221
13600000000 -0.40414193 138.81424 -31.645967 112.68046 -31.749033 109.92901 -1.6821753 0.38108987
13700000000 -0.0062478255 136.9082 -31.81078 112.41186 -31.878492 111.40486 -1.7725152 -3.2478435
13800000000 0.025163269 139.29283 -31.386429 113.59456 -31.340132 112.56097 -1.7652345 -8.1470528
13900000000 -0.38085636 138.42934 -30.93652 113.06325 -31.102913 109.84921 -1.6543041 -11.915977
14000000000 -0.090144366 135.95598 -30.933882 108.96155 -30.976044 107.90546 -1.8010923 -16.077583
14100000000 -0.012126195 137.89839 -30.750679 106.41872 -30.739342 105.71542 -1.8125771 -20.883986
14200000000 -0.39269757 137.50101 -30.699802 106.85056 -30.804829 103.40709 -1.7041613 -24.497456
14300000000 -0.048476305 135.68462 -30.59466 103.84315 -30.647572 102.59698 -1.8060734 -28.641403
14400000000 0.065123245 136.84532 -30.352665 100.24405 -30.313467 99.597061 -1.8251948 -33.592438
14500000000 -0.3650063 136.7998 -30.338083 100.11053 -30.400475 96.351234 -1.7187464 -37.23925
14600000000 -0.15411013 134.65265 -30.363157 97.429764 -30.503654 95.662865 -1.8119622 -41.606834
14700000000 -0.065502375 136.06406 -30.243622 93.979965 -30.224092 92.954941 -1.8413454 -46.932022
14800000000 -0.32609197 135.76407 -30.210613 93.34269 -30.326225 88.832886 -1.7448602 -50.770493
14900000000 -0.20355017 134.08202 -30.378807 91.454399 -30.582378 89.602654 -1.8403577 -54.518063
15000000000 -0.077444687 134.45416 -30.343325 88.98275 -30.328779 88.072037 -1.8753446 -59.955524
15100000000 -0.33649886 134.77881 -30.10788 89.612419 -30.235653 85.230179 -1.7417511 -64.210968
15200000000 -0.27075553 133.43286 -30.010683 88.335785 -30.346054 86.36676 -1.8506483 -67.955101
15300000000 -0.2140023 134.05275 -29.862864 85.373924 -29.900425 84.191322 -1.9135302 -73.497215
15400000000 -0.36345828 134.17647 -29.444384 84.024902 -29.678129 79.297615 -1.77198 -78.11869
15500000000 -0.28710178 132.97824 -29.335119 81.967888 -29.808598 79.483727 -1.8666279 -81.494827
15600000000 -0.11664829 133.15817 -29.383146 77.713509 -29.450636 76.905922 -1.967791 -86.875916
15700000000 -0.2769326 133.54163 -29.165569 76.074791 -29.395739 72.295708 -1.7729856 -91.595047
15800000000 -0.17189254 132.02693 -29.112928 74.843803 -29.644688 73.115959 -1.8852447 -95.224068
15900000000 -0.069732815 132.38156 -29.147417 71.406799 -29.306759 71.185654 -1.9999702 -100.65775
16000000000 -0.29539278 132.28531 -28.797638 69.771332 -29.216902 66.323669 -1.8318264 -105.49446
16100000000 -0.17222321 130.72841 -28.55134 67.513756 -29.148937 66.106476 -1.8953888 -108.98341
16200000000 -0.02437648 131.14969 -28.72578 63.08403 -28.848803 63.519524 -2.025604 -114.28039
16300000000 -0.26896253 131.86227 -28.556053 60.73679 -28.850885 58.601166 -1.8494418 -118.871
16400000000 -0.11668975 129.93674 -28.418163 58.337078 -28.987154 58.120804 -1.9212073 -122.65868
16500000000 0.036757272 130.93471 -28.717424 54.784378 -28.839458 56.015728 -1.9959455 -128.17293
16600000000 -0.25055328 130.85176 -28.588842 52.938435 -28.847763 50.835365 -1.8710959 -132.52283
16700000000 -0.16088763 128.94896 -28.424896 50.953407 -28.96195 50.45369 -1.9406224 -136.29579
16800000000 0.1061231 129.69664 -28.756561 48.329731 -28.750126 49.519707 -1.9649928 -141.50479
16900000000 -0.18405218 129.99191 -28.526207 47.740776 -28.659475 46.596371 -1.8594881 -145.79506
17000000000 -0.10933557 127.8828 -28.118767 43.425751 -28.546164 43.535202 -1.9299062 -150.08321
17100000000 0.056410037 128.57658 -28.559586 40.642063 -28.557003 41.488766 -1.9087367 -154.88406
17200000000 -0.1735848 128.78047 -28.471115 38.744205 -28.549057 37.477478 -1.843627 -158.96684
17300000000 -0.19513933 127.4392 -28.336542 36.715866 -28.709408 36.076527 -1.8919129 -163.20686
17400000000 -0.0027877009 127.41409 -28.51293 34.498131 -28.441465 35.157207 -1.8453387 -167.96417
17500000000 -0.14033344 127.9329 -28.375532 32.920444 -28.324123 32.070992 -1.796615 -171.95419
17600000000 -0.13763143 126.36874 -28.129091 30.286381 -28.50857 29.668859 -1.8643116 -176.2607
17700000000 0.032924145 126.0715 -28.24036 27.664724 -28.263624 28.087368 -1.8095635 179.04819
17800000000 -0.13634381 126.61854 -28.086802 25.324549 -28.027081 24.247723 -1.7349403 175.35318
17900000000 -0.222212 125.58813 -27.881838 22.393753 -28.251308 21.106583 -1.844553 171.3557
18000000000 -0.056781821 125.23418 -28.014229 19.6728 -27.9977 19.754538 -1.7491515 166.4975
18100000000 -0.11199012 125.82332 -27.955263 16.992849 -27.824522 16.143047 -1.6578575 163.0224
18200000000 -0.17594938 124.4518 -27.835119 13.83863 -28.233677 12.710828 -1.823944 158.59344
18300000000 0.0092287101 124.22369 -28.062696 10.702307 -28.086973 10.748438 -1.7530756 153.91638
18400000000 -0.12150784 124.51225 -28.010233 8.073554 -27.93157 6.8056397 -1.6813103 150.99165
18500000000 -0.20650992 123.5759 -27.885998 5.4116821 -28.335613 3.737133 -1.8369612 146.75519
18600000000 -0.039617624 123.35725 -28.153236 3.0475941 -28.214636 2.848129 -1.69712 142.23775
18700000000 -0.11995105 123.83491 -28.176682 0.87971449 -28.0627 -0.10290343 -1.652367 139.51889
18800000000 -0.17277586 122.42393 -28.132696 -2.0500462 -28.552883 -3.1436827 -1.7820781 134.81111
18900000000 -0.032877322 122.21792 -28.336142 -4.5525203 -28.394545 -4.1940408 -1.6771202 130.39548
19000000000 -0.15734196 122.34986 -28.272821 -6.4781175 -28.199745 -7.8045659 -1.6942829 127.47144
19100000000 -0.17508633 121.45696 -28.15766 -9.6379976 -28.589869 -11.055096 -1.8069987 123.36649
19200000000 -0.046907701 121.43921 -28.359503 -11.921309 -28.469721 -11.930096 -1.6990919 119.48419
19300000000 -0.1621701 121.51412 -28.400892 -13.93795 -28.32547 -15.406301 -1.6738949 116.49442
19400000000 -0.17611349 120.43753 -28.447792 -17.251549 -28.767464 -18.479298 -1.7464043 112.43707
19500000000 -0.081405282 120.20875 -28.610506 -19.417498 -28.710131 -19.431581 -1.6686383 108.76859
19600000000 -0.14796406 120.38818 -28.638937 -21.836744 -28.563593 -23.084784 -1.6881936 105.25137
19700000000 -0.18248658 119.47733 -28.6339 -24.953501 -28.883175 -26.300148 -1.7676214 101.67265
19800000000 -0.071706317 119.18954 -28.786873 -27.233231 -28.894985 -27.42975 -1.7388061 98.2509
19900000000 -0.13056339 119.17478 -28.872982 -29.498167 -28.811954 -31.11055 -1.6958252 95.189354
20000000000 -0.20093589 118.54493 -28.982475 -32.915104 -29.23307 -34.529617 -1.7447083 91.625847
20100000000 -0.1189109 118.07307 -29.226254 -35.461391 -29.385479 -36.215179 -1.7092247 88.061081
20200000000 -0.15810613 118.24286 -29.435545 -38.372654 -29.335627 -39.576107 -1.6694884 84.826553
20300000000 -0.25472441 117.76783 -29.678646 -41.387585 -29.828905 -42.854141 -1.7546875 81.253105
20400000000 -0.14174512 116.87329 -30.117399 -43.646843 -30.241173 -44.157215 -1.7259408 77.942352
20500000000 -0.14989358 117.24142 -30.586094 -45.184315 -30.529203 -46.518188 -1.6824099 75.117935
20600000000 -0.30556095 116.77876 -31.114243 -46.115025 -31.282045 -48.447926 -1.7030519 71.429794
20700000000 -0.23772988 116.15495 -31.762341 -45.36937 -31.920481 -46.152935 -1.673422 67.793472
20800000000 -0.20743653 116.56207 -32.105927 -42.222504 -32.091385 -43.650024 -1.6833171 64.64946
20900000000 -0.31294784 116.60407 -32.017483 -37.773602 -32.114704 -39.885368 -1.7589219 61.130577
21000000000 -0.21914399 115.78857 -31.395203 -35.410484 -31.630653 -36.572453 -1.7481167 58.140053
21100000000 -0.16729602 115.91943 -30.871868 -37.043301 -30.893896 -38.428661 -1.7432324 55.153229
21200000000 -0.28228369 115.52974 -30.595568 -38.414833 -30.733074 -40.887112 -1.7311685 51.824818
21300000000 -0.1956784 114.99341 -30.217035 -40.065304 -30.426584 -41.294735 -1.7056612 48.600849
21400000000 -0.15373084 115.01019 -29.948078 -44.187572 -29.917053 -45.806168 -1.7085406 45.081505
21500000000 -0.22519958 114.35294 -30.033155 -48.367424 -30.137983 -50.838642 -1.7132207 41.618248
21600000000 -0.17869732 113.65983 -30.452724 -49.039154 -30.725603 -50.20525 -1.728647 38.408154
21700000000 -0.16093372 113.69803 -30.300968 -47.988693 -30.364758 -49.734032 -1.7160543 35.177956
21800000000 -0.20833583 113.31829 -29.92894 -51.283489 -30.031961 -54.127586 -1.7084297 31.783484
21900000000 -0.20163012 112.51735 -30.225042 -54.396679 -30.484396 -56.049717 -1.6914223 28.395857
22000000000 -0.19876641 112.50849 -30.670713 -54.560543 -30.727507 -56.072533 -1.6859379 24.899567
22100000000 -0.29748511 112.3659 -30.733835 -52.165771 -30.881525 -55.01506 -1.7379212 21.266968
22200000000 -0.24320325 111.72263 -30.267239 -49.487114 -30.599051 -51.301281 -1.7169212 17.754412
22300000000 -0.15882239 111.8195 -29.701649 -50.729832 -29.915859 -52.397999 -1.7541231 14.815453
22400000000 -0.26966545 111.73405 -29.196342 -52.752983 -29.427776 -56.072769 -1.8044734 11.028271
22500000000 -0.20650114 111.1026 -28.791777 -55.425625 -29.197542 -57.37064 -1.6953053 7.6234703
22600000000 -0.1267006 111.29541 -28.633438 -58.586391 -28.861738 -60.228226 -1.7452223 4.8315992
22700000000 -0.22051348 110.89345 -28.474508 -61.860046 -28.723804 -64.455444 -1.8422769 0.40238535
22800000000 -0.14398186 109.43122 -28.311005 -63.810497 -28.759317 -65.1903 -1.6834856 -3.1220467
22900000000 -0.061042074 109.8594 -28.287109 -66.030373 -28.637871 -67.348122 -1.7810459 -6.0778947
23000000000 -0.20892337 109.59053 -28.165939 -68.79068 -28.4949 -71.385063 -1.9024187 -10.862103
23100000000 -0.17057617 108.72031 -27.973038 -70.311081 -28.482759 -71.680527 -1.7919019 -14.493902
23200000000 -0.089871846 109.39223 -27.814011 -72.55365 -28.151247 -73.578156 -1.8746938 -16.887333
23300000000 -0.22144511 109.02713 -27.674784 -75.78331 -28.026211 -77.552208 -1.9885607 -21.579674
23400000000 -0.12764566 107.46395 -27.571081 -77.994835 -28.094124 -78.994812 -1.8204951 -25.701006
23500000000 -0.069822758 107.76339 -27.540352 -80.046852 -27.940559 -80.61763 -1.8873408 -28.588501
23600000000 -0.19446425 107.49834 -27.484182 -82.852669 -27.891884 -84.000916 -2.0584657 -33.63237
23700000000 -0.11614808 106.48044 -27.397718 -84.681404 -27.94276 -85.451958 -1.9574324 -37.96344
23800000000 -0.080952168 106.85341 -27.241446 -86.585037 -27.621534 -86.630524 -2.0530715 -40.811081
23900000000 -0.23050606 106.58639 -27.128469 -89.119843 -27.465122 -90.001068 -2.2108452 -45.434464
24000000000 -0.22889782 105.62927 -26.945843 -91.278221 -27.434652 -91.729492 -2.0745604 -50.081703
24100000000 -0.17440665 105.89298 -26.76128 -93.314835 -27.137182 -93.185509 -2.0709713 -53.152824
24200000000 -0.2750338 105.91449 -26.656036 -96.439919 -26.98406 -96.572021 -2.2728484 -58.282223
24300000000 -0.21863085 104.58911 -26.503016 -99.286415 -26.935297 -99.726135 -2.153348 -63.180317
24400000000 -0.12005044 104.86665 -26.36285 -102.01695 -26.696201 -101.97901 -2.2114816 -66.673309
24500000000 -0.26409617 104.92666 -26.325832 -105.80186 -26.531 -105.95956 -2.4135499 -71.851547
24600000000 -0.27479899 104.11536 -26.234341 -108.62122 -26.625862 -109.34451 -2.2661574 -76.599464
24700000000 -0.16399084 104.57257 -26.179399 -111.19213 -26.51194 -110.92323 -2.3357568 -79.96109
24800000000 -0.25252068 104.45826 -26.193129 -114.36584 -26.379387 -114.36514 -2.4689207 -85.549889
24900000000 -0.21373016 102.74727 -26.126551 -116.82518 -26.518326 -117.52234 -2.2918248 -90.227303
25000000000 -0.12121242 102.71051 -26.07869 -119.29236 -26.416178 -119.65871 -2.4153464 -94.275063
25100000000 -0.27213824 102.52849 -26.091333 -122.66187 -26.248325 -123.07037 -2.4766586 -100.25597
25200000000 -0.27097455 101.72642 -26.010637 -125.37608 -26.373903 -126.56529 -2.3778071 -104.78917
25300000000 -0.16302024 102.26059 -25.901268 -128.29604 -26.294071 -128.44447 -2.536629 -108.98592
25400000000 -0.2722773 102.13053 -25.92248 -131.62488 -26.136126 -131.92265 -2.5381253 -114.92484
25500000000 -0.26281881 100.68614 -25.903282 -134.43359 -26.345503 -135.65276 -2.4449265 -119.06524
25600000000 -0.22004455 100.61694 -25.881077 -137.47511 -26.338911 -137.72787 -2.5695486 -124.1329
25700000000 -0.32911736 100.27839 -25.945702 -140.75763 -26.238625 -141.2028 -2.5300081 -130.06136
25800000000 -0.30158111 99.646965 -25.964819 -143.49779 -26.417633 -144.52246 -2.5077987 -134.30917
25900000000 -0.22439857 100.07659 -25.950436 -146.70799 -26.40873 -146.65361 -2.637989 -139.68207
26000000000 -0.29549614 99.766693 -26.039942 -150.18161 -26.342993 -150.13412 -2.5583291 -145.32323
26100000000 -0.315505 98.809975 -26.147003 -153.20364 -26.606871 -153.74825 -2.5469141 -149.88387
26200000000 -0.3132028 98.730988 -26.163073 -156.64429 -26.75004 -156.10466 -2.6496892 -155.41406
26300000000 -0.36875582 98.431618 -26.383839 -159.94948 -26.702782 -159.218 -2.5972621 -160.76187
26400000000 -0.36166814 97.717697 -26.572786 -162.94952 -27.014894 -162.6637 -2.5964861 -165.49844
26500000000 -0.27471861 97.80378 -26.696283 -165.85315 -27.185232 -164.39207 -2.7048135 -170.63486
26600000000 -0.34123233 97.610008 -27.065636 -168.74817 -27.353144 -167.49548 -2.6186345 -175.89308
26700000000 -0.39607683 97.142876 -27.462681 -170.76398 -27.792536 -169.79666 -2.6221981 179.74219
26800000000 -0.41764098 97.045662 -27.732094 -172.45308 -28.147015 -170.62276 -2.6708946 174.17903
26900000000 -0.478834 97.113647 -28.164856 -172.55458 -28.283178 -171.37782 -2.6007819 169.10728
27000000000 -0.49557206 96.563675 -28.356846 -172.48193 -28.448523 -171.20229 -2.653975 164.69786
27100000000 -0.38443089 96.416649 -28.245783 -170.98332 -28.52281 -169.16681 -2.7126288 159.75014
27200000000 -0.3983199 96.778343 -27.941046 -170.40137 -28.013693 -169.77155 -2.6490302 155.15353
27300000000 -0.38151816 96.650375 -27.457237 -172.02655 -27.493067 -171.97855 -2.625793 151.03964
27400000000 -0.32464495 96.592293 -27.168436 -175.57198 -27.1646 -173.55966 -2.5425377 147.95926
27500000000 -0.30951747 96.492798 -27.056416 -179.5459 -26.73514 -177.98686 -1.9841014 144.50502
27600000000 -0.28249878 95.807602 -26.994877 175.72467 -26.979099 176.88295 -2.5654359 138.46617
27700000000 -0.20959987 95.047783 -27.051197 171.11798 -27.254053 172.02435 -2.51513 131.30064
27800000000 -0.21229115 94.587029 -27.370323 167.48141 -27.460991 167.57301 -2.2118278 128.30545
27900000000 -0.23089211 94.257095 -27.760654 165.10649 -27.796888 164.53331 -2.5128901 125.79971
28000000000 -0.19872984 93.831383 -27.941296 163.03094 -28.161404 163.90599 -2.6323743 117.57686
28100000000 -0.16915439 93.490898 -28.044878 160.14819 -28.307781 159.94244 -1.9767858 113.39562
28200000000 -0.2473308 92.958092 -28.595505 156.41937 -28.324511 153.01422 -2.2286453 118.03207
28300000000 -0.28580257 92.353951 -29.566395 159.7756 -28.539364 158.83899 -2.4728363 151.65376
28400000000 -0.32578707 92.264954 -29.445097 154.99821 -28.804611 151.67354 -0.83785933 110.64722
28500000000 -0.36321515 92.048882 -30.02931 157.0609 -29.796707 156.83865 -2.0553918 100.13406
28600000000 -0.31980526 91.288872 -30.225695 159.0298 -30.495895 159.61916 -2.1244674 96.739052
28700000000 -0.30181813 91.402153 -30.287495 161.7617 -30.545097 161.44557 -2.1878736 92.298676
28800000000 -0.38059056 91.226974 -30.027435 164.50194 -30.126173 163.40948 -2.0331666 88.930855
28900000000 -0.36179176 90.871979 -29.405687 165.72708 -29.62594 165.63956 -2.126431 86.3825
29000000000 -0.33542576 90.938065 -28.715219 164.30705 -28.923889 164.59413 -2.1562252 82.241554
29100000000 -0.38994026 90.536034 -28.205772 161.13553 -28.274796 160.1826 -2.0019784 78.901505
29200000000 -0.31727886 89.592842 -27.911297 156.49796 -28.097845 156.34528 -2.0561459 75.975914
29300000000 -0.26411411 89.662178 -27.925739 152.54184 -28.086 152.83794 -2.0402272 72.061699
29400000000 -0.33625314 89.499901 -28.020031 149.88164 -28.198048 149.27449 -1.9434694 68.756004
29500000000 -0.24955538 88.775558 -28.074646 147.78204 -28.340034 147.65392 -1.9957285 65.728531
29600000000 -0.24583443 88.687393 -28.099487 146.03174 -28.316599 146.50742 -1.9610175 62.265419
29700000000 -0.35488236 88.043495 -28.092207 143.98688 -28.235287 142.64626 -1.8524014 59.332138
29800000000 -0.32913128 87.23616 -28.147985 141.40627 -28.302591 140.7495 -1.8577223 55.935371
29900000000 -0.30967116 87.584152 -28.304926 140.10658 -28.421194 140.12025 -1.7796531 52.314388
30000000000 -0.35825482 87.376183 -28.354607 139.27582 -28.552872 138.35477 -1.7822844 49.159744
30100000000 -0.26768753 86.831253 -28.315294 138.16196 -28.529982 137.93498 -1.8750609 45.58041
30200000000 -0.26421902 86.628296 -28.162964 137.51945 -28.417658 137.70512 -1.7894276 42.366058
30300000000 -0.39291117 86.006851 -28.050325 136.28333 -28.285137 135.37059 -1.780416 40.219303
30400000000 -0.3754701 85.504074 -27.91173 135.16565 -28.092363 134.04332 -1.8557149 37.021526
30500000000 -0.36810425 86.109489 -27.732475 133.43771 -27.886703 133.02502 -1.672982 33.069691
30600000000 -0.38960427 85.701599 -27.550608 131.70117 -27.774189 131.07083 -1.657938 31.029192
30700000000 -0.26048592 85.231651 -27.418262 129.59718 -27.693651 129.256 -1.8597583 27.01236
30800000000 -0.28606102 85.185547 -27.206577 127.38893 -27.438646 127.27953 -1.6785128 23.079075
30900000000 -0.38356721 84.030922 -27.011629 125.52396 -27.312174 124.8369 -1.680739 21.938156
31000000000 -0.31399125 84.101578 -26.895771 122.53321 -27.100462 121.50523 -1.9296343 18.029665
31100000000 -0.43575948 84.492126 -26.788261 119.37645 -26.947218 118.73044 -1.6328698 14.1182
31200000000 -0.34364089 83.346519 -26.75239 116.60966 -26.959034 116.81631 -1.6747335 13.102877
31300000000 0.040167045 83.214226 -26.693359 113.8941 -27.013058 112.80132 -2.0498247 8.1079941
31400000000 -0.58878344 84.964935 -26.803293 111.08676 -26.950726 109.44905 -1.6316384 3.0844781
31500000000 -1.1407902 77.886871 -26.747808 107.56976 -26.692276 107.41411 -1.3581367 3.2095585
31600000000 -0.46899423 73.954521 -26.765976 106.55262 -26.933044 106.01406 -1.7401159 -0.51623011
31700000000 0.14325774 82.61731 -26.621782 105.55658 -27.016247 105.44166 -1.7267805 -4.603157
31800000000 -0.61717981 85.79467 -26.58946 103.65198 -26.880728 103.52271 -1.7805598 -6.2829309
31900000000 -0.66338032 80.461441 -26.497377 101.02142 -26.738991 99.957939 -1.982903 -9.6850929
32000000000 -0.20718665 80.860519 -26.412153 98.603645 -26.81901 97.878128 -1.8446715 -13.851012
32100000000 -0.53477871 82.363716 -26.379253 95.90435 -26.582413 95.467361 -1.8280563 -15.749597
32200000000 -0.69888175 80.150269 -26.313726 93.140892 -26.538715 92.162292 -2.0002749 -19.44352
32300000000 -0.37178335 80.593109 -26.285973 90.34005 -26.609898 89.631721 -1.8781996 -23.493385
32400000000 -0.54158574 81.785736 -26.253576 87.898392 -26.538195 87.455795 -1.9033959 -25.834621
32500000000 -0.5770418 79.498032 -26.288082 84.731644 -26.604996 83.671402 -2.0831084 -29.713335
32600000000 -0.36213195 79.402573 -26.301842 82.044182 -26.693285 81.174316 -1.9715357 -33.410706
32700000000 -0.58039212 79.922821 -26.353909 79.462074 -26.621557 78.802414 -1.9981149 -35.362
32800000000 -0.66684467 78.77359 -26.441183 76.874199 -26.656422 75.334023 -2.1350501 -39.280304
32900000000 -0.44449744 79.084946 -26.526154 74.237274 -26.904976 73.039429 -1.9633015 -43.298542
33000000000 -0.477566 80.091888 -26.662218 72.433594 -26.990841 71.485718 -1.9493406 -45.720257
33100000000 -0.54157639 78.141014 -26.827381 69.586365 -27.1731 68.333397 -2.1272726 -50.337769
33200000000 -0.40106308 77.843094 -26.959166 67.787796 -27.461639 66.805801 -2.0440433 -54.946861
33300000000 -0.56908494 78.032669 -27.139557 66.332146 -27.565594 65.370171 -2.1374125 -57.186825
33400000000 -0.61159533 77.178642 -27.296803 65.764481 -27.684778 64.536377 -2.3972294 -60.477242
33500000000 -0.45187983 77.637543 -27.426987 65.471352 -27.910053 64.562424 -2.1788375 -65.151024
33600000000 -0.47595838 78.475121 -27.287809 65.858025 -27.764097 65.103134 -2.0747733 -67.468422
33700000000 -0.48112273 77.174065 -27.116013 64.988083 -27.603212 64.599701 -2.2755587 -72.619827
33800000000 -0.32310089 77.041443 -26.879633 63.813084 -27.467422 63.601624 -2.242362 -77.654358
33900000000 -0.42965919 77.052643 -26.550104 61.902824 -27.070663 62.058151 -2.3700979 -80.727638
34000000000 -0.41360146 75.551796 -26.277166 59.506561 -26.796803 59.587063 -2.5953939 -84.759476
34100000000 -0.26283646 75.534134 -26.088196 56.436817 -26.684134 56.842499 -2.5407429 -88.969597
34200000000 -0.33049202 75.955833 -25.896168 53.55452 -26.423512 53.995861 -2.4778516 -92.206024
34300000000 -0.38391685 74.75441 -25.903097 50.223789 -26.395004 50.815567 -2.5571535 -97.079399
34400000000 -0.26055038 74.82943 -25.997807 47.013294 -26.53219 48.417625 -2.5883164 -102.17968
34500000000 -0.37438783 75.510368 -25.990158 44.310955 -26.514822 46.099327 -2.6591671 -106.69776
34600000000 -0.38792729 73.782158 -25.989492 41.404552 -26.433662 43.236488 -2.7846482 -111.07412
34700000000 -0.23871623 73.150543 -26.068779 38.885273 -26.553394 40.931305 -2.8451138 -115.79016
34800000000 -0.30981174 73.437233 -26.141134 36.650623 -26.579184 38.577465 -2.8147416 -120.28217
34900000000 -0.43877289 72.480553 -26.297567 34.771648 -26.663343 36.658226 -2.9033129 -124.99987
35000000000 -0.32058191 72.648613 -26.532251 33.732605 -26.855734 35.83036 -2.9270182 -130.10097
35100000000 -0.35948682 73.823318 -26.47715 33.425289 -26.81567 35.558437 -2.9656544 -135.2292
35200000000 -0.45315981 72.567574 -26.418129 32.253242 -26.642227 34.185196 -3.0637567 -140.27226
35300000000 -0.32727173 71.626328 -26.321358 32.3717 -26.492847 34.076893 -3.1182628 -145.35088
35400000000 -0.33903161 72.264908 -25.834026 31.414227 -26.104355 32.956863 -3.1946232 -149.92589
35500000000 -0.50682372 71.809578 -25.404696 28.78684 -25.587219 29.814684 -3.218632 -154.91673
35600000000 -0.37185353 71.15258 -25.071911 24.926117 -25.202501 25.968098 -3.1446309 -159.9866
35700000000 -0.21282707 72.112198 -24.808283 20.332594 -25.046995 21.482601 -3.1900742 -164.8288
35800000000 -0.35880557 71.580215 -24.781975 15.19824 -24.963594 15.983845 -3.2805357 -170.87401
35900000000 -0.27127737 69.692627 -24.940008 10.790973 -25.186653 11.318682 -3.1791131 -175.38483
36000000000 -0.20712979 70.295441 -25.124977 7.3688512 -25.455833 8.1626854 -3.1502578 -179.32375
36100000000 -0.39597058 69.984589 -25.507526 4.1913671 -25.722729 4.6449804 -3.1548533 174.42551
36200000000 -0.37875193 68.4216 -25.880697 3.1851728 -26.096136 3.3526492 -3.0039992 168.4133
36300000000 -0.22671148 69.273186 -25.812708 3.5257285 -26.150984 4.217298 -3.0914178 164.21027
36400000000 -0.36747646 69.392929 -25.48893 0.88646066 -25.755522 1.6681663 -3.2836936 158.41849
36500000000 -0.33487195 67.545601 -25.497869 -3.4257376 -25.794813 -2.9010806 -3.1284938 153.19289
36600000000 -0.19931136 68.035172 -25.651213 -6.3135633 -26.027151 -5.6417875 -3.1541557 149.77458
36700000000 -0.40359291 68.044479 -25.861261 -8.822794 -26.209089 -7.8424158 -3.2680943 144.30031
36800000000 -0.3552137 66.30117 -26.155373 -10.39742 -26.469555 -9.6729164 -2.9359157 139.10669
36900000000 -0.15770529 66.531982 -26.290268 -11.686708 -26.646692 -10.012095 -2.9100025 135.13362
37000000000 -0.37228173 66.818199 -26.332245 -12.556391 -26.628782 -10.508457 -3.0559294 128.81104
37100000000 -0.41800693 64.669319 -26.228764 -13.157883 -26.496773 -11.760748 -2.9258265 124.18427
37200000000 -0.26790822 65.729225 -25.984158 -14.941737 -26.284294 -13.031752 -3.0178611 121.02938
37300000000 -0.52765697 66.639641 -25.831594 -17.504673 -26.058458 -15.441721 -3.0397112 115.62281
37400000000 -0.44589221 64.418236 -25.846264 -20.571791 -25.990807 -19.27033 -2.7487724 111.4785
37500000000 -0.1524366 64.628418 -25.886017 -22.8414 -26.108141 -21.483746 -2.852922 107.91464
37600000000 -0.43897325 64.812721 -25.985004 -25.369356 -26.144278 -23.582863 -2.8101404 102.36275
37700000000 -0.43807405 62.416832 -26.041941 -27.289394 -26.199301 -26.165621 -2.5583093 98.819733
37800000000 -0.2578223 63.631813 -26.082409 -29.045029 -26.229939 -27.933937 -2.7469134 94.768478
37900000000 -0.53158277 64.996498 -26.090488 -30.851149 -26.155943 -29.547686 -2.6662068 88.728004
38000000000 -0.53221673 62.672462 -26.033106 -32.48465 -26.165476 -31.601728 -2.482327 86.277359
38100000000 -0.20538396 63.418217 -26.007551 -33.886883 -26.188625 -33.471832 -2.7456627 83.175056
38200000000 -0.48035929 64.39167 -25.931973 -36.257423 -26.05406 -35.305382 -2.571804 76.99147
38300000000 -0.54915112 60.885715 -25.85944 -38.369957 -25.961483 -37.797104 -2.2647288 74.913857
38400000000 -0.19660141 61.880116 -25.814301 -40.205563 -25.96756 -40.23822 -2.6058083 72.39502
38500000000 -0.54652846 63.516853 -25.795261 -43.214394 -25.887112 -43.122673 -2.4937115 65.423355
38600000000 -0.63468331 60.841297 -25.726332 -45.590412 -25.85313 -45.602943 -2.1719131 63.892281
38700000000 -0.19203301 61.387016 -25.710014 -47.616951 -25.935915 -47.731346 -2.5202658 61.109722
38800000000 -0.52637315 63.329426 -25.77236 -50.140911 -25.896742 -50.308804 -2.4573929 54.35799
38900000000 -0.65264785 59.586002 -25.731512 -53.101162 -25.852268 -53.018581 -2.1679895 53.64772
39000000000 -0.21766184 60.24403 -25.655722 -54.873909 -25.916674 -55.467205 -2.5863631 51.758976
39100000000 -0.51084787 62.003811 -25.729506 -57.997425 -25.980387 -57.985035 -2.2680476 45.666016
39200000000 -0.68499684 59.009312 -25.759399 -61.136524 -25.899359 -61.032269 -1.9794147 44.333889
39300000000 -0.32630306 59.155472 -25.829391 -63.877731 -26.082779 -63.977016 -2.3828781 41.044979
39400000000 -0.60874623 61.348637 -25.951141 -66.344208 -26.160097 -66.094788 -2.2235236 35.328625
39500000000 -0.75065339 58.728043 -26.083084 -68.86245 -26.262442 -68.984909 -2.049371 34.326889
39600000000 -0.32515189 58.906597 -26.176407 -71.34996 -26.503998 -71.729332 -2.4378185 31.274313
39700000000 -0.50730407 60.492451 -26.356789 -73.797867 -26.658791 -73.546959 -2.2084522 26.569693
39800000000 -0.62628901 57.748882 -26.628351 -75.725861 -26.888884 -75.741341 -1.9426003 26.097631
39900000000 -0.36330906 57.626724 -26.861446 -77.227959 -27.164055 -77.587318 -2.1805334 22.18375
40000000000 -0.59122336 59.31102 -27.03632 -78.367088 -27.302328 -78.548286 -1.9311123 17.100443
