!Keysight Technologies,N5224A,MY55441802,A.10.65.16
!Date: Wednesday, May 13, 2026 18:47:54
!Correction: S11(Full 2 Port(1,2)) 
!S21(Full 2 Port(1,2)) 
!S12(Full 2 Port(1,2)) 
!S22(Full 2 Port(1,2)) 
!S2P File: Measurements: S11, S21, S12, S22:
# Hz S  dB   R 50
1000000000 1.4863099 -108.08726 -32.903679 9.956666 -23.087215 3.6718884 -0.52071124 166.92282
1100000000 0.53204542 160.86037 -36.974087 -33.606258 -30.144062 -45.800262 -0.76037771 76.638771
1200000000 1.2370026 5.9727192 -51.002316 87.877785 -50.997749 157.82907 8.5152779 17.397587
1300000000 8.5520697 -131.17287 -38.279377 -32.679588 -24.71771 -25.15444 -2.1883214 130.3069
1400000000 1.4541141 169.45851 -35.056999 -21.982937 -30.877113 -36.366219 -0.42400464 72.479965
1500000000 3.3442419 9.4107189 -33.356808 151.30855 -35.172329 -169.61183 15.450246 83.276184
1600000000 11.897315 -152.53009 -40.508415 -54.081509 -25.048201 -51.252239 -2.8439565 114.6347
1700000000 1.7634979 169.29779 -33.442192 -15.586908 -31.3888 -31.901863 -0.22928755 77.038048
1800000000 7.5438042 11.667907 -33.979183 -179.68037 -34.297386 -155.15105 6.0362654 108.93959
1900000000 14.356198 -165.32919 -35.807667 -76.231209 -23.831526 -64.633842 -2.5233824 103.35915
2000000000 1.726185 165.71877 -32.637276 -16.971857 -32.282627 -28.778036 -0.55172366 75.805458
2100000000 12.779626 27.736645 -27.906067 -159.17784 -29.485619 -148.6962 1.2541856 95.382538
2200000000 13.902822 -173.73676 -35.078621 -60.640518 -24.30373 -70.77253 -2.7238986 93.307121
2300000000 0.46416771 164.60439 -32.537899 -27.282597 -32.752605 -36.216171 -1.1105095 71.962234
2400000000 16.865747 59.275738 -23.938215 -136.71989 -24.131811 -126.65331 -0.12110421 81.522293
2500000000 10.372503 -179.89203 -33.786705 -54.446571 -27.73535 -69.872894 -2.545541 82.869583
2600000000 -0.063481465 163.69872 -32.818443 -34.032917 -32.785618 -41.610157 -1.220719 66.012268
2700000000 12.447747 135.35779 -26.291016 -68.447922 -26.576704 -62.772861 -0.66913104 65.744133
2800000000 9.7721815 176.04973 -31.789368 -48.706505 -28.081015 -71.66925 -2.6992846 70.260185
2900000000 -0.62620527 166.6895 -33.199753 -40.931679 -33.117413 -47.138798 -1.4048723 58.722134
3000000000 9.8910627 144.26479 -28.243252 -63.482533 -28.416849 -59.022541 -0.48281035 53.063828
3100000000 7.6291351 171.79466 -31.394876 -49.980667 -29.942003 -69.280212 -2.3623922 56.813931
3200000000 -0.73489881 168.11859 -33.47393 -46.11227 -33.300808 -51.272766 -1.6569731 49.840683
3300000000 6.746315 147.01407 -29.902132 -65.271484 -29.851345 -61.673603 -0.40198922 43.997517
3400000000 7.5300288 175.78851 -30.80448 -53.237396 -29.686317 -67.65229 -1.9436067 43.906128
3500000000 -0.86366671 170.18523 -33.418606 -52.681362 -33.370197 -58.310097 -1.8932644 38.136719
3600000000 6.9258242 150.79073 -29.602802 -64.851402 -29.373308 -60.933784 -0.59138864 35.880924
3700000000 7.1303596 167.74306 -30.407677 -62.533257 -30.094465 -74.186104 -1.6528798 32.243759
3800000000 -0.77454966 170.19334 -33.186871 -58.471073 -33.319786 -64.821892 -1.671546 25.501659
3900000000 4.9892545 154.17476 -30.926601 -66.398819 -30.379395 -63.200699 -1.0282756 24.820051
4000000000 6.3054576 166.12213 -30.262774 -69.573563 -30.426161 -79.027466 -1.5381806 20.361734
4100000000 -0.64069641 172.61528 -32.930557 -62.333179 -32.810959 -71.513405 -1.3930814 13.978631
4200000000 3.4492474 150.34813 -31.763716 -73.382751 -31.289303 -70.612152 -1.2743154 12.440169
4300000000 5.3349242 163.87392 -30.448645 -76.664452 -30.894573 -81.619545 -1.4785416 7.4144273
4400000000 -0.53375006 170.60341 -32.886051 -68.255074 -32.799618 -76.148132 -1.134807 3.3361797
4500000000 2.5214365 156.31287 -32.374458 -75.400795 -31.913414 -71.478607 -1.3033304 0.078540377
4600000000 4.3611979 164.42139 -30.828579 -81.182236 -31.166975 -84.586113 -1.3594539 -5.9362049
4700000000 -0.28154865 171.18167 -32.602577 -73.845688 -32.475613 -81.343903 -1.0119437 -8.1681318
4800000000 1.9720672 154.62643 -32.386345 -82.026917 -32.071938 -78.814369 -1.3010992 -12.08707
4900000000 3.9493868 161.74521 -30.974167 -87.406433 -31.354883 -88.346954 -1.2786804 -18.844723
5000000000 -0.2716358 169.57971 -32.580791 -79.96936 -32.435669 -86.893829 -0.93485403 -20.21837
5100000000 1.1712821 156.53806 -32.541309 -85.8507 -32.311646 -83.204231 -1.2448432 -23.956322
5200000000 3.3942227 159.72495 -31.22287 -92.960419 -31.584133 -93.397652 -1.2116842 -31.621325
5300000000 -0.049869962 169.17809 -32.28949 -86.363251 -32.266022 -92.429222 -0.8424089 -33.40279
5400000000 0.97643614 156.3103 -32.551292 -91.153542 -32.184814 -88.918602 -1.196104 -36.151005
5500000000 3.5040927 158.07019 -31.121717 -98.508125 -31.415789 -97.718109 -1.2352453 -44.29488
5600000000 -0.15698825 168.05687 -32.21735 -92.349388 -32.161667 -98.110291 -0.80878526 -46.684822
5700000000 0.89244336 153.04034 -32.315052 -96.151527 -31.875153 -94.775124 -1.1423947 -47.504601
5800000000 2.6012428 159.2682 -31.567074 -102.45403 -31.676298 -101.64244 -1.2000433 -56.748074
5900000000 0.13177595 167.68634 -31.900875 -99.921883 -31.979158 -104.94964 -0.61324972 -60.261631
6000000000 0.41294721 154.51582 -32.374359 -101.65536 -32.021847 -101.0832 -1.2725003 -60.255726
6100000000 3.037662 158.11334 -31.281796 -108.33684 -31.293692 -107.53297 -1.2295268 -69.317505
6200000000 0.13506061 166.11031 -31.85133 -106.81589 -31.89925 -111.3779 -0.5694024 -73.161575
6300000000 0.30290908 154.70155 -32.332508 -107.80821 -32.10088 -107.87345 -1.3345941 -73.569069
6400000000 2.4519281 155.4509 -31.656027 -115.47688 -31.614225 -114.94849 -1.2949094 -81.207649
6500000000 0.43590596 165.05081 -31.877295 -113.94494 -32.006233 -117.22343 -0.72814935 -83.637985
6600000000 -0.025699366 155.68202 -32.604576 -114.40287 -32.447926 -115.42809 -1.3311852 -87.536476
6700000000 2.3127787 156.3026 -31.911228 -119.88694 -31.644638 -119.58376 -1.1694877 -94.064865
6800000000 0.44896191 164.08447 -32.047268 -119.48926 -32.057804 -121.82366 -0.61035103 -95.31694
6900000000 -0.2658425 155.15459 -32.658043 -119.43433 -32.509747 -121.62801 -1.1872861 -99.911613
7000000000 1.5564357 154.20451 -32.178265 -124.63087 -32.001526 -124.59896 -1.2107201 -106.6534
7100000000 0.6004492 163.1156 -31.946648 -125.44876 -32.035172 -127.11362 -0.75660044 -107.62844
7200000000 -0.36929792 155.27661 -32.596542 -125.49001 -32.520306 -127.75751 -1.0743487 -111.61909
7300000000 1.7635945 151.11824 -32.182625 -130.95654 -32.039993 -130.55223 -1.2192781 -118.55296
7400000000 0.63362741 161.67175 -32.22559 -131.6971 -32.282875 -133.17386 -1.0303948 -121.29559
7500000000 -0.53189683 155.59084 -32.511234 -130.534 -32.548939 -133.44753 -1.0510645 -122.8455
7600000000 1.0341146 151.81897 -32.670097 -134.52464 -32.523685 -134.90343 -1.2514158 -129.83447
7700000000 0.852983 159.54243 -32.319206 -137.4054 -32.433231 -138.9158 -1.0088975 -134.57433
7800000000 -0.50325602 155.49536 -32.5704 -134.0648 -32.629684 -136.9874 -1.2330847 -134.96446
7900000000 1.2118697 150.29732 -32.496593 -138.13869 -32.309193 -138.48433 -1.310692 -141.40674
8000000000 0.69020897 157.65433 -32.223877 -142.50636 -32.314384 -143.47758 -0.94497257 -146.32751
8100000000 -0.52236801 155.04295 -32.340645 -139.42209 -32.472641 -142.65314 -1.3304121 -146.98784
8200000000 0.7026971 151.02896 -32.570469 -143.45313 -32.389263 -143.71518 -1.4087193 -152.9695
8300000000 0.75322384 157.71533 -32.172474 -147.59517 -32.255119 -148.81061 -0.95366848 -157.34988
8400000000 -0.51489651 154.69948 -32.384644 -144.96382 -32.626301 -148.32234 -1.357103 -159.38577
8500000000 0.68581796 150.29457 -32.555656 -147.15489 -32.417053 -147.86005 -1.447547 -164.71144
8600000000 0.55036598 155.58525 -32.417431 -150.79472 -32.442757 -151.71649 -1.1574559 -168.22729
8700000000 -0.48043084 154.17102 -32.441219 -149.79709 -32.701004 -152.84715 -1.4057423 -171.07664
8800000000 0.51960933 149.91301 -32.538368 -150.71674 -32.381058 -151.29381 -1.471055 -176.09077
8900000000 0.55329508 154.73238 -32.3354 -153.8311 -32.324337 -154.35184 -1.2285877 -179.49178
9000000000 -0.4948726 153.37343 -32.252735 -153.16533 -32.490345 -156.31638 -1.4463236 177.39725
9100000000 0.3779403 148.85152 -32.244152 -154.28078 -32.116146 -155.27208 -1.4755799 172.40657
9200000000 0.59326738 152.52875 -32.082699 -157.81425 -32.054081 -158.30418 -1.3011467 169.19464
9300000000 -0.47679508 153.0515 -31.929405 -158.55936 -32.116199 -160.85799 -1.509902 165.99471
9400000000 0.44760442 147.60188 -31.780907 -158.98579 -31.691339 -159.97539 -1.5115162 161.08812
9500000000 0.61812097 151.12849 -31.710342 -162.72772 -31.673386 -162.91354 -1.3715905 158.1219
9600000000 -0.49026012 152.43851 -31.583961 -163.70828 -31.758808 -165.9971 -1.5342236 154.81038
9700000000 0.10898658 146.15147 -31.446861 -165.31635 -31.386818 -166.21484 -1.5086446 149.94786
9800000000 0.49547553 150.91821 -31.327818 -168.0204 -31.304895 -168.52914 -1.4427741 147.0177
9900000000 -0.4567782 152.18968 -31.2591 -169.74826 -31.349419 -172.36613 -1.5863141 143.6777
10000000000 0.16609079 145.34732 -31.150684 -171.51958 -31.061722 -172.2547 -1.5276119 138.80183
10100000000 0.80704802 148.68874 -30.971901 -175.11243 -30.948032 -175.32285 -1.4805349 135.43211
10200000000 -0.3816039 151.49336 -31.030392 -176.32567 -31.104527 -178.58879 -1.6582587 132.51733
10300000000 -0.11121147 146.51781 -31.048826 -177.96646 -31.024412 -178.55072 -1.5669438 127.8749
10400000000 0.53996211 148.45476 -30.862885 178.37334 -30.758883 178.13206 -1.4799703 124.30363
10500000000 -0.29406163 150.97807 -30.877958 177.61688 -30.80122 175.43864 -1.7110797 121.14819
10600000000 -0.11271778 145.52495 -30.946407 175.82922 -30.903521 175.1669 -1.6221725 116.81915
10700000000 0.51946098 146.63115 -30.693401 172.66466 -30.607092 172.22374 -1.4711301 113.32484
10800000000 -0.25910968 149.5177 -30.720966 171.91972 -30.637251 169.53667 -1.7327414 109.80405
10900000000 -0.26813793 146.20374 -30.765411 170.07904 -30.784863 169.23041 -1.6789818 105.59229
11000000000 0.38325819 146.79015 -30.437248 167.20062 -30.368683 166.88373 -1.5207995 102.46751
11100000000 -0.20148304 148.76956 -30.478508 165.7764 -30.325438 163.71547 -1.7323235 98.542534
11200000000 -0.30011454 145.11201 -30.462336 163.93279 -30.502392 162.75258 -1.7178687 94.121948
11300000000 0.14227872 145.00409 -30.266705 161.1114 -30.164824 160.73476 -1.5730097 91.259903
11400000000 -0.22806363 147.55949 -30.152573 159.08681 -30.049839 157.00426 -1.7498546 87.25029
11500000000 -0.31088212 144.84773 -30.162029 157.31276 -30.259132 155.34232 -1.7424539 82.53878
11600000000 0.19471607 144.95834 -29.983944 154.07693 -29.917021 153.3812 -1.6604831 79.672302
11700000000 -0.17934018 146.97118 -29.93185 151.53712 -29.828833 149.51108 -1.7729859 75.767265
11800000000 -0.30263016 143.69223 -29.988649 149.96823 -30.06777 147.94301 -1.6934702 71.289467
11900000000 0.10330726 143.33723 -29.905497 146.33012 -29.844954 145.75587 -1.6899184 68.041908
12000000000 -0.24902202 145.67328 -29.812992 144.29944 -29.749374 142.17595 -1.7968031 64.014786
12100000000 -0.27536789 142.87973 -29.908888 142.90805 -29.999025 140.62527 -1.7112079 59.917065
12200000000 0.18756361 142.98039 -29.812714 139.04601 -29.762156 138.22585 -1.7315217 56.144356
12300000000 -0.13382357 145.1662 -29.72785 136.86902 -29.66839 134.61653 -1.8027352 52.209194
12400000000 -0.28246295 142.12328 -29.849577 134.9881 -30.041323 132.85406 -1.7361333 48.502644
12500000000 0.1302097 142.23099 -29.842016 131.46754 -29.857933 130.61607 -1.7247462 44.428284
12600000000 -0.18017897 144.01974 -29.878839 129.27652 -29.789639 127.1814 -1.7855618 40.050663
12700000000 -0.25708506 141.39465 -30.00165 127.59466 -30.153627 125.4276 -1.7475224 36.350533
12800000000 0.22348571 140.75038 -29.969757 124.00372 -29.945095 123.34643 -1.7548522 32.432812
12900000000 -0.11492927 142.87263 -30.027214 122.03616 -29.987577 120.48827 -1.8033944 27.928928
13000000000 -0.32753846 140.80931 -30.201054 120.55512 -30.353113 118.05059 -1.7578938 24.173893
13100000000 0.11492831 140.48598 -30.244289 117.67605 -30.276091 116.7399 -1.7742296 20.279886
13200000000 -0.074222051 142.10408 -30.312872 115.34455 -30.258945 113.89702 -1.8006016 15.488144
13300000000 -0.38365754 139.97687 -30.530085 114.23505 -30.709641 111.68016 -1.7194155 11.649439
13400000000 0.088617392 138.07751 -30.749382 111.61095 -30.726393 110.71566 -1.8218783 7.6665034
13500000000 -0.048094638 140.53642 -30.848909 110.76834 -30.827724 109.70953 -1.8369962 2.8293202
13600000000 -0.41848335 139.73555 -31.058542 111.58086 -31.131273 108.77677 -1.7538569 -0.99723369
13700000000 -0.036522768 137.4827 -31.187517 111.26778 -31.24721 110.33298 -1.8577482 -4.7224941
13800000000 0.017612923 139.93608 -30.695089 112.47531 -30.663057 111.35931 -1.8390329 -9.8538675
13900000000 -0.3866615 139.37704 -30.250235 111.88149 -30.368448 108.52017 -1.7132468 -13.641809
14000000000 -0.12184599 136.74123 -30.138065 107.46627 -30.195093 106.31374 -1.8679249 -17.984243
14100000000 -0.0071648862 138.69116 -29.902573 103.92162 -29.881447 103.20753 -1.8588052 -22.942167
14200000000 -0.37206745 138.47133 -29.883055 102.83834 -29.993855 99.362785 -1.744278 -26.603827
14300000000 -0.064841792 136.3504 -30.060888 99.398872 -30.152617 98.040733 -1.8538635 -30.830814
14400000000 0.079852536 137.36609 -29.999899 96.074402 -29.97366 95.44648 -1.8604478 -35.917515
14500000000 -0.35741043 137.53957 -30.064178 96.734283 -30.13698 92.863853 -1.7513285 -39.516087
14600000000 -0.1873869 135.38205 -30.194973 94.291893 -30.323851 92.612747 -1.8505512 -43.930405
14700000000 -0.082099132 136.69963 -30.224981 91.897484 -30.201857 90.878082 -1.8656477 -49.291821
14800000000 -0.3379187 136.65521 -30.11725 93.268219 -30.216925 88.72821 -1.7723986 -53.040546
14900000000 -0.2351912 134.9624 -30.01342 91.815826 -30.225178 89.726715 -1.866841 -56.733028
15000000000 -0.079810567 135.17738 -29.924513 88.268135 -29.924154 87.338272 -1.8786576 -62.145672
15100000000 -0.3308093 135.68013 -29.739689 88.431252 -29.849564 84.195801 -1.7342629 -66.279236
15200000000 -0.27547848 134.32582 -29.639421 87.415306 -29.962315 85.269318 -1.8427706 -69.954659
15300000000 -0.1923548 134.88565 -29.529202 84.17971 -29.581039 82.974022 -1.889403 -75.433159
15400000000 -0.313997 135.06255 -29.201624 82.72879 -29.422781 77.999542 -1.7435607 -79.873604
15500000000 -0.24941173 133.65887 -29.202066 81.063789 -29.690577 78.72094 -1.840333 -83.166847
15600000000 -0.090048231 133.59843 -29.303146 77.931877 -29.38065 77.233307 -1.9200151 -88.413841
15700000000 -0.25995037 133.95569 -29.02207 77.372856 -29.243242 73.647392 -1.7204077 -92.884163
15800000000 -0.19875142 132.46671 -28.826057 76.467972 -29.378002 74.836227 -1.8297644 -96.373322
15900000000 -0.088601694 132.758 -28.808708 73.168846 -28.958511 72.943947 -1.9266311 -101.61929
16000000000 -0.31185234 132.83028 -28.415056 71.740135 -28.832701 68.272888 -1.7515253 -106.19038
16100000000 -0.21561639 131.24712 -28.123428 69.909027 -28.714514 68.476418 -1.8142128 -109.48747
16200000000 -0.067645095 131.57407 -28.180267 65.77784 -28.304676 66.176102 -1.928037 -114.55686
16300000000 -0.32139558 132.36649 -27.866488 63.493862 -28.155388 61.141567 -1.7538725 -118.87164
16400000000 -0.18869306 130.45377 -27.603224 60.704121 -28.160583 60.438782 -1.8245038 -122.47836
16500000000 -0.048996981 131.44658 -27.79747 56.530445 -27.903065 57.696133 -1.8876306 -127.67365
16600000000 -0.32460228 131.6042 -27.587688 53.726116 -27.838024 51.65921 -1.7703477 -131.73935
16700000000 -0.26629326 129.84587 -27.403332 50.680386 -27.948124 50.181644 -1.8412632 -135.28528
16800000000 0.0042435247 130.5675 -27.791616 46.694008 -27.782606 47.894901 -1.8663266 -140.15761
16900000000 -0.23887637 131.10019 -27.948254 45.13681 -28.076576 43.942928 -1.7731425 -144.08228
17000000000 -0.177652 128.88782 -27.477707 44.248425 -27.917345 44.21994 -1.8212066 -148.10899
17100000000 -0.032598048 129.4203 -27.676197 40.182266 -27.677492 41.059708 -1.8119743 -152.64467
17200000000 -0.23066022 129.79028 -27.601042 37.292454 -27.695967 36.086956 -1.7539681 -156.44299
17300000000 -0.26160741 128.59044 -27.563213 34.707928 -27.936155 33.947388 -1.8082973 -160.35071
17400000000 -0.073079228 128.4949 -27.840136 32.170666 -27.765663 32.78994 -1.7707826 -164.793
17500000000 -0.18230827 129.02011 -27.807892 30.551109 -27.755188 29.6772 -1.7178618 -168.47923
17600000000 -0.19556645 127.57194 -27.66132 28.08877 -28.015455 27.501146 -1.7955719 -172.45755
17700000000 -0.03321353 127.13311 -27.8279 25.827133 -27.83671 26.229595 -1.7473845 -176.88779
17800000000 -0.16926856 127.67123 -27.720085 24.002117 -27.654333 22.663847 -1.675934 179.69481
17900000000 -0.26121169 126.76729 -27.502138 21.379189 -27.881119 20.13839 -1.7827487 175.95929
18000000000 -0.11279014 126.26571 -27.626446 19.113003 -27.629055 19.262003 -1.6936321 171.33861
18100000000 -0.1456885 126.83981 -27.528278 16.666868 -27.428186 15.871835 -1.6067877 168.08612
18200000000 -0.2245152 125.60823 -27.393539 13.942308 -27.790621 12.741332 -1.7751215 163.85936
18300000000 -0.063703217 125.24685 -27.498329 10.731823 -27.549585 10.875053 -1.7080609 159.35133
18400000000 -0.16636172 125.55859 -27.413372 7.8763242 -27.336679 6.6571589 -1.6468613 156.56287
18500000000 -0.25906983 124.77103 -27.240213 4.7739778 -27.700315 3.0227821 -1.8011518 152.51028
18600000000 -0.11112475 124.50125 -27.520859 1.7662644 -27.592411 1.6783241 -1.672435 148.15178
18700000000 -0.17111312 124.95184 -27.598225 -0.88252217 -27.496996 -1.8488019 -1.6285555 145.53767
18800000000 -0.23096684 123.73818 -27.609735 -4.1992898 -28.041508 -5.4699378 -1.7618297 141.0047
18900000000 -0.10904389 123.48963 -27.892633 -7.0631661 -27.983852 -6.4718966 -1.6649764 136.68556
19000000000 -0.20315997 123.60468 -27.976107 -8.8512726 -27.89267 -10.068727 -1.6721172 133.8941
19100000000 -0.22092828 122.84508 -27.91172 -11.773639 -28.350487 -13.319174 -1.7841787 129.8644
19200000000 -0.10817391 122.7774 -28.184237 -13.925667 -28.307823 -13.773841 -1.6726232 125.96672
19300000000 -0.20249262 122.85686 -28.307516 -15.441429 -28.224304 -16.962152 -1.6409342 123.03161
19400000000 -0.21470644 121.88711 -28.398912 -18.6472 -28.725004 -19.919575 -1.7211329 118.95324
19500000000 -0.13113965 121.65463 -28.637539 -20.440681 -28.758284 -20.487167 -1.6401552 115.14695
19600000000 -0.18279815 121.8026 -28.747047 -22.397137 -28.675779 -23.543819 -1.6592811 111.67136
19700000000 -0.2081068 120.98534 -28.816566 -24.816654 -29.075165 -26.203619 -1.7449265 108.01822
19800000000 -0.11092187 120.76894 -29.039265 -26.313845 -29.156923 -26.4457 -1.7065639 104.43957
19900000000 -0.15685813 120.65518 -29.175194 -27.783573 -29.100098 -29.08588 -1.6658664 101.27245
20000000000 -0.21125433 120.06302 -29.28957 -29.886951 -29.540728 -31.589619 -1.7237644 97.521355
20100000000 -0.14362995 119.63938 -29.530682 -31.253931 -29.681559 -31.883242 -1.6910293 93.711525
20200000000 -0.17396015 119.68375 -29.666105 -32.844124 -29.586376 -33.95779 -1.6563702 90.318237
20300000000 -0.25011459 119.33321 -29.804323 -34.600277 -29.946482 -36.081799 -1.7560095 86.527885
20400000000 -0.16084351 118.4996 -30.064943 -35.382576 -30.227129 -36.051281 -1.7401168 82.913696
20500000000 -0.14924718 118.74494 -30.329329 -35.72393 -30.240841 -37.101578 -1.7129894 79.925201
20600000000 -0.26826268 118.35607 -30.516973 -35.914818 -30.669762 -38.200481 -1.7631707 75.993202
20700000000 -0.20956556 117.7028 -30.734758 -35.048264 -30.908274 -35.854321 -1.7477332 72.140633
20800000000 -0.17124704 117.93414 -30.658648 -32.950283 -30.613224 -34.41008 -1.7679999 68.876007
20900000000 -0.26032892 117.86199 -30.196575 -31.41087 -30.292658 -33.520672 -1.8601544 65.145958
21000000000 -0.18187451 117.04559 -29.586744 -32.11124 -29.806479 -33.169678 -1.8496441 61.93158
21100000000 -0.14122102 117.12564 -29.088686 -35.717964 -29.125492 -36.906345 -1.8425297 58.681313
21200000000 -0.23020212 116.65734 -28.914263 -40.169243 -29.037239 -42.685455 -1.8297478 55.039818
21300000000 -0.16916987 115.99506 -29.136299 -44.381783 -29.35183 -45.45742 -1.8093129 51.422863
21400000000 -0.16931741 115.9048 -29.504648 -46.552025 -29.474407 -48.13192 -1.8309869 47.563705
21500000000 -0.24781099 115.38248 -29.752329 -46.859871 -29.855104 -49.417797 -1.8602437 43.790058
21600000000 -0.21463123 114.82931 -29.876596 -45.256527 -30.157207 -46.612648 -1.8894658 40.308617
21700000000 -0.22168986 114.85988 -29.587795 -43.746254 -29.660103 -45.287151 -1.8821875 36.840508
21800000000 -0.26913732 114.8484 -28.89846 -44.914127 -29.007168 -47.811642 -1.8874842 33.149418
21900000000 -0.21319683 114.39115 -28.574869 -49.395863 -28.840508 -51.063099 -1.8655138 29.457712
22000000000 -0.16720183 114.19601 -28.879854 -52.847328 -28.91251 -54.401367 -1.8690599 25.628529
22100000000 -0.22086442 113.83436 -28.963345 -53.159245 -29.098804 -56.056812 -1.9371485 21.642908
22200000000 -0.17157584 113.0051 -28.668491 -53.234745 -29.042 -55.08456 -1.912465 17.864975
22300000000 -0.11107791 112.84676 -28.55183 -55.753918 -28.772455 -57.465969 -1.9583168 14.602535
22400000000 -0.22668235 112.55685 -28.493584 -57.44558 -28.743946 -60.825562 -2.0126979 10.398203
22500000000 -0.20099598 111.95113 -28.291231 -57.9203 -28.703503 -59.65818 -1.9091145 6.7047076
22600000000 -0.15510052 112.1017 -28.088436 -59.588203 -28.338388 -61.130363 -1.9699318 3.6293633
22700000000 -0.24934389 111.79059 -27.889679 -62.42009 -28.14386 -65.034843 -2.0563908 -1.2083362
22800000000 -0.20558169 110.53788 -27.773891 -64.142952 -28.235601 -65.504906 -1.8848677 -5.0649309
22900000000 -0.13861179 110.92989 -27.763599 -65.369736 -28.111717 -66.694221 -1.9909565 -8.4004831
23000000000 -0.27721834 110.79346 -27.574831 -67.326187 -27.908239 -69.976715 -2.1043112 -13.639009
23100000000 -0.24845666 110.09189 -27.287294 -68.392212 -27.817255 -69.840675 -1.9905715 -17.601841
23200000000 -0.18200327 110.72752 -27.029545 -70.282021 -27.362741 -71.22702 -2.0807202 -20.368868
23300000000 -0.29622924 110.56047 -26.725313 -73.230431 -27.079475 -74.997993 -2.187495 -25.491899
23400000000 -0.20837808 109.30088 -26.445793 -75.878174 -26.988539 -76.858032 -2.0038295 -29.904608
23500000000 -0.13905337 109.7253 -26.296556 -78.73748 -26.707598 -79.306137 -2.0753682 -33.179382
23600000000 -0.23378593 109.46388 -26.173464 -82.614586 -26.575169 -83.68364 -2.2221398 -38.625633
23700000000 -0.13679244 108.52945 -26.065578 -85.506729 -26.628719 -86.41246 -2.1048713 -43.268761
23800000000 -0.087539248 108.83268 -25.971689 -88.508224 -26.36718 -88.470459 -2.2007079 -46.495029
23900000000 -0.20116785 108.51003 -25.957352 -91.774086 -26.297447 -92.515289 -2.3445702 -51.542027
24000000000 -0.17850554 107.60297 -25.912575 -94.300682 -26.400848 -94.771622 -2.1936619 -56.374306
24100000000 -0.12006526 107.71525 -25.827053 -96.503868 -26.213425 -96.271439 -2.1941464 -59.72237
24200000000 -0.20553538 107.58023 -25.824913 -99.275925 -26.139675 -99.467445 -2.3637514 -65.155663
24300000000 -0.15538827 106.22301 -25.715559 -101.84138 -26.145226 -102.30225 -2.2255707 -70.123497
24400000000 -0.080619633 106.41883 -25.563742 -104.30417 -25.914484 -104.26678 -2.277112 -73.863533
24500000000 -0.22239925 106.31278 -25.525326 -108.04594 -25.710909 -108.12984 -2.4388893 -79.27459
24600000000 -0.23328647 105.56955 -25.397814 -111.08283 -25.768856 -111.73241 -2.2841301 -84.009819
24700000000 -0.14123122 106.07528 -25.318699 -114.15619 -25.649439 -113.9016 -2.3547101 -87.565239
24800000000 -0.22921105 105.95158 -25.359758 -117.76767 -25.531595 -117.80082 -2.4485104 -93.173332
24900000000 -0.18923561 104.37461 -25.368769 -120.83851 -25.754187 -121.60464 -2.2690542 -97.657547
25000000000 -0.10361831 104.40556 -25.43696 -123.89943 -25.76524 -124.22829 -2.3891854 -101.76619
25100000000 -0.23618099 104.20975 -25.618082 -127.18179 -25.76741 -127.58659 -2.4020956 -107.54388
25200000000 -0.21662225 103.3923 -25.653933 -128.94302 -26.023024 -130.13846 -2.2894669 -111.81131
25300000000 -0.11956489 103.84637 -25.471136 -131.96568 -25.868959 -132.07353 -2.443913 -116.10553
25400000000 -0.22338326 103.7288 -25.582745 -135.5589 -25.775816 -135.73039 -2.415714 -121.67862
25500000000 -0.20139548 102.32793 -25.631395 -138.32964 -26.075178 -139.63837 -2.3266757 -125.44894
25600000000 -0.15783131 102.31117 -25.69569 -141.34299 -26.168186 -141.5313 -2.4281929 -130.33444
25700000000 -0.2659421 101.89507 -25.85182 -144.33304 -26.15156 -144.867 -2.3591862 -135.78441
25800000000 -0.22801808 101.24059 -25.944168 -147.05247 -26.401764 -148.02228 -2.3332427 -139.64879
25900000000 -0.15567899 101.62231 -26.022251 -150.01003 -26.485809 -149.94833 -2.4383421 -144.63075
26000000000 -0.22525235 101.23508 -26.230635 -153.10005 -26.533422 -153.05646 -2.3413527 -149.73807
26100000000 -0.23310848 100.33221 -26.429844 -155.59624 -26.912516 -156.14757 -2.3133216 -153.77586
26200000000 -0.22633971 100.3224 -26.56292 -158.51891 -27.154242 -157.82516 -2.3894923 -158.80782
26300000000 -0.28396994 99.984329 -26.897495 -160.8763 -27.199593 -160.07196 -2.3128176 -163.645
26400000000 -0.26444793 99.254837 -27.150002 -162.79425 -27.590086 -162.58939 -2.2889709 -167.85577
26500000000 -0.18265258 99.360664 -27.331877 -164.48445 -27.826138 -163.07448 -2.3817375 -172.50986
26600000000 -0.24440069 99.072357 -27.7111 -166.10396 -27.982191 -164.85832 -2.2789874 -177.21117
26700000000 -0.2770676 98.506973 -28.060495 -166.8541 -28.411419 -165.94626 -2.2623277 178.90402
26800000000 -0.28610441 98.455032 -28.26594 -167.14301 -28.673956 -165.61368 -2.3023794 173.88582
26900000000 -0.35360289 98.393425 -28.595224 -166.31349 -28.687958 -164.87685 -2.2310133 169.29852
27000000000 -0.35498044 97.779205 -28.582083 -165.02039 -28.664679 -163.80109 -2.280741 165.3929
27100000000 -0.24847415 97.646744 -28.18434 -163.5155 -28.454809 -161.64485 -2.3405869 160.97273
27200000000 -0.26866841 97.80426 -27.675842 -163.79051 -27.761215 -162.98627 -2.2836909 156.86624
27300000000 -0.24396494 97.438126 -27.172234 -166.80482 -27.227325 -166.49724 -2.2457111 153.2177
27400000000 -0.20371218 97.259499 -26.982559 -170.953 -27.015522 -168.91203 -2.1376836 150.46579
27500000000 -0.22223945 96.946907 -27.136917 -175.23834 -26.812069 -173.45973 -1.6161596 147.23546
27600000000 -0.23015557 96.238007 -27.355808 -178.74442 -27.358498 -177.74908 -2.1849599 141.85277
27700000000 -0.19318424 95.645996 -27.679464 178.89217 -27.882851 179.64709 -2.208374 135.16266
27800000000 -0.22756094 95.37896 -28.017525 179.14642 -28.057083 179.17876 -1.949248 132.21304
27900000000 -0.25942081 95.144875 -28.012861 -179.1436 -28.027792 -179.71796 -2.2312653 130.25313
28000000000 -0.22293991 94.960548 -27.57052 -179.60544 -27.792315 -178.82895 -2.4162261 122.95332
28100000000 -0.20142826 94.863937 -27.140755 178.0132 -27.444166 177.28368 -1.8285773 118.62472
28200000000 -0.24422868 94.420845 -27.115366 174.33177 -26.8127 170.96854 -1.9059455 122.70496
28300000000 -0.22804815 93.916847 -27.444662 175.40657 -26.316984 174.41541 -2.0192087 153.44615
28400000000 -0.24517049 93.716591 -27.016991 167.03102 -26.255985 164.19888 -0.47174647 116.05357
28500000000 -0.27605057 93.310982 -27.540718 166.54527 -27.282022 166.49397 -1.858924 106.8708
28600000000 -0.22501266 92.472664 -27.576309 166.07176 -27.858019 166.91832 -2.0429957 103.33862
28700000000 -0.22134987 92.486023 -27.56641 166.17152 -27.811325 165.90588 -2.0953856 98.963432
28800000000 -0.29680237 92.088776 -27.383751 165.55547 -27.435173 164.62706 -1.9335418 95.956825
28900000000 -0.26916316 91.687279 -27.028555 163.05017 -27.272558 163.09171 -2.0303092 93.567429
29000000000 -0.26773739 91.637375 -27.041534 159.61235 -27.254261 159.66557 -2.0637352 89.26432
29100000000 -0.34467348 91.107597 -27.239389 157.47536 -27.293858 156.64134 -1.9339345 85.841576
29200000000 -0.3028318 90.311897 -27.238911 156.34087 -27.447508 156.34799 -2.0307662 82.99942
29300000000 -0.27825773 90.53093 -27.190331 155.39125 -27.369356 155.83073 -2.0699275 79.089554
29400000000 -0.34446505 90.36525 -27.089626 154.00813 -27.26322 153.32568 -2.0017521 75.935028
29500000000 -0.24679784 89.756088 -27.039217 152.31351 -27.306761 152.42584 -2.0829961 73.186546
29600000000 -0.25952607 89.701645 -26.984701 150.93625 -27.20632 151.44077 -2.0764418 69.746788
29700000000 -0.36384106 89.100815 -26.885893 149.75235 -27.013464 148.55144 -1.9754609 66.85067
29800000000 -0.33016959 88.482544 -26.771622 147.50945 -26.91287 146.80432 -2.0050776 63.656578
29900000000 -0.30831325 88.862778 -26.704597 145.75296 -26.795792 146.03328 -1.9628193 60.066383
30000000000 -0.33861956 88.630348 -26.612993 143.98885 -26.787752 143.27986 -1.9527967 56.969124
30100000000 -0.23443341 88.094025 -26.524853 141.99106 -26.747129 141.8447 -2.045769 53.551674
30200000000 -0.23402266 87.790291 -26.455273 140.6534 -26.693579 140.95082 -1.9756559 50.21825
30300000000 -0.3587231 87.12262 -26.329639 139.32869 -26.525908 138.42999 -1.9409226 47.939198
30400000000 -0.33847353 86.642334 -26.179867 137.76347 -26.346088 136.83794 -2.0160892 44.698517
30500000000 -0.33939248 87.269623 -25.965122 135.73863 -26.115396 135.48917 -1.8703667 40.500786
30600000000 -0.36079788 86.779671 -25.774998 133.62021 -25.959604 133.21216 -1.8406994 38.185493
30700000000 -0.23058945 86.330978 -25.62524 130.9944 -25.922295 130.49864 -2.045861 34.112854
30800000000 -0.26415369 86.232903 -25.483877 128.0392 -25.724274 128.05769 -1.8901308 29.851164
30900000000 -0.36174312 85.029808 -25.390894 125.98156 -25.673565 125.37722 -1.8825414 28.382036
31000000000 -0.30445749 85.145805 -25.359095 123.61813 -25.562546 122.54285 -2.1418059 24.256203
31100000000 -0.44189179 85.551659 -25.229275 120.99622 -25.405079 120.35064 -1.8781669 19.96554
31200000000 -0.33194193 84.409561 -25.12134 118.45993 -25.360218 119.047 -1.9189066 18.530363
31300000000 0.037931874 84.511032 -25.020597 116.17241 -25.313011 115.02121 -2.2953598 13.306943
31400000000 -0.5906592 86.2062 -25.013428 112.75514 -25.134546 111.61705 -1.8994486 7.9609194
31500000000 -1.0493309 79.226219 -24.934494 109.32779 -24.80234 108.85716 -1.658999 7.7494397
31600000000 -0.36604509 75.489006 -24.925104 107.32883 -24.99682 107.47263 -2.0517132 3.5439348
31700000000 0.19948359 84.388939 -24.732651 105.44006 -25.105513 105.65748 -2.0341446 -1.18387
31800000000 -0.58622199 87.35437 -24.765226 103.37651 -25.021944 103.22915 -2.0827639 -3.2971864
31900000000 -0.56429356 81.651588 -24.706219 100.23233 -24.939819 99.377197 -2.3081894 -7.1151538
32000000000 -0.10304534 82.148628 -24.703495 97.684906 -25.113468 97.00782 -2.1813142 -11.871168
32100000000 -0.44437259 83.40316 -24.697876 95.188599 -24.938339 94.819939 -2.1712174 -14.274534
32200000000 -0.59640151 81.078377 -24.696289 92.660408 -24.914383 91.648293 -2.3619859 -18.481869
32300000000 -0.25314978 81.446793 -24.713305 90.162895 -25.042679 89.504723 -2.2539389 -23.1346
32400000000 -0.44661915 82.651474 -24.668301 88.514015 -24.933666 88.076797 -2.2874451 -26.01997
32500000000 -0.48102248 80.061241 -24.631746 85.476265 -24.947378 84.47094 -2.4882445 -30.49618
32600000000 -0.26838931 79.963371 -24.607428 83.008392 -25.003174 82.104362 -2.3820519 -34.875446
32700000000 -0.51450467 80.432663 -24.594639 80.729042 -24.888142 79.995323 -2.4314289 -37.469597
32800000000 -0.61469591 79.061783 -24.609209 78.360306 -24.845896 76.72718 -2.5891194 -42.07254
32900000000 -0.388385 79.38311 -24.595682 75.735016 -24.995274 74.608109 -2.4274406 -46.768513
33000000000 -0.47080448 80.402313 -24.604366 73.620491 -24.988991 72.977669 -2.4328458 -49.837612
33100000000 -0.54371494 78.293198 -24.685177 70.719574 -25.046425 69.453194 -2.6211452 -55.337646
33200000000 -0.39917848 78.204796 -24.733656 68.491997 -25.23221 67.745117 -2.5426414 -60.663303
33300000000 -0.60417175 78.406715 -24.772408 66.770447 -25.196222 65.87072 -2.6607561 -63.725727
33400000000 -0.66493094 77.46035 -24.836628 65.256577 -25.216133 64.06002 -2.9540656 -67.969055
33500000000 -0.50642061 78.056175 -24.851309 63.988655 -25.357275 63.204876 -2.7326372 -73.3974
33600000000 -0.55936861 79.103958 -24.680231 63.407284 -25.154577 62.791622 -2.6654334 -76.525993
33700000000 -0.54981673 77.731346 -24.494438 61.552204 -24.979336 61.199863 -2.8529701 -82.623924
33800000000 -0.36454725 77.690872 -24.290932 58.961834 -24.865662 59.108402 -2.7954392 -88.362503
33900000000 -0.50358254 77.780579 -24.006615 56.0471 -24.543116 56.48045 -2.9381564 -92.55706
34000000000 -0.49391299 76.11647 -23.84458 52.665352 -24.35771 53.177837 -3.1460214 -97.759514
34100000000 -0.3452231 76.261131 -23.805304 49.173946 -24.401648 50.012234 -3.1004245 -102.8439
34200000000 -0.45966601 76.755211 -23.734007 46.25845 -24.284636 47.16777 -3.0660985 -107.10122
34300000000 -0.52380627 75.600502 -23.819563 43.437138 -24.277908 44.186523 -3.1075649 -112.88712
34400000000 -0.36652192 75.854073 -23.849247 40.843338 -24.382057 42.4842 -3.108053 -118.66946
34500000000 -0.48684424 76.771614 -23.727985 38.021511 -24.202553 40.035664 -3.1770244 -124.1022
34600000000 -0.48497838 75.008156 -23.61208 33.808445 -23.99424 35.954346 -3.2577105 -129.57991
34700000000 -0.29513696 74.438766 -23.720694 29.959751 -24.102293 32.251022 -3.285598 -134.93031
34800000000 -0.3865937 74.874306 -23.829979 26.623587 -24.224998 28.603487 -3.275646 -139.99643
34900000000 -0.51946497 73.768333 -24.05216 23.572134 -24.325369 25.544678 -3.3195734 -145.58144
35000000000 -0.37357399 73.848396 -24.431089 21.766693 -24.650179 23.61175 -3.2766004 -150.91595
35100000000 -0.41527203 75.242325 -24.571707 20.692497 -24.782064 22.841305 -3.3016484 -156.35289
35200000000 -0.52854395 73.891464 -24.571842 19.370237 -24.688696 21.010099 -3.3424697 -162.07541
35300000000 -0.36156407 72.931633 -24.47731 18.367067 -24.63884 19.64921 -3.3079407 -167.16502
35400000000 -0.36996114 73.768967 -24.081493 15.554243 -24.299181 17.154158 -3.3398707 -171.80547
35500000000 -0.52314031 73.075912 -23.974573 10.299619 -24.101337 11.385851 -3.2517304 -177.40012
35600000000 -0.37042511 72.115273 -24.288874 5.2537074 -24.406895 6.0751176 -3.080761 177.23405
35700000000 -0.24657878 73.020912 -24.822634 2.3524566 -25.015755 3.3646502 -3.1516478 171.9017
35800000000 -0.44747862 72.312027 -25.340128 1.6740934 -25.485664 2.3082933 -3.2116158 165.41647
35900000000 -0.36280382 70.597267 -25.508991 1.9078089 -25.658823 2.2760444 -3.1478014 161.23058
36000000000 -0.32175756 71.407333 -25.497347 2.4342234 -25.795122 2.8598523 -3.1953094 157.68217
36100000000 -0.50878453 71.243317 -25.382483 2.0694563 -25.596853 2.6035264 -3.1652279 151.93694
36200000000 -0.46125895 69.822182 -25.133694 0.68194336 -25.297794 0.70368725 -2.9492884 147.03989
36300000000 -0.29420492 70.638756 -24.938175 -2.0516202 -25.215416 -1.3176428 -3.0075808 143.30453
36400000000 -0.4573268 70.577736 -24.953362 -4.8869596 -25.182823 -4.095026 -3.097434 137.6485
36500000000 -0.42449674 68.833435 -24.918682 -6.7361865 -25.167999 -6.2403493 -2.9052024 133.21445
36600000000 -0.28390634 69.546349 -24.701979 -8.8200092 -25.012125 -8.0607185 -2.9436595 130.1454
36700000000 -0.47438952 69.671478 -24.55414 -12.560196 -24.869089 -11.508302 -2.9793401 125.09367
36800000000 -0.38500762 67.740608 -24.788658 -16.099943 -25.041811 -15.637837 -2.6388214 121.09055
36900000000 -0.1984501 67.73185 -25.055641 -18.531763 -25.352486 -17.105024 -2.6151886 117.58723
37000000000 -0.46948829 67.956474 -25.162313 -19.543522 -25.397753 -17.784254 -2.645983 111.8453
37100000000 -0.54532003 65.829475 -25.051096 -21.001871 -25.263807 -19.778849 -2.5141196 108.00822
37200000000 -0.39512885 67.434067 -24.943504 -23.944258 -25.177624 -22.275446 -2.6277478 104.88998
37300000000 -0.62356132 68.574585 -25.020966 -26.321556 -25.201374 -24.483442 -2.5946345 100.11082
37400000000 -0.51292259 66.22995 -25.051331 -27.865499 -25.156555 -27.164425 -2.3781641 97.032501
37500000000 -0.2003985 66.588989 -24.977108 -30.417711 -25.177929 -29.583961 -2.5263631 93.758347
37600000000 -0.47310603 66.753464 -25.108599 -33.946102 -25.196804 -32.540737 -2.435303 89.103157
37700000000 -0.45048803 64.294746 -25.269579 -36.288578 -25.439917 -35.444328 -2.2377386 86.747765
37800000000 -0.251187 65.365593 -25.388922 -37.758591 -25.57699 -36.905247 -2.4275455 83.112495
37900000000 -0.53515691 66.638588 -25.471182 -39.352467 -25.562473 -38.221836 -2.278147 77.867653
38000000000 -0.54708993 64.21801 -25.471224 -40.924568 -25.573315 -40.352875 -2.1486907 76.293655
38100000000 -0.21371064 64.958252 -25.488348 -42.146469 -25.64562 -42.058029 -2.4300969 73.472961
38200000000 -0.49306127 66.011139 -25.465052 -44.526459 -25.581608 -44.077484 -2.2012699 68.068016
38300000000 -0.57799548 62.412228 -25.481735 -46.821434 -25.604914 -46.450123 -1.923079 66.863808
38400000000 -0.21368635 63.448921 -25.467131 -48.409416 -25.663239 -48.318909 -2.2862861 64.448647
38500000000 -0.57345051 65.185036 -25.572428 -50.687229 -25.684111 -50.492126 -2.1356237 58.095337
38600000000 -0.66575682 62.394238 -25.538578 -52.862255 -25.633812 -52.536674 -1.8445779 57.234455
38700000000 -0.19727288 62.893543 -25.564287 -54.681011 -25.760204 -54.603664 -2.1926482 54.594898
38800000000 -0.54227287 65.015923 -25.597906 -56.682789 -25.765547 -56.839237 -2.0968695 48.294491
38900000000 -0.69593829 61.164585 -25.587603 -59.15873 -25.746227 -59.256844 -1.8567743 47.878799
39000000000 -0.23631969 61.945938 -25.614189 -60.84478 -25.927101 -61.343468 -2.2761064 46.003113
39100000000 -0.52957308 63.877693 -25.790545 -63.438648 -26.020128 -63.562889 -1.9749762 40.479687
39200000000 -0.72010827 60.800823 -25.823416 -65.385521 -26.044233 -65.470291 -1.7223133 39.475014
39300000000 -0.31686524 60.965141 -25.896097 -66.7882 -26.155573 -67.16732 -2.1286988 36.309738
39400000000 -0.59158164 63.359467 -26.004295 -68.474815 -26.1758 -68.495041 -1.9722106 31.030317
39500000000 -0.7424168 60.610233 -26.002897 -70.749763 -26.227478 -70.877274 -1.8360995 30.318941
39600000000 -0.2828379 60.664478 -26.068676 -72.693413 -26.388962 -72.890617 -2.2335517 27.288967
39700000000 -0.45941368 62.396095 -26.200199 -74.056686 -26.536854 -74.1203 -2.0002406 22.978825
39800000000 -0.58292156 59.515858 -26.410189 -75.696518 -26.622969 -75.757828 -1.7807487 22.848562
39900000000 -0.28721246 59.246658 -26.450668 -76.897118 -26.78013 -77.232674 -2.0343106 19.14636
40000000000 -0.51428574 61.036594 -26.505512 -77.316719 -26.798727 -77.552818 -1.7892611 14.326611
