!Keysight Technologies,N5247B,MY61255062,A.19.80.06
!Date: Monday, May 18, 2026 12:58:49
!Correction: S11(Cdelta 2-Port  ) 
!S21(Cdelta 2-Port  ) 
!S12(Cdelta 2-Port  ) 
!S22(Cdelta 2-Port  ) 
!S2P File: Measurements: S11, S21, S12, S22:
# Hz S  dB   R 50
1000000000 -24.343168 23.886604 -0.39226046 -18.398539 -0.38571116 -18.382505 -24.640518 24.298655
1100000000 -23.975565 23.981323 -0.40061563 -20.188557 -0.39691862 -20.185732 -24.271875 24.68549
1200000000 -23.61894 24.006212 -0.41095755 -21.958395 -0.40572214 -21.952961 -23.926903 25.437757
1300000000 -23.271292 24.12845 -0.41597936 -23.763115 -0.41190806 -23.747606 -23.484762 24.95046
1400000000 -22.917528 24.0723 -0.42565498 -25.491787 -0.42234084 -25.488066 -23.176283 25.52635
1500000000 -22.627029 23.816631 -0.42906368 -27.268105 -0.42382094 -27.249613 -22.753391 25.102573
1600000000 -22.312057 23.146898 -0.43462774 -29.055393 -0.42844108 -29.029936 -22.509388 24.026222
1700000000 -22.018986 22.469856 -0.43726987 -30.804533 -0.4320561 -30.802797 -22.158949 23.70116
1800000000 -21.696251 21.50725 -0.43996632 -32.587299 -0.43488038 -32.575459 -21.846111 22.663361
1900000000 -21.419737 20.491579 -0.44255525 -34.36837 -0.43792978 -34.356606 -21.545109 21.805761
2000000000 -21.186914 19.89539 -0.44945759 -36.15834 -0.44390976 -36.153008 -21.299309 20.607014
2100000000 -20.937601 18.626513 -0.45223516 -37.929966 -0.44629076 -37.913277 -21.051861 19.955013
2200000000 -20.771822 17.801369 -0.45373869 -39.726295 -0.45125252 -39.713074 -20.847464 18.622154
2300000000 -20.563271 16.732172 -0.45923376 -41.492573 -0.45335537 -41.49551 -20.621859 17.843344
2400000000 -20.347208 15.591034 -0.46361697 -43.273815 -0.460603 -43.266037 -20.383123 16.831547
2500000000 -20.114384 14.47501 -0.4695814 -45.070671 -0.46221253 -45.056843 -20.185659 15.374786
2600000000 -19.949692 13.22241 -0.47426322 -46.858894 -0.4696013 -46.855427 -20.04892 14.362045
2700000000 -19.816618 12.338093 -0.48264736 -48.627934 -0.47719827 -48.599682 -19.929285 13.228808
2800000000 -19.705107 11.215527 -0.48801896 -50.389305 -0.48383129 -50.364525 -19.75094 11.954718
2900000000 -19.557131 10.362626 -0.49325079 -52.14716 -0.48812354 -52.121719 -19.594454 10.528283
3000000000 -19.350161 9.0450554 -0.49581829 -53.904434 -0.4907909 -53.880291 -19.435326 9.6757736
3100000000 -19.24358 8.2071857 -0.49960661 -55.671814 -0.49382067 -55.642544 -19.270931 8.535841
3200000000 -19.025986 6.7560234 -0.50154763 -57.429852 -0.49915183 -57.412045 -19.125328 7.622231
3300000000 -18.970543 5.4283128 -0.50427091 -59.203186 -0.49969229 -59.175755 -18.965576 5.9790092
3400000000 -18.863398 4.5271726 -0.50837421 -60.966106 -0.50464857 -60.958652 -18.905104 4.704175
3500000000 -18.792074 2.9701431 -0.51671225 -62.726429 -0.51018345 -62.710686 -18.769825 3.3975465
3600000000 -18.629227 1.7025232 -0.51773518 -64.470657 -0.51301938 -64.459198 -18.641544 2.203506
3700000000 -18.538567 -0.018494425 -0.51959825 -66.219025 -0.51365769 -66.206451 -18.469091 0.7279681
3800000000 -18.438574 -1.1768866 -0.51841825 -67.987404 -0.5138579 -67.968987 -18.364971 -0.77011836
3900000000 -18.293694 -2.8411977 -0.51939547 -69.759079 -0.51031333 -69.744873 -18.275742 -1.9889632
4000000000 -18.211288 -4.1736817 -0.52395844 -71.560463 -0.51722133 -71.539177 -18.217279 -3.2413511
4100000000 -18.085213 -5.7077575 -0.53011811 -73.334961 -0.52605879 -73.306824 -18.10792 -4.1222358
4200000000 -18.05307 -6.8611259 -0.53578806 -75.06134 -0.53121495 -75.043564 -18.025028 -5.973845
4300000000 -17.956427 -8.1513395 -0.53729177 -76.791534 -0.53192914 -76.765778 -17.983326 -7.4037576
4400000000 -17.914354 -9.2860193 -0.53793722 -78.545937 -0.53269517 -78.531181 -17.881968 -8.6890039
4500000000 -17.818619 -10.530086 -0.53800458 -80.303223 -0.53130978 -80.294708 -17.827442 -10.184468
4600000000 -17.786459 -12.005534 -0.537157 -82.073723 -0.53328961 -82.04641 -17.737261 -11.592362
4700000000 -17.76947 -13.588809 -0.5367074 -83.826828 -0.5328927 -83.822151 -17.699451 -13.130559
4800000000 -17.741764 -14.951734 -0.53765213 -85.604523 -0.53541553 -85.569618 -17.629326 -14.444747
4900000000 -17.703726 -16.453102 -0.53949356 -87.375076 -0.53574115 -87.359558 -17.619223 -16.179056
5000000000 -17.639235 -17.838074 -0.54009092 -89.135414 -0.5358882 -89.110832 -17.539366 -17.476574
5100000000 -17.547379 -19.188513 -0.54203695 -90.899223 -0.53795451 -90.882492 -17.475437 -18.938354
5200000000 -17.530281 -20.556917 -0.54201496 -92.65831 -0.53900999 -92.636467 -17.442066 -19.994192
5300000000 -17.509193 -22.120071 -0.54200852 -94.429031 -0.53869116 -94.399948 -17.482729 -21.461573
5400000000 -17.584669 -23.60033 -0.54439634 -96.19368 -0.54077989 -96.17704 -17.544626 -22.857935
5500000000 -17.560392 -25.058031 -0.5455808 -97.961418 -0.5417853 -97.952255 -17.522772 -24.914452
5600000000 -17.611277 -26.754494 -0.54758209 -99.738052 -0.5430336 -99.714401 -17.50901 -26.561197
5700000000 -17.510597 -28.044214 -0.54935431 -101.50668 -0.54617608 -101.46427 -17.373268 -28.201239
5800000000 -17.546022 -29.857124 -0.54896599 -103.24748 -0.54553676 -103.22425 -17.37117 -29.34417
5900000000 -17.552998 -30.77128 -0.5511058 -105.00108 -0.54481894 -104.98283 -17.372892 -30.285292
6000000000 -17.583815 -32.899372 -0.55031973 -106.74844 -0.54519808 -106.74699 -17.52659 -31.417555
6100000000 -17.665653 -33.988052 -0.54816711 -108.51563 -0.54106897 -108.48828 -17.615509 -32.957191
6200000000 -17.704134 -35.651363 -0.54403895 -110.29664 -0.54160994 -110.28025 -17.688999 -34.804245
6300000000 -17.776457 -36.570225 -0.54653597 -112.08553 -0.53977114 -112.06959 -17.562571 -36.580761
6400000000 -17.794224 -38.109711 -0.55222744 -113.82233 -0.54675174 -113.79696 -17.617823 -38.836029
6500000000 -17.951912 -39.523357 -0.54756391 -115.6168 -0.54257601 -115.58852 -17.699314 -38.906086
6600000000 -18.015049 -41.156937 -0.5490306 -117.3912 -0.54522657 -117.35934 -17.785242 -39.638763
6700000000 -18.153967 -42.658371 -0.55328548 -119.14088 -0.54926443 -119.12648 -17.933577 -40.846718
6800000000 -18.04777 -43.884319 -0.55384982 -120.90807 -0.54827106 -120.87259 -18.042456 -43.167999
6900000000 -18.057091 -45.715294 -0.54912108 -122.68018 -0.54582703 -122.64543 -18.038969 -44.548847
7000000000 -18.014292 -46.577057 -0.55136472 -124.47086 -0.54608685 -124.43897 -17.955332 -46.421864
7100000000 -18.175732 -48.28001 -0.55451417 -126.1932 -0.55052012 -126.14665 -18.024963 -47.010647
7200000000 -18.279404 -49.033142 -0.55101091 -127.92126 -0.54213488 -127.8868 -18.090242 -47.576012
7300000000 -18.354704 -50.823303 -0.53869671 -129.71599 -0.53397101 -129.68867 -18.333862 -48.811436
7400000000 -18.471045 -52.36702 -0.53606802 -131.5536 -0.53079784 -131.53062 -18.441519 -50.607483
7500000000 -18.510303 -54.025337 -0.54055238 -133.36859 -0.5359813 -133.34358 -18.440878 -52.798031
7600000000 -18.653957 -55.314369 -0.54309434 -135.0919 -0.53959584 -135.05685 -18.499237 -54.747372
7700000000 -18.716707 -56.50251 -0.540492 -136.87863 -0.53341776 -136.86418 -18.479588 -54.83952
7800000000 -18.806904 -58.158344 -0.53978783 -138.63887 -0.53587615 -138.62442 -18.635075 -55.193909
7900000000 -18.996946 -60.20314 -0.53956628 -140.44406 -0.53471226 -140.42073 -18.938419 -55.835957
8000000000 -19.17547 -61.505013 -0.53891033 -142.22955 -0.53264165 -142.20966 -19.209351 -58.212055
8100000000 -19.313622 -62.931492 -0.54026389 -144.04807 -0.53540385 -144.0108 -19.281502 -60.526649
8200000000 -19.437262 -63.834404 -0.54197621 -145.84383 -0.53780562 -145.81976 -19.196505 -62.754406
8300000000 -19.551338 -66.170692 -0.54503024 -147.62793 -0.54042017 -147.59145 -19.18854 -62.97934
8400000000 -19.822998 -68.612137 -0.55020428 -149.4232 -0.54360533 -149.37033 -19.484068 -62.918213
8500000000 -20.241634 -71.236259 -0.55389094 -151.20497 -0.54918951 -151.17064 -20.376505 -64.372192
8600000000 -20.746641 -70.70726 -0.58466083 -153.1071 -0.58009315 -153.07329 -21.851757 -72.754539
8700000000 -20.93737 -74.870796 -0.6527639 -154.18942 -0.64679086 -154.14268 -25.911932 -80.445732
8800000000 -21.389608 -72.130531 -0.52151465 -155.85379 -0.51326966 -155.83058 -25.195646 -71.091698
8900000000 -21.198082 -73.855179 -0.51193148 -157.98763 -0.50628906 -157.95412 -23.003323 -76.647278
9000000000 -21.356447 -75.763977 -0.51872599 -159.8882 -0.51289266 -159.86223 -21.460012 -79.536957
9100000000 -21.526262 -75.845261 -0.53131533 -161.72549 -0.52689779 -161.6936 -20.811726 -76.678734
9200000000 -21.75511 -77.167885 -0.53627801 -163.54941 -0.53222233 -163.50174 -20.657394 -72.712646
9300000000 -22.044762 -77.558899 -0.54520512 -165.28523 -0.54126132 -165.25972 -21.203602 -68.977654
9400000000 -22.330528 -80.328911 -0.54178971 -167.0307 -0.53762603 -167.01192 -21.826597 -69.081657
9500000000 -22.751688 -82.178047 -0.53842682 -168.83752 -0.53247482 -168.793 -22.650864 -71.699585
9600000000 -22.969221 -83.129852 -0.53845876 -170.64275 -0.53365284 -170.60141 -22.816921 -75.901047
9700000000 -23.348053 -83.989159 -0.54049313 -172.43668 -0.5358355 -172.40309 -22.910658 -77.875687
9800000000 -23.589348 -84.512962 -0.54216331 -174.23969 -0.53665113 -174.18916 -22.892298 -77.082237
9900000000 -24.182405 -86.668831 -0.54409003 -176.02003 -0.53540146 -176.00497 -23.282827 -74.983833
10000000000 -24.695654 -87.527458 -0.54461849 -177.83539 -0.53885639 -177.78601 -23.804607 -73.309502
10100000000 -25.217911 -88.927391 -0.54814303 -179.62978 -0.54200995 -179.58125 -24.791098 -73.987076
10200000000 -25.772192 -88.166916 -0.54947388 178.60004 -0.54334015 178.61604 -25.347584 -76.876495
10300000000 -26.234013 -88.277351 -0.55249053 176.77625 -0.55064356 176.81328 -25.695736 -80.402412
10400000000 -26.807707 -88.814415 -0.55899346 175.00084 -0.55311763 175.04256 -25.513451 -79.877014
10500000000 -27.382242 -90.447174 -0.55849266 173.22302 -0.55711079 173.24449 -25.619152 -77.378448
10600000000 -28.123615 -90.926353 -0.56625366 171.4337 -0.55940771 171.48631 -25.842455 -72.366791
10700000000 -28.796082 -90.354378 -0.56704497 169.66638 -0.5631541 169.72 -26.63891 -68.019043
10800000000 -29.879515 -88.910683 -0.56744796 167.89722 -0.5645892 167.93808 -27.570187 -63.263069
10900000000 -30.893545 -83.235672 -0.57144189 166.12756 -0.56751579 166.18367 -28.820225 -62.689983
11000000000 -31.873997 -82.413498 -0.57508934 164.34692 -0.56957269 164.39778 -29.468046 -61.772968
11100000000 -32.750923 -81.370934 -0.5788185 162.56918 -0.57488632 162.61916 -29.878675 -61.898701
11200000000 -33.818905 -80.523361 -0.5808621 160.80432 -0.57442272 160.83176 -29.591013 -58.082794
11300000000 -35.120819 -73.628044 -0.58457017 159.01149 -0.57868659 159.07333 -29.799063 -54.309254
11400000000 -35.720325 -62.234566 -0.58411533 157.25061 -0.58093488 157.30254 -29.448082 -47.963257
11500000000 -36.38459 -48.451046 -0.58779538 155.46931 -0.58109558 155.50554 -29.395405 -42.693623
11600000000 -36.543839 -36.918579 -0.58990163 153.6947 -0.58127874 153.73831 -29.355076 -35.163731
11700000000 -36.300755 -23.290552 -0.59208161 151.91974 -0.58373153 151.95857 -29.461971 -28.771116
11800000000 -36.351055 -12.870474 -0.59046388 150.1443 -0.59030819 150.17197 -29.074024 -23.130903
11900000000 -35.161907 -3.3784587 -0.59703881 148.36395 -0.59355122 148.40457 -29.188604 -18.16713
12000000000 -34.19622 5.0595884 -0.60259551 146.57164 -0.59688818 146.62431 -28.596266 -15.599433
12100000000 -32.557301 7.3149986 -0.60893363 144.82991 -0.60360914 144.85594 -28.533871 -13.976783
12200000000 -31.814892 7.8203406 -0.61252892 143.04755 -0.603787 143.08719 -27.958693 -13.541032
12300000000 -30.473419 9.6465387 -0.61567646 141.27698 -0.60930979 141.31989 -27.241703 -12.539478
12400000000 -29.819536 11.971535 -0.61975539 139.54008 -0.61242878 139.55246 -26.530251 -10.28512
12500000000 -28.620173 14.968966 -0.61855471 137.77509 -0.6177274 137.81044 -26.090536 -7.9306479
12600000000 -28.248129 14.595682 -0.62377381 136.02153 -0.61872035 136.0554 -25.532784 -6.5199881
12700000000 -27.433344 15.632983 -0.62302172 134.25104 -0.6202988 134.31383 -25.264618 -4.8386483
12800000000 -27.113791 13.90237 -0.62525785 132.53336 -0.61915559 132.55124 -24.805849 -4.96735
12900000000 -26.426966 13.692938 -0.62629586 130.76482 -0.61807925 130.77222 -24.591017 -4.3620672
13000000000 -25.772621 11.655055 -0.62362921 128.99643 -0.61706132 129.02231 -24.136148 -5.3836975
13100000000 -25.26952 14.178059 -0.62340176 127.23463 -0.61842036 127.26855 -23.847599 -5.0214105
13200000000 -24.640053 12.149586 -0.61963475 125.46679 -0.61614126 125.50926 -23.272568 -5.0140119
13300000000 -24.423004 13.232507 -0.61953473 123.67735 -0.61414772 123.7063 -22.901558 -5.5659537
13400000000 -23.667946 10.898251 -0.62117797 121.89591 -0.61262071 121.94132 -22.377769 -4.9712205
13500000000 -23.401693 11.594598 -0.62145215 120.1207 -0.61474681 120.15163 -22.040808 -4.7116675
13600000000 -22.786089 10.469775 -0.6192801 118.32935 -0.61526847 118.38155 -21.589468 -4.7354174
13700000000 -22.51037 9.8109503 -0.62173504 116.54245 -0.61643064 116.58624 -21.431244 -4.9388385
13800000000 -21.956463 9.2639084 -0.62099516 114.71894 -0.61966223 114.78315 -21.015425 -5.1683993
13900000000 -21.671871 6.5024929 -0.62938166 112.91779 -0.62421197 112.94609 -20.709507 -6.8153138
14000000000 -21.113798 5.4438396 -0.64133459 111.19915 -0.63851708 111.23381 -20.305584 -7.501802
14100000000 -21.056423 4.9878983 -0.63843673 109.45525 -0.63294929 109.50883 -20.227579 -8.5628567
14200000000 -20.619652 5.1263671 -0.63322335 107.6679 -0.63147587 107.73109 -19.819038 -8.5992966
14300000000 -20.420832 3.2866845 -0.63372499 105.87251 -0.62836915 105.91752 -19.653717 -9.8915634
14400000000 -20.066107 3.0336814 -0.63344437 104.06273 -0.63097352 104.12529 -19.198887 -10.617745
14500000000 -19.758154 0.20613594 -0.64036465 102.26435 -0.63733882 102.31504 -18.962652 -11.912354
14600000000 -19.31068 0.021717072 -0.64385486 100.47192 -0.64005715 100.52258 -18.613159 -11.500252
14700000000 -19.007702 -2.2757919 -0.65010196 98.692085 -0.64654845 98.735039 -18.399124 -12.296581
14800000000 -18.792622 -3.4601734 -0.65952402 96.868759 -0.66005677 96.94146 -18.251148 -12.480853
14900000000 -18.585827 -7.2590766 -0.68494648 95.116562 -0.67991221 95.194252 -18.252235 -14.941432
15000000000 -18.71174 -7.9761038 -0.67625642 93.56649 -0.66876 93.616478 -18.282463 -17.710388
15100000000 -18.305458 -8.9905195 -0.66167623 91.749306 -0.65688229 91.781334 -18.016954 -19.224485
15200000000 -18.181524 -9.2171116 -0.66082889 89.891922 -0.65800416 89.956696 -17.53866 -20.662474
15300000000 -17.760422 -11.639031 -0.67319405 88.085602 -0.6677652 88.135338 -17.167904 -21.097673
15400000000 -17.828096 -14.053509 -0.6809001 86.352104 -0.67961854 86.429657 -17.090996 -21.121948
15500000000 -17.425438 -15.943779 -0.67670959 84.567703 -0.67135578 84.623756 -17.101181 -20.982477
15600000000 -17.451658 -18.297714 -0.68688756 82.747833 -0.67973447 82.819298 -17.148296 -22.099884
15700000000 -17.091774 -19.324608 -0.69001484 80.986664 -0.68604195 81.055153 -17.09868 -25.278797
15800000000 -17.094196 -20.567657 -0.69484365 79.262184 -0.69222075 79.294754 -16.84243 -27.93996
15900000000 -16.826258 -21.119799 -0.70275778 77.469543 -0.69716477 77.53344 -16.551775 -30.320658
16000000000 -16.923166 -24.054951 -0.71003908 75.711456 -0.7040568 75.771736 -16.29129 -30.880669
16100000000 -16.729837 -25.350502 -0.71522075 73.979622 -0.71063173 74.036346 -16.13611 -31.668709
16200000000 -16.669003 -29.219843 -0.71910495 72.232941 -0.71890152 72.29155 -16.109854 -31.208857
16300000000 -16.503748 -29.594414 -0.72748488 70.507492 -0.719423 70.582451 -16.079626 -33.684052
16400000000 -16.300528 -32.059582 -0.73059899 68.772919 -0.7282697 68.805008 -16.08712 -34.42989
16500000000 -16.294514 -31.525141 -0.73874885 67.035934 -0.73435628 67.081833 -16.01738 -37.507893
16600000000 -16.216747 -33.440884 -0.73953819 65.334053 -0.73567981 65.371765 -15.891732 -38.33984
16700000000 -16.448004 -34.317673 -0.74657595 63.630085 -0.73927885 63.644402 -15.774568 -40.523479
16800000000 -16.372938 -37.283985 -0.7445997 61.923267 -0.7395876 61.941021 -15.79407 -40.051498
16900000000 -16.455269 -39.124683 -0.74193645 60.211662 -0.7325716 60.267849 -15.705793 -41.887199
17000000000 -16.067739 -40.334591 -0.73135281 58.461449 -0.72496027 58.518669 -15.829478 -42.480049
17100000000 -15.990248 -40.517094 -0.72198439 56.684006 -0.71706581 56.771095 -15.699337 -44.301147
17200000000 -15.823871 -39.78392 -0.71671039 54.931389 -0.71599758 54.961216 -15.776628 -45.156097
17300000000 -16.016279 -41.276749 -0.71571338 53.116917 -0.71436507 53.163635 -15.498227 -46.628403
17400000000 -16.068087 -43.386204 -0.71532756 51.299671 -0.71614194 51.346813 -15.512201 -46.823128
17500000000 -16.087715 -48.31731 -0.73664093 49.458855 -0.73299694 49.567734 -15.343138 -47.714802
17600000000 -15.900083 -50.174892 -0.74450445 47.88546 -0.74080437 47.923355 -15.669727 -49.522339
17700000000 -15.767789 -51.538937 -0.73264909 46.160217 -0.72340113 46.215393 -15.804116 -50.277462
17800000000 -15.721708 -49.733921 -0.72161883 44.369583 -0.72198319 44.415005 -15.867728 -53.247452
17900000000 -15.936568 -51.000065 -0.72667783 42.582115 -0.71461344 42.597305 -15.663133 -55.135342
18000000000 -16.208389 -52.581333 -0.71976179 40.778568 -0.72062284 40.816086 -15.458843 -56.681885
18100000000 -16.156107 -57.374626 -0.71831477 39.015133 -0.71965945 39.020363 -15.256656 -56.192791
18200000000 -15.980872 -59.378586 -0.72247475 37.230488 -0.71898371 37.281387 -15.323663 -55.706524
18300000000 -15.680355 -61.160355 -0.72482628 35.501926 -0.72525823 35.520798 -15.550184 -55.602699
18400000000 -15.857724 -60.614124 -0.73222136 33.726353 -0.72976047 33.761398 -15.963073 -57.355129
18500000000 -15.884483 -61.652527 -0.73033434 31.973961 -0.7274099 32.036163 -16.100199 -61.54282
18600000000 -16.181494 -63.300461 -0.72561646 30.196659 -0.72004074 30.228779 -15.857686 -65.346001
18700000000 -16.075077 -66.054932 -0.72044528 28.406258 -0.71783286 28.448601 -15.468975 -66.75985
18800000000 -16.098652 -68.599663 -0.72074842 26.635155 -0.71740043 26.727434 -15.136891 -65.705223
18900000000 -15.902929 -70.028893 -0.72032613 24.909702 -0.71704656 25.00139 -15.162897 -64.047577
19000000000 -16.031919 -72.11377 -0.72042358 23.207808 -0.71429121 23.304535 -15.677186 -62.648697
19100000000 -16.134567 -71.930786 -0.71970218 21.47047 -0.71618623 21.543507 -15.995063 -65.209084
19200000000 -16.256226 -73.742249 -0.72669071 19.713924 -0.71849406 19.759918 -16.514389 -68.957588
19300000000 -16.389013 -74.25975 -0.72375619 17.931931 -0.71676385 17.998341 -16.084726 -72.931618
19400000000 -16.473448 -76.82132 -0.72474247 16.174187 -0.71704322 16.249157 -16.004499 -73.766037
19500000000 -16.732813 -78.889496 -0.7153874 14.443017 -0.71441877 14.467746 -15.702945 -73.25058
19600000000 -16.622465 -81.841774 -0.71871704 12.6725 -0.71246082 12.704236 -15.955884 -72.041573
19700000000 -16.681784 -83.398308 -0.71727008 10.937535 -0.70689094 10.973085 -16.179678 -72.255157
19800000000 -16.646967 -83.520958 -0.71230614 9.1729164 -0.70906436 9.2011671 -16.719809 -74.999771
19900000000 -16.976582 -83.444534 -0.7098248 7.4353867 -0.70419109 7.4630728 -16.736145 -77.037102
20000000000 -17.443514 -85.29126 -0.70738661 5.6360073 -0.70422971 5.7151604 -16.812704 -79.865471
20100000000 -17.95183 -88.6698 -0.70284599 3.8871784 -0.69858468 3.9573467 -16.695005 -79.068474
20200000000 -17.88077 -93.393661 -0.70180565 2.1333709 -0.69128579 2.1796911 -16.919083 -78.739967
20300000000 -17.785332 -96.602142 -0.6950478 0.35700938 -0.68965435 0.39854881 -17.299858 -78.457588
20400000000 -17.748676 -95.673409 -0.68936098 -1.4175386 -0.68588555 -1.3670814 -17.709436 -81.995102
20500000000 -18.147717 -94.170944 -0.68559361 -3.2242236 -0.6833353 -3.1825767 -17.884573 -84.536812
20600000000 -18.687346 -93.796448 -0.69255352 -5.0782723 -0.68441367 -5.0096879 -17.71813 -87.165161
20700000000 -19.331541 -98.567047 -0.68725836 -6.8477697 -0.68365556 -6.8374162 -17.678112 -85.418243
20800000000 -19.464127 -102.49632 -0.68947291 -8.5900002 -0.68537444 -8.5442829 -17.53261 -83.900169
20900000000 -19.321318 -106.65738 -0.67771554 -10.358007 -0.67252672 -10.260766 -17.995619 -80.674019
21000000000 -19.246729 -106.72522 -0.67261106 -12.067187 -0.66716325 -12.072389 -18.728477 -81.938881
21100000000 -19.516579 -105.00565 -0.67079657 -13.870632 -0.66341418 -13.853056 -19.200586 -84.516991
21200000000 -20.275051 -104.41422 -0.67196643 -15.740349 -0.66388047 -15.656713 -19.691185 -89.398857
21300000000 -20.795362 -106.86821 -0.66561478 -17.572071 -0.66252947 -17.516438 -19.313244 -92.115692
21400000000 -21.438364 -111.43044 -0.67285252 -19.374989 -0.66285026 -19.348808 -19.201723 -89.71431
21500000000 -21.101637 -115.58488 -0.66125208 -21.257189 -0.65813249 -21.219856 -18.698931 -88.126183
21600000000 -21.508406 -117.46864 -0.67045552 -23.015018 -0.66111463 -22.946964 -19.15556 -83.028419
21700000000 -21.501156 -114.27876 -0.66531938 -24.775543 -0.66207445 -24.738995 -19.677549 -78.982399
21800000000 -22.412342 -111.59456 -0.67327142 -26.507153 -0.66775465 -26.45685 -21.044863 -79.46875
21900000000 -23.127764 -109.3597 -0.67988223 -28.202091 -0.67558533 -28.137297 -21.597511 -80.264687
22000000000 -24.332781 -114.26787 -0.6809873 -29.900927 -0.6792323 -29.882614 -21.848566 -89.748009
22100000000 -24.763927 -119.94483 -0.66302609 -31.761564 -0.66167021 -31.707327 -20.9986 -89.310799
22200000000 -24.950869 -128.95023 -0.66877574 -33.642597 -0.6645869 -33.617462 -21.021616 -88.682381
22300000000 -25.179785 -127.7094 -0.66752487 -35.523396 -0.65957946 -35.480286 -20.558994 -78.980766
22400000000 -25.916243 -121.51796 -0.6661703 -37.27911 -0.65381938 -37.227875 -21.684282 -74.372887
22500000000 -27.466715 -110.53474 -0.66849035 -39.095833 -0.6617772 -39.055534 -22.546339 -67.003944
22600000000 -29.876392 -106.66851 -0.67647183 -40.828407 -0.6665355 -40.787552 -23.953653 -72.851166
22700000000 -33.531387 -115.53463 -0.68464005 -42.552261 -0.67759663 -42.508152 -23.581022 -71.547638
22800000000 -32.435734 -142.4651 -0.67635083 -44.284096 -0.67143041 -44.25185 -23.080429 -80.399521
22900000000 -32.220325 -145.71436 -0.67238349 -46.207153 -0.67049992 -46.194233 -22.27079 -68.84404
23000000000 -31.642881 -121.60915 -0.68402582 -48.013294 -0.67702055 -47.993801 -22.258526 -66.525772
23100000000 -33.755302 -87.460999 -0.69274175 -49.801521 -0.6818946 -49.774887 -22.551764 -52.68681
23200000000 -34.381016 -46.732986 -0.69206774 -51.570396 -0.68457007 -51.551231 -23.977369 -53.974846
23300000000 -34.891655 6.2741618 -0.6925019 -53.44986 -0.68644363 -53.381844 -24.877909 -49.612617
23400000000 -37.336845 29.126396 -0.70070767 -55.196228 -0.6901086 -55.163307 -23.848391 -62.404385
23500000000 -41.371071 69.631966 -0.70277816 -57.001389 -0.69397646 -56.914631 -22.697634 -60.810833
23600000000 -44.604416 1.8451446 -0.70647639 -58.744526 -0.70296198 -58.673691 -20.914339 -58.60622
23700000000 -34.892433 -21.060486 -0.71548688 -60.497307 -0.70727205 -60.473164 -20.746956 -45.213207
23800000000 -30.240355 -16.254017 -0.72123861 -62.260555 -0.71806252 -62.182953 -21.224712 -39.077045
23900000000 -28.110168 1.4473029 -0.72653222 -64.041763 -0.71923357 -64.014076 -22.151995 -30.904848
24000000000 -27.239223 10.177119 -0.72292936 -65.855148 -0.72004193 -65.819382 -23.662138 -42.732342
24100000000 -28.510286 20.402811 -0.71518934 -67.631508 -0.71653789 -67.572792 -22.613329 -52.536766
24200000000 -29.372763 16.936096 -0.72093976 -69.371773 -0.709755 -69.311577 -20.888775 -55.484749
24300000000 -29.005791 4.0323195 -0.7130022 -71.159363 -0.70453113 -71.066971 -19.396109 -51.429073
24400000000 -25.941959 -4.5350552 -0.71391559 -72.850403 -0.70890737 -72.799896 -18.861368 -41.637421
24500000000 -24.508656 -4.8722472 -0.72526252 -74.587646 -0.71794277 -74.517075 -19.079676 -34.504425
24600000000 -23.130131 2.5107596 -0.73227316 -76.377754 -0.72426778 -76.314606 -19.887449 -29.989016
24700000000 -23.391027 5.1687732 -0.73020023 -78.148338 -0.7216289 -78.101692 -20.651062 -34.743759
24800000000 -23.83744 8.5338602 -0.72841543 -80.04052 -0.72544605 -79.981987 -20.721802 -43.942974
24900000000 -24.079453 -0.78715223 -0.72218066 -81.803123 -0.71712196 -81.745453 -19.481815 -47.532074
25000000000 -23.139809 -4.110599 -0.72285199 -83.597252 -0.71296471 -83.513916 -18.470169 -48.322277
25100000000 -21.475487 -11.370644 -0.71412098 -85.294556 -0.71362883 -85.220268 -17.679167 -40.605946
25200000000 -20.702541 -6.0531106 -0.71774274 -87.007874 -0.71622682 -86.959 -17.698298 -39.365944
25300000000 -19.82296 -5.6672134 -0.72552711 -88.813698 -0.72289819 -88.711052 -17.97496 -34.549999
25400000000 -20.411972 -2.278723 -0.74338341 -90.65303 -0.74158919 -90.617836 -18.161558 -41.140301
25500000000 -20.19331 -5.0980983 -0.74651754 -92.344894 -0.7423842 -92.297752 -18.028849 -39.583202
25600000000 -20.574541 -11.687134 -0.74848509 -94.162544 -0.73938656 -94.15638 -17.733694 -46.346413
25700000000 -19.619678 -14.04153 -0.73910636 -95.947029 -0.72823024 -95.871788 -17.022266 -42.93787
25800000000 -19.097139 -15.56781 -0.74575001 -97.707855 -0.73422015 -97.642105 -16.888741 -44.052933
25900000000 -18.344589 -13.908936 -0.74037522 -99.437904 -0.74370009 -99.41214 -16.425665 -42.278267
26000000000 -18.269373 -16.014467 -0.73306865 -101.21385 -0.73862582 -101.18921 -16.537916 -42.824913
26100000000 -18.149752 -14.579228 -0.74584097 -103.01684 -0.74039334 -102.92373 -16.417295 -44.104313
26200000000 -17.901838 -15.542127 -0.74880958 -104.7867 -0.74623471 -104.72247 -16.280855 -43.417656
26300000000 -17.707573 -18.083755 -0.76190907 -106.57217 -0.75235206 -106.53968 -16.472065 -47.118496
26400000000 -17.576139 -21.79483 -0.7593317 -108.41253 -0.75784677 -108.32627 -15.794634 -46.131901
26500000000 -17.387505 -23.829674 -0.76615763 -110.05318 -0.75708491 -110.05845 -15.890682 -48.711296
26600000000 -16.836567 -25.026819 -0.76332372 -111.82758 -0.75799161 -111.79798 -15.314137 -47.636013
26700000000 -16.567801 -24.649487 -0.78323179 -113.6173 -0.75637716 -113.57395 -15.2139 -48.661579
26800000000 -16.532196 -25.973354 -0.76099968 -115.35455 -0.7503292 -115.39468 -15.252554 -48.711388
26900000000 -16.569494 -27.48349 -0.76543075 -117.21696 -0.77602613 -117.06371 -15.408703 -50.057804
27000000000 -16.356129 -30.56119 -0.78152668 -119.03747 -0.77290064 -118.90041 -15.885952 -50.774387
27100000000 -16.231287 -35.386372 -0.7819528 -120.67986 -0.78429091 -120.63779 -15.192827 -56.320168
27200000000 -16.190664 -33.935238 -0.7764805 -122.53674 -0.78801364 -122.41401 -15.019047 -56.389072
27300000000 -16.034889 -36.286823 -0.79924768 -124.13438 -0.78132808 -124.13718 -14.351512 -55.650005
27400000000 -15.879173 -36.865501 -0.79827946 -126.01003 -0.80643469 -125.86456 -14.853045 -54.9034
27500000000 -15.991119 -40.037613 -0.80208671 -127.83604 -0.78659737 -127.76817 -14.688157 -54.70993
27600000000 -15.882102 -41.262352 -0.82117838 -129.66159 -0.78037184 -129.52917 -15.497355 -58.959949
27700000000 -15.678851 -44.51968 -0.79105127 -131.30376 -0.78141326 -131.24103 -15.000212 -61.855881
27800000000 -15.672922 -44.111706 -0.79066432 -132.96581 -0.780559 -132.97855 -14.819188 -65.528
27900000000 -15.645185 -46.734566 -0.78520763 -134.80103 -0.77723765 -134.73611 -13.98206 -64.20491
28000000000 -15.915897 -46.862534 -0.80342895 -136.57993 -0.78519088 -136.50275 -14.311617 -64.28907
28100000000 -15.627592 -50.419865 -0.80769962 -138.16524 -0.79497468 -138.34319 -14.34182 -61.3736
28200000000 -15.715365 -51.32518 -0.8276757 -139.98198 -0.81448966 -140.08307 -14.995999 -64.458466
28300000000 -15.040328 -53.715828 -0.81819934 -142.08305 -0.78311306 -141.95734 -14.895298 -67.418472
28400000000 -15.365412 -54.506447 -0.79926324 -143.74925 -0.80705684 -143.86296 -14.628468 -73.351242
28500000000 -15.297632 -54.70248 -0.81044221 -145.39438 -0.80194384 -145.40732 -13.938838 -69.312805
28600000000 -15.232397 -55.694115 -0.82053608 -147.30109 -0.80646646 -147.15257 -13.859926 -70.461594
28700000000 -15.390859 -56.311604 -0.79911917 -148.82838 -0.80831635 -148.79504 -14.251858 -66.195183
28800000000 -15.657736 -59.086395 -0.83334786 -150.677 -0.83473897 -150.65141 -14.943701 -69.090431
28900000000 -15.252267 -57.396832 -0.85687882 -152.30188 -0.82593715 -152.38687 -14.792964 -74.740997
29000000000 -14.910471 -64.796082 -0.84172195 -154.17615 -0.82686645 -154.31477 -14.42928 -78.41188
29100000000 -15.204509 -64.357918 -0.80599022 -156.21706 -0.7981407 -156.024 -13.552958 -78.674133
29200000000 -14.999178 -66.62191 -0.81149524 -157.79478 -0.82355869 -157.89746 -13.737869 -75.993118
29300000000 -15.158451 -62.717304 -0.8175028 -159.64005 -0.81683445 -159.52031 -13.918901 -71.275917
29400000000 -15.08008 -65.066933 -0.81033581 -161.35794 -0.79809994 -161.10921 -15.26967 -72.010468
29500000000 -16.026766 -67.907166 -0.83077383 -162.96596 -0.83184588 -162.77342 -15.400726 -75.428749
29600000000 -15.837621 -72.544106 -0.82856065 -164.77672 -0.83070046 -164.74452 -15.694862 -83.711235
29700000000 -15.931278 -74.531792 -0.84581095 -166.49135 -0.85249078 -166.49652 -14.611698 -82.859116
29800000000 -15.195776 -75.146019 -0.85579485 -168.19791 -0.84708464 -168.12181 -14.531945 -86.283173
29900000000 -15.423248 -77.482193 -0.81876814 -169.99544 -0.78997153 -169.89491 -13.826452 -79.190941
30000000000 -15.880823 -72.587502 -0.81611997 -171.98831 -0.84432358 -171.73285 -14.997637 -80.732834
30100000000 -16.396376 -75.525284 -0.84204656 -173.53369 -0.81865847 -173.49081 -15.313521 -76.654755
30200000000 -16.751579 -75.788223 -0.82557243 -175.2522 -0.83365613 -175.1234 -16.464422 -86.308685
30300000000 -16.391554 -87.047119 -0.83588135 -177.0961 -0.82710069 -177.0585 -16.015652 -84.275337
30400000000 -16.304066 -86.908989 -0.8153978 -178.82362 -0.82179457 -178.81143 -15.414579 -93.909721
30500000000 -15.982026 -86.787384 -0.80260801 179.41852 -0.8293649 179.64478 -15.288866 -86.591682
30600000000 -16.045364 -85.027634 -0.84133768 177.72379 -0.81954747 177.6713 -15.237612 -89.749908
30700000000 -16.483372 -88.418053 -0.80414909 175.84563 -0.81129336 175.96509 -15.817468 -83.330803
30800000000 -17.262541 -84.483727 -0.84282565 174.34286 -0.82194406 174.3009 -16.885908 -89.602974
30900000000 -17.334826 -90.135185 -0.82253093 172.5401 -0.82324326 172.4668 -16.701948 -85.213783
31000000000 -18.035231 -89.535858 -0.81758904 170.586 -0.82554924 170.70139 -16.600853 -93.459145
31100000000 -17.046007 -100.42348 -0.81962782 168.67509 -0.80598557 168.68518 -16.337561 -94.026436
31200000000 -16.874996 -100.28179 -0.7986173 166.95313 -0.79482114 167.11687 -15.88897 -89.61039
31300000000 -16.554951 -95.753113 -0.79104847 165.21149 -0.78298533 165.20773 -16.646183 -90.285393
31400000000 -17.603884 -90.08033 -0.77261269 163.63443 -0.80000079 163.65164 -16.863581 -89.083252
31500000000 -18.5424 -90.705994 -0.78603929 161.88309 -0.80404818 162.04868 -18.263626 -88.039032
31600000000 -20.577333 -101.01938 -0.81490034 160.15979 -0.81776994 160.08748 -18.221144 -95.468613
31700000000 -19.739061 -109.88358 -0.79845554 158.33408 -0.80767345 158.45427 -18.053658 -95.197136
31800000000 -18.77705 -109.88122 -0.82298046 156.33638 -0.80630875 156.48051 -17.526442 -98.023956
31900000000 -17.531954 -101.04443 -0.77590042 154.41614 -0.7882604 154.4733 -17.449755 -92.307808
32000000000 -19.136681 -99.076057 -0.7921111 152.85002 -0.79361397 152.92122 -17.56682 -91.501541
32100000000 -21.769567 -92.712631 -0.78400195 151.04066 -0.77795225 151.0582 -18.507624 -82.690865
32200000000 -24.004189 -112.69912 -0.75528473 149.21404 -0.77789003 149.4101 -19.871531 -88.683899
32300000000 -23.832794 -116.40003 -0.76925635 147.42549 -0.79525727 147.57118 -20.139431 -85.9907
32400000000 -21.143072 -119.61918 -0.77931184 145.65768 -0.76722652 145.84375 -21.669155 -99.29319
32500000000 -21.391321 -108.36223 -0.76900172 143.92116 -0.78791714 143.93463 -19.980047 -98.206108
32600000000 -21.808031 -106.57192 -0.75984967 142.10172 -0.77328229 142.20638 -19.472275 -97.558243
32700000000 -26.60281 -83.758667 -0.80279171 140.25975 -0.76530695 140.21368 -18.938358 -89.352425
32800000000 -26.210863 -95.859108 -0.7675218 138.61497 -0.75515383 138.49773 -18.744564 -76.860947
32900000000 -28.759335 -130.83749 -0.75231421 136.55371 -0.7532953 136.54013 -20.445511 -70.527809
33000000000 -26.153566 -122.64789 -0.75635248 134.93932 -0.75593936 135.04854 -22.407635 -69.128654
33100000000 -26.330355 -115.51432 -0.77671635 133.03343 -0.7631247 133.1786 -24.195641 -74.414986
33200000000 -25.416998 -96.076797 -0.76130813 131.24763 -0.76585901 131.33167 -20.483877 -83.399734
33300000000 -29.597694 -100.20266 -0.79694378 129.46692 -0.77493584 129.38826 -21.708305 -84.390251
33400000000 -31.921499 -80.724365 -0.76812667 127.72468 -0.75333625 127.91708 -18.910326 -76.486465
33500000000 -32.24799 -93.449753 -0.76336664 125.91415 -0.78042203 126.17321 -19.946709 -65.559952
33600000000 -31.545572 -76.576874 -0.76048523 124.29893 -0.73904222 124.30259 -19.991865 -61.237625
33700000000 -31.635756 -83.722069 -0.75946027 122.39315 -0.76827806 122.31001 -21.307814 -59.810341
33800000000 -32.310623 -80.590012 -0.77863169 120.37682 -0.78069842 120.54237 -21.405254 -63.80933
33900000000 -37.371578 -78.992439 -0.79855072 118.65024 -0.76935303 118.75619 -20.428722 -64.402412
34000000000 -32.450142 -33.705479 -0.75908965 116.89722 -0.76344627 117.05242 -20.276888 -52.740284
34100000000 -30.458906 -44.858845 -0.74464887 114.94758 -0.75668222 114.99905 -19.954512 -62.736694
34200000000 -27.427446 -20.523767 -0.76831114 113.33202 -0.7607156 113.37353 -19.368147 -41.586823
34300000000 -28.338291 -9.9047413 -0.77207214 111.36967 -0.80599707 111.3877 -20.664034 -57.459835
34400000000 -27.139347 -3.2573814 -0.76504576 109.81635 -0.80760801 109.7811 -20.697721 -47.881729
34500000000 -28.000437 -13.29559 -0.86039603 107.79572 -0.84952605 107.8866 -19.667759 -58.670349
34600000000 -26.22979 -1.6189693 -0.81688255 105.81371 -0.82870442 105.87586 -18.704802 -47.309948
34700000000 -23.609823 -1.8840426 -0.81555647 104.26664 -0.79479718 104.16066 -17.514629 -45.634583
34800000000 -23.606667 3.9972141 -0.84649479 102.46983 -0.80498433 102.40549 -18.262815 -33.058064
34900000000 -23.30411 -1.6470606 -0.80998176 100.58116 -0.83659691 100.4864 -18.666569 -31.786823
35000000000 -22.200039 2.4948344 -0.82834166 98.66713 -0.81557369 98.718742 -20.69091 -30.802517
35100000000 -20.107121 -5.2737784 -0.81582576 96.951256 -0.84215057 97.166931 -18.778811 -44.880695
35200000000 -19.706656 -0.45226318 -0.81820339 95.14595 -0.84043574 95.281456 -18.019863 -47.769711
35300000000 -19.172264 -6.3751287 -0.83395445 93.373543 -0.86130816 93.421028 -15.579809 -44.482677
35400000000 -19.933992 -0.1947885 -0.8484273 91.788696 -0.83329076 91.859848 -15.737495 -43.299374
35500000000 -18.667915 -6.2435498 -0.88042951 90.000267 -0.88712347 90.076752 -15.758348 -37.274101
35600000000 -20.244495 -8.6746836 -0.87999648 88.153816 -0.86313611 88.186996 -16.857628 -35.502377
35700000000 -19.410959 -12.95445 -0.89877701 86.319405 -0.86332208 86.1343 -17.108835 -41.726177
35800000000 -18.590082 -13.928826 -0.89014006 84.300591 -0.86868215 84.532547 -15.998615 -46.579594
35900000000 -17.655535 -9.6994781 -0.88077384 82.295723 -0.89835072 82.299553 -16.149513 -55.307198
36000000000 -16.840937 -12.527866 -0.89849621 80.735413 -0.90072304 81.096222 -14.403613 -44.577213
36100000000 -16.688717 -6.4876294 -0.91969019 78.967598 -0.9491204 79.1726 -15.201175 -44.581738
36200000000 -17.263802 -13.137991 -0.9148801 77.558586 -0.92757303 77.613411 -14.622391 -43.078159
36300000000 -18.17169 -9.1008129 -0.92483622 75.661896 -0.94124085 75.641624 -15.489714 -47.60804
36400000000 -18.360556 -20.794672 -0.91026616 73.85424 -0.92702276 73.709366 -14.620043 -51.10619
36500000000 -16.607513 -26.124359 -0.89723057 71.521561 -0.91591877 72.111618 -14.24688 -57.55114
36600000000 -14.750237 -31.314474 -0.85435951 70.525665 -0.88058645 70.273834 -12.791121 -47.305893
36700000000 -14.629344 -21.488153 -0.88905221 68.673325 -0.88661575 68.759911 -13.047466 -52.962433
36800000000 -14.234403 -15.073893 -0.95724559 67.240974 -0.97558516 67.142677 -13.159369 -41.089588
36900000000 -16.662426 -12.578083 -0.9600181 64.937996 -0.97377437 65.253365 -14.492449 -49.439182
37000000000 -16.075373 -23.874405 -1.0245568 63.14579 -1.0110258 62.878845 -14.771976 -49.672226
37100000000 -15.811402 -46.482925 -0.99391162 60.547981 -0.95570242 60.985283 -13.720887 -61.825645
37200000000 -13.835723 -37.025398 -0.98470074 59.274849 -0.95744759 59.463097 -12.968828 -60.125767
37300000000 -12.738817 -31.136507 -0.95234603 57.62537 -0.95022881 57.884071 -11.410531 -58.114513
37400000000 -12.613547 -25.706463 -0.96877456 56.236195 -0.91609937 56.420551 -11.643907 -51.665245
37500000000 -14.21415 -30.273813 -0.99434382 54.822636 -0.95410758 54.670635 -12.05336 -52.103756
37600000000 -15.534882 -35.279068 -1.0026745 52.97929 -0.98057073 52.99107 -13.226956 -48.540112
37700000000 -14.584166 -45.604191 -1.0238948 51.104816 -0.99682719 50.939018 -14.190244 -54.972466
37800000000 -13.183118 -42.771667 -1.0104952 49.168987 -1.0072355 49.353622 -13.036417 -64.551079
37900000000 -12.096425 -42.473934 -1.0174488 47.313335 -1.0081145 47.351173 -12.586141 -68.828903
38000000000 -12.902831 -39.336678 -1.0132519 45.589054 -1.038614 45.902523 -10.882372 -65.044449
38100000000 -13.352871 -42.402416 -0.99399889 44.021954 -0.99564064 44.063019 -11.399654 -59.962025
38200000000 -13.724851 -45.013622 -1.0366272 42.291096 -1.0021573 42.062878 -11.268044 -56.525723
38300000000 -13.052419 -48.303299 -1.0284323 40.609898 -0.99422795 40.840405 -12.985516 -55.402153
38400000000 -12.359777 -54.154778 -0.95990896 38.418022 -1.0207747 38.98851 -13.603533 -63.623562
38500000000 -12.16836 -54.509987 -1.0222347 37.208275 -1.0727737 37.083443 -13.054121 -71.819427
38600000000 -13.102032 -47.590172 -0.9736616 35.251999 -0.95109588 35.820541 -11.433426 -69.604034
38700000000 -12.148987 -50.723446 -1.010146 33.962128 -1.0436949 33.685635 -10.950968 -74.003471
38800000000 -12.786653 -56.35574 -1.0027733 32.104633 -0.99473506 32.433708 -11.387919 -64.145271
38900000000 -12.769219 -54.777103 -1.011148 30.32185 -1.0244552 30.268114 -12.213076 -70.017235
39000000000 -13.20262 -58.909821 -1.0390683 28.546759 -1.0269023 28.431141 -12.58525 -68.043907
39100000000 -12.800374 -61.61692 -0.98031896 26.559027 -1.0235785 26.413685 -12.254904 -84.844597
39200000000 -12.102565 -67.356339 -1.0313179 25.143576 -0.96755075 24.783115 -11.800462 -78.127632
39300000000 -11.598887 -61.684517 -1.0019532 22.904436 -1.0512663 23.038633 -10.6069 -81.036949
39400000000 -12.732527 -61.373493 -0.99720103 21.500574 -1.0475618 21.554344 -11.235535 -71.016289
39500000000 -14.363947 -55.587624 -1.0210242 19.411949 -1.0449529 19.695509 -11.867777 -76.240509
39600000000 -13.615416 -71.245613 -1.0235635 17.804977 -1.0177881 17.949076 -13.409966 -68.406815
39700000000 -13.312357 -81.761292 -0.98062456 15.466026 -0.99650443 15.926207 -13.492755 -89.009613
39800000000 -11.534756 -79.534309 -0.99459577 14.252098 -0.98584199 13.972273 -12.410394 -87.31633
39900000000 -12.004642 -68.035522 -0.97975612 12.102403 -1.043764 12.299037 -11.055489 -94.125427
40000000000 -11.989508 -67.60482 -0.98384607 10.464849 -0.91369689 11.601721 -10.511352 -81.134033
40100000000 -15.106839 -68.882957 -0.96686149 8.8220644 -0.99702322 8.912735 -11.317513 -76.296036
40200000000 -15.509448 -81.316978 -1.0399389 6.8007059 -1.0580353 7.3199334 -12.53225 -73.720695
40300000000 -13.999016 -97.444084 -1.0161061 4.9790902 -1.0030375 5.1521482 -13.411712 -78.39521
40400000000 -12.19113 -89.406792 -0.9727959 3.4213631 -0.99405676 3.7337532 -14.074393 -93.891876
40500000000 -12.283365 -79.795837 -1.0164679 1.9931703 -1.0438983 2.091948 -12.475441 -98.539436
40600000000 -12.401956 -71.345184 -0.96364772 0.074409947 -1.0049584 0.28617764 -11.789862 -93.254845
40700000000 -15.00879 -88.183014 -1.05871 -2.024909 -1.0910702 -1.5522783 -11.577935 -91.199471
40800000000 -15.092324 -87.413124 -1.0596991 -2.8034008 -0.99898803 -2.9392314 -11.892481 -80.597305
40900000000 -13.371802 -97.994873 -0.99906623 -5.1260843 -1.0091603 -4.9125772 -13.787146 -81.778351
41000000000 -12.045123 -96.508896 -0.99721956 -6.7997146 -0.97760576 -6.907495 -13.541638 -82.928459
41100000000 -12.716422 -97.312454 -1.0180957 -8.8911238 -1.0290627 -8.6607103 -13.992714 -101.67731
41200000000 -14.639462 -83.598816 -0.9440347 -10.000965 -0.97762233 -9.8840036 -13.367027 -94.236641
41300000000 -14.585247 -95.993759 -0.97622162 -11.519189 -0.98689198 -11.975106 -13.19283 -97.527306
41400000000 -15.202986 -100.32339 -0.99248815 -13.570333 -1.0054051 -13.498784 -12.920173 -88.127968
41500000000 -14.407169 -105.80285 -1.0084099 -15.517188 -0.9641338 -14.894729 -12.979322 -93.24408
41600000000 -14.232517 -97.190613 -0.99483663 -17.368715 -0.94159836 -17.404497 -14.230424 -86.453506
41700000000 -14.42845 -99.763687 -0.87233335 -18.747147 -0.95541406 -19.271065 -14.295115 -97.019745
41800000000 -15.343994 -106.85401 -0.96805179 -20.343527 -1.0080171 -20.403164 -14.972825 -91.190575
41900000000 -15.310567 -107.97169 -1.0231078 -22.721169 -0.94125468 -22.380983 -13.998108 -103.64286
42000000000 -15.539476 -101.68749 -0.96614265 -24.434113 -1.0149592 -24.445707 -14.402378 -90.486542
42100000000 -15.238523 -98.006416 -0.98748171 -25.755215 -0.9946999 -26.227985 -13.818707 -98.170113
42200000000 -17.493856 -108.47871 -0.92420268 -27.880243 -0.97532851 -27.835955 -15.708952 -84.21521
42300000000 -19.019897 -113.48956 -0.90962523 -29.626085 -0.91681451 -29.165049 -14.637415 -96.878151
42400000000 -17.439011 -131.36115 -0.93833286 -31.184097 -0.94169164 -30.655067 -17.235523 -96.204742
42500000000 -15.50063 -114.48215 -0.87036419 -33.169746 -0.91296089 -33.278591 -15.913169 -104.65426
42600000000 -15.162294 -109.28953 -0.89600098 -34.458874 -0.9175086 -34.880295 -17.416185 -97.584106
42700000000 -19.0357 -96.296394 -0.93344623 -36.836838 -0.97084415 -37.099472 -14.08604 -100.57059
42800000000 -21.776224 -96.329079 -0.97170138 -38.698666 -0.94761586 -38.273342 -15.823697 -98.029991
42900000000 -30.042894 -138.38882 -0.93125898 -40.952007 -0.90752399 -40.482651 -15.149966 -85.964287
43000000000 -21.22897 -149.29965 -0.95910311 -42.973995 -0.96685344 -42.45116 -15.581549 -82.233856
43100000000 -16.968584 -145.36642 -0.89419287 -44.636974 -0.85959834 -44.482342 -18.223598 -87.231781
43200000000 -16.76825 -115.92381 -0.93652177 -45.834332 -0.83400464 -46.079384 -19.815052 -90.914452
43300000000 -20.220003 -96.506615 -0.88645548 -47.824184 -0.79051 -47.580616 -18.653807 -105.07342
43400000000 -25.577229 -53.965828 -0.88283962 -48.953106 -0.75723344 -48.995583 -16.344084 -96.36657
43500000000 -47.038414 -27.860382 -0.89135909 -51.395901 -0.90901726 -51.419064 -15.277732 -98.160721
43600000000 -29.518661 159.53697 -0.90775847 -53.406792 -0.8510896 -52.933231 -15.505928 -76.539543
43700000000 -22.490877 -166.51395 -0.94991601 -55.510586 -0.88241649 -55.38451 -17.156065 -74.848038
43800000000 -21.569126 -140.49216 -0.93952274 -56.719112 -0.87052363 -56.533546 -17.935247 -58.82872
43900000000 -23.965605 -125.32367 -0.86040807 -59.301914 -0.90814549 -58.405121 -21.315655 -95.468994
44000000000 -25.837971 -51.298687 -0.74991328 -59.865112 -0.85288554 -60.241066 -18.557888 -78.486984
44100000000 -32.409607 5.0355296 -0.86862522 -62.202602 -0.84386206 -62.220024 -16.896271 -83.926811
44200000000 -25.825644 51.303703 -0.85777819 -64.51709 -0.90755236 -63.904564 -17.21768 -77.912071
44300000000 -44.566544 -89.419655 -0.90319705 -66.02935 -0.91019946 -65.852654 -16.320507 -69.499641
44400000000 -31.782145 -176.79179 -0.91813987 -67.542465 -0.86924845 -67.16317 -17.741825 -50.739876
44500000000 -26.026707 -113.64051 -0.89857799 -69.466713 -0.87083334 -69.085243 -17.13566 -75.239975
44600000000 -28.197285 -44.429947 -0.87212449 -71.640465 -0.89323151 -70.883339 -18.734674 -58.944397
44700000000 -22.210081 -5.473104 -0.93123943 -73.17234 -0.91621542 -72.985672 -16.182184 -77.187088
44800000000 -29.185562 50.574532 -0.84024632 -74.659386 -0.90201867 -74.991142 -15.073921 -52.334381
44900000000 -27.445576 51.140583 -0.93363589 -76.909966 -0.90622354 -76.895958 -14.668207 -66.113846
45000000000 -30.353975 41.37669 -0.94681352 -78.381172 -0.92817461 -78.824158 -17.389406 -44.433891
