!Keysight Technologies,N5247B,MY61255062,A.19.80.06
!Date: Monday, May 18, 2026 12:59:33
!Correction: S11(Cdelta 2-Port  ) 
!S21(Cdelta 2-Port  ) 
!S12(Cdelta 2-Port  ) 
!S22(Cdelta 2-Port  ) 
!S2P File: Measurements: S11, S21, S12, S22:
# Hz S  dB   R 50
1000000000 -24.144491 25.705587 -0.39125448 -18.484304 -0.38556632 -18.479963 -24.340359 25.388786
1100000000 -23.745646 25.737169 -0.39997357 -20.295731 -0.39549926 -20.280134 -23.946211 25.67823
1200000000 -23.411991 25.938377 -0.41020298 -22.075993 -0.40540212 -22.060976 -23.590017 26.288116
1300000000 -23.038618 26.059656 -0.4143157 -23.88562 -0.41049093 -23.872122 -23.139179 25.699564
1400000000 -22.697992 26.106131 -0.42711249 -25.63521 -0.42135724 -25.622339 -22.827091 26.211637
1500000000 -22.4048 25.660355 -0.42928311 -27.415092 -0.42355639 -27.406643 -22.418558 25.737204
1600000000 -22.082661 25.191393 -0.43484345 -29.205254 -0.4301919 -29.178528 -22.136951 24.668753
1700000000 -21.774012 24.636024 -0.43785018 -30.970947 -0.43285051 -30.957645 -21.773415 24.229462
1800000000 -21.448221 23.698448 -0.44177511 -32.762604 -0.43643171 -32.73806 -21.455666 23.182104
1900000000 -21.177422 22.929188 -0.44372627 -34.544838 -0.43890998 -34.523972 -21.143969 22.066957
2000000000 -20.91728 22.12326 -0.44816044 -36.348228 -0.4439522 -36.33947 -20.898474 20.842533
2100000000 -20.704496 20.945578 -0.45202056 -38.126007 -0.44753453 -38.117634 -20.645647 20.091785
2200000000 -20.514551 20.210629 -0.45435658 -39.927349 -0.45270199 -39.914524 -20.40481 18.709917
2300000000 -20.309359 19.155958 -0.45918486 -41.713295 -0.45604602 -41.70536 -20.184914 17.83654
2400000000 -20.109594 18.149126 -0.46431434 -43.490913 -0.46149996 -43.482483 -19.942991 16.645931
2500000000 -19.861814 16.969358 -0.46841002 -45.292973 -0.46456093 -45.284092 -19.745804 15.217377
2600000000 -19.7148 15.744905 -0.47508156 -47.093147 -0.47189659 -47.069294 -19.614714 14.068172
2700000000 -19.579887 14.860318 -0.48071563 -48.872704 -0.47966063 -48.855595 -19.499519 12.834644
2800000000 -19.45043 13.774568 -0.48772702 -50.64476 -0.48367935 -50.633743 -19.317192 11.451044
2900000000 -19.316944 13.177925 -0.49202341 -52.425713 -0.48915365 -52.395847 -19.135456 9.9913797
3000000000 -19.130928 11.818636 -0.49733698 -54.165138 -0.49305969 -54.148609 -19.008482 9.0201626
3100000000 -19.021078 11.01158 -0.49928543 -55.947823 -0.49746734 -55.928898 -18.816074 7.7364802
3200000000 -18.826036 9.5519152 -0.50226533 -57.714039 -0.49894103 -57.69532 -18.686188 6.5419064
3300000000 -18.770998 8.2251816 -0.50687784 -59.485851 -0.50013113 -59.47657 -18.533377 4.9313722
3400000000 -18.678598 7.4847569 -0.51104414 -61.273914 -0.5056771 -61.269897 -18.4953 3.5173321
3500000000 -18.604797 5.8784518 -0.51714289 -63.051376 -0.5116213 -63.030891 -18.349747 2.1530533
3600000000 -18.456141 4.6906357 -0.51978874 -64.773094 -0.51457268 -64.763504 -18.234392 0.82372117
3700000000 -18.374941 2.9962018 -0.52036065 -66.532738 -0.51641428 -66.523376 -18.043991 -0.66049749
3800000000 -18.279221 1.8489478 -0.51949757 -68.322372 -0.5148198 -68.308472 -17.965212 -2.4121034
3900000000 -18.146055 0.23784256 -0.52059877 -70.104073 -0.51627928 -70.094131 -17.877731 -3.67542
4000000000 -18.080204 -1.0994263 -0.52258307 -71.912689 -0.5198521 -71.895149 -17.842712 -5.0164318
4100000000 -17.969044 -2.6602044 -0.53162456 -73.698814 -0.52601177 -73.670448 -17.73888 -6.0361018
4200000000 -17.937195 -3.7847905 -0.53514117 -75.427063 -0.53268993 -75.412834 -17.654907 -7.9198895
4300000000 -17.856943 -4.976604 -0.53636616 -77.160835 -0.5299502 -77.156822 -17.627466 -9.3664637
4400000000 -17.818602 -6.1169686 -0.53684127 -78.924713 -0.53202307 -78.909683 -17.531958 -10.938853
4500000000 -17.750921 -7.3755698 -0.53628969 -80.692146 -0.53295827 -80.682854 -17.487713 -12.421162
4600000000 -17.73457 -8.7967529 -0.53593153 -82.46344 -0.53483373 -82.463165 -17.413097 -13.936975
4700000000 -17.737623 -10.326755 -0.53470582 -84.237465 -0.53213894 -84.220993 -17.385092 -15.557581
4800000000 -17.711361 -11.587671 -0.53500062 -86.017426 -0.53049624 -85.996674 -17.335962 -17.043255
4900000000 -17.692043 -13.161555 -0.53730202 -87.796761 -0.53323835 -87.784218 -17.351576 -18.917276
5000000000 -17.64871 -14.442976 -0.53972131 -89.567566 -0.53642064 -89.542999 -17.27586 -20.115055
5100000000 -17.578932 -15.826444 -0.53979075 -91.352562 -0.53602821 -91.320419 -17.223764 -21.734545
5200000000 -17.579321 -17.176168 -0.53954631 -93.116928 -0.53579128 -93.096924 -17.217855 -22.814054
5300000000 -17.576159 -18.755035 -0.5365079 -94.899979 -0.5353719 -94.872375 -17.26615 -24.408892
5400000000 -17.672285 -20.120924 -0.53953928 -96.682274 -0.53586185 -96.661896 -17.346218 -25.963692
5500000000 -17.676655 -21.661634 -0.54090357 -98.46032 -0.53751528 -98.438744 -17.34798 -28.070278
5600000000 -17.751375 -23.303297 -0.54262173 -100.21809 -0.5389657 -100.19859 -17.367334 -29.704268
5700000000 -17.670671 -24.576235 -0.54468948 -101.98634 -0.53806758 -101.9856 -17.23373 -31.622288
5800000000 -17.723408 -26.426138 -0.54280627 -103.76402 -0.53968382 -103.73616 -17.254477 -32.681984
5900000000 -17.75547 -27.340872 -0.54483974 -105.52935 -0.53837699 -105.50887 -17.288925 -33.73534
6000000000 -17.820374 -29.421623 -0.54182756 -107.29663 -0.53885758 -107.28092 -17.469429 -35.060867
6100000000 -17.907993 -30.545351 -0.54162258 -109.05779 -0.53536165 -109.05183 -17.57888 -36.539711
6200000000 -17.966148 -32.276249 -0.5395897 -110.85769 -0.53456438 -110.83344 -17.653843 -38.690224
6300000000 -18.075569 -33.166073 -0.53936106 -112.65371 -0.53471369 -112.6352 -17.569611 -40.502769
6400000000 -18.123146 -34.728565 -0.54552209 -114.39873 -0.5405075 -114.37904 -17.639523 -42.882668
6500000000 -18.31546 -36.092678 -0.54155952 -116.20464 -0.53675276 -116.18169 -17.789551 -43.028599
6600000000 -18.409277 -37.916348 -0.54294062 -117.98598 -0.54090035 -117.97418 -17.891634 -43.903946
6700000000 -18.613489 -39.355305 -0.54770219 -119.73418 -0.54285729 -119.72264 -18.090458 -45.192738
6800000000 -18.524466 -40.672962 -0.5453648 -121.49504 -0.5407353 -121.491 -18.229351 -47.530334
6900000000 -18.589914 -42.519215 -0.54099858 -123.27578 -0.53682983 -123.25762 -18.264233 -48.972111
7000000000 -18.57707 -43.386597 -0.54127038 -125.09527 -0.53660899 -125.06631 -18.209072 -50.789898
7100000000 -18.773781 -44.880222 -0.54316092 -126.8231 -0.53971106 -126.79678 -18.320335 -51.232224
7200000000 -18.912939 -45.811852 -0.53963071 -128.57465 -0.53409743 -128.55167 -18.454109 -51.937176
7300000000 -19.042501 -47.674747 -0.52704477 -130.38098 -0.52225173 -130.34634 -18.750446 -53.356449
7400000000 -19.211138 -49.243645 -0.52274895 -132.23734 -0.5205667 -132.20369 -18.902197 -55.233406
7500000000 -19.288305 -51.06992 -0.5321641 -134.07224 -0.52858818 -134.048 -18.939007 -57.387177
7600000000 -19.475031 -52.115154 -0.5294013 -135.78694 -0.52671689 -135.75975 -19.032463 -59.09029
7700000000 -19.566536 -53.403282 -0.52858466 -137.61966 -0.5246793 -137.57922 -19.073017 -59.144344
7800000000 -19.741755 -55.33812 -0.53006017 -139.38861 -0.5255872 -139.36104 -19.307091 -59.643261
7900000000 -19.988867 -57.401627 -0.52918112 -141.20584 -0.52482182 -141.16058 -19.651587 -60.400444
8000000000 -20.200779 -59.115219 -0.53436327 -143.01756 -0.52948231 -142.96507 -19.95459 -62.971668
8100000000 -20.528502 -61.092621 -0.54194605 -144.75336 -0.53675044 -144.7258 -20.203878 -66.113022
8200000000 -20.841137 -61.48938 -0.53495234 -146.49854 -0.52797103 -146.44716 -20.254906 -67.628189
8300000000 -21.012197 -62.989304 -0.51949292 -148.29428 -0.51701838 -148.25363 -20.3253 -66.716179
8400000000 -21.324301 -64.783966 -0.51390827 -150.14233 -0.51004082 -150.0983 -20.70801 -65.465012
8500000000 -21.711071 -67.109093 -0.51507163 -152.04129 -0.50920075 -152.01898 -21.649534 -66.44381
8600000000 -22.149717 -66.541924 -0.55175155 -154.02866 -0.54638422 -154.00363 -23.189859 -75.841805
8700000000 -22.478081 -72.308281 -0.62704736 -155.15128 -0.62699986 -155.1357 -27.578535 -89.32811
8800000000 -23.085028 -69.327797 -0.50510538 -156.78741 -0.50199419 -156.76869 -27.611933 -78.367462
8900000000 -22.876427 -71.831451 -0.49966848 -158.98328 -0.49717185 -158.95547 -24.604153 -81.538109
9000000000 -23.156479 -74.609123 -0.51476473 -160.87625 -0.50998318 -160.83859 -22.903934 -84.233162
9100000000 -23.569059 -74.784203 -0.52873552 -162.67027 -0.52900308 -162.65041 -22.322048 -80.680992
9200000000 -23.925615 -75.321381 -0.52849138 -164.46082 -0.52458817 -164.42693 -22.344032 -74.503059
9300000000 -24.322485 -75.649887 -0.53492683 -166.23372 -0.53076243 -166.1904 -23.019352 -69.114082
9400000000 -24.731201 -79.584282 -0.53218454 -167.98984 -0.52840108 -167.9733 -23.825226 -68.641121
9500000000 -25.441408 -81.445549 -0.52627385 -169.82126 -0.52553403 -169.77077 -24.971746 -70.924965
9600000000 -25.814856 -82.867493 -0.52973497 -171.62535 -0.52456301 -171.58089 -25.259838 -75.350288
9700000000 -26.428267 -83.624901 -0.53041905 -173.43282 -0.5242365 -173.40318 -25.431868 -76.987251
9800000000 -26.874544 -84.282043 -0.53153151 -175.24959 -0.52537543 -175.22162 -25.378942 -74.803177
9900000000 -27.844017 -87.148094 -0.53304464 -177.04791 -0.52822685 -177.02599 -25.938107 -70.350349
10000000000 -28.729229 -88.163826 -0.53724635 -178.8754 -0.5322454 -178.84958 -26.576471 -66.028168
10100000000 -29.641397 -91.160988 -0.53947425 179.31902 -0.53311604 179.3699 -28.020258 -64.2715
10200000000 -30.726067 -88.830231 -0.54497623 177.53908 -0.53693938 177.55081 -28.866379 -65.640099
10300000000 -31.643356 -88.582726 -0.54827487 175.70973 -0.54424173 175.74254 -29.451513 -68.368637
10400000000 -32.864853 -88.898407 -0.55210572 173.91051 -0.54661405 173.9444 -29.014771 -65.952652
10500000000 -34.178703 -92.584259 -0.55733562 172.12775 -0.55534863 172.14296 -28.906202 -61.052547
10600000000 -36.31562 -94.570885 -0.56021607 170.32561 -0.55249405 170.37128 -28.638718 -51.378056
10700000000 -38.463299 -90.931374 -0.56399965 168.53935 -0.55819273 168.5849 -29.100605 -42.09573
10800000000 -42.799366 -83.294868 -0.56735355 166.78423 -0.56398702 166.82678 -29.393002 -31.449247
10900000000 -45.916847 -39.330486 -0.56824273 164.98961 -0.56754261 165.03246 -30.253429 -24.542593
11000000000 -47.140656 -0.66195041 -0.57126594 163.21118 -0.56707299 163.22801 -30.37463 -20.371721
11100000000 -45.265976 36.005081 -0.5740844 161.40837 -0.57248753 161.436 -30.422466 -19.105011
11200000000 -42.360867 51.895218 -0.57955563 159.63846 -0.57393932 159.66574 -29.530676 -16.87554
11300000000 -38.408611 55.897087 -0.58407801 157.85461 -0.57850468 157.88162 -28.891348 -14.603643
11400000000 -36.322933 50.974518 -0.58587229 156.06375 -0.58154929 156.09306 -27.868267 -11.375698
11500000000 -33.941593 51.112522 -0.58797497 154.26877 -0.58148444 154.31462 -27.197033 -8.9858408
11600000000 -32.610657 51.636154 -0.59070528 152.50063 -0.58524251 152.508 -26.516172 -4.5684981
11700000000 -31.272257 51.308598 -0.5941478 150.70732 -0.59120059 150.71628 -26.007772 -1.9120464
11800000000 -30.201723 53.166542 -0.59494007 148.92226 -0.59027201 148.95296 -25.436152 -0.015867533
11900000000 -29.228167 52.040573 -0.60167432 147.12395 -0.59857607 147.15775 -25.143934 1.8088019
12000000000 -28.370546 51.753685 -0.60886157 145.32086 -0.60214382 145.37254 -24.608253 1.6079966
12100000000 -27.484539 48.874874 -0.61177933 143.5668 -0.60861641 143.60193 -24.383272 1.4697117
12200000000 -27.09284 47.08453 -0.61930454 141.78745 -0.61270571 141.81662 -23.87051 -0.21657704
12300000000 -26.278166 44.307163 -0.62143838 140.00778 -0.61686981 140.04106 -23.343725 -0.78550667
12400000000 -25.769955 43.834656 -0.62806761 138.24876 -0.62187123 138.25858 -22.795855 -1.2651668
12500000000 -24.842869 42.826115 -0.63190365 136.46765 -0.6270752 136.50952 -22.368105 -0.91665059
12600000000 -24.537704 41.502048 -0.63694191 134.71669 -0.62791926 134.73633 -21.897654 -1.4274089
12700000000 -23.993439 40.413116 -0.63862145 132.93559 -0.63509405 132.98856 -21.66061 -1.4002738
12800000000 -23.890259 38.26572 -0.64011985 131.18581 -0.63524836 131.22482 -21.276913 -2.7845812
12900000000 -23.395863 36.899055 -0.63993955 129.42152 -0.63761222 129.45618 -21.121162 -3.098135
13000000000 -23.050457 33.768288 -0.64226276 127.67194 -0.63959193 127.68882 -20.742508 -4.8287315
13100000000 -22.579649 34.139076 -0.64372033 125.91302 -0.63963813 125.92863 -20.55545 -5.9167752
13200000000 -22.19483 31.842756 -0.64692038 124.13829 -0.64167517 124.1653 -20.133493 -6.6535888
13300000000 -21.997383 32.170559 -0.64724636 122.38313 -0.63858908 122.38198 -19.881565 -8.1697311
13400000000 -21.522655 29.268967 -0.64461148 120.60085 -0.63618332 120.63023 -19.520826 -8.4717932
13500000000 -21.313343 29.20299 -0.64406985 118.84036 -0.63740957 118.8661 -19.27158 -9.0574684
13600000000 -20.884203 27.386826 -0.64250493 117.04243 -0.63743532 117.07219 -18.983448 -9.6788254
13700000000 -20.702385 26.46303 -0.64060879 115.23093 -0.64076483 115.28672 -18.869556 -10.600388
13800000000 -20.232973 25.285189 -0.64344865 113.44477 -0.64133817 113.48637 -18.59506 -11.342062
13900000000 -20.1064 22.600674 -0.65052742 111.6126 -0.64751166 111.67656 -18.41044 -13.182465
14000000000 -19.672581 21.278885 -0.65676671 109.91064 -0.65325159 109.94343 -18.117228 -13.975313
14100000000 -19.579897 20.455486 -0.65602601 108.14554 -0.65329343 108.19923 -18.026943 -15.416509
14200000000 -19.220264 19.906496 -0.65460187 106.35157 -0.65128249 106.40424 -17.740971 -16.002144
14300000000 -19.137083 18.072903 -0.65575141 104.56042 -0.65109158 104.6078 -17.64213 -17.786064
14400000000 -18.847139 17.439133 -0.65480745 102.77403 -0.65378207 102.81174 -17.333965 -18.692818
14500000000 -18.642443 14.685286 -0.66163975 100.95548 -0.65435869 101.01764 -17.165449 -20.175518
14600000000 -18.222883 13.719365 -0.6636036 99.169365 -0.65980875 99.209084 -16.940557 -20.11525
14700000000 -18.017836 11.032747 -0.67096907 97.339394 -0.66607106 97.368675 -16.785887 -21.233261
14800000000 -17.918602 8.8126402 -0.69644511 95.551567 -0.69073224 95.602051 -16.688772 -22.44644
14900000000 -18.047791 6.410532 -0.69643694 93.990395 -0.69532305 94.023964 -16.885075 -24.98103
15000000000 -17.943659 6.4117274 -0.67892629 92.255035 -0.67509145 92.280205 -16.816599 -26.851822
15100000000 -17.627405 4.3524704 -0.67343527 90.422722 -0.66765922 90.462585 -16.60783 -28.76247
15200000000 -17.490675 3.8655615 -0.67599934 88.547874 -0.66957897 88.601997 -16.204481 -30.020247
15300000000 -17.169334 0.61340559 -0.6935516 86.742699 -0.68967044 86.782341 -15.930784 -30.868956
15400000000 -17.371428 -0.67144209 -0.68970168 85.064148 -0.68850189 85.12912 -15.996165 -30.979334
15500000000 -16.99464 -3.5957668 -0.69290936 83.212433 -0.68386853 83.265625 -16.017187 -31.417767
15600000000 -17.135674 -6.4298196 -0.7095983 81.39344 -0.70667803 81.452141 -16.090145 -33.126278
15700000000 -16.865679 -7.8905778 -0.7170499 79.670685 -0.7150566 79.730263 -16.091272 -36.637436
15800000000 -16.980516 -8.8192072 -0.71895009 78.022873 -0.71290946 78.060242 -15.916983 -39.268528
15900000000 -16.811136 -9.4828987 -0.72139722 76.293686 -0.71888167 76.351479 -15.715691 -41.484875
16000000000 -17.051252 -11.543787 -0.71463633 74.614365 -0.70737809 74.670334 -15.614347 -41.719273
16100000000 -16.874718 -12.356894 -0.70665431 72.84124 -0.70226997 72.910278 -15.555378 -42.213081
16200000000 -16.891043 -15.697499 -0.70067608 71.075928 -0.69762981 71.117279 -15.641627 -41.812069
16300000000 -16.711576 -16.222818 -0.69886506 69.318344 -0.69605529 69.335419 -15.611876 -43.9119
16400000000 -16.551689 -18.526396 -0.70015836 67.525261 -0.69624519 67.550583 -15.670986 -44.709599
16500000000 -16.467587 -17.786421 -0.69522732 65.751549 -0.69287658 65.780624 -15.611707 -47.673527
16600000000 -16.374754 -19.714128 -0.69632602 63.951813 -0.68947083 63.993668 -15.52985 -48.182365
16700000000 -16.556152 -20.280254 -0.69904596 62.162582 -0.69184554 62.214355 -15.399816 -50.12656
16800000000 -16.493895 -23.566799 -0.69512922 60.38213 -0.69372439 60.422817 -15.475585 -49.815556
16900000000 -16.639982 -25.723108 -0.69626921 58.608746 -0.69533551 58.648815 -15.349761 -51.575432
17000000000 -16.257879 -28.145998 -0.69731218 56.833511 -0.69552082 56.87883 -15.531996 -52.707363
17100000000 -16.192389 -28.550276 -0.69693929 55.060215 -0.70049936 55.093956 -15.38198 -54.668171
17200000000 -16.053371 -28.465286 -0.69591516 53.249786 -0.69824296 53.312145 -15.532458 -56.195538
17300000000 -16.332989 -29.765589 -0.70276201 51.490509 -0.70106906 51.534 -15.333949 -57.479717
17400000000 -16.529921 -31.963821 -0.70372868 49.702839 -0.70261413 49.770927 -15.479266 -57.970589
17500000000 -16.726994 -36.125084 -0.70809191 47.943062 -0.70474696 47.99284 -15.473597 -58.420235
17600000000 -16.471567 -38.532604 -0.70811355 46.147011 -0.70450801 46.207333 -15.718871 -59.896244
17700000000 -16.342264 -40.434555 -0.71755284 44.412354 -0.70754319 44.441296 -15.82017 -61.489632
17800000000 -16.302504 -39.368732 -0.71461833 42.62112 -0.71180111 42.684895 -15.922893 -65.155304
17900000000 -16.630081 -40.525261 -0.72232127 40.882339 -0.71674401 40.912563 -15.804473 -67.127815
18000000000 -17.09868 -41.80809 -0.72623909 39.150948 -0.72064513 39.183338 -15.740938 -68.76461
18100000000 -17.251486 -46.263023 -0.70990068 37.396931 -0.70454085 37.427017 -15.695866 -67.564201
18200000000 -17.09141 -48.583942 -0.70761418 35.609451 -0.69953704 35.667141 -15.868879 -66.870277
18300000000 -16.791094 -50.938641 -0.70350373 33.844524 -0.70211506 33.86134 -16.225424 -66.540619
18400000000 -16.972393 -50.029495 -0.71150804 32.086067 -0.7105363 32.128777 -16.690907 -69.003593
18500000000 -17.052073 -50.762959 -0.70143932 30.336102 -0.70227057 30.371683 -16.785172 -73.587288
18600000000 -17.452049 -52.064034 -0.70058542 28.526922 -0.69619411 28.546532 -16.533686 -77.285881
18700000000 -17.41221 -55.68515 -0.69284195 26.707945 -0.69351059 26.765003 -16.218273 -78.115112
18800000000 -17.579016 -58.470982 -0.69196576 24.959373 -0.68848884 24.978189 -15.996155 -76.2761
18900000000 -17.401463 -60.130219 -0.68915075 23.193903 -0.68463492 23.226912 -16.178734 -74.116226
19000000000 -17.604904 -62.344418 -0.68944836 21.466772 -0.6818186 21.510345 -16.898758 -73.06469
19100000000 -17.725887 -61.743874 -0.68840843 19.696671 -0.68617624 19.744051 -17.327703 -75.933739
19200000000 -17.989504 -63.467369 -0.69037503 17.89929 -0.68580401 17.943556 -17.881811 -80.843231
19300000000 -18.194487 -63.883442 -0.68908519 16.078741 -0.68612349 16.154228 -17.419731 -84.096436
19400000000 -18.416515 -66.84285 -0.68991381 14.322106 -0.69089246 14.395576 -17.418047 -84.480713
19500000000 -18.809912 -68.784737 -0.68109965 12.536056 -0.68230289 12.609203 -17.157907 -83.205208
19600000000 -18.789076 -72.383667 -0.6845243 10.807143 -0.67992038 10.82586 -17.649525 -81.418266
19700000000 -18.936871 -73.976456 -0.67745262 9.0218878 -0.6804508 9.0573931 -17.996233 -81.154358
19800000000 -18.890188 -73.962914 -0.68050313 7.2472882 -0.67652959 7.2878342 -18.702011 -84.497948
19900000000 -19.329723 -73.244804 -0.67769861 5.4722099 -0.67485106 5.5044317 -18.777716 -86.36895
20000000000 -20.025724 -74.238464 -0.67303354 3.6852179 -0.67222452 3.7314138 -18.905846 -89.27932
20100000000 -20.876408 -77.715958 -0.67133975 1.9136258 -0.66479355 1.9238771 -18.927288 -87.467194
20200000000 -20.982426 -84.30294 -0.66789502 0.12660553 -0.66190565 0.16527709 -19.288958 -86.540413
20300000000 -20.897488 -88.201477 -0.66980821 -1.6881155 -0.66325468 -1.6194303 -19.848448 -85.268349
20400000000 -20.824051 -86.745918 -0.65910822 -3.4743307 -0.65242279 -3.4574232 -20.437117 -89.466125
20500000000 -21.349966 -83.441727 -0.65873253 -5.3047647 -0.65891629 -5.2605395 -20.745565 -92.179016
20600000000 -22.181686 -82.095146 -0.66038191 -7.153378 -0.65409929 -7.0909948 -20.541582 -94.131569
20700000000 -23.356752 -87.60759 -0.6610899 -8.9299135 -0.65328801 -8.939786 -20.550518 -90.714737
20800000000 -23.808781 -93.037621 -0.65985578 -10.706474 -0.65904945 -10.68225 -20.491842 -87.0168
20900000000 -23.741484 -99.300301 -0.65432495 -12.514842 -0.65165335 -12.437618 -21.185112 -80.975883
21000000000 -23.642675 -99.395012 -0.6505208 -14.227881 -0.64807421 -14.222278 -22.347252 -81.069969
21100000000 -24.083578 -95.364227 -0.6444959 -16.034569 -0.64239931 -16.020384 -23.022888 -83.343346
21200000000 -25.239733 -92.274788 -0.64986897 -17.891914 -0.64616179 -17.874325 -23.830833 -89.703766
21300000000 -26.390215 -94.787643 -0.64306504 -19.747168 -0.64126676 -19.732788 -23.217897 -91.512642
21400000000 -28.045435 -101.79148 -0.65190059 -21.614315 -0.64619815 -21.572435 -22.992426 -86.25959
21500000000 -27.483946 -109.64898 -0.64438027 -23.499643 -0.63902628 -23.454052 -22.219416 -82.262299
21600000000 -28.594402 -112.08649 -0.65429491 -25.286482 -0.64506942 -25.207485 -22.63801 -72.411491
21700000000 -28.260832 -102.62553 -0.6586684 -27.02916 -0.65213281 -26.992641 -23.042423 -64.102646
21800000000 -29.467808 -93.369957 -0.66689134 -28.730167 -0.66160721 -28.659546 -24.783829 -59.997715
21900000000 -30.94783 -86.884003 -0.66679353 -30.378859 -0.66015619 -30.344402 -25.413816 -59.249447
22000000000 -36.162933 -88.62413 -0.65766442 -32.209465 -0.64787674 -32.176022 -26.761688 -70.448006
22100000000 -39.480404 -95.168671 -0.64882106 -34.131779 -0.64283782 -34.084591 -25.059612 -69.628708
22200000000 -41.635082 -138.97624 -0.6583885 -36.014629 -0.65746111 -35.996727 -24.804504 -66.689445
22300000000 -44.144882 -122.4208 -0.66429669 -37.923256 -0.66026199 -37.891842 -23.00128 -54.580715
22400000000 -41.56702 -51.83321 -0.67368525 -39.647327 -0.67083371 -39.63892 -23.471373 -44.630936
22500000000 -35.273289 -14.104022 -0.67716157 -41.433903 -0.67928344 -41.379723 -23.238491 -34.601536
22600000000 -33.358349 8.3053627 -0.69105512 -43.06517 -0.68411946 -43.034859 -24.750498 -35.560467
22700000000 -31.929756 39.178055 -0.67853016 -44.777988 -0.67349392 -44.751411 -24.548054 -37.005692
22800000000 -31.845736 59.8946 -0.67081952 -46.694099 -0.67100531 -46.665871 -24.576067 -44.931534
22900000000 -32.759575 57.397045 -0.69176054 -48.586006 -0.68990076 -48.548847 -22.294939 -38.871418
23000000000 -33.541672 29.25148 -0.70638746 -50.282047 -0.69778854 -50.260868 -21.879505 -38.07975
23100000000 -29.40221 19.776104 -0.69771677 -52.075623 -0.69028854 -52.040924 -21.231434 -27.09334
23200000000 -26.075832 22.543581 -0.69357467 -53.909554 -0.68595433 -53.879189 -22.075813 -23.877228
23300000000 -24.506475 33.220615 -0.70080411 -55.661781 -0.6949333 -55.642933 -22.307796 -21.172132
23400000000 -24.730719 41.771461 -0.69183522 -57.440189 -0.6920653 -57.422188 -22.422581 -33.249161
23500000000 -25.646334 49.440601 -0.69966626 -59.201035 -0.69270986 -59.196404 -21.205887 -35.978489
23600000000 -26.174234 40.950531 -0.70275956 -61.008064 -0.6954549 -60.966721 -19.614473 -38.610874
23700000000 -25.240551 28.065905 -0.69987309 -62.755272 -0.69675511 -62.705399 -18.94788 -28.389439
23800000000 -23.548941 21.149895 -0.70182085 -64.54763 -0.6962716 -64.519699 -19.024271 -23.534576
23900000000 -21.956467 24.688889 -0.70595133 -66.395325 -0.70118344 -66.350708 -19.358355 -17.017719
24000000000 -21.249876 27.520597 -0.70199364 -68.240211 -0.69862026 -68.2369 -20.666021 -23.584389
24100000000 -21.599176 32.552055 -0.69787091 -70.087311 -0.69392604 -70.042122 -20.237164 -33.239532
24200000000 -21.958551 30.67951 -0.69163489 -71.872787 -0.68444312 -71.843674 -18.962736 -38.381618
24300000000 -22.046343 24.102316 -0.69566029 -73.64389 -0.69198579 -73.609772 -17.577351 -38.090103
24400000000 -20.676447 15.618795 -0.69779855 -75.367355 -0.69189078 -75.335526 -16.829758 -31.49003
24500000000 -19.919323 13.410349 -0.7091713 -77.175156 -0.70724463 -77.125046 -16.838942 -26.36034
24600000000 -18.929579 15.47481 -0.72221613 -78.993469 -0.71710366 -78.951759 -17.294638 -23.313253
24700000000 -19.039089 16.357433 -0.72748089 -80.796684 -0.71933895 -80.759987 -17.877115 -27.355673
24800000000 -19.243872 17.88076 -0.73117727 -82.667259 -0.72631037 -82.630081 -18.059326 -34.622036
24900000000 -19.581301 12.238761 -0.73422384 -84.480537 -0.71776474 -84.413376 -17.120975 -38.721272
25000000000 -19.023003 8.2292805 -0.73283941 -86.24173 -0.72106653 -86.227516 -16.302252 -41.130424
25100000000 -18.201794 1.2192123 -0.73634559 -87.941689 -0.73460209 -87.937332 -15.52996 -36.030586
25200000000 -17.589096 3.0551758 -0.74766648 -89.641403 -0.74203998 -89.658699 -15.548936 -36.080837
25300000000 -17.098471 2.4458215 -0.76133037 -91.428802 -0.7564351 -91.385551 -15.762146 -33.280052
25400000000 -17.489651 5.230514 -0.76645625 -93.251076 -0.76287228 -93.201263 -15.962335 -38.94836
25500000000 -17.388689 2.6131544 -0.77185225 -94.988213 -0.7718572 -94.959877 -15.874228 -37.951542
25600000000 -17.730043 -2.8600979 -0.77649379 -96.814423 -0.76700783 -96.801193 -15.684034 -44.155113
25700000000 -17.201771 -5.4137902 -0.78187996 -98.556465 -0.77757794 -98.561775 -15.07209 -42.24036
25800000000 -16.879551 -7.6629429 -0.78722852 -100.35143 -0.78162336 -100.28714 -15.032001 -43.813305
25900000000 -16.322084 -7.4404078 -0.78022504 -102.04547 -0.78340012 -101.99976 -14.663181 -43.19038
26000000000 -16.379738 -9.3431196 -0.79116559 -103.78014 -0.7858398 -103.76678 -14.800846 -44.461853
26100000000 -16.336393 -8.5977659 -0.79155445 -105.5943 -0.79251307 -105.58485 -14.726933 -45.678402
26200000000 -16.161787 -9.8456488 -0.79918361 -107.32171 -0.80214155 -107.29338 -14.677663 -45.817261
26300000000 -16.182405 -12.153699 -0.81068492 -109.07688 -0.80947584 -109.04056 -14.850426 -49.479118
26400000000 -16.148676 -16.086744 -0.8109495 -110.81106 -0.81000519 -110.77006 -14.411533 -49.0466
26500000000 -16.045458 -17.345028 -0.81032556 -112.52838 -0.81301922 -112.47205 -14.500684 -51.400085
26600000000 -15.668336 -18.529085 -0.80564994 -114.2913 -0.80592912 -114.29405 -14.071646 -50.979103
26700000000 -15.403879 -18.516262 -0.80417651 -116.07704 -0.80800331 -115.99834 -14.053584 -51.980808
26800000000 -15.406249 -20.465231 -0.80301535 -117.72641 -0.78957444 -117.80265 -14.233526 -52.019157
26900000000 -15.540787 -21.32155 -0.80928308 -119.58298 -0.80357814 -119.66718 -14.299322 -53.854626
27000000000 -15.445978 -24.909872 -0.81738496 -121.33041 -0.80637205 -121.38387 -14.811799 -53.982807
27100000000 -15.380496 -29.407288 -0.80234051 -123.08502 -0.83126032 -123.15236 -14.197073 -59.691345
27200000000 -15.329689 -28.479761 -0.8131122 -124.95431 -0.82002079 -124.98468 -14.140005 -59.896595
27300000000 -15.315901 -31.18902 -0.82249147 -126.67043 -0.83200169 -126.74583 -13.617271 -59.239285
27400000000 -15.196739 -31.39444 -0.82761651 -128.46445 -0.82854152 -128.40303 -14.040902 -59.275032
27500000000 -15.378839 -34.371857 -0.8421858 -130.17934 -0.82670397 -130.17195 -14.068692 -57.934326
27600000000 -15.35981 -35.57761 -0.83888674 -132.04121 -0.82135105 -131.95622 -14.703665 -62.052208
27700000000 -15.131023 -39.681168 -0.83749586 -133.79123 -0.81610715 -133.64847 -14.324899 -65.170906
27800000000 -15.166422 -39.152615 -0.80734611 -135.51563 -0.80997992 -135.48068 -14.148959 -69.38942
27900000000 -15.402637 -42.611393 -0.83027738 -137.21658 -0.79998583 -137.10048 -13.458681 -67.340141
28000000000 -15.631444 -43.638168 -0.79599476 -138.96439 -0.79756087 -138.88388 -13.879255 -68.503441
28100000000 -15.481407 -46.350964 -0.82273954 -140.70166 -0.82117498 -140.73282 -14.036244 -65.708435
28200000000 -15.588757 -46.936348 -0.82344133 -142.53711 -0.81429797 -142.62547 -14.514437 -69.343727
28300000000 -15.0443 -48.936569 -0.80555332 -144.45146 -0.82500929 -144.31596 -14.453888 -71.113693
28400000000 -15.392462 -50.455685 -0.82004768 -146.18124 -0.82343382 -146.21701 -14.2349 -76.592834
28500000000 -15.294775 -49.868668 -0.81479913 -148.08867 -0.81080097 -147.98087 -13.753182 -72.716415
28600000000 -15.328937 -53.010365 -0.81556618 -149.64902 -0.82104456 -149.60141 -13.585587 -74.088493
28700000000 -15.20595 -52.29261 -0.81845903 -151.34447 -0.81482196 -151.28455 -14.12007 -69.576546
28800000000 -15.906586 -56.614006 -0.84240764 -153.04111 -0.85078287 -153.13304 -14.908908 -72.864883
28900000000 -15.477276 -54.227932 -0.82796794 -154.8051 -0.8262468 -154.77063 -14.79777 -77.974922
29000000000 -15.523626 -63.199898 -0.8228184 -156.87708 -0.81905293 -156.75214 -14.472993 -82.468063
29100000000 -15.627573 -61.815426 -0.80161226 -158.6951 -0.79845893 -158.68323 -13.632615 -82.313797
29200000000 -15.454669 -63.211224 -0.78730327 -160.55246 -0.7982524 -160.36217 -13.928888 -78.513016
29300000000 -15.851803 -59.762012 -0.80022609 -162.06509 -0.80020589 -162.22337 -14.156591 -73.682549
29400000000 -15.685088 -63.041279 -0.8171078 -163.71011 -0.80998367 -163.66559 -15.527927 -75.055878
29500000000 -16.60813 -65.272675 -0.82205856 -165.50449 -0.81545591 -165.43697 -15.763799 -77.408348
29600000000 -16.464737 -70.444267 -0.86258388 -167.24547 -0.83568996 -167.20116 -16.076628 -86.434181
29700000000 -16.698177 -74.749802 -0.83462381 -169.06367 -0.8086254 -168.94388 -14.989831 -85.488655
29800000000 -15.959143 -74.917984 -0.81576484 -170.85202 -0.81040633 -170.83429 -14.917527 -88.499657
29900000000 -16.45155 -78.689079 -0.81109864 -172.89203 -0.80526447 -172.68735 -14.392851 -80.359108
30000000000 -17.009268 -72.294991 -0.80138963 -174.50949 -0.80227047 -174.38872 -15.553513 -80.722679
30100000000 -17.616516 -74.875763 -0.80656213 -176.15952 -0.81829655 -176.13647 -16.120989 -77.504181
30200000000 -17.886499 -76.750458 -0.81046402 -177.87108 -0.80321777 -177.89877 -17.316557 -86.721214
30300000000 -17.476753 -88.799446 -0.79282254 -179.64166 -0.80567265 -179.56027 -16.811914 -84.760658
30400000000 -17.640882 -89.096115 -0.79196107 178.53899 -0.77648234 178.70187 -16.0867 -95.110321
30500000000 -17.33917 -89.083382 -0.76932985 176.6304 -0.77127039 176.74469 -15.919642 -85.426712
30600000000 -17.598581 -87.682236 -0.78411293 174.86897 -0.78923106 174.99358 -15.986875 -88.755028
30700000000 -18.287506 -92.818039 -0.76216543 173.23714 -0.77057481 173.08951 -16.817026 -81.111389
30800000000 -19.367195 -88.847351 -0.76416814 171.48509 -0.77491295 171.49222 -17.85593 -88.573708
30900000000 -19.305387 -94.966255 -0.76761574 169.46452 -0.77854156 169.6156 -17.704418 -82.034401
31000000000 -20.063574 -95.374489 -0.76942998 167.72449 -0.77736276 167.77333 -17.737101 -91.52639
31100000000 -19.145382 -108.51157 -0.78842986 165.8596 -0.76726729 165.8183 -17.3927 -89.571877
31200000000 -18.95285 -106.96492 -0.75748372 164.21399 -0.75591195 164.25977 -16.794994 -85.203346
31300000000 -18.713175 -101.95077 -0.74421996 162.17801 -0.73338705 162.24947 -17.675949 -85.394363
31400000000 -20.349779 -94.536003 -0.75150961 160.70203 -0.73649591 160.59833 -17.941223 -82.428612
31500000000 -21.635464 -97.587288 -0.74413788 158.99908 -0.76305217 158.95462 -19.561773 -77.608894
31600000000 -24.498837 -116.15821 -0.76412034 157.05008 -0.76877797 157.11298 -19.498037 -87.914444
31700000000 -23.167368 -126.23082 -0.7858085 154.98938 -0.74470603 155.15536 -19.589855 -85.596573
31800000000 -21.778305 -122.47897 -0.7657454 153.15144 -0.76796973 153.30222 -18.75424 -89.140198
31900000000 -20.520761 -107.89709 -0.74477547 151.23643 -0.75106001 151.31992 -18.365114 -81.177086
32000000000 -22.979509 -106.71248 -0.76674283 149.54324 -0.73352069 149.75586 -18.835014 -78.799484
32100000000 -28.302477 -93.645363 -0.72550416 147.6571 -0.74361378 147.75243 -19.038399 -67.538002
32200000000 -30.493208 -151.69098 -0.72581315 146.16315 -0.73155069 146.0119 -20.696796 -69.873863
32300000000 -30.128996 -161.33246 -0.75308686 144.35698 -0.75985557 144.31207 -20.619621 -66.736938
32400000000 -25.297625 -147.96861 -0.77152514 142.22456 -0.75065535 142.54575 -22.624744 -75.231827
32500000000 -27.700851 -129.07373 -0.75450087 140.39938 -0.76003653 140.51379 -20.701889 -76.667603
32600000000 -29.22736 -118.76456 -0.73816496 138.7713 -0.75059938 138.83437 -19.786377 -77.223091
32700000000 -40.128922 16.980194 -0.7510314 136.70872 -0.73165977 136.73506 -18.860939 -72.624748
32800000000 -51.25066 -60.324097 -0.75105017 135.11261 -0.75462776 135.15491 -17.829971 -59.131477
32900000000 -33.407581 121.13611 -0.7697137 133.11525 -0.76946217 133.30933 -18.602839 -50.083817
33000000000 -33.905865 152.94548 -0.76145309 131.52792 -0.77244103 131.64076 -19.794703 -47.669907
33100000000 -39.534065 136.94453 -0.79821008 129.74004 -0.75030553 129.81848 -21.249756 -47.804413
33200000000 -47.10408 -32.215218 -0.76846099 127.72779 -0.77307755 127.89014 -19.314768 -63.700489
33300000000 -36.912476 66.845215 -0.77722222 125.95813 -0.80696827 125.96587 -19.505518 -60.656055
33400000000 -31.486837 58.165749 -0.77895284 124.25822 -0.77655321 124.11002 -17.277397 -61.701122
33500000000 -32.695904 56.21595 -0.76487941 122.53343 -0.7347039 122.57949 -17.492722 -52.863171
33600000000 -31.743618 49.283016 -0.76828611 120.5269 -0.79086429 120.61044 -17.535915 -50.797626
33700000000 -30.9534 52.789433 -0.80043584 118.96735 -0.77138108 119.02755 -18.206909 -45.574863
33800000000 -28.596565 47.450668 -0.82528347 117.0528 -0.80407524 117.23166 -18.403923 -50.406246
33900000000 -28.390762 62.238384 -0.82159185 115.07261 -0.78085363 115.2511 -17.627947 -55.411118
34000000000 -25.72613 37.783356 -0.82479614 113.58803 -0.79479629 113.66513 -17.09692 -46.822189
34100000000 -26.708555 29.054289 -0.74945301 111.6321 -0.79750615 111.69126 -16.720676 -52.638802
34200000000 -23.21088 26.704269 -0.78931457 110.07254 -0.75733888 109.99802 -16.581949 -40.826572
34300000000 -23.28771 29.236338 -0.81260282 108.09299 -0.79340732 108.15908 -17.093058 -51.691658
34400000000 -21.990458 28.860233 -0.83402938 106.50481 -0.80390829 106.36305 -16.973951 -46.733723
34500000000 -22.9063 30.928635 -0.86206043 104.42183 -0.86294729 104.51463 -16.341736 -54.145466
34600000000 -21.208872 28.122385 -0.8393386 102.68462 -0.85761988 102.48545 -15.527266 -47.615112
34700000000 -20.427399 23.474283 -0.84337789 100.68452 -0.87384301 100.95761 -14.968339 -48.22694
34800000000 -19.981991 27.688368 -0.87468481 98.958984 -0.85489303 99.026833 -15.464027 -38.701809
34900000000 -19.648127 22.347069 -0.86448783 97.38884 -0.86464959 97.317772 -15.917464 -38.695469
35000000000 -19.268242 23.987804 -0.88583863 95.563919 -0.8451345 95.630569 -17.286491 -39.592621
35100000000 -17.853127 13.745422 -0.87303746 93.696381 -0.88683265 93.759659 -15.88131 -49.332634
35200000000 -17.462996 16.613295 -0.8594352 91.913673 -0.88254178 92.033203 -15.339257 -52.165443
35300000000 -17.355169 10.562568 -0.87638253 90.309814 -0.88803965 90.364426 -13.615543 -49.552795
35400000000 -17.848982 15.576238 -0.87567437 88.642441 -0.87209123 88.579552 -13.418436 -50.074715
35500000000 -16.422197 12.737617 -0.8983711 86.990791 -0.89274824 86.65686 -13.866407 -45.208603
35600000000 -18.18799 10.728739 -0.88267154 84.769707 -0.86346424 84.853386 -14.648847 -45.908253
35700000000 -17.436644 4.5316973 -0.89052927 83.036827 -0.88462371 83.111671 -14.902293 -50.529675
35800000000 -17.253988 2.8276815 -0.9461627 81.139862 -0.90136236 81.187988 -14.090451 -54.668919
35900000000 -16.0746 3.1160471 -0.88094407 79.284027 -0.89059317 79.325821 -13.969919 -62.239281
36000000000 -15.743253 1.2501988 -0.932051 77.787476 -0.90017295 77.893791 -12.871148 -53.857349
36100000000 -15.452141 3.995034 -0.92607558 75.690163 -0.87285614 75.856606 -13.474779 -56.014771
36200000000 -16.29043 -0.97543436 -0.88343984 74.004478 -0.93719947 74.074272 -13.245945 -53.917912
36300000000 -16.815807 2.4423025 -0.92580485 72.193321 -0.95467389 72.079918 -14.084826 -60.946606
36400000000 -17.736111 -5.2806582 -0.93507874 70.142746 -0.95750052 70.376091 -13.246738 -61.250713
36500000000 -15.899196 -12.81728 -0.97798222 68.693626 -0.9280557 68.77269 -12.764372 -64.147087
36600000000 -14.261307 -18.843632 -0.91915727 67.141075 -0.89815557 67.270714 -11.803967 -55.960617
36700000000 -14.002374 -10.451265 -0.9538461 65.331657 -0.9654662 65.41304 -12.079696 -61.981339
36800000000 -13.548727 -6.4714718 -0.9995957 63.699902 -0.97387314 63.82579 -12.292972 -51.387794
36900000000 -15.554815 -0.92229724 -1.0498767 61.994205 -0.97385955 61.725548 -13.340879 -60.968456
37000000000 -15.378032 -12.566341 -1.0228732 60.199444 -1.0496304 60.288136 -13.707815 -61.383244
37100000000 -15.641121 -31.721605 -0.99677604 57.960625 -1.0083828 57.951595 -12.621516 -70.581589
37200000000 -13.705485 -27.186966 -0.95575726 56.456944 -0.95925647 56.111214 -12.160218 -68.993439
37300000000 -12.583707 -24.275307 -0.95727044 54.861946 -0.93846393 54.788223 -10.757451 -66.419044
37400000000 -12.305902 -19.285412 -0.93038821 53.108715 -0.97548854 53.370262 -10.993958 -60.886925
37500000000 -13.916306 -21.221449 -0.97322208 51.701595 -0.95263517 51.683544 -11.590943 -60.522148
37600000000 -15.227162 -24.539143 -0.96434319 49.794926 -0.99444866 49.638351 -13.037953 -59.442291
37700000000 -14.578883 -37.307007 -1.0325273 47.878712 -1.0028695 47.910904 -13.679532 -67.327057
37800000000 -13.277638 -36.495361 -0.9870109 45.939892 -1.0040129 46.044743 -12.44495 -73.738998
37900000000 -12.621408 -37.275215 -0.9600659 44.149818 -0.96210289 44.395569 -12.029471 -78.64061
38000000000 -13.066322 -31.746386 -0.94599789 42.529751 -0.92457002 42.694389 -10.549335 -73.275131
38100000000 -13.442844 -34.609943 -0.96913016 40.902412 -0.96268541 40.839001 -11.263825 -69.53846
38200000000 -14.090701 -37.419594 -0.97231728 39.236317 -0.96826434 39.008919 -11.202838 -65.323715
38300000000 -13.172971 -42.041878 -0.95565599 37.165852 -0.94145691 37.551487 -13.090968 -66.770851
38400000000 -12.930646 -48.759186 -0.92757523 35.421711 -0.98215747 35.710205 -13.602762 -75.428474
38500000000 -12.912901 -48.144634 -0.92931139 33.796169 -0.93154866 33.766354 -13.045934 -83.176262
38600000000 -13.601944 -40.904282 -0.90522921 32.264603 -0.95722395 32.129086 -11.461915 -80.857719
38700000000 -12.898288 -45.265564 -0.943878 30.093487 -0.93867153 30.389448 -11.056329 -82.806534
38800000000 -13.772293 -49.298443 -0.88759977 28.446339 -0.95170945 28.875923 -11.836734 -71.464714
38900000000 -13.656453 -48.4053 -0.92608935 26.765116 -0.9483816 26.757038 -12.610028 -79.608231
39000000000 -13.92594 -52.397167 -0.95346463 25.006544 -0.96403325 25.040953 -13.423139 -76.953094
39100000000 -13.965575 -56.260235 -0.90867352 22.9867 -0.91090691 22.441662 -12.662815 -93.159309
39200000000 -13.036234 -62.285549 -0.96453488 21.241184 -0.99845439 21.683159 -12.508252 -86.171455
39300000000 -12.782082 -56.978016 -0.93690658 19.428961 -0.96992755 19.599817 -11.168698 -87.978661
39400000000 -14.089788 -55.331841 -0.92813998 17.860985 -0.92119825 17.821531 -12.011326 -77.92012
39500000000 -15.317209 -50.069008 -0.98640692 15.633943 -0.9779582 15.811451 -12.539574 -82.955795
39600000000 -15.032995 -65.19162 -0.98823828 13.967568 -0.96002775 14.204588 -14.432192 -78.027771
39700000000 -14.773144 -78.684891 -0.97200286 12.047643 -0.91519743 12.043296 -14.233805 -97.930367
39800000000 -12.871961 -76.952881 -0.93642253 10.512787 -0.94103253 10.378654 -13.058056 -94.314705
39900000000 -13.197866 -63.602707 -0.99156821 8.2101717 -0.96361798 8.7731018 -11.763932 -100.501
40000000000 -13.466762 -62.512821 -0.94880605 6.9255867 -0.91491777 6.887476 -11.336874 -86.095833
40100000000 -17.006456 -62.466999 -0.92919338 5.0573483 -0.96319401 4.8342471 -12.408786 -80.988091
40200000000 -18.002312 -75.808601 -0.94515598 3.4786265 -0.99730134 3.1854715 -13.858079 -77.334007
40300000000 -16.299883 -97.393867 -0.92631906 1.0218506 -0.91602361 1.2714822 -14.961093 -81.504524
40400000000 -13.908586 -86.644249 -0.92345244 -0.3587403 -0.89992458 -0.27316195 -15.300135 -100.77257
40500000000 -14.025682 -75.4683 -0.96402067 -1.7774006 -0.92956531 -1.900088 -13.476782 -104.58697
40600000000 -14.114492 -66.206612 -0.93075925 -3.5612388 -0.90806538 -3.4393935 -13.063764 -96.017044
40700000000 -16.9196 -83.037415 -0.95908374 -5.5128479 -0.95343596 -5.6824918 -12.4262 -93.821411
40800000000 -17.7978 -83.723991 -0.96446699 -7.0976119 -0.91623235 -7.1394162 -13.30854 -81.852615
40900000000 -15.375985 -95.704582 -0.93738323 -9.1037512 -0.96557355 -8.6197615 -15.516214 -84.627968
41000000000 -13.683164 -94.404564 -0.89639556 -11.079254 -0.89500171 -10.714971 -15.139914 -82.374306
41100000000 -14.901082 -95.627289 -0.91114187 -12.57313 -0.96406686 -12.610679 -15.577212 -104.85276
41200000000 -16.930861 -79.495743 -0.95290881 -14.341586 -0.93934184 -13.963225 -15.202936 -96.662544
41300000000 -17.190607 -95.992439 -0.98227495 -15.848107 -0.94102448 -16.271551 -15.004511 -99.020241
41400000000 -17.89674 -101.07349 -0.91760421 -17.626726 -0.99292994 -17.395256 -14.741678 -85.681252
41500000000 -16.844982 -107.49246 -0.93028075 -19.600101 -0.97734416 -19.311544 -14.312078 -89.840729
41600000000 -17.213398 -93.722145 -0.86790597 -21.378746 -0.88667512 -21.37388 -15.834922 -82.311684
41700000000 -16.859018 -101.51249 -0.94302911 -23.176281 -0.92730409 -23.430544 -15.813073 -95.199234
41800000000 -18.487907 -106.12105 -0.90225029 -25.205042 -0.87083268 -24.708551 -16.437408 -86.037323
41900000000 -18.261276 -109.38985 -0.90051633 -26.842978 -0.91667992 -26.867487 -15.356453 -100.7233
42000000000 -18.755997 -102.60228 -0.93190604 -28.370291 -0.91080087 -28.678154 -16.501854 -85.381447
42100000000 -18.411827 -92.29026 -0.94932264 -30.288092 -0.93352515 -30.51676 -15.338356 -92.829216
42200000000 -21.459101 -104.5687 -0.84220904 -32.056171 -0.921139 -32.270424 -16.777599 -72.176208
42300000000 -24.610662 -116.33506 -0.94097275 -34.032707 -0.93043178 -33.922058 -15.978277 -87.784615
42400000000 -21.7054 -145.53949 -0.91553074 -35.894505 -0.90419054 -35.312191 -18.807308 -81.082314
42500000000 -19.149677 -112.92155 -0.91942823 -37.573605 -0.9201746 -37.434174 -17.647453 -95.313835
42600000000 -18.110977 -110.58819 -0.87673891 -39.362129 -0.85145801 -39.397896 -18.868553 -80.904961
42700000000 -23.996756 -80.870796 -0.88274354 -41.525555 -0.97270066 -41.084881 -15.432836 -89.10611
42800000000 -30.858894 -73.935013 -0.94603842 -43.143196 -0.86338496 -42.535137 -16.840891 -83.760231
42900000000 -28.161613 64.821251 -0.8802672 -44.756741 -0.93211842 -45.146717 -15.843914 -72.576599
43000000000 -25.004196 172.9375 -0.8568958 -46.563828 -0.87364078 -46.669792 -15.817265 -66.822083
43100000000 -21.208086 -165.265 -0.92431802 -48.728455 -0.93188161 -49.061863 -18.841141 -63.839592
43200000000 -21.577923 -119.50229 -0.88431525 -50.658031 -0.88563991 -51.16116 -19.428715 -68.583275
43300000000 -25.802282 -71.079056 -0.84040433 -51.910927 -0.81522042 -52.304649 -19.14028 -85.716049
43400000000 -27.281891 1.8760127 -0.8438397 -53.894398 -0.84804434 -53.775208 -16.95125 -78.825165
43500000000 -25.416595 45.921505 -0.8440755 -55.632118 -0.87807393 -55.459438 -16.192118 -82.416199
43600000000 -24.105824 91.573677 -0.90560454 -57.652992 -0.85024887 -56.893658 -15.348732 -64.819901
43700000000 -26.477894 137.80513 -0.86167556 -59.830109 -0.87784201 -59.675167 -16.171572 -57.604294
43800000000 -27.065994 -167.27745 -0.92928958 -61.85284 -0.81479949 -61.629906 -16.500393 -48.207314
43900000000 -42.867527 -93.018456 -0.91386497 -63.42873 -0.8795172 -63.210499 -19.443607 -63.366398
44000000000 -24.259029 20.440567 -0.94487476 -65.046425 -0.82178921 -65.047684 -16.831087 -60.321922
44100000000 -23.763668 36.106922 -0.82477516 -67.056595 -0.89734674 -66.748024 -16.148298 -67.700279
44200000000 -20.237513 49.747807 -0.85506356 -68.688354 -0.84757608 -68.687431 -15.360871 -64.000488
44300000000 -25.518578 68.919151 -0.84408337 -70.064186 -0.88184148 -70.636803 -15.015152 -55.765965
44400000000 -28.268303 85.809822 -0.96409142 -72.409645 -0.99513704 -72.149269 -15.506066 -42.278736
44500000000 -32.930195 -55.663349 -0.92677277 -74.522797 -0.89687002 -74.316101 -16.038994 -62.560524
44600000000 -23.847811 11.356593 -0.95612568 -76.00988 -0.95644218 -76.117729 -17.076523 -48.103966
44700000000 -18.181519 12.025476 -0.96613002 -77.775223 -1.0010271 -77.497269 -15.091855 -64.129356
44800000000 -20.365828 45.585876 -0.96834719 -79.324501 -0.92383093 -79.923218 -13.735669 -48.483269
44900000000 -21.151102 45.126862 -0.96201986 -81.07843 -0.94893199 -81.011955 -13.205478 -58.383175
45000000000 -20.0138 43.451382 -1.0547642 -82.560936 -0.95357686 -82.970306 -14.853127 -41.775471
