!Keysight Technologies,N5247B,MY61255062,A.19.80.06
!Date: Monday, May 18, 2026 12:58:06
!Correction: S11(Cdelta 2-Port  ) 
!S21(Cdelta 2-Port  ) 
!S12(Cdelta 2-Port  ) 
!S22(Cdelta 2-Port  ) 
!S2P File: Measurements: S11, S21, S12, S22:
# Hz S  dB   R 50
1000000000 -24.387379 23.277864 -0.39429608 -18.491385 -0.38760531 -18.47369 -24.678043 23.580111
1100000000 -24.002426 23.258884 -0.40316102 -20.281113 -0.39784533 -20.27503 -24.333654 23.895559
1200000000 -23.682594 23.413492 -0.41285366 -22.054554 -0.40709421 -22.049934 -24.007803 24.677492
1300000000 -23.312387 23.461399 -0.41830519 -23.869875 -0.41417104 -23.862295 -23.577984 24.139738
1400000000 -22.991676 23.401714 -0.42842251 -25.621098 -0.42261875 -25.603573 -23.246954 24.73674
1500000000 -22.703144 23.051428 -0.431512 -27.393723 -0.427313 -27.377373 -22.855526 24.251682
1600000000 -22.389097 22.267954 -0.43543205 -29.189013 -0.42911682 -29.172907 -22.615816 23.170021
1700000000 -22.110577 21.683844 -0.4389306 -30.951338 -0.43358099 -30.939228 -22.26223 22.82715
1800000000 -21.784496 20.656736 -0.44290149 -32.746456 -0.43588564 -32.722054 -21.949112 21.82832
1900000000 -21.509705 19.74634 -0.44482106 -34.53101 -0.44053811 -34.517815 -21.683208 20.809307
2000000000 -21.272846 19.03315 -0.45085275 -36.333782 -0.44420165 -36.315266 -21.439201 19.667206
2100000000 -21.050575 17.799576 -0.45343265 -38.11425 -0.44807148 -38.098412 -21.189651 19.046808
2200000000 -20.876568 16.959332 -0.45496851 -39.907101 -0.45152938 -39.896454 -20.98074 17.695524
2300000000 -20.673212 15.757329 -0.46031231 -41.701645 -0.45556444 -41.698174 -20.781349 16.819971
2400000000 -20.483711 14.71231 -0.46700343 -43.488853 -0.46133038 -43.470577 -20.533134 15.772245
2500000000 -20.255566 13.552642 -0.47117174 -45.269855 -0.46481186 -45.263298 -20.346767 14.482629
2600000000 -20.074678 12.392599 -0.47568515 -47.076298 -0.47141239 -47.049419 -20.204094 13.401994
2700000000 -19.954628 11.456454 -0.48451424 -48.869637 -0.47771981 -48.8396 -20.106218 12.258928
2800000000 -19.831112 10.315728 -0.48955029 -50.619549 -0.48438659 -50.608467 -19.923447 11.059201
2900000000 -19.708216 9.4883671 -0.49368668 -52.41169 -0.48875386 -52.390198 -19.782413 9.6149607
3000000000 -19.517092 8.1579475 -0.49651736 -54.158165 -0.49167496 -54.13932 -19.63205 8.7484207
3100000000 -19.390028 7.2543254 -0.50097322 -55.9282 -0.4954527 -55.916855 -19.451622 7.5835752
3200000000 -19.193098 5.7953315 -0.50569862 -57.709404 -0.4996098 -57.686493 -19.309219 6.6053753
3300000000 -19.150694 4.4910817 -0.50693339 -59.47493 -0.50143665 -59.460815 -19.167559 4.9974003
3400000000 -19.043924 3.6035728 -0.51063156 -61.258778 -0.50484079 -61.248383 -19.125523 3.728564
3500000000 -18.972326 1.9924242 -0.51787311 -63.026478 -0.51153743 -63.009167 -18.981701 2.4890835
3600000000 -18.811092 0.66203302 -0.51957315 -64.762238 -0.51311463 -64.761459 -18.875067 1.2776814
3700000000 -18.728355 -1.0347637 -0.52078146 -66.527496 -0.51735896 -66.508095 -18.689331 -0.27364153
3800000000 -18.616833 -2.1928089 -0.51866353 -68.31723 -0.5123136 -68.282059 -18.591263 -1.8698909
3900000000 -18.479389 -3.7613668 -0.5189932 -70.103844 -0.51470321 -70.085571 -18.497482 -3.0669987
4000000000 -18.415846 -5.1832156 -0.52293754 -71.910339 -0.51859707 -71.89579 -18.46701 -4.2682366
4100000000 -18.289894 -6.7272439 -0.5306083 -73.686089 -0.52539378 -73.652817 -18.362507 -5.1439004
4200000000 -18.257189 -7.9769235 -0.53567117 -75.413773 -0.53253043 -75.405075 -18.255573 -6.9750104
4300000000 -18.164253 -9.2091389 -0.53727418 -77.155067 -0.53118575 -77.14521 -18.238192 -8.4033747
4400000000 -18.1231 -10.333106 -0.53694141 -78.927177 -0.52982038 -78.90744 -18.136398 -9.7559195
4500000000 -18.052187 -11.57082 -0.53736031 -80.694252 -0.53135186 -80.682213 -18.080818 -11.167406
4600000000 -18.017363 -13.029101 -0.53914535 -82.475113 -0.53455883 -82.449028 -18.007217 -12.610456
4700000000 -18.009081 -14.530676 -0.53803504 -84.248634 -0.5337128 -84.223969 -17.977798 -14.144521
4800000000 -17.966393 -16.034645 -0.53810596 -86.000427 -0.5330025 -85.997093 -17.922947 -15.515996
4900000000 -17.951067 -17.599073 -0.54036415 -87.807838 -0.53514147 -87.772079 -17.916536 -17.218834
5000000000 -17.88422 -18.945791 -0.54086286 -89.571297 -0.53727478 -89.555649 -17.818438 -18.614037
5100000000 -17.803967 -20.262384 -0.54292184 -91.356575 -0.53826827 -91.316948 -17.764769 -20.089283
5200000000 -17.791325 -21.506123 -0.54201025 -93.127602 -0.53733248 -93.10009 -17.743303 -21.069485
5300000000 -17.778008 -23.246901 -0.54330319 -94.887451 -0.5389443 -94.87281 -17.798763 -22.533903
5400000000 -17.873636 -24.674536 -0.54371357 -96.676323 -0.53996664 -96.652054 -17.852098 -23.985823
5500000000 -17.862133 -26.093414 -0.54641825 -98.452637 -0.542 -98.428604 -17.856037 -26.041498
5600000000 -17.89356 -27.906071 -0.54896158 -100.22838 -0.54339677 -100.20114 -17.848078 -27.6759
5700000000 -17.807949 -29.120193 -0.55053926 -101.99844 -0.54718953 -101.96022 -17.711216 -29.390343
5800000000 -17.850143 -30.883352 -0.54989457 -103.7494 -0.54510301 -103.73721 -17.704393 -30.454277
5900000000 -17.872662 -31.88707 -0.55080491 -105.52448 -0.54599553 -105.49761 -17.71693 -31.373341
6000000000 -17.92342 -33.935066 -0.55114669 -107.28493 -0.54326123 -107.25778 -17.893335 -32.420128
6100000000 -18.008448 -35.196777 -0.55008882 -109.05771 -0.54311454 -109.03179 -17.989861 -34.060379
6200000000 -18.020714 -36.796684 -0.54481596 -110.83849 -0.54097486 -110.8083 -18.076132 -36.075546
6300000000 -18.127642 -37.702854 -0.54518545 -112.64565 -0.54128712 -112.61888 -17.959959 -37.782642
6400000000 -18.158752 -39.171837 -0.55212569 -114.38824 -0.54655182 -114.36152 -18.003645 -40.055943
6500000000 -18.309053 -40.629383 -0.5487774 -116.18675 -0.54223871 -116.16064 -18.106775 -40.014942
6600000000 -18.390007 -42.236767 -0.55087513 -117.97417 -0.54445386 -117.93972 -18.214422 -40.833324
6700000000 -18.55418 -43.698883 -0.55508357 -119.7289 -0.55002064 -119.70779 -18.375923 -42.070606
6800000000 -18.44091 -44.990475 -0.55254608 -121.50666 -0.54655212 -121.48705 -18.483971 -44.257912
6900000000 -18.463459 -46.771538 -0.55085808 -123.28154 -0.54570585 -123.25748 -18.49589 -45.851418
7000000000 -18.41848 -47.683743 -0.55157048 -125.089 -0.54494071 -125.06183 -18.402105 -47.59444
7100000000 -18.590862 -49.423004 -0.55981141 -126.82046 -0.55350751 -126.78828 -18.503557 -48.308643
7200000000 -18.708981 -50.121952 -0.55003297 -128.55151 -0.54460293 -128.51675 -18.571566 -48.772518
7300000000 -18.805136 -51.974335 -0.53892118 -130.36412 -0.53376961 -130.327 -18.820429 -49.791019
7400000000 -18.954264 -53.343773 -0.53471577 -132.20834 -0.53170002 -132.17107 -18.964712 -51.785435
7500000000 -18.976114 -55.066265 -0.54170465 -134.04375 -0.53697538 -134.0181 -18.971884 -53.894764
7600000000 -19.140881 -56.775967 -0.55039465 -135.75392 -0.54648018 -135.72069 -19.000164 -56.067219
7700000000 -19.211512 -57.456543 -0.54248714 -137.58125 -0.53593212 -137.53198 -19.015047 -55.975483
7800000000 -19.322714 -59.429676 -0.54672503 -139.34544 -0.54005784 -139.31779 -19.179455 -56.351437
7900000000 -19.508589 -61.302937 -0.54436201 -141.15945 -0.5370627 -141.12854 -19.500622 -56.978111
8000000000 -19.686726 -62.871189 -0.54587758 -142.979 -0.54184896 -142.93092 -19.778114 -59.535297
8100000000 -19.898232 -64.667336 -0.55330902 -144.72755 -0.55152875 -144.69257 -19.882214 -62.510799
8200000000 -20.202862 -65.578712 -0.55621296 -146.42851 -0.54914957 -146.40654 -19.953817 -64.774788
8300000000 -20.375263 -66.711258 -0.54041457 -148.2085 -0.5330168 -148.15247 -20.010597 -63.947205
8400000000 -20.586597 -68.066193 -0.53100145 -150.06291 -0.52545661 -150.00172 -20.293856 -62.509277
8500000000 -20.922832 -70.396072 -0.52747029 -151.95012 -0.52452737 -151.93253 -21.123096 -63.379551
8600000000 -21.27186 -69.883919 -0.56779665 -153.93243 -0.56355017 -153.92781 -22.57362 -71.88015
8700000000 -21.476913 -75.119133 -0.64553344 -155.05052 -0.6414066 -154.98361 -27.165712 -83.305481
8800000000 -21.98801 -72.322723 -0.51756108 -156.66519 -0.51396829 -156.66385 -26.51906 -72.054764
8900000000 -21.747784 -74.285149 -0.51280063 -158.85637 -0.50958002 -158.80699 -23.7286 -78.089424
9000000000 -21.935345 -76.729622 -0.52822536 -160.74831 -0.52108616 -160.71156 -22.116087 -81.234795
9100000000 -22.135986 -76.889694 -0.53537482 -162.57802 -0.53090549 -162.53532 -21.331554 -78.639183
9200000000 -22.44544 -78.688141 -0.54327005 -164.35674 -0.53856629 -164.31009 -21.285715 -74.620674
9300000000 -22.889441 -78.531479 -0.54527116 -166.15079 -0.539078 -166.09511 -22.02113 -69.768158
9400000000 -23.202774 -81.112556 -0.54449582 -167.91937 -0.53959525 -167.88075 -22.703012 -69.449142
9500000000 -23.63542 -82.377777 -0.54270977 -169.71979 -0.539823 -169.68092 -23.634754 -71.873154
9600000000 -23.859287 -83.386375 -0.54462051 -171.51511 -0.53959936 -171.50203 -23.786678 -76.53479
9700000000 -24.255186 -83.870628 -0.54499996 -173.32457 -0.54098421 -173.29547 -23.906805 -78.731705
9800000000 -24.541925 -84.109383 -0.54845023 -175.14406 -0.54145247 -175.10173 -23.814814 -77.37075
9900000000 -25.246122 -86.093521 -0.54922801 -176.92294 -0.54323745 -176.87592 -24.273746 -74.862907
10000000000 -25.76 -86.742401 -0.55281508 -178.75241 -0.55005974 -178.70926 -24.783091 -72.350266
10100000000 -26.346857 -88.235329 -0.55359924 179.46654 -0.54924095 179.50945 -26.005669 -73.362381
10200000000 -26.970743 -86.562103 -0.55960089 177.66805 -0.55412447 177.69054 -26.557896 -76.258896
10300000000 -27.410572 -86.585526 -0.56341636 175.85042 -0.55820185 175.89304 -26.993145 -79.574898
10400000000 -28.031338 -85.691963 -0.56940889 174.06805 -0.56053472 174.09225 -26.722897 -79.051659
10500000000 -28.698732 -88.158844 -0.56959248 172.27901 -0.56668633 172.32245 -26.803705 -76.468849
10600000000 -29.576359 -88.076523 -0.57708448 170.49626 -0.56548965 170.53508 -27.00189 -69.532738
10700000000 -30.262537 -86.088531 -0.57719356 168.69844 -0.57166719 168.75505 -27.749287 -64.801727
10800000000 -31.494595 -82.96035 -0.57913762 166.95035 -0.57619143 166.98466 -28.718374 -58.405708
10900000000 -32.510971 -74.974609 -0.58133173 165.16008 -0.57527965 165.19646 -30.188158 -56.532162
11000000000 -33.379143 -72.515747 -0.58547384 163.37895 -0.5809657 163.40483 -30.777012 -55.614388
11100000000 -34.406227 -70.165192 -0.588162 161.59734 -0.58501148 161.63206 -31.239244 -54.89492
11200000000 -35.446777 -67.124077 -0.58989364 159.81416 -0.58607107 159.84317 -30.790928 -50.878643
11300000000 -36.276379 -55.477448 -0.59566003 158.01801 -0.58696944 158.07513 -30.8279 -46.431366
11400000000 -36.047321 -43.81773 -0.59519953 156.2408 -0.59136724 156.29373 -30.189451 -40.286388
11500000000 -35.83308 -29.139086 -0.59752738 154.45741 -0.5922516 154.49681 -30.021465 -33.972752
11600000000 -35.368305 -20.000526 -0.59825343 152.68628 -0.59466904 152.71516 -29.762671 -26.100914
11700000000 -34.76675 -10.0762 -0.60253274 150.90305 -0.59794712 150.92807 -29.654854 -20.532928
11800000000 -34.414742 -1.7519424 -0.60505444 149.11345 -0.59940004 149.15045 -29.120703 -15.258931
11900000000 -33.229881 3.0745361 -0.60896814 147.33549 -0.60473484 147.36853 -29.121517 -11.187267
12000000000 -32.378891 7.8750162 -0.61368799 145.52748 -0.61153346 145.58791 -28.603039 -9.3712158
12100000000 -31.055876 8.9011869 -0.61897141 143.78273 -0.61379766 143.80959 -28.395988 -8.153409
12200000000 -30.520565 8.110528 -0.6240111 142 -0.61863708 142.048 -27.864719 -8.6525183
12300000000 -29.399027 10.029893 -0.62638801 140.23279 -0.62253737 140.27882 -27.09812 -7.673388
12400000000 -28.827583 10.737891 -0.63141626 138.47458 -0.62496847 138.49733 -26.413847 -6.7493038
12500000000 -27.747305 13.045395 -0.63506591 136.72005 -0.62983769 136.75482 -25.946167 -4.675077
12600000000 -27.466646 12.316257 -0.63626844 134.95151 -0.63323593 134.98483 -25.355717 -3.9139593
12700000000 -26.803839 13.675829 -0.63756722 133.19081 -0.63273638 133.23016 -25.161942 -2.3884575
12800000000 -26.623117 11.360929 -0.63903886 131.44119 -0.63270915 131.45718 -24.678156 -3.2769818
12900000000 -25.976435 11.462381 -0.63462371 129.68074 -0.63069844 129.69618 -24.570984 -2.7234251
13000000000 -25.363619 8.9966602 -0.6310361 127.90219 -0.62840325 127.93913 -24.080019 -3.5972404
13100000000 -24.971083 11.276535 -0.63374656 126.14724 -0.62809694 126.1702 -23.851561 -3.877887
13200000000 -24.356964 9.3932543 -0.6313073 124.37021 -0.62603724 124.39266 -23.303413 -4.02951
13300000000 -24.2131 10.293592 -0.63065416 122.5621 -0.62514663 122.59732 -22.909044 -4.7946339
13400000000 -23.488655 8.1947174 -0.63093281 120.79085 -0.62212002 120.83263 -22.42906 -4.3168726
13500000000 -23.253468 8.6582355 -0.62814152 118.99142 -0.62297273 119.03356 -22.119299 -4.2024627
13600000000 -22.701721 7.7876735 -0.62739223 117.17992 -0.62335753 117.25075 -21.675407 -4.2845035
13700000000 -22.460133 6.8225942 -0.62923354 115.38914 -0.62562793 115.4287 -21.54105 -4.5944824
13800000000 -21.929255 6.2433524 -0.63029319 113.56379 -0.62709463 113.61654 -21.13476 -4.7221365
13900000000 -21.646965 3.0364211 -0.64046061 111.71634 -0.63933337 111.78068 -20.875526 -6.5184875
14000000000 -21.065689 1.8968726 -0.6582337 109.99871 -0.65408576 110.03854 -20.386929 -7.7824712
14100000000 -21.195993 1.19222 -0.65195745 108.34035 -0.64873987 108.39268 -20.481228 -9.2519102
14200000000 -20.810541 2.1896837 -0.64153802 106.54161 -0.6387462 106.60492 -20.084024 -8.9813833
14300000000 -20.650818 0.36864164 -0.63911986 104.70724 -0.63565409 104.76414 -19.952557 -10.113336
14400000000 -20.318127 -0.1322414 -0.64121723 102.89172 -0.63517016 102.9488 -19.481922 -10.576748
14500000000 -19.997555 -2.7491548 -0.64498836 101.07252 -0.64187413 101.12716 -19.288794 -12.151192
14600000000 -19.540201 -3.0803859 -0.6523301 99.271828 -0.64562899 99.304749 -18.921654 -11.7009
14700000000 -19.253971 -5.3301001 -0.65942818 97.47776 -0.64948869 97.518051 -18.727921 -12.596093
14800000000 -19.070299 -6.3820729 -0.66536498 95.662025 -0.6593321 95.71814 -18.579569 -12.754521
14900000000 -18.851433 -9.8912592 -0.67977202 93.878235 -0.6756615 93.912071 -18.615252 -14.934139
15000000000 -18.941492 -12.04441 -0.69759339 92.304604 -0.69240111 92.329941 -18.598953 -18.819412
15100000000 -18.753473 -12.545226 -0.6731354 90.544861 -0.66631699 90.604774 -18.485992 -20.087267
15200000000 -18.572687 -12.394699 -0.66731119 88.669937 -0.66478151 88.735855 -17.987135 -21.586313
15300000000 -18.128159 -14.797334 -0.67640287 86.836754 -0.67156243 86.872978 -17.616972 -21.817398
15400000000 -18.230238 -17.472725 -0.6923334 85.077194 -0.68751103 85.117081 -17.489922 -21.922077
15500000000 -17.869356 -19.137871 -0.68050349 83.295593 -0.67436761 83.361778 -17.601601 -21.642229
15600000000 -17.900003 -21.83285 -0.6898452 81.45948 -0.6862396 81.517807 -17.650446 -22.64473
15700000000 -17.546118 -22.924461 -0.70001024 79.714684 -0.69574291 79.770897 -17.643944 -26.320789
15800000000 -17.610235 -24.366081 -0.71025282 77.934433 -0.70518911 77.988312 -17.396559 -29.344522
15900000000 -17.36268 -25.000179 -0.71786034 76.202538 -0.71444839 76.240219 -17.101509 -32.014771
16000000000 -17.566595 -28.300318 -0.72506273 74.508514 -0.71966588 74.55246 -16.898289 -32.725216
16100000000 -17.466301 -29.31455 -0.72914654 72.825081 -0.72472841 72.864212 -16.819763 -33.347309
16200000000 -17.46936 -33.019192 -0.72512299 71.125702 -0.72641134 71.172798 -16.903532 -32.554859
16300000000 -17.38752 -33.068142 -0.72257531 69.420052 -0.71606928 69.464943 -16.91913 -34.676983
16400000000 -17.157793 -34.783123 -0.71510357 67.639641 -0.70902717 67.692528 -16.974676 -34.90868
16500000000 -17.146154 -33.50626 -0.70322675 65.882507 -0.70315158 65.941093 -16.940241 -37.766899
16600000000 -17.029902 -34.947727 -0.69929987 64.088249 -0.6961273 64.149315 -16.77219 -38.025154
16700000000 -17.237501 -35.586834 -0.70292759 62.300907 -0.69857287 62.327637 -16.612272 -40.048363
16800000000 -17.077513 -38.815872 -0.69696027 60.505913 -0.69719791 60.544384 -16.594963 -39.389259
16900000000 -17.115057 -41.285576 -0.696491 58.688675 -0.69689488 58.741035 -16.435083 -40.972771
17000000000 -16.652948 -42.929283 -0.69796211 56.914326 -0.69595408 56.961304 -16.565357 -41.859638
17100000000 -16.623501 -43.049397 -0.70128047 55.14608 -0.69860601 55.183594 -16.385733 -43.896271
17200000000 -16.47271 -42.559158 -0.7054857 53.357105 -0.70554417 53.393291 -16.518164 -45.388412
17300000000 -16.781187 -44.048958 -0.70582157 51.572021 -0.70264393 51.603508 -16.242867 -46.871799
17400000000 -16.943443 -46.32386 -0.70984948 49.788952 -0.70674139 49.842167 -16.330564 -47.070972
17500000000 -16.990612 -51.30962 -0.70843232 48.009335 -0.70909727 48.074863 -16.228436 -47.262836
17600000000 -16.682657 -52.995789 -0.71178645 46.22525 -0.70688397 46.295769 -16.489456 -48.503822
17700000000 -16.493547 -54.377232 -0.71396232 44.478268 -0.712071 44.527382 -16.558502 -50.094864
17800000000 -16.522659 -53.035168 -0.71993136 42.701199 -0.71195269 42.757309 -16.717869 -53.538944
17900000000 -16.826967 -54.3689 -0.72080773 40.908092 -0.71354616 40.976166 -16.55637 -55.96088
18000000000 -17.211691 -56.373066 -0.71993595 39.123108 -0.71903378 39.166237 -16.365974 -57.472462
18100000000 -17.145575 -61.571247 -0.72184104 37.3769 -0.71576649 37.415867 -16.13961 -56.586452
18200000000 -16.976482 -64.037483 -0.73039192 35.633469 -0.72276306 35.690201 -16.22015 -56.155876
18300000000 -16.730007 -65.840172 -0.72882992 33.947498 -0.72079027 34.002815 -16.614904 -55.856476
18400000000 -16.997438 -64.712616 -0.71353453 32.188457 -0.71205455 32.22578 -17.138838 -57.565899
18500000000 -17.130236 -65.293594 -0.71358854 30.347836 -0.71183985 30.376871 -17.384697 -62.303722
18600000000 -17.490688 -66.697006 -0.7141701 28.56044 -0.7102778 28.569611 -17.102104 -66.337204
18700000000 -17.342703 -69.786385 -0.70912135 26.746462 -0.70949775 26.803905 -16.685961 -67.558044
18800000000 -17.423935 -72.608429 -0.71188468 25.000843 -0.70571959 25.072447 -16.287045 -65.904457
18900000000 -17.21439 -73.614204 -0.71310991 23.253883 -0.70645267 23.30348 -16.32836 -63.553642
19000000000 -17.350954 -76.150284 -0.71364897 21.523087 -0.70541716 21.579731 -16.97019 -61.701752
19100000000 -17.544477 -75.397827 -0.71117079 19.780621 -0.70707983 19.831993 -17.373608 -64.154831
19200000000 -17.72732 -77.289879 -0.71534282 17.984858 -0.70733815 18.03915 -18.037624 -68.781029
19300000000 -17.931046 -77.828781 -0.71366632 16.165346 -0.70890433 16.245665 -17.524082 -72.732567
19400000000 -18.04768 -80.531105 -0.71686429 14.442524 -0.70851976 14.494963 -17.472946 -73.551949
19500000000 -18.401693 -82.898094 -0.71259469 12.667973 -0.7025919 12.697714 -17.102446 -72.736198
19600000000 -18.261957 -86.03569 -0.70492512 10.891649 -0.70213789 10.933578 -17.442766 -70.593803
19700000000 -18.349899 -87.655251 -0.7086575 9.1325769 -0.69784993 9.1857786 -17.729765 -70.418449
19800000000 -18.315281 -87.294319 -0.70463437 7.3632674 -0.69730765 7.41467 -18.39146 -73.167618
19900000000 -18.798323 -86.850647 -0.70014375 5.6134472 -0.69105089 5.6376538 -18.449783 -75.216858
20000000000 -19.414894 -88.566978 -0.69989592 3.8169436 -0.69544941 3.851898 -18.598856 -78.403221
20100000000 -20.103533 -93.285843 -0.69539142 2.0149992 -0.68765807 2.0810397 -18.46734 -76.872345
20200000000 -20.040474 -98.941757 -0.69312799 0.23364738 -0.68729961 0.2950052 -18.710688 -76.07151
20300000000 -19.846762 -102.38959 -0.69078714 -1.5337569 -0.68584645 -1.4853305 -19.211004 -74.815758
20400000000 -19.886606 -100.42484 -0.68076235 -3.3054869 -0.67855042 -3.2837522 -19.78949 -78.606194
20500000000 -20.445274 -97.811493 -0.68245405 -5.1662488 -0.68125528 -5.1090231 -20.086199 -81.177475
20600000000 -21.312115 -97.398277 -0.68109149 -6.9855123 -0.67841846 -6.9201903 -19.822521 -84.049812
20700000000 -22.227835 -103.41641 -0.68245918 -8.7925568 -0.67702478 -8.7783279 -19.767309 -81.229942
20800000000 -22.411896 -108.23412 -0.69588327 -10.575609 -0.68899119 -10.521826 -19.55584 -78.333382
20900000000 -22.025818 -112.99214 -0.68353069 -12.2719 -0.6757822 -12.247103 -19.991444 -73.278381
21000000000 -21.991268 -112.75355 -0.67849112 -14.038481 -0.66907376 -13.998575 -21.006676 -73.987534
21100000000 -22.497099 -109.61075 -0.67400479 -15.83995 -0.66258824 -15.7939 -21.654799 -75.801895
21200000000 -23.710562 -108.5414 -0.67317986 -17.702066 -0.66346061 -17.680111 -22.430794 -81.901291
21300000000 -24.505787 -111.66055 -0.66851819 -19.562458 -0.66320372 -19.535275 -21.906193 -84.785728
21400000000 -25.532789 -118.96217 -0.67022777 -21.417145 -0.66881585 -21.374161 -21.580683 -81.168274
21500000000 -24.878399 -123.55983 -0.66474682 -23.298128 -0.66272545 -23.240133 -20.867352 -79.33931
21600000000 -25.564693 -126.51217 -0.67324877 -25.074989 -0.66824913 -25.004221 -21.181479 -71.045029
21700000000 -25.711552 -119.75193 -0.67111379 -26.833662 -0.66531849 -26.785803 -21.668524 -64.82325
21800000000 -27.304708 -114.30941 -0.67850018 -28.594032 -0.67535335 -28.53054 -23.217806 -61.365124
21900000000 -28.859621 -107.80521 -0.69161725 -30.336033 -0.68570942 -30.270643 -23.942982 -60.638214
22000000000 -31.407 -114.78863 -0.70710665 -32.081249 -0.69905114 -32.018219 -24.711599 -70.235481
22100000000 -31.844006 -125.74348 -0.68858713 -33.807911 -0.68154514 -33.763584 -23.278849 -72.541466
22200000000 -31.654913 -146.03703 -0.68231863 -35.717243 -0.67890239 -35.689873 -23.247988 -71.450447
22300000000 -32.98254 -142.75711 -0.68175411 -37.649384 -0.67457741 -37.61866 -22.032703 -60.323406
22400000000 -35.299255 -121.08922 -0.68890291 -39.430729 -0.68052131 -39.396366 -22.805977 -51.548935
22500000000 -37.843338 -71.213387 -0.6904403 -41.242561 -0.68608528 -41.189281 -23.002304 -41.370632
22600000000 -39.123058 -18.618763 -0.70220816 -42.965088 -0.69285715 -42.920403 -24.622398 -42.863464
22700000000 -37.350597 33.93116 -0.71096224 -44.684555 -0.70303655 -44.631145 -24.159288 -43.381603
22800000000 -38.98732 80.152245 -0.71632266 -46.419102 -0.70689857 -46.381046 -24.01067 -52.837021
22900000000 -40.2034 84.178474 -0.71983117 -48.317913 -0.7085554 -48.271183 -22.365778 -46.065071
23000000000 -41.83783 0.27272525 -0.72430754 -50.116875 -0.71764779 -50.073818 -21.962893 -43.745308
23100000000 -32.61879 1.2466159 -0.72369164 -51.915283 -0.72204125 -51.831783 -21.448484 -31.873323
23200000000 -28.561665 9.793294 -0.72527903 -53.632751 -0.71980852 -53.606987 -22.585855 -29.865894
23300000000 -26.734039 27.781952 -0.72956324 -55.432331 -0.72162706 -55.394257 -23.026775 -26.06671
23400000000 -27.232727 38.808228 -0.7273652 -57.190052 -0.72145623 -57.164135 -22.892138 -39.164204
23500000000 -28.571207 49.236057 -0.7264716 -58.946091 -0.72038358 -58.916893 -21.779633 -41.109863
23600000000 -29.411036 36.364559 -0.72684038 -60.722317 -0.72154856 -60.671528 -20.159119 -42.747028
23700000000 -27.666914 18.04357 -0.72855228 -62.491589 -0.71915263 -62.451309 -19.472151 -31.191101
23800000000 -25.224134 10.324212 -0.72983152 -64.313797 -0.72447395 -64.247124 -19.672436 -25.442347
23900000000 -23.506123 17.857227 -0.73418921 -66.061478 -0.73121953 -66.044006 -20.165876 -17.936537
24000000000 -22.703716 21.555527 -0.72770375 -67.956337 -0.7215302 -67.939636 -21.681633 -25.304253
24100000000 -23.259432 27.979765 -0.71876866 -69.774071 -0.71682489 -69.735695 -21.200735 -35.453354
24200000000 -23.686697 25.509972 -0.71711588 -71.593887 -0.70948434 -71.530869 -19.769299 -40.643471
24300000000 -23.713699 17.113571 -0.7117151 -73.354645 -0.71231896 -73.31308 -18.256876 -39.512817
24400000000 -21.89673 8.4373884 -0.71145743 -75.100769 -0.71432084 -75.060623 -17.457973 -31.531124
24500000000 -20.909781 6.1542692 -0.72448254 -76.883583 -0.71961361 -76.818207 -17.450672 -25.604124
24600000000 -19.789558 9.5765886 -0.7400434 -78.686844 -0.72823697 -78.645149 -17.935736 -21.560671
24700000000 -19.947773 10.776043 -0.7408756 -80.496628 -0.73296291 -80.469048 -18.638987 -25.433779
24800000000 -20.220367 12.622963 -0.74107337 -82.398354 -0.74137974 -82.32795 -18.873205 -33.030979
24900000000 -20.420656 5.391747 -0.73961091 -84.20256 -0.73689801 -84.132652 -17.844526 -37.634949
25000000000 -19.793442 1.4160925 -0.74126369 -85.975311 -0.7433579 -85.925301 -16.900999 -40.120964
25100000000 -18.734724 -5.2523675 -0.74862963 -87.674545 -0.73954648 -87.651291 -16.047153 -34.587437
25200000000 -18.098318 -2.6367269 -0.7579127 -89.398506 -0.74930602 -89.365005 -16.076246 -33.703716
25300000000 -17.518215 -2.8153765 -0.7732659 -91.13961 -0.7676006 -91.103287 -16.25782 -30.392986
25400000000 -17.968199 -0.17593011 -0.7803756 -92.99707 -0.76890254 -92.950348 -16.533949 -36.447102
25500000000 -17.820793 -2.8908267 -0.78845036 -94.763084 -0.77843595 -94.717392 -16.418423 -35.187355
25600000000 -18.104244 -9.259306 -0.79032862 -96.653519 -0.77920341 -96.587845 -16.201206 -41.422352
25700000000 -17.48374 -11.516239 -0.7848919 -98.361656 -0.78065348 -98.360931 -15.443946 -39.503174
25800000000 -17.033175 -13.283365 -0.79358107 -100.18147 -0.78928632 -100.05887 -15.436272 -41.120293
25900000000 -16.419275 -12.862871 -0.79457778 -101.79878 -0.79789776 -101.81232 -15.024894 -40.211445
26000000000 -16.470282 -14.793709 -0.80005056 -103.64514 -0.79658401 -103.58044 -15.065342 -41.443367
26100000000 -16.447502 -14.08554 -0.81287998 -105.44324 -0.80011189 -105.35604 -15.0196 -42.827656
26200000000 -16.229862 -15.35145 -0.81343096 -107.16555 -0.81090206 -107.11562 -14.921381 -42.606274
26300000000 -16.199993 -17.675924 -0.82861137 -108.90038 -0.82675564 -108.82555 -15.080602 -46.25465
26400000000 -16.066313 -21.590628 -0.82876742 -110.74787 -0.82740355 -110.62824 -14.539325 -45.628872
26500000000 -15.983232 -23.478716 -0.83580983 -112.3976 -0.82421398 -112.34453 -14.683843 -48.498253
26600000000 -15.581288 -24.549185 -0.84165442 -114.11613 -0.8365705 -114.14478 -14.154143 -48.465263
26700000000 -15.423761 -24.135242 -0.83778751 -115.89177 -0.83474743 -115.84739 -14.087995 -48.886478
26800000000 -15.357226 -25.556894 -0.84082246 -117.71192 -0.82734716 -117.71987 -14.217769 -48.722397
26900000000 -15.455048 -27.445528 -0.85355693 -119.33313 -0.82788557 -119.34212 -14.336891 -50.670387
27000000000 -15.326597 -29.874756 -0.83036953 -121.14454 -0.82873136 -121.07787 -14.784134 -51.27256
27100000000 -15.187801 -34.619953 -0.84230709 -122.87836 -0.83420473 -122.74355 -14.234033 -57.209
27200000000 -15.132548 -32.886631 -0.83884025 -124.71766 -0.84170878 -124.68702 -14.093467 -57.931
27300000000 -15.158231 -36.342278 -0.84743953 -126.36705 -0.83560991 -126.38941 -13.610736 -56.872742
27400000000 -14.920303 -36.874714 -0.86467171 -128.24089 -0.82768452 -128.16891 -13.92049 -56.75779
27500000000 -15.194819 -39.032448 -0.85555589 -130.0726 -0.85128987 -129.92418 -13.967695 -56.483601
27600000000 -15.027694 -40.458111 -0.84399378 -131.85948 -0.83272064 -131.69106 -14.707573 -60.036892
27700000000 -14.831868 -43.196301 -0.84057397 -133.51645 -0.83577967 -133.57509 -14.184667 -63.15572
27800000000 -14.839622 -43.039829 -0.84689271 -135.2294 -0.84853619 -135.22372 -14.072374 -66.759621
27900000000 -14.865681 -45.599705 -0.84764057 -137.01068 -0.82743955 -136.82736 -13.240268 -65.094978
28000000000 -15.178397 -45.44363 -0.85371983 -138.90364 -0.83264041 -138.64342 -13.573111 -66.408913
28100000000 -15.000268 -49.26252 -0.83923906 -140.66002 -0.83280218 -140.55136 -13.792799 -64.170143
28200000000 -14.97721 -50.113708 -0.83379507 -142.42296 -0.85568893 -142.30652 -14.287143 -67.461578
28300000000 -14.450303 -51.490726 -0.83720958 -144.40138 -0.83113301 -144.07054 -14.138247 -69.897125
28400000000 -14.736224 -53.221317 -0.84486091 -145.87778 -0.86285603 -146.02608 -13.945478 -75.329346
28500000000 -14.677942 -52.467617 -0.85108268 -147.76181 -0.84549236 -147.49396 -13.35175 -71.561745
28600000000 -14.67761 -54.431679 -0.84657311 -149.54175 -0.83137065 -149.48291 -13.290952 -73.344261
28700000000 -14.758526 -54.365047 -0.85549289 -151.18213 -0.84542131 -151.12892 -13.719445 -69.215981
28800000000 -15.14819 -57.674629 -0.88577676 -152.92787 -0.91054261 -152.94266 -14.551202 -71.903336
28900000000 -14.831479 -55.268703 -0.86485553 -154.60411 -0.86964345 -154.69998 -14.299195 -76.718193
29000000000 -14.629471 -63.41188 -0.89578974 -156.47626 -0.88768232 -156.36539 -13.997093 -80.949821
29100000000 -14.748993 -63.305412 -0.86260313 -158.38815 -0.85260201 -158.21779 -13.041527 -81.388702
29200000000 -14.49696 -64.090508 -0.84938568 -160.0808 -0.84171098 -159.97971 -13.305183 -78.822197
29300000000 -14.834541 -60.857643 -0.85053068 -161.8362 -0.83728927 -161.87321 -13.459888 -75.125511
29400000000 -14.750113 -64.062714 -0.84581757 -163.51445 -0.86141485 -163.48366 -14.954358 -76.02536
29500000000 -15.632427 -65.36618 -0.88227725 -165.27513 -0.87072986 -165.17921 -15.111423 -79.778145
29600000000 -15.479944 -70.078354 -0.85938317 -167.09329 -0.87733823 -166.96452 -15.371311 -87.903702
29700000000 -15.499834 -72.942703 -0.87802482 -168.83742 -0.88527679 -168.87598 -14.505462 -86.847115
29800000000 -14.92492 -73.329788 -0.90454119 -170.57936 -0.88855672 -170.48019 -14.207273 -90.288872
29900000000 -15.194132 -74.86541 -0.86765057 -172.25403 -0.85290945 -172.32677 -13.609353 -82.863556
30000000000 -15.769026 -70.835381 -0.86793035 -174.08691 -0.87606615 -174.00822 -14.794316 -84.140488
30100000000 -16.253693 -72.754059 -0.85452968 -175.9686 -0.85877711 -175.93141 -15.267024 -81.52774
30200000000 -16.440729 -73.412949 -0.85826075 -177.51259 -0.84753233 -177.42723 -16.427032 -91.404037
30300000000 -16.309832 -85.092438 -0.86039603 -179.38712 -0.85623717 -179.38667 -15.966097 -89.7174
30400000000 -16.163141 -85.121094 -0.86111277 178.85303 -0.86276382 178.94112 -15.323824 -98.932426
30500000000 -15.976804 -84.160126 -0.83828259 176.99678 -0.83131045 177.18799 -15.211673 -90.496124
30600000000 -16.048048 -82.388718 -0.80857956 175.41919 -0.83948684 175.42076 -15.186935 -94.292641
30700000000 -16.355141 -84.81707 -0.82690465 173.76312 -0.84248871 173.75468 -15.956415 -87.162384
30800000000 -17.378233 -82.267677 -0.83071804 171.94228 -0.85409224 171.87605 -16.780035 -95.231407
30900000000 -17.254337 -86.850693 -0.81527948 170.02928 -0.82171512 170.21773 -16.911888 -90.864189
31000000000 -18.199823 -86.049927 -0.82015526 168.31493 -0.83073592 168.4938 -16.702362 -99.82148
31100000000 -17.042843 -97.191711 -0.83205217 166.20074 -0.83117783 166.38879 -16.374546 -99.786575
31200000000 -17.067863 -96.845573 -0.80047166 164.6355 -0.81215274 164.66354 -16.157322 -95.215561
31300000000 -16.581116 -93.602814 -0.80544895 162.74467 -0.79665768 162.8501 -16.957436 -96.238106
31400000000 -17.551332 -85.01342 -0.79572052 161.16194 -0.7943415 161.1792 -17.279545 -94.264481
31500000000 -18.586271 -86.560272 -0.7822454 159.42055 -0.79208964 159.53328 -18.925802 -94.53624
31600000000 -20.756149 -94.737877 -0.80219758 157.60872 -0.82301205 157.75328 -18.649191 -103.10885
31700000000 -20.190449 -106.38284 -0.81393766 155.77084 -0.79794657 155.92682 -18.592955 -102.87364
31800000000 -19.185722 -104.13405 -0.78865552 153.70164 -0.79282784 154.06447 -18.000771 -106.48937
31900000000 -17.804049 -96.335701 -0.77995706 151.88863 -0.78132433 151.99547 -18.112646 -97.912354
32000000000 -19.286491 -93.336182 -0.77928984 150.17595 -0.7819556 150.33521 -18.584984 -98.416611
32100000000 -21.866076 -79.842255 -0.76947081 148.34882 -0.74320674 148.511 -19.571558 -88.116089
32200000000 -25.081932 -99.971725 -0.77677268 146.73224 -0.76233232 146.70511 -21.461117 -92.760971
32300000000 -25.363976 -107.05333 -0.77719063 144.78763 -0.78698027 145.04446 -21.572821 -92.701797
32400000000 -22.223028 -112.63384 -0.81606966 142.9884 -0.79891008 143.24544 -23.211864 -110.67715
32500000000 -22.262218 -99.23275 -0.79389215 141.00113 -0.75828689 141.25027 -21.607471 -106.99658
32600000000 -22.25424 -94.148125 -0.77525115 139.21141 -0.77221251 139.4296 -21.008108 -102.87234
32700000000 -26.212233 -62.826408 -0.75904036 137.43175 -0.7909171 137.44333 -20.149958 -92.897583
32800000000 -25.596256 -76.540367 -0.7909494 135.74155 -0.76936758 135.87515 -20.441681 -77.327187
32900000000 -31.506296 -92.900002 -0.77734232 133.83934 -0.74828792 133.7509 -22.025618 -65.174324
33000000000 -27.490891 -105.47686 -0.78268987 131.91338 -0.75531834 132.0661 -23.976585 -66.594528
33100000000 -26.797123 -90.558807 -0.80637765 130.07344 -0.77629912 130.23277 -27.181154 -75.679642
33200000000 -25.080963 -79.218979 -0.76863831 128.27422 -0.80829173 128.40028 -22.622097 -86.197853
33300000000 -27.878141 -68.274849 -0.79087299 126.61463 -0.80031013 126.67274 -23.325953 -83.810265
33400000000 -28.316402 -56.45266 -0.76050931 124.88212 -0.77795535 124.69423 -20.018799 -73.987244
33500000000 -29.023884 -61.991562 -0.79031217 122.88527 -0.78942138 123.15648 -21.394577 -62.213993
33600000000 -27.535175 -51.408531 -0.7656855 121.29462 -0.7705124 121.3026 -21.099411 -55.334152
33700000000 -28.179995 -57.028278 -0.81393421 119.481 -0.77304661 119.55518 -22.468544 -48.45467
33800000000 -28.77854 -46.637413 -0.80889732 117.6446 -0.82019591 117.62046 -22.95693 -56.83968
33900000000 -30.613924 -42.407391 -0.85135067 115.69442 -0.81147403 115.68882 -22.000364 -58.056446
34000000000 -26.864832 -24.98151 -0.83144057 114.03643 -0.81440914 114.10013 -21.173733 -46.542549
34100000000 -25.20591 -32.057896 -0.83366841 112.25481 -0.83223218 112.1974 -20.801172 -51.457436
34200000000 -23.457769 -20.947098 -0.79167962 110.61268 -0.79340732 110.62299 -19.88579 -33.757645
34300000000 -24.249401 -19.725946 -0.83383334 108.53242 -0.80496722 108.45655 -20.985243 -48.934605
34400000000 -23.670059 -12.89383 -0.84088778 106.9204 -0.82162344 106.84765 -21.041025 -38.848591
34500000000 -24.199266 -17.609402 -0.85374975 104.67957 -0.86231548 104.92596 -19.949495 -48.283848
34600000000 -22.936743 -13.722675 -0.8777346 102.92392 -0.87224537 103.03421 -18.547541 -41.032494
34700000000 -21.323866 -12.289691 -0.87164289 101.19621 -0.8774057 101.17191 -17.757929 -38.626553
34800000000 -21.307541 -5.6519332 -0.84444618 99.698776 -0.88057595 99.728088 -18.158258 -27.224035
34900000000 -20.964262 -10.804725 -0.87129647 97.658813 -0.89680701 97.842712 -18.682131 -26.859877
35000000000 -20.664711 -6.8410678 -0.87714309 95.96199 -0.87018806 95.954185 -20.268124 -21.221279
35100000000 -18.912981 -12.479489 -0.89641625 93.970093 -0.90089023 94.118576 -18.84165 -35.582855
35200000000 -18.368967 -9.2212315 -0.88944679 92.402916 -0.89816254 92.54454 -17.993582 -44.029625
35300000000 -17.981289 -13.666011 -0.90097338 90.802925 -0.94372582 90.645645 -15.700919 -39.617229
35400000000 -19.038782 -9.3382902 -0.88050431 89.002144 -0.91275233 89.051857 -15.702662 -41.208897
35500000000 -17.354841 -8.9613914 -0.92181432 87.17041 -0.88913733 87.332855 -15.648221 -33.812805
35600000000 -18.977615 -15.029139 -0.88286662 85.524269 -0.90387082 85.368454 -16.558334 -31.481829
35700000000 -18.325338 -20.330635 -0.94833231 83.490036 -0.92288858 83.54422 -16.900297 -37.033051
35800000000 -17.552179 -20.246559 -0.898076 81.748558 -0.96295005 81.816437 -16.083115 -42.695511
35900000000 -16.479683 -17.04178 -0.92762202 79.998131 -0.92889363 79.780342 -16.11722 -51.039421
36000000000 -16.126663 -19.259527 -0.9127472 78.198082 -0.92503864 78.243324 -14.226656 -43.153633
36100000000 -16.066526 -13.648107 -0.96781278 76.288414 -0.94462085 76.292877 -14.995521 -43.234959
36200000000 -16.91633 -21.333319 -0.9455328 74.58139 -0.95786846 74.888412 -14.694349 -42.939869
36300000000 -17.689787 -16.277878 -0.93570101 72.570641 -0.94707012 72.388039 -15.360494 -48.641823
36400000000 -17.642403 -28.002874 -0.93413848 70.938431 -0.92517316 70.618454 -14.708995 -50.857159
36500000000 -15.843948 -31.866787 -0.9631691 68.997154 -0.9803248 69.160522 -14.179851 -56.575802
36600000000 -13.970441 -34.469818 -0.90641582 67.560783 -0.91473949 67.640358 -12.656421 -45.413776
36700000000 -14.094922 -25.604994 -0.97219229 65.60627 -0.95966905 65.957291 -13.044962 -51.629726
36800000000 -14.02511 -19.92729 -0.97132391 64.122482 -0.97756171 64.077248 -13.073831 -40.374935
36900000000 -16.69805 -18.721487 -1.037248 62.226219 -1.0234689 62.031403 -14.453055 -48.447681
37000000000 -15.844095 -30.255655 -1.0521275 60.392315 -1.0262164 60.259674 -15.155699 -49.939957
37100000000 -15.15844 -50.819141 -0.99659985 58.108704 -0.98646116 57.745712 -13.766219 -62.589233
37200000000 -13.443013 -40.990108 -1.0021528 56.455086 -0.99898738 56.387352 -12.934044 -59.186241
37300000000 -12.534299 -34.799 -0.95640832 54.873119 -0.99142802 54.974033 -11.433931 -57.372593
37400000000 -12.225525 -29.127693 -0.96746439 53.483879 -0.96707273 53.515568 -11.57066 -50.746487
37500000000 -13.982783 -34.810715 -1.0197624 51.678772 -0.99497753 51.641174 -11.962798 -50.873409
37600000000 -15.092872 -39.402401 -1.0534945 50.152168 -1.0134588 50.098309 -13.208553 -48.369984
37700000000 -14.095138 -49.984604 -1.0553714 48.217304 -1.0318172 47.952751 -14.109528 -54.025856
37800000000 -12.900186 -47.933376 -1.032809 46.240185 -1.0332179 46.392426 -12.938892 -65.341949
37900000000 -11.969193 -46.048954 -1.0470775 44.535801 -0.99171948 44.482391 -12.590448 -70.510429
38000000000 -12.708371 -43.052723 -1.040503 42.708374 -1.0327227 42.675751 -10.842475 -66.257996
38100000000 -13.113342 -45.030445 -0.9642207 41.283775 -1.0343375 41.075039 -11.382492 -60.512772
38200000000 -13.591365 -49.907318 -1.0314614 39.610748 -1.0202928 39.322681 -11.226092 -58.283714
38300000000 -12.698267 -51.886181 -1.0099771 37.841923 -0.97577989 37.649017 -12.955046 -55.788605
38400000000 -12.183361 -56.37957 -1.0092102 35.649288 -0.99185932 36.340042 -13.714715 -63.674706
38500000000 -12.210193 -57.87365 -1.0432132 34.20657 -1.0361806 34.262581 -12.953351 -73.355774
38600000000 -13.107115 -51.917526 -0.98290658 32.663689 -1.0226451 32.651768 -11.685309 -72.376862
38700000000 -12.383654 -53.207428 -1.0304866 30.763876 -1.0168468 30.945641 -11.044388 -75.295509
38800000000 -13.217569 -58.534012 -0.99383843 29.206032 -0.98718697 29.255554 -11.461416 -66.479538
38900000000 -13.062762 -60.086651 -0.96378148 27.190197 -0.96867585 27.185053 -12.355915 -72.646622
39000000000 -13.411246 -61.141354 -0.97797602 25.598658 -1.024441 25.344004 -13.019948 -69.631828
39100000000 -12.977018 -65.68148 -0.95944113 23.316336 -0.98125792 23.202381 -12.683126 -87.97139
39200000000 -12.328769 -68.779488 -1.0183961 21.855146 -0.99947256 21.934948 -12.093545 -79.194275
39300000000 -12.056092 -62.609081 -0.95799559 19.778532 -1.0389922 19.614647 -10.997752 -83.107445
39400000000 -13.435473 -62.762539 -1.025625 18.400705 -1.0323119 18.343388 -11.57855 -72.417046
39500000000 -14.989811 -56.598953 -1.0169348 16.431389 -0.9823308 16.372316 -12.263952 -77.64473
39600000000 -13.970895 -74.060463 -0.95819795 14.52354 -1.0563663 14.623085 -14.000366 -70.339699
39700000000 -13.828585 -84.68145 -0.99930084 12.564735 -0.92248458 12.493406 -13.99304 -92.541389
39800000000 -11.79717 -81.356842 -0.98390359 10.691945 -0.96802205 10.857578 -12.840498 -88.482216
39900000000 -12.409848 -67.723267 -0.99477637 8.8425274 -1.0114682 9.5463305 -11.490953 -97.52935
40000000000 -12.674928 -65.757607 -1.0075196 7.3256521 -1.0038224 7.8088245 -10.940113 -82.843452
40100000000 -16.076063 -70.304993 -1.0404294 5.4009838 -1.0381961 5.6410828 -11.692078 -78.677124
40200000000 -16.331453 -81.245361 -1.0072666 3.3819559 -1.0158232 4.0838566 -13.194327 -74.43782
40300000000 -14.906421 -99.84436 -0.99946475 1.6392533 -1.0431099 1.8100188 -14.10994 -82.204605
40400000000 -12.66981 -88.312263 -1.0238783 0.51548094 -0.99096817 0.38092226 -14.493833 -98.730476
40500000000 -12.676659 -77.80587 -1.0311443 -1.6549673 -1.0276303 -1.3696618 -13.113755 -102.00233
40600000000 -13.131621 -69.887482 -0.94705981 -2.7178066 -1.0046999 -3.05808 -12.261122 -97.194397
40700000000 -16.022768 -86.175941 -1.063956 -4.9666562 -1.0164435 -5.1301274 -11.923433 -93.687057
40800000000 -16.278193 -82.84726 -1.016343 -6.3919082 -1.0229989 -6.4837112 -12.780653 -81.919067
40900000000 -14.028565 -95.670265 -0.94269496 -8.1534052 -0.9762615 -8.503643 -14.774801 -85.467674
41000000000 -12.728074 -95.014595 -1.0039755 -10.328596 -1.0262072 -10.171468 -14.907554 -86.825645
41100000000 -13.732244 -94.720573 -1.0684422 -12.045043 -1.0262705 -12.061959 -14.859114 -105.71598
41200000000 -15.161902 -81.130188 -1.0280738 -13.475344 -1.0271715 -13.651483 -14.537629 -99.955757
41300000000 -15.218165 -90.286446 -0.99951977 -15.190372 -0.9961772 -15.304255 -14.263934 -103.53445
41400000000 -16.467472 -96.736267 -1.0188864 -17.044783 -1.0291747 -17.355015 -13.874664 -88.383026
41500000000 -15.466951 -99.689491 -0.98611128 -19.07358 -0.97408175 -18.686434 -14.101522 -93.167854
41600000000 -15.279276 -91.093086 -1.0056611 -20.645424 -0.93650764 -20.585272 -15.442033 -89.252029
41700000000 -15.353602 -95.061119 -0.96229124 -22.531469 -1.0685674 -22.650846 -15.389126 -100
41800000000 -16.557461 -99.137558 -1.0222927 -24.032101 -0.99038869 -24.635414 -16.331156 -96.355438
41900000000 -16.493734 -101.48683 -0.97303361 -25.991158 -0.99190879 -25.983925 -14.631628 -107.45081
42000000000 -16.405426 -96.309105 -0.94150001 -28.13369 -1.0047091 -27.676453 -16.04932 -95.368675
42100000000 -15.679317 -89.908112 -1.0061491 -29.615875 -1.005376 -29.176498 -15.515649 -101.79664
42200000000 -18.304279 -93.871368 -0.98316109 -31.441549 -0.96126336 -31.33219 -17.130241 -82.841331
42300000000 -20.485615 -100.5501 -0.98799253 -33.377308 -1.0066406 -33.034035 -15.832097 -96.475945
42400000000 -19.035561 -126.85709 -0.94289368 -34.73045 -1.0311813 -34.698521 -19.677544 -95.307579
42500000000 -16.262922 -106.11257 -0.87620801 -37.01881 -1.0260124 -36.793995 -17.541491 -107.48171
42600000000 -15.649913 -99.125053 -0.91125745 -38.628342 -0.97904062 -38.510342 -19.913103 -99.132484
42700000000 -19.757206 -82.972527 -0.98242295 -40.708988 -1.0057392 -40.275192 -15.87234 -101.29364
42800000000 -21.326813 -70.800781 -0.98606092 -41.915836 -1.0005659 -41.945744 -17.673372 -98.651733
42900000000 -32.420139 -60.356796 -0.88630497 -43.847355 -0.94753855 -43.68589 -17.010525 -83.784187
43000000000 -24.264818 -143.00327 -0.98711973 -46.110649 -0.97783369 -46.087234 -17.202469 -76.80101
43100000000 -18.990847 -137.15353 -1.0085523 -48.017567 -0.94221836 -47.97488 -21.925213 -81.47229
43200000000 -17.78038 -103.5274 -0.91263318 -49.216221 -0.94399476 -48.750927 -23.66485 -85.524109
43300000000 -20.657751 -78.957352 -0.94177169 -50.245556 -0.97491306 -50.528179 -21.754936 -111.42089
43400000000 -21.618029 -41.886204 -0.85653323 -52.592346 -0.90705377 -52.412083 -18.954367 -88.996193
43500000000 -27.864346 3.3650596 -0.97638756 -54.240818 -0.92000532 -54.227402 -17.290888 -95.159935
43600000000 -40.086235 99.993073 -0.94067377 -56.306328 -0.93056166 -56.514515 -17.12273 -68.213982
43700000000 -27.180336 -157.82582 -0.9936884 -58.045208 -0.88585263 -58.451515 -18.521528 -61.459354
43800000000 -22.601248 -113.11309 -0.87195456 -60.180141 -0.96190679 -59.846714 -18.98719 -50.521637
43900000000 -23.933348 -77.197746 -0.88885212 -61.746468 -0.97534531 -62.073662 -24.175463 -80.186066
44000000000 -21.806059 -30.125906 -0.93478471 -64.257317 -0.82685459 -63.777214 -20.520412 -65.029282
44100000000 -24.457914 -13.832164 -0.8479625 -65.682976 -0.95012218 -65.614265 -18.760103 -76.937668
44200000000 -21.529469 17.865688 -0.81425363 -67.818153 -0.9192974 -67.891373 -18.079161 -63.953499
44300000000 -29.738716 -20.42255 -0.85988545 -69.789772 -0.95579499 -68.842484 -18.066149 -57.035114
44400000000 -33.338882 -66.05497 -0.89818132 -71.340553 -0.95869893 -70.883064 -18.343842 -37.487724
44500000000 -23.781145 -70.397919 -0.87615418 -73.556442 -0.93742436 -73.235008 -18.999699 -57.346619
44600000000 -21.069439 -41.951359 -0.89629626 -74.840675 -0.89060652 -74.91864 -20.052633 -41.5961
44700000000 -17.999218 -17.413862 -0.91719526 -77.081924 -0.92108685 -76.632233 -17.530672 -67.594238
44800000000 -23.382975 7.1073809 -0.9500162 -78.386467 -0.85252136 -78.196098 -14.905693 -41.37735
44900000000 -23.799227 -2.538482 -0.94694811 -80.706291 -0.96777362 -80.72184 -15.154581 -55.021282
45000000000 -22.639229 2.2550592 -0.92170197 -82.397491 -0.95240277 -81.984329 -16.942816 -28.262438
