!Keysight Technologies,N5247B,MY61255062,A.19.80.06
!Date: Monday, May 18, 2026 12:53:06
!Correction: S11(Cdelta 2-Port  ) 
!S21(Cdelta 2-Port  ) 
!S12(Cdelta 2-Port  ) 
!S22(Cdelta 2-Port  ) 
!S2P File: Measurements: S11, S21, S12, S22:
# Hz S  dB   R 50
1000000000 -26.646496 -16.264473 -0.40902191 -21.065664 -0.40365899 -21.053316 -27.051115 -17.695036
1100000000 -26.572319 -18.45627 -0.41892374 -23.108259 -0.41459933 -23.106056 -27.071512 -19.808065
1200000000 -26.50164 -20.33288 -0.42821825 -25.128666 -0.4233489 -25.112871 -27.05629 -20.951807
1300000000 -26.465319 -22.571207 -0.43467066 -27.202103 -0.4295226 -27.194 -26.893057 -23.226862
1400000000 -26.346592 -24.119032 -0.43973428 -29.193752 -0.43428928 -29.18437 -26.867416 -24.513847
1500000000 -26.302946 -26.906918 -0.43985489 -31.251907 -0.43543977 -31.228895 -26.715044 -26.566528
1600000000 -26.217672 -29.310583 -0.44466019 -33.302216 -0.4382903 -33.286247 -26.642855 -29.9835
1700000000 -26.134167 -31.697796 -0.44849166 -35.337269 -0.44226575 -35.317932 -26.554924 -31.798687
1800000000 -25.975977 -33.827297 -0.44962093 -37.39677 -0.44388911 -37.37289 -26.420471 -33.98983
1900000000 -25.926485 -36.329784 -0.45211738 -39.444115 -0.44698563 -39.425472 -26.315912 -36.811241
2000000000 -25.926367 -38.732498 -0.45808586 -41.507965 -0.45304534 -41.495296 -26.265003 -39.62138
2100000000 -25.827623 -41.435516 -0.4607265 -43.54792 -0.45553023 -43.536564 -26.271358 -41.617977
2200000000 -25.889999 -44.108356 -0.46473753 -45.60907 -0.46040788 -45.595257 -26.19487 -44.407299
2300000000 -25.84885 -46.514584 -0.46748799 -47.651165 -0.46247685 -47.652145 -26.21689 -46.760529
2400000000 -25.81731 -49.155052 -0.47355935 -49.71011 -0.46982831 -49.696041 -26.178465 -48.897705
2500000000 -25.774525 -50.983017 -0.47544199 -51.759373 -0.47226971 -51.757805 -26.091759 -51.760624
2600000000 -25.795107 -53.758286 -0.483675 -53.828621 -0.47907293 -53.815514 -26.16403 -54.423592
2700000000 -25.848558 -56.118492 -0.49219331 -55.863655 -0.48667493 -55.849892 -26.244761 -57.62352
2800000000 -25.94445 -58.807972 -0.49725369 -57.896366 -0.49339145 -57.890343 -26.21117 -59.595982
2900000000 -26.053984 -60.975662 -0.50237983 -59.936283 -0.49771437 -59.919632 -26.171965 -62.198051
3000000000 -26.030796 -62.773647 -0.50560206 -61.952473 -0.50062406 -61.937534 -26.271736 -64.246628
3100000000 -26.153654 -64.937477 -0.5086658 -63.992031 -0.50297153 -63.975132 -26.291182 -66.024414
3200000000 -26.071001 -66.629372 -0.51262641 -66.030655 -0.50623846 -66.015526 -26.358412 -68.073235
3300000000 -26.16633 -70.116173 -0.51475656 -68.069305 -0.50713903 -68.060577 -26.293047 -70.51162
3400000000 -26.361471 -72.383324 -0.51990139 -70.112137 -0.51262581 -70.088524 -26.409512 -73.351952
3500000000 -26.361761 -74.853546 -0.52512652 -72.141014 -0.51799446 -72.119209 -26.401291 -75.076653
3600000000 -26.345364 -76.805641 -0.52600271 -74.14637 -0.52139407 -74.132179 -26.425995 -76.711136
3700000000 -26.338316 -78.842415 -0.52670604 -76.177185 -0.52291828 -76.173424 -26.33716 -78.047386
3800000000 -26.495131 -80.63192 -0.52958351 -78.219437 -0.52267945 -78.215805 -26.352186 -80.683502
3900000000 -26.489906 -82.47776 -0.53080571 -80.2855 -0.52272993 -80.268761 -26.46102 -82.523125
4000000000 -26.605268 -84.703751 -0.53395867 -82.352074 -0.52862328 -82.324501 -26.616322 -85.002502
4100000000 -26.659901 -86.043022 -0.53911549 -84.385521 -0.53810155 -84.361336 -26.762768 -86.482391
4200000000 -26.836187 -88.253059 -0.54646814 -86.396713 -0.54133081 -86.382507 -26.665678 -88.311096
4300000000 -26.948154 -89.938187 -0.54796416 -88.414101 -0.5437969 -88.389153 -26.742682 -91.119087
4400000000 -27.167534 -91.747879 -0.54936314 -90.43988 -0.54388642 -90.414284 -26.779043 -92.001717
4500000000 -27.387739 -93.280487 -0.55074203 -92.462532 -0.54584968 -92.461052 -26.828199 -94.116211
4600000000 -27.578081 -95.444313 -0.55285418 -94.501816 -0.5491249 -94.488609 -26.900064 -95.559868
4700000000 -27.712383 -98.044716 -0.5549159 -96.530678 -0.54892957 -96.533165 -26.949245 -97.645302
4800000000 -27.919132 -99.884941 -0.55657518 -98.572815 -0.55086982 -98.574242 -27.060436 -99.066422
4900000000 -28.065287 -101.66858 -0.55908352 -100.63401 -0.55572075 -100.60484 -26.994568 -101.35423
5000000000 -28.253134 -102.54493 -0.56027907 -102.65076 -0.55632776 -102.64497 -27.164213 -101.88615
5100000000 -28.487785 -102.36616 -0.56518829 -104.70665 -0.55786276 -104.67585 -27.205944 -102.71268
5200000000 -28.783497 -104.1283 -0.56398791 -106.7379 -0.56109166 -106.73328 -27.463442 -104.37755
5300000000 -28.98522 -105.99643 -0.56813323 -108.77484 -0.56562823 -108.76782 -27.594599 -106.95971
5400000000 -29.314329 -108.97849 -0.57028788 -110.82335 -0.5668453 -110.79468 -27.697517 -110.16591
5500000000 -29.601297 -109.75018 -0.57373375 -112.85799 -0.56951809 -112.83173 -27.561049 -111.45075
5600000000 -29.835875 -112.1657 -0.57866472 -114.88285 -0.57316333 -114.87816 -27.517414 -112.34093
5700000000 -30.188446 -110.76977 -0.57975674 -116.90949 -0.57446289 -116.9065 -27.452276 -111.50128
5800000000 -30.329514 -112.17242 -0.58161676 -118.93567 -0.57712084 -118.91659 -27.722704 -112.51137
5900000000 -30.975813 -113.31584 -0.58417898 -120.96371 -0.57866585 -120.94245 -28.089094 -113.35381
6000000000 -31.003126 -115.53411 -0.58486664 -122.98248 -0.58107722 -122.96964 -28.435102 -117.56514
6100000000 -31.725111 -116.54655 -0.58470345 -125.01194 -0.57987893 -124.99602 -28.592546 -119.87474
6200000000 -32.068939 -115.85075 -0.58483261 -127.05213 -0.57974613 -127.03455 -28.43671 -121.95307
6300000000 -32.974483 -116.00489 -0.58286822 -129.11458 -0.57891315 -129.10721 -28.31489 -120.16348
6400000000 -33.457966 -114.67638 -0.59254354 -131.13097 -0.58551562 -131.11565 -28.124508 -121.36459
6500000000 -34.124428 -117.6493 -0.58890778 -133.20985 -0.58388495 -133.17369 -28.975403 -122.13155
6600000000 -34.571747 -116.57526 -0.5921697 -135.24449 -0.58986574 -135.2258 -29.341978 -122.94508
6700000000 -35.318676 -117.62177 -0.59693426 -137.24734 -0.59280938 -137.24973 -29.516222 -125.19069
6800000000 -35.415466 -108.3697 -0.59760851 -139.29607 -0.5935542 -139.29109 -29.278997 -127.3537
6900000000 -35.419567 -104.97546 -0.59888154 -141.32748 -0.59355122 -141.31055 -29.24506 -126.12674
7000000000 -35.760338 -95.643707 -0.60120398 -143.39989 -0.59506536 -143.35516 -29.036131 -123.92447
7100000000 -35.784603 -94.406311 -0.61124265 -145.42834 -0.60767519 -145.4075 -29.332808 -122.8951
7200000000 -37.073948 -88.518364 -0.60825491 -147.38089 -0.60228264 -147.35277 -29.780687 -124.13443
7300000000 -36.948795 -84.76548 -0.59968919 -149.44261 -0.59400117 -149.42543 -30.146036 -127.47137
7400000000 -37.00946 -77.592751 -0.60196716 -151.52769 -0.59643918 -151.52344 -29.970551 -128.76476
7500000000 -36.080379 -72.815445 -0.60691959 -153.60127 -0.6031698 -153.58337 -29.572077 -128.08524
7600000000 -35.703396 -68.149513 -0.61343008 -155.60895 -0.60732388 -155.57877 -29.331039 -126.55842
7700000000 -35.201042 -64.917633 -0.61035538 -157.64157 -0.60627425 -157.61409 -29.783819 -122.81209
7800000000 -34.939056 -63.39447 -0.61110646 -159.67836 -0.60729557 -159.6758 -30.296839 -122.88342
7900000000 -34.715988 -62.453632 -0.61364263 -161.74338 -0.60874957 -161.71059 -30.846334 -126.42123
8000000000 -34.480858 -58.433517 -0.61566007 -163.78346 -0.61058325 -163.76089 -30.438519 -130.85323
8100000000 -33.630604 -55.42247 -0.61653382 -165.83208 -0.61385018 -165.8131 -29.800472 -130.84541
8200000000 -32.881996 -52.865772 -0.61884302 -167.88991 -0.61383915 -167.84746 -29.183924 -127.83051
8300000000 -32.365799 -54.5812 -0.62062341 -169.93306 -0.61575586 -169.91301 -29.65135 -123.76637
8400000000 -32.384277 -53.539513 -0.62013513 -172.02103 -0.61511308 -171.97824 -30.694891 -123.90918
8500000000 -32.285412 -50.907089 -0.62598914 -174.15747 -0.62376964 -174.12538 -31.665644 -139.12494
8600000000 -31.509727 -47.693802 -0.67422038 -176.33644 -0.66893393 -176.30855 -29.094856 -163.97389
8700000000 -32.925526 -50.672821 -0.74905932 -177.58556 -0.7453658 -177.58609 -25.971455 162.99161
8800000000 -30.430302 -43.268845 -0.61246157 -179.55777 -0.60948551 -179.49884 -28.053604 163.582
8900000000 -29.741171 -51.191341 -0.61119586 178.02747 -0.60681152 178.03966 -28.387737 -166.9556
9000000000 -29.622364 -54.091499 -0.62697053 175.87624 -0.62517834 175.90462 -27.181923 -147.62953
9100000000 -28.992741 -52.844078 -0.6392746 173.82422 -0.63653308 173.86678 -27.222002 -134.35384
9200000000 -28.662651 -54.965462 -0.64432114 171.78227 -0.64042193 171.81584 -27.903826 -124.87978
9300000000 -28.334183 -53.659004 -0.65051448 169.75154 -0.64595634 169.79306 -29.845106 -123.14801
9400000000 -28.216526 -56.928253 -0.65352631 167.74716 -0.6489163 167.76923 -30.486647 -128.69266
9500000000 -27.928576 -56.99464 -0.65372223 165.70927 -0.65067959 165.74899 -30.586971 -138.33636
9600000000 -27.292816 -58.750885 -0.65933537 163.66965 -0.65540671 163.69627 -29.276447 -141.31903
9700000000 -27.03331 -59.254692 -0.65918624 161.63441 -0.65367138 161.65459 -28.711374 -140.38744
9800000000 -26.548183 -60.424171 -0.66383433 159.58504 -0.65603083 159.61133 -28.633318 -135.88803
9900000000 -26.656822 -61.440666 -0.6662367 157.54935 -0.66039884 157.58293 -29.301083 -134.85431
10000000000 -26.356564 -61.953449 -0.67081803 155.50871 -0.66461134 155.53763 -29.821316 -135.64999
10100000000 -26.204172 -63.63916 -0.67355525 153.46332 -0.66390914 153.49632 -30.01889 -144.25952
10200000000 -25.723385 -63.573891 -0.67665511 151.42618 -0.67130047 151.43712 -29.477711 -147.98477
10300000000 -25.42557 -65.837067 -0.68070024 149.37892 -0.676274 149.40689 -28.716776 -149.13765
10400000000 -25.250706 -66.848145 -0.68757075 147.33398 -0.6799655 147.3694 -28.348753 -145.10478
10500000000 -25.13423 -69.76265 -0.68944561 145.32211 -0.68509984 145.35043 -28.442139 -142.2094
10600000000 -25.071657 -70.705765 -0.69228697 143.27757 -0.68776119 143.31114 -28.997511 -139.8121
10700000000 -24.691156 -71.67366 -0.69563812 141.26634 -0.6890133 141.31377 -29.718346 -143.15965
10800000000 -24.555597 -72.156258 -0.70019424 139.25281 -0.69380093 139.27435 -30.219337 -147.23596
10900000000 -24.260904 -72.811592 -0.70332628 137.24156 -0.69769365 137.26428 -30.001245 -154.27925
11000000000 -24.199331 -74.965012 -0.7059111 135.21011 -0.70245951 135.24232 -29.57971 -155.29317
11100000000 -24.128584 -77.489716 -0.70823789 133.20085 -0.7048009 133.21579 -29.056793 -156.31247
11200000000 -23.983608 -79.785301 -0.70990741 131.14166 -0.70750481 131.19003 -28.92277 -154.01067
11300000000 -23.802383 -80.565781 -0.71499312 129.14035 -0.71196365 129.17903 -28.882807 -155.2769
11400000000 -23.56949 -81.869438 -0.7163294 127.13807 -0.71114975 127.13888 -29.252476 -152.72691
11500000000 -23.437317 -82.871025 -0.72017151 125.09435 -0.71469343 125.13497 -29.335249 -153.92488
11600000000 -23.357832 -85.194588 -0.72086275 123.08592 -0.71746671 123.12093 -29.681303 -156.53387
11700000000 -23.286692 -86.62175 -0.72771966 121.05814 -0.71748841 121.07989 -29.632217 -160.02252
11800000000 -23.306616 -88.828644 -0.72620207 119.06448 -0.7215308 119.07883 -29.897278 -161.32928
11900000000 -23.163481 -90.094963 -0.72670752 117.0406 -0.72256708 117.04621 -29.57324 -165.17474
12000000000 -23.112974 -92.365776 -0.73386639 114.99892 -0.72919458 115.03223 -29.534174 -165.38579
12100000000 -22.97506 -93.54274 -0.7374348 113.00282 -0.72995645 113.04108 -29.098026 -167.04485
12200000000 -22.814127 -96.136475 -0.73828185 111.00414 -0.73486298 111.01685 -28.960806 -166.49229
12300000000 -22.834595 -97.147247 -0.73871112 108.99422 -0.73360682 109.0105 -29.042601 -166.81145
12400000000 -22.805449 -99.494011 -0.73971373 106.98981 -0.7340197 107.023 -29.393829 -167.7011
12500000000 -23.032597 -100.41219 -0.73629099 104.97466 -0.7347241 105.02683 -29.526585 -171.54228
12600000000 -22.910957 -103.02995 -0.73647225 102.97606 -0.72843683 103.01212 -29.742323 -173.11305
12700000000 -23.025743 -104.7817 -0.73122478 100.95782 -0.72994328 100.97662 -29.568012 -176.51917
12800000000 -22.814211 -107.14344 -0.72817326 98.925911 -0.72294617 98.965027 -29.687563 -177.89658
12900000000 -22.927046 -108.77159 -0.72435188 96.903381 -0.72101551 96.923248 -29.275324 178.18575
13000000000 -22.836136 -109.36691 -0.72508663 94.874275 -0.71794587 94.898544 -29.697714 177.68558
13100000000 -23.186991 -112.15195 -0.72199482 92.816116 -0.71871704 92.851425 -29.627485 176.46954
13200000000 -23.19241 -112.27547 -0.72097641 90.78614 -0.71448588 90.807205 -30.233078 175.04388
13300000000 -23.297064 -115.90926 -0.7186709 88.744804 -0.71323103 88.750702 -30.449659 174.28233
13400000000 -23.379068 -114.8342 -0.71831048 86.688446 -0.71252269 86.724167 -31.103409 169.66566
13500000000 -23.486551 -118.11684 -0.71817583 84.643906 -0.71364069 84.675499 -31.300385 166.03461
13600000000 -23.69783 -118.55077 -0.7183215 82.585297 -0.71577507 82.645287 -32.029972 161.45917
13700000000 -23.750296 -120.46637 -0.71755952 80.538834 -0.71360594 80.578232 -31.756275 160.68855
13800000000 -24.043081 -121.21889 -0.719145 78.499435 -0.71552294 78.523834 -32.301434 157.19998
13900000000 -23.835102 -122.39595 -0.72387791 76.395836 -0.72048289 76.45533 -32.449795 158.94174
14000000000 -24.323801 -121.87602 -0.73031628 74.346291 -0.72588933 74.380943 -33.694084 154.46458
14100000000 -24.05022 -124.69378 -0.75013751 72.356155 -0.7461468 72.37674 -33.749516 162.09613
14200000000 -24.575577 -128.61026 -0.74559969 70.470482 -0.74178112 70.50798 -33.530304 154.42377
14300000000 -24.616293 -130.49165 -0.72894722 68.405205 -0.72800064 68.450279 -33.486237 151.32825
14400000000 -25.12249 -132.39558 -0.72727954 66.312012 -0.72405064 66.374283 -34.627728 144.86008
14500000000 -25.061663 -131.13446 -0.72895426 64.252762 -0.72692758 64.294579 -35.336288 144.34972
14600000000 -25.679337 -131.73647 -0.73231637 62.204807 -0.72992951 62.243221 -35.957546 132.33676
14700000000 -25.761614 -131.75305 -0.73569578 60.161709 -0.73197931 60.194389 -36.46743 131.59203
14800000000 -25.90494 -134.53001 -0.7455886 58.091526 -0.74239653 58.118763 -35.968292 125.57766
14900000000 -25.776464 -135.77948 -0.75323588 56.16732 -0.7486887 56.207733 -34.748436 134.11151
15000000000 -26.185322 -138.46185 -0.74297422 54.163189 -0.73777008 54.18549 -35.664616 135.51842
15100000000 -26.634983 -135.84158 -0.74156708 52.087772 -0.73649222 52.132717 -37.672668 143.27869
15200000000 -27.002151 -139.29601 -0.74265206 50.020016 -0.740646 50.043507 -41.161877 143.66437
15300000000 -27.221767 -136.29524 -0.74475336 47.978386 -0.7393111 48.013577 -43.907295 118.74259
15400000000 -26.958466 -141.29771 -0.74812371 45.917126 -0.74756342 45.960636 -41.543987 92.641655
15500000000 -27.389956 -138.07828 -0.7497502 43.87051 -0.74477547 43.935764 -40.372677 94.194923
15600000000 -27.328653 -141.66394 -0.75225693 41.827572 -0.74960625 41.863625 -38.963684 107.44595
15700000000 -28.583988 -138.32141 -0.75541317 39.800488 -0.75133818 39.840748 -41.337986 134.07291
15800000000 -28.93589 -141.6037 -0.7572763 37.781994 -0.75597262 37.813869 -44.595989 158.42691
15900000000 -30.036064 -140.13661 -0.75795895 35.748741 -0.75694996 35.788288 -47.540398 -154.49121
16000000000 -29.336994 -143.92593 -0.75945133 33.716515 -0.75517261 33.753773 -55.935471 -93.197998
16100000000 -30.286615 -143.57875 -0.76516956 31.698151 -0.76191461 31.723606 -48.776791 -44.779911
16200000000 -29.72506 -140.95113 -0.76873225 29.649033 -0.76454318 29.70521 -47.744099 10.619622
16300000000 -31.247194 -139.56819 -0.77052319 27.656105 -0.76963085 27.672348 -51.048977 -55.948036
16400000000 -31.390902 -131.11298 -0.77720052 25.598362 -0.76796788 25.651951 -56.338593 -66.975349
16500000000 -33.666733 -132.54358 -0.77356994 23.580097 -0.77364045 23.62009 -44.656712 -108.384
16600000000 -34.067753 -126.52776 -0.77656066 21.561161 -0.77315176 21.581409 -44.300674 -80.763512
16700000000 -34.956627 -137.7079 -0.78298128 19.507301 -0.778117 19.549877 -40.34515 -86.074913
16800000000 -34.19294 -129.1534 -0.78045398 17.510426 -0.77936321 17.53339 -42.055447 -68.161446
16900000000 -34.012287 -130.19812 -0.78436506 15.442643 -0.78348631 15.496021 -39.100601 -76.647285
17000000000 -33.987431 -107.24197 -0.78366083 13.437464 -0.78351825 13.493785 -41.468258 -86.40258
17100000000 -34.76133 -98.875816 -0.78992093 11.420101 -0.7858578 11.447356 -38.575905 -93.924309
17200000000 -36.150543 -76.952675 -0.78787273 9.3707886 -0.79123795 9.4281549 -38.873772 -108.46589
17300000000 -37.970406 -90.012024 -0.79191726 7.3883018 -0.79006875 7.3994293 -36.43586 -94.147476
17400000000 -38.845654 -96.307846 -0.79435211 5.329432 -0.78944713 5.365428 -37.553417 -93.619133
17500000000 -35.43689 -107.81493 -0.79673952 3.3149581 -0.79408634 3.3215611 -37.129147 -85.711433
17600000000 -34.132477 -87.680748 -0.79922932 1.283067 -0.7961179 1.3267478 -39.260746 -103.21753
17700000000 -32.526447 -78.321785 -0.80363262 -0.75435078 -0.79747969 -0.6845383 -38.701023 -112.28468
17800000000 -32.531361 -57.632404 -0.80024976 -2.7475281 -0.80084985 -2.7156098 -36.051285 -133.13029
17900000000 -33.250534 -58.498058 -0.80392545 -4.7809234 -0.80010349 -4.758759 -34.044369 -125.37993
18000000000 -35.133186 -62.890476 -0.80859607 -6.8308024 -0.80472231 -6.8139148 -32.683517 -117.58984
18100000000 -33.366364 -79.036148 -0.80427092 -8.8709183 -0.80358684 -8.803977 -32.716827 -103.69497
18200000000 -32.141624 -78.401093 -0.80099523 -10.8516 -0.80128318 -10.792487 -34.229607 -101.14378
18300000000 -29.894617 -70.145691 -0.80391949 -12.847174 -0.80158389 -12.850286 -37.026459 -106.57694
18400000000 -30.042421 -60.839664 -0.80597341 -14.919529 -0.80029428 -14.877201 -37.19463 -142.38651
18500000000 -29.251705 -56.800129 -0.80763263 -16.969351 -0.80507469 -16.905338 -33.285625 -153.95827
18600000000 -29.652555 -58.440041 -0.80813742 -18.99192 -0.80440146 -18.977079 -30.673168 -144.73073
18700000000 -28.570843 -66.234879 -0.80547291 -21.040583 -0.80032134 -20.995884 -29.555658 -130.53389
18800000000 -28.37269 -70.065659 -0.79985696 -23.043236 -0.79848039 -23.031712 -29.937618 -116.258
18900000000 -27.33621 -67.357811 -0.79929531 -25.047855 -0.79554892 -25.003708 -31.599634 -108.77962
19000000000 -27.054939 -67.798553 -0.7978704 -27.061569 -0.79693353 -27.043646 -35.934032 -120.5351
19100000000 -26.560324 -62.345402 -0.80523986 -29.082001 -0.80335945 -29.030449 -34.801567 -144.16243
19200000000 -26.159634 -64.927788 -0.81268835 -31.125801 -0.80274409 -31.065323 -31.985807 -166.95564
19300000000 -25.981718 -64.551994 -0.80648828 -33.151901 -0.80469519 -33.101425 -29.685328 -151.80206
19400000000 -25.865467 -68.61058 -0.8062548 -35.198563 -0.8044734 -35.121956 -29.626198 -150.07141
19500000000 -26.187389 -68.8526 -0.8039999 -37.195293 -0.79832423 -37.185478 -29.897308 -137.65172
19600000000 -25.372267 -73.756203 -0.80820382 -39.24929 -0.79901183 -39.212894 -31.964344 -143.45908
19700000000 -25.051937 -74.156036 -0.80861884 -41.28548 -0.79758388 -41.21875 -32.770779 -148.85164
19800000000 -24.12208 -71.797142 -0.80635923 -43.339802 -0.80525792 -43.256645 -31.425497 -170.51291
19900000000 -24.342152 -69.331383 -0.80758119 -45.339165 -0.79893339 -45.332649 -31.053219 -168.752
20000000000 -24.820087 -69.018738 -0.80338442 -47.381344 -0.80055851 -47.356098 -29.809259 -169.86455
20100000000 -25.576347 -72.353622 -0.80440611 -49.455944 -0.79893839 -49.409027 -31.075642 -162.95483
20200000000 -25.069941 -78.793289 -0.80921447 -51.502647 -0.79913723 -51.450222 -31.293386 -167.22887
20300000000 -24.177355 -83.603577 -0.80273753 -53.533199 -0.80074185 -53.523746 -32.345444 -179.36673
20400000000 -23.23452 -80.401505 -0.80445689 -55.535294 -0.7990635 -55.543312 -30.293682 172.88034
20500000000 -23.102102 -78.018311 -0.80839962 -57.601307 -0.80723542 -57.592949 -29.599995 171.19443
20600000000 -23.429928 -75.943718 -0.80852342 -59.699387 -0.80505008 -59.670998 -28.876011 -179.61618
20700000000 -24.128937 -81.719543 -0.810781 -61.784698 -0.80362487 -61.746864 -30.333658 -174.67863
20800000000 -24.105122 -85.169167 -0.82193404 -63.847218 -0.81277323 -63.800804 -31.191463 -166.83055
20900000000 -23.192886 -90.023315 -0.83142769 -65.826813 -0.82311469 -65.803001 -34.265041 -178.36531
21000000000 -22.308878 -90.718483 -0.83792686 -67.723366 -0.83285773 -67.733208 -32.215946 164.69008
21100000000 -21.752073 -89.961494 -0.83256763 -69.723679 -0.82592022 -69.706161 -30.619978 158.38341
21200000000 -22.196087 -90.048126 -0.82543719 -71.8255 -0.82157999 -71.782997 -28.358746 158.51811
21300000000 -22.407558 -93.83239 -0.82222307 -73.886215 -0.81551152 -73.865753 -27.967371 167.93321
21400000000 -23.157228 -97.652924 -0.82214111 -75.963524 -0.82043165 -75.947922 -29.034407 171.59058
21500000000 -22.316895 -102.47925 -0.82217586 -78.107956 -0.81397384 -78.062904 -29.764801 -179.77409
21600000000 -22.336279 -103.12213 -0.82268202 -80.161079 -0.81798184 -80.104965 -32.898228 166.92773
21700000000 -21.338352 -100.41138 -0.83180511 -82.164848 -0.82756549 -82.127434 -34.703548 146.27373
21800000000 -21.464752 -100.19738 -0.84201139 -84.022354 -0.83781576 -83.97525 -31.028812 135.60109
21900000000 -21.727884 -100.43671 -0.83561873 -85.970589 -0.83067638 -85.959206 -29.459381 132.37865
22000000000 -22.703299 -105.15261 -0.83743429 -88.083488 -0.83180761 -88.073059 -27.380507 143.23068
22100000000 -22.698473 -107.83331 -0.83821291 -90.167526 -0.82731181 -90.135231 -28.934629 153.55954
22200000000 -22.487482 -114.80611 -0.84535086 -92.272575 -0.84071249 -92.245247 -29.262203 155.03549
22300000000 -22.064949 -113.50014 -0.84205633 -94.365036 -0.83554375 -94.36673 -34.03743 146.91267
22400000000 -21.762997 -111.05919 -0.8525582 -96.362122 -0.84623939 -96.355804 -32.742809 125.80889
22500000000 -21.925299 -106.42226 -0.86523336 -98.369957 -0.85615206 -98.334908 -30.943096 104.83568
22600000000 -22.697489 -109.53267 -0.86425507 -100.19546 -0.85317409 -100.17962 -28.637974 120.66835
22700000000 -23.743771 -114.73074 -0.85217929 -102.2347 -0.84554774 -102.19059 -28.773479 120.47767
22800000000 -23.127733 -124.17015 -0.85317129 -104.30223 -0.84555244 -104.28664 -29.259598 137.09634
22900000000 -22.441387 -126.1585 -0.85162055 -106.42449 -0.84509236 -106.36646 -31.920885 123.10719
23000000000 -21.45035 -121.54901 -0.85505664 -108.46927 -0.84565371 -108.42014 -32.970203 121.25367
23100000000 -21.869572 -118.46241 -0.85407495 -110.50587 -0.84555244 -110.48665 -31.047743 89.511215
23200000000 -22.750092 -115.78081 -0.85181957 -112.56852 -0.84696227 -112.54209 -29.774622 102.72549
23300000000 -24.429426 -124.59861 -0.85542572 -114.60708 -0.85140073 -114.60824 -28.044725 109.7588
23400000000 -24.366827 -136.0407 -0.85486341 -116.65473 -0.85210872 -116.63063 -29.451996 130.60075
23500000000 -23.065075 -144.15977 -0.8573212 -118.70847 -0.85154116 -118.63799 -30.704405 131.02777
23600000000 -22.271204 -139.34428 -0.86140537 -120.73557 -0.86071068 -120.71519 -37.191338 131.19627
23700000000 -21.984867 -134.9435 -0.86131448 -122.73354 -0.85818535 -122.69106 -33.327568 78.045052
23800000000 -22.522369 -130.85316 -0.87184066 -124.77014 -0.86812979 -124.7313 -30.497755 79.976379
23900000000 -23.809498 -137.74088 -0.87658811 -126.85462 -0.86778873 -126.82174 -27.470629 88.831566
24000000000 -24.921267 -147.38283 -0.87098265 -128.90863 -0.8688826 -128.89613 -27.056614 116.26412
24100000000 -24.120918 -158.37459 -0.87040752 -130.93254 -0.87073779 -130.88538 -28.29274 131.65147
24200000000 -23.483271 -159.18187 -0.87083018 -132.95149 -0.86400521 -132.93265 -31.447689 139.51871
24300000000 -22.800776 -154.2542 -0.86885983 -134.97214 -0.8637557 -134.9158 -38.636505 130.11774
24400000000 -23.496441 -148.10545 -0.87073147 -136.95879 -0.86216676 -136.88844 -34.62204 67.096603
24500000000 -24.086058 -150.38792 -0.87557143 -138.9418 -0.87425613 -138.91653 -29.994371 72.458344
24600000000 -25.70574 -161.03619 -0.88672751 -140.99146 -0.88514256 -140.97247 -27.460917 85.36763
24700000000 -25.47378 -170.96085 -0.88830733 -143.06303 -0.88406742 -143.00253 -27.023319 102.96657
24800000000 -24.702023 179.5582 -0.8928166 -145.08301 -0.88236195 -145.12347 -27.602671 118.06703
24900000000 -24.290041 -173.98369 -0.87907088 -147.17163 -0.87750518 -147.08751 -30.71246 120.69383
25000000000 -24.764328 -172.79578 -0.87382245 -149.22539 -0.877119 -149.13773 -34.632923 119.18353
25100000000 -25.821383 -164.75301 -0.87909722 -151.14667 -0.87478203 -151.07399 -32.787758 75.158485
25200000000 -27.167856 -179.43613 -0.88655895 -153.11707 -0.87558281 -153.09238 -30.744705 80.891785
25300000000 -28.555872 172.37718 -0.89275748 -155.14638 -0.88698822 -155.09494 -27.568893 83.814987
25400000000 -26.562445 157.00398 -0.89842105 -157.18211 -0.88766807 -157.17018 -28.689913 99.802132
25500000000 -26.952999 154.94853 -0.89887375 -159.18489 -0.89471763 -159.15915 -27.752071 94.038124
25600000000 -26.263519 163.17905 -0.89971566 -161.31624 -0.88503337 -161.2955 -29.610962 105.81886
25700000000 -27.685217 159.79732 -0.89034307 -163.31142 -0.8866269 -163.27798 -30.021738 86.502846
25800000000 -28.302574 154.78352 -0.89204949 -165.34381 -0.89073235 -165.29863 -29.629337 92.735405
25900000000 -29.872807 136.38422 -0.8872022 -167.3576 -0.89278799 -167.38742 -29.0529 81.011971
26000000000 -29.758709 132.97766 -0.89315617 -169.37848 -0.89038724 -169.38246 -27.815084 84.211983
26100000000 -28.706261 121.80605 -0.90082878 -171.49571 -0.89486432 -171.43956 -27.66375 83.368126
26200000000 -28.555967 117.29121 -0.89870536 -173.47884 -0.89399475 -173.45346 -27.308105 80.740784
26300000000 -28.241169 114.08678 -0.9108606 -175.53339 -0.90152353 -175.50923 -27.407806 91.941406
26400000000 -28.870039 113.50881 -0.91167992 -177.59961 -0.90684134 -177.53691 -27.518299 78.527138
26500000000 -28.243904 106.78972 -0.91118783 -179.6035 -0.90673512 -179.54646 -27.213882 85.939255
26600000000 -29.013353 91.041801 -0.91510153 178.32703 -0.89989781 178.47977 -27.355564 73.650887
26700000000 -27.720791 82.275665 -0.9118281 176.3869 -0.90317982 176.36171 -26.697111 74.110435
26800000000 -27.349903 77.375237 -0.90220124 174.27675 -0.91161317 174.30437 -25.225845 74.007294
26900000000 -26.717119 80.668961 -0.92251951 172.2626 -0.91254282 172.11273 -25.24519 78.932472
27000000000 -27.20785 72.258537 -0.91912943 170.20416 -0.91538244 170.29623 -24.193724 82.683296
27100000000 -27.590319 71.756073 -0.91890651 168.07758 -0.93221885 168.27524 -26.281551 84.982994
27200000000 -25.613743 61.530888 -0.92363238 166.21635 -0.92365092 166.18019 -25.783045 77.533539
27300000000 -25.845881 57.036324 -0.92056942 164.04819 -0.93281144 164.13087 -26.156757 66.201797
27400000000 -25.084341 49.586502 -0.91986585 162.05345 -0.93187135 162.07654 -24.357187 67.85582
27500000000 -25.251392 52.205723 -0.9476822 160.07184 -0.93818021 160.05212 -23.905811 63.551666
27600000000 -24.686316 44.325203 -0.93838525 157.93854 -0.94069368 157.9478 -22.961561 77.467232
27700000000 -24.995153 35.638901 -0.95710492 155.93947 -0.95450646 156.10809 -24.525854 71.754135
27800000000 -23.261864 33.139496 -0.94160032 153.93687 -0.94384325 154.03595 -24.925497 76.584122
27900000000 -24.1243 30.521854 -0.94188619 151.99983 -0.93016529 152.07597 -25.740177 56.582352
28000000000 -23.251898 32.498604 -0.97344363 149.84239 -0.95455229 149.99689 -24.497719 58.317753
28100000000 -23.454815 23.18334 -0.98087633 148.02274 -0.96108508 147.85521 -23.565693 51.715809
28200000000 -23.107664 21.999069 -0.96235454 145.90582 -0.95512861 145.97292 -22.894121 63.706406
28300000000 -22.3577 9.1422129 -0.93775904 143.84955 -0.94648361 143.83307 -23.117363 63.466343
28400000000 -22.322657 10.947183 -0.96346867 141.57166 -0.95512891 141.80168 -24.658745 67.10788
28500000000 -21.657648 6.1694403 -0.97185487 139.8131 -0.9488318 139.72931 -23.922874 48.44062
28600000000 -21.539522 3.5626116 -0.97297239 137.9054 -0.95717204 137.83444 -24.261999 44.831654
28700000000 -21.12855 4.5764017 -0.96458757 135.85881 -0.96574754 135.97292 -21.749939 43.600479
28800000000 -21.844662 3.8934209 -0.97967666 133.80704 -0.97069007 133.77211 -21.808567 55.435349
28900000000 -20.38744 2.7661071 -0.97499734 131.74347 -0.97519404 131.83946 -22.707756 56.475147
29000000000 -21.613224 -7.3187661 -0.9858771 129.61812 -0.97374034 129.60921 -24.163614 54.090824
29100000000 -20.81378 -7.0880275 -0.95307809 127.3416 -0.96170783 127.36754 -25.022263 37.57518
29200000000 -20.030659 -11.384394 -0.97158355 125.39973 -0.95777905 125.54813 -22.533092 32.917728
29300000000 -19.207161 -5.5852776 -0.97120965 123.34283 -0.94573396 123.47153 -20.359875 29.839752
29400000000 -19.070248 -12.009287 -0.97913402 121.55029 -0.98366427 121.43453 -19.669308 43.04908
29500000000 -19.805586 -8.4802952 -1.0073482 119.54034 -0.98483974 119.65664 -20.324951 43.287796
29600000000 -20.484474 -15.966996 -0.98489362 117.51378 -1.0028366 117.49218 -21.739685 53.493572
29700000000 -20.33074 -17.268379 -1.0011187 115.48123 -0.97895342 115.45296 -22.939837 38.485641
29800000000 -19.051249 -24.653692 -0.98705733 113.29856 -0.98957419 113.50421 -23.35235 36.08989
29900000000 -19.15209 -24.751318 -0.98821223 111.23134 -0.9778778 111.32938 -20.790548 14.391301
30000000000 -18.127642 -19.531862 -0.98624253 109.25654 -1.0090097 109.12691 -20.232058 28.244312
30100000000 -18.481785 -20.590807 -1.0172496 107.35223 -1.0117897 107.33664 -18.93928 25.709797
30200000000 -18.389835 -21.876469 -1.0136971 105.3419 -1.0065923 105.38857 -20.231417 40.549541
30300000000 -19.685461 -33.659943 -0.99425924 103.25928 -1.0041705 103.16273 -20.302025 32.073788
30400000000 -19.177197 -34.135727 -1.015389 101.25314 -0.97739506 101.27893 -23.322227 32.991783
30500000000 -18.547699 -40.137238 -1.0012521 99.287659 -0.98585987 99.24971 -21.020189 19.409029
30600000000 -18.10288 -38.119167 -1.0050132 97.111755 -0.99821985 97.205635 -21.905533 16.423662
30700000000 -18.067497 -41.57806 -1.0022992 95.144447 -0.99680859 95.283546 -19.60149 17.173477
30800000000 -18.097357 -36.099892 -1.0006953 93.277039 -1.017083 93.274437 -20.695299 26.124187
30900000000 -18.421082 -42.970581 -1.007659 91.178307 -1.0059124 91.197105 -19.703089 20.655319
31000000000 -18.507343 -41.564274 -1.0179596 89.193611 -1.0225096 89.255318 -21.251928 18.944569
31100000000 -18.522251 -57.115669 -1.0123332 87.071823 -1.0194184 86.972366 -21.712 14.512783
31200000000 -18.027323 -57.666462 -1.0120635 84.95723 -0.97778279 84.956078 -21.091597 4.9035749
31300000000 -17.145393 -58.97559 -1.0105308 82.941223 -0.99044919 82.95047 -20.662832 9.8651476
31400000000 -16.820196 -51.353054 -0.99375546 81.142906 -0.98002666 81.124092 -20.157051 6.4812837
31500000000 -17.530167 -50.971443 -1.0169966 79.096436 -1.0121145 79.035934 -19.514694 14.665017
31600000000 -19.378422 -53.001831 -1.0406994 77.09481 -1.0228404 77.078125 -21.1539 15.786403
31700000000 -19.621571 -62.065464 -1.0595151 74.991989 -1.0170578 74.932755 -20.937984 11.5199
31800000000 -18.46928 -66.992577 -1.0218079 72.824692 -1.0202157 72.930214 -22.127947 0.94589454
31900000000 -16.4081 -69.52877 -1.0144259 70.66832 -1.0032094 70.682281 -20.644985 -5.2358918
32000000000 -17.327091 -65.432846 -1.0036479 68.586105 -1.015995 68.852455 -20.743336 -5.1396494
32100000000 -17.872627 -57.797894 -1.0015618 66.871216 -0.98550582 66.882515 -19.216574 -3.0008538
32200000000 -20.140179 -63.697906 -1.0167453 65.026802 -0.98618311 64.896133 -20.200611 2.468406
32300000000 -20.38756 -69.513107 -1.0336628 62.871632 -1.0049806 62.992287 -20.05575 3.9396036
32400000000 -18.959917 -82.541122 -1.0158926 60.659813 -1.0277067 60.634766 -22.474796 12.602279
32500000000 -18.304346 -79.561302 -1.0095156 58.668507 -1.0142634 58.803879 -23.214598 -5.5349526
32600000000 -18.027695 -80.357224 -1.0353423 56.531631 -1.0084958 56.805279 -23.056646 -17.235275
32700000000 -19.723259 -65.68895 -1.0141535 54.422382 -1.0141309 54.480526 -21.773876 -22.896458
32800000000 -19.689762 -76.676552 -0.99457103 52.471996 -1.0097995 52.697155 -20.193405 -18.234388
32900000000 -21.644655 -83.005264 -1.0094483 50.526058 -0.99116689 50.665825 -20.014214 -6.1813855
33000000000 -20.089121 -93.458443 -1.0355842 48.462833 -0.98732281 48.702068 -21.246645 -2.387567
33100000000 -20.192841 -95.818687 -1.0313103 46.417015 -1.0429605 46.677494 -23.678288 10.569367
33200000000 -19.480892 -88.879982 -1.0061057 44.417831 -1.0003932 44.512634 -24.393103 -19.50186
33300000000 -20.841852 -94.91346 -1.0198691 42.244915 -1.0116326 42.315628 -25.356064 -12.678814
33400000000 -21.33913 -94.65786 -1.0075078 40.468632 -0.98014575 40.303802 -22.663576 -29.801407
33500000000 -21.868885 -100.28893 -0.99251479 38.221241 -0.99226689 38.37616 -22.508018 -17.292849
33600000000 -22.015341 -97.194794 -0.98359156 36.170727 -1.0093086 36.31815 -21.720409 -14.364885
33700000000 -21.399084 -102.30354 -1.0169897 34.201115 -1.0042015 34.56575 -23.052557 -3.7794211
33800000000 -21.88081 -103.02164 -1.0107938 32.233746 -1.0310963 32.325264 -24.355417 -8.9349556
33900000000 -22.347313 -116.34628 -1.006397 29.931618 -1.0167631 30.130171 -24.388006 -16.041441
34000000000 -23.347504 -105.55828 -1.0164055 27.988638 -0.99720913 28.297113 -23.007044 -8.5640965
34100000000 -22.479324 -109.85632 -1.0398787 26.064634 -1.0227369 26.144802 -24.245028 -21.339119
34200000000 -24.336369 -99.250046 -1.0103064 24.290171 -0.99816287 24.374537 -22.012051 -0.7770074
34300000000 -24.010252 -110.24167 -1.0062029 22.082399 -1.006871 21.903526 -25.324051 -11.096713
34400000000 -25.410715 -109.85754 -1.0081483 19.853344 -1.0266935 20.207031 -24.836542 -1.3551278
34500000000 -24.074177 -122.02847 -1.0317949 17.661722 -1.0372158 17.87891 -25.819529 -23.303345
34600000000 -26.013878 -117.41352 -1.01949 15.644243 -0.99361813 15.908461 -23.496691 -11.665408
34700000000 -25.98864 -119.1834 -1.0268633 13.600164 -1.0353756 13.800127 -22.764816 -13.793567
34800000000 -29.682013 -132.96338 -1.0472817 11.572582 -1.0013782 11.71672 -22.719862 7.3519092
34900000000 -30.428429 -131.96666 -1.0218053 9.9169397 -1.0124625 9.6646166 -22.93454 18.926424
35000000000 -31.985785 -147.11665 -1.0355392 7.612823 -1.0329499 7.7763753 -24.540213 38.665127
35100000000 -33.959763 -100.57271 -1.0378739 5.5785108 -1.0408151 5.7535653 -27.922249 15.397091
35200000000 -38.451904 -121.8516 -1.0397389 3.5804157 -1.028511 3.8876038 -29.795082 8.1506472
35300000000 -38.047794 -104.22349 -1.0437261 1.5579849 -1.0437278 1.3582022 -24.431047 -7.5029798
35400000000 -35.359219 148.13542 -1.0234033 -0.55994356 -1.0225505 -0.52587551 -24.282753 0.41844538
35500000000 -34.57061 79.50914 -1.0438651 -2.2711327 -1.0532447 -2.5284469 -23.479824 18.585522
35600000000 -31.995914 146.416 -1.0461068 -4.59024 -1.010831 -4.7792206 -22.816071 36.325089
35700000000 -37.914314 106.74405 -1.0266465 -6.8198895 -1.0241517 -6.7485194 -24.051844 33.955246
35800000000 -35.757992 73.647186 -1.0712301 -8.8545628 -1.064258 -8.7994375 -25.586006 30.202049
35900000000 -30.053116 50.292023 -1.0769612 -11.324312 -1.0646999 -10.918693 -27.719208 37.158443
36000000000 -28.983047 37.143131 -1.0914357 -12.800964 -1.108044 -12.77452 -22.640942 21.582085
36100000000 -24.625113 50.91589 -1.127336 -15.020682 -1.0884247 -15.188162 -22.862669 31.209881
36200000000 -26.449154 55.634697 -1.1128724 -16.58638 -1.090417 -16.895277 -21.627277 25.467491
36300000000 -25.206615 72.833405 -1.1284769 -18.958654 -1.1141144 -19.141731 -22.810474 38.31287
36400000000 -28.438534 72.103455 -1.0535344 -21.206573 -1.096957 -21.133097 -23.521101 23.457352
36500000000 -29.690197 35.725517 -1.0971823 -23.365732 -1.0524755 -23.404985 -24.141596 26.697321
36600000000 -25.813087 4.3433118 -1.0420403 -25.456015 -1.0324351 -24.827816 -19.63131 12.020821
36700000000 -21.539192 28.561016 -1.0736483 -26.993286 -1.1073623 -26.874426 -20.883244 16.498512
36800000000 -19.560297 31.121063 -1.1008986 -29.080011 -1.1182841 -29.234009 -17.47019 28.853579
36900000000 -20.285938 56.186111 -1.1762177 -31.625675 -1.1370106 -31.519926 -19.322584 36.645473
37000000000 -22.036064 45.277554 -1.1480882 -33.44347 -1.1187305 -33.457851 -19.381392 39.884136
37100000000 -29.370255 15.131804 -1.1349924 -36.357292 -1.1241686 -36.180706 -22.811766 24.107426
37200000000 -21.871443 6.2480288 -1.0984435 -37.834534 -1.0926646 -37.528664 -20.617922 12.733473
37300000000 -19.198145 11.708957 -1.1034139 -39.689293 -1.049374 -39.73579 -18.256899 1.8179748
37400000000 -17.20685 18.192911 -1.0857408 -41.40184 -1.0884509 -41.463512 -16.699125 13.437872
37500000000 -18.888203 28.849031 -1.1453518 -43.516422 -1.0924958 -43.58791 -16.15167 15.764249
37600000000 -20.161404 34.977066 -1.1164955 -45.474503 -1.1276098 -45.535549 -16.243095 30.422749
37700000000 -21.052797 16.935165 -1.1765978 -47.7006 -1.1626718 -47.857533 -17.406399 33.261143
37800000000 -18.773859 4.3432837 -1.1380045 -50.012398 -1.1910791 -49.504536 -19.025894 23.417437
37900000000 -17.067814 -0.95691615 -1.1429135 -52.069027 -1.1168075 -52.081543 -19.459093 16.2003
38000000000 -16.913816 13.096387 -1.1724759 -54.087833 -1.1709995 -54.196365 -17.056513 1.03317
38100000000 -17.305664 15.228247 -1.1489204 -55.659508 -1.1735809 -55.698963 -15.380063 10.441719
38200000000 -17.005022 12.50347 -1.1994267 -57.814438 -1.1678878 -58.117138 -14.525603 8.820056
38300000000 -16.52529 5.3228216 -1.1955838 -59.900036 -1.1630098 -59.670624 -14.501134 23.269976
38400000000 -16.414103 -4.3089457 -1.1802008 -61.793793 -1.131265 -61.560066 -15.72959 24.6548
38500000000 -16.205748 -7.1222038 -1.1998556 -63.913025 -1.1946938 -63.857994 -16.977716 19.125568
38600000000 -15.248509 4.1141014 -1.1854509 -65.976082 -1.1850945 -65.712013 -16.01627 5.6254387
38700000000 -14.756018 -3.5674148 -1.2396107 -67.788216 -1.2084041 -67.824203 -16.113707 -0.024356017
38800000000 -15.655915 -0.68805516 -1.2203763 -69.444168 -1.2179407 -69.696144 -13.637881 4.738224
38900000000 -15.055283 -3.4818993 -1.2364925 -71.930824 -1.1844814 -71.908081 -14.839183 9.3651781
39000000000 -15.556442 -5.8122506 -1.2251685 -73.740448 -1.2207867 -73.735199 -13.6949 12.055093
39100000000 -15.096017 -12.136205 -1.2552664 -76.011452 -1.238606 -76.167999 -17.145605 5.7070289
39200000000 -15.692007 -20.038002 -1.2485915 -78.024651 -1.2240884 -77.415764 -14.687872 0.13366279
39300000000 -13.615761 -16.569683 -1.2075722 -80.036766 -1.2481512 -80.082031 -14.772749 -13.568352
39400000000 -14.66568 -9.8319082 -1.2056823 -81.803818 -1.2242357 -81.675659 -12.902117 -4.2613783
39500000000 -13.902503 -1.0519354 -1.2597413 -83.967392 -1.2601942 -84.081528 -14.0313 -5.3572683
39600000000 -15.445242 -17.71723 -1.2525245 -85.67218 -1.2437921 -85.95414 -12.996376 6.0585899
39700000000 -16.564379 -25.811562 -1.1958429 -88.117104 -1.2425922 -88.00515 -16.626137 -0.072256565
39800000000 -14.959232 -37.734711 -1.2783211 -90.176094 -1.2237093 -90.109207 -15.062754 -7.4879007
39900000000 -13.354623 -22.040791 -1.217363 -92.545067 -1.1665162 -92.104591 -15.611751 -27.025278
40000000000 -13.131887 -22.419483 -1.2136879 -93.872643 -1.2095188 -93.584969 -12.576287 -20.886032
40100000000 -14.513444 -8.2121449 -1.2896655 -96.254669 -1.2294887 -96.006714 -12.397826 -17.569832
40200000000 -15.952735 -14.707048 -1.3401856 -98.165504 -1.3039491 -97.898277 -12.434112 -7.7562861
40300000000 -17.534193 -36.371422 -1.3267307 -100.65874 -1.2607067 -100.25721 -13.412422 -8.9439516
40400000000 -14.402437 -39.692612 -1.2554513 -102.18225 -1.1958194 -102.14684 -15.889614 -11.136359
40500000000 -13.430575 -33.540047 -1.2538776 -103.8361 -1.2949393 -104.07043 -15.4663 -25.98085
40600000000 -12.440269 -27.780602 -1.2417963 -105.84573 -1.2120363 -105.80756 -14.261189 -31.557615
40700000000 -15.655827 -24.793537 -1.3268375 -108.20529 -1.2876631 -108.32083 -13.188049 -32.529045
40800000000 -14.787247 -26.728672 -1.2776059 -109.67682 -1.2574526 -109.73127 -11.965246 -23.763788
40900000000 -14.79807 -42.708157 -1.2576584 -112.17113 -1.2959223 -111.94189 -13.133977 -18.022917
41000000000 -13.181196 -51.275681 -1.226796 -114.2802 -1.226429 -114.28977 -13.045874 -19.387772
41100000000 -13.961939 -48.212975 -1.3056159 -116.19887 -1.267097 -116.06206 -15.761173 -27.252625
41200000000 -13.484853 -33.799835 -1.2804439 -118.02548 -1.215703 -117.6581 -14.169742 -29.327555
41300000000 -14.285205 -41.905685 -1.2685819 -119.80408 -1.2510513 -119.75343 -14.458421 -37.22662
41400000000 -14.971798 -39.426228 -1.2433842 -122.18946 -1.2252742 -121.71377 -12.675169 -32.84697
41500000000 -14.526676 -49.178833 -1.2513745 -124.0575 -1.2401886 -123.68372 -12.802796 -38.356434
41600000000 -13.221862 -48.652569 -1.20983 -126.49337 -1.2305502 -126.04401 -12.994907 -29.572424
41700000000 -13.95505 -51.63401 -1.2403653 -127.79302 -1.2845576 -127.87872 -14.080745 -40.227131
41800000000 -14.587734 -49.397564 -1.2654179 -129.99782 -1.2109239 -129.82556 -14.044416 -34.011642
41900000000 -14.920785 -55.719814 -1.2877544 -132.07199 -1.2643933 -131.73555 -14.436794 -49.617332
42000000000 -14.215652 -52.840347 -1.2510347 -133.94385 -1.2772872 -134.65138 -13.92428 -43.944172
42100000000 -13.048263 -52.267025 -1.2405634 -135.85332 -1.2685781 -136.31924 -13.891531 -52.4813
42200000000 -14.607385 -50.832581 -1.2313155 -138.12729 -1.231162 -138.24731 -13.833537 -40.217159
42300000000 -15.853814 -49.146698 -1.2181367 -140.12782 -1.2716198 -140.30496 -13.972286 -51.804646
42400000000 -17.312176 -64.242462 -1.2041217 -142.36101 -1.2499969 -141.45496 -15.738499 -44.454002
42500000000 -14.033801 -65.495102 -1.1876897 -144.37454 -1.2201753 -144.30287 -16.065411 -56.555912
42600000000 -13.753976 -69.866852 -1.1490614 -145.94617 -1.217833 -145.89 -16.239443 -48.589699
42700000000 -14.075721 -54.191017 -1.1700437 -147.81337 -1.1823159 -148.01138 -14.320487 -66.104431
42800000000 -15.54391 -47.822426 -1.1895061 -150.04887 -1.1397259 -150.04199 -15.46848 -64.3311
42900000000 -18.433496 -35.342484 -1.2843819 -153.07329 -1.2165955 -152.58273 -14.490936 -57.831459
43000000000 -18.655848 -67.836578 -1.1922143 -154.76476 -1.2134746 -154.18593 -14.642099 -54.621681
43100000000 -18.461445 -93.32373 -1.1390744 -156.47858 -1.2385316 -157.39073 -17.582939 -43.999893
43200000000 -15.001672 -78.93531 -1.165364 -158.8261 -1.0726922 -158.93571 -18.907215 -56.224926
43300000000 -15.486016 -60.851128 -1.1385899 -160.60057 -1.1915188 -160.52744 -18.87495 -74.302544
43400000000 -16.001057 -44.70245 -1.1274679 -162.19058 -1.0843238 -162.67215 -16.762035 -77.110039
43500000000 -19.255116 -36.121456 -1.1550246 -164.54805 -1.2544322 -164.32849 -15.98263 -80.387543
43600000000 -23.245823 -49.00396 -1.1860117 -166.83421 -1.2115548 -166.44791 -16.412048 -66.393456
43700000000 -22.9093 -83.583008 -1.216351 -169.45389 -1.1948152 -169.14938 -17.018019 -60.926033
43800000000 -18.860073 -89.375847 -1.1826806 -171.2065 -1.1726059 -171.44972 -19.08886 -50.093487
43900000000 -18.770733 -73.324516 -1.1815091 -173.04782 -1.0915867 -172.96361 -24.033545 -82.899071
44000000000 -18.335518 -47.112617 -1.0749471 -175.9062 -1.1685575 -175.05331 -22.131802 -73.943291
44100000000 -20.03367 -34.486031 -1.1279008 -176.57132 -1.1793422 -177.53639 -19.034729 -81.56456
44200000000 -21.224953 -15.085969 -1.1605524 -179.31404 -1.2305794 -179.50981 -19.1915 -78.054947
44300000000 -23.949257 -56.379311 -1.1870381 178.3362 -1.111398 178.86533 -20.477257 -67.319061
44400000000 -25.29847 -82.223251 -1.2172557 176.74635 -1.185042 176.27971 -22.519836 -45.578621
44500000000 -21.389439 -81.366821 -1.119326 174.64886 -1.1085974 174.59119 -23.374321 -81.210541
44600000000 -20.520679 -56.872429 -1.2170488 172.2977 -1.07613 172.35316 -31.094543 -40.348434
44700000000 -18.405756 -32.902386 -1.1133059 169.79007 -1.197011 170.28758 -23.986137 -88.942581
44800000000 -25.914268 -9.6746836 -1.0806391 168.45845 -1.1460665 167.75493 -23.546501 -40.630672
44900000000 -26.734804 -18.248312 -1.1817352 165.50555 -1.1788667 165.61053 -23.197378 -53.801086
45000000000 -29.353577 -8.2286787 -1.1607989 163.97626 -1.2008377 164.05858 -24.006413 14.291324
