!Keysight Technologies,N5247B,MY61255062,A.19.80.06
!Date: Monday, May 18, 2026 12:53:54
!Correction: S11(Cdelta 2-Port  ) 
!S21(Cdelta 2-Port  ) 
!S12(Cdelta 2-Port  ) 
!S22(Cdelta 2-Port  ) 
!S2P File: Measurements: S11, S21, S12, S22:
# Hz S  dB   R 50
1000000000 -26.607059 -11.884627 -0.4104104 -20.963079 -0.40368199 -20.964514 -26.858467 -13.47977
1100000000 -26.568768 -13.594594 -0.42292404 -22.999151 -0.41640016 -23.001251 -26.840775 -15.119746
1200000000 -26.481741 -15.229483 -0.43126041 -25.011448 -0.42510998 -24.993433 -26.815048 -16.08926
1300000000 -26.446684 -16.958519 -0.43608224 -27.077856 -0.43045288 -27.055857 -26.631193 -18.11628
1400000000 -26.352098 -18.448952 -0.44177967 -29.051584 -0.43483803 -29.043993 -26.58568 -19.088881
1500000000 -26.318369 -20.723204 -0.44125614 -31.087036 -0.43461886 -31.085472 -26.377256 -20.969515
1600000000 -26.258181 -23.018166 -0.44685191 -33.141918 -0.44106761 -33.126225 -26.306683 -24.146881
1700000000 -26.189295 -24.983326 -0.44860819 -35.163948 -0.44324464 -35.149811 -26.183088 -25.752792
1800000000 -26.064751 -27.118008 -0.45161325 -37.202427 -0.44531491 -37.190483 -26.060959 -27.826674
1900000000 -26.008335 -29.24963 -0.45307234 -39.245022 -0.44814464 -39.233147 -25.92296 -30.103748
2000000000 -26.052761 -31.242262 -0.45922342 -41.302868 -0.45431864 -41.294773 -25.862274 -32.737171
2100000000 -25.968134 -33.805046 -0.46223497 -43.323223 -0.45610839 -43.322994 -25.82383 -34.529678
2200000000 -26.068851 -36.068127 -0.46466005 -45.374027 -0.46070087 -45.363449 -25.734604 -37.030701
2300000000 -26.054354 -38.323692 -0.46740323 -47.426586 -0.46449727 -47.429218 -25.726858 -39.204605
2400000000 -26.041817 -40.242165 -0.47279269 -49.463669 -0.46887657 -49.454147 -25.671375 -41.079449
2500000000 -26.049412 -42.261734 -0.47575736 -51.517025 -0.47389597 -51.504398 -25.591251 -43.630661
2600000000 -26.069132 -44.502499 -0.48354277 -53.564552 -0.48063901 -53.544975 -25.637781 -46.057003
2700000000 -26.201496 -46.787968 -0.49132422 -55.59412 -0.48452407 -55.579109 -25.684179 -48.793156
2800000000 -26.336378 -49.226227 -0.49714541 -57.609974 -0.49250472 -57.607864 -25.638681 -50.909752
2900000000 -26.490456 -50.978661 -0.50076145 -59.636028 -0.49730304 -59.620838 -25.585501 -53.430676
3000000000 -26.478764 -52.985195 -0.50457299 -61.658432 -0.49940246 -61.64743 -25.663809 -55.135918
3100000000 -26.649181 -54.60318 -0.50846934 -63.676418 -0.50220895 -63.669117 -25.616573 -56.657879
3200000000 -26.565393 -56.078392 -0.50762665 -65.705734 -0.50261176 -65.68969 -25.693575 -58.403671
3300000000 -26.738731 -59.307686 -0.51397967 -67.73201 -0.50507051 -67.722946 -25.601608 -61.149208
3400000000 -26.972906 -60.986912 -0.51650435 -69.773651 -0.51343542 -69.766037 -25.712959 -63.605591
3500000000 -27.029448 -63.497238 -0.52248472 -71.777885 -0.51772672 -71.769424 -25.644131 -65.098862
3600000000 -27.070223 -65.152557 -0.52510107 -73.791855 -0.51857984 -73.789261 -25.621717 -66.616333
3700000000 -27.101515 -67.392143 -0.52615291 -75.807381 -0.52156395 -75.798012 -25.556435 -68.202209
3800000000 -27.27636 -69.086929 -0.52426863 -77.831383 -0.52192158 -77.84272 -25.540628 -70.569687
3900000000 -27.252123 -70.379707 -0.52758753 -79.890106 -0.52173531 -79.886826 -25.620785 -72.323502
4000000000 -27.421103 -72.321198 -0.53077704 -81.941826 -0.52770126 -81.930984 -25.762589 -74.460693
4100000000 -27.422859 -73.835632 -0.53816426 -83.972412 -0.53451639 -83.973488 -25.847347 -75.836014
4200000000 -27.695963 -75.821922 -0.54427898 -85.976509 -0.53978431 -85.969475 -25.705969 -77.943726
4300000000 -27.830214 -77.01503 -0.54499614 -87.980988 -0.5403316 -87.971748 -25.80875 -80.494385
4400000000 -28.12751 -78.248291 -0.54778266 -89.988693 -0.54289305 -89.985916 -25.83037 -81.529182
4500000000 -28.3358 -79.474167 -0.54788226 -92.022652 -0.54300076 -92.017235 -25.836313 -83.458099
4600000000 -28.573627 -81.498566 -0.54737335 -94.048218 -0.54555029 -94.037277 -25.912792 -84.682365
4700000000 -28.747057 -83.960548 -0.55027187 -96.095047 -0.54618871 -96.07299 -25.922823 -86.878883
4800000000 -29.001337 -85.649742 -0.55226034 -98.112289 -0.54793537 -98.10424 -25.960522 -88.330597
4900000000 -29.158272 -86.803802 -0.55435622 -100.14523 -0.54979998 -100.13716 -25.945801 -90.747131
5000000000 -29.398054 -87.215927 -0.55799872 -102.16852 -0.55397063 -102.16031 -25.999065 -91.405769
5100000000 -29.554232 -86.987564 -0.55963475 -104.20561 -0.55560398 -104.1848 -26.052393 -92.545326
5200000000 -29.878796 -88.230438 -0.56014508 -106.24246 -0.55806053 -106.22633 -26.266788 -94.144508
5300000000 -30.119127 -89.905045 -0.56213218 -108.26274 -0.55842614 -108.24392 -26.374361 -96.595505
5400000000 -30.533516 -92.675865 -0.56676215 -110.29266 -0.56141073 -110.28172 -26.515413 -99.309044
5500000000 -30.775274 -93.316002 -0.57020313 -112.31047 -0.56497133 -112.31408 -26.383024 -100.98733
5600000000 -31.020096 -94.700386 -0.57408822 -114.3354 -0.56913239 -114.3329 -26.381977 -102.39014
5700000000 -31.270779 -92.895508 -0.57591593 -116.35234 -0.5702613 -116.36032 -26.213778 -101.69667
5800000000 -31.377777 -95.108002 -0.57661235 -118.37826 -0.57206964 -118.36682 -26.458874 -102.90939
5900000000 -31.97827 -94.249001 -0.58005381 -120.39301 -0.57395858 -120.38776 -26.785353 -103.5826
6000000000 -32.096687 -96.832726 -0.58023751 -122.40281 -0.57387495 -122.3962 -27.125687 -107.40345
6100000000 -32.916416 -97.329079 -0.57896817 -124.42336 -0.57400018 -124.4186 -27.324213 -109.83901
6200000000 -33.146435 -95.70919 -0.5771631 -126.46147 -0.57280797 -126.45016 -27.16638 -111.71982
6300000000 -33.986847 -94.237244 -0.5795275 -128.517 -0.57332134 -128.51231 -27.057234 -110.72612
6400000000 -34.420769 -92.210732 -0.58710009 -130.50975 -0.58049697 -130.50238 -26.9261 -112.38284
6500000000 -35.045555 -94.029457 -0.58092338 -132.56985 -0.5781306 -132.56477 -27.686693 -112.83623
6600000000 -35.314533 -92.069351 -0.58710277 -134.61594 -0.58228207 -134.60324 -28.019608 -113.40517
6700000000 -35.91692 -91.667915 -0.59319931 -136.64531 -0.58618748 -136.6217 -28.200472 -116.04419
6800000000 -35.240089 -84.253555 -0.59558874 -138.64792 -0.58854288 -138.63924 -28.061218 -118.11301
6900000000 -34.973225 -82.912132 -0.59500861 -140.67731 -0.58855444 -140.66786 -28.039486 -117.87326
7000000000 -34.827541 -74.686546 -0.5954774 -142.73209 -0.59047836 -142.71324 -27.870384 -116.6431
7100000000 -34.752201 -73.827034 -0.6033414 -144.78304 -0.59979558 -144.74971 -28.234882 -114.71297
7200000000 -35.47686 -70.755676 -0.60569954 -146.70403 -0.60123485 -146.66623 -28.576834 -116.86667
7300000000 -35.424889 -68.590622 -0.59347558 -148.73732 -0.59002084 -148.72719 -29.082783 -119.43004
7400000000 -35.399067 -63.576733 -0.59769642 -150.8299 -0.59313518 -150.82822 -28.987667 -120.63113
7500000000 -34.544014 -61.883392 -0.60068315 -152.87706 -0.59862423 -152.86072 -28.517321 -120.15157
7600000000 -33.928185 -59.876644 -0.60729676 -154.89041 -0.60321355 -154.87274 -28.285667 -119.53218
7700000000 -33.597137 -58.254936 -0.60261899 -156.90096 -0.59763134 -156.88176 -28.765295 -116.31923
7800000000 -33.38517 -58.265392 -0.6050095 -158.94225 -0.6010012 -158.93031 -29.406988 -116.01669
7900000000 -33.463203 -59.009892 -0.60676688 -160.98694 -0.60261959 -160.97542 -29.968641 -119.16041
8000000000 -33.298996 -56.714096 -0.61031067 -163.02235 -0.60470062 -162.99875 -29.741693 -123.15843
8100000000 -32.703457 -55.297966 -0.61111331 -165.06274 -0.60725033 -165.0394 -29.245527 -123.78215
8200000000 -32.195187 -53.827507 -0.61246306 -167.08797 -0.60958141 -167.07994 -28.667839 -121.30905
8300000000 -31.729286 -55.826347 -0.61373597 -169.1398 -0.60753137 -169.12207 -29.063778 -116.53481
8400000000 -32.021954 -55.640182 -0.61239749 -171.21075 -0.60850835 -171.19501 -30.098867 -116.04977
8500000000 -32.113457 -53.695797 -0.61842513 -173.34581 -0.61697394 -173.32796 -31.361141 -128.80792
8600000000 -31.458712 -50.533871 -0.66553396 -175.54907 -0.65922034 -175.51877 -29.439409 -155.67912
8700000000 -32.884285 -55.567799 -0.7414341 -176.82115 -0.73758972 -176.77885 -26.771343 167.15677
8800000000 -30.869234 -46.609035 -0.60764986 -178.70033 -0.60578853 -178.68135 -29.240395 168.17644
8900000000 -30.102661 -55.428642 -0.60406548 178.88843 -0.59989488 178.91022 -29.137177 -160.47993
9000000000 -30.028698 -57.946793 -0.62098086 176.76118 -0.61652547 176.75748 -27.425993 -139.89001
9100000000 -29.552832 -57.050503 -0.62990022 174.70674 -0.62689483 174.72249 -27.272739 -125.78651
9200000000 -29.23027 -59.328682 -0.63512462 172.67374 -0.63209796 172.69659 -27.898767 -115.38245
9300000000 -29.136015 -58.719082 -0.64256316 170.65497 -0.64023113 170.6725 -29.659271 -111.14264
9400000000 -29.066971 -61.898937 -0.64522171 168.65944 -0.6405251 168.66078 -30.549398 -114.0234
9500000000 -28.915232 -61.628319 -0.6465283 166.62395 -0.64382845 166.63593 -30.980206 -123.69955
9600000000 -28.275316 -63.807804 -0.65026492 164.59186 -0.64511061 164.60844 -29.763437 -127.54295
9700000000 -28.04327 -64.303856 -0.65041465 162.53523 -0.64744288 162.57234 -29.215727 -127.08564
9800000000 -27.69478 -65.18293 -0.65442127 160.52338 -0.64902276 160.54498 -28.972319 -121.47118
9900000000 -27.930319 -67.221558 -0.65631473 158.48473 -0.64968228 158.5219 -29.589836 -118.55173
10000000000 -27.682114 -67.47654 -0.65835357 156.4455 -0.65296429 156.47575 -30.027657 -117.37634
10100000000 -27.538462 -68.977798 -0.66218811 154.42477 -0.6562295 154.44702 -30.6469 -124.52429
10200000000 -27.143019 -68.766312 -0.66427439 152.3941 -0.66179681 152.3969 -30.211182 -128.97417
10300000000 -26.926802 -71.142883 -0.67018819 150.35881 -0.66574425 150.38635 -29.404156 -130.47519
10400000000 -26.744638 -72.908836 -0.67701328 148.31067 -0.66981578 148.35687 -28.703024 -126.65653
10500000000 -26.670448 -76.014572 -0.67892087 146.30157 -0.67525536 146.33766 -28.582867 -122.6742
10600000000 -26.723917 -76.923164 -0.68027884 144.27873 -0.67496568 144.32042 -28.867287 -117.54238
10700000000 -26.359354 -78.026131 -0.68491465 142.27605 -0.68001515 142.31041 -29.635166 -119.19473
10800000000 -26.295444 -78.082436 -0.68814152 140.26385 -0.68157691 140.30093 -30.296835 -120.25027
10900000000 -26.015383 -78.569695 -0.69043845 138.25287 -0.6868909 138.28395 -30.411783 -127.88636
11000000000 -25.986326 -81.157715 -0.6948306 136.23564 -0.69032407 136.28505 -29.906752 -128.81488
11100000000 -25.954708 -83.908524 -0.69778579 134.23845 -0.69401413 134.2589 -29.313246 -130.25308
11200000000 -25.917522 -86.713219 -0.70021218 132.22783 -0.69799221 132.24243 -28.855909 -127.48662
11300000000 -25.761599 -87.180267 -0.70361298 130.21448 -0.70108581 130.23749 -28.832172 -128.30269
11400000000 -25.486135 -88.566269 -0.70540714 128.20416 -0.70096868 128.22409 -28.829365 -125.30948
11500000000 -25.391289 -89.649307 -0.70886016 126.19497 -0.70287889 126.21128 -28.8328 -124.94412
11600000000 -25.310797 -92.009819 -0.71040708 124.15865 -0.70431101 124.18754 -29.037756 -126.45858
11700000000 -25.300236 -94.181038 -0.71238518 122.15941 -0.70898968 122.18571 -29.155352 -128.52936
11800000000 -25.354994 -96.714348 -0.71234947 120.1623 -0.70817757 120.1876 -29.199928 -129.17047
11900000000 -25.2551 -98.194748 -0.71270543 118.1422 -0.71017778 118.16724 -29.034084 -132.77873
12000000000 -25.188185 -100.61902 -0.71696353 116.12215 -0.71586293 116.1581 -28.967482 -133.24809
12100000000 -25.113829 -101.86812 -0.72207612 114.12971 -0.7172429 114.15493 -28.531 -135.79092
12200000000 -24.87454 -104.87739 -0.72204614 112.15372 -0.72043121 112.15652 -28.221266 -135.53151
12300000000 -24.968864 -106.11971 -0.72234452 110.14578 -0.71590632 110.16557 -28.030058 -135.70576
12400000000 -25.004496 -108.81318 -0.72415495 108.14563 -0.72049206 108.16078 -28.250208 -135.84793
12500000000 -25.351877 -109.91647 -0.72455287 106.15479 -0.71709055 106.17819 -28.437904 -138.16992
12600000000 -25.156258 -113.02471 -0.71755069 104.15047 -0.71338564 104.18768 -28.493406 -139.002
12700000000 -25.311171 -115.02676 -0.71372765 102.12252 -0.71200877 102.16189 -28.401445 -142.77248
12800000000 -25.015862 -117.89598 -0.71067441 100.11407 -0.70722938 100.13838 -28.353247 -143.29919
12900000000 -25.200701 -119.5023 -0.7092222 98.094437 -0.70393139 98.095406 -28.2066 -147.35826
13000000000 -25.139296 -120.34669 -0.70625317 96.069351 -0.70292085 96.07885 -28.340746 -147.04834
13100000000 -25.589254 -123.86668 -0.70536512 94.044823 -0.69947439 94.048035 -28.250309 -149.01706
13200000000 -25.630455 -124.13557 -0.70261049 91.992462 -0.697694 92.022827 -28.573093 -148.01889
13300000000 -25.71419 -128.84315 -0.70180774 89.954529 -0.69496822 89.97879 -28.510048 -148.21109
13400000000 -25.859245 -126.95155 -0.70262235 87.916283 -0.69561136 87.948799 -29.089483 -149.61317
13500000000 -25.968784 -131.36491 -0.70052397 85.879051 -0.6976788 85.911072 -29.278124 -152.18832
13600000000 -26.309919 -131.63577 -0.70108914 83.847694 -0.6980989 83.862335 -29.868055 -153.24727
13700000000 -26.323406 -134.6111 -0.70295346 81.781677 -0.70185828 81.817215 -29.618349 -156.31297
13800000000 -26.696663 -135.62276 -0.70506608 79.74601 -0.69977635 79.767502 -29.950922 -157.21355
13900000000 -26.429689 -136.84137 -0.70569462 77.654427 -0.70470893 77.694389 -29.660431 -157.21602
14000000000 -27.211224 -137.18736 -0.71319777 75.62336 -0.70907319 75.660316 -30.559134 -156.43976
14100000000 -26.986082 -139.64053 -0.7255556 73.559212 -0.72187072 73.606293 -30.203079 -155.2426
14200000000 -27.172642 -142.20781 -0.74019229 71.606628 -0.73814136 71.655251 -30.407196 -154.81628
14300000000 -26.859606 -146.60875 -0.7334922 69.726463 -0.72757089 69.759781 -29.707235 -160.48952
14400000000 -27.603312 -151.52318 -0.72059441 67.680939 -0.71702152 67.711258 -30.727079 -162.79951
14500000000 -27.729267 -149.85539 -0.71879035 65.618248 -0.71791655 65.634567 -30.873001 -162.85718
14600000000 -28.59152 -151.9136 -0.71881598 63.560452 -0.71526349 63.603958 -32.033722 -167.38332
14700000000 -28.622143 -151.67444 -0.72046971 61.530983 -0.71807104 61.544556 -32.148998 -168.07964
14800000000 -28.760515 -156.52362 -0.727386 59.464722 -0.72252029 59.484318 -32.544659 -175.38449
14900000000 -28.665237 -154.43649 -0.74079335 57.438557 -0.73620576 57.484028 -31.542997 -174.36397
15000000000 -28.659727 -160.81142 -0.73911065 55.545605 -0.73752588 55.576218 -30.78614 -172.3573
15100000000 -29.673424 -160.33171 -0.72573638 53.511158 -0.72403353 53.51783 -31.053976 -169.08235
15200000000 -29.980057 -164.56461 -0.72706068 51.427731 -0.72451675 51.475628 -32.149097 -163.89655
15300000000 -30.501921 -161.16235 -0.73320317 49.375851 -0.72889209 49.410042 -33.618828 -164.58865
15400000000 -29.828552 -166.71469 -0.73031324 47.351238 -0.72742122 47.391544 -34.89518 -177.39928
15500000000 -30.759695 -163.48444 -0.73421645 45.309528 -0.72700286 45.338024 -34.786533 175.04033
15600000000 -30.342607 -167.77362 -0.73859793 43.256645 -0.73513585 43.30196 -33.483402 170.25447
15700000000 -32.378574 -168.26302 -0.7399022 41.24548 -0.73751611 41.250053 -32.658688 179.93799
15800000000 -32.316692 -173.11292 -0.74343407 39.241093 -0.73860407 39.2556 -32.727856 -173.02295
15900000000 -34.064915 -177.20438 -0.74417138 37.206871 -0.74196965 37.231922 -33.350307 -164.62578
16000000000 -32.670559 -176.66348 -0.74969083 35.180569 -0.74389547 35.228703 -35.39426 -164.74208
16100000000 -34.002167 179.33983 -0.75038457 33.181995 -0.74815077 33.204479 -36.808479 -162.50717
16200000000 -33.281048 -174.21327 -0.7535038 31.129663 -0.75300837 31.16674 -38.376892 -178.45929
16300000000 -35.536064 178.11237 -0.75877458 29.122028 -0.75301206 29.172951 -37.131157 -171.088
16400000000 -36.867672 -171.04887 -0.76167244 27.114609 -0.75702733 27.1469 -37.378456 178.57996
16500000000 -39.256569 163.39188 -0.76152033 25.094669 -0.75816488 25.122913 -35.951229 -169.07628
16600000000 -40.809135 168.61639 -0.76433456 23.085567 -0.7608245 23.119513 -38.298752 -168.6091
16700000000 -38.740463 149.24635 -0.7680921 21.056192 -0.76542211 21.097763 -37.889332 -154.74606
16800000000 -40.174789 169.36954 -0.76898468 19.052778 -0.76770502 19.050743 -41.173145 -164.10162
16900000000 -39.257763 166.57919 -0.77234954 17.035004 -0.76919669 17.050184 -40.659748 -147.82518
17000000000 -48.353851 -146.48264 -0.77302712 15.017736 -0.76906538 15.027294 -40.922039 -168.85547
17100000000 -57.812111 -159.72929 -0.77255857 13.014397 -0.77216363 13.03061 -40.020119 -152.63408
17200000000 -45.074738 18.224619 -0.7785756 10.972474 -0.7788887 11.006117 -38.675716 -163.09204
17300000000 -47.034763 70.069557 -0.77447981 8.9755316 -0.77495599 8.9899549 -39.502579 -137.95659
17400000000 -44.854073 91.734146 -0.77992511 6.9441853 -0.78019434 6.9485016 -42.446262 -142.73169
17500000000 -46.859634 166.07686 -0.77991617 4.9377427 -0.78065968 4.9701314 -45.007156 -115.9334
17600000000 -52.879326 -63.597366 -0.77941155 2.9442947 -0.77678877 2.9608052 -45.962017 -171.98718
17700000000 -42.764343 -47.401901 -0.78923726 0.9026835 -0.78484446 0.94890648 -44.782349 -170.48383
17800000000 -38.45042 -11.010117 -0.78709972 -1.1291803 -0.78392816 -1.0771881 -39.013184 -170.63284
17900000000 -39.706696 -2.3358848 -0.79343092 -3.1203396 -0.78308171 -3.1240201 -38.564327 -149.14473
18000000000 -42.644638 18.96818 -0.79384363 -5.1362033 -0.78993118 -5.1205525 -37.012161 -126.55247
18100000000 -47.768642 -47.218472 -0.7891795 -7.1629195 -0.77873605 -7.1535511 -37.893005 -94.381538
18200000000 -43.084255 -59.547523 -0.78948653 -9.1670151 -0.78589815 -9.1174803 -39.893471 -80.397797
18300000000 -37.088341 -53.238251 -0.78906494 -11.179769 -0.78509414 -11.139229 -46.141685 -61.094513
18400000000 -36.212112 -32.34129 -0.78727567 -13.185945 -0.78984267 -13.148272 -51.145836 179.3123
18500000000 -34.648933 -28.366312 -0.78809309 -15.211825 -0.78705972 -15.194631 -39.430733 -168.67255
18600000000 -35.566479 -28.302197 -0.79395771 -17.258238 -0.78472632 -17.225435 -35.483391 -145.97398
18700000000 -34.816292 -48.452869 -0.78817815 -19.274792 -0.78080219 -19.255688 -33.281105 -119.81156
18800000000 -35.001453 -56.606426 -0.7850036 -21.293394 -0.77770734 -21.291454 -32.699554 -94.985786
18900000000 -32.911411 -56.381062 -0.78379977 -23.296246 -0.78011036 -23.233953 -33.547356 -75.830811
19000000000 -32.800163 -56.214794 -0.78510034 -25.306684 -0.77596605 -25.256088 -38.601944 -56.396629
19100000000 -31.494583 -47.918732 -0.78694677 -27.286535 -0.77947104 -27.24193 -42.184185 -82.84124
19200000000 -31.210859 -52.955933 -0.78846741 -29.310268 -0.78587145 -29.259449 -40.891537 -157.72644
19300000000 -30.83531 -51.520729 -0.78432131 -31.365011 -0.78063953 -31.291477 -34.626804 -130.14891
19400000000 -31.26239 -58.37413 -0.7849949 -33.348713 -0.78179073 -33.327122 -34.073269 -122.41509
19500000000 -31.947035 -57.948898 -0.78522253 -35.379528 -0.77943569 -35.347042 -32.512402 -102.0121
19600000000 -30.795156 -68.096321 -0.78255504 -37.39867 -0.77651978 -37.36874 -34.975227 -93.547043
19700000000 -30.380962 -66.365311 -0.78323984 -39.416771 -0.77691573 -39.397041 -36.186066 -90.463188
19800000000 -28.787657 -65.209503 -0.78071207 -41.462879 -0.78078085 -41.442802 -39.140507 -123.13159
19900000000 -29.199106 -58.90427 -0.77557427 -43.485062 -0.77248001 -43.441223 -37.23143 -119.38149
20000000000 -29.956347 -58.122513 -0.77851677 -45.527447 -0.77554762 -45.477478 -35.464882 -129.23322
20100000000 -31.898211 -60.534935 -0.7790603 -47.535812 -0.77430063 -47.525002 -34.883049 -106.96999
20200000000 -31.07052 -73.720871 -0.78236347 -49.588669 -0.77456427 -49.520618 -35.252098 -106.49383
20300000000 -29.832581 -82.923019 -0.78206748 -51.619987 -0.77708596 -51.593159 -37.965626 -100.75675
20400000000 -28.096483 -76.269585 -0.7789067 -53.683773 -0.77554023 -53.647411 -37.617519 -133.6219
20500000000 -27.870157 -72.820763 -0.78114337 -55.707928 -0.77946854 -55.693722 -36.380741 -138.82613
20600000000 -28.422998 -67.809883 -0.78231734 -57.786098 -0.77641022 -57.759953 -33.101509 -131.50078
20700000000 -30.035311 -77.154419 -0.78150564 -59.806095 -0.77472574 -59.820969 -32.972996 -116.42889
20800000000 -30.29998 -81.240784 -0.79019165 -61.857609 -0.78520828 -61.858833 -31.802877 -103.76101
20900000000 -28.669386 -90.135887 -0.79505861 -63.896721 -0.78942943 -63.879883 -33.805626 -88.536163
21000000000 -27.078806 -89.224762 -0.8093071 -65.875656 -0.80234331 -65.859978 -36.269005 -102.06646
21100000000 -26.047493 -87.349556 -0.81349307 -67.812248 -0.80863786 -67.798195 -36.776089 -119.92242
21200000000 -26.727827 -89.426056 -0.80814177 -69.792122 -0.80485535 -69.773376 -33.551277 -147.43434
21300000000 -27.365774 -94.943069 -0.79347569 -71.868874 -0.79077798 -71.815826 -30.794628 -141.77415
21400000000 -28.587156 -103.25652 -0.79309195 -73.943161 -0.79031587 -73.924644 -30.555319 -132.23549
21500000000 -27.356901 -109.20613 -0.7858637 -76.07766 -0.78190821 -76.036293 -29.353125 -122.41088
21600000000 -27.252531 -107.77261 -0.78787553 -78.088921 -0.78180873 -78.073013 -31.815947 -110.48188
21700000000 -25.979631 -102.61074 -0.78925496 -80.154213 -0.79450315 -80.098351 -34.325638 -97.205536
21800000000 -25.937527 -98.418144 -0.80792505 -82.092804 -0.80542964 -82.062843 -38.658924 -123.92283
21900000000 -26.054781 -101.1341 -0.81861627 -83.953697 -0.81193805 -83.946007 -37.167664 -145.61598
22000000000 -27.818665 -108.89304 -0.81033832 -85.976089 -0.80888671 -85.940071 -31.439516 -166.49828
22100000000 -27.893276 -115.75601 -0.80312026 -88.072403 -0.79754716 -88.037865 -30.46394 -146.60555
22200000000 -27.510963 -124.39243 -0.80772769 -90.142792 -0.80486006 -90.144943 -30.209259 -143.89305
22300000000 -26.668007 -120.30966 -0.80733269 -92.285728 -0.7969833 -92.242119 -32.168606 -117.69404
22400000000 -26.309383 -114.94468 -0.80769187 -94.258049 -0.8067202 -94.238403 -35.282196 -120.55754
22500000000 -26.263348 -107.81554 -0.81551027 -96.288391 -0.80784243 -96.258759 -42.559101 -121.72932
22600000000 -27.817671 -114.87849 -0.81552213 -98.163231 -0.81250542 -98.116478 -34.993778 -169.9041
22700000000 -29.631575 -126.36886 -0.81171119 -100.15626 -0.80750728 -100.15546 -34.122261 -172.44081
22800000000 -28.234447 -141.55841 -0.81018955 -102.24599 -0.80913216 -102.2052 -30.159111 -160.84959
22900000000 -27.067408 -139.30898 -0.8049432 -104.30156 -0.80999833 -104.2742 -33.288761 -144.72726
23000000000 -25.837673 -131.26019 -0.81570733 -106.36043 -0.80765164 -106.33285 -33.611713 -141.41238
23100000000 -26.673336 -122.53407 -0.81029713 -108.43802 -0.80731088 -108.409 -44.296032 -143.80255
23200000000 -28.090109 -120.28959 -0.8154422 -110.49831 -0.81247985 -110.44306 -36.901596 176.89464
23300000000 -31.328484 -138.7243 -0.81207502 -112.54661 -0.80990845 -112.49474 -33.102333 162.32124
23400000000 -29.792795 -155.1656 -0.81148118 -114.5754 -0.81771654 -114.51793 -30.041206 -173.1765
23500000000 -27.206011 -164.56027 -0.81932986 -116.603 -0.81653017 -116.5695 -30.27947 -166.7628
23600000000 -26.338112 -153.10785 -0.82612967 -118.65795 -0.81860095 -118.56209 -31.449614 -139.00334
23700000000 -26.119083 -144.76309 -0.83056915 -120.64943 -0.82502365 -120.59993 -40.472904 -140.50549
23800000000 -26.894728 -138.15945 -0.83917874 -122.65305 -0.83286744 -122.62663 -42.390011 150.51202
23900000000 -28.669975 -152.09679 -0.83902615 -124.71574 -0.83580542 -124.66969 -33.373619 126.30688
24000000000 -29.813303 -170.05681 -0.83649772 -126.77572 -0.83045477 -126.76345 -28.715834 155.70294
24100000000 -27.417803 -179.7962 -0.83710784 -128.80606 -0.83439642 -128.77281 -27.928589 171.36667
24200000000 -26.640081 -178.73351 -0.83267111 -130.80649 -0.82864738 -130.78885 -29.224405 -172.07509
24300000000 -25.991011 -168.93047 -0.83088857 -132.80043 -0.82642716 -132.75586 -31.961802 -150.73418
24400000000 -27.278389 -161.84839 -0.83328229 -134.76816 -0.83240896 -134.73367 -42.005878 -161.99435
24500000000 -27.944201 -164.43785 -0.84238124 -136.76384 -0.84061229 -136.76009 -38.814522 114.02895
24600000000 -29.342321 177.26813 -0.85078889 -138.8315 -0.8468191 -138.77792 -31.295256 115.20214
24700000000 -28.009478 165.77017 -0.85527945 -140.84462 -0.84985596 -140.81744 -28.815836 132.86296
24800000000 -26.423893 158.75996 -0.85754037 -142.95154 -0.85557139 -142.92291 -27.80567 148.96048
24900000000 -26.303524 167.68024 -0.84960258 -144.98294 -0.84333926 -144.87004 -29.831779 159.39716
25000000000 -27.039444 169.20038 -0.84183663 -146.95917 -0.84883106 -146.91246 -32.441509 173.08916
25100000000 -28.601233 175.80711 -0.84721172 -148.90994 -0.84527224 -148.89162 -38.168812 128.06815
25200000000 -29.388863 157.84006 -0.85708094 -150.86655 -0.85303169 -150.83589 -34.668331 118.43909
25300000000 -29.705925 144.73328 -0.86118919 -152.91788 -0.86191326 -152.82841 -29.952686 104.41261
25400000000 -26.926001 135.67285 -0.86428946 -154.93384 -0.860237 -154.91817 -29.774633 123.28
25500000000 -27.075718 135.4248 -0.86897302 -156.88786 -0.86545581 -156.90457 -28.937685 112.35582
25600000000 -26.950811 145.77458 -0.86418617 -159.06555 -0.8642506 -158.9982 -30.159286 127.7938
25700000000 -27.94875 142.5455 -0.86685503 -161.03175 -0.85604078 -160.97186 -32.165695 106.84508
25800000000 -28.127249 135.62411 -0.8667804 -163.04745 -0.86312193 -162.98099 -31.310438 110.80474
25900000000 -28.995451 119.42586 -0.85803241 -165.05447 -0.85378599 -165.04919 -30.881573 91.440788
26000000000 -28.257944 118.31596 -0.8701542 -167.03365 -0.85984665 -167.02202 -29.40107 92.44503
26100000000 -27.381407 111.57647 -0.8645308 -169.0562 -0.86804891 -169.04675 -28.92626 88.307587
26200000000 -27.112991 111.00023 -0.87319475 -171.12839 -0.8662805 -171.09869 -28.437733 84.413864
26300000000 -26.710421 108.56694 -0.88037688 -173.14624 -0.87600756 -173.09988 -28.410454 95.415985
26400000000 -27.130529 110.01762 -0.87738067 -175.1861 -0.87529308 -175.1727 -28.899525 79.105888
26500000000 -26.504658 105.1658 -0.88012832 -177.17468 -0.87251782 -177.1447 -28.50028 85.156509
26600000000 -27.363077 94.473183 -0.90789407 -179.18172 -0.8653149 -179.1866 -28.154905 70.971481
26700000000 -26.370329 88.877869 -0.87646997 178.79851 -0.87142301 178.81627 -27.692377 67.835518
26800000000 -26.211443 86.744606 -0.87180108 176.81654 -0.8774035 176.89 -26.337658 65.485802
26900000000 -25.247446 90.141365 -0.87241399 174.79579 -0.87567723 174.70686 -26.372465 69.930405
27000000000 -26.045961 83.806908 -0.88967931 172.77621 -0.86004895 172.81798 -25.085726 74.05381
27100000000 -26.546335 87.207176 -0.88975972 170.6214 -0.89145637 170.67812 -27.359535 72.697258
27200000000 -24.755247 77.005424 -0.89053059 168.65865 -0.88565487 168.67674 -26.644531 64.570747
27300000000 -25.090794 77.46257 -0.8966921 166.59671 -0.89750844 166.74562 -26.309162 47.528313
27400000000 -24.152016 70.493774 -0.91261178 164.545 -0.90266228 164.57794 -24.474794 51.221218
27500000000 -25.004572 71.929245 -0.8994568 162.42117 -0.88308865 162.62828 -23.959885 49.217491
27600000000 -24.260658 67.947655 -0.90987802 160.39862 -0.89960355 160.62782 -24.083597 60.246506
27700000000 -25.189653 62.252789 -0.89999211 158.53978 -0.89606589 158.48007 -25.215599 53.699257
27800000000 -23.868364 56.907543 -0.92004597 156.42821 -0.90805805 156.56256 -25.762363 56.928673
27900000000 -24.625593 53.843678 -0.91410583 154.54063 -0.90334046 154.47684 -25.556353 28.465784
28000000000 -23.60075 54.932301 -0.93132281 152.43013 -0.92241865 152.72136 -24.612228 36.421154
28100000000 -24.68692 50.841587 -0.90246856 150.60941 -0.89997488 150.6553 -23.402506 30.058495
28200000000 -24.118433 48.810844 -0.92137742 148.43054 -0.89787287 148.41518 -23.507215 39.880547
28300000000 -23.899094 35.539913 -0.90658295 146.33128 -0.88266706 146.50323 -24.475147 37.652126
28400000000 -24.196753 36.882153 -0.92038161 144.31433 -0.90061247 144.42694 -25.711967 34.656803
28500000000 -23.382126 31.625715 -0.91297239 142.28741 -0.92236137 142.35689 -23.836824 17.559082
28600000000 -23.596386 30.240215 -0.90222317 140.38329 -0.91587818 140.47853 -23.427692 12.600288
28700000000 -23.048635 27.52927 -0.92174488 138.58937 -0.91383171 138.51892 -21.675354 17.673986
28800000000 -23.696114 31.774849 -0.9284243 136.44279 -0.92760152 136.30486 -22.401308 27.941053
28900000000 -22.719828 25.476984 -0.93080574 134.40892 -0.91963804 134.5255 -23.420212 21.665878
29000000000 -24.834797 19.744926 -0.90668184 132.33401 -0.92873752 132.22685 -25.121292 15.89987
29100000000 -23.591938 18.048206 -0.90748888 130.02966 -0.90298033 130.07742 -24.177713 -5.6404967
29200000000 -22.939402 14.405906 -0.90086573 128.33356 -0.91001302 128.15486 -21.859468 0.60132998
29300000000 -21.476419 17.965366 -0.89917052 126.19482 -0.90795273 126.27458 -19.984255 2.3859591
29400000000 -22.215162 12.01604 -0.9216674 124.31812 -0.91693693 124.27169 -20.371565 16.476665
29500000000 -22.302341 20.63522 -0.93300301 122.31645 -0.90624714 122.26878 -21.282597 12.776799
29600000000 -23.883507 13.172583 -0.92614353 120.20285 -0.92150676 120.33633 -23.923292 16.824533
29700000000 -23.612164 14.649552 -0.92669719 118.26619 -0.93959057 118.14244 -22.872437 -3.8476284
29800000000 -22.90103 0.69711232 -0.91863239 116.24171 -0.93920493 116.17751 -23.626328 -10.058234
29900000000 -22.702436 4.5608315 -0.91014069 114.05974 -0.92562068 114.01424 -20.144278 -16.2735
30000000000 -20.934078 4.507597 -0.91882426 112.11833 -0.91719109 112.25032 -20.700212 -4.9891324
30100000000 -21.717216 8.8417101 -0.92631716 110.03171 -0.93771636 110.23049 -19.542421 -1.9647498
30200000000 -21.356142 5.7944617 -0.94159001 108.11105 -0.93905455 108.13817 -22.115824 3.7477739
30300000000 -24.313908 -0.48044425 -0.9475534 106.01131 -0.91318929 106.00665 -21.675337 -5.3397937
30400000000 -23.465374 -5.3348603 -0.92768741 103.90163 -0.91363907 104.16213 -24.296234 -21.343908
30500000000 -23.269016 -16.602365 -0.91153783 102.04948 -0.93041545 102.00346 -21.103962 -22.193752
30600000000 -21.860567 -13.870568 -0.92394394 99.850105 -0.9270612 100.00671 -22.152229 -27.135508
30700000000 -22.588993 -16.062029 -0.92151475 98.015747 -0.9316529 98.001923 -20.433777 -16.962488
30800000000 -21.847647 -6.8046699 -0.9408409 95.858078 -0.94443041 95.978943 -22.534279 -16.669598
30900000000 -22.562916 -14.868475 -0.92448932 93.799171 -0.93258619 94.068024 -21.059296 -16.385889
31000000000 -22.777004 -8.1527319 -0.93496829 91.795341 -0.96690875 92.045761 -22.54883 -27.053516
31100000000 -24.906202 -33.818287 -0.9273746 89.85762 -0.92016274 89.739517 -22.583977 -33.230503
31200000000 -24.419844 -37.175095 -0.91738069 87.604134 -0.94162089 87.770073 -20.991076 -38.032471
31300000000 -22.128836 -41.376282 -0.95271254 85.547806 -0.95153415 85.862381 -21.761068 -32.699738
31400000000 -20.958506 -26.290613 -0.9293505 83.712822 -0.94262165 83.784782 -20.685289 -32.225101
31500000000 -21.864334 -23.190536 -0.9170754 82.031891 -0.92303395 81.984032 -21.567514 -23.698179
31600000000 -24.328222 -11.349377 -0.95028973 79.754272 -0.957295 80.010109 -23.230524 -31.922598
31700000000 -26.550596 -27.582537 -0.94019318 77.785278 -0.96739644 77.814705 -22.853867 -37.27916
31800000000 -24.974947 -42.364311 -0.94784671 75.542824 -0.94985318 75.776329 -22.575661 -52.030296
31900000000 -21.529688 -51.048088 -0.92226338 73.4217 -0.96385419 73.50425 -20.97592 -50.668259
32000000000 -22.155449 -40.356148 -0.93312562 71.491661 -0.94508839 71.578171 -21.245787 -52.531075
32100000000 -22.032837 -24.945621 -0.9308818 69.618767 -0.91238534 69.675079 -20.579327 -41.887188
32200000000 -25.97039 -18.57102 -0.92938161 67.781006 -0.9457562 67.74585 -22.684324 -42.661335
32300000000 -27.393425 -23.437548 -0.93338042 65.647903 -0.9548977 65.691719 -22.815889 -43.413601
32400000000 -27.148985 -61.556816 -0.94487602 63.528683 -0.92973948 63.659134 -27.144007 -51.93581
32500000000 -24.501793 -56.315121 -0.90510267 61.370499 -0.93907255 61.520008 -24.139301 -67.676025
32600000000 -24.698334 -58.625694 -0.91884696 59.526978 -0.9267087 59.724945 -22.830894 -77.721077
32700000000 -24.74795 -21.32328 -0.95121187 57.204147 -0.95020014 57.177078 -21.407038 -73.437019
32800000000 -26.481892 -37.763241 -0.9311974 55.394344 -0.9199279 55.374001 -21.045273 -64.980682
32900000000 -31.336857 -19.686419 -0.91406626 53.188171 -0.92985135 53.372471 -23.11252 -54.514294
33000000000 -30.141102 -67.167381 -0.95082039 51.286633 -0.92548096 51.468071 -25.765942 -56.861294
33100000000 -30.769575 -69.415649 -0.91998035 49.191483 -0.93338782 49.072651 -30.074226 -75.336769
33200000000 -27.101521 -62.883987 -0.93287241 47.384216 -0.91886169 47.188053 -24.514505 -91.306679
33300000000 -31.462145 -58.111187 -0.95481414 45.224808 -0.9346627 45.119762 -25.787762 -101.01399
33400000000 -31.681568 -42.08736 -0.93176293 43.071011 -0.96518368 43.116322 -23.253859 -84.53968
33500000000 -34.88398 -61.91758 -0.9133327 40.988968 -0.9213832 41.251778 -25.162546 -78.851311
33600000000 -34.350586 -37.962887 -0.91944355 38.979633 -0.92326927 39.081429 -26.05401 -73.218842
33700000000 -34.37904 -62.711205 -0.95976561 37.202946 -0.93241006 36.937916 -29.76862 -80.274506
33800000000 -36.41848 -59.359589 -0.94302332 34.976585 -0.96575207 35.047935 -30.220135 -93.822075
33900000000 -40.37859 -96.248344 -0.94176203 32.939098 -0.96796542 32.895275 -28.4028 -99.076942
34000000000 -39.512871 -24.228659 -0.93235743 30.996222 -0.9524917 30.881796 -31.359936 -77.117233
34100000000 -36.689663 -52.609478 -0.94535166 28.714231 -0.978167 28.74968 -28.562054 -92.022278
34200000000 -34.659065 -10.630714 -0.95491701 27.11447 -0.96243888 27.001009 -32.817043 -38.162201
34300000000 -37.810741 -8.7636843 -0.97234672 24.726742 -0.93781304 24.826424 -33.023254 -101.41487
34400000000 -36.463669 22.465887 -0.98707068 22.874222 -0.9673366 22.957743 -41.93644 -115.93446
34500000000 -47.921394 32.752369 -1.0139737 20.678839 -0.99740326 20.800266 -30.46209 -121.46664
34600000000 -39.406124 47.437939 -0.96792114 18.658661 -0.9669773 18.689245 -33.901882 -66.789124
34700000000 -36.885395 42.297199 -0.98226619 16.482063 -1.0147647 16.699614 -33.248814 -60.654507
34800000000 -32.476212 67.0439 -0.98569614 14.592498 -0.96452004 14.652957 -33.31929 40.041039
34900000000 -31.011036 58.964607 -0.96129084 12.28591 -1.0111055 12.622057 -31.890623 63.346622
35000000000 -29.095798 66.129868 -0.96466517 10.377148 -0.99528515 10.590949 -27.681707 105.50533
35100000000 -28.419327 43.206608 -1.0172479 8.5293493 -0.99667346 8.6194201 -32.304031 141.16628
35200000000 -26.515886 46.310196 -1.0104603 6.5837979 -0.9909994 6.4803801 -32.525719 148.11232
35300000000 -27.135342 45.916096 -1.0043809 4.4645619 -1.0143647 4.5189576 -38.096695 -0.8766799
35400000000 -24.892952 65.959015 -1.0098273 2.4041407 -0.99319899 2.3527629 -35.316044 24.634573
35500000000 -24.174715 56.833817 -0.99658 0.24788952 -0.97124004 0.434526 -28.812021 59.0214
35600000000 -25.294121 74.95636 -1.0302391 -1.9751936 -0.96188742 -1.6902238 -25.052258 78.460991
35700000000 -25.836243 64.345245 -1.0051453 -3.7578044 -1.0035547 -3.7141614 -26.225462 82.331673
35800000000 -24.279047 54.970684 -1.016838 -5.7650962 -1.0538861 -5.7648406 -27.298784 86.736771
35900000000 -21.991829 46.924068 -1.0355546 -7.7808099 -1.0283474 -7.9200773 -28.696768 100.06825
36000000000 -22.431711 46.379505 -1.0363353 -9.6172209 -1.0578222 -9.767127 -25.965769 50.085091
36100000000 -20.091413 48.48 -1.0617831 -11.879672 -1.0818092 -11.621266 -24.491962 61.439621
36200000000 -21.654129 55.797203 -1.0538409 -13.832582 -1.0400113 -13.749747 -22.957191 52.344307
36300000000 -20.180544 59.881397 -1.0549302 -16.098942 -1.0789788 -16.082996 -23.666 64.918808
36400000000 -23.002419 58.074478 -1.0191509 -17.909166 -1.0361215 -17.939926 -26.035692 48.271374
36500000000 -23.413996 41.474834 -0.98575658 -20.358227 -1.0148408 -20.091192 -26.167574 48.288448
36600000000 -22.082945 18.738979 -0.94832039 -21.896168 -0.9580695 -21.763842 -21.339565 23.347616
36700000000 -18.958784 38.663525 -1.0324925 -24.022739 -1.0655507 -23.828684 -22.313618 32.08226
36800000000 -17.484974 36.564487 -1.073236 -26.09684 -1.0740004 -25.794527 -18.386091 39.53912
36900000000 -17.919617 56.633804 -1.1435503 -28.143814 -1.0691547 -28.154087 -20.134184 50.629028
37000000000 -19.158817 47.518734 -1.0721846 -30.165537 -1.0990062 -30.160412 -20.195608 53.312668
37100000000 -24.352638 40.986633 -1.0801139 -32.811813 -1.069115 -32.82383 -23.87673 47.387474
37200000000 -20.164619 22.442406 -1.0536528 -34.415783 -1.0300796 -34.636993 -22.304335 29.189333
37300000000 -17.841047 22.666422 -1.0436507 -36.52409 -1.0198402 -36.623013 -19.762836 9.1656551
37400000000 -15.943338 27.764309 -1.0490147 -38.377369 -0.99665588 -38.48238 -16.860033 19.254446
37500000000 -17.256826 37.504799 -1.0468831 -40.340458 -1.0908456 -40.464306 -16.702911 22.269478
37600000000 -17.999828 42.098434 -1.0924917 -42.259731 -1.0818882 -42.066013 -16.548365 36.122009
37700000000 -18.943285 28.741146 -1.0866274 -44.439651 -1.0841008 -44.140659 -17.344055 41.069084
37800000000 -17.515366 15.718067 -1.121084 -46.270866 -1.12025 -46.345348 -19.71459 29.142157
37900000000 -16.48605 10.584771 -1.1279689 -48.638344 -1.1152056 -48.572037 -20.267382 23.588909
38000000000 -15.703979 19.440058 -1.120072 -50.761532 -1.1508615 -50.376316 -17.425365 1.1116288
38100000000 -16.061287 24.512548 -1.1334096 -52.480026 -1.1409289 -52.456944 -15.959328 11.282915
38200000000 -16.050508 23.735022 -1.1593163 -54.471615 -1.0759482 -54.373425 -14.847582 9.4149399
38300000000 -15.926429 13.514784 -1.1356503 -56.521828 -1.096616 -56.356697 -14.899544 25.629969
38400000000 -16.255196 7.1398454 -1.1241173 -58.741962 -1.1247311 -58.175735 -16.055046 26.148809
38500000000 -15.834754 5.5154266 -1.1116357 -60.668453 -1.131831 -60.347263 -17.485535 20.697433
38600000000 -14.650215 16.607885 -1.1163737 -62.199711 -1.1294782 -62.48307 -16.438387 2.3232226
38700000000 -14.499551 7.890327 -1.1668701 -64.308441 -1.1590025 -64.308739 -16.445711 -3.1721017
38800000000 -15.43014 10.852226 -1.1642473 -66.470825 -1.1455125 -66.17717 -13.812503 1.8525035
38900000000 -14.759063 7.9953847 -1.143611 -68.185272 -1.1860396 -68.195915 -15.205275 7.5042682
39000000000 -15.527737 6.816895 -1.1978309 -70.486511 -1.2027475 -70.140419 -14.084286 10.676561
39100000000 -15.152581 -1.1796941 -1.1452342 -73.0755 -1.1313975 -72.434547 -18.095436 2.8751881
39200000000 -16.111048 -6.2601333 -1.1550419 -74.318817 -1.1972132 -74.358635 -14.985405 -3.1304581
39300000000 -13.65586 -5.6483655 -1.1790892 -76.580635 -1.1683723 -76.328598 -15.278828 -17.97711
39400000000 -14.679248 1.0147015 -1.1196269 -78.344017 -1.1528735 -78.24514 -13.077746 -7.2540741
39500000000 -13.745759 10.503155 -1.2116841 -80.228455 -1.2456552 -80.498314 -14.393841 -9.3191347
39600000000 -16.015966 -3.811888 -1.1924868 -82.224792 -1.1505356 -82.657738 -13.422439 2.9059753
39700000000 -17.259195 -8.8679028 -1.1934319 -84.817039 -1.2024293 -84.632088 -17.355661 -5.4245605
39800000000 -15.547272 -25.337267 -1.1887733 -86.475212 -1.1645215 -86.350349 -15.814316 -15.189533
39900000000 -13.847861 -9.8280907 -1.2187421 -89.230148 -1.1955303 -88.492516 -15.969027 -35.253471
40000000000 -13.708828 -12.332823 -1.2036893 -90.591064 -1.1337531 -90.658089 -13.062222 -28.196745
40100000000 -14.533882 5.8141937 -1.2222674 -92.745247 -1.2683687 -92.726898 -12.604928 -23.050194
40200000000 -15.833808 -0.54057473 -1.1929978 -94.382141 -1.173936 -94.540382 -12.963959 -13.515027
40300000000 -18.829716 -14.180449 -1.1712816 -96.878365 -1.1565745 -97.03817 -14.303183 -15.585722
40400000000 -15.213577 -29.920425 -1.1488988 -98.498695 -1.1632775 -98.880188 -16.730404 -17.850637
40500000000 -14.012684 -21.507303 -1.2081431 -100.80045 -1.2371956 -100.20656 -16.604359 -32.037235
40600000000 -13.160049 -15.634316 -1.1554106 -102.18383 -1.1724401 -102.45798 -14.614867 -40.015362
40700000000 -15.792173 -8.4549227 -1.2427291 -104.34899 -1.2001355 -104.7296 -13.668145 -39.735279
40800000000 -15.395746 -11.672569 -1.2443774 -106.22911 -1.2233329 -105.95797 -12.716904 -29.154913
40900000000 -16.087828 -30.053095 -1.1214482 -108.33514 -1.1956649 -108.33575 -13.686319 -23.147755
41000000000 -14.524642 -40.296062 -1.1493245 -110.35353 -1.1390765 -110.34863 -13.877237 -25.888655
41100000000 -14.899287 -35.27013 -1.1926765 -112.09911 -1.1859369 -112.82419 -16.736864 -33.330086
41200000000 -14.14898 -21.661968 -1.1937995 -114.17661 -1.1744448 -113.60723 -14.679811 -36.655521
41300000000 -15.322833 -27.009096 -1.1935457 -116.13759 -1.1963733 -116.35222 -15.107203 -43.863941
41400000000 -15.793889 -26.352457 -1.1574259 -118.24033 -1.1388304 -118.228 -13.574187 -39.656799
41500000000 -16.094938 -35.584072 -1.1648238 -120.25936 -1.2023121 -120.02795 -13.659227 -46.655079
41600000000 -14.261921 -32.576851 -1.1923325 -122.47083 -1.1506938 -122.28895 -14.041473 -36.221756
41700000000 -15.494445 -39.846172 -1.2042724 -123.63315 -1.2099839 -124.24339 -14.957652 -48.210091
41800000000 -15.523418 -35.889805 -1.1932186 -126.04595 -1.1761763 -126.33133 -14.7227 -41.862026
41900000000 -15.952669 -45.718098 -1.1801322 -128.395 -1.1563934 -127.99658 -15.167651 -58.565247
42000000000 -14.958698 -37.64732 -1.1539309 -130.23973 -1.1878816 -130.46341 -14.43578 -48.50227
42100000000 -14.182508 -40.933285 -1.151673 -132.29286 -1.1828967 -132.33788 -14.289564 -60.684631
42200000000 -16.146988 -36.221947 -1.0916359 -134.38615 -1.0915744 -134.46951 -14.595266 -46.173382
42300000000 -16.728445 -36.597988 -1.2110491 -136.89825 -1.2142422 -136.17259 -14.5667 -60.036659
42400000000 -19.935028 -50.026886 -1.1163844 -138.73502 -1.1609484 -138.1973 -16.720097 -52.684021
42500000000 -15.392469 -55.336082 -1.1335185 -140.48325 -1.0546895 -140.59528 -16.820513 -69.459908
42600000000 -15.355438 -60.356319 -1.1103706 -142.32924 -1.1652864 -142.26151 -17.431499 -62.133499
42700000000 -15.282596 -40.160511 -1.0923576 -144.82716 -1.1515164 -144.66432 -14.992441 -77.697266
42800000000 -16.207628 -33.480816 -1.10913 -146.52112 -1.0957298 -146.14735 -16.140928 -72.634521
42900000000 -18.138885 -13.108546 -1.0798523 -148.94095 -1.1824203 -148.5567 -15.128114 -64.551445
43000000000 -22.094311 -50.961044 -1.0614575 -151.06572 -1.080263 -150.94089 -16.029514 -60.499359
43100000000 -21.552227 -82.252068 -1.1227819 -153.1938 -1.0953571 -152.99001 -19.421518 -53.195015
43200000000 -16.161015 -67.728874 -1.0396867 -154.86913 -1.0420005 -155.13193 -20.210018 -69.297234
43300000000 -17.135607 -48.282001 -1.0651977 -156.82336 -1.1341547 -156.67336 -20.429579 -92.939735
43400000000 -16.902903 -27.914505 -1.0482231 -158.40768 -1.1250255 -159.03609 -17.280184 -88.082375
43500000000 -19.402288 -14.434901 -1.0035723 -160.46837 -1.2107772 -161.01358 -16.63142 -92.757507
43600000000 -25.998949 -12.058353 -1.1608831 -163.11217 -1.0280229 -162.88861 -17.003525 -70.862511
43700000000 -25.690649 -63.812443 -1.0502007 -165.89775 -1.1118721 -165.53151 -19.086336 -69.18898
43800000000 -22.034309 -83.056786 -1.0286304 -167.1002 -1.0577614 -167.10049 -20.937073 -54.544819
43900000000 -21.747166 -58.505802 -1.0272361 -169.60815 -1.114441 -169.21262 -27.195541 -100.90999
44000000000 -19.308109 -25.710201 -1.0732838 -171.34886 -1.0209024 -171.15796 -24.400703 -92.19841
44100000000 -20.758961 -11.09397 -1.0556253 -173.19949 -1.0270712 -173.30725 -21.084583 -95.641129
44200000000 -20.891293 11.480523 -1.046621 -175.71628 -1.1032381 -175.8931 -21.435232 -89.317833
44300000000 -25.495152 -17.940702 -1.0866836 -177.84746 -1.0657154 -177.4848 -23.767567 -68.451035
44400000000 -31.602819 -62.693878 -1.0857558 179.80057 -1.0900108 179.8719 -26.940401 -39.847054
44500000000 -23.33112 -67.81636 -1.1410959 177.87766 -1.0580299 177.8914 -26.303528 -106.40939
44600000000 -23.700184 -37.390343 -1.0460689 176.1418 -1.1198962 176.20895 -36.125885 -21.177959
44700000000 -19.842299 -8.1510115 -1.1051931 173.64299 -1.0904732 173.99025 -26.543329 -115.68338
44800000000 -25.136816 10.667807 -1.0911211 171.8858 -1.0784084 171.92584 -26.499798 -36.530609
44900000000 -26.426153 26.022846 -1.0617646 169.24435 -1.0687332 169.14677 -25.741081 -56.309532
45000000000 -24.881491 30.914141 -1.1613667 167.87494 -1.129622 167.75784 -25.218134 34.449505
