!Keysight Technologies,N5247B,MY61255062,A.19.80.06
!Date: Monday, May 18, 2026 12:54:35
!Correction: S11(Cdelta 2-Port  ) 
!S21(Cdelta 2-Port  ) 
!S12(Cdelta 2-Port  ) 
!S22(Cdelta 2-Port  ) 
!S2P File: Measurements: S11, S21, S12, S22:
# Hz S  dB   R 50
1000000000 -26.493479 -10.706846 -0.41038537 -20.855165 -0.40522563 -20.843277 -26.912409 -11.935335
1100000000 -26.418224 -12.428105 -0.4216074 -22.882137 -0.41695377 -22.873672 -26.912876 -13.493371
1200000000 -26.330057 -14.09028 -0.43015334 -24.875204 -0.42514852 -24.862482 -26.90575 -14.164727
1300000000 -26.28245 -15.809937 -0.43576714 -26.92885 -0.43117124 -26.914694 -26.703096 -16.037277
1400000000 -26.158739 -17.117252 -0.44133064 -28.901323 -0.43516508 -28.886806 -26.676825 -16.917372
1500000000 -26.10672 -19.307135 -0.44106245 -30.916565 -0.43500912 -30.916815 -26.478048 -18.829575
1600000000 -26.024067 -21.311213 -0.44608191 -32.958191 -0.44158912 -32.945335 -26.469997 -21.76926
1700000000 -25.938679 -23.398378 -0.44771704 -34.967354 -0.44211242 -34.950447 -26.362844 -22.919806
1800000000 -25.794914 -25.255342 -0.45063853 -36.9939 -0.44472584 -36.989021 -26.24798 -25.129396
1900000000 -25.708633 -27.572115 -0.45198178 -39.035656 -0.44754687 -39.021614 -26.146042 -27.271023
2000000000 -25.709839 -29.460077 -0.4576757 -41.08202 -0.45375192 -41.068661 -26.093321 -29.854912
2100000000 -25.617611 -31.838097 -0.46070316 -43.099968 -0.45557478 -43.087112 -26.075418 -31.18532
2200000000 -25.677288 -34.154804 -0.46342805 -45.136505 -0.45931837 -45.121006 -26.033075 -33.80405
2300000000 -25.636562 -36.282642 -0.46737671 -47.171474 -0.46331167 -47.16357 -26.062902 -35.880577
2400000000 -25.628462 -38.349693 -0.47190207 -49.190079 -0.46695963 -49.185368 -26.020399 -37.569626
2500000000 -25.533152 -39.972427 -0.47595263 -51.245296 -0.4728989 -51.232525 -25.948132 -40.063141
2600000000 -25.566401 -42.397945 -0.48188081 -53.255726 -0.47711796 -53.244263 -26.040627 -42.396648
2700000000 -25.658623 -44.45256 -0.49055353 -55.294174 -0.48424768 -55.275299 -26.148979 -44.933868
2800000000 -25.683191 -46.96899 -0.49550724 -57.297939 -0.48947468 -57.282234 -26.096004 -46.821129
2900000000 -25.841347 -48.667633 -0.49782902 -59.313007 -0.4942981 -59.297901 -26.111668 -49.279049
3000000000 -25.815208 -50.186691 -0.50181115 -61.315388 -0.49651185 -61.304276 -26.189554 -50.64349
3100000000 -25.920094 -51.904003 -0.50436074 -63.335369 -0.49893346 -63.325554 -26.199078 -52.283554
3200000000 -25.806601 -53.494362 -0.50777155 -65.345322 -0.50216478 -65.331459 -26.296206 -54.20668
3300000000 -25.946657 -56.301807 -0.51166409 -67.36451 -0.50470036 -67.360191 -26.266363 -56.099689
3400000000 -26.117027 -58.107044 -0.51546454 -69.397423 -0.51154935 -69.38459 -26.369013 -58.646053
3500000000 -26.123013 -60.591591 -0.520841 -71.411751 -0.51419675 -71.394386 -26.398388 -60.112064
3600000000 -26.13628 -62.279366 -0.52106166 -73.399429 -0.51792067 -73.380875 -26.384237 -61.812435
3700000000 -26.098288 -64.298134 -0.52236265 -75.408791 -0.51784015 -75.384651 -26.294552 -63.014793
3800000000 -26.231373 -65.930069 -0.52433431 -77.430847 -0.5171718 -77.414413 -26.329517 -65.253647
3900000000 -26.152832 -67.472847 -0.52513295 -79.456673 -0.51802742 -79.446999 -26.459974 -66.950226
4000000000 -26.279037 -69.328896 -0.52787048 -81.501961 -0.5235002 -81.486862 -26.641201 -68.949982
4100000000 -26.258913 -70.707909 -0.53446221 -83.519371 -0.53111988 -83.519913 -26.783991 -69.879829
4200000000 -26.427755 -72.57795 -0.53962958 -85.509514 -0.53641915 -85.506279 -26.742908 -71.870941
4300000000 -26.53051 -73.920341 -0.54252613 -87.496902 -0.53691244 -87.487602 -26.780033 -74.352287
4400000000 -26.714521 -75.482101 -0.54467601 -89.503403 -0.53824162 -89.505714 -26.839636 -75.322029
4500000000 -26.85178 -76.467857 -0.54353523 -91.534912 -0.53970605 -91.518997 -26.907274 -77.278969
4600000000 -27.019247 -78.678169 -0.54420006 -93.550308 -0.54265255 -93.535736 -27.01663 -78.310135
4700000000 -27.153755 -80.765106 -0.54655802 -95.564819 -0.54306144 -95.550957 -27.05267 -80.350578
4800000000 -27.301418 -82.3685 -0.54821348 -97.58316 -0.54455364 -97.578445 -27.126425 -81.660271
4900000000 -27.403866 -83.967445 -0.55251783 -99.603455 -0.54663402 -99.604836 -27.144976 -84.092712
5000000000 -27.545494 -84.536247 -0.55402827 -101.6273 -0.54801852 -101.60465 -27.228819 -84.437363
5100000000 -27.612614 -84.858047 -0.5560503 -103.64342 -0.55075026 -103.63457 -27.306669 -85.199829
5200000000 -27.836941 -86.063858 -0.55671322 -105.66355 -0.55362481 -105.66167 -27.563114 -86.350784
5300000000 -27.971226 -87.721146 -0.55808645 -107.69135 -0.55555457 -107.65854 -27.759974 -88.684601
5400000000 -28.27944 -90.574539 -0.56272799 -109.70245 -0.55987209 -109.67976 -27.963305 -91.405617
5500000000 -28.437885 -91.411392 -0.56493384 -111.72031 -0.56096327 -111.6978 -27.854841 -93.453819
5600000000 -28.577457 -93.24823 -0.56827986 -113.72469 -0.56361002 -113.71741 -27.792608 -94.7929
5700000000 -28.704914 -92.290077 -0.5695104 -115.73438 -0.56516027 -115.72667 -27.624813 -93.953606
5800000000 -28.791948 -94.237572 -0.57145077 -117.74612 -0.56626016 -117.72544 -27.903406 -94.44339
5900000000 -29.271574 -94.554306 -0.57428974 -119.75823 -0.56927019 -119.74077 -28.26576 -94.627098
6000000000 -29.295332 -97.02034 -0.57490933 -121.75982 -0.56942779 -121.731 -28.770887 -98.096756
6100000000 -29.834507 -98.071274 -0.57501191 -123.75703 -0.56858116 -123.75307 -29.024477 -100.69295
6200000000 -29.931377 -97.699516 -0.57088327 -125.78265 -0.5661487 -125.77103 -28.937042 -103.12338
6300000000 -30.61816 -98.261688 -0.57077849 -127.81897 -0.56670052 -127.81198 -28.695852 -101.42071
6400000000 -30.838568 -97.218353 -0.58130747 -129.80563 -0.57535738 -129.80597 -28.548859 -103.76804
6500000000 -31.244209 -99.401329 -0.57502961 -131.85564 -0.5725463 -131.84428 -29.388643 -102.11692
6600000000 -31.524683 -99.603912 -0.58023071 -133.90237 -0.57641786 -133.89047 -29.825619 -102.6153
6700000000 -31.922302 -100.3597 -0.58604294 -135.89647 -0.58238512 -135.88689 -30.124586 -104.84683
6800000000 -31.644861 -96.107712 -0.586514 -137.91681 -0.58245617 -137.91197 -29.984665 -107.48412
6900000000 -31.612829 -95.976608 -0.58310211 -139.93404 -0.5806964 -139.90762 -29.931067 -106.91184
7000000000 -31.782433 -90.443497 -0.58969551 -141.97961 -0.58210748 -141.94826 -29.531553 -104.99987
7100000000 -31.821354 -90.351791 -0.59327644 -144.02072 -0.59031975 -143.99109 -29.875525 -101.98708
7200000000 -32.189281 -91.127579 -0.60567039 -145.96262 -0.60036594 -145.93626 -30.003675 -103.80872
7300000000 -32.798714 -90.910454 -0.589405 -147.93869 -0.585877 -147.91905 -30.896532 -107.38225
7400000000 -33.063175 -87.540108 -0.58779949 -150.02222 -0.58407032 -150.01048 -30.864511 -108.60598
7500000000 -32.603455 -84.940552 -0.59416562 -152.06902 -0.59217566 -152.04651 -30.314493 -107.94137
7600000000 -32.63887 -82.015274 -0.59552342 -154.05357 -0.59332746 -154.03223 -30.041292 -107.4412
7700000000 -32.447285 -80.400764 -0.59523928 -156.07472 -0.59107542 -156.05737 -30.267929 -102.98206
7800000000 -32.473064 -80.414932 -0.59556442 -158.10172 -0.59257293 -158.08687 -30.847971 -101.10237
7900000000 -32.618526 -81.547707 -0.59914631 -160.14259 -0.59338266 -160.11288 -31.610323 -103.58225
8000000000 -32.845245 -78.937599 -0.60170168 -162.17807 -0.59508371 -162.14781 -31.57719 -108.99252
8100000000 -32.52034 -76.433136 -0.60034424 -164.18211 -0.59791833 -164.16875 -30.975555 -110.86026
8200000000 -32.280369 -72.815758 -0.60273767 -166.21762 -0.59853446 -166.2036 -30.15765 -108.88166
8300000000 -31.946205 -73.927872 -0.60366148 -168.24995 -0.59951478 -168.23262 -30.261324 -103.59163
8400000000 -32.307446 -74.175095 -0.60321945 -170.3112 -0.60062277 -170.28741 -31.321995 -100.20485
8500000000 -32.704597 -71.996544 -0.6100226 -172.40787 -0.60528952 -172.41023 -33.383926 -112.44476
8600000000 -32.462177 -66.456291 -0.6555509 -174.61766 -0.64920068 -174.59196 -31.971657 -150.35176
8700000000 -33.712997 -74.714607 -0.73192817 -175.90872 -0.72868788 -175.88397 -28.213675 164.145
8800000000 -32.256729 -59.489479 -0.60178399 -177.74527 -0.59935337 -177.72884 -31.03418 161.06755
8900000000 -31.196554 -66.634712 -0.59700584 179.82741 -0.59388989 179.85242 -31.200062 -157.88161
9000000000 -31.008085 -69.403709 -0.61158204 177.71935 -0.60567397 177.74213 -28.847239 -133.31085
9100000000 -30.568195 -66.693069 -0.61943352 175.66824 -0.61980253 175.69591 -28.404818 -117.40863
9200000000 -30.313971 -67.815826 -0.62614965 173.65045 -0.62102056 173.66336 -28.747192 -105.95372
9300000000 -30.27911 -65.816864 -0.63277233 171.63889 -0.62925595 171.64372 -30.641794 -97.844124
9400000000 -30.197216 -68.448547 -0.63460809 169.6617 -0.63222104 169.67731 -31.864456 -100.6835
9500000000 -30.08357 -67.712273 -0.63607723 167.61584 -0.63401675 167.65273 -32.654911 -111.64183
9600000000 -29.364752 -68.0868 -0.63953614 165.5955 -0.63515997 165.63654 -31.395063 -118.27167
9700000000 -29.181137 -68.071854 -0.64126945 163.57611 -0.63782507 163.60809 -30.636351 -118.56322
9800000000 -28.79413 -67.806999 -0.64125568 161.55161 -0.63773155 161.57341 -30.215815 -112.55215
9900000000 -29.005398 -68.501747 -0.64593983 159.5307 -0.63998967 159.55576 -30.837336 -108.4243
10000000000 -28.827185 -68.479729 -0.64612669 157.50117 -0.64433825 157.53265 -31.522367 -106.70849
10100000000 -28.665306 -69.727226 -0.65195292 155.47975 -0.65005445 155.52127 -32.542496 -115.82856
10200000000 -28.1497 -68.162895 -0.65605521 153.46365 -0.65332621 153.47816 -32.087528 -121.17712
10300000000 -27.94525 -69.450485 -0.65899587 151.4453 -0.65578121 151.46388 -31.244682 -125.17386
10400000000 -27.743645 -70.107819 -0.66695744 149.4185 -0.65806139 149.45815 -30.261702 -120.3332
10500000000 -27.690088 -73.26516 -0.6639269 147.42007 -0.66724294 147.45052 -30.075554 -116.37163
10600000000 -27.606316 -73.405319 -0.67161655 145.41084 -0.66707724 145.44112 -30.492399 -110.12405
10700000000 -27.234949 -73.649162 -0.67369825 143.41896 -0.67140079 143.4296 -31.503496 -110.306
10800000000 -27.181562 -73.370354 -0.67507696 141.42401 -0.6731602 141.45143 -32.440586 -109.8298
10900000000 -26.842888 -73.0886 -0.67808831 139.41255 -0.6778084 139.44989 -32.990631 -120.45025
11000000000 -26.765354 -75.258591 -0.68181044 137.40927 -0.67915994 137.44652 -32.433739 -122.55963
11100000000 -26.713335 -77.44841 -0.68477523 135.39513 -0.68675232 135.42702 -31.661064 -126.17297
11200000000 -26.607908 -79.489388 -0.68695301 133.40823 -0.68453825 133.4205 -31.232027 -122.3674
11300000000 -26.412109 -79.584892 -0.69111341 131.39856 -0.68792224 131.41179 -31.214422 -123.55112
11400000000 -26.116228 -80.253075 -0.69434214 129.40596 -0.68984008 129.41623 -31.324682 -119.04723
11500000000 -25.985371 -80.970558 -0.69404966 127.38721 -0.69309455 127.43616 -31.32452 -118.73386
11600000000 -25.856653 -82.965858 -0.69934762 125.40643 -0.69130611 125.42491 -31.864668 -119.20039
11700000000 -25.783409 -84.405464 -0.7009784 123.40756 -0.69429874 123.43331 -32.176674 -122.45473
11800000000 -25.829002 -86.605034 -0.69973505 121.39155 -0.69523919 121.44137 -32.454121 -122.50072
11900000000 -25.707907 -87.700829 -0.70229065 119.39731 -0.69938254 119.42276 -32.463863 -128.0704
12000000000 -25.637207 -89.20829 -0.70449889 117.38729 -0.70482463 117.43436 -32.310181 -128.63847
12100000000 -25.458687 -90.379623 -0.70876199 115.4196 -0.70316225 115.43685 -31.894445 -132.11954
12200000000 -25.281353 -92.878838 -0.70957667 113.42702 -0.70525759 113.45498 -31.458899 -131.28787
12300000000 -25.319399 -93.53038 -0.71031648 111.43938 -0.70392287 111.47356 -31.358192 -131.44952
12400000000 -25.322792 -95.673271 -0.71017903 109.46116 -0.70686114 109.47226 -31.722517 -130.80873
12500000000 -25.589952 -96.159142 -0.70667559 107.47016 -0.70422 107.51054 -32.170723 -133.20877
12600000000 -25.408575 -98.700829 -0.70421177 105.47984 -0.70152873 105.49893 -32.49247 -134.08589
12700000000 -25.580778 -100.20055 -0.70209986 103.4547 -0.6983822 103.4976 -32.52121 -138.50262
12800000000 -25.30228 -102.39871 -0.69648039 101.48422 -0.69287688 101.49053 -32.746632 -139.10164
12900000000 -25.416214 -103.34441 -0.69364482 99.438393 -0.69244236 99.458832 -32.622059 -144.62459
13000000000 -25.262882 -103.53641 -0.68995959 97.428574 -0.6853599 97.448013 -32.799969 -143.02626
13100000000 -25.73856 -106.05436 -0.68757284 95.381828 -0.68580884 95.4216 -32.807518 -145.67377
13200000000 -25.672686 -105.79711 -0.68898964 93.387718 -0.68517804 93.410408 -33.605186 -142.73155
13300000000 -25.848942 -109.23666 -0.6853193 91.33683 -0.68226749 91.354935 -33.747189 -142.54933
13400000000 -25.779982 -106.98745 -0.68647486 89.320396 -0.68253672 89.356865 -34.899704 -143.02777
13500000000 -25.93383 -110.632 -0.68492949 87.287193 -0.6825937 87.304489 -35.56028 -146.32924
13600000000 -26.12903 -109.77893 -0.68739426 85.270645 -0.68368042 85.282303 -36.917831 -143.33943
13700000000 -26.180225 -112.24545 -0.68764168 83.218567 -0.68386096 83.273384 -36.478718 -150.0649
13800000000 -26.415154 -111.88191 -0.6875577 81.177094 -0.68553144 81.20356 -37.525146 -148.67502
13900000000 -26.098724 -113.06104 -0.69130981 79.118126 -0.68617475 79.169212 -37.034603 -146.51181
14000000000 -26.68989 -111.56226 -0.69370073 77.099274 -0.69015229 77.129211 -39.37389 -141.09892
14100000000 -26.499941 -113.93924 -0.70267743 75.043533 -0.70028245 75.07692 -38.265873 -135.82513
14200000000 -26.789709 -114.46391 -0.71423203 73.02639 -0.71308458 73.052116 -39.556614 -125.4537
14300000000 -26.225632 -117.85557 -0.73218918 71.091072 -0.72747201 71.127357 -37.209801 -132.76567
14400000000 -26.797062 -122.35893 -0.71903777 69.200684 -0.7173571 69.228096 -38.747871 -138.0289
14500000000 -26.780687 -121.94537 -0.70906615 67.174088 -0.70771652 67.197876 -39.676376 -140.13142
14600000000 -27.581167 -121.18182 -0.70722514 65.128632 -0.70104963 65.154533 -44.256104 -140.54732
14700000000 -27.463821 -119.90744 -0.70634758 63.054703 -0.70419896 63.083881 -45.21434 -128.86198
14800000000 -27.460503 -123.22247 -0.7234776 61.016449 -0.72207183 61.044243 -47.128933 -142.23759
14900000000 -27.303471 -126.14165 -0.72521508 59.132225 -0.71880835 59.169964 -42.305462 -168.19604
15000000000 -28.038626 -128.13641 -0.71048725 57.114117 -0.7099269 57.147755 -42.51664 -156.38681
15100000000 -28.264898 -123.65253 -0.70997143 55.08622 -0.70725167 55.110683 -41.463333 -132.86029
15200000000 -28.663736 -127.20767 -0.7077924 53.048031 -0.70874035 53.062172 -40.740448 -103.01426
15300000000 -28.675625 -124.28412 -0.70983273 51.002953 -0.70818853 51.042984 -42.263054 -76.926109
15400000000 -28.333929 -129.32852 -0.70604026 48.952385 -0.70656687 48.978008 -44.810368 -44.847202
15500000000 -28.477318 -125.43399 -0.71302569 46.914829 -0.71011716 46.951767 -47.690041 -34.33844
15600000000 -28.309269 -130.52539 -0.71776474 44.870735 -0.71290976 44.925049 -58.10247 -44.676811
15700000000 -29.29141 -125.33984 -0.71730244 42.883129 -0.71627384 42.906605 -45.287445 -112.89059
15800000000 -29.683699 -128.26318 -0.72040558 40.877995 -0.71919203 40.92263 -41.310471 -99.86599
15900000000 -30.55814 -125.58863 -0.72168422 38.846249 -0.71980458 38.887474 -38.351631 -88.402199
16000000000 -29.776808 -131.39374 -0.72500736 36.836418 -0.72077835 36.887417 -38.218967 -70.240692
16100000000 -30.645849 -129.54602 -0.72851366 34.851063 -0.72447455 34.880928 -37.261333 -60.420845
16200000000 -29.581268 -129.98497 -0.72992522 32.805347 -0.72859019 32.845013 -38.535503 -44.374298
16300000000 -30.865126 -126.94421 -0.73410183 30.829149 -0.73184544 30.842382 -38.030266 -58.658623
16400000000 -30.556921 -121.63242 -0.73889863 28.795288 -0.73469532 28.839962 -39.097366 -56.610641
16500000000 -32.578442 -122.03606 -0.73801368 26.794901 -0.73915148 26.837299 -37.491158 -76.483543
16600000000 -32.488262 -118.58957 -0.73999125 24.801304 -0.73903579 24.825603 -36.657925 -64.416077
16700000000 -33.346992 -128.89383 -0.74166811 22.766157 -0.7430805 22.805651 -35.08395 -68.083771
16800000000 -32.396851 -125.60524 -0.74668044 20.768253 -0.74484491 20.797472 -35.633354 -55.898544
16900000000 -32.048512 -128.28989 -0.74678159 18.761246 -0.74723107 18.775753 -34.336178 -60.604836
17000000000 -32.098774 -111.49023 -0.74867666 16.755068 -0.74815786 16.772453 -35.876369 -61.139381
17100000000 -32.953842 -107.10823 -0.75200856 14.753224 -0.75268728 14.794386 -34.728172 -67.333389
17200000000 -34.63382 -93.522858 -0.75217414 12.724467 -0.75379169 12.781662 -35.652824 -73.376762
17300000000 -35.649113 -110.08736 -0.75474852 10.715081 -0.75127053 10.760201 -33.374172 -69.521317
17400000000 -36.252014 -119.40197 -0.75811213 8.7531605 -0.75615686 8.7681093 -34.503811 -65.205109
17500000000 -33.172356 -126.66303 -0.76174432 6.7142677 -0.76088744 6.743423 -33.259693 -58.765369
17600000000 -33.167248 -110.39503 -0.76271492 4.7104816 -0.7586143 4.7593112 -35.480446 -62.368542
17700000000 -32.676456 -101.09249 -0.76656401 2.7102911 -0.7622034 2.7450738 -36.007793 -65.422989
17800000000 -34.570824 -81.040451 -0.76960492 0.69402301 -0.76364905 0.71367943 -36.264492 -88.319534
17900000000 -35.693523 -86.436844 -0.77077359 -1.299203 -0.76221818 -1.2592721 -33.997066 -87.062302
18000000000 -38.142746 -103.17979 -0.76775318 -3.3096271 -0.76647294 -3.294744 -32.13905 -85.803253
18100000000 -34.317982 -113.91489 -0.77119368 -5.3074059 -0.76210928 -5.3183579 -31.025896 -72.348701
18200000000 -33.833797 -108.73252 -0.76500505 -7.2941298 -0.76354438 -7.260417 -31.766003 -63.746185
18300000000 -32.270046 -95.406509 -0.76637536 -9.3214636 -0.76296395 -9.2716579 -33.628746 -58.391998
18400000000 -33.800781 -82.787514 -0.76201391 -11.315215 -0.76816034 -11.281706 -37.49424 -67.764389
18500000000 -33.474834 -74.45607 -0.76802164 -13.332504 -0.76716447 -13.307662 -36.479675 -103.44861
18600000000 -34.436596 -77.185158 -0.76772445 -15.359438 -0.76747054 -15.319133 -32.693913 -109.11263
18700000000 -32.58057 -84.430046 -0.76417589 -17.354927 -0.76266062 -17.329163 -30.130754 -97.681175
18800000000 -32.338512 -91.229233 -0.76301765 -19.384474 -0.76289761 -19.325678 -29.110241 -84.035149
18900000000 -31.269917 -84.549835 -0.76376015 -21.372528 -0.75668001 -21.334244 -29.515896 -70.969048
19000000000 -31.068548 -82.681641 -0.76404101 -23.325506 -0.76047599 -23.303671 -32.411247 -59.712013
19100000000 -31.052568 -72.225044 -0.76378238 -25.360596 -0.76049882 -25.26951 -34.442593 -72.772408
19200000000 -30.669195 -73.688141 -0.76364905 -27.3603 -0.76194054 -27.298115 -37.162369 -105.11382
19300000000 -30.602552 -70.500893 -0.76283771 -29.378714 -0.76076591 -29.302151 -31.941418 -107.94218
19400000000 -30.781528 -77.371483 -0.76345152 -31.387671 -0.76017934 -31.326742 -31.510691 -104.7796
19500000000 -31.624195 -77.06871 -0.76059997 -33.39933 -0.75700665 -33.357769 -29.972849 -93.083458
19600000000 -30.316961 -82.615234 -0.75881219 -35.410984 -0.75555825 -35.368458 -31.634169 -85.28508
19700000000 -29.892145 -79.785812 -0.75833994 -37.402416 -0.75640547 -37.370262 -32.654202 -81.593246
19800000000 -28.663465 -74.802399 -0.75908691 -39.441303 -0.75823265 -39.410152 -35.916172 -98.934395
19900000000 -29.174568 -67.644341 -0.75454217 -41.477798 -0.75090218 -41.428486 -34.893913 -101.94173
20000000000 -30.184158 -66.455757 -0.75673181 -43.46701 -0.75493604 -43.450504 -33.982986 -112.65963
20100000000 -31.970636 -68.183159 -0.75494128 -45.516205 -0.75083971 -45.464405 -33.014885 -96.453751
20200000000 -31.203081 -80.151009 -0.75244009 -47.519947 -0.75119698 -47.493973 -33.744148 -95.015579
20300000000 -29.686972 -86.156517 -0.75742698 -49.553814 -0.75035995 -49.511665 -35.911366 -84.097847
20400000000 -28.085609 -78.575142 -0.74953365 -51.595379 -0.74996215 -51.545723 -37.33548 -113.66935
20500000000 -27.883846 -72.078278 -0.75572461 -53.623112 -0.75618708 -53.598255 -36.841934 -121.51447
20600000000 -28.324532 -66.044502 -0.76048094 -55.673557 -0.75408083 -55.645554 -33.663734 -119.35229
20700000000 -29.977905 -72.980339 -0.75913095 -57.733391 -0.75409162 -57.698292 -33.20586 -102.8336
20800000000 -30.255472 -76.969772 -0.76390487 -59.770111 -0.76004857 -59.732697 -31.738962 -91.484207
20900000000 -28.937237 -85.140182 -0.76672989 -61.797436 -0.76096851 -61.785183 -33.348259 -72.172829
21000000000 -27.174664 -83.086899 -0.78091872 -63.796638 -0.77095783 -63.779999 -36.79097 -75.395859
21100000000 -25.92449 -78.943298 -0.7905997 -65.746681 -0.7843852 -65.768311 -38.634792 -84.380768
21200000000 -26.270163 -79.486572 -0.79792482 -67.728844 -0.79278898 -67.713936 -36.983307 -125.84164
21300000000 -26.89517 -84.798141 -0.78543407 -69.679138 -0.78508145 -69.653687 -32.774708 -127.65479
21400000000 -28.36735 -89.907234 -0.76985711 -71.725815 -0.77308434 -71.698212 -32.163216 -116.22449
21500000000 -27.267349 -97.703476 -0.76206112 -73.892975 -0.75848049 -73.834404 -30.588583 -107.75553
21600000000 -27.211103 -95.302132 -0.76868403 -75.921089 -0.76611221 -75.882477 -32.751465 -85.606133
21700000000 -25.466326 -89.926353 -0.78015345 -77.922447 -0.77684265 -77.903572 -33.767323 -64.982605
21800000000 -25.289406 -86.645546 -0.79087329 -79.817215 -0.78959954 -79.784554 -40.274094 -63.156902
21900000000 -25.483393 -87.478661 -0.79617912 -81.696899 -0.79133981 -81.681526 -43.263371 -82.55471
22000000000 -27.116184 -90.850571 -0.79368639 -83.71978 -0.79402918 -83.662239 -36.761345 -153.40491
22100000000 -27.359819 -96.455215 -0.78985697 -85.680557 -0.78167605 -85.672729 -33.9375 -125.72681
22200000000 -27.432919 -106.41679 -0.79188371 -87.777054 -0.78092277 -87.748764 -33.178928 -125.48614
22300000000 -26.574064 -103.52613 -0.77655232 -89.884003 -0.77379763 -89.850052 -32.994663 -83.975204
22400000000 -25.972359 -97.734131 -0.77281028 -91.83522 -0.76381725 -91.859642 -36.463936 -67.810806
22500000000 -25.738501 -88.703194 -0.76682127 -93.896881 -0.76324785 -93.895622 -37.504635 -22.372904
22600000000 -26.992701 -88.11441 -0.77166677 -95.907837 -0.76761788 -95.876236 -54.890465 -93.453056
22700000000 -28.831991 -92.024635 -0.77755469 -97.890076 -0.77311993 -97.86721 -49.595894 -116.52338
22800000000 -28.596241 -108.46568 -0.78232664 -99.931953 -0.7750352 -99.901329 -36.534462 -132.3945
22900000000 -27.221024 -112.29855 -0.78116721 -101.97819 -0.77213925 -101.9714 -36.659138 -84.380913
23000000000 -25.23451 -106.45009 -0.78333902 -104.04074 -0.77814335 -104.01145 -35.572666 -77.806946
23100000000 -25.351126 -98.219429 -0.78032696 -106.04631 -0.77329004 -106.03939 -35.214569 -24.299332
23200000000 -26.222698 -91.036079 -0.78541827 -108.1077 -0.77907395 -108.07865 -42.809425 -24.345308
23300000000 -29.359827 -93.699295 -0.78178084 -110.10722 -0.7787689 -110.11355 -56.049393 69.689873
23400000000 -30.042252 -111.22476 -0.78633273 -112.1869 -0.77412212 -112.15856 -36.624424 -134.40611
23500000000 -28.322186 -130.07062 -0.78816509 -114.16936 -0.78291559 -114.14209 -35.611687 -119.37213
23600000000 -26.387947 -122.28973 -0.79676032 -116.21026 -0.78892714 -116.15767 -31.448774 -85.78981
23700000000 -25.436171 -114.26757 -0.79064196 -118.20901 -0.78937727 -118.1478 -33.281971 -44.676636
23800000000 -25.506359 -106.6822 -0.80107301 -120.18288 -0.79777926 -120.17271 -35.461773 -20.588341
23900000000 -27.696619 -110.34904 -0.7999382 -122.28058 -0.79904294 -122.23193 -38.500652 33.289871
24000000000 -29.995445 -116.97143 -0.80131429 -124.30418 -0.79851526 -124.30181 -39.089272 162.28351
24100000000 -29.214777 -138.04614 -0.79994601 -126.33354 -0.79567856 -126.29967 -34.478119 -154.92609
24200000000 -28.018517 -141.25578 -0.79991955 -128.36568 -0.79497379 -128.31583 -32.551853 -124.68443
24300000000 -26.270226 -134.09447 -0.79854453 -130.37057 -0.79381132 -130.3278 -30.958998 -90.325897
24400000000 -26.390041 -121.87891 -0.7944693 -132.30048 -0.79388654 -132.26222 -32.273552 -54.07819
24500000000 -26.877277 -121.93322 -0.80474758 -134.27156 -0.79975182 -134.23363 -34.699215 -22.901342
24600000000 -29.783222 -127.5556 -0.81241024 -136.31972 -0.81162566 -136.2541 -39.143131 34.169243
24700000000 -30.198877 -143.60797 -0.81356299 -138.32645 -0.81552154 -138.30414 -41.343231 121.20432
24800000000 -29.356947 -161.0014 -0.8189376 -140.42636 -0.81561273 -140.40001 -35.920876 179.00581
24900000000 -27.955811 -152.03648 -0.81069428 -142.41786 -0.80564308 -142.3638 -36.078777 -137.23419
25000000000 -28.033754 -146.20354 -0.80458558 -144.44243 -0.80284625 -144.37753 -33.668362 -106.35231
25100000000 -28.251297 -132.0378 -0.80426437 -146.36115 -0.80722827 -146.33743 -35.328846 -53.635857
25200000000 -30.913738 -141.24297 -0.81293178 -148.34262 -0.80556488 -148.30875 -38.622131 -41.625069
25300000000 -33.263054 -142.48445 -0.81307131 -150.29488 -0.81741405 -150.27379 -39.540855 37.252243
25400000000 -32.226189 -179.65817 -0.82645124 -152.40846 -0.81759399 -152.35982 -47.7146 147.6516
25500000000 -31.96236 -177.31978 -0.82692814 -154.3717 -0.81933331 -154.35211 -42.727943 91.780167
25600000000 -29.712702 -166.75079 -0.81564331 -156.49731 -0.82109177 -156.44025 -42.386734 -161.15887
25700000000 -31.202499 -162.77902 -0.81880194 -158.42719 -0.81159323 -158.4088 -45.089779 -43.017174
25800000000 -32.612095 -164.70206 -0.82235318 -160.44536 -0.8121053 -160.41161 -52.861324 -68.972336
25900000000 -37.30452 -174.50659 -0.80543613 -162.44748 -0.8131603 -162.40897 -42.155506 1.912081
26000000000 -36.259644 176.54146 -0.82145864 -164.44002 -0.81188595 -164.40282 -41.511513 43.83276
26100000000 -36.055691 154.63634 -0.8269645 -166.50403 -0.81817591 -166.45448 -40.434273 40.863228
26200000000 -35.868961 146.62895 -0.82759804 -168.5183 -0.82150739 -168.47491 -38.201912 46.444122
26300000000 -34.830509 141.13466 -0.8352921 -170.47649 -0.82643497 -170.45651 -40.594986 89.087097
26400000000 -34.967468 149.48969 -0.8315866 -172.56065 -0.82756233 -172.50529 -38.716373 34.882954
26500000000 -34.795746 138.97241 -0.82734436 -174.57372 -0.83375841 -174.46764 -40.374504 65.213852
26600000000 -37.938377 110.83961 -0.8363995 -176.48465 -0.81801307 -176.40024 -36.97633 25.057077
26700000000 -35.595516 94.599579 -0.83184403 -178.66766 -0.82518297 -178.41248 -34.382015 38.516865
26800000000 -35.895874 90.102577 -0.82992202 179.34737 -0.81720185 179.4137 -32.030048 43.390606
26900000000 -32.428867 97.607635 -0.82566667 177.32707 -0.82271045 177.44237 -33.074371 57.028008
27000000000 -33.393738 89.651932 -0.83261436 175.34802 -0.82796484 175.45284 -30.333361 69.791466
27100000000 -35.135181 96.582893 -0.84535086 173.31543 -0.82322764 173.38416 -36.292458 65.462349
27200000000 -30.844931 75.368271 -0.83268082 171.31216 -0.83517128 171.25711 -33.463985 53.512733
27300000000 -31.746414 73.717255 -0.86246228 169.36246 -0.83690166 169.40799 -32.047802 24.889835
27400000000 -30.196518 64.550667 -0.84755784 167.34702 -0.83955908 167.23729 -29.309269 41.842262
27500000000 -31.378599 70.64518 -0.87107944 165.20242 -0.84189069 165.22369 -28.131683 39.9478
27600000000 -29.669346 60.953407 -0.85402954 163.24258 -0.84770072 163.31532 -28.350445 63.093273
27700000000 -30.017174 48.845615 -0.85527128 161.14766 -0.86459553 161.20169 -30.217628 53.458336
27800000000 -27.79295 47.032623 -0.87185961 159.11003 -0.84799206 159.32907 -31.589523 56.482513
27900000000 -28.735027 43.312817 -0.85000587 157.19737 -0.85915917 157.35735 -30.475609 14.959921
28000000000 -27.51639 46.26091 -0.8770414 155.23128 -0.86368215 155.23924 -28.936287 28.007591
28100000000 -28.449741 37.102177 -0.85522366 153.39456 -0.84721142 153.39423 -26.826483 26.029583
28200000000 -27.693016 35.082767 -0.87551254 151.17683 -0.86569083 151.28482 -27.159885 40.964516
28300000000 -26.884855 19.694731 -0.8690815 149.13246 -0.83912849 149.22835 -28.674788 37.752087
28400000000 -27.091997 20.959852 -0.86974114 147.09038 -0.88336402 147.14024 -31.233974 35.430073
28500000000 -25.644674 17.377346 -0.87138027 145.16457 -0.85921973 145.14633 -26.963675 11.629205
28600000000 -25.180183 14.484005 -0.86213458 143.1689 -0.87046605 143.13794 -26.768093 6.7525206
28700000000 -24.770533 12.596431 -0.88361466 141.20036 -0.87827736 141.35989 -24.209328 16.449425
28800000000 -25.766443 17.94376 -0.90412968 139.16133 -0.90705281 139.18912 -25.027813 30.713787
28900000000 -24.031534 11.265182 -0.878676 137.18143 -0.87130088 137.27051 -26.810337 28.861118
29000000000 -25.953833 1.356505 -0.90088832 135.24673 -0.88684851 135.10701 -28.956383 20.416702
29100000000 -25.094046 1.3445643 -0.87205487 132.90631 -0.88366765 133.14742 -27.279041 -8.1885986
29200000000 -24.344122 -1.3611403 -0.87095481 130.98256 -0.86679715 131.06903 -24.499092 0.14986841
29300000000 -22.331789 7.2586241 -0.83446288 128.98384 -0.85064685 129.11391 -21.76062 4.9696679
29400000000 -22.720875 -0.21653277 -0.86317402 127.07433 -0.85944152 127.16013 -22.008429 23.16048
29500000000 -23.181154 11.813635 -0.87436253 125.0804 -0.86838591 125.23631 -22.550806 21.085197
29600000000 -24.049643 1.5270258 -0.89396548 123.11148 -0.88112068 123.16019 -25.209623 32.28841
29700000000 -24.066965 1.5574273 -0.88830864 121.02526 -0.88705456 121.01488 -25.179796 3.7691917
29800000000 -22.849377 -10.649705 -0.89165723 118.82122 -0.90090555 119.05856 -25.985262 -1.3555117
29900000000 -22.60796 -8.1747789 -0.87346035 116.89227 -0.84665775 116.98568 -21.372381 -11.595392
30000000000 -20.851759 -4.3179874 -0.87454617 114.84402 -0.88716727 115.04149 -21.779888 4.4030528
30100000000 -21.431829 -1.2429413 -0.89030212 112.91224 -0.89320958 112.90882 -20.153362 3.8276627
30200000000 -21.349752 -5.2170982 -0.8916477 110.92606 -0.88653767 110.87518 -22.796408 16.891197
30300000000 -23.878998 -14.306218 -0.89047498 108.80217 -0.8910473 109.06107 -22.294655 7.4506822
30400000000 -22.810026 -16.992197 -0.89299113 107.01773 -0.88040096 106.72482 -26.316301 -6.5570755
30500000000 -22.099991 -25.642582 -0.90171373 104.94556 -0.88289481 104.82952 -22.450554 -11.263076
30600000000 -20.799307 -22.31711 -0.87238741 102.85167 -0.87403584 102.86805 -23.030924 -16.924864
30700000000 -21.264114 -25.872707 -0.88709587 100.89909 -0.90320629 101.07687 -20.589254 -8.7500286
30800000000 -21.029358 -16.453402 -0.89816767 98.967583 -0.8998943 99.03759 -22.645266 -1.1669679
30900000000 -21.510658 -25.088509 -0.91701305 96.763557 -0.91784662 96.96743 -21.242718 -2.7462585
31000000000 -21.463844 -20.690794 -0.91738933 94.600601 -0.8973996 94.951248 -23.349962 -12.535346
31100000000 -22.584799 -42.096684 -0.90315211 92.670631 -0.90438503 92.707092 -23.334253 -15.616406
31200000000 -21.585827 -43.58606 -0.90825266 90.492088 -0.8956424 90.665634 -21.538351 -25.731281
31300000000 -20.063614 -47.199234 -0.90671504 88.542984 -0.90055454 88.743233 -21.394302 -20.45923
31400000000 -19.409575 -36.162666 -0.89459491 86.78595 -0.90297425 86.834641 -20.722235 -18.45401
31500000000 -19.984699 -32.541088 -0.91678029 84.940147 -0.92239881 85.048874 -20.910112 -9.1293592
31600000000 -22.01343 -27.39489 -0.95471871 82.911484 -0.94387448 82.804726 -22.608061 -15.59901
31700000000 -22.905281 -41.616482 -0.93593061 80.905884 -0.92871505 80.754959 -22.464563 -20.169779
31800000000 -21.37011 -49.632706 -0.95066702 78.694801 -0.92025459 78.778908 -22.612362 -33.898495
31900000000 -18.915627 -55.455025 -0.9149552 76.694786 -0.92918605 76.481346 -20.77784 -33.687157
32000000000 -19.317099 -48.13744 -0.89714813 74.802605 -0.90526718 74.711678 -20.896055 -35.278858
32100000000 -19.630785 -37.161232 -0.88086545 72.696083 -0.92065132 72.689339 -19.677517 -28.72406
32200000000 -22.956656 -37.254147 -0.89835453 70.885315 -0.90470254 70.880402 -20.993668 -25.763308
32300000000 -22.885468 -43.346012 -0.91502833 68.802727 -0.9183023 68.803375 -21.536261 -25.60207
32400000000 -22.427557 -63.922649 -0.90986043 66.667656 -0.90842593 66.792297 -24.705873 -25.581755
32500000000 -20.935888 -61.326748 -0.88367367 64.460617 -0.91168439 64.662086 -23.278734 -45.534443
32600000000 -20.350554 -64.39106 -0.88113087 62.468952 -0.91965854 62.666759 -22.368444 -55.055847
32700000000 -21.210955 -39.734257 -0.9201842 60.481743 -0.92334515 60.558331 -21.016354 -53.287361
32800000000 -21.726793 -50.398109 -0.88727081 58.592804 -0.91509771 58.622051 -20.006908 -46.614552
32900000000 -24.716713 -54.840557 -0.89503384 56.573673 -0.87133408 56.561954 -21.094313 -36.980186
33000000000 -23.366365 -72.992638 -0.88553548 54.502552 -0.92566103 54.490089 -22.730431 -32.970203
33100000000 -22.968624 -72.3722 -0.89992267 52.463097 -0.90496713 52.581161 -26.31477 -37.644913
33200000000 -22.002081 -68.897141 -0.90524614 50.393921 -0.90945512 50.501575 -23.710976 -64.627808
33300000000 -23.310328 -69.328857 -0.89653939 48.121159 -0.91118115 48.459541 -24.843525 -68.199112
33400000000 -24.133472 -66.273247 -0.89785123 46.369301 -0.89237052 46.339211 -21.579659 -62.711014
33500000000 -25.079397 -76.244095 -0.91813731 44.150295 -0.8847484 44.490147 -23.030424 -56.129745
33600000000 -24.634443 -74.528122 -0.91084462 42.305954 -0.88971967 42.442112 -22.913633 -50.147984
33700000000 -24.121315 -80.490532 -0.90076506 40.358768 -0.90069723 40.325935 -24.976282 -45.168304
33800000000 -24.617256 -81.720467 -0.90164238 38.390457 -0.90963542 38.261791 -26.5438 -50.636459
33900000000 -25.241201 -92.80088 -0.94432163 36.190895 -0.94749218 36.290348 -24.731592 -64.147415
34000000000 -26.335632 -72.897194 -0.9338339 34.163189 -0.92638701 34.391197 -25.440643 -45.788239
34100000000 -24.846504 -86.619614 -0.92607588 32.104439 -0.9085772 32.345249 -24.708576 -65.575356
34200000000 -25.808994 -68.271057 -0.95112103 30.487944 -0.86790442 30.381617 -24.557678 -31.590427
34300000000 -26.814934 -81.423126 -0.89180887 28.208782 -0.96137708 28.184605 -26.793146 -59.626644
34400000000 -27.196758 -74.264969 -0.94709843 26.275808 -0.95035833 26.339355 -27.992634 -47.359421
34500000000 -26.245457 -88.647835 -0.97654378 24.40554 -0.97589821 24.244694 -26.113846 -71.027199
34600000000 -27.867527 -81.303032 -0.96008718 22.095308 -0.94605422 22.047394 -25.795479 -55.395306
34700000000 -28.880505 -86.004112 -0.93908888 20.222124 -0.91799498 19.939398 -24.762392 -51.779671
34800000000 -31.763437 -83.635368 -0.92034477 17.908821 -0.89110291 18.164434 -27.60417 -25.249226
34900000000 -33.226189 -83.370911 -0.94983226 16.081951 -0.97398359 16.11482 -29.209936 -7.3664145
35000000000 -36.599613 -87.14048 -0.95646572 14.194054 -0.95505279 14.031059 -36.812538 66.867928
35100000000 -30.962173 -53.843487 -0.98864841 12.002073 -0.91354072 12.28859 -35.841225 -78.795174
35200000000 -32.709217 -37.238552 -0.94552219 9.9539595 -0.93341184 10.174196 -32.594189 -99.096138
35300000000 -32.888176 -48.061462 -0.9504621 8.0288115 -0.98197573 8.069787 -27.20553 -49.291073
35400000000 -44.958782 65.664719 -0.94835645 5.9796443 -0.96751225 6.1728034 -28.230906 -39.440601
35500000000 -34.611851 21.876715 -0.92972857 3.9689586 -0.96333778 4.1303992 -30.456488 -0.48079255
35600000000 -39.156712 142.31453 -0.93419951 2.1318657 -0.9727596 1.7053249 -30.501856 39.353821
35700000000 -41.802876 42.719223 -0.9128657 -0.20501938 -0.95239854 0.13232118 -33.234447 44.988094
35800000000 -39.657944 24.367849 -0.90935969 -1.895226 -0.93096066 -2.2464037 -37.959747 49.444458
35900000000 -30.036646 41.7906 -0.93166989 -4.2237077 -0.93435836 -4.1740427 -47.804451 -178.51779
36000000000 -30.437479 36.102741 -0.94598532 -6.0080767 -0.91545886 -5.9607835 -30.467831 9.6412916
36100000000 -24.760963 47.85461 -0.97466165 -8.3087654 -0.96565992 -8.1624784 -30.706873 44.923153
36200000000 -28.007584 60.75275 -0.97155052 -10.373902 -0.955226 -10.274492 -27.17568 37.764118
36300000000 -25.388899 73.28495 -0.9347561 -12.564553 -0.97075903 -12.842952 -27.460402 61.707733
36400000000 -28.411543 78.615204 -0.91753262 -14.443835 -0.93315285 -14.505676 -31.868248 37.665295
36500000000 -30.510424 43.952721 -0.94378054 -16.702114 -0.98358929 -16.495798 -32.47905 48.719894
36600000000 -25.993265 1.2985091 -0.89520657 -18.574837 -0.91761476 -18.575048 -23.067589 9.6270638
36700000000 -22.22753 31.011555 -0.95959383 -20.609095 -0.96484649 -20.560982 -25.513233 21.36241
36800000000 -20.289177 36.829056 -0.98455524 -22.517246 -1.0088569 -22.409126 -19.757311 34.862118
36900000000 -20.653034 63.475468 -1.0207001 -25.056871 -0.9942348 -24.736725 -22.564384 47.546974
37000000000 -22.177521 52.228874 -1.0454639 -26.726778 -1.0409095 -26.660982 -22.005194 54.752369
37100000000 -31.43902 40.887226 -0.99686104 -29.584599 -0.97584504 -29.411453 -26.514505 36.611088
37200000000 -23.445635 12.079276 -0.95323539 -31.076668 -0.95531535 -31.222349 -24.720875 19.082432
37300000000 -20.227127 16.393246 -0.99401188 -32.853943 -0.94311273 -33.122314 -21.316477 0.68758607
37400000000 -17.8627 25.327393 -0.96063679 -34.80904 -0.94312048 -34.905087 -18.240974 15.85825
37500000000 -19.306145 39.405094 -1.0207669 -36.997444 -0.97399044 -36.843418 -18.077837 23.028179
37600000000 -19.931467 48.13295 -1.010883 -38.752472 -1.013652 -38.533466 -17.345303 35.483932
37700000000 -22.280209 32.348305 -1.0638129 -41.079144 -1.0561881 -40.840652 -19.150135 40.527809
37800000000 -19.812185 16.627323 -1.051795 -43.088402 -1.0320417 -42.747772 -20.816458 32.994396
37900000000 -17.978121 10.515803 -1.0759194 -45.224274 -1.0414623 -45.146648 -22.060171 23.284151
38000000000 -17.255852 20.964052 -0.99923372 -47.366169 -1.0192301 -47.176819 -18.312227 1.5426291
38100000000 -17.733242 25.498707 -1.0277966 -49.219696 -1.0467889 -48.951508 -16.941916 12.166007
38200000000 -17.510994 25.530651 -1.0838816 -50.996567 -1.0434579 -51.389797 -15.281953 11.105977
38300000000 -16.950443 16.413071 -1.0420861 -53.138775 -1.0631806 -52.63699 -15.536353 28.467499
38400000000 -17.301273 5.2561984 -1.0874094 -55.179928 -1.1093619 -54.988495 -16.624056 30.211554
38500000000 -16.785202 4.7689738 -1.1252549 -57.086166 -1.1170729 -57.304436 -18.076036 28.984137
38600000000 -15.553886 15.946302 -1.063301 -59.050526 -1.0535614 -58.855865 -17.171547 6.562212
38700000000 -15.345423 7.9638963 -1.1538509 -61.141026 -1.1275673 -60.975319 -17.279455 0.75339496
38800000000 -15.959747 12.630698 -1.0969529 -63.051765 -1.0988458 -62.553272 -14.24896 5.5211525
38900000000 -15.555857 9.9784775 -1.0767555 -65.125595 -1.0904163 -64.777214 -15.472927 11.756041
39000000000 -15.94872 6.8273354 -1.1754196 -66.742256 -1.1186554 -67.167023 -14.261762 14.761392
39100000000 -15.386318 -0.82975662 -1.1257581 -69.065323 -1.1290159 -69.369331 -18.073404 7.4109492
39200000000 -15.766168 -5.7820516 -1.0913774 -70.825798 -1.2033134 -70.72702 -15.190957 1.832103
39300000000 -13.8394 -5.4596133 -1.1303458 -73.265129 -1.1204714 -73.149078 -15.526081 -12.595654
39400000000 -14.557459 2.1552792 -1.1353084 -74.450539 -1.177915 -74.575432 -13.185997 -2.2991931
39500000000 -13.857943 11.070549 -1.1768025 -77.304382 -1.1602173 -77.118767 -14.064318 -3.0783069
39600000000 -15.783247 -3.0470948 -1.1124406 -78.914413 -1.1747192 -78.862587 -13.198316 9.0423975
39700000000 -17.155342 -7.9327502 -1.148538 -81.170326 -1.1493437 -81.235443 -16.832827 0.92307884
39800000000 -15.792839 -26.090038 -1.1573259 -83.357994 -1.0975848 -83.175034 -15.573422 -5.7680345
39900000000 -13.479818 -8.7655058 -1.1569639 -85.239059 -1.1588815 -84.910629 -15.627558 -26.037315
40000000000 -13.235119 -9.8694954 -1.1252186 -87.446297 -1.126938 -86.82206 -12.576112 -22.18759
40100000000 -14.086598 5.7340431 -1.1849798 -89.438622 -1.1927508 -89.242943 -12.292183 -17.656872
40200000000 -15.311247 -0.61841846 -1.1251187 -91.165298 -1.1898122 -91.138397 -12.56135 -7.6254468
40300000000 -17.812763 -16.568565 -1.127182 -93.488472 -1.1590685 -92.962425 -13.589991 -8.4242697
40400000000 -14.750191 -27.183123 -1.1812289 -94.984489 -1.1980485 -94.884193 -15.623268 -9.8499842
40500000000 -13.250733 -21.745331 -1.2102363 -96.739777 -1.230279 -96.814934 -15.577104 -24.017815
40600000000 -11.996146 -15.017141 -1.1952726 -98.681679 -1.1635982 -98.32283 -14.091817 -30.06147
40700000000 -14.805052 -9.867425 -1.1510619 -101.06374 -1.2190812 -101.11415 -13.105252 -31.468899
40800000000 -14.049713 -13.055597 -1.1889594 -102.32079 -1.1613282 -102.46813 -11.784774 -25.222414
40900000000 -14.917316 -26.433043 -1.174801 -104.79728 -1.1531811 -104.50228 -12.859639 -17.104759
41000000000 -13.301022 -40.660023 -1.1451313 -106.65142 -1.1891272 -106.9242 -12.770986 -19.823383
41100000000 -13.677126 -33.702286 -1.1727442 -108.45615 -1.1838391 -108.49101 -15.463977 -27.037613
41200000000 -12.938873 -23.655807 -1.0991923 -110.58511 -1.1834468 -110.30942 -13.473275 -29.243963
41300000000 -13.90494 -27.807196 -1.2048419 -112.40062 -1.153093 -112.51739 -14.123105 -35.328045
41400000000 -14.187567 -28.730999 -1.1543787 -114.80711 -1.1320212 -114.70833 -12.307046 -32.354252
41500000000 -14.271574 -34.974148 -1.2354913 -116.56377 -1.1601449 -116.18703 -12.640799 -38.643372
41600000000 -12.551351 -34.7537 -1.1182204 -118.80817 -1.1145731 -118.4341 -12.594553 -31.404774
41700000000 -13.364313 -38.997417 -1.1414301 -120.45132 -1.1254263 -120.64027 -13.419781 -39.512703
41800000000 -13.836718 -38.849747 -1.197318 -122.23917 -1.1707964 -122.16907 -13.101915 -34.935089
41900000000 -13.928073 -42.196388 -1.1518873 -124.44203 -1.2371898 -124.61422 -13.801059 -49.841202
42000000000 -12.995399 -40.072063 -1.1772279 -126.27335 -1.1640199 -126.31963 -12.919377 -43.317093
42100000000 -12.322747 -42.626171 -1.1503979 -128.10506 -1.1467363 -128.03401 -12.815304 -52.633945
42200000000 -13.714032 -38.992348 -1.0896651 -130.40395 -1.1260536 -130.069 -12.738747 -40.069469
42300000000 -13.958817 -38.187553 -1.0922928 -132.5876 -1.1177288 -132.20857 -12.922622 -54.199783
42400000000 -16.291283 -47.198948 -1.1452479 -134.76465 -1.1440185 -134.34616 -14.63732 -45.44434
42500000000 -13.229777 -57.4305 -1.0515292 -136.74553 -1.0900097 -136.17751 -14.744742 -57.488132
42600000000 -12.791165 -58.564384 -1.0630738 -138.83029 -1.0263567 -138.088 -14.666071 -51.608955
42700000000 -13.028093 -44.877132 -1.1157357 -140.52016 -1.1095731 -140.42833 -12.773857 -66.552803
42800000000 -14.047161 -41.552895 -1.1418005 -142.28882 -1.0065247 -142.39127 -14.042388 -65.34536
42900000000 -15.999158 -30.372858 -1.2402254 -145.04343 -1.0708891 -144.28706 -13.070621 -57.004158
43000000000 -17.67989 -56.828892 -1.0488645 -147.66893 -1.0768102 -145.52933 -13.488804 -59.737217
43100000000 -16.40745 -75.002029 -1.0414485 -149.27499 -1.017078 -148.98256 -16.058571 -54.621193
43200000000 -13.817019 -70.299477 -1.066771 -151.21689 -1.0154939 -150.54964 -16.129313 -61.069878
43300000000 -13.855088 -56.967384 -1.0670086 -153.03401 -1.1489187 -153.05075 -16.840212 -75.189919
43400000000 -14.482827 -40.148045 -1.0198102 -154.76717 -1.1261086 -154.48335 -15.058122 -74.53952
43500000000 -16.796682 -33.842087 -1.0582492 -156.59077 -1.0499176 -156.43056 -14.496455 -82.504051
43600000000 -20.352591 -42.249023 -1.0698382 -158.45187 -1.0268347 -158.74049 -14.09692 -68.435265
43700000000 -18.717016 -75.588318 -1.1401961 -161.36833 -1.0667863 -160.75018 -15.061201 -63.831711
43800000000 -16.124876 -83.190964 -0.98393732 -163.42027 -1.1004148 -162.88095 -16.756552 -56.954475
43900000000 -16.452066 -66.915756 -1.1274712 -165.04539 -1.0044951 -165.43341 -19.771845 -82.156723
44000000000 -16.053602 -51.712315 -1.0430648 -167.32726 -1.0207037 -167.17719 -18.489027 -82.495239
44100000000 -17.450241 -44.127869 -0.97421557 -169.59483 -0.99045372 -168.64247 -16.662992 -83.741318
44200000000 -19.215954 -25.040352 -0.98824281 -170.73436 -1.0570426 -171.20499 -16.15637 -81.55835
44300000000 -20.28828 -68.66687 -1.0123508 -173.34505 -0.98285598 -173.31036 -17.031908 -73.976151
44400000000 -20.283852 -86.324387 -0.96929324 -175.39459 -1.0527406 -175.44817 -19.711418 -64.496071
44500000000 -18.019026 -84.692902 -1.0866224 -176.73499 -1.0327375 -177.55247 -19.145836 -88.838531
44600000000 -18.450325 -68.564682 -1.007611 -179.5085 -1.0476288 -179.50389 -24.137167 -76.317467
44700000000 -17.461117 -42.351051 -0.97737527 178.66512 -1.1019971 178.72588 -19.516138 -93.421539
44800000000 -23.289618 -56.273418 -0.96119714 176.33275 -0.91532111 176.67825 -19.544132 -63.788311
44900000000 -26.661581 -54.998894 -1.0663574 174.32091 -0.99932754 174.35281 -19.618418 -76.286102
45000000000 -27.53269 -75.292267 -1.028144 172.38103 -1.0391631 172.25473 -24.73987 -24.896969
