!Keysight Technologies,N5247B,MY61255062,A.19.80.06
!Date: Monday, May 18, 2026 12:55:27
!Correction: S11(Cdelta 2-Port  ) 
!S21(Cdelta 2-Port  ) 
!S12(Cdelta 2-Port  ) 
!S22(Cdelta 2-Port  ) 
!S2P File: Measurements: S11, S21, S12, S22:
# Hz S  dB   R 50
1000000000 -26.484509 -11.943089 -0.41333136 -20.745119 -0.4060069 -20.740662 -26.836784 -12.303065
1100000000 -26.410992 -13.767087 -0.42373875 -22.762146 -0.41842148 -22.753883 -26.828716 -13.951012
1200000000 -26.33193 -15.320451 -0.4318774 -24.748579 -0.42696255 -24.740993 -26.810556 -14.597112
1300000000 -26.287434 -16.986061 -0.43812248 -26.796932 -0.43291056 -26.777138 -26.650331 -16.543072
1400000000 -26.178703 -18.530478 -0.44438604 -28.749458 -0.43702683 -28.743259 -26.616379 -17.314449
1500000000 -26.122629 -20.477417 -0.44468227 -30.765085 -0.4369458 -30.75765 -26.432737 -19.082199
1600000000 -26.064453 -22.636694 -0.44899684 -32.785675 -0.44283757 -32.77169 -26.400597 -22.110979
1700000000 -25.956812 -24.673294 -0.45147023 -34.799034 -0.4454107 -34.782654 -26.291534 -23.304468
1800000000 -25.851015 -26.572399 -0.45393813 -36.817852 -0.4480485 -36.796421 -26.147049 -25.414986
1900000000 -25.749578 -28.74003 -0.45821619 -38.835991 -0.4508608 -38.832935 -26.037865 -27.378462
2000000000 -25.755585 -30.582705 -0.46353346 -40.864761 -0.45594624 -40.866375 -25.988127 -29.856762
2100000000 -25.646444 -32.981785 -0.46459895 -42.881104 -0.45870867 -42.867191 -25.98704 -31.350353
2200000000 -25.721733 -35.265823 -0.46815023 -44.902817 -0.46193239 -44.894112 -25.936771 -33.712048
2300000000 -25.662048 -37.15559 -0.47068012 -46.939053 -0.4654077 -46.923286 -25.912643 -35.564205
2400000000 -25.660095 -39.111282 -0.47606614 -48.944332 -0.47166544 -48.93623 -25.878826 -37.167431
2500000000 -25.585941 -40.789955 -0.47851425 -50.978996 -0.47442782 -50.968182 -25.799093 -39.447674
2600000000 -25.644556 -43.049629 -0.48571834 -53.019264 -0.48198608 -52.977764 -25.897963 -41.549351
2700000000 -25.742628 -45.018127 -0.4930307 -55.01791 -0.486518 -54.990021 -25.996233 -44.079182
2800000000 -25.795799 -47.307159 -0.49945909 -57.012787 -0.49354661 -56.998962 -25.964632 -45.956161
2900000000 -25.921335 -48.762741 -0.50491232 -59.004292 -0.49928397 -58.997517 -25.903883 -48.164516
3000000000 -25.864981 -50.221375 -0.50599879 -61.009327 -0.50152349 -60.988194 -26.018141 -49.338432
3100000000 -25.998915 -51.773781 -0.50949645 -63.018127 -0.50244784 -62.994007 -25.981438 -50.547546
3200000000 -25.896938 -53.070473 -0.5127936 -65.026581 -0.50656801 -65.000298 -26.040194 -52.08606
3300000000 -26.004166 -55.90163 -0.5142498 -67.026505 -0.50721121 -67.012718 -26.020912 -54.138794
3400000000 -26.179852 -57.503662 -0.51915479 -69.035904 -0.51315224 -69.025871 -26.109629 -56.561489
3500000000 -26.194487 -59.572311 -0.52534038 -71.034676 -0.51892668 -71.021339 -26.113207 -57.578728
3600000000 -26.173603 -60.852718 -0.52698398 -73.014061 -0.52129221 -73.018013 -26.138346 -59.157005
3700000000 -26.13084 -62.821068 -0.5275048 -75.019257 -0.52374816 -75.010094 -25.968876 -59.983971
3800000000 -26.255049 -63.695824 -0.52705818 -77.017166 -0.52127618 -77.021492 -25.983389 -61.995338
3900000000 -26.195616 -65.150276 -0.52795088 -79.053474 -0.52361208 -79.04454 -26.118296 -63.337357
4000000000 -26.303679 -66.971214 -0.53269988 -81.090668 -0.52612513 -81.076736 -26.254459 -65.182938
4100000000 -26.298807 -67.775772 -0.53948069 -83.100029 -0.53502584 -83.075714 -26.374361 -65.56308
4200000000 -26.417545 -69.368126 -0.54542994 -85.076347 -0.54081917 -85.059921 -26.269367 -67.469009
4300000000 -26.527075 -70.089279 -0.54609799 -87.037003 -0.54311103 -87.05397 -26.383299 -69.438065
4400000000 -26.66469 -70.960915 -0.5486511 -89.046165 -0.54299664 -89.044479 -26.366709 -70.114708
4500000000 -26.78265 -71.848938 -0.54724795 -91.055222 -0.54381919 -91.043457 -26.410048 -71.590546
4600000000 -26.885292 -73.387642 -0.54991752 -93.059669 -0.54641974 -93.047562 -26.415266 -72.285339
4700000000 -27.01367 -75.187408 -0.55162221 -95.074532 -0.54613733 -95.072044 -26.431728 -74.182579
4800000000 -27.159946 -76.136642 -0.55229533 -97.083237 -0.5491308 -97.058914 -26.51222 -74.983078
4900000000 -27.243208 -76.955788 -0.55491388 -99.089935 -0.55095947 -99.079857 -26.495022 -76.674416
5000000000 -27.308212 -77.024353 -0.55868077 -101.08892 -0.55343252 -101.08898 -26.490898 -76.932861
5100000000 -27.289459 -77.216278 -0.5594781 -103.1112 -0.55650192 -103.09061 -26.509554 -77.165413
5200000000 -27.449396 -77.811424 -0.56092793 -105.12198 -0.55652195 -105.1005 -26.729664 -77.793304
5300000000 -27.558359 -78.76915 -0.56374824 -107.12495 -0.55844206 -107.10634 -26.840298 -79.422974
5400000000 -27.824549 -80.581078 -0.56619233 -109.12666 -0.56204969 -109.12048 -27.016481 -81.654076
5500000000 -27.878794 -80.784142 -0.57019633 -111.12836 -0.56471068 -111.11792 -26.855503 -83.377785
5600000000 -27.957937 -81.862274 -0.57298285 -113.15616 -0.5691672 -113.12362 -26.809942 -84.341408
5700000000 -27.986807 -80.767845 -0.57589024 -115.13513 -0.56836838 -115.12127 -26.47998 -83.390953
5800000000 -27.965467 -81.6493 -0.57741857 -117.13381 -0.57246065 -117.12559 -26.682714 -83.393707
5900000000 -28.261471 -81.066193 -0.57811344 -119.12741 -0.5725159 -119.12493 -26.910843 -82.775696
6000000000 -28.254835 -83.039398 -0.57911515 -121.12173 -0.57474297 -121.10218 -27.388103 -85.33567
6100000000 -28.575985 -82.950264 -0.57805729 -123.13014 -0.5743494 -123.11243 -27.537756 -86.856171
6200000000 -28.547874 -82.400673 -0.57688934 -125.12939 -0.5719645 -125.13387 -27.375898 -88.830994
6300000000 -28.876385 -81.56366 -0.57690382 -127.17897 -0.57210541 -127.15958 -27.039848 -87.627022
6400000000 -28.902533 -80.136086 -0.58314711 -129.14186 -0.57819182 -129.1338 -26.849096 -89.743011
6500000000 -29.188536 -81.319122 -0.58165252 -131.19646 -0.5770064 -131.16295 -27.402512 -87.436256
6600000000 -29.186447 -81.500946 -0.58615786 -133.19893 -0.58166081 -133.19893 -27.603685 -87.071152
6700000000 -29.443703 -81.946976 -0.59146488 -135.20624 -0.58396608 -135.18616 -27.78723 -88.48336
6800000000 -28.861456 -79.040741 -0.59317702 -137.2059 -0.5874095 -137.1795 -27.656496 -91.010872
6900000000 -28.594973 -79.324486 -0.59398544 -139.20639 -0.58584565 -139.20564 -27.398163 -90.813789
7000000000 -28.455843 -76.031975 -0.5912928 -141.24332 -0.58739674 -141.22162 -27.013554 -89.945061
7100000000 -28.322187 -76.166519 -0.59842038 -143.25723 -0.59436864 -143.24872 -27.056206 -87.531914
7200000000 -28.39872 -76.57103 -0.60871232 -145.2314 -0.6050669 -145.19745 -26.993109 -88.269264
7300000000 -28.679502 -77.552086 -0.59841537 -147.15759 -0.5949071 -147.12462 -27.683084 -90.923233
7400000000 -28.678431 -75.479378 -0.592502 -149.21687 -0.5874871 -149.2054 -27.52511 -92.23439
7500000000 -28.240973 -74.80024 -0.59884852 -151.26552 -0.59260046 -151.24306 -27.202307 -92.980476
7600000000 -28.009645 -73.953354 -0.60293752 -153.26387 -0.59910262 -153.24223 -26.814915 -92.676857
7700000000 -27.826738 -74.042206 -0.60327095 -155.26828 -0.5950107 -155.26646 -26.720861 -89.742554
7800000000 -27.740234 -74.809113 -0.60191274 -157.29031 -0.59838384 -157.25943 -27.020638 -88.582367
7900000000 -27.774694 -76.140167 -0.6042276 -159.30811 -0.59968799 -159.2939 -27.499996 -89.434563
8000000000 -27.778225 -75.512184 -0.60651386 -161.33301 -0.60085016 -161.30367 -27.469988 -93.736
8100000000 -27.568422 -74.889847 -0.60863489 -163.35078 -0.60433054 -163.31924 -27.077936 -96.186996
8200000000 -27.331484 -74.070107 -0.60816652 -165.35892 -0.60497975 -165.33513 -26.329018 -96.025688
8300000000 -27.09201 -75.589272 -0.60982895 -167.37593 -0.60384232 -167.35059 -26.218363 -93.017685
8400000000 -27.265284 -76.832504 -0.61097121 -169.41397 -0.60637158 -169.39554 -26.814285 -90.877182
8500000000 -27.416496 -77.141388 -0.6156165 -171.52924 -0.60841006 -171.50829 -28.175451 -96.499657
8600000000 -27.352804 -74.232498 -0.65911877 -173.72363 -0.65590316 -173.68156 -28.525043 -120.77775
8700000000 -27.835035 -80.509361 -0.73661244 -175.00641 -0.73410982 -174.9446 -29.081142 -167.9446
8800000000 -27.329773 -73.228081 -0.60931605 -176.85487 -0.60113525 -176.80351 -31.719631 -157.64996
8900000000 -26.572748 -77.05571 -0.60115904 -179.22977 -0.60208017 -179.17644 -28.131664 -128.5937
9000000000 -26.488554 -79.387276 -0.61893648 178.66199 -0.61434215 178.70654 -25.59094 -117.84963
9100000000 -26.254267 -77.959503 -0.62667298 176.63109 -0.62425202 176.6515 -24.860992 -107.83497
9200000000 -26.112728 -79.81414 -0.63261181 174.62416 -0.62795454 174.65141 -24.872723 -100.08945
9300000000 -26.150539 -79.500839 -0.64120823 172.62833 -0.63567537 172.63304 -26.084276 -95.676765
9400000000 -26.077419 -81.678635 -0.6430425 170.6423 -0.63821757 170.66866 -26.639963 -97.351456
9500000000 -26.07132 -82.065292 -0.64229578 168.62979 -0.63959789 168.65697 -27.276754 -104.05344
9600000000 -25.72294 -82.573151 -0.64403951 166.61708 -0.64145553 166.64822 -26.557941 -108.99149
9700000000 -25.61956 -82.933586 -0.64660221 164.60254 -0.64402896 164.63077 -26.096172 -110.49412
9800000000 -25.432224 -83.072212 -0.65230066 162.58493 -0.64487934 162.61792 -25.781397 -107.71724
9900000000 -25.657301 -84.984489 -0.65247452 160.59111 -0.64798015 160.61029 -26.143957 -105.55994
10000000000 -25.607237 -84.887444 -0.65688801 158.55859 -0.6506961 158.59793 -26.500923 -105.21323
10100000000 -25.531778 -86.054054 -0.65919167 156.5498 -0.65493625 156.59808 -27.162382 -110.14831
10200000000 -25.345322 -85.243042 -0.66441798 154.53586 -0.6585024 154.57938 -27.013409 -114.61418
10300000000 -25.166378 -86.59655 -0.66732687 152.52731 -0.66339791 152.55222 -26.49803 -117.99478
10400000000 -25.156307 -87.461761 -0.67317742 150.52367 -0.66725564 150.54579 -25.930794 -116.07227
10500000000 -25.107363 -90.223648 -0.67686749 148.52534 -0.67262673 148.55598 -25.830902 -114.1162
10600000000 -25.183485 -90.548485 -0.67726833 146.51591 -0.67326993 146.56421 -26.079784 -110.6123
10700000000 -25.033266 -90.388031 -0.68144035 144.54929 -0.67898893 144.58447 -26.728899 -111.23351
10800000000 -25.065424 -90.605698 -0.68373889 142.56934 -0.68067271 142.59843 -27.338278 -112.11966
10900000000 -24.948147 -89.878288 -0.6871177 140.56357 -0.68478012 140.59229 -27.718029 -118.47142
11000000000 -24.935579 -91.906311 -0.69170076 138.57117 -0.68658918 138.60959 -27.495102 -120.79467
11100000000 -24.938387 -93.778122 -0.6944682 136.59445 -0.68825406 136.61438 -27.132307 -122.9463
11200000000 -24.893147 -95.896851 -0.69552267 134.59872 -0.6906867 134.61652 -26.895277 -121.40096
11300000000 -24.880228 -95.489273 -0.70014739 132.59229 -0.6931231 132.63663 -26.907753 -122.48621
11400000000 -24.742214 -95.811234 -0.70109886 130.60614 -0.69799763 130.64935 -26.979851 -119.98927
11500000000 -24.750059 -96.2108 -0.70248753 128.62473 -0.69906843 128.66045 -27.216129 -120.13931
11600000000 -24.712811 -97.760391 -0.70335609 126.63895 -0.70029402 126.67049 -27.597778 -120.76633
11700000000 -24.774029 -98.824196 -0.70706123 124.64543 -0.70132524 124.69516 -27.90646 -123.24352
11800000000 -24.841812 -100.63165 -0.70523447 122.66591 -0.70310289 122.68375 -28.154984 -123.66406
11900000000 -24.798855 -101.44244 -0.70893723 120.65962 -0.70406562 120.70111 -28.171957 -127.22923
12000000000 -24.863146 -102.53184 -0.70958185 118.68395 -0.70868886 118.70411 -28.318279 -127.45596
12100000000 -24.808218 -102.81314 -0.71308702 116.69932 -0.71095616 116.74078 -28.105263 -130.02016
12200000000 -24.684513 -104.64791 -0.71588826 114.73058 -0.71107078 114.74554 -27.961805 -129.77638
12300000000 -24.809622 -104.82088 -0.71785361 112.7453 -0.71198076 112.77612 -28.074268 -129.43793
12400000000 -24.848883 -106.21549 -0.71822011 110.78188 -0.71060187 110.80653 -28.355412 -129.05362
12500000000 -25.291603 -106.31369 -0.71594018 108.78954 -0.70874923 108.82208 -28.899393 -130.55312
12600000000 -25.184805 -108.32706 -0.71433914 106.82372 -0.7082147 106.85477 -29.074276 -130.28813
12700000000 -25.425438 -109.28269 -0.70889151 104.80978 -0.70430189 104.8615 -29.257853 -133.96832
12800000000 -25.196352 -111.17556 -0.70476192 102.81934 -0.69990867 102.85934 -29.542044 -133.64865
12900000000 -25.383396 -111.38087 -0.70033598 100.81032 -0.69735169 100.84653 -29.651722 -137.90431
13000000000 -25.36047 -110.69913 -0.69961643 98.831146 -0.69462585 98.835274 -30.004086 -135.94786
13100000000 -25.82892 -112.63967 -0.69669861 96.811188 -0.6932525 96.824722 -30.134638 -136.9733
13200000000 -25.994743 -111.3122 -0.69550925 94.796791 -0.69217885 94.805428 -30.732475 -134.53403
13300000000 -26.174213 -114.42564 -0.69637191 92.764015 -0.68880492 92.786034 -30.828859 -132.76694
13400000000 -26.250412 -110.88117 -0.69386715 90.747299 -0.68792468 90.78022 -31.81764 -131.19327
13500000000 -26.490801 -113.62034 -0.69405454 88.724373 -0.68706948 88.774269 -32.5434 -130.86577
13600000000 -26.804537 -111.63531 -0.69197124 86.702713 -0.68883526 86.755051 -33.605179 -127.55503
13700000000 -26.813457 -112.92284 -0.6922344 84.670723 -0.6903125 84.716118 -33.731754 -129.75716
13800000000 -27.199684 -111.5578 -0.69618231 82.644424 -0.68968594 82.700615 -34.513901 -125.98404
13900000000 -26.859484 -111.62405 -0.69760674 80.584633 -0.69464654 80.650314 -33.98621 -123.96831
14000000000 -27.535383 -107.44263 -0.69835788 78.569672 -0.69715899 78.613045 -35.113754 -114.88948
14100000000 -27.473829 -108.72501 -0.70945507 76.527603 -0.70669359 76.57695 -34.353397 -110.91645
14200000000 -27.724728 -107.62782 -0.72250319 74.525864 -0.72081929 74.575996 -34.462143 -101.46559
14300000000 -27.140581 -111.00411 -0.73718941 72.625366 -0.73508072 72.660385 -33.450951 -107.57729
14400000000 -27.746313 -113.47748 -0.72937125 70.726418 -0.72490799 70.769821 -34.290806 -104.61455
14500000000 -27.60957 -111.47943 -0.72355253 68.74131 -0.71867669 68.774887 -34.480873 -102.86224
14600000000 -28.461758 -108.47151 -0.71538341 66.713364 -0.71148974 66.75753 -36.029598 -91.667976
14700000000 -28.356283 -107.07144 -0.71751952 64.711395 -0.71264744 64.739845 -35.850651 -88.579353
14800000000 -28.846962 -108.6364 -0.71212649 62.713528 -0.70845515 62.731007 -37.411995 -83.009178
14900000000 -28.567614 -106.05004 -0.70874584 60.685547 -0.70645934 60.709175 -37.065266 -91.114937
15000000000 -28.845819 -105.90022 -0.71223968 58.643417 -0.70876962 58.684254 -34.968651 -89.857674
15100000000 -28.545885 -100.55701 -0.72068763 56.617599 -0.71434247 56.650394 -33.140755 -89.042213
15200000000 -28.831482 -102.3597 -0.72352469 54.626701 -0.7189678 54.673317 -31.861769 -81.977142
15300000000 -28.470493 -97.903816 -0.72170013 52.621765 -0.71593684 52.665173 -31.949581 -71.689568
15400000000 -28.417505 -103.03987 -0.72119403 50.623081 -0.71289694 50.665756 -32.657814 -63.516464
15500000000 -28.099117 -97.882408 -0.72061396 48.569382 -0.7154265 48.627487 -33.127998 -61.980087
15600000000 -28.070267 -102.0421 -0.72395432 46.553722 -0.72164696 46.592915 -33.684875 -67.417168
15700000000 -28.247484 -93.486816 -0.72700715 44.570148 -0.72008228 44.581898 -32.300301 -77.723427
15800000000 -28.387356 -94.252174 -0.72637373 42.548351 -0.72554088 42.60078 -30.647875 -79.715218
15900000000 -28.571873 -88.701218 -0.72957242 40.554554 -0.72416323 40.594765 -29.414301 -77.493431
16000000000 -28.147606 -95.370056 -0.73067981 38.545372 -0.72810686 38.585052 -29.044493 -71.542389
16100000000 -28.213078 -92.272606 -0.73292184 36.547745 -0.72834468 36.621559 -28.627047 -68.510674
16200000000 -27.380211 -94.799255 -0.73664987 34.537788 -0.73119903 34.573242 -29.099619 -64.277756
16300000000 -27.692774 -89.990219 -0.73781735 32.553299 -0.73662776 32.595272 -28.517694 -70.088066
16400000000 -26.89809 -87.824066 -0.74212044 30.533457 -0.74133521 30.56938 -28.806692 -70.237137
16500000000 -27.609999 -83.338562 -0.74209124 28.529474 -0.74172825 28.57353 -27.969046 -76.944237
16600000000 -27.29031 -82.544212 -0.74577117 26.526224 -0.74326575 26.591852 -27.678442 -73.595367
16700000000 -27.942553 -85.189682 -0.74950808 24.550076 -0.74946624 24.5567 -26.933224 -76.195869
16800000000 -27.11784 -87.762825 -0.75078982 22.54542 -0.7477842 22.576191 -27.192699 -72.260292
16900000000 -26.966866 -90.631035 -0.75592983 20.552702 -0.75075293 20.57395 -26.557768 -74.447121
17000000000 -25.906345 -84.221397 -0.75569999 18.566971 -0.75410974 18.591829 -27.021044 -76.15741
17100000000 -25.994682 -81.941269 -0.75832975 16.570686 -0.75650162 16.590639 -26.322947 -78.698318
17200000000 -26.219519 -75.891914 -0.7660616 14.511031 -0.75869352 14.584486 -26.551529 -82.629303
17300000000 -26.776567 -81.070839 -0.76074153 12.529016 -0.76090437 12.589293 -25.742815 -81.503181
17400000000 -27.12015 -85.827881 -0.76449752 10.568243 -0.76357216 10.606503 -26.028706 -80.322517
17500000000 -26.258579 -93.363411 -0.7685135 8.5686197 -0.76632994 8.609251 -25.766861 -78.126389
17600000000 -25.584074 -88.899864 -0.76923007 6.5892558 -0.76241285 6.6100554 -26.427855 -82.79464
17700000000 -24.93609 -86.605232 -0.77500641 4.5785804 -0.7721414 4.621192 -26.465412 -85.69735
17800000000 -25.398787 -79.229347 -0.77024037 2.5909939 -0.76928073 2.6086063 -26.231987 -93.597031
17900000000 -25.909576 -81.440399 -0.77811205 0.61023462 -0.7739526 0.6161719 -25.456217 -94.88459
18000000000 -26.580595 -87.28434 -0.77835143 -1.397333 -0.77306765 -1.3930551 -24.642647 -93.591537
18100000000 -25.578794 -94.972198 -0.77549225 -3.4102306 -0.77409893 -3.3828146 -24.342344 -88.037392
18200000000 -25.077116 -95.471588 -0.77896273 -5.3754807 -0.76832378 -5.3674536 -24.832203 -85.815094
18300000000 -24.308605 -91.604118 -0.77590662 -7.3592052 -0.77124256 -7.3344374 -25.841272 -86.941032
18400000000 -24.908224 -87.96125 -0.77836657 -9.3750277 -0.77342921 -9.3433933 -26.740309 -95.673683
18500000000 -24.945028 -86.129059 -0.78034276 -11.420646 -0.77185756 -11.355906 -26.090572 -106.78281
18600000000 -25.297348 -88.722656 -0.78276026 -13.412609 -0.77319229 -13.376248 -24.67034 -109.36887
18700000000 -24.576868 -92.400688 -0.77724355 -15.405594 -0.77376419 -15.369184 -23.586081 -105.26196
18800000000 -24.431763 -95.748802 -0.77441388 -17.399975 -0.77193946 -17.360508 -23.23921 -97.619064
18900000000 -23.977407 -93.155968 -0.77139157 -19.380535 -0.77202421 -19.328892 -23.824673 -92.737267
19000000000 -24.003649 -94.483315 -0.77106571 -21.334286 -0.77174652 -21.293375 -25.499008 -92.911705
19100000000 -24.230059 -90.16127 -0.77732468 -23.304935 -0.77250415 -23.275732 -25.989311 -101.54857
19200000000 -24.087282 -91.720894 -0.77981514 -25.331469 -0.77433157 -25.25732 -26.31823 -115.64175
19300000000 -24.195776 -91.379478 -0.77584904 -27.337683 -0.77162689 -27.274666 -24.354584 -115.97246
19400000000 -24.169912 -95.563095 -0.77434027 -29.314848 -0.77186495 -29.283541 -24.306141 -115.1846
19500000000 -24.681734 -97.616302 -0.77416146 -31.290739 -0.76922756 -31.282946 -23.817175 -109.16518
19600000000 -23.980171 -99.793739 -0.77256286 -33.30188 -0.76677746 -33.289658 -24.903526 -107.73902
19700000000 -23.934912 -98.756546 -0.77078193 -35.291565 -0.76464599 -35.287533 -25.560034 -108.34022
19800000000 -23.535385 -95.270966 -0.76795119 -37.304863 -0.76456666 -37.276939 -26.258499 -119.93191
19900000000 -24.178242 -92.81971 -0.76594919 -39.297222 -0.75875729 -39.264721 -26.119749 -120.93059
20000000000 -24.98266 -94.430641 -0.76694918 -41.331017 -0.76170111 -41.320934 -25.597252 -125.19032
20100000000 -25.952364 -99.736191 -0.76751071 -43.336281 -0.75996655 -43.308678 -25.713852 -118.29372
20200000000 -25.230698 -104.66634 -0.76588064 -45.333504 -0.76083559 -45.300568 -26.155478 -119.12747
20300000000 -24.427299 -106.98195 -0.76557344 -47.360981 -0.75709355 -47.346813 -27.37755 -120.12516
20400000000 -23.983824 -100.3235 -0.76176649 -49.388359 -0.7569136 -49.351974 -27.355982 -131.46715
20500000000 -24.202517 -95.509026 -0.76210034 -51.448318 -0.75826162 -51.391869 -27.212114 -135.4977
20600000000 -25.044228 -93.647438 -0.76341414 -53.466679 -0.76024717 -53.462643 -26.201399 -133.89224
20700000000 -25.906523 -101.40743 -0.76176685 -55.492081 -0.7590906 -55.480865 -26.532669 -126.35468
20800000000 -26.132895 -105.23239 -0.7726835 -57.57349 -0.76017469 -57.532856 -26.47238 -119.62193
20900000000 -25.057261 -107.72491 -0.77278864 -59.587124 -0.76591587 -59.543297 -28.493454 -113.73094
21000000000 -24.312328 -102.89628 -0.78406084 -61.562416 -0.77879024 -61.552921 -29.912146 -122.95429
21100000000 -23.58532 -97.214569 -0.79363543 -63.519135 -0.79062456 -63.491302 -30.40144 -130.29379
21200000000 -24.023598 -96.897514 -0.80785275 -65.500107 -0.80317634 -65.491241 -28.898504 -142.99446
21300000000 -24.250147 -101.70912 -0.80373478 -67.456116 -0.80184919 -67.418465 -26.942787 -139.07138
21400000000 -25.176989 -108.3894 -0.79743212 -69.425903 -0.79915965 -69.386864 -26.875856 -133.20747
21500000000 -24.300627 -112.67965 -0.78331113 -71.511269 -0.78009182 -71.440704 -26.316927 -126.82143
21600000000 -24.436842 -111.54807 -0.78687167 -73.450424 -0.78321689 -73.406868 -28.574783 -118.59354
21700000000 -23.697348 -106.80867 -0.78164107 -75.371269 -0.7733624 -75.350365 -31.054272 -113.67418
21800000000 -24.134266 -101.98093 -0.77187639 -77.380875 -0.76508003 -77.330635 -34.466576 -139.14983
21900000000 -24.53694 -99.357803 -0.77031237 -79.373627 -0.76700413 -79.322121 -35.193027 -152.51215
22000000000 -25.940311 -102.3214 -0.77766711 -81.425858 -0.77263802 -81.377701 -30.917866 -165.03101
22100000000 -25.959883 -105.82864 -0.7796126 -83.469208 -0.77295011 -83.44912 -30.167641 -143.49442
22200000000 -25.804363 -112.31939 -0.78555012 -85.562813 -0.78269547 -85.519524 -30.116142 -139.30171
22300000000 -24.950212 -108.76582 -0.78627849 -87.656471 -0.78251696 -87.627335 -31.721163 -103.48043
22400000000 -24.426744 -102.68573 -0.79557717 -89.538719 -0.79232329 -89.520576 -34.787422 -99.217163
22500000000 -24.471581 -94.730835 -0.78063524 -91.527016 -0.77352446 -91.526138 -40.930412 -62.602276
22600000000 -25.809656 -93.088341 -0.78089732 -93.535477 -0.77115971 -93.479271 -42.240543 -152.42999
22700000000 -27.393784 -94.7696 -0.78762418 -95.562325 -0.78318185 -95.521988 -41.641502 -133.19554
22800000000 -26.967209 -108.23294 -0.80763322 -97.602524 -0.80156898 -97.580231 -33.350395 -132.19234
22900000000 -25.546892 -111.24313 -0.81244832 -99.559975 -0.80735546 -99.528488 -34.040398 -98.514656
23000000000 -23.900154 -106.36757 -0.81026375 -101.45204 -0.80278236 -101.4975 -33.932053 -93.542664
23100000000 -24.02405 -97.139519 -0.79416436 -103.53143 -0.78778833 -103.49902 -36.00124 -36.439289
23200000000 -24.802662 -89.822365 -0.79660887 -105.51884 -0.78876042 -105.50829 -42.938473 -45.919716
23300000000 -27.57106 -88.927544 -0.79157186 -107.62165 -0.78779733 -107.56702 -65.990593 37.488651
23400000000 -28.346889 -103.16576 -0.79344708 -109.59946 -0.78884673 -109.57023 -36.137604 -127.29243
23500000000 -27.296366 -119.34418 -0.79755372 -111.66383 -0.78714347 -111.62749 -34.200703 -108.9436
23600000000 -25.32645 -113.5153 -0.79770273 -113.64697 -0.79215026 -113.59849 -30.044489 -79.092979
23700000000 -24.16256 -104.66956 -0.79898691 -115.61775 -0.79026437 -115.5734 -30.576189 -44.240322
23800000000 -23.825089 -97.540848 -0.8078711 -117.62692 -0.80446655 -117.60862 -31.845062 -27.578922
23900000000 -25.634481 -96.33606 -0.8127954 -119.7048 -0.80313087 -119.63499 -34.877766 2.7472835
24000000000 -27.381212 -97.270515 -0.8093704 -121.72927 -0.80007672 -121.70499 -48.126698 -139.73102
24100000000 -27.785456 -113.92072 -0.80533832 -123.76083 -0.80026591 -123.72102 -35.073513 -120.2216
24200000000 -26.755411 -117.87167 -0.80441141 -125.75135 -0.79460514 -125.73775 -30.563148 -96.340988
24300000000 -24.758671 -114.31728 -0.79637039 -127.72575 -0.79288125 -127.67405 -27.823618 -74.23484
24400000000 -24.133137 -104.32957 -0.79882514 -129.65759 -0.79213721 -129.6375 -27.622202 -50.382488
24500000000 -24.330296 -101.75282 -0.80721641 -131.64737 -0.80390799 -131.59518 -28.818623 -32.772324
24600000000 -26.302485 -98.984909 -0.81989825 -133.65193 -0.81211215 -133.58276 -32.30402 -15.740818
24700000000 -27.167009 -107.85798 -0.81616962 -135.68445 -0.81176144 -135.66008 -38.275757 -37.621906
24800000000 -27.780485 -120.56154 -0.81999516 -137.75586 -0.82207417 -137.77521 -36.318222 -99.14138
24900000000 -25.793856 -119.44482 -0.81169558 -139.76482 -0.80851716 -139.72231 -30.79431 -84.217255
25000000000 -25.224127 -114.15378 -0.80670959 -141.78064 -0.807078 -141.73106 -27.815748 -76.924156
25100000000 -24.365688 -104.89713 -0.80599368 -143.66138 -0.80303931 -143.66687 -27.136091 -53.112316
25200000000 -25.966131 -103.39537 -0.8109358 -145.64258 -0.80598527 -145.5721 -28.152098 -49.930538
25300000000 -26.821007 -98.550095 -0.81839657 -147.57222 -0.81779903 -147.55275 -30.543684 -34.220196
25400000000 -28.819845 -115.51135 -0.82326865 -149.62901 -0.81303167 -149.61472 -31.88467 -62.785858
25500000000 -28.147589 -115.20654 -0.81912667 -151.62639 -0.81575578 -151.56844 -32.342297 -51.090309
25600000000 -26.017599 -119.43002 -0.82092446 -153.72298 -0.81905919 -153.67111 -30.118366 -76.813042
25700000000 -26.042925 -113.75464 -0.81718093 -155.70966 -0.81233251 -155.64616 -28.480398 -59.423908
25800000000 -26.347271 -111.31644 -0.8204307 -157.67639 -0.81274015 -157.63202 -28.916256 -65.901749
25900000000 -27.552162 -102.04185 -0.81064564 -159.7081 -0.80678719 -159.65973 -28.212645 -54.972263
26000000000 -27.680487 -105.41862 -0.81505084 -161.65701 -0.81147403 -161.614 -29.421484 -53.445236
26100000000 -28.771235 -108.8339 -0.8255533 -163.71634 -0.81245172 -163.63246 -29.435787 -53.066734
26200000000 -29.038223 -110.72842 -0.82119715 -165.69817 -0.81819993 -165.67714 -29.553631 -51.299267
26300000000 -28.873749 -114.86481 -0.82942724 -167.71436 -0.82032907 -167.65417 -30.849499 -65.976578
26400000000 -28.177212 -116.51616 -0.83670676 -169.8002 -0.82703936 -169.68936 -28.803114 -57.696533
26500000000 -28.782379 -118.21152 -0.82766819 -171.69905 -0.8245191 -171.67616 -29.966908 -65.168388
26600000000 -29.025227 -106.18026 -0.82367259 -173.83902 -0.8246581 -173.67342 -28.176197 -57.230335
26700000000 -30.541798 -101.39616 -0.82021749 -175.78152 -0.83018494 -175.6355 -28.952803 -53.348434
26800000000 -31.119257 -105.70538 -0.8265577 -177.75604 -0.82461768 -177.69554 -29.875935 -45.065926
26900000000 -31.940636 -120.58396 -0.84489393 -179.67148 -0.82240856 -179.75217 -30.528933 -56.932648
27000000000 -31.280785 -114.45467 -0.83409995 178.25801 -0.80874825 178.2643 -34.129562 -40.047657
27100000000 -30.247559 -118.72041 -0.8435722 176.20926 -0.82501268 176.25415 -30.362589 -72.250061
27200000000 -33.616535 -112.76072 -0.82094479 174.23543 -0.84376174 174.28026 -30.208105 -65.330948
27300000000 -32.611679 -112.48224 -0.84897715 172.24051 -0.82013744 172.36951 -28.3766 -55.494957
27400000000 -34.675064 -99.941109 -0.83919764 170.14796 -0.85412598 170.16422 -29.801407 -39.915604
27500000000 -33.960255 -113.00641 -0.86505359 168.06779 -0.83038145 168.28464 -29.453691 -32.013474
27600000000 -35.104412 -116.86791 -0.84897304 166.11143 -0.83567238 166.1774 -35.64056 -33.162617
27700000000 -34.464924 -98.285538 -0.83755296 164.01604 -0.83908898 164.27823 -32.770294 -54.843006
27800000000 -36.979973 -69.936249 -0.86075836 162.0815 -0.82889712 162.24385 -31.601097 -73.971672
27900000000 -35.69397 -89.700409 -0.843288 160.16734 -0.86175799 160.28535 -26.985739 -56.170799
28000000000 -40.234272 -71.846832 -0.85365236 158.18042 -0.86122608 158.36765 -28.94264 -49.120461
28100000000 -34.367748 -88.675926 -0.86241996 156.30798 -0.88422227 156.35405 -27.699694 -36.156876
28200000000 -35.858921 -79.3592 -0.87647378 154.17892 -0.87578171 154.15651 -31.169451 -32.213097
28300000000 -31.16544 -64.878342 -0.86541724 152.03348 -0.86264604 152.20483 -31.543739 -52.703392
28400000000 -32.484348 -72.032776 -0.86717677 150.2769 -0.86020041 150.11028 -31.037151 -69.5476
28500000000 -32.069271 -52.424309 -0.86572248 148.27806 -0.85467714 148.19203 -27.04472 -50.550529
28600000000 -32.073547 -57.56398 -0.83825403 146.24619 -0.84968692 146.21605 -26.509548 -49.568184
28700000000 -32.601105 -40.593773 -0.82076621 144.45441 -0.84350711 144.34518 -26.182808 -25.192846
28800000000 -36.001038 -45.268314 -0.85733855 142.16963 -0.87719566 142.16437 -30.463833 -17.54669
28900000000 -31.317772 -26.387951 -0.86335212 140.28319 -0.84211981 140.19751 -31.709173 -40.937302
29000000000 -31.638819 -63.406326 -0.85744548 137.87846 -0.85159785 138.00055 -31.191425 -63.515472
29100000000 -31.229422 -42.268448 -0.85983628 135.85002 -0.84199882 135.78825 -25.541697 -62.035625
29200000000 -30.020283 -38.040703 -0.85452211 133.91913 -0.84954751 133.8627 -25.306326 -40.837513
29300000000 -27.460474 -10.476068 -0.87081653 131.9501 -0.84396482 132.03162 -23.226143 -24.857319
29400000000 -27.122122 -24.843346 -0.86154175 130.07298 -0.84894693 130.18332 -25.021282 0.972848
29500000000 -29.406012 -9.395627 -0.86545074 128.10986 -0.86663187 128.41116 -26.536947 -5.449471
29600000000 -31.574854 -25.472069 -0.8782267 126.05539 -0.87005645 126.0406 -32.341152 -6.5630951
29700000000 -31.783123 -18.562529 -0.86193568 124.03633 -0.87272066 124.01703 -27.897533 -38.102924
29800000000 -27.357672 -34.322147 -0.87797064 121.94572 -0.87273556 122.07155 -27.542025 -45.298988
29900000000 -27.677839 -25.830061 -0.85988766 119.97684 -0.8431403 119.95193 -22.027084 -33.122952
30000000000 -24.586954 -10.929862 -0.85525835 117.81291 -0.88771349 117.86744 -23.368437 -18.214914
30100000000 -25.116573 -6.6440411 -0.87635279 115.85052 -0.87989092 115.95436 -21.998228 -11.146671
30200000000 -24.631182 -7.9402547 -0.87124902 113.95084 -0.87951148 113.94989 -26.19437 -0.11273047
30300000000 -28.116997 -25.994959 -0.87974352 111.90588 -0.90834743 111.91209 -24.820709 -13.22173
30400000000 -26.498194 -25.389509 -0.88591069 109.94885 -0.88567895 109.97815 -28.409702 -37.873726
30500000000 -24.802814 -38.664192 -0.87172359 107.93947 -0.89984655 107.94803 -23.082449 -32.085556
30600000000 -23.684692 -31.180801 -0.88516128 105.63432 -0.87479943 105.88371 -23.631966 -39.190128
30700000000 -23.562763 -33.041718 -0.9011935 103.97952 -0.8992393 103.92581 -21.714531 -25.218086
30800000000 -23.51549 -21.354815 -0.91559339 102.07845 -0.93891698 102.2502 -24.030525 -22.109823
30900000000 -24.073393 -27.485205 -0.89284396 100.1656 -0.91503763 100.03188 -22.38805 -19.326818
31000000000 -24.066599 -20.917967 -0.92894202 98.044952 -0.90824312 98.108208 -24.177179 -28.12569
31100000000 -25.190907 -50.848896 -0.91482288 95.656876 -0.90549195 95.76886 -23.900982 -37.514374
31200000000 -23.502216 -49.500198 -0.90896201 93.780197 -0.90264028 93.996864 -21.435987 -40.232025
31300000000 -21.434517 -47.64735 -0.88387263 91.787292 -0.90709269 91.966354 -21.973835 -34.722836
31400000000 -20.784908 -35.190495 -0.903889 89.952477 -0.89528483 90.039581 -20.971836 -29.501797
31500000000 -21.071676 -29.674437 -0.91729921 88.070908 -0.92627293 88.111526 -21.497988 -19.698359
31600000000 -23.56448 -22.163578 -0.9009304 86.070145 -0.92299938 86.107475 -22.981064 -27.387161
31700000000 -24.74802 -37.186611 -0.95351106 84.097473 -0.93519431 84.113708 -22.425049 -30.868029
31800000000 -22.645012 -45.852688 -0.9198153 81.856224 -0.94154757 81.866898 -22.259111 -42.753155
31900000000 -19.513674 -54.05505 -0.91480815 79.808746 -0.88555866 80.014214 -20.446951 -43.04961
32000000000 -19.838999 -45.65424 -0.90605545 78.015404 -0.93405503 77.920158 -20.050978 -41.760532
32100000000 -19.530853 -31.411098 -0.92121488 76.022667 -0.88463318 75.994896 -19.051743 -33.669098
32200000000 -22.407171 -26.48061 -0.90042233 74.051025 -0.90903002 74.008179 -20.436043 -30.858757
32300000000 -22.703268 -34.122795 -0.92812783 72.127426 -0.92289853 72.130005 -20.406439 -32.329056
32400000000 -22.171177 -58.800144 -0.9181453 69.953506 -0.91523862 69.944931 -23.551533 -35.588242
32500000000 -20.435328 -55.394501 -0.92246217 67.887283 -0.92903376 68.04689 -21.586239 -51.36282
32600000000 -19.891218 -55.193707 -0.92328084 65.96537 -0.91102439 66.052773 -20.82687 -57.633507
32700000000 -20.139519 -33.162651 -0.9238469 63.57275 -0.91920555 63.778744 -19.093204 -56.167397
32800000000 -20.439714 -43.138012 -0.91232306 62.056068 -0.93974227 62.006638 -18.128365 -51.231651
32900000000 -22.50503 -42.611668 -0.92822784 59.581135 -0.91806185 60.11367 -19.155685 -41.549973
33000000000 -21.907267 -62.048313 -0.92809415 57.941425 -0.907933 58.033905 -20.688662 -40.505165
33100000000 -21.276812 -62.998611 -0.9305771 55.814808 -0.92292351 55.977539 -23.171364 -43.123283
33200000000 -19.786629 -61.070484 -0.90467066 53.895561 -0.90393585 54.189156 -20.598639 -64.418701
33300000000 -21.181967 -58.952408 -0.91097969 51.831707 -0.91633594 51.846935 -21.360495 -64.866158
33400000000 -21.414183 -56.41534 -0.88959134 49.677174 -0.88917577 49.831341 -18.853895 -63.969311
33500000000 -21.78355 -61.91798 -0.90527034 47.781376 -0.90088832 47.898518 -19.88615 -56.177273
33600000000 -21.151537 -60.738228 -0.905007 45.624165 -0.9167071 45.808128 -19.755363 -55.349632
33700000000 -20.855032 -68.778297 -0.91040182 43.889641 -0.92075664 43.845337 -21.05587 -51.961956
33800000000 -21.186296 -66.438972 -0.95825154 41.685837 -0.93630278 41.816284 -21.572256 -56.29874
33900000000 -21.781668 -76.460785 -0.95535409 39.662701 -0.93051648 39.745979 -20.552345 -64.783195
34000000000 -21.242382 -65.829926 -0.94301689 37.828384 -0.91648811 37.790234 -20.745386 -55.397385
34100000000 -20.37162 -71.611649 -0.91792303 35.710964 -0.92286462 35.833923 -20.306927 -65.622917
34200000000 -20.429417 -61.868202 -0.93787277 33.953892 -0.92552197 34.056808 -20.45249 -45.09214
34300000000 -21.353678 -67.843002 -0.98953193 31.792677 -0.94368625 31.887424 -21.134335 -65.791191
34400000000 -21.705452 -66.100075 -0.95028007 29.948355 -0.96232903 29.869614 -22.251793 -60.33839
34500000000 -20.73657 -78.130791 -0.98188293 27.695354 -0.9606775 27.703627 -20.598797 -71.208572
34600000000 -21.110529 -73.592003 -0.93010664 25.811607 -0.94093674 25.775703 -19.957378 -60.079815
34700000000 -20.79369 -74.89312 -0.95336086 23.771595 -0.95072085 23.759436 -19.610794 -61.877956
34800000000 -22.448967 -75.436348 -0.98178488 21.792383 -0.88164866 21.787451 -21.577551 -48.624146
34900000000 -22.65799 -76.410164 -0.94006979 19.934685 -0.93337846 19.718554 -23.402987 -50.960102
35000000000 -23.563372 -76.93222 -0.92302912 18.082668 -0.91013944 17.992371 -27.685818 -61.434772
35100000000 -21.63467 -69.730469 -0.94380242 15.531391 -0.92203194 15.702723 -23.218422 -81.322365
35200000000 -22.421656 -70.388252 -0.93142611 13.845073 -0.90269607 13.655362 -22.353613 -88.049889
35300000000 -22.361938 -74.258316 -0.94633681 11.864045 -0.98049319 11.664017 -20.330891 -69.77343
35400000000 -25.897572 -86.857979 -0.89402652 9.7350082 -0.87957233 9.8196592 -21.353455 -64.990196
35500000000 -25.931591 -68.76458 -0.93868566 7.5033669 -0.92317164 8.0177174 -23.725677 -57.826485
35600000000 -25.385675 -99.231628 -0.9304741 5.4090009 -0.91571903 5.4729176 -27.88003 -57.127796
35700000000 -25.112141 -93.967606 -0.97556537 3.5370851 -0.93252975 3.7207584 -27.273926 -65.304497
35800000000 -26.23934 -79.810867 -0.91748625 1.3792461 -0.93813783 1.5399436 -26.501823 -83.117226
35900000000 -26.889299 -65.878914 -0.9400968 -0.55236208 -0.93079871 -0.7018382 -25.057131 -97.07119
36000000000 -25.556353 -67.426758 -0.95400894 -2.5510762 -0.94637257 -2.3214436 -24.045923 -62.519955
36100000000 -30.324289 -39.137947 -0.95108008 -4.5642357 -0.93568879 -3.938308 -26.764267 -62.820015
36200000000 -30.90399 -86.369743 -0.93848771 -6.3989558 -0.92577893 -6.3516626 -26.585165 -53.429611
36300000000 -39.995396 -132.92514 -0.9082281 -8.9120493 -0.9196406 -8.9065132 -31.888521 -62.280746
36400000000 -30.661909 -127.91443 -0.89040697 -10.909863 -0.91157418 -10.893277 -26.55541 -75.885864
36500000000 -26.977438 -91.982536 -0.927665 -12.874593 -0.89632428 -12.654184 -26.3165 -87.037346
36600000000 -24.121689 -73.046524 -0.82668734 -14.689603 -0.88023293 -14.562935 -22.433701 -40.207325
36700000000 -27.986195 -31.731451 -0.88251609 -16.788771 -0.91792655 -16.545027 -25.468868 -45.272804
36800000000 -26.586548 -7.4001961 -0.9341321 -18.382675 -0.93361437 -18.389339 -23.522707 -1.9748307
36900000000 -27.816639 72.650208 -1.0435715 -20.782804 -0.98552465 -20.885916 -29.883879 3.8849571
37000000000 -38.421997 50.834721 -1.0097394 -22.565737 -1.0132889 -22.84911 -32.122364 10.68387
37100000000 -27.544275 -127.81669 -0.9366172 -25.306013 -1.0243067 -25.478273 -29.977188 -67.873184
37200000000 -27.034012 -60.639904 -0.9315297 -27.323446 -0.91853195 -27.171349 -26.410048 -48.00536
37300000000 -25.252539 -18.11767 -0.89327508 -29.409378 -0.9152984 -29.258318 -21.329908 -41.661232
37400000000 -22.477806 8.1308575 -0.88733751 -31.176481 -0.89956218 -31.165703 -20.901752 -16.417074
37500000000 -26.436426 32.909103 -0.93356657 -33.049866 -0.95595145 -33.086437 -20.978237 -4.8571849
37600000000 -27.425783 60.736763 -0.98257715 -34.95163 -0.96882015 -34.97913 -21.59823 18.854475
37700000000 -34.721462 13.452667 -0.9653964 -37.474216 -1.0040958 -36.978714 -23.534319 26.52112
37800000000 -26.139759 -10.532895 -0.97886652 -39.448139 -0.9811554 -39.224815 -26.894192 -1.0945797
37900000000 -22.044001 -13.785323 -1.0189787 -41.340931 -0.99582231 -41.365829 -27.937532 -17.338167
38000000000 -21.735672 11.77757 -0.96793145 -43.618355 -1.003538 -43.370636 -20.329863 -30.079863
38100000000 -22.918892 20.412281 -0.95571214 -45.714172 -1.0183909 -45.17746 -18.921692 -8.7775164
38200000000 -22.72707 23.687441 -1.0214533 -47.333599 -1.0090659 -47.641644 -17.255915 -5.4135818
38300000000 -21.563421 10.327732 -0.98244667 -49.545021 -1.0401425 -49.348042 -17.96076 19.663618
38400000000 -21.452463 -2.4574962 -0.98026508 -51.540054 -1.0402162 -51.487663 -20.048885 21.275036
38500000000 -20.84938 -5.4610519 -0.98755419 -53.680172 -1.0297194 -53.375946 -22.003696 13.675479
38600000000 -19.004879 15.231223 -1.072325 -55.469723 -1.0265065 -55.411556 -19.320187 -12.698549
38700000000 -18.388916 4.5377517 -1.0391648 -57.219185 -1.0794301 -57.476883 -19.31094 -19.180149
38800000000 -19.706295 11.808411 -1.0393929 -59.109634 -1.0422915 -59.271118 -15.742259 -5.4837322
38900000000 -19.19729 9.6561651 -1.0298188 -60.955471 -1.0610507 -61.135277 -17.610939 0.91197991
39000000000 -18.95229 12.14178 -1.0400938 -63.429024 -1.046952 -63.098854 -16.249727 8.0817022
39100000000 -18.601124 -2.1084871 -1.0366535 -65.573967 -1.0185169 -65.537796 -20.956732 -7.6147499
39200000000 -19.306328 -8.5988073 -1.0912476 -67.232826 -1.0922728 -67.012794 -17.122328 -7.9793181
39300000000 -15.974055 -5.3028827 -1.0910033 -69.421097 -1.0823522 -69.607643 -16.786062 -28.583149
39400000000 -16.514896 4.6356773 -1.105738 -71.328995 -1.1609778 -71.306412 -13.981483 -10.868109
39500000000 -15.283243 17.979328 -1.1101922 -73.598854 -1.0939658 -73.4674 -15.631293 -12.578337
39600000000 -18.086168 1.2695866 -1.1086028 -75.746407 -1.1387392 -75.163177 -14.487246 2.9056344
39700000000 -19.812832 -7.7871976 -1.1337571 -77.713203 -1.0968649 -77.655945 -18.763464 -6.8742156
39800000000 -17.243256 -27.792425 -1.0857861 -79.616699 -1.1144537 -79.314186 -16.470745 -16.290066
39900000000 -14.709642 -7.1010995 -1.1180302 -81.56411 -1.1041139 -81.637016 -16.566286 -36.94281
40000000000 -14.19076 -8.1739979 -1.0872834 -83.481239 -1.101812 -83.771957 -13.012733 -28.663504
40100000000 -15.188211 12.90075 -1.1907055 -85.606201 -1.1933951 -85.504539 -12.621884 -24.182901
40200000000 -16.454964 7.151711 -1.2014627 -87.58802 -1.1806329 -87.258102 -13.01822 -12.073973
40300000000 -19.81576 -7.4855657 -1.1085101 -89.537781 -1.1609457 -89.500443 -14.135773 -13.435108
40400000000 -16.354645 -26.382143 -1.1448723 -91.51535 -1.1329818 -91.594131 -16.805765 -15.976511
40500000000 -14.113574 -16.61738 -1.2605575 -93.537949 -1.2040613 -93.183846 -16.047916 -32.74472
40600000000 -12.810036 -12.766542 -1.0897053 -95.123741 -1.1401099 -95.190636 -14.198208 -36.58707
40700000000 -15.24956 -4.9476118 -1.2076813 -97.20385 -1.1439866 -97.574226 -13.324708 -37.645245
40800000000 -14.674903 -4.2160034 -1.2344754 -99.169739 -1.1626834 -99.005737 -11.91043 -27.805449
40900000000 -15.367813 -22.918371 -1.1399615 -100.87453 -1.2030152 -101.09891 -13.139188 -19.567135
41000000000 -14.013885 -36.262627 -1.1467084 -103.69855 -1.1563863 -103.56904 -12.540778 -23.365841
41100000000 -14.000087 -28.917345 -1.2143613 -104.44283 -1.1860067 -104.84819 -15.125209 -31.402782
41200000000 -12.957234 -17.026051 -1.1809876 -106.75931 -1.2113361 -106.74518 -13.451713 -33.166298
41300000000 -13.680677 -22.680725 -1.1944995 -108.64417 -1.1306605 -109.05341 -13.389375 -38.978977
41400000000 -14.169874 -20.480211 -1.1767364 -111.00043 -1.1868955 -110.70483 -11.840493 -36.222973
41500000000 -13.952636 -33.108715 -1.1915787 -113.39926 -1.1712151 -112.79962 -12.121459 -41.317589
41600000000 -12.518951 -31.963913 -1.1986235 -115.12504 -1.1226126 -114.63561 -12.094023 -32.741032
41700000000 -12.815306 -35.673801 -1.1470273 -116.57555 -1.1637542 -116.90739 -12.824458 -43.695892
41800000000 -13.431889 -31.451157 -1.1863053 -118.49867 -1.2598624 -118.7124 -12.689636 -37.310005
41900000000 -13.793309 -37.936504 -1.2240682 -120.75772 -1.1973834 -120.89507 -12.805882 -52.631138
42000000000 -12.73465 -36.079769 -1.1552527 -122.60866 -1.1050937 -122.63634 -12.127608 -45.21365
42100000000 -11.589067 -38.835564 -1.1941887 -125.13493 -1.1894673 -124.90837 -11.99722 -54.864944
42200000000 -12.742296 -36.812729 -1.1421947 -126.34754 -1.1724956 -126.68243 -11.91468 -41.840702
42300000000 -13.158684 -34.873505 -1.2327002 -128.42247 -1.2506535 -128.74788 -11.870647 -54.230694
42400000000 -15.145568 -44.178581 -1.1607431 -130.94426 -1.2025429 -130.53119 -13.182839 -46.479435
42500000000 -12.445156 -53.002811 -1.2020547 -132.45946 -1.1723037 -132.75786 -13.385774 -57.841881
42600000000 -11.446472 -55.114738 -1.2098956 -134.55724 -1.1507353 -134.53284 -13.4762 -52.996464
42700000000 -11.359462 -43.318851 -1.1125513 -136.03003 -1.1589377 -136.40897 -11.474258 -68.269463
42800000000 -12.312732 -36.076408 -1.2224177 -138.35286 -1.2014334 -138.47011 -12.525126 -63.983814
42900000000 -13.972722 -28.226377 -1.2820934 -140.71686 -1.1714758 -140.86234 -11.320235 -59.214031
43000000000 -15.446941 -51.351536 -1.1667058 -143.25011 -1.1626981 -143.09372 -11.973249 -56.293392
43100000000 -14.824302 -72.615997 -1.1058609 -145.38626 -1.1306709 -144.86243 -14.064206 -54.18158
43200000000 -11.863637 -68.473366 -1.1092737 -146.45514 -1.1251539 -146.70128 -14.352877 -61.685852
43300000000 -12.310597 -53.432144 -1.1010615 -148.39299 -1.1175802 -148.89243 -14.216756 -73.229523
43400000000 -12.861989 -42.422928 -1.1133661 -150.46767 -1.1028216 -150.50317 -13.088967 -73.153427
43500000000 -13.798395 -34.818104 -1.0716935 -152.29112 -1.2091682 -152.61035 -12.090487 -79.750778
43600000000 -16.573967 -50.712143 -1.1275562 -154.36861 -1.1686962 -154.45041 -12.161277 -68.479156
43700000000 -16.100267 -69.501564 -1.2877882 -156.51888 -1.1629966 -156.63458 -12.875422 -65.338142
43800000000 -13.793224 -77.567101 -1.1334529 -158.93518 -1.0537003 -158.82549 -13.801271 -61.668011
43900000000 -13.566303 -68.847084 -1.1535054 -160.67542 -1.1555884 -160.95911 -15.707857 -81.58284
44000000000 -13.701808 -56.43914 -1.0543513 -162.56822 -1.1070062 -162.57613 -15.20169 -79.580734
44100000000 -14.396012 -53.540134 -1.1055751 -165.1358 -1.0852027 -164.94846 -13.484594 -83.091492
44200000000 -16.582581 -45.136204 -1.0164664 -166.55272 -1.0850223 -166.71912 -13.510859 -81.840698
44300000000 -16.103146 -70.011528 -1.0455321 -169.09003 -1.0724698 -168.4948 -14.124262 -79.17511
44400000000 -15.940394 -83.294632 -1.0981915 -170.90634 -1.0782342 -170.98132 -15.518469 -71.240776
44500000000 -13.914519 -81.693802 -1.0885627 -173.06436 -1.0978614 -172.33904 -15.600773 -88.311447
44600000000 -14.942471 -74.721741 -1.0754386 -174.60353 -1.0287253 -174.98817 -18.301741 -81.311165
44700000000 -14.43222 -58.216331 -1.0271496 -177.11209 -1.1033088 -176.73439 -15.260573 -95.954163
44800000000 -18.739489 -70.198219 -1.1270961 -179.2144 -1.0246131 -179.47577 -15.14415 -74.013237
44900000000 -19.115953 -77.096352 -0.93698943 178.80765 -1.0048559 178.73183 -14.559216 -82.241043
45000000000 -19.947037 -83.231758 -1.0632328 176.82021 -1.0338035 176.53166 -19.096691 -64.391487
