! Quiescent point : V1=-1.78505E-02 I1=+1.38925E-03 V2=-2.30632E-02 I2=-1.37143E-03
! Pulsed point : V1=-1.68574E-02 I1=+1.35314E-03 V2=-2.24312E-02 I2=-1.32253E-03
! Period : +2.00000E-04
! Input Supply timing : delay=+1.60000E-06 width=+2.20000E-06
! Output Supply timing : delay=+1.70000E-06 width=+2.00000E-06
! VNA timing : delay=+2.40000E-06 width=+1.10000E-06
# Hz S RI R 50
+2.70000E+10 +2.94314E-01 -6.88521E-01 +5.34490E-01 +1.56212E-01 +5.03692E-01 +1.42524E-01 +4.96208E-01 -2.59645E-01
+2.71000E+10 +2.21677E-01 -6.28372E-01 +5.66364E-01 +1.73052E-01 +5.04670E-01 +1.27072E-01 +4.57579E-01 -2.04886E-01
+2.72000E+10 +2.27000E-01 -6.77000E-01 +4.72287E-01 +1.93873E-01 +5.53859E-01 +1.25698E-01 +5.07506E-01 -2.72701E-01
+2.73000E+10 +1.17640E-01 -6.32940E-01 +5.05044E-01 +1.45705E-01 +5.96695E-01 +1.77666E-01 +4.65367E-01 -2.28641E-01
+2.74000E+10 +1.61495E-01 -6.38420E-01 +5.09118E-01 +1.16978E-01 +5.57465E-01 +1.12200E-01 +5.20493E-01 -2.10843E-01
+2.75000E+10 +1.51875E-01 -6.53844E-01 +6.29698E-01 +8.95973E-02 +5.65043E-01 +1.01603E-01 +4.93127E-01 -2.81817E-01
+2.76000E+10 +1.80268E-01 -6.56349E-01 +5.03765E-01 +7.42689E-02 +5.76922E-01 +9.53076E-02 +5.35778E-01 -2.09718E-01
+2.77000E+10 +9.80419E-02 -6.38730E-01 +6.28225E-01 +1.04040E-01 +4.51246E-01 +7.40572E-02 +5.52165E-01 -3.82196E-01
+2.78000E+10 +8.78926E-02 -7.74377E-01 +6.29816E-01 +1.32297E-01 +5.09348E-01 +8.73949E-02 +4.59189E-01 -3.27127E-01
+2.79000E+10 -9.69148E-03 -7.37033E-01 +4.77125E-01 +7.29929E-02 +5.94101E-01 +5.60782E-02 +5.56391E-01 -3.46126E-01
+2.80000E+10 -5.67838E-02 -6.63285E-01 +4.64876E-01 +4.59310E-02 +6.10427E-01 +6.76620E-02 +4.51400E-01 -3.16538E-01
+2.81000E+10 +4.88223E-03 -5.93837E-01 +4.73566E-01 +9.42303E-02 +4.47097E-01 +7.35541E-02 +4.37336E-01 -3.51310E-01
+2.82000E+10 -2.36478E-02 -6.40445E-01 +5.73884E-01 +3.07703E-03 +5.77456E-01 -1.57315E-02 +4.58883E-01 -2.94269E-01
+2.83000E+10 -4.46460E-03 -6.36374E-01 +5.26937E-01 +3.20169E-02 +6.35442E-01 -3.00883E-02 +4.39743E-01 -3.23126E-01
+2.84000E+10 -1.18232E-01 -6.23602E-01 +5.03353E-01 -9.34054E-02 +5.05193E-01 -3.44293E-02 +4.22369E-01 -2.59912E-01
+2.85000E+10 -8.16458E-02 -6.18033E-01 +5.99405E-01 +5.90147E-03 +5.22753E-01 +4.17234E-02 +5.02792E-01 -4.00754E-01
+2.86000E+10 -1.16600E-01 -6.29412E-01 +5.32428E-01 +1.38156E-02 +5.24844E-01 -8.92486E-03 +4.61892E-01 -3.47355E-01
+2.87000E+10 -1.47020E-01 -6.60008E-01 +5.66626E-01 -1.28742E-02 +5.30258E-01 -3.46124E-02 +4.24503E-01 -2.98720E-01
+2.88000E+10 -1.14615E-01 -7.14967E-01 +5.63723E-01 -6.10850E-02 +5.21917E-01 -5.10207E-02 +4.94008E-01 -3.30231E-01
+2.89000E+10 -1.25294E-01 -6.70718E-01 +4.99729E-01 -6.05245E-02 +5.35735E-01 -3.22068E-02 +4.15495E-01 -2.72324E-01
+2.90000E+10 -2.33449E-01 -5.85435E-01 +5.28204E-01 -1.26481E-01 +6.34559E-01 -3.26851E-02 +4.23429E-01 -2.55798E-01
+2.91000E+10 -2.09939E-01 -6.01527E-01 +4.69382E-01 -1.27179E-01 +4.98868E-01 -1.20521E-01 +4.40911E-01 -3.03870E-01
+2.92000E+10 -2.45721E-01 -7.07804E-01 +5.25307E-01 +2.60562E-02 +5.71954E-01 -1.46482E-01 +5.42680E-01 -3.54658E-01
+2.93000E+10 -1.57820E-01 -6.68630E-01 +5.47809E-01 -1.29194E-01 +5.74716E-01 -4.54667E-02 +5.53092E-01 -3.19472E-01
+2.94000E+10 -2.58582E-01 -5.83946E-01 +6.66008E-01 -1.36097E-01 +5.24629E-01 -9.33638E-02 +4.93711E-01 -2.84016E-01
+2.95000E+10 -3.07092E-01 -6.09049E-01 +5.05048E-01 -9.83605E-02 +5.31931E-01 -1.55391E-01 +4.62018E-01 -2.48065E-01
+2.96000E+10 -2.28926E-01 -5.73137E-01 +4.15377E-01 -1.27936E-01 +5.16123E-01 -1.60727E-01 +5.00270E-01 -2.49892E-01
+2.97000E+10 -3.70291E-01 -6.16116E-01 +4.46404E-01 -1.71058E-01 +5.59946E-01 -1.06191E-01 +5.08086E-01 -2.41038E-01
+2.98000E+10 -2.68495E-01 -5.37139E-01 +5.12727E-01 -1.16069E-01 +4.42827E-01 -1.53088E-01 +5.31814E-01 -3.07169E-01
+2.99000E+10 -3.84073E-01 -5.66286E-01 +4.77822E-01 -5.23385E-02 +4.37823E-01 -1.38571E-01 +5.45439E-01 -3.10796E-01
+3.00000E+10 -4.10919E-01 -5.77519E-01 +5.60151E-01 -1.34992E-01 +5.50329E-01 -1.25344E-01 +6.26936E-01 -3.59795E-01
+3.01000E+10 -3.16460E-01 -5.25378E-01 +5.54759E-01 -2.21971E-01 +4.37892E-01 -1.32180E-01 +5.33901E-01 -3.02672E-01
+3.02000E+10 -4.39007E-01 -5.14962E-01 +4.66629E-01 -1.48954E-01 +5.14868E-01 -1.59738E-01 +4.95514E-01 -4.42359E-01
+3.03000E+10 -4.89233E-01 -5.88583E-01 +5.40873E-01 -1.36335E-01 +4.26966E-01 -1.77346E-01 +4.86625E-01 -3.64650E-01
+3.04000E+10 -4.94317E-01 -5.66361E-01 +6.10185E-01 -1.15328E-01 +5.83935E-01 -1.69331E-01 +4.94282E-01 -2.83559E-01
+3.05000E+10 -3.98047E-01 -5.08099E-01 +5.02998E-01 -4.20846E-02 +5.40995E-01 -1.24031E-01 +5.12299E-01 -3.72281E-01
+3.06000E+10 -3.69409E-01 -3.57714E-01 +5.72086E-01 -2.45751E-01 +4.86152E-01 -1.88610E-01 +4.80946E-01 -3.59530E-01
+3.07000E+10 -5.32842E-01 -4.21946E-01 +4.63467E-01 -1.98078E-01 +5.46709E-01 -1.90533E-01 +3.87533E-01 -3.39614E-01
+3.08000E+10 -4.50246E-01 -4.12683E-01 +4.90164E-01 -2.95087E-01 +5.79645E-01 -2.79470E-01 +4.86854E-01 -4.86759E-01
+3.09000E+10 -4.35043E-01 -3.23255E-01 +5.16686E-01 -3.18587E-01 +4.87475E-01 -2.72826E-01 +4.48311E-01 -3.72373E-01
+3.10000E+10 -4.93563E-01 -3.37691E-01 +5.69177E-01 -2.05927E-01 +5.06875E-01 -2.45385E-01 +4.88780E-01 -3.66662E-01
+3.11000E+10 -5.68296E-01 -3.52388E-01 +5.75706E-01 -3.58665E-01 +5.32388E-01 -1.70330E-01 +4.07634E-01 -3.94089E-01
+3.12000E+10 -4.78282E-01 -3.17656E-01 +5.56952E-01 -2.59641E-01 +5.75522E-01 -2.70884E-01 +4.09824E-01 -4.09999E-01
+3.13000E+10 -5.29411E-01 -2.68855E-01 +5.99714E-01 -3.69248E-01 +5.54772E-01 -3.44884E-01 +3.72844E-01 -3.89175E-01
+3.14000E+10 -4.98711E-01 -3.01594E-01 +5.04701E-01 -3.65872E-01 +4.73734E-01 -3.88353E-01 +4.54740E-01 -4.35009E-01
+3.15000E+10 -5.48689E-01 -2.86686E-01 +5.49325E-01 -2.98806E-01 +5.13743E-01 -3.51306E-01 +3.69874E-01 -3.08796E-01
+3.16000E+10 -4.91070E-01 -1.33846E-01 +5.55412E-01 -4.09176E-01 +5.67183E-01 -3.77247E-01 +3.96188E-01 -4.71670E-01
+3.17000E+10 -5.62486E-01 -2.45343E-01 +4.53139E-01 -3.44202E-01 +5.44423E-01 -3.55627E-01 +3.44210E-01 -3.75117E-01
+3.18000E+10 -5.55281E-01 -1.48773E-01 +5.90085E-01 -4.16589E-01 +5.59765E-01 -4.55720E-01 +4.67153E-01 -3.74023E-01
+3.19000E+10 -5.47957E-01 -1.59045E-01 +5.02693E-01 -4.12177E-01 +5.49471E-01 -4.22969E-01 +3.86092E-01 -4.10607E-01
+3.20000E+10 -4.92415E-01 -1.45475E-01 +3.72801E-01 -4.97496E-01 +5.06554E-01 -4.28160E-01 +3.34628E-01 -3.39690E-01
+3.21000E+10 -5.64797E-01 -9.49027E-02 +4.71200E-01 -4.91670E-01 +4.72756E-01 -3.71655E-01 +3.10492E-01 -4.68277E-01
+3.22000E+10 -4.63468E-01 -1.28378E-01 +5.48615E-01 -4.11428E-01 +4.81519E-01 -4.77145E-01 +4.26762E-01 -2.69720E-01
+3.23000E+10 -4.62396E-01 -2.81786E-02 +4.86824E-01 -4.69941E-01 +3.85040E-01 -4.51826E-01 +2.71928E-01 -3.96662E-01
+3.24000E+10 -4.58091E-01 -1.96915E-01 +4.61080E-01 -4.86425E-01 +3.56481E-01 -4.41975E-01 +2.63214E-01 -3.39591E-01
+3.25000E+10 -4.25100E-01 -4.11877E-02 +4.82189E-01 -4.34209E-01 +3.74786E-01 -4.47143E-01 +3.69525E-01 -3.68221E-01
+3.26000E+10 -3.80431E-01 -5.66950E-03 +3.78301E-01 -5.26981E-01 +4.46104E-01 -5.00333E-01 +2.77806E-01 -3.84461E-01
+3.27000E+10 -4.72799E-01 +5.84069E-03 +3.91635E-01 -5.15589E-01 +5.52498E-01 -5.45081E-01 +3.28171E-01 -2.67529E-01
+3.28000E+10 -4.26141E-01 -2.72699E-02 +3.99127E-01 -5.15936E-01 +4.26201E-01 -4.51009E-01 +4.62605E-01 -3.49026E-01
+3.29000E+10 -5.17791E-01 +7.20029E-02 +3.96556E-01 -5.27049E-01 +3.32263E-01 -5.55904E-01 +4.61041E-01 -3.07705E-01
+3.30000E+10 -4.96325E-01 +7.58451E-02 +3.42153E-01 -5.60655E-01 +3.44121E-01 -5.04400E-01 +3.77912E-01 -3.25836E-01
+3.31000E+10 -3.91733E-01 +1.02702E-01 +4.25321E-01 -5.01946E-01 +3.55539E-01 -5.31405E-01 +3.77331E-01 -1.74354E-01
+3.32000E+10 -3.82041E-01 +1.13844E-01 +3.85528E-01 -5.29711E-01 +2.76683E-01 -5.64834E-01 +3.36692E-01 -2.73606E-01
+3.33000E+10 -3.12233E-01 +1.42034E-01 +3.73474E-01 -5.90050E-01 +2.90822E-01 -5.53279E-01 +3.74733E-01 -2.82495E-01
+3.34000E+10 -3.97538E-01 +5.46518E-02 +2.77567E-01 -6.18151E-01 +3.84777E-01 -6.39012E-01 +3.43592E-01 -1.58614E-01
+3.35000E+10 -4.35731E-01 +1.57340E-01 +2.59021E-01 -6.39027E-01 +3.99417E-01 -5.66359E-01 +3.59549E-01 -3.44565E-01
+3.36000E+10 -3.38366E-01 +1.85091E-01 +1.45609E-01 -4.81445E-01 +3.46671E-01 -6.34233E-01 +3.93914E-01 -2.38847E-01
+3.37000E+10 -3.96372E-01 +3.54915E-01 +2.38463E-01 -4.89052E-01 +2.78146E-01 -6.41026E-01 +4.01816E-01 -1.75570E-01
+3.38000E+10 -3.27473E-01 +2.50793E-01 +2.60770E-01 -6.42862E-01 +2.46217E-01 -5.59353E-01 +2.83242E-01 -2.42962E-01
+3.39000E+10 -2.93447E-01 +1.97886E-01 +2.38344E-01 -6.35619E-01 +1.92218E-01 -5.89617E-01 +3.10464E-01 -1.92561E-01
+3.40000E+10 -1.65760E-01 +2.55978E-01 +2.07226E-01 -5.91322E-01 +3.20371E-01 -6.00414E-01 +3.73398E-01 -2.49709E-01
+3.41000E+10 -4.16821E-02 +2.64294E-01 +1.66366E-01 -6.56044E-01 +1.34278E-01 -6.69146E-01 +2.85984E-01 -9.48040E-02
+3.42000E+10 -1.36675E-01 +2.82400E-01 +2.00808E-01 -6.14297E-01 +2.21474E-01 -7.19776E-01 +3.61538E-01 -2.95008E-01
+3.43000E+10 -2.29998E-01 +2.43876E-01 +1.07441E-01 -6.14197E-01 +2.18199E-01 -6.91715E-01 +2.61781E-01 -3.07991E-01
+3.44000E+10 -3.25559E-02 +2.25737E-01 +2.78208E-01 -6.58945E-01 +1.17275E-01 -6.22873E-01 +4.24899E-01 -2.38055E-01
+3.45000E+10 -2.21085E-02 +2.34622E-01 +7.64530E-02 -6.19860E-01 +2.61256E-03 -6.13197E-01 +3.45795E-01 -3.11017E-01
+3.46000E+10 -1.12764E-01 +2.59521E-01 +1.19265E-01 -6.03956E-01 +1.04096E-01 -6.24648E-01 +3.73994E-01 -1.84964E-01
+3.47000E+10 -1.05022E-01 +3.19201E-01 +2.15882E-01 -7.50687E-01 +1.08089E-01 -6.95148E-01 +3.69447E-01 -3.06089E-01
+3.48000E+10 +1.71903E-01 +2.50561E-01 -1.82545E-02 -7.64862E-01 +5.53478E-02 -7.30522E-01 +3.49697E-01 -1.29154E-01
+3.49000E+10 -6.39983E-02 +1.57814E-01 +8.70735E-02 -6.17623E-01 -6.36951E-02 -8.57220E-01 +3.29594E-01 -2.06898E-01
+3.50000E+10 +4.88864E-02 +3.55781E-01 +4.11905E-02 -7.90710E-01 -1.84251E-03 -6.47404E-01 +3.63420E-01 -1.40749E-01
+3.51000E+10 +1.40543E-01 +1.68279E-01 -7.05052E-02 -7.75855E-01 +4.35901E-02 -6.76999E-01 +5.06675E-01 -2.34907E-01
+3.52000E+10 +1.46961E-01 +3.47128E-01 +4.69357E-02 -6.52464E-01 -1.54604E-02 -6.94450E-01 +3.57281E-01 -1.36867E-01
+3.53000E+10 +1.87438E-01 +1.97696E-01 +2.13730E-01 -6.00570E-01 -1.32500E-01 -5.70050E-01 +3.78832E-01 -2.09891E-01
+3.54000E+10 +1.05737E-01 +2.00956E-01 -7.64305E-02 -8.08511E-01 -1.34076E-02 -8.35303E-01 +5.68800E-01 -8.26787E-02
+3.55000E+10 +1.55967E-02 +2.51917E-01 -5.08054E-02 -7.75161E-01 -1.52987E-01 -7.68644E-01 +4.18561E-01 -1.98318E-01
+3.56000E+10 +1.13203E-01 +1.76710E-01 -1.71686E-02 -6.01719E-01 -9.43886E-02 -7.19750E-01 +4.66799E-01 -2.07192E-01
+3.57000E+10 +2.55482E-01 +1.86063E-01 -6.25024E-02 -7.37063E-01 -3.12147E-02 -5.93341E-01 +3.50296E-01 -1.32722E-01
+3.58000E+10 +9.66356E-02 +2.24461E-01 -2.60856E-01 -6.05399E-01 -1.62151E-01 -6.37968E-01 +3.43300E-01 -1.71581E-01
+3.59000E+10 +2.92696E-01 +6.33468E-02 -2.03925E-01 -5.70563E-01 -1.66869E-01 -6.16890E-01 +4.34005E-01 -7.97079E-02
+3.60000E+10 +3.73086E-01 +1.65725E-02 -4.69611E-02 -6.34760E-01 -1.84402E-01 -6.42127E-01 +6.29850E-01 -2.69078E-01
+3.61000E+10 +3.95648E-01 +1.70390E-01 -2.86973E-01 -6.65076E-01 -1.16812E-01 -6.89078E-01 +5.61951E-01 -2.91118E-01
+3.62000E+10 +6.21700E-01 +1.16686E-01 -1.16275E-01 -5.74467E-01 -2.15361E-01 -6.93127E-01 +4.19363E-01 -1.81881E-01
+3.63000E+10 +2.21174E-01 +1.38157E-02 -5.18765E-01 -6.02434E-01 -2.90584E-01 -6.70815E-01 +4.97929E-01 -1.52458E-01
+3.64000E+10 +2.08544E-01 +5.28632E-02 -1.63962E-01 -5.35620E-01 -1.76224E-01 -5.48241E-01 +4.64909E-01 -2.92039E-01
+3.65000E+10 +4.27611E-01 +7.24370E-02 -2.62362E-01 -6.41349E-01 -3.77593E-01 -6.87127E-01 +4.10596E-01 -2.73765E-01
+3.66000E+10 +3.83905E-01 -1.32229E-01 -4.88907E-01 -7.64780E-01 -4.30701E-01 -5.84357E-01 +3.76063E-01 -1.38201E-01
+3.67000E+10 +2.68431E-01 +1.09822E-01 -3.86826E-01 -4.54768E-01 -2.88753E-01 -5.97490E-01 +5.74539E-01 -1.72126E-01
+3.68000E+10 +5.25730E-01 +9.55208E-02 -3.16258E-01 -6.04583E-01 -2.00690E-01 -6.06049E-01 +5.19050E-01 -2.52927E-01
+3.69000E+10 +4.66929E-01 -9.36945E-02 -2.69162E-01 -5.03000E-01 -4.26293E-01 -5.88002E-01 +5.94766E-01 -9.51865E-02
+3.70000E+10 +3.32518E-01 -1.26457E-01 -3.21555E-01 -7.99310E-01 -2.89584E-01 -6.34382E-01 +4.88890E-01 -3.40029E-01
+3.71000E+10 +7.15620E-01 -1.94976E-01 -2.88818E-01 -4.02318E-01 -2.13734E-01 -5.43459E-01 +5.32759E-01 -1.71210E-01
+3.72000E+10 +4.58556E-01 -1.45169E-01 -2.75086E-01 -5.63337E-01 -1.83355E-01 -6.97857E-01 +6.05691E-01 -2.55500E-01
+3.73000E+10 +4.33890E-01 -1.53371E-01 -3.71495E-01 -4.38260E-01 -3.20483E-01 -6.91392E-01 +5.20234E-01 -3.59999E-01
+3.74000E+10 +4.36186E-01 -2.85769E-01 -3.53642E-01 -5.95165E-01 -3.28498E-01 -4.59515E-01 +7.08503E-01 -1.48068E-01
+3.75000E+10 +1.98751E-01 -3.59963E-01 -2.97135E-01 -4.45969E-01 -1.59161E-01 -5.61787E-01 +4.29507E-01 -2.10507E-01
+3.76000E+10 +6.24268E-01 -2.22986E-01 -3.80931E-01 -5.68464E-01 -3.94931E-01 -3.97164E-01 +4.96469E-01 -3.03574E-01
+3.77000E+10 +2.90133E-01 -4.06933E-01 -3.94503E-01 -5.89944E-01 -3.73697E-01 -5.79206E-01 +7.36659E-01 -2.55743E-01
+3.78000E+10 +5.74961E-01 -4.73319E-01 -3.31769E-01 -5.41093E-01 -2.56475E-01 -3.67864E-01 +6.31833E-01 +5.47876E-02
+3.79000E+10 +4.11635E-01 -3.34828E-01 -2.94394E-01 -5.99449E-01 -2.94807E-01 -5.60399E-01 +6.02924E-01 -3.93443E-01
+3.80000E+10 +6.58289E-01 -1.63274E-01 -5.55275E-01 -6.21161E-01 -2.98328E-01 -4.72921E-01 +5.75028E-01 -1.77866E-01
+3.81000E+10 +4.02066E-01 -4.03913E-01 -4.59264E-01 -3.47439E-01 -3.65259E-01 -4.84001E-01 +5.73854E-01 -2.94678E-01
+3.82000E+10 +2.60465E-01 -5.52536E-01 -4.51151E-01 -4.05872E-01 -3.92507E-01 -3.46015E-01 +6.34178E-01 -1.09705E-01
+3.83000E+10 +4.17484E-01 -4.53306E-01 -5.16127E-01 -4.70469E-01 -3.89501E-01 -4.16958E-01 +5.22408E-01 -5.82537E-02
+3.84000E+10 +4.63472E-01 -5.93592E-01 -6.32788E-01 -1.66806E-01 -5.09114E-01 -4.74082E-01 +3.88199E-01 -3.64574E-01
+3.85000E+10 +1.73306E-01 -3.20137E-01 -6.89697E-01 -3.28531E-01 -3.80847E-01 -3.82476E-01 +6.35294E-01 -2.72376E-01
+3.86000E+10 +3.00633E-01 -4.64798E-01 -3.51704E-01 -4.05577E-01 -5.18093E-01 -5.33404E-01 +5.77733E-01 -2.55914E-01
+3.87000E+10 +4.06736E-01 -4.69701E-01 -4.85569E-01 -5.10122E-01 -5.39278E-01 -5.22824E-01 +5.08986E-01 -2.15819E-01
+3.88000E+10 +3.83791E-01 -7.84949E-01 -4.97805E-01 -3.58392E-01 -7.45754E-01 -4.53111E-01 +5.38615E-01 -3.99302E-01
+3.89000E+10 +3.97734E-01 -7.30597E-01 -4.96237E-01 -3.91838E-01 -5.25458E-01 -4.02725E-01 +5.14891E-01 -4.79544E-01
+3.90000E+10 +1.92499E-01 -5.33393E-01 -4.73667E-01 -2.48523E-01 -7.22113E-01 -3.72588E-01 +5.65400E-01 -5.39406E-01
+3.91000E+10 +3.02428E-01 -5.72975E-01 -5.93293E-01 -4.00166E-01 -3.90313E-01 -1.20006E-01 +5.41865E-01 -5.57032E-01
+3.92000E+10 +2.41016E-01 -7.90044E-01 -6.15927E-01 -4.15549E-01 -3.29524E-01 -2.59182E-01 +5.06701E-01 -3.65090E-01
+3.93000E+10 +1.02776E-01 -6.09816E-01 -3.37932E-01 -2.45023E-01 -4.99635E-01 -1.98269E-01 +6.08493E-01 -2.51091E-01
+3.94000E+10 +6.84067E-02 -3.82416E-01 -6.08562E-01 -4.37026E-01 -5.12017E-01 -3.84920E-01 +3.37613E-01 -4.24250E-01
+3.95000E+10 +3.14613E-01 -5.83498E-01 -6.17779E-01 -3.21274E-01 -6.73955E-01 -4.61211E-01 +4.10116E-01 -3.99928E-01
+3.96000E+10 +9.96357E-02 -4.53575E-01 -6.49163E-01 -3.25886E-01 -4.76508E-01 -3.43518E-01 +5.41607E-01 -4.14318E-01
+3.97000E+10 -5.19605E-02 -4.88223E-01 -6.21769E-01 -8.99637E-02 -5.06712E-01 -2.96019E-01 +4.35555E-01 -7.40036E-01
+3.98000E+10 +2.03872E-01 -6.19973E-01 -7.02121E-01 -5.05776E-01 -4.20358E-01 -1.84843E-02 +5.51705E-01 -2.97061E-01
+3.99000E+10 +3.61167E-01 -8.94168E-01 -4.48817E-01 -1.55457E-01 -5.10618E-01 -3.89422E-01 +6.27875E-01 -3.37804E-01
+4.00000E+10 +1.29725E-01 -8.00973E-01 -7.54267E-01 -5.37480E-01 -4.42207E-01 -1.86722E-01 +5.13715E-01 -3.30535E-01
