!Keysight Technologies,N5247B,MY61255062,A.19.80.06
!Date: Monday, May 18, 2026 12:10:52
!Correction: S11(Cdelta 2-Port  ) 
!S21(Cdelta 2-Port  ) 
!S12(Cdelta 2-Port  ) 
!S22(Cdelta 2-Port  ) 
!S2P File: Measurements: S11, S21, S12, S22:
# Hz S  dB   R 50
1000000000 -26.407009 -9.7088213 -0.42178369 -20.989243 -0.42065707 -21.002607 -26.813805 -10.767534
1100000000 -26.353491 -11.811387 -0.43362248 -23.036125 -0.43359986 -23.037582 -26.907494 -12.418208
1200000000 -26.248795 -13.230706 -0.44319189 -25.037588 -0.44175476 -25.042231 -26.853748 -13.038565
1300000000 -26.179651 -15.24773 -0.44924057 -27.097404 -0.44933212 -27.102037 -26.771368 -15.330359
1400000000 -26.060543 -16.49172 -0.45399475 -29.066172 -0.45372546 -29.072277 -26.638062 -15.650348
1500000000 -25.95118 -18.596027 -0.45657191 -31.104504 -0.45477277 -31.106195 -26.455961 -17.705713
1600000000 -25.890427 -20.216017 -0.46037996 -33.141605 -0.45923865 -33.152428 -26.38435 -20.011209
1700000000 -25.776672 -22.360506 -0.46327454 -35.167866 -0.46073887 -35.175579 -26.296343 -21.956602
1800000000 -25.690294 -24.670082 -0.46454078 -37.214455 -0.46560422 -37.215736 -26.197945 -23.883751
1900000000 -25.601934 -26.878834 -0.46988454 -39.25248 -0.46669558 -39.25901 -26.113781 -26.376041
2000000000 -25.595926 -29.049526 -0.47418901 -41.306324 -0.47404698 -41.325146 -26.125612 -28.950447
2100000000 -25.507936 -31.241655 -0.47775131 -43.338928 -0.47803798 -43.334133 -26.074112 -30.577091
2200000000 -25.506763 -33.451485 -0.4820613 -45.372849 -0.48267338 -45.384548 -26.041626 -32.664265
2300000000 -25.483305 -35.603298 -0.48514634 -47.423065 -0.48588279 -47.423267 -26.012453 -34.818027
2400000000 -25.496386 -37.754761 -0.49211997 -49.450054 -0.49181151 -49.462116 -26.067163 -37.296543
2500000000 -25.482504 -39.875809 -0.49751377 -51.491154 -0.49596336 -51.507465 -26.051601 -39.622089
2600000000 -25.49892 -42.110874 -0.50320464 -53.525986 -0.50337207 -53.536831 -26.086382 -41.737587
2700000000 -25.500593 -43.907986 -0.50877321 -55.548599 -0.50831223 -55.554897 -26.155903 -44.18314
2800000000 -25.603672 -46.191532 -0.5127514 -57.566036 -0.51419735 -57.571125 -26.124371 -46.143196
2900000000 -25.628963 -48.0308 -0.51855856 -59.601727 -0.51897418 -59.618427 -26.225311 -48.40062
3000000000 -25.684233 -50.438004 -0.52169007 -61.608749 -0.52183574 -61.629253 -26.304241 -50.148151
3100000000 -25.722479 -52.436527 -0.52585191 -63.643196 -0.52627969 -63.654488 -26.40929 -51.782501
3200000000 -25.690172 -54.726261 -0.52886444 -65.654938 -0.5284189 -65.661682 -26.451851 -54.039021
3300000000 -25.766714 -56.726612 -0.5328421 -67.677513 -0.53278416 -67.687325 -26.487484 -56.066612
3400000000 -25.807461 -58.692677 -0.53624493 -69.701866 -0.53772712 -69.701988 -26.532202 -57.964092
3500000000 -25.902222 -60.849869 -0.5407306 -71.727318 -0.53853673 -71.730942 -26.580429 -59.375668
3600000000 -25.901442 -62.553127 -0.54142493 -73.720612 -0.53994995 -73.753395 -26.604078 -60.95071
3700000000 -26.043095 -64.719398 -0.54462051 -75.761559 -0.54346657 -75.760162 -26.649216 -63.267086
3800000000 -26.026905 -66.341141 -0.54469097 -77.794792 -0.54461646 -77.796005 -26.715368 -65.094513
3900000000 -26.134291 -68.687653 -0.54737067 -79.820831 -0.54799557 -79.831505 -26.779346 -67.497314
4000000000 -26.144903 -70.253029 -0.55086482 -81.85051 -0.54982054 -81.852509 -26.852299 -69.025497
4100000000 -26.282215 -72.49472 -0.55399358 -83.885582 -0.55448443 -83.893303 -26.958202 -71.070541
4200000000 -26.378145 -74.023071 -0.55654162 -85.892029 -0.55978107 -85.906242 -27.045603 -72.790909
4300000000 -26.433441 -76.413544 -0.55909914 -87.91452 -0.56077653 -87.922607 -27.07234 -74.565544
4400000000 -26.598726 -78.152542 -0.55989593 -89.942474 -0.56147051 -89.958046 -27.259628 -76.359039
4500000000 -26.67676 -80.089439 -0.56523722 -91.968994 -0.56538111 -91.974724 -27.270157 -78.168541
4600000000 -26.800196 -81.673637 -0.56784415 -93.988182 -0.568901 -94.004395 -27.446291 -79.907448
4700000000 -26.891388 -83.727531 -0.569305 -96.013023 -0.5694266 -96.027718 -27.468674 -81.92379
4800000000 -27.083212 -85.429848 -0.57240868 -98.032585 -0.5738306 -98.045883 -27.633238 -83.68084
4900000000 -27.223129 -86.989342 -0.57661766 -100.07565 -0.57510793 -100.08157 -27.663313 -85.583015
5000000000 -27.366014 -89.274971 -0.57630312 -102.10545 -0.57859695 -102.09322 -27.880833 -87.036659
5100000000 -27.482826 -90.014496 -0.57925981 -104.1188 -0.58059227 -104.12439 -28.002148 -88.27977
5200000000 -27.676802 -92.211739 -0.58223265 -106.13321 -0.58252805 -106.15645 -28.18358 -90.224632
5300000000 -27.834484 -93.821434 -0.58507133 -108.16488 -0.58620054 -108.16226 -28.346069 -92.333344
5400000000 -28.061543 -95.541504 -0.58968842 -110.17699 -0.58803511 -110.19866 -28.569962 -94.482513
5500000000 -28.268667 -97.382347 -0.59125394 -112.21136 -0.59180093 -112.21626 -28.613564 -95.7883
5600000000 -28.402655 -99.293709 -0.59456629 -114.2291 -0.59544653 -114.24064 -28.710524 -97.681511
5700000000 -28.698778 -100.65935 -0.59751165 -116.23666 -0.59675097 -116.2546 -28.814568 -98.498238
5800000000 -28.818909 -102.22987 -0.59833986 -118.25532 -0.59847122 -118.27509 -29.118893 -99.809921
5900000000 -29.091217 -103.59966 -0.60014272 -120.27111 -0.60111624 -120.28587 -29.358381 -100.93991
6000000000 -29.306244 -105.11193 -0.60246408 -122.28149 -0.60200226 -122.31008 -29.638311 -103.53545
6100000000 -29.646061 -105.81863 -0.60213727 -124.29815 -0.60351127 -124.31635 -29.864435 -104.95876
6200000000 -30.006504 -106.99025 -0.60259074 -126.32504 -0.60425347 -126.34861 -29.959866 -106.79082
6300000000 -30.480623 -107.52152 -0.60304636 -128.34465 -0.60300297 -128.37241 -30.221281 -106.63509
6400000000 -30.754972 -108.4986 -0.60334617 -130.38284 -0.60265857 -130.39719 -30.560448 -107.30001
6500000000 -31.177841 -109.03114 -0.60442364 -132.41519 -0.60369241 -132.43121 -30.81727 -106.96858
6600000000 -31.333565 -109.36915 -0.60616446 -134.43463 -0.60660434 -134.45868 -31.065981 -107.90074
6700000000 -31.681145 -109.6076 -0.60640019 -136.46535 -0.60808045 -136.49228 -31.298773 -108.62206
6800000000 -31.80475 -108.99293 -0.60756534 -138.50197 -0.6090346 -138.51917 -31.519962 -108.89196
6900000000 -32.15728 -108.8627 -0.61197603 -140.5526 -0.61126232 -140.56874 -31.561388 -108.09456
7000000000 -32.336254 -107.92818 -0.6145196 -142.58122 -0.61203712 -142.57449 -31.728996 -108.59639
7100000000 -32.645977 -108.50332 -0.61576778 -144.60809 -0.61789453 -144.62653 -31.947506 -108.85355
7200000000 -33.07782 -107.84457 -0.6160717 -146.618 -0.62014711 -146.63028 -32.214684 -110.42605
7300000000 -33.350536 -107.47082 -0.61784732 -148.66193 -0.6213485 -148.66638 -32.554741 -110.09489
7400000000 -33.83004 -104.8812 -0.62421227 -150.68297 -0.62480944 -150.70709 -32.372253 -110.73838
7500000000 -33.838772 -103.9984 -0.62640113 -152.70305 -0.62445492 -152.72224 -32.474819 -108.10036
7600000000 -34.175182 -100.71494 -0.6266042 -154.7477 -0.62754267 -154.76436 -32.508465 -108.06029
7700000000 -34.111122 -99.83287 -0.6279698 -156.77225 -0.62902468 -156.80072 -32.850746 -105.72744
7800000000 -34.499786 -98.367119 -0.63054311 -158.80972 -0.63296455 -158.84035 -33.137383 -107.46429
7900000000 -34.267372 -96.770752 -0.63553751 -160.83748 -0.63495982 -160.86435 -33.380791 -107.86114
8000000000 -34.489948 -95.213646 -0.63873959 -162.86031 -0.63893932 -162.89372 -32.93668 -110.482
8100000000 -34.281719 -92.092873 -0.64349669 -164.91335 -0.64435118 -164.92578 -32.655724 -107.37721
8200000000 -34.564529 -91.303185 -0.64743716 -166.9512 -0.64663738 -166.96948 -32.388748 -103.53345
8300000000 -34.569904 -87.636948 -0.65376765 -168.99258 -0.65383595 -169.00012 -33.30574 -97.228401
8400000000 -34.979549 -86.100792 -0.66315633 -171.05057 -0.66540176 -171.06979 -35.069809 -93.568405
8500000000 -34.412903 -81.450676 -0.69265431 -173.10649 -0.69162452 -173.12834 -40.680359 -115.70196
8600000000 -33.587261 -92.523277 -0.76224995 -174.87517 -0.76464999 -174.87781 -37.358467 148.28529
8700000000 -43.131577 -91.01722 -0.67988133 -175.65497 -0.67566758 -175.69931 -29.929762 86.848236
8800000000 -33.218025 -62.414494 -0.54568678 -178.74004 -0.55033123 -178.78262 -37.770687 38.404869
8900000000 -33.145374 -78.28363 -0.60915011 178.82437 -0.61310452 178.82248 -45.223042 -112.78423
9000000000 -33.687263 -80.281685 -0.64268744 176.82385 -0.64631051 176.80251 -35.145184 -124.04264
9100000000 -33.440002 -76.81234 -0.65724999 174.84499 -0.66237748 174.80644 -32.832306 -116.57222
9200000000 -32.693432 -76.476715 -0.6642738 172.81834 -0.66607255 172.81097 -31.557154 -108.93961
9300000000 -32.286552 -75.552132 -0.66856045 170.82524 -0.669007 170.79996 -31.674334 -101.96099
9400000000 -31.935505 -76.375603 -0.67102587 168.80896 -0.67459434 168.79327 -31.788101 -99.025139
9500000000 -31.880621 -75.679176 -0.67490643 166.80386 -0.67873472 166.78058 -32.518169 -99.004341
9600000000 -31.43927 -75.405861 -0.6790843 164.78879 -0.6798141 164.78033 -32.395302 -102.2544
9700000000 -31.228411 -75.646088 -0.6796028 162.79051 -0.68146455 162.75906 -32.126385 -103.56505
9800000000 -30.7297 -76.028557 -0.6833865 160.76317 -0.6848489 160.73978 -31.570248 -103.8745
9900000000 -30.619423 -77.587219 -0.68621719 158.74669 -0.68709922 158.72432 -31.561867 -102.71853
10000000000 -30.202232 -77.838303 -0.68708795 156.72244 -0.69288081 156.69136 -31.290985 -102.45461
10100000000 -30.187374 -78.281418 -0.69056499 154.70924 -0.69385135 154.66484 -31.658661 -103.16494
10200000000 -29.669632 -77.778854 -0.69298315 152.67874 -0.69495726 152.64815 -31.33971 -106.3942
10300000000 -29.50037 -79.881065 -0.69637889 150.6499 -0.70030499 150.62401 -31.23208 -107.98135
10400000000 -29.092634 -80.601418 -0.7007302 148.63524 -0.70243365 148.62643 -30.568739 -108.01411
10500000000 -28.972578 -83.779198 -0.70148039 146.619 -0.7044751 146.5788 -30.419046 -107.47672
10600000000 -28.645357 -83.785141 -0.70721358 144.57359 -0.70483983 144.56779 -30.022543 -106.5622
10700000000 -28.317724 -86.18808 -0.70788747 142.57277 -0.7082513 142.55284 -30.366478 -106.47628
10800000000 -28.198387 -85.612984 -0.70889336 140.55766 -0.71428573 140.51228 -30.249794 -106.75327
10900000000 -27.75639 -87.384094 -0.71348393 138.53322 -0.71567553 138.49898 -30.477856 -110.05663
11000000000 -27.693554 -88.043732 -0.71782494 136.53542 -0.71970892 136.49355 -30.068584 -112.14443
11100000000 -27.409693 -90.538811 -0.71941501 134.52019 -0.72403902 134.49554 -29.810535 -114.91689
11200000000 -27.414051 -92.512726 -0.7253145 132.48087 -0.72782493 132.47479 -29.316732 -115.34879
11300000000 -27.010471 -93.610489 -0.72740012 130.47365 -0.72926074 130.46802 -29.157839 -116.84962
11400000000 -26.963064 -96.021355 -0.72937185 128.46985 -0.73194194 128.4464 -28.826674 -115.42647
11500000000 -26.59388 -97.654205 -0.73378211 126.44788 -0.73435014 126.44287 -28.792013 -116.71223
11600000000 -26.480005 -100.36678 -0.73706764 124.44704 -0.73799711 124.42348 -28.766949 -117.74426
11700000000 -26.165915 -100.89169 -0.73813951 122.43685 -0.74126709 122.40874 -28.682112 -121.78603
11800000000 -26.141226 -103.79845 -0.73998201 120.43153 -0.74400735 120.4136 -28.429714 -122.74379
11900000000 -26.012016 -104.7972 -0.74505818 118.42883 -0.74333882 118.42932 -28.199535 -125.99989
12000000000 -25.893581 -108.20856 -0.75139761 116.43945 -0.74568701 116.40876 -27.951986 -125.85864
12100000000 -25.818928 -109.63142 -0.75035167 114.44103 -0.75116372 114.41304 -27.746653 -128.21515
12200000000 -25.580564 -113.25871 -0.75175339 112.44282 -0.75155455 112.41893 -27.571995 -129.26521
12300000000 -25.530378 -115.09341 -0.74967331 110.45968 -0.75030798 110.40424 -27.578505 -131.99416
12400000000 -25.323565 -117.61474 -0.7479918 108.43747 -0.74979204 108.41311 -27.466055 -134.42012
12500000000 -25.427982 -119.74408 -0.7477178 106.43874 -0.75033474 106.41702 -27.257175 -137.63596
12600000000 -25.313505 -122.71144 -0.74580008 104.43604 -0.74703372 104.39622 -27.112057 -138.52754
12700000000 -25.469992 -125.06642 -0.74288237 102.4147 -0.74594641 102.4062 -26.999811 -141.11809
12800000000 -25.185061 -127.67856 -0.74351054 100.41374 -0.74419534 100.40479 -27.017504 -143.16212
12900000000 -25.301418 -130.18057 -0.74003357 98.37738 -0.74304366 98.365158 -26.911047 -146.2012
13000000000 -25.114174 -132.09344 -0.73872185 96.359077 -0.74021989 96.32338 -27.001616 -148.38016
13100000000 -25.331669 -134.83754 -0.73676914 94.304024 -0.73952281 94.294868 -26.854166 -151.28102
13200000000 -25.262117 -136.94905 -0.73553324 92.298141 -0.73999953 92.264839 -26.963392 -152.84061
13300000000 -25.446375 -139.99904 -0.7356317 90.245171 -0.73797226 90.221855 -26.834423 -154.36305
13400000000 -25.397516 -141.21149 -0.73624682 88.211494 -0.73807812 88.191757 -27.101974 -155.73318
13500000000 -25.344477 -144.63843 -0.73649281 86.180199 -0.73810542 86.150383 -27.082861 -158.52449
13600000000 -25.428675 -145.30586 -0.7353462 84.126251 -0.73756945 84.110397 -27.37789 -161.22559
13700000000 -25.399555 -148.09358 -0.73961735 82.081207 -0.74316591 82.064865 -27.193829 -164.02705
13800000000 -25.617487 -148.43739 -0.74683201 80.013756 -0.7511822 80.002808 -27.214315 -165.27457
13900000000 -25.341574 -152.16628 -0.76125664 78.009293 -0.76428759 77.995956 -26.793016 -165.24434
14000000000 -25.437801 -155.73534 -0.76157957 76.097496 -0.76435554 76.071259 -26.801481 -167.62601
14100000000 -25.19416 -159.28027 -0.7569629 74.065857 -0.75864261 74.052322 -26.726879 -170.31358
14200000000 -25.488214 -161.97452 -0.753178 72.051636 -0.75769669 72.013161 -27.077034 -173.97954
14300000000 -25.383144 -163.15968 -0.75525331 70.009064 -0.75547355 69.985458 -27.003128 -177.06593
14400000000 -25.710865 -166.95714 -0.75556201 68.008026 -0.75692654 67.96534 -27.043699 179.55026
14500000000 -25.834326 -168.75047 -0.75608969 65.964783 -0.75665045 65.898842 -26.904613 178.67102
14600000000 -26.000408 -173.77899 -0.75581676 63.926971 -0.76075941 63.891727 -26.957714 176.44034
14700000000 -26.076347 -174.98184 -0.76076961 61.893406 -0.76479727 61.872814 -27.019453 175.97141
14800000000 -25.95948 -178.93481 -0.76127237 59.864983 -0.76357156 59.831093 -27.270185 172.21568
14900000000 -26.064215 -179.8974 -0.76535636 57.845016 -0.7665804 57.79245 -27.18033 169.80615
15000000000 -26.101345 177.54268 -0.76907587 55.816174 -0.76740628 55.768894 -27.204708 167.41357
15100000000 -26.485502 175.03297 -0.77217573 53.782013 -0.77371907 53.74675 -27.208353 166.61145
15200000000 -26.444292 171.45866 -0.77228147 51.76762 -0.77414936 51.72171 -27.173105 164.70235
15300000000 -26.770819 167.50198 -0.77377874 49.728863 -0.77834183 49.708324 -27.342457 163.60208
15400000000 -26.583401 165.15819 -0.77912134 47.728439 -0.78050882 47.676945 -27.610565 160.10666
15500000000 -26.737429 162.98711 -0.77902776 45.719284 -0.78365898 45.6651 -27.710236 158.17526
15600000000 -26.723452 161.89804 -0.78403109 43.668503 -0.78769463 43.635147 -27.509895 154.58731
15700000000 -27.120924 158.57671 -0.78445899 41.652058 -0.78866237 41.62265 -27.565651 153.40503
15800000000 -27.123085 155.07643 -0.78794384 39.628387 -0.79276043 39.595615 -27.55298 152.15788
15900000000 -27.387106 149.67126 -0.79231113 37.603073 -0.79583931 37.574734 -27.738333 151.18832
16000000000 -27.207491 147.82333 -0.79974866 35.604031 -0.80006427 35.568153 -27.901154 147.73277
16100000000 -27.27352 143.35428 -0.79956508 33.583588 -0.80405068 33.53569 -28.066063 145.05217
16200000000 -27.427919 143.47128 -0.80163556 31.549221 -0.8053695 31.534403 -27.996979 140.4689
16300000000 -27.628639 137.1597 -0.80641848 29.560793 -0.80917984 29.529421 -28.054028 139.21486
16400000000 -27.89435 135.39247 -0.80887455 27.538509 -0.81077319 27.521883 -27.899427 136.12056
16500000000 -27.691339 128.4041 -0.81086248 25.539101 -0.81294739 25.521713 -28.05409 135.86049
16600000000 -28.020519 126.03861 -0.81325394 23.52002 -0.81665105 23.488066 -28.248783 132.52408
16700000000 -27.517187 122.72537 -0.81730092 21.509003 -0.82265979 21.478792 -28.595299 131.07047
16800000000 -28.259611 120.22807 -0.81477261 19.507563 -0.81929266 19.488739 -28.470251 125.3755
16900000000 -28.003742 117.06977 -0.81859779 17.495104 -0.82402152 17.450798 -28.715517 123.61948
17000000000 -28.538139 109.67578 -0.82071745 15.484089 -0.82459766 15.474648 -28.395422 121.14126
17100000000 -28.377073 108.20035 -0.82838267 13.479547 -0.825019 13.469341 -28.841753 120.83447
17200000000 -28.432894 100.43714 -0.82490879 11.480521 -0.82702899 11.442561 -28.796894 118.86141
17300000000 -28.627743 103.11491 -0.82577813 9.4579287 -0.83008999 9.4483576 -29.353552 116.59285
17400000000 -28.607553 97.604622 -0.82458013 7.4831486 -0.82708132 7.4352355 -29.406136 112.90765
17500000000 -29.349924 96.472328 -0.82845849 5.461472 -0.83289689 5.4454284 -29.7736 108.34585
17600000000 -29.028814 88.205139 -0.82900798 3.4362566 -0.83747762 3.4232886 -29.244341 106.67863
17700000000 -29.649769 84.572365 -0.83069044 1.4492297 -0.83756238 1.4192437 -29.544306 103.85853
17800000000 -29.007339 80.136765 -0.83232933 -0.57504189 -0.83234817 -0.60055941 -29.423542 104.81772
17900000000 -29.692902 74.937241 -0.83210236 -2.5480075 -0.83578563 -2.6143372 -30.183207 102.78904
18000000000 -29.541613 75.411911 -0.83293861 -4.5540361 -0.83981067 -4.6150861 -30.550735 100.33786
18100000000 -30.097422 68.579361 -0.83314592 -6.5516095 -0.8425073 -6.6305413 -31.122072 92.819656
18200000000 -29.90592 67.588043 -0.83541226 -8.5796967 -0.83795828 -8.5985241 -30.987959 90.159615
18300000000 -30.123819 60.262165 -0.83500314 -10.597324 -0.8382383 -10.61911 -30.679996 85.716972
18400000000 -30.076174 57.89043 -0.83008248 -12.580072 -0.83371639 -12.62103 -30.555052 86.845428
18500000000 -29.950531 51.22345 -0.83186221 -14.615652 -0.83673906 -14.634922 -30.970364 85.557228
18600000000 -29.962606 48.284969 -0.83311611 -16.59557 -0.83465016 -16.677746 -31.847507 85.828659
18700000000 -29.992798 41.459324 -0.83219361 -18.639959 -0.83323652 -18.67671 -32.448967 77.954422
18800000000 -30.399429 39.019302 -0.82985961 -20.673815 -0.83033001 -20.696266 -32.90974 72.401733
18900000000 -30.050337 33.234177 -0.82761812 -22.649521 -0.8314023 -22.701567 -32.599751 62.551132
19000000000 -30.315655 30.342808 -0.82857788 -24.687216 -0.82727075 -24.683832 -32.169548 64.286285
19100000000 -29.858435 25.395506 -0.83114463 -26.700014 -0.83194023 -26.723309 -32.542076 62.285778
19200000000 -30.321386 21.907122 -0.82840151 -28.691084 -0.82973713 -28.742935 -33.024948 65.978981
19300000000 -29.965725 17.451475 -0.82772738 -30.745333 -0.82696545 -30.752245 -34.01804 59.066895
19400000000 -30.825281 12.00633 -0.83051622 -32.761826 -0.8288191 -32.78373 -34.877361 59.312057
19500000000 -30.225477 8.5446787 -0.82227468 -34.78894 -0.82208854 -34.801815 -35.155357 47.844151
19600000000 -30.449099 1.5816348 -0.81902856 -36.800686 -0.82273769 -36.839394 -35.670124 47.080051
19700000000 -29.958162 3.1131182 -0.81660885 -38.806805 -0.81843281 -38.870831 -35.090027 39.030518
19800000000 -30.322386 -5.0450478 -0.8156352 -40.863194 -0.82125878 -40.915733 -36.46521 44.955368
19900000000 -30.7932 -3.3150861 -0.81516981 -42.859005 -0.81692535 -42.936836 -36.393566 36.38715
20000000000 -30.61603 -13.984733 -0.81926924 -44.922565 -0.81826591 -44.952854 -38.368961 36.129047
20100000000 -31.057844 -14.329107 -0.81540722 -46.967049 -0.81958032 -47.028881 -37.273228 26.06975
20200000000 -30.03006 -22.487574 -0.81893289 -48.989758 -0.82026219 -49.026081 -39.059605 20.971155
20300000000 -30.746317 -24.604303 -0.82020903 -51.06625 -0.82056016 -51.075687 -37.717773 20.321745
20400000000 -29.692118 -27.837975 -0.81951118 -53.132454 -0.82446218 -53.124199 -40.519562 13.36914
20500000000 -30.728014 -35.938526 -0.82359558 -55.090969 -0.82925457 -55.141693 -40.58326 8.1059561
20600000000 -29.912163 -38.525089 -0.83098572 -57.097927 -0.8338961 -57.170807 -42.041309 -29.151539
20700000000 -30.380051 -51.552223 -0.82870507 -59.076828 -0.82993013 -59.141865 -40.973473 -28.13464
20800000000 -30.174431 -49.411411 -0.82802808 -61.091721 -0.83221114 -61.129032 -39.988869 -45.982349
20900000000 -30.003937 -58.417393 -0.81915981 -63.121262 -0.82122403 -63.146679 -40.272053 -33.679192
21000000000 -30.386349 -57.978123 -0.82384127 -65.135811 -0.82082313 -65.228745 -41.705379 -53.380978
21100000000 -29.732559 -63.576508 -0.81966001 -67.233086 -0.82024562 -67.253281 -44.500912 -51.378826
21200000000 -30.456984 -67.292374 -0.82247305 -69.274178 -0.82124782 -69.338188 -42.428783 -90.017654
21300000000 -29.871248 -72.81797 -0.82373577 -71.324562 -0.82590961 -71.382225 -41.680725 -99.815125
21400000000 -30.175993 -79.600418 -0.82452881 -73.387024 -0.8280704 -73.449059 -37.931835 -98.894974
21500000000 -29.48394 -83.667976 -0.82883227 -75.389595 -0.82762593 -75.430107 -37.757538 -101.60558
21600000000 -29.65477 -89.235069 -0.82800275 -77.39547 -0.83320451 -77.469826 -36.992931 -102.49397
21700000000 -29.493969 -92.654106 -0.82963592 -79.423706 -0.8312459 -79.490524 -38.128319 -111.80683
21800000000 -29.75654 -96.419792 -0.82470065 -81.4748 -0.8318907 -81.493744 -37.19965 -123.58765
21900000000 -29.42058 -101.61663 -0.82779473 -83.483452 -0.83202243 -83.512749 -37.011135 -137.30727
22000000000 -29.714445 -108.25864 -0.83183396 -85.546326 -0.8409918 -85.589897 -34.811264 -142.24133
22100000000 -29.266653 -112.62206 -0.83912724 -87.568222 -0.84225333 -87.602386 -33.786827 -143.52989
22200000000 -29.355051 -119.53096 -0.83986622 -89.594955 -0.84350395 -89.652603 -32.715363 -143.89209
22300000000 -29.000948 -121.43726 -0.83937502 -91.639725 -0.83778089 -91.671562 -32.732807 -147.31937
22400000000 -29.227221 -131.45044 -0.84240514 -93.64006 -0.84226245 -93.67543 -32.214512 -149.67642
22500000000 -28.980055 -131.40051 -0.83706015 -95.659233 -0.83934772 -95.728348 -32.53529 -161.20137
22600000000 -28.679678 -142.74722 -0.83674973 -97.70359 -0.83989578 -97.762581 -31.29678 -162.40504
22700000000 -28.797791 -142.80066 -0.84540462 -99.766266 -0.84993374 -99.829704 -30.745415 -169.30191
22800000000 -27.707178 -149.54454 -0.85145867 -101.82626 -0.85442758 -101.85304 -29.837095 -164.80737
22900000000 -28.429461 -151.8566 -0.85299546 -103.86704 -0.85115951 -103.89553 -29.538414 -170.7625
23000000000 -27.507524 -154.9124 -0.85140765 -105.90257 -0.85448903 -105.9578 -29.271862 -168.92218
23100000000 -27.994034 -162.97722 -0.84949934 -107.91429 -0.85100806 -107.96515 -29.084213 -177.52277
23200000000 -27.127876 -163.3989 -0.85919577 -109.92788 -0.86202914 -109.98064 -28.510649 -178.68666
23300000000 -27.12488 -173.33649 -0.85796618 -111.97567 -0.85870522 -112.04019 -27.599958 174.25261
23400000000 -26.678783 -171.16154 -0.8715964 -114.01288 -0.87069982 -114.06671 -27.211138 178.44559
23500000000 -26.084854 -179.5457 -0.87058407 -116.05557 -0.87465757 -116.10802 -26.64465 174.33641
23600000000 -26.31624 -178.51428 -0.87569338 -118.11379 -0.87768674 -118.13424 -27.154533 176.36713
23700000000 -25.430908 174.13737 -0.87723559 -120.13479 -0.88186526 -120.14541 -26.617874 168.84784
23800000000 -25.746897 171.96786 -0.88144827 -122.19402 -0.88235879 -122.20309 -26.587814 165.25905
23900000000 -24.847713 169.25183 -0.88099325 -124.2025 -0.88872474 -124.22115 -25.348892 158.04454
24000000000 -24.994284 162.56544 -0.88830483 -126.2057 -0.89117789 -126.27824 -24.824694 159.69232
24100000000 -24.264406 162.03572 -0.89068502 -128.25827 -0.8970148 -128.30875 -24.048864 159.57187
24200000000 -24.340799 155.7294 -0.89620656 -130.24568 -0.89732349 -130.32053 -24.40473 158.93814
24300000000 -23.959642 156.65102 -0.89501351 -132.31715 -0.90422463 -132.32791 -24.183678 157.40866
24400000000 -23.603086 149.57877 -0.90735871 -134.33493 -0.90549994 -134.39612 -24.642595 151.3315
24500000000 -23.678244 147.84163 -0.90391862 -136.34328 -0.90685534 -136.38316 -23.764439 146.34727
24600000000 -22.871637 143.02353 -0.90952915 -138.37029 -0.91797674 -138.40678 -23.389875 141.18448
24700000000 -22.895283 140.52654 -0.92016464 -140.34966 -0.91992313 -140.45813 -22.479187 140.89885
24800000000 -22.25572 137.65875 -0.91928422 -142.39952 -0.92843747 -142.46486 -22.323851 140.1075
24900000000 -22.249792 134.12753 -0.92559761 -144.45134 -0.93103415 -144.48309 -21.996317 140.54381
25000000000 -21.941566 131.32045 -0.9282214 -146.48338 -0.93316603 -146.51199 -22.372496 137.06711
25100000000 -21.841068 128.23346 -0.93581212 -148.42931 -0.93563741 -148.50972 -22.05014 132.99687
25200000000 -21.426126 124.38295 -0.93219316 -150.47983 -0.9376325 -150.50865 -21.923147 128.1839
25300000000 -21.235157 120.86682 -0.94090587 -152.46812 -0.94464082 -152.53378 -21.216867 126.36724
25400000000 -20.769928 117.97131 -0.94952559 -154.51497 -0.95300716 -154.55833 -21.056341 123.83112
25500000000 -20.590219 115.84979 -0.9555102 -156.54385 -0.95518309 -156.60258 -20.649561 122.49301
25600000000 -20.256165 113.24797 -0.96061969 -158.56357 -0.95809144 -158.60373 -20.579527 120.16074
25700000000 -20.312195 110.08851 -0.96383321 -160.53197 -0.96252126 -160.65141 -20.500751 118.32192
25800000000 -19.973639 108.32243 -0.96559101 -162.62418 -0.96330839 -162.62457 -20.301069 114.16569
25900000000 -19.903177 103.19182 -0.96822554 -164.63599 -0.96663159 -164.64543 -20.094109 112.44337
26000000000 -19.577204 102.13589 -0.9740591 -166.58275 -0.97602814 -166.65808 -19.758312 108.44122
26100000000 -19.320698 96.735527 -0.97673535 -168.58434 -0.9836899 -168.6922 -19.566231 107.64525
26200000000 -19.280502 97.128159 -0.98327923 -170.65767 -0.9825927 -170.7106 -19.38773 104.06249
26300000000 -18.763256 92.601585 -0.98914188 -172.61713 -0.99553388 -172.6895 -19.260296 103.28691
26400000000 -19.036957 91.628822 -0.99039549 -174.67674 -0.99357092 -174.72928 -19.129412 99.054993
26500000000 -18.40589 88.647034 -0.98861915 -176.60721 -0.99712253 -176.73048 -19.012594 98.59063
26600000000 -18.750074 85.661041 -1.0000024 -178.62833 -0.99783939 -178.65958 -18.838036 94.251404
26700000000 -18.089212 83.65374 -0.99916071 179.26476 -1.0113146 179.32739 -18.613897 94.05619
26800000000 -18.399628 79.302963 -1.0095149 177.36026 -1.0034536 177.28391 -18.393246 89.360756
26900000000 -17.992636 80.21846 -1.0173873 175.28427 -1.0048233 175.14984 -18.576786 89.38369
27000000000 -18.100943 74.822067 -1.0125135 173.21497 -1.0186718 173.23318 -18.098333 84.868988
27100000000 -17.814102 75.045792 -1.0372014 171.30655 -1.0112904 171.24066 -18.287939 84.947449
27200000000 -17.508152 70.177856 -1.0212544 169.24837 -1.030791 169.23058 -17.962851 80.332207
27300000000 -17.661087 69.870178 -1.0119488 167.28616 -1.0213511 167.19542 -18.098475 80.025253
27400000000 -17.207827 66.056572 -1.047971 165.21696 -1.046167 165.17613 -17.559435 75.733246
27500000000 -17.656782 65.197479 -1.0477002 163.29047 -1.0333089 163.23442 -17.916229 74.077217
27600000000 -17.188688 61.663681 -1.043715 161.36673 -1.0397106 161.1752 -17.37639 71.728516
27700000000 -17.502731 58.533924 -1.030285 159.44504 -1.03632 159.23499 -17.787718 69.922928
27800000000 -16.859003 57.353645 -1.0319853 157.40158 -1.0492371 157.18623 -17.4863 68.475533
27900000000 -17.007061 53.867016 -1.0431932 155.28371 -1.0452096 155.24263 -17.68251 65.046989
28000000000 -16.667404 53.369667 -1.0554579 153.18715 -1.049726 153.10666 -17.341715 63.372772
28100000000 -16.800486 49.426548 -1.0400296 151.37865 -1.0534225 151.3176 -17.333902 58.567951
28200000000 -16.618853 49.399467 -1.0675799 149.09967 -1.0563284 149.25128 -17.157345 57.985607
28300000000 -16.500317 44.040741 -1.0744078 147.35507 -1.0715182 147.11537 -17.302843 54.753696
28400000000 -16.566523 42.288853 -1.0559926 145.1665 -1.0734361 145.19237 -17.144909 53.384575
28500000000 -16.385389 39.050083 -1.0767821 143.42595 -1.0690233 143.22134 -17.032621 49.513184
28600000000 -16.33522 38.894855 -1.0698571 141.36679 -1.0607566 141.34346 -17.006998 47.780045
28700000000 -16.473707 37.239666 -1.058166 139.42172 -1.078429 139.34427 -16.914135 45.79908
28800000000 -16.728329 36.484749 -1.085472 137.35896 -1.0645154 137.28772 -16.859684 44.712765
28900000000 -16.350576 32.255352 -1.0730932 135.41008 -1.0724775 135.10652 -17.150021 41.937328
29000000000 -16.505478 30.157877 -1.0321176 133.3161 -1.0660477 133.202 -16.933741 39.767635
29100000000 -16.190779 26.885683 -1.0440297 131.16951 -1.0554563 131.25806 -17.092184 34.930637
29200000000 -16.552761 26.511538 -1.0710027 129.4566 -1.0549186 129.24039 -16.75938 34.138939
29300000000 -16.275852 24.529705 -1.061088 127.36732 -1.0594137 127.44008 -16.822933 30.720541
29400000000 -16.596581 22.959406 -1.0645769 125.45891 -1.0508341 125.35545 -16.369678 32.903023
29500000000 -16.300335 21.652504 -1.0502976 123.4122 -1.0520786 123.46392 -16.832073 28.629723
29600000000 -16.745522 17.379562 -1.0560672 121.40112 -1.0470512 121.33095 -17.016535 28.844278
29700000000 -16.515451 17.842016 -1.0350415 119.26386 -1.0401971 119.18217 -17.11244 22.67527
29800000000 -16.638479 12.292068 -1.0630314 117.36925 -1.072883 117.23425 -17.139036 22.224524
29900000000 -16.536732 14.80193 -1.0580465 115.25946 -1.0539144 115.08279 -16.9928 16.823036
30000000000 -16.67383 10.385247 -1.0431899 113.18799 -1.0614654 113.27504 -16.926907 17.85375
30100000000 -17.111486 11.884095 -1.0481107 111.24659 -1.0488918 111.10004 -16.812962 14.131549
30200000000 -16.730671 5.7888446 -1.057662 109.43795 -1.0774329 109.25309 -17.295584 15.088799
30300000000 -17.306189 5.5640311 -1.0599777 107.37814 -1.0552645 107.32119 -17.020296 10.531269
30400000000 -16.868721 1.8064123 -1.0644479 105.39079 -1.0393614 105.23085 -17.837059 8.1407986
30500000000 -17.577745 0.34394503 -1.0642309 103.28352 -1.0529854 103.16645 -17.3764 3.6008518
30600000000 -17.152815 1.7391129 -1.0544562 101.34384 -1.0403454 101.28954 -17.9093 1.2689385
30700000000 -17.834703 -3.954129 -1.0498207 99.279831 -1.0438266 99.254257 -17.394621 -0.9531588
30800000000 -17.467678 -3.6258349 -1.044863 97.379066 -1.0485061 97.305763 -17.99118 -1.0045226
30900000000 -17.59668 -8.996027 -1.0373483 95.305855 -1.0561498 95.188362 -17.857603 -3.7185493
31000000000 -17.897224 -7.6116261 -1.0103717 93.182747 -1.056017 93.116104 -18.293133 -7.2625036
31100000000 -17.890873 -11.898689 -1.0004612 91.081017 -1.0306385 91.128166 -18.433376 -9.9230289
31200000000 -18.295311 -11.794054 -0.97889405 89.178009 -1.0376918 89.070602 -18.487219 -14.67625
31300000000 -18.353607 -14.973624 -1.0147493 87.080086 -1.0250641 87.021019 -18.655632 -15.673971
31400000000 -18.835196 -14.260329 -0.99920601 85.150253 -1.0342054 85.088989 -18.884863 -17.340023
31500000000 -18.953497 -18.006102 -1.003966 83.183228 -1.0122652 82.906097 -18.876743 -16.715986
31600000000 -19.338438 -17.489132 -1.0193964 80.994164 -1.0111688 81.0214 -19.471144 -21.528259
31700000000 -19.756874 -20.776165 -0.98822623 79.11055 -1.0189679 78.891808 -19.934235 -23.015005
31800000000 -20.029381 -21.06945 -1.0262862 77.032257 -1.0063053 76.636421 -20.256508 -29.104471
31900000000 -19.968355 -22.953293 -1.0051825 74.914459 -1.0103525 74.90731 -19.999369 -32.049706
32000000000 -20.812763 -23.348009 -0.99373138 72.760872 -1.0048944 72.904938 -20.389454 -34.458885
32100000000 -20.716652 -26.265902 -1.0026947 70.716492 -0.98913926 70.800957 -20.221024 -34.450161
32200000000 -21.903225 -23.857029 -0.99261111 68.808914 -1.006228 68.725601 -21.111876 -38.108376
32300000000 -22.08247 -27.194723 -1.0077194 66.762634 -1.0241091 66.75528 -21.97357 -37.095787
32400000000 -22.681898 -30.055523 -0.99873459 64.686348 -1.0061128 64.62616 -22.762945 -43.523354
32500000000 -22.958649 -29.798323 -1.0200564 62.459354 -1.0183012 62.637569 -22.615454 -49.894955
32600000000 -23.775795 -33.562946 -1.0135376 60.592823 -1.010015 60.582035 -23.017704 -55.941944
32700000000 -24.380581 -27.192638 -1.0077699 58.48555 -1.0185486 58.491062 -22.9855 -53.493053
32800000000 -25.332939 -32.764629 -1.0019897 56.596619 -1.000445 56.344666 -23.18786 -58.711159
32900000000 -26.115402 -21.567348 -1.0041897 54.351944 -1.0060811 54.240253 -24.548981 -57.829819
33000000000 -26.773182 -38.482742 -0.9898662 52.376781 -0.98685491 52.232101 -25.511044 -61.946232
33100000000 -28.599936 -25.431501 -1.0078636 50.183002 -1.0283201 50.272755 -26.520117 -68.598312
33200000000 -28.497227 -29.715849 -1.0116649 48.216606 -1.0204146 48.090946 -26.70978 -79.877762
33300000000 -30.394262 -12.030725 -0.99618536 46.034397 -1.0304005 46.076809 -27.57114 -85.616043
33400000000 -29.532707 -23.896072 -0.99098736 44.221939 -1.0012833 44.170547 -27.438398 -89.488831
33500000000 -32.295147 1.6836954 -1.0181278 42.009617 -1.0178595 42.040718 -30.347647 -90.67112
33600000000 -31.350351 5.5173578 -0.98598754 39.950039 -1.0203811 40.060642 -29.886391 -95.697044
33700000000 -33.262932 23.326738 -1.0034604 38.071007 -1.025261 37.819313 -31.636305 -123.9697
33800000000 -30.965061 27.213184 -0.99118149 35.86298 -1.0154098 35.883171 -32.74099 -142.85074
33900000000 -33.016888 35.536915 -1.0178411 33.715427 -1.0114691 33.706161 -31.832291 -157.50905
34000000000 -29.714956 49.492424 -1.0247806 31.737499 -1.0261229 31.723467 -32.719139 -157.74162
34100000000 -30.004702 59.936378 -1.0060403 29.589613 -1.0121256 29.651966 -31.58544 -178.09348
34200000000 -26.48844 64.286278 -1.0368389 27.672382 -1.036739 27.50024 -30.600443 160.40901
34300000000 -26.97023 66.106209 -1.0307639 25.503967 -1.0514171 25.471191 -28.23175 150.67894
34400000000 -24.902552 70.406853 -1.0298033 23.540182 -1.0917672 23.397501 -27.626141 145.9933
34500000000 -24.494349 66.144638 -1.0593469 21.363018 -1.0653969 21.21891 -26.6861 142.18674
34600000000 -23.809275 67.146332 -1.0650876 19.31362 -1.0731174 19.340324 -27.107801 135.05354
34700000000 -22.893888 64.159019 -1.0662085 17.333742 -1.0647677 17.136606 -26.355545 125.98626
34800000000 -22.117174 67.65921 -1.0902852 15.093371 -1.064555 15.32682 -25.330685 117.21265
34900000000 -21.63796 69.005234 -1.068094 13.17726 -1.0616479 13.030317 -23.63802 115.68192
35000000000 -21.09305 66.587181 -1.080516 11.137575 -1.1233639 11.105539 -21.999794 112.86703
35100000000 -20.630262 67.315742 -1.0865905 9.0154696 -1.1378214 9.146452 -21.400675 115.05013
35200000000 -19.673306 67.594536 -1.139704 7.0092297 -1.0856906 6.7175188 -21.44664 113.00361
35300000000 -19.677919 64.172722 -1.1100545 4.9273052 -1.1473987 4.6621957 -21.784264 104.09843
35400000000 -18.528692 64.508675 -1.1562437 2.7655475 -1.1400648 2.7815084 -20.865608 100.49521
35500000000 -18.10935 61.927544 -1.1884376 0.91566741 -1.1476054 0.78297192 -19.927319 99.463982
35600000000 -17.769464 62.810596 -1.1456779 -1.2311713 -1.1150557 -1.3943198 -19.083635 95.664284
35700000000 -17.68614 56.778328 -1.155938 -3.2567139 -1.1962874 -3.4900875 -18.823093 92.066277
35800000000 -17.23699 58.505325 -1.1902901 -5.2299328 -1.2152129 -5.142231 -18.295212 89.314056
35900000000 -16.612539 53.389626 -1.1754196 -7.3144684 -1.1924592 -7.393394 -18.056288 90.203354
36000000000 -16.567148 56.862034 -1.188912 -9.2303123 -1.1771355 -9.2556677 -17.544786 83.576996
36100000000 -15.621281 52.933777 -1.1539471 -11.437438 -1.2343847 -11.353125 -17.254784 82.340408
36200000000 -15.863282 53.153622 -1.1732705 -13.442214 -1.1796002 -13.344363 -16.818693 79.959412
36300000000 -14.9442 52.799553 -1.2305464 -15.162223 -1.2224369 -15.320917 -16.147663 80.206841
36400000000 -15.563515 48.32859 -1.2172081 -17.485077 -1.2380558 -17.43819 -16.263828 76.207771
36500000000 -14.335529 49.031345 -1.2328113 -19.351728 -1.2622859 -19.584505 -15.970665 73.622765
36600000000 -14.569453 43.174915 -1.1934094 -21.28101 -1.2397547 -21.535213 -15.487602 67.006805
36700000000 -14.131213 47.8703 -1.291724 -23.826859 -1.2984439 -23.836744 -15.126219 67.636421
36800000000 -13.849547 40.661503 -1.294307 -25.246346 -1.277511 -25.470888 -14.534759 64.533096
36900000000 -14.02517 43.384907 -1.2790071 -27.752293 -1.2891523 -27.441317 -14.447322 64.987335
37000000000 -13.336181 38.092247 -1.3159212 -29.309916 -1.3222073 -29.480511 -14.165126 63.190117
37100000000 -13.484381 37.215202 -1.3401388 -31.559145 -1.3330065 -31.601698 -14.517965 60.304745
37200000000 -12.818595 36.215958 -1.3367617 -33.372448 -1.3262427 -33.558983 -14.125775 54.904266
37300000000 -13.050901 36.453629 -1.3967716 -35.847168 -1.3762246 -35.645622 -14.023445 51.326538
37400000000 -12.432062 33.451664 -1.3113531 -37.557095 -1.3051167 -37.57888 -13.173896 49.271477
37500000000 -12.537918 31.299864 -1.3685844 -39.381981 -1.3761635 -39.44706 -12.937338 48.497261
37600000000 -12.372924 29.207939 -1.3507396 -41.601196 -1.3968362 -41.361061 -12.849992 48.057667
37700000000 -12.438632 26.827562 -1.3970325 -43.309982 -1.3892267 -43.399117 -12.905798 47.245533
37800000000 -12.034039 25.927994 -1.3782636 -45.356491 -1.4256388 -45.360996 -12.919321 43.794865
37900000000 -11.821275 24.371262 -1.3680416 -47.053391 -1.4071834 -47.555538 -12.962415 41.516541
38000000000 -11.62854 23.2218 -1.4466573 -48.998661 -1.4429257 -49.507381 -12.622993 37.802456
38100000000 -11.759584 22.491268 -1.3820766 -51.178577 -1.4511318 -51.162006 -12.243852 35.521641
38200000000 -11.516189 20.176954 -1.3920184 -53.352005 -1.3958787 -53.005257 -12.038368 33.352242
38300000000 -11.50817 17.794245 -1.4530152 -55.228687 -1.4649421 -55.345078 -11.890934 33.915237
38400000000 -11.359786 16.359678 -1.4307114 -56.866806 -1.3916411 -56.99593 -11.948356 30.981274
38500000000 -11.180333 14.852427 -1.41459 -59.190098 -1.4467981 -59.169418 -12.122928 29.278227
38600000000 -11.065192 14.829509 -1.432888 -61.1129 -1.4200761 -61.404869 -11.944826 25.336472
38700000000 -11.05032 12.087281 -1.4641569 -63.279819 -1.5173835 -63.133339 -11.812111 23.391418
38800000000 -11.120809 11.924006 -1.4803312 -64.516541 -1.4632508 -65.052536 -11.46839 21.591988
38900000000 -11.074178 7.3636928 -1.4445412 -67.04274 -1.4566483 -67.013596 -11.709558 20.513409
39000000000 -11.192729 8.6334715 -1.4475567 -68.882851 -1.4971734 -68.991882 -11.106525 19.239218
39100000000 -10.707833 4.0704374 -1.5060474 -70.56498 -1.5066417 -71.015556 -11.830009 16.285515
39200000000 -11.032966 3.6409507 -1.5345304 -72.528267 -1.5522685 -72.411377 -11.358759 12.300639
39300000000 -10.470953 3.3110995 -1.4210745 -74.708977 -1.4859965 -74.963585 -11.355474 8.9287376
39400000000 -11.117321 0.89416569 -1.4963372 -76.649055 -1.4966097 -76.70285 -10.832306 9.4898605
39500000000 -10.660773 1.2925956 -1.4514116 -78.139679 -1.5107614 -78.796898 -11.027354 7.7380433
39600000000 -11.031775 -3.9371243 -1.5145069 -80.5634 -1.5393111 -80.819374 -10.99539 8.9196911
39700000000 -10.678012 -1.7575517 -1.4610349 -82.290077 -1.5256621 -82.384315 -11.541119 4.0265217
39800000000 -10.785119 -6.9186101 -1.5257585 -84.576996 -1.4983842 -84.504761 -11.151529 1.9185276
39900000000 -10.780114 -3.6912324 -1.5238862 -86.439034 -1.4499644 -86.138397 -11.155655 -4.0297856
40000000000 -10.573689 -9.545558 -1.4919181 -87.998421 -1.4778476 -88.061684 -10.973552 -4.0172572
40100000000 -11.005103 -7.5064888 -1.4737511 -90.290833 -1.4984329 -90.530121 -10.576921 -5.5472393
40200000000 -10.517649 -11.029524 -1.5099576 -91.94104 -1.516886 -92.332573 -10.892138 -5.0846171
40300000000 -11.102304 -13.81644 -1.4494917 -94.165375 -1.4283779 -94.24247 -10.952738 -7.4746671
40400000000 -10.44878 -14.124558 -1.5287554 -95.92067 -1.4572877 -96.093964 -11.462621 -9.6362753
40500000000 -10.863933 -16.64109 -1.4487935 -97.785576 -1.4643556 -97.953667 -11.235488 -14.366873
40600000000 -10.919911 -15.472855 -1.4806508 -99.78804 -1.4621146 -99.907684 -11.242207 -16.788912
40700000000 -10.967951 -18.933756 -1.4770629 -101.72175 -1.4608791 -102.33381 -11.07634 -19.05547
40800000000 -11.236669 -19.699245 -1.3881752 -103.74174 -1.4240648 -103.83487 -10.852376 -18.178814
40900000000 -11.104244 -21.847277 -1.3904761 -105.93935 -1.4265389 -105.88367 -11.159978 -19.985872
41000000000 -11.152184 -23.951607 -1.4185786 -107.83977 -1.4994923 -108.00511 -11.380982 -22.017958
41100000000 -11.100452 -22.968351 -1.4031061 -109.76736 -1.4178936 -109.8129 -11.718589 -24.861013
41200000000 -11.289197 -25.233551 -1.4097519 -111.67564 -1.4807825 -112.01844 -11.582541 -27.868099
41300000000 -11.30759 -25.135836 -1.4226528 -113.88366 -1.3623339 -114.06061 -11.686271 -29.153934
41400000000 -11.437971 -25.826677 -1.3691989 -115.75632 -1.4541001 -115.99246 -11.612358 -32.001846
41500000000 -11.910351 -29.273767 -1.3923815 -117.55578 -1.4065056 -117.7972 -11.652005 -33.093346
41600000000 -11.484645 -28.936678 -1.4091156 -120.10067 -1.4341141 -119.90575 -11.966363 -34.351421
41700000000 -11.932673 -32.49588 -1.36979 -121.81047 -1.4258239 -121.7011 -11.89532 -36.893677
41800000000 -11.936646 -32.383381 -1.3629469 -123.93655 -1.3555039 -123.46124 -12.418201 -37.027534
41900000000 -12.362107 -36.272446 -1.4210178 -125.84221 -1.3879864 -126.07517 -12.537422 -41.566059
42000000000 -12.400403 -32.128506 -1.3263769 -127.55134 -1.287136 -127.83037 -12.569307 -42.519329
42100000000 -12.226447 -37.116535 -1.3701402 -129.58766 -1.3916483 -129.74063 -12.708982 -46.246281
42200000000 -12.837274 -35.022316 -1.2980925 -131.71512 -1.3376213 -131.92056 -13.192299 -46.605026
42300000000 -12.982959 -38.503292 -1.3006834 -133.81738 -1.3260123 -133.55179 -12.647184 -49.675457
42400000000 -13.832567 -39.920231 -1.3204216 -135.84708 -1.2837212 -135.80762 -13.322895 -51.090889
42500000000 -13.023997 -37.886147 -1.2975425 -138.08971 -1.4019699 -138.03757 -13.757281 -52.818928
42600000000 -13.804911 -41.84671 -1.2525452 -139.83125 -1.3277676 -139.90605 -14.323941 -57.467861
42700000000 -13.67437 -40.255314 -1.2540728 -142.07684 -1.2799101 -142.25427 -13.911507 -60.054432
42800000000 -14.309037 -44.477581 -1.2784421 -144.40656 -1.2266014 -144.10603 -14.569551 -63.123852
42900000000 -14.642171 -38.221966 -1.3378644 -146.08694 -1.2095106 -146.20473 -14.723931 -61.974541
43000000000 -14.764997 -46.13345 -1.3219399 -147.96194 -1.1689539 -148.56825 -14.768114 -64.841606
43100000000 -15.988061 -40.508221 -1.2678456 -150.33011 -1.2866061 -150.44977 -15.686724 -63.42326
43200000000 -15.501115 -44.555668 -1.2237344 -152.40813 -1.2250847 -152.88414 -16.17054 -73.423843
43300000000 -16.607058 -40.989216 -1.2087295 -154.1582 -1.2904061 -154.81195 -17.046764 -74.214928
43400000000 -15.860311 -42.074757 -1.2488292 -156.5332 -1.1565707 -156.54895 -16.248991 -79.301956
43500000000 -16.720814 -42.058029 -1.2623794 -158.45117 -1.2812891 -158.9014 -17.41218 -81.110588
43600000000 -16.814884 -33.592545 -1.1850717 -160.79536 -1.1576865 -161.23793 -17.007435 -82.479126
43700000000 -18.435698 -41.914413 -1.2142678 -162.95227 -1.1596746 -163.11757 -17.890123 -77.823502
43800000000 -17.847143 -38.59441 -1.1772499 -165.20515 -1.1882403 -164.66051 -19.780094 -83.453041
43900000000 -18.008059 -39.551678 -1.1762917 -167.09831 -1.245362 -166.9162 -21.352932 -90.877617
44000000000 -18.984991 -28.06325 -1.1835035 -168.76834 -1.1688648 -169.57364 -20.933376 -92.280243
44100000000 -18.349133 -31.166075 -1.2056457 -171.70984 -1.187477 -171.46396 -21.715324 -96.638847
44200000000 -19.872299 -25.591604 -1.1986812 -173.58801 -1.2723355 -173.82446 -21.857876 -102.56297
44300000000 -19.127886 -24.773972 -1.0963432 -175.90164 -1.2571038 -175.90202 -24.627153 -102.93377
44400000000 -21.021095 -27.431768 -1.2049915 -176.97058 -1.2027304 -177.95477 -26.133715 -92.417358
44500000000 -18.245457 -15.595043 -1.1890384 179.91614 -1.0798146 -179.539 -28.441612 -114.19505
44600000000 -19.361187 -17.52573 -1.2195315 177.62906 -1.1571785 177.74925 -29.659763 -122.36863
44700000000 -18.46562 -8.5530157 -1.2237313 176.10703 -1.2607963 176.03809 -30.147797 -121.53845
44800000000 -18.939449 -13.486382 -1.1526616 173.64403 -1.2201283 173.19151 -35.487869 -153.85841
44900000000 -18.502798 1.6223583 -1.2608188 171.80632 -1.1805007 171.68895 -39.348362 -167.71613
45000000000 -18.610386 -4.6087933 -1.2791243 169.84015 -1.2169409 169.62735 -34.547871 106.70369
