!Keysight Technologies,N5247B,MY61255062,A.19.80.06
!Date: Monday, May 18, 2026 12:11:57
!Correction: S11(Cdelta 2-Port  ) 
!S21(Cdelta 2-Port  ) 
!S12(Cdelta 2-Port  ) 
!S22(Cdelta 2-Port  ) 
!S2P File: Measurements: S11, S21, S12, S22:
# Hz S  dB   R 50
1000000000 -26.42458 -8.4102583 -0.41677654 -20.897018 -0.41787824 -20.902678 -26.806702 -9.8065166
1100000000 -26.396278 -10.470722 -0.43058464 -22.932636 -0.42998785 -22.932903 -26.913118 -11.216368
1200000000 -26.311626 -11.754326 -0.43872786 -24.927116 -0.43879887 -24.912281 -26.838989 -11.620188
1300000000 -26.209383 -13.774375 -0.44506711 -26.96594 -0.4453961 -26.970417 -26.726677 -13.875258
1400000000 -26.103296 -14.848814 -0.4502342 -28.929167 -0.45014292 -28.939875 -26.57699 -14.320887
1500000000 -25.973022 -16.959072 -0.45130363 -30.956476 -0.45153427 -30.96748 -26.396358 -15.975157
1600000000 -25.914865 -18.473377 -0.4556599 -33.003056 -0.45676515 -32.999149 -26.323763 -18.33506
1700000000 -25.802336 -20.53039 -0.45770216 -35.004482 -0.46011546 -35.015903 -26.209633 -20.177488
1800000000 -25.726885 -22.65303 -0.46040875 -37.039448 -0.46226349 -37.045761 -26.116766 -22.114239
1900000000 -25.633492 -24.937529 -0.4633621 -39.072014 -0.46394879 -39.086407 -26.016739 -24.547054
2000000000 -25.622288 -26.957344 -0.47104394 -41.12788 -0.46977118 -41.122272 -26.043869 -26.816849
2100000000 -25.533447 -28.949108 -0.47138122 -43.134064 -0.47362286 -43.13969 -25.948545 -28.443384
2200000000 -25.561853 -30.996761 -0.47712317 -45.168407 -0.47694692 -45.182568 -25.924221 -30.61581
2300000000 -25.531223 -33.283253 -0.48060429 -47.208996 -0.48256895 -47.212826 -25.906084 -32.924572
2400000000 -25.570549 -35.383942 -0.4862771 -49.237907 -0.4862085 -49.239479 -25.922354 -34.833324
2500000000 -25.529501 -37.553158 -0.4908306 -51.273708 -0.49295878 -51.279755 -25.848759 -37.392918
2600000000 -25.579233 -39.621483 -0.49834579 -53.276455 -0.49877581 -53.296535 -25.931334 -39.476078
2700000000 -25.561468 -41.450249 -0.50101215 -55.299053 -0.50282913 -55.307732 -26.004698 -41.84087
2800000000 -25.681446 -43.608913 -0.50837857 -57.331223 -0.50970489 -57.326756 -26.01383 -43.86937
2900000000 -25.72303 -45.233326 -0.5125379 -59.346703 -0.51294684 -59.335136 -26.03273 -45.883816
3000000000 -25.744953 -47.519428 -0.51624548 -61.335449 -0.51720649 -61.337837 -26.141331 -47.417286
3100000000 -25.811588 -49.489006 -0.52002978 -63.347649 -0.52082175 -63.360134 -26.219645 -49.3783
3200000000 -25.812223 -51.984173 -0.52366054 -65.371727 -0.52502483 -65.369316 -26.261992 -51.207024
3300000000 -25.868139 -53.812943 -0.52775562 -67.380577 -0.52734405 -67.389282 -26.292427 -53.356113
3400000000 -25.938688 -55.723679 -0.53112954 -69.396751 -0.53157163 -69.404213 -26.304756 -55.180965
3500000000 -26.035521 -57.764603 -0.53318566 -71.411598 -0.53277272 -71.399574 -26.342726 -57.079243
3600000000 -26.061205 -59.597969 -0.53506213 -73.402069 -0.5360229 -73.420624 -26.366024 -58.332294
3700000000 -26.193024 -61.344395 -0.53651756 -75.418228 -0.53848803 -75.435303 -26.37516 -60.555862
3800000000 -26.19623 -63.270924 -0.54006189 -77.441246 -0.53981864 -77.455139 -26.479576 -62.563965
3900000000 -26.298775 -65.336212 -0.54183018 -79.469696 -0.54253465 -79.477501 -26.50708 -64.816833
4000000000 -26.319254 -67.096527 -0.54397589 -81.479996 -0.54549599 -81.49118 -26.575886 -66.292389
4100000000 -26.468523 -69.203316 -0.54860884 -83.50145 -0.54920042 -83.508698 -26.638935 -68.43074
4200000000 -26.546541 -70.74408 -0.5504517 -85.505966 -0.55419827 -85.527756 -26.738949 -70.041954
4300000000 -26.654423 -73.144859 -0.5536322 -87.530518 -0.55337137 -87.539474 -26.756651 -72.095108
4400000000 -26.794821 -74.616508 -0.55534363 -89.548477 -0.55786717 -89.551094 -26.894209 -73.5802
4500000000 -26.903341 -76.516022 -0.55699658 -91.565552 -0.5593335 -91.553947 -26.919125 -75.794258
4600000000 -27.078724 -78.443634 -0.56024051 -93.580109 -0.56141275 -93.584869 -27.112404 -77.876877
4700000000 -27.172709 -80.455956 -0.56229746 -95.596039 -0.56306952 -95.609047 -27.096531 -79.68808
4800000000 -27.343435 -82.416679 -0.56555951 -97.617699 -0.56475812 -97.616959 -27.24103 -81.418724
4900000000 -27.464077 -83.802177 -0.56673443 -99.625443 -0.56739956 -99.647438 -27.26486 -83.119514
5000000000 -27.684238 -85.948059 -0.57043016 -101.64734 -0.57253921 -101.65366 -27.497992 -85.354149
5100000000 -27.796114 -87.204376 -0.57293469 -103.65405 -0.57467741 -103.65321 -27.587337 -86.106812
5200000000 -27.984245 -89.383629 -0.57730561 -105.66996 -0.57594371 -105.68233 -27.812082 -88.326317
5300000000 -28.129906 -90.769913 -0.57771927 -107.6991 -0.57738572 -107.70568 -28.001074 -90.468147
5400000000 -28.387379 -92.624535 -0.58154452 -109.71021 -0.58218145 -109.70998 -28.130138 -92.902664
5500000000 -28.625706 -94.407593 -0.58519155 -111.72166 -0.5835095 -111.72105 -28.190384 -94.590332
5600000000 -28.87933 -96.772743 -0.58652288 -113.73256 -0.58772123 -113.72655 -28.312798 -96.262672
5700000000 -29.053356 -98.535522 -0.58904034 -115.7355 -0.58918649 -115.74984 -28.443794 -97.300705
5800000000 -29.27508 -100.26603 -0.59278119 -117.74039 -0.59354234 -117.74761 -28.703197 -99.066078
5900000000 -29.569891 -101.74744 -0.59303755 -119.7354 -0.59354889 -119.7617 -28.973253 -100.36683
6000000000 -29.803499 -103.41348 -0.59425998 -121.75908 -0.59419322 -121.77293 -29.271027 -103.33205
6100000000 -30.168516 -104.46362 -0.59535301 -123.77105 -0.5956229 -123.77428 -29.439938 -105.43833
6200000000 -30.571688 -105.88101 -0.59526688 -125.7782 -0.59575886 -125.78961 -29.71641 -107.40508
6300000000 -31.054333 -106.41991 -0.59545928 -127.78391 -0.59619772 -127.80225 -29.898527 -107.7206
6400000000 -31.424639 -107.48459 -0.59539104 -129.81778 -0.59504783 -129.8287 -30.244053 -108.7166
6500000000 -31.869053 -108.7794 -0.59584081 -131.83879 -0.59648103 -131.84718 -30.553997 -108.75714
6600000000 -32.151184 -109.27634 -0.59573722 -133.85875 -0.5991531 -133.86507 -30.807091 -110.04638
6700000000 -32.607201 -109.67841 -0.59740025 -135.88382 -0.59774721 -135.89288 -31.083334 -110.90455
6800000000 -32.732414 -109.38345 -0.60208702 -137.90698 -0.59942055 -137.93243 -31.373821 -112.69572
6900000000 -33.268414 -110.28555 -0.60153782 -139.93878 -0.60184854 -139.95128 -31.552393 -111.90569
7000000000 -33.378727 -108.99297 -0.60714436 -141.96597 -0.60426831 -141.99017 -31.686296 -112.96484
7100000000 -33.864368 -111.16785 -0.60759628 -143.99529 -0.60924959 -144.00479 -32.038651 -113.91518
7200000000 -34.30294 -110.11322 -0.60929161 -146.01852 -0.61339015 -146.00018 -32.314644 -116.45523
7300000000 -34.788368 -112.78459 -0.61401474 -147.99852 -0.61630857 -148.01593 -32.585938 -118.07867
7400000000 -35.706219 -109.29783 -0.6139062 -150.02061 -0.61691278 -150.03996 -32.706181 -118.82435
7500000000 -36.019718 -108.93228 -0.6153093 -152.03403 -0.61670059 -152.05862 -33.125629 -116.81911
7600000000 -36.615688 -104.92371 -0.61709803 -154.08502 -0.61867946 -154.08398 -33.284138 -116.39656
7700000000 -36.646675 -102.92707 -0.61952758 -156.10928 -0.61948937 -156.12378 -33.914021 -114.76347
7800000000 -37.264385 -101.72514 -0.62299484 -158.12355 -0.62683445 -158.13397 -34.414719 -117.17192
7900000000 -37.25404 -99.163826 -0.62587219 -160.15396 -0.630189 -160.16689 -34.956974 -119.43083
8000000000 -37.821182 -97.302635 -0.63146716 -162.17049 -0.63233334 -162.18613 -34.51918 -121.19453
8100000000 -37.903114 -92.7994 -0.63331467 -164.1873 -0.63471115 -164.21445 -34.587509 -117.16186
8200000000 -38.494167 -90.87149 -0.64085031 -166.22643 -0.63928932 -166.25465 -34.461979 -111.93858
8300000000 -38.913979 -85.660698 -0.64552236 -168.25859 -0.64588457 -168.26463 -36.1287 -105.13274
8400000000 -39.689732 -81.981911 -0.65579659 -170.30779 -0.65774304 -170.32544 -39.299198 -101.90415
8500000000 -39.120102 -71.755516 -0.68253613 -172.36317 -0.68647248 -172.38586 -46.797371 -171.95915
8600000000 -38.167915 -91.500366 -0.7553063 -174.11377 -0.75708461 -174.13374 -34.184391 127.80067
8700000000 -53.390907 83.619202 -0.67654443 -174.88045 -0.67397851 -174.89134 -27.43611 90.191978
8800000000 -36.463272 -39.669445 -0.53872603 -177.95387 -0.5364303 -177.96451 -33.497559 61.265358
8900000000 -37.844837 -63.761723 -0.60037488 179.64212 -0.60150808 179.61992 -46.012924 106.91811
9000000000 -39.114174 -62.588486 -0.63624388 177.61693 -0.6362415 177.61575 -40.054062 -154.6212
9100000000 -38.518387 -54.082844 -0.64996338 175.62779 -0.65174538 175.61517 -37.360149 -131.36568
9200000000 -37.451126 -54.904495 -0.65533692 173.64507 -0.65875244 173.62314 -36.125221 -114.31217
9300000000 -36.684765 -53.207272 -0.65893799 171.65591 -0.66498393 171.62959 -36.730885 -99.829979
9400000000 -36.393414 -52.873047 -0.66555685 169.64648 -0.6681335 169.62193 -37.47316 -92.283882
9500000000 -36.189133 -49.846695 -0.66827995 167.64598 -0.6695506 167.63904 -39.151051 -87.97419
9600000000 -35.714859 -49.568249 -0.67212176 165.64871 -0.67263126 165.62984 -39.291073 -92.214836
9700000000 -35.144009 -47.309566 -0.67394221 163.6458 -0.67442864 163.62456 -39.272827 -92.673584
9800000000 -34.608219 -49.890469 -0.67695552 161.62764 -0.67886364 161.61006 -38.411983 -91.527168
9900000000 -34.651993 -48.440552 -0.67934793 159.6241 -0.67887121 159.60547 -38.144554 -83.664558
10000000000 -33.946636 -49.666149 -0.6826461 157.6171 -0.6840716 157.60095 -37.842953 -81.178116
10100000000 -33.913353 -48.370197 -0.68369102 155.60233 -0.68628478 155.5905 -38.839619 -76.671219
10200000000 -33.04612 -48.40469 -0.68793255 153.60693 -0.68727809 153.56184 -38.454773 -78.90461
10300000000 -33.001804 -49.096157 -0.69120657 151.57103 -0.69278365 151.58498 -38.502316 -79.444611
10400000000 -32.31197 -50.778439 -0.69149494 149.55562 -0.69425708 149.55475 -37.343513 -81.717941
10500000000 -32.487228 -52.572437 -0.69169682 147.55437 -0.69865066 147.54198 -36.887028 -76.887962
10600000000 -31.864094 -52.18074 -0.69554025 145.54836 -0.69962704 145.52612 -35.965645 -74.184692
10700000000 -31.766617 -55.167252 -0.70176882 143.54958 -0.69885349 143.51772 -36.078468 -69.134476
10800000000 -31.181313 -53.651829 -0.70153821 141.539 -0.70571989 141.50194 -35.708553 -67.22036
10900000000 -30.8515 -56.199883 -0.70834607 139.54117 -0.70843899 139.51709 -36.450806 -66.635208
11000000000 -30.712206 -55.533619 -0.71013361 137.52251 -0.71039546 137.49066 -35.88744 -69.316322
11100000000 -30.39909 -58.565868 -0.71151352 135.53799 -0.71628636 135.5072 -36.061264 -73.237183
11200000000 -30.501619 -59.139732 -0.71591818 133.52751 -0.71880591 133.48337 -34.793285 -74.927208
11300000000 -29.997284 -61.49929 -0.71763712 131.51204 -0.71816021 131.48094 -34.720276 -74.795143
11400000000 -29.99646 -63.00943 -0.72028762 129.51096 -0.72408307 129.49339 -33.634819 -73.259789
11500000000 -29.529896 -65.177879 -0.72138715 127.5204 -0.7240054 127.49101 -33.53186 -73.324577
11600000000 -29.582407 -67.815147 -0.72502482 125.5155 -0.72518784 125.49918 -33.425133 -72.619141
11700000000 -29.228411 -68.385979 -0.72755986 123.52284 -0.72979784 123.48537 -33.672173 -75.458847
11800000000 -29.290157 -70.926186 -0.72950751 121.533 -0.73065352 121.50676 -33.181408 -76.862297
11900000000 -29.026117 -71.519699 -0.73095858 119.54927 -0.73537445 119.52334 -33.233578 -80.859642
12000000000 -29.122318 -74.610535 -0.73171735 117.55395 -0.7367149 117.52715 -32.696976 -80.812057
12100000000 -29.015341 -75.970543 -0.7331894 115.55052 -0.7367897 115.5375 -32.473473 -84.650826
12200000000 -28.988358 -80.106308 -0.73178691 113.58997 -0.73491174 113.55225 -32.162437 -84.921806
12300000000 -28.98543 -81.169701 -0.73052549 111.58687 -0.73695779 111.56691 -32.271698 -86.864693
12400000000 -28.913181 -83.825668 -0.72997695 109.58032 -0.73539281 109.55489 -32.296436 -87.947052
12500000000 -29.034334 -84.708237 -0.729325 107.59467 -0.73129952 107.56722 -32.303646 -91.176628
12600000000 -29.191616 -87.214333 -0.72750354 105.60279 -0.72892147 105.56996 -32.170883 -91.14917
12700000000 -29.342669 -87.832016 -0.726255 103.59657 -0.72895485 103.56325 -32.152454 -93.736794
12800000000 -29.282841 -91.498848 -0.7216332 101.59064 -0.72449136 101.54519 -32.257565 -93.467064
12900000000 -29.419641 -92.178886 -0.71732622 99.572472 -0.7209776 99.530785 -32.361542 -96.341988
13000000000 -29.253508 -94.426216 -0.71521163 97.534714 -0.71784168 97.50341 -32.365326 -96.280258
13100000000 -29.710524 -94.534035 -0.71393025 95.519753 -0.72068489 95.483627 -32.520142 -99.220909
13200000000 -29.537146 -95.979599 -0.7129848 93.501442 -0.71650189 93.462234 -32.48288 -98.747002
13300000000 -30.066994 -97.864983 -0.71558458 91.470451 -0.71684748 91.413414 -32.30444 -100.17375
13400000000 -29.877031 -98.4645 -0.71606928 89.429802 -0.71631259 89.401566 -32.489182 -97.522697
13500000000 -30.00852 -101.6292 -0.71604824 87.389359 -0.7168954 87.370552 -32.683907 -98.340675
13600000000 -29.709251 -100.48871 -0.71439952 85.347275 -0.71755862 85.338753 -33.043327 -98.29097
13700000000 -29.958479 -103.16348 -0.7185002 83.309158 -0.72086275 83.298172 -33.209496 -101.44624
13800000000 -30.098701 -100.42104 -0.72382498 81.273689 -0.72366047 81.262955 -33.185902 -101.99644
13900000000 -30.165234 -104.90286 -0.73301166 79.221046 -0.73487067 79.206734 -32.361034 -104.22352
14000000000 -30.212566 -105.98683 -0.7414909 77.257446 -0.74595624 77.212349 -32.092926 -102.71245
14100000000 -29.980494 -113.64785 -0.74676591 75.342278 -0.74798256 75.304947 -31.824715 -107.95681
14200000000 -30.700363 -115.39998 -0.73721087 73.357918 -0.74074328 73.329491 -32.719406 -108.19246
14300000000 -30.405544 -116.7494 -0.73291326 71.31131 -0.73647255 71.290085 -33.03001 -112.60658
14400000000 -31.34791 -117.18784 -0.73160189 69.311615 -0.73374259 69.282127 -33.689934 -113.56659
14500000000 -31.330742 -117.26117 -0.73265892 67.260117 -0.73673606 67.244453 -33.311531 -117.07062
14600000000 -32.271393 -120.11948 -0.73280537 65.232063 -0.73607022 65.203514 -33.284645 -116.20077
14700000000 -32.287338 -121.56403 -0.73733604 63.216557 -0.741175 63.198715 -33.021042 -116.44439
14800000000 -32.633141 -126.63937 -0.7377106 61.22057 -0.74197668 61.163895 -33.79842 -116.35389
14900000000 -32.483803 -125.31161 -0.74015421 59.189121 -0.74245209 59.158012 -33.834232 -118.40953
15000000000 -32.659809 -128.37933 -0.74133646 57.165768 -0.74730611 57.144192 -34.136333 -120.40186
15100000000 -33.41909 -125.86961 -0.7440964 55.160622 -0.74266124 55.123363 -33.680126 -123.19391
15200000000 -34.065224 -129.24896 -0.74233818 53.136219 -0.74634171 53.088619 -33.643345 -123.94479
15300000000 -34.86087 -128.90909 -0.74631709 51.086754 -0.74607456 51.068909 -33.580299 -122.53985
15400000000 -34.60471 -134.41959 -0.74575305 49.065216 -0.75152719 49.046169 -34.277332 -122.20074
15500000000 -34.937607 -133.18071 -0.74917865 47.067345 -0.75633126 47.026424 -34.459438 -123.20675
15600000000 -34.609974 -135.49939 -0.75398105 45.049263 -0.7595734 45.003849 -35.051426 -127.54049
15700000000 -35.534882 -133.75211 -0.75901014 43.029469 -0.75943869 42.994316 -34.711098 -128.95094
15800000000 -36.127052 -138.48346 -0.75986356 41.025043 -0.76253349 40.980633 -34.773659 -132.25911
15900000000 -37.523903 -139.06804 -0.76088989 39.02034 -0.76745945 38.960712 -34.310089 -131.30458
16000000000 -37.346455 -145.41354 -0.76501554 36.994247 -0.76918894 36.954285 -35.072388 -132.04628
16100000000 -38.506207 -153.15656 -0.76750886 34.989212 -0.77355975 34.94611 -35.406124 -132.48274
16200000000 -37.560226 -151.10884 -0.77335685 32.95929 -0.7794233 32.918819 -36.527893 -136.49055
16300000000 -39.795856 -156.2041 -0.77402872 30.93923 -0.77751446 30.944183 -36.34903 -140.52109
16400000000 -40.2798 -154.04784 -0.7817151 28.954138 -0.78151494 28.923649 -37.129765 -145.92386
16500000000 -42.813881 -177.15369 -0.78093886 26.958769 -0.78532737 26.933208 -36.652752 -146.48892
16600000000 -43.766903 -171.89485 -0.78493196 24.966372 -0.78705162 24.912786 -37.65659 -146.41949
16700000000 -42.553413 164.33871 -0.78545737 22.953257 -0.78992063 22.917772 -37.768559 -145.19887
16800000000 -45.563511 178.73198 -0.78739172 20.955772 -0.79455411 20.918324 -39.462006 -151.32761
16900000000 -44.851364 158.21967 -0.79142553 18.941416 -0.79475898 18.911821 -39.586533 -152.14546
17000000000 -54.633003 118.93003 -0.79226613 16.950874 -0.79564774 16.920298 -39.44561 -164.21002
17100000000 -48.286114 112.18586 -0.79270637 14.954358 -0.79918015 14.893752 -39.736195 -160.27203
17200000000 -45.879318 74.720154 -0.79701346 12.966002 -0.80261892 12.9244 -39.544765 -168.28717
17300000000 -46.601906 106.58543 -0.80199581 10.912487 -0.80518812 10.934806 -40.380775 -154.41197
17400000000 -44.966366 73.9403 -0.79926199 8.967495 -0.80482948 8.9399118 -41.747524 -168.57745
17500000000 -49.960178 76.36631 -0.79961395 6.9405088 -0.80688912 6.9149537 -44.42067 -170.2538
17600000000 -43.133862 49.258308 -0.80280137 4.9538608 -0.80866873 4.9142513 -42.537525 166.35071
17700000000 -43.870529 34.625919 -0.80385631 2.966079 -0.80860853 2.9202983 -45.164143 163.44412
17800000000 -40.245434 43.760727 -0.80552435 0.96288645 -0.80713725 0.91630882 -42.161701 160.9818
17900000000 -40.541992 26.377584 -0.80855119 -1.0347404 -0.81166434 -1.1016936 -44.904629 172.6385
18000000000 -40.007523 38.96674 -0.80988479 -3.05089 -0.81629711 -3.097084 -45.362473 167.83545
18100000000 -39.864376 24.840382 -0.81187654 -5.0531139 -0.81145811 -5.0657945 -56.409782 154.50938
18200000000 -39.279198 28.939453 -0.80846417 -7.0391102 -0.81726372 -7.0862188 -51.118122 108.86068
18300000000 -37.432247 21.983868 -0.80856299 -9.0222511 -0.81301796 -9.0738621 -47.07785 69.234947
18400000000 -37.412861 22.562828 -0.81174392 -11.06445 -0.81450498 -11.054646 -44.84679 91.044914
18500000000 -35.890591 18.332569 -0.81047153 -13.052438 -0.81325924 -13.081839 -44.903111 83.965393
18600000000 -35.205921 17.139023 -0.80945653 -15.082328 -0.81257313 -15.096371 -47.508804 92.2994
18700000000 -34.583942 12.886693 -0.80952013 -17.035721 -0.81463331 -17.064188 -48.365612 47.484314
18800000000 -34.631386 11.563631 -0.80676568 -19.064735 -0.81068772 -19.09708 -44.767212 26.584238
18900000000 -33.613564 8.2964029 -0.8053115 -21.055866 -0.80962932 -21.09276 -40.211502 22.001051
19000000000 -33.566208 9.8780556 -0.80833942 -23.045736 -0.8069452 -23.051544 -38.924877 31.208712
19100000000 -32.365738 6.9069023 -0.80216646 -25.067986 -0.8089332 -25.066694 -38.727772 31.569595
19200000000 -32.767246 6.5716887 -0.80890918 -27.078791 -0.8121081 -27.09203 -39.022953 39.046135
19300000000 -31.909294 4.0887218 -0.80487967 -29.079384 -0.81104219 -29.103651 -39.396095 24.220913
19400000000 -32.469452 0.54945976 -0.80663818 -31.109146 -0.81057978 -31.139761 -39.450089 20.913025
19500000000 -31.343822 1.5569776 -0.80245882 -33.10326 -0.80527413 -33.131283 -37.54245 10.761649
19600000000 -31.61396 -3.3619282 -0.80036676 -35.142612 -0.80580825 -35.161526 -37.228168 13.239067
19700000000 -30.563559 1.1637423 -0.8047058 -37.100121 -0.80505788 -37.165207 -35.448807 11.637509
19800000000 -30.742661 -4.8525939 -0.79861355 -39.15789 -0.80474818 -39.199303 -36.39444 13.817626
19900000000 -30.53866 0.86711061 -0.80007112 -41.147839 -0.8026647 -41.203045 -34.925533 9.9355164
20000000000 -30.47094 -8.8347778 -0.8021487 -43.176056 -0.80413043 -43.239769 -35.729206 6.7274027
20100000000 -30.5602 -5.0910907 -0.80027276 -45.221756 -0.80448836 -45.25806 -33.796055 5.8515162
20200000000 -29.397848 -11.209323 -0.80276275 -47.260017 -0.80745524 -47.264679 -34.187218 0.95851696
20300000000 -29.790329 -9.1562748 -0.80412418 -49.277855 -0.80550534 -49.311623 -32.564247 5.2649708
20400000000 -28.534752 -12.329165 -0.80398309 -51.295372 -0.80777633 -51.330902 -33.436573 0.80321664
20500000000 -29.50061 -14.806154 -0.80964893 -53.300056 -0.81784618 -53.343864 -32.688683 -0.11687963
20600000000 -28.508444 -15.818104 -0.82183957 -55.370499 -0.81770527 -55.363457 -32.671364 -11.567377
20700000000 -29.091215 -23.717339 -0.82252181 -57.293419 -0.82559216 -57.370995 -31.397652 -11.974442
20800000000 -28.470024 -22.418179 -0.82497925 -59.246181 -0.82845628 -59.320274 -30.839586 -19.325573
20900000000 -28.764709 -28.034817 -0.81084841 -61.231293 -0.81730998 -61.259502 -30.368267 -13.20114
21000000000 -28.597321 -23.591995 -0.80867654 -63.218143 -0.80925626 -63.292255 -30.642015 -15.055015
21100000000 -28.133728 -26.727259 -0.8079946 -65.250984 -0.81008381 -65.342293 -30.619093 -11.936184
21200000000 -28.321661 -26.417671 -0.8053059 -67.331429 -0.80809122 -67.388306 -30.986231 -19.332579
21300000000 -28.123558 -29.686411 -0.8056758 -69.355728 -0.81242394 -69.395515 -30.880924 -21.040535
21400000000 -28.385286 -30.615801 -0.80909193 -71.390083 -0.81630272 -71.445007 -29.890982 -26.147488
21500000000 -27.948715 -34.68644 -0.81492126 -73.416756 -0.81585228 -73.456833 -29.271334 -28.335684
21600000000 -28.064001 -35.456066 -0.81493497 -75.419601 -0.82204163 -75.447128 -28.787472 -29.762161
21700000000 -27.844467 -37.019588 -0.81747717 -77.384911 -0.81905854 -77.450264 -28.743898 -27.08013
21800000000 -27.81498 -37.251804 -0.81303823 -79.379364 -0.8161512 -79.455589 -29.10582 -29.383318
21900000000 -27.898659 -38.082573 -0.81063843 -81.405365 -0.81436884 -81.460884 -29.329626 -27.790232
22000000000 -28.189247 -38.074512 -0.8171947 -83.481239 -0.81788433 -83.536842 -29.479986 -35.701012
22100000000 -28.008549 -41.615761 -0.82068151 -85.480331 -0.82462835 -85.534462 -28.968151 -38.156883
22200000000 -28.299587 -42.241291 -0.82350457 -87.527145 -0.82870287 -87.561081 -28.466553 -43.847252
22300000000 -27.814833 -46.077892 -0.82516015 -89.504593 -0.82383186 -89.575081 -28.187498 -42.541103
22400000000 -28.671314 -43.858643 -0.82425088 -91.457733 -0.82691377 -91.510094 -27.956648 -45.452221
22500000000 -28.194126 -45.559532 -0.81828529 -93.461372 -0.82287192 -93.534569 -28.383883 -42.520435
22600000000 -29.331381 -47.27396 -0.81767088 -95.522423 -0.82122248 -95.55365 -28.474524 -47.186386
22700000000 -28.525101 -46.680332 -0.82279116 -97.54335 -0.82444215 -97.599228 -28.815367 -47.848919
22800000000 -29.218702 -52.604603 -0.82086289 -99.559464 -0.82196814 -99.617172 -28.246317 -54.684963
22900000000 -28.637188 -47.550171 -0.81654298 -101.58219 -0.8277753 -101.65111 -28.197475 -54.228474
23000000000 -28.796675 -54.1133 -0.829431 -103.67581 -0.82880747 -103.67525 -27.481455 -57.908905
23100000000 -28.906969 -48.785091 -0.81806117 -105.66628 -0.82208449 -105.69787 -28.024632 -55.645184
23200000000 -28.857594 -56.232777 -0.83060676 -107.6533 -0.82885289 -107.71142 -27.759197 -59.787884
23300000000 -29.854208 -52.019619 -0.82634324 -109.67207 -0.82928813 -109.70374 -28.584797 -63.154724
23400000000 -29.061272 -59.076321 -0.83193713 -111.68395 -0.83761734 -111.73107 -27.567905 -68.352676
23500000000 -30.368423 -60.117428 -0.8375169 -113.74402 -0.8381592 -113.77187 -27.81316 -72.74369
23600000000 -28.985502 -60.443623 -0.83471918 -115.73873 -0.84388059 -115.78691 -26.915236 -70.598434
23700000000 -30.426702 -65.064659 -0.83500248 -117.72948 -0.8435244 -117.76598 -27.635889 -70.827278
23800000000 -29.798185 -60.613266 -0.83890963 -119.75334 -0.841223 -119.81324 -27.831171 -70.595589
23900000000 -30.456135 -71.134926 -0.84002739 -121.7365 -0.84784353 -121.81519 -28.872192 -75.880791
24000000000 -31.23588 -63.03548 -0.85301656 -123.79942 -0.8498283 -123.82661 -28.608803 -83.31575
24100000000 -30.977264 -74.355179 -0.85080713 -125.80323 -0.85137677 -125.83347 -28.39221 -92.462563
24200000000 -31.855318 -67.730347 -0.85157204 -127.81147 -0.85111982 -127.84184 -27.660952 -89.850975
24300000000 -31.051182 -76.065689 -0.84710979 -129.85039 -0.85313755 -129.86609 -27.109047 -91.994438
24400000000 -32.629177 -71.947739 -0.85355216 -131.84116 -0.85448903 -131.86945 -27.729719 -86.514328
24500000000 -32.179005 -74.280609 -0.85213202 -133.82979 -0.85589761 -133.89217 -28.879128 -91.12648
24600000000 -34.475357 -75.956619 -0.8565411 -135.8116 -0.86096603 -135.88583 -29.737984 -92.210342
24700000000 -34.370296 -75.117256 -0.85753912 -137.8667 -0.86173302 -137.89871 -30.083496 -106.39725
24800000000 -36.370575 -88.090103 -0.85767472 -139.85445 -0.86168629 -139.96404 -29.772467 -109.82098
24900000000 -36.181896 -79.378021 -0.86074919 -141.88403 -0.86431473 -141.94415 -28.881212 -115.15955
25000000000 -36.806976 -82.973785 -0.85436988 -143.91769 -0.86310959 -143.95421 -29.042393 -109.8159
25100000000 -37.687111 -77.657341 -0.85700685 -145.92361 -0.86744761 -145.94151 -29.872993 -112.65752
25200000000 -40.329014 -71.830925 -0.85637307 -147.89113 -0.86364645 -147.98036 -30.868328 -110.21497
25300000000 -42.657112 -63.681965 -0.86087132 -149.91463 -0.8698433 -149.99593 -31.685913 -123.33945
25400000000 -47.367046 -54.390877 -0.86036861 -151.9174 -0.87295932 -151.95619 -31.964682 -126.65994
25500000000 -50.63047 -46.571785 -0.86767364 -153.9648 -0.87310964 -153.97533 -32.042507 -137.77322
25600000000 -54.836666 36.964878 -0.86488962 -156.00113 -0.8767997 -156.00592 -31.890083 -136.9236
25700000000 -49.551743 0.6845929 -0.87570131 -158.00932 -0.8674739 -158.05035 -32.416149 -140.48251
25800000000 -48.409851 60.291172 -0.86973959 -160.05051 -0.87438786 -160.05206 -33.588268 -142.35284
25900000000 -40.976845 28.014112 -0.86309129 -162.02097 -0.86994106 -162.09897 -33.88168 -149.73274
26000000000 -40.548294 60.090115 -0.87068242 -164.05421 -0.8742435 -164.03568 -35.489155 -159.83315
26100000000 -35.86261 42.892101 -0.87550843 -166.0461 -0.87705094 -166.03783 -34.370338 -169.17671
26200000000 -38.047379 55.892029 -0.8717609 -168.07425 -0.87700784 -168.08864 -35.729935 -179.95511
26300000000 -33.658501 53.420475 -0.87951118 -170.05682 -0.88509971 -170.10149 -34.136997 177.9612
26400000000 -36.079163 50.575127 -0.87866902 -172.11929 -0.88255161 -172.12979 -37.378281 166.26068
26500000000 -32.131428 57.687122 -0.87706518 -174.05217 -0.88105857 -174.16602 -35.115017 161.64891
26600000000 -33.246338 41.324207 -0.87730592 -176.15318 -0.88211614 -176.18881 -36.376644 146.00304
26700000000 -30.959335 57.783394 -0.88671005 -178.16606 -0.8874858 -178.12828 -34.236771 146.75792
26800000000 -31.019646 41.426682 -0.87285864 179.76591 -0.88663262 179.85886 -34.644428 123.22309
26900000000 -29.847889 56.340042 -0.89105904 177.78786 -0.89776403 177.7762 -34.123985 138.23335
27000000000 -28.937506 39.494141 -0.88898712 175.80931 -0.87585264 175.70746 -32.641094 111.73666
27100000000 -29.765718 49.429077 -0.89778471 173.73723 -0.89584285 173.76781 -34.025578 115.33784
27200000000 -27.395559 42.394855 -0.88850111 171.75078 -0.91076803 171.6963 -32.408596 96.872253
27300000000 -28.573996 44.159348 -0.89401382 169.7054 -0.89772391 169.82982 -33.782875 100.53352
27400000000 -26.528727 42.084568 -0.9095847 167.60481 -0.8893407 167.71635 -30.833031 85.854401
27500000000 -27.691231 36.210789 -0.90086442 165.69209 -0.90603155 165.73428 -31.587576 85.316376
27600000000 -26.052673 36.736908 -0.92100942 163.74879 -0.91696602 163.6944 -29.630045 80.229424
27700000000 -26.638229 29.061216 -0.90991092 161.80354 -0.90417808 161.6731 -31.256659 76.494614
27800000000 -25.10821 34.083309 -0.90417969 159.78323 -0.92090666 159.80789 -28.936197 76.866585
27900000000 -25.038574 28.901655 -0.92270839 157.68185 -0.92831856 157.69614 -30.045624 67.792671
28000000000 -24.927805 36.592903 -0.92022002 155.5746 -0.92058384 155.62282 -28.233639 64.658867
28100000000 -24.725231 27.32147 -0.8910988 153.69789 -0.92370218 153.51408 -28.572178 54.768513
28200000000 -24.382883 29.768902 -0.93499237 151.6765 -0.93164617 151.4715 -26.911863 55.527096
28300000000 -23.62396 22.451384 -0.93087441 149.53957 -0.91845328 149.69487 -27.372244 48.857903
28400000000 -23.505972 22.639223 -0.93063831 147.6324 -0.92724866 147.52142 -26.36298 50.368614
28500000000 -22.837627 19.870081 -0.94280493 145.64017 -0.92582887 145.54939 -26.038612 42.145874
28600000000 -22.751207 20.876419 -0.9317289 143.6748 -0.95672899 143.73152 -25.340761 39.637184
28700000000 -22.657587 17.700994 -0.92772204 141.7869 -0.93956804 141.65088 -24.892834 36.322609
28800000000 -22.876717 19.652451 -0.92715991 139.6828 -0.96069109 139.62515 -25.167606 40.970039
28900000000 -21.982641 15.126853 -0.94144279 137.65054 -0.93651086 137.5079 -24.83602 34.240032
29000000000 -22.262026 13.631725 -0.91825467 135.63112 -0.95181453 135.53116 -24.549227 28.912451
29100000000 -21.598806 12.098398 -0.95202726 133.52983 -0.93830842 133.54506 -24.342373 22.809563
29200000000 -22.046856 11.532585 -0.94404918 131.71257 -0.94359297 131.48215 -23.626583 25.491808
29300000000 -21.171677 10.828467 -0.93593413 129.65414 -0.95464385 129.54741 -22.885124 20.343737
29400000000 -21.883787 8.5086117 -0.9583984 127.60059 -0.95585406 127.73059 -22.622818 25.73657
29500000000 -21.077559 8.4066143 -0.94773114 125.71862 -0.95068604 125.60291 -22.714062 20.935987
29600000000 -21.741608 1.6184435 -0.95216066 123.52344 -0.94953012 123.55019 -23.250422 19.239235
29700000000 -21.102745 6.8383679 -0.93135202 121.54079 -0.94883245 121.4653 -22.927103 10.448379
29800000000 -21.110323 -0.56113195 -0.92823744 119.61294 -0.9577145 119.4172 -22.862238 10.251202
29900000000 -20.963636 5.0102081 -0.94780648 117.6934 -0.95956635 117.48367 -21.901657 5.0133901
30000000000 -20.73292 0.6572156 -0.94385064 115.53072 -0.95310324 115.4143 -21.813284 7.8771334
30100000000 -21.217623 3.9813843 -0.96220076 113.58643 -0.94294775 113.44157 -21.112711 4.7957349
30200000000 -20.355135 -3.5228329 -0.96288186 111.69267 -0.96491569 111.57551 -21.757153 6.5189176
30300000000 -21.082148 -3.0933175 -0.95589954 109.56465 -0.97283798 109.51052 -21.255438 1.116928
30400000000 -19.918669 -6.0065579 -0.96859014 107.5907 -0.96093875 107.40303 -22.16046 -1.2910308
30500000000 -21.013834 -9.6077843 -0.96182185 105.56894 -0.9461289 105.39091 -21.042479 -7.4830847
30600000000 -20.010807 -6.4173546 -0.97504854 103.46769 -0.95778257 103.35013 -21.424555 -9.1283054
30700000000 -20.622105 -11.185938 -0.96840543 101.57872 -0.98434258 101.32108 -20.217939 -10.607405
30800000000 -20.40451 -9.941164 -0.95381707 99.582817 -0.96626067 99.415306 -21.042442 -10.976774
30900000000 -20.226259 -15.817521 -0.97031009 97.408508 -0.9652276 97.529343 -20.003723 -13.687665
31000000000 -19.993052 -12.965032 -0.99049175 95.511246 -0.9873842 95.407928 -20.77669 -17.923374
31100000000 -20.048096 -18.904766 -0.95789331 93.578972 -1.0097772 93.29966 -20.823109 -18.981564
31200000000 -20.205284 -16.653736 -0.96141714 91.587723 -0.98880804 91.389122 -20.267422 -25.481085
31300000000 -20.026211 -19.413176 -0.97565544 89.614044 -0.99058998 89.425423 -20.288572 -25.214357
31400000000 -20.099848 -19.432861 -0.95695651 87.528999 -0.98336625 87.46933 -20.217522 -27.121561
31500000000 -20.06572 -20.525745 -0.9956488 85.444366 -0.98519176 85.399567 -19.880432 -24.241932
31600000000 -20.537159 -23.173119 -0.98303705 83.422272 -1.01568 83.326935 -20.474264 -29.721739
31700000000 -20.257568 -23.538595 -0.98497611 81.522499 -0.98789638 81.490288 -20.520039 -30.195236
31800000000 -20.651522 -24.325817 -0.97404546 79.355759 -0.97386956 79.322601 -20.661251 -36.09256
31900000000 -20.175083 -25.512144 -0.96616298 77.424026 -0.98579067 77.373703 -20.039841 -36.697716
32000000000 -20.268881 -24.729548 -0.97768456 75.386406 -0.97529805 75.502609 -20.143642 -40.335217
32100000000 -20.239866 -29.821836 -0.9686594 73.419258 -0.95518184 73.44796 -19.850588 -39.554276
32200000000 -20.831533 -28.086205 -0.9625271 71.509689 -0.99680763 71.363777 -20.396593 -43.18573
32300000000 -20.832586 -30.110603 -0.98124754 69.368385 -1.0027039 69.376221 -20.547333 -42.799641
32400000000 -21.583025 -33.583374 -0.97260064 67.451714 -0.98057461 67.367195 -20.919111 -48.017933
32500000000 -20.942993 -34.849907 -0.97009969 65.385727 -0.98213214 65.279228 -20.767611 -50.267612
32600000000 -21.512985 -39.088604 -0.96660441 63.496395 -0.9762615 63.322987 -20.515587 -55.780891
32700000000 -21.151398 -30.967077 -0.97341579 61.45311 -0.98134619 61.178482 -20.006294 -54.225227
32800000000 -21.81464 -39.212521 -0.96486038 59.398373 -0.96606731 59.399765 -19.78079 -56.80024
32900000000 -21.927675 -31.802006 -0.98999035 57.184578 -0.98775303 57.38755 -20.6751 -54.085567
33000000000 -21.800259 -40.885918 -0.96336108 55.501617 -0.99318147 55.291138 -20.897591 -60.18058
33100000000 -22.539843 -37.118889 -0.98873651 53.329788 -0.96724606 53.187454 -21.161154 -61.499817
33200000000 -22.15122 -41.505981 -0.94422221 51.299805 -1.0037396 51.160599 -20.917538 -70.452782
33300000000 -23.356346 -37.501587 -0.97676033 49.276062 -0.99211437 49.115974 -21.803518 -70.531548
33400000000 -22.424932 -40.688156 -0.99015975 47.273525 -0.95802563 47.142048 -20.738617 -71.631805
33500000000 -23.721827 -40.199604 -0.98461694 45.224976 -0.96623898 45.286018 -21.487013 -72.591171
33600000000 -23.110359 -37.875782 -0.95304781 43.223396 -0.99701601 43.209366 -21.527014 -73.931427
33700000000 -24.564447 -40.86327 -1.0032073 41.188881 -1.0014828 41.161205 -22.363062 -76.686783
33800000000 -23.342615 -34.388882 -1.0148236 39.568348 -0.98586863 39.06366 -22.295206 -81.184593
33900000000 -23.978031 -41.82003 -0.97621679 37.316753 -0.98698264 37.043026 -22.646507 -83.756523
34000000000 -24.065805 -34.28141 -0.9716723 35.293159 -0.98412144 35.175411 -22.606604 -86.61145
34100000000 -24.96163 -41.167091 -0.95993966 33.165112 -0.96563822 33.022686 -22.979273 -87.556602
34200000000 -25.504187 -30.670504 -1.0049398 31.184599 -0.98312992 30.950804 -24.08918 -89.86985
34300000000 -25.506033 -36.746647 -0.96668041 29.159805 -0.95369518 29.165312 -24.398884 -95.499176
34400000000 -25.744013 -31.271315 -0.97232246 27.001961 -0.99622929 26.998335 -24.705879 -98.730278
34500000000 -26.028944 -33.141525 -0.99017537 24.788872 -0.98237199 25.019487 -25.517258 -99.788887
34600000000 -26.217651 -28.287663 -0.9996472 22.993307 -0.99836576 22.773962 -24.487051 -100.70336
34700000000 -25.958998 -23.829269 -0.98546785 20.866117 -0.99947387 20.966434 -25.115015 -103.92767
34800000000 -26.258944 -19.914162 -0.98576111 19.125137 -0.97152531 18.739973 -26.553591 -100.60711
34900000000 -27.055271 -18.529716 -0.98781121 16.969429 -0.99606264 16.733503 -28.316418 -115.80191
35000000000 -26.448093 -18.852764 -0.96978122 14.924251 -0.98573387 14.935076 -28.429998 -124.40028
35100000000 -27.346298 -15.364493 -0.98311919 12.873557 -0.96292937 12.854953 -27.240887 -131.78296
35200000000 -27.59873 -7.9818139 -0.9815613 10.934964 -0.96649575 10.702129 -27.870472 -133.757
35300000000 -27.039116 -10.554334 -0.99596006 8.6660891 -1.0065339 8.5574589 -29.189491 -134.6571
35400000000 -26.867704 3.6072206 -0.98628414 6.8010216 -0.98961258 6.4338646 -29.91324 -131.04565
35500000000 -25.859219 -2.1526418 -1.0165854 4.7137675 -1.0138462 4.7458858 -30.568321 -140.99536
35600000000 -26.724571 9.6266699 -1.0084808 2.7689528 -1.0132591 2.7063463 -33.214172 -154.10246
35700000000 -25.050659 3.4508762 -1.0263849 0.52767223 -0.99959475 0.46579894 -33.43922 -165.86035
35800000000 -26.414576 8.9651537 -1.0130603 -1.2591701 -0.99649727 -1.2470587 -32.62999 -173.70447
35900000000 -24.261509 10.123495 -1.032091 -3.5770659 -1.0318851 -3.4842825 -32.387333 166.31783
36000000000 -25.451393 5.5876837 -1.0163015 -5.4160743 -1.0649992 -5.2724876 -35.467117 160.31519
36100000000 -23.200195 16.577581 -1.0082669 -7.2668161 -1.0619982 -7.592669 -34.845764 132.67992
36200000000 -24.740702 9.198575 -1.0466852 -9.1246824 -1.0519989 -9.5972137 -33.962852 137.94356
36300000000 -23.289324 18.327291 -1.0179517 -11.299562 -1.0422497 -11.365384 -31.44577 113.95519
36400000000 -24.202143 9.0911322 -0.99173278 -13.432173 -1.0376352 -13.438725 -31.912849 103.9716
36500000000 -22.968489 18.800083 -1.07542 -15.483431 -1.0375699 -15.47969 -30.094847 102.29922
36600000000 -22.052359 8.4572582 -1.0181154 -17.483322 -1.021615 -17.256811 -29.581514 67.643951
36700000000 -22.31706 25.258373 -1.030264 -19.514427 -1.0269784 -19.340319 -29.387833 81.388496
36800000000 -20.787273 10.76494 -0.99330246 -21.231894 -1.0158242 -21.502972 -26.238012 65.962112
36900000000 -22.403618 20.56086 -1.0387048 -23.635086 -1.0431261 -23.609623 -25.120144 80.047859
37000000000 -20.476711 12.473518 -1.0115001 -25.662136 -1.0816834 -25.74509 -25.296644 77.443672
37100000000 -21.438604 16.934347 -1.0735372 -27.630939 -1.0736884 -27.669722 -25.192551 73.872871
37200000000 -19.824551 13.653194 -1.0625288 -30.046497 -1.0430616 -29.83942 -25.493208 52.810883
37300000000 -20.128435 16.751091 -1.0685562 -31.996206 -1.0302755 -31.888418 -24.609241 49.125256
37400000000 -19.018305 18.467085 -1.0394301 -33.674263 -1.0623018 -33.713524 -22.586773 48.477795
37500000000 -19.684416 13.19373 -1.0571859 -36.140404 -1.0572163 -35.901211 -22.096815 44.650616
37600000000 -19.026014 13.073156 -1.0647653 -37.716129 -1.03211 -37.778862 -21.129606 50.556393
37700000000 -18.845139 8.1892452 -1.1016963 -40.069016 -1.0512027 -40.035282 -21.58762 47.088795
37800000000 -18.132048 12.815694 -1.1325269 -41.785286 -1.0717866 -41.717754 -21.270731 45.969845
37900000000 -17.794081 10.777308 -1.0594672 -43.725765 -1.1046137 -44.028862 -21.785833 38.725937
38000000000 -17.65958 11.754239 -1.0676461 -45.643745 -1.0842594 -45.933548 -20.62575 32.123501
38100000000 -18.035568 11.549035 -1.1162853 -47.720207 -1.0966767 -48.054867 -19.472843 30.859911
38200000000 -17.331316 8.7171698 -1.1544968 -49.917362 -1.086642 -50.013424 -19.093836 31.64852
38300000000 -17.569654 5.1286826 -1.1703545 -51.974346 -1.0615474 -52.05085 -18.876526 32.745575
38400000000 -16.830961 7.3588576 -1.0935712 -54.013325 -1.1155583 -53.567482 -19.064108 30.302902
38500000000 -17.484877 1.4258064 -1.130365 -55.904572 -1.1522126 -55.838928 -19.0483 27.541565
38600000000 -16.490019 7.4183693 -1.134233 -57.807442 -1.1176716 -57.845768 -18.623646 19.749708
38700000000 -16.168028 1.5503687 -1.1471881 -59.827343 -1.1733991 -59.864716 -18.511084 16.376657
38800000000 -16.380024 6.4639606 -1.1175668 -61.751175 -1.1366278 -61.936081 -17.452587 15.111007
38900000000 -16.231245 -2.3889749 -1.1217458 -63.822403 -1.1566349 -63.479736 -18.191626 17.273514
39000000000 -16.619411 2.7414629 -1.1460969 -65.577003 -1.1729063 -65.889359 -17.23106 18.223862
39100000000 -15.006042 -3.7795868 -1.178614 -67.679802 -1.1072423 -68.063911 -17.902491 9.7312698
39200000000 -16.37466 -0.77983797 -1.177385 -69.541092 -1.2010473 -69.791534 -17.053829 7.0149884
39300000000 -14.949944 -4.2161565 -1.1161079 -71.96608 -1.1908332 -72.049843 -16.748854 1.0261223
39400000000 -16.23562 -4.6536989 -1.1526778 -73.806625 -1.1722518 -73.836777 -15.772143 4.9686651
39500000000 -15.385525 -0.86236304 -1.1381525 -75.596016 -1.1865968 -75.941086 -16.617491 3.4259813
39600000000 -16.030285 -10.929071 -1.1799093 -77.715706 -1.184396 -77.833839 -15.938706 4.7162385
39700000000 -15.202779 -7.2615705 -1.2230736 -79.576996 -1.1915562 -80.044746 -17.078083 -0.97786689
39800000000 -15.144759 -15.082504 -1.1707114 -81.439362 -1.1634318 -81.807739 -16.221077 -2.5736229
39900000000 -15.717923 -7.335268 -1.1838666 -83.583855 -1.1578811 -83.889969 -16.304718 -12.558845
40000000000 -14.806417 -14.057423 -1.1649022 -85.457535 -1.1767068 -85.783005 -15.704191 -10.401383
40100000000 -15.796765 -9.5249367 -1.1751777 -88.073509 -1.1670845 -87.786293 -15.116974 -13.089206
40200000000 -14.749537 -16.733982 -1.2053399 -89.272713 -1.1697143 -89.626053 -15.194466 -9.3838434
40300000000 -15.923981 -19.211061 -1.1712015 -91.854904 -1.1799878 -91.623817 -15.223126 -13.020059
40400000000 -14.590191 -18.38047 -1.1745297 -93.543121 -1.1735649 -94.033203 -16.268021 -15.471521
40500000000 -15.227313 -22.084688 -1.1825987 -95.606461 -1.1931552 -95.419777 -15.469877 -20.103464
40600000000 -14.835693 -18.740414 -1.1331055 -97.472466 -1.1827928 -97.603073 -15.344031 -23.926847
40700000000 -15.141825 -21.158014 -1.1889325 -99.863808 -1.1708256 -99.868721 -14.969966 -25.652168
40800000000 -15.305202 -21.314096 -1.1768345 -101.49403 -1.1549598 -101.77036 -14.831442 -26.051783
40900000000 -14.764592 -24.540758 -1.1938224 -103.45384 -1.1613877 -103.55618 -15.06332 -26.469166
41000000000 -15.057426 -26.669874 -1.1286154 -105.29628 -1.1943561 -105.97847 -15.273979 -28.763666
41100000000 -15.000319 -26.388632 -1.1383157 -107.51632 -1.1926636 -107.62875 -15.482744 -32.667419
41200000000 -15.21557 -27.733126 -1.1695849 -109.52945 -1.2073555 -109.29146 -15.85752 -33.654495
41300000000 -15.353865 -24.075293 -1.1754528 -111.69041 -1.2038399 -111.64932 -15.448533 -35.280415
41400000000 -15.008554 -29.199701 -1.1904172 -113.93943 -1.1989958 -114.02514 -15.246601 -37.303566
41500000000 -15.200628 -28.808809 -1.2168665 -115.38822 -1.1768613 -115.79171 -14.890537 -41.11977
41600000000 -15.045733 -30.419914 -1.2391313 -117.23841 -1.2042228 -117.52831 -15.304831 -40.061199
41700000000 -15.784737 -33.485764 -1.2216333 -119.51846 -1.2469451 -119.35384 -15.21079 -46.523613
41800000000 -15.091913 -32.512836 -1.2098656 -121.6543 -1.1683269 -121.70259 -15.633415 -44.788979
41900000000 -15.584793 -37.422867 -1.1776481 -123.76027 -1.188259 -123.53255 -15.750393 -49.296543
42000000000 -15.467022 -28.798141 -1.15606 -125.47532 -1.1363618 -125.69237 -15.664706 -50.759426
42100000000 -15.364018 -37.002728 -1.2024275 -127.28725 -1.171669 -127.83073 -15.329066 -52.096661
42200000000 -15.956235 -33.687965 -1.189486 -129.3743 -1.1842536 -129.31058 -15.500942 -54.583488
42300000000 -15.663558 -38.162338 -1.1824362 -131.42041 -1.1926305 -131.53067 -15.054935 -55.700356
42400000000 -16.491108 -35.003712 -1.1403244 -133.65027 -1.143701 -133.78471 -15.79643 -58.475735
42500000000 -15.431804 -37.78738 -1.2143962 -135.55568 -1.163713 -135.71844 -16.240007 -63.615692
42600000000 -16.806261 -41.545094 -1.0990462 -137.01993 -1.2067287 -138.02773 -16.728891 -66.652489
42700000000 -15.857932 -40.320969 -1.1746212 -139.64917 -1.1280944 -139.14145 -15.378585 -65.982605
42800000000 -16.934135 -41.957722 -1.1848642 -141.27176 -1.1256819 -141.52344 -16.316708 -72.835831
42900000000 -17.525951 -36.482006 -1.2220126 -143.76799 -1.1905506 -143.21489 -16.335361 -67.211258
43000000000 -17.293285 -47.539425 -1.1134765 -145.27417 -1.1633337 -145.22847 -16.271212 -71.556641
43100000000 -18.117641 -39.104725 -1.1325104 -147.80614 -1.1767774 -147.64745 -17.420866 -72.13237
43200000000 -17.169498 -42.200718 -1.1369772 -149.4026 -1.1245905 -150.06009 -18.175621 -84.087891
43300000000 -18.56753 -37.376869 -1.1702101 -151.87288 -1.093187 -150.91393 -17.894533 -79.649033
43400000000 -17.330221 -41.286896 -1.1040848 -153.60634 -1.1422948 -153.52638 -17.112474 -87.49514
43500000000 -19.056761 -42.541801 -1.0415719 -155.8139 -1.1572067 -155.88518 -18.279114 -90.199455
43600000000 -18.764265 -36.179131 -1.0735343 -157.51596 -1.0785501 -158.18297 -17.502653 -87.774834
43700000000 -19.133842 -47.295292 -1.1420991 -160.37199 -1.1335984 -160.31149 -18.594067 -85.139893
43800000000 -18.671913 -36.688492 -1.1761899 -162.28558 -1.0638667 -162.08339 -19.353376 -90.757393
43900000000 -19.502211 -47.407768 -1.0966024 -164.34035 -1.139424 -163.79893 -20.75766 -93.854469
44000000000 -19.943525 -30.191086 -1.06481 -166.24483 -1.0117818 -166.41719 -19.929289 -101.99268
44100000000 -19.913769 -45.019176 -1.0792158 -167.91705 -1.0848175 -168.12411 -20.154388 -108.12392
44200000000 -21.315443 -31.630165 -1.1977193 -170.54028 -1.1606647 -170.49727 -19.770815 -102.47737
44300000000 -18.878544 -34.72963 -1.1095531 -172.38014 -1.1215386 -172.50455 -21.819122 -103.76282
44400000000 -21.695866 -35.401409 -1.173396 -174.35571 -1.1239336 -174.45016 -21.937653 -102.06818
44500000000 -20.222376 -26.192806 -1.1573935 -176.34663 -1.1205391 -176.30794 -24.265873 -116.5479
44600000000 -20.194897 -31.763123 -1.1576703 -178.45488 -1.1207411 -178.22618 -25.127071 -122.91866
44700000000 -21.032455 -20.526953 -1.0563575 179.55481 -1.0775335 179.52094 -24.291525 -123.39103
44800000000 -20.238745 -27.452366 -1.1151497 177.19772 -1.1500454 176.92661 -24.758379 -119.43173
44900000000 -20.093622 -15.615872 -1.1465306 174.87227 -1.2022862 175.26962 -26.820166 -140.88391
45000000000 -20.711697 -24.4657 -1.1311647 173.65799 -1.1810708 173.00249 -29.701403 -138.42703
