!Keysight Technologies,N5247B,MY61255062,A.19.80.06
!Date: Monday, May 18, 2026 12:13:01
!Correction: S11(Cdelta 2-Port  ) 
!S21(Cdelta 2-Port  ) 
!S12(Cdelta 2-Port  ) 
!S22(Cdelta 2-Port  ) 
!S2P File: Measurements: S11, S21, S12, S22:
# Hz S  dB   R 50
1000000000 -26.591846 -14.033806 -0.41785002 -21.053442 -0.41621011 -21.054699 -26.947487 -15.656788
1100000000 -26.560579 -16.763121 -0.42933229 -23.097157 -0.42908654 -23.09824 -27.046297 -17.949417
1200000000 -26.46509 -18.494192 -0.4373838 -25.102829 -0.43763402 -25.111761 -27.001518 -18.651201
1300000000 -26.413315 -20.849504 -0.44459078 -27.168959 -0.44431549 -27.170765 -26.915768 -21.478783
1400000000 -26.307226 -22.306152 -0.44824454 -29.142071 -0.44889954 -29.156849 -26.800188 -22.090338
1500000000 -26.203976 -24.71785 -0.45135131 -31.184492 -0.45116922 -31.190212 -26.615458 -24.305105
1600000000 -26.159758 -26.669422 -0.45543823 -33.244743 -0.45575246 -33.248299 -26.537361 -27.06316
1700000000 -26.051998 -29.079449 -0.45799899 -35.265827 -0.45833585 -35.270473 -26.451874 -29.128483
1800000000 -25.965137 -31.732735 -0.46147606 -37.307743 -0.46228883 -37.316055 -26.360493 -31.596281
1900000000 -25.880955 -34.110329 -0.46391654 -39.360115 -0.46327597 -39.374405 -26.268114 -34.277748
2000000000 -25.877171 -36.60638 -0.46894607 -41.42889 -0.47005472 -41.436268 -26.256321 -37.03817
2100000000 -25.78618 -38.999992 -0.47419336 -43.463074 -0.47173873 -43.461285 -26.219595 -38.79763
2200000000 -25.791893 -41.35408 -0.47628826 -45.503956 -0.47661123 -45.516171 -26.147896 -41.678604
2300000000 -25.796593 -43.996952 -0.48045221 -47.558132 -0.48111787 -47.566257 -26.107077 -43.984226
2400000000 -25.808163 -46.383068 -0.48756281 -49.608425 -0.48716661 -49.595638 -26.161861 -46.578911
2500000000 -25.788935 -48.737038 -0.49210256 -51.643803 -0.49532938 -51.647137 -26.115633 -49.20726
2600000000 -25.876888 -51.196877 -0.49874443 -53.676266 -0.50088578 -53.681076 -26.139954 -51.652557
2700000000 -25.832317 -53.348679 -0.50231385 -55.701374 -0.50574487 -55.717537 -26.19404 -54.297012
2800000000 -25.956377 -55.967476 -0.50946069 -57.747986 -0.50909537 -57.742142 -26.186346 -56.648754
2900000000 -26.01297 -58.084908 -0.51447183 -59.769611 -0.51484025 -59.775513 -26.199911 -59.058842
3000000000 -26.0481 -60.533215 -0.52028012 -61.795364 -0.52073509 -61.801472 -26.325909 -61.163246
3100000000 -26.099545 -62.802284 -0.52150327 -63.823147 -0.52239859 -63.831833 -26.399073 -63.214699
3200000000 -26.10166 -65.428391 -0.52613801 -65.841118 -0.52744287 -65.847237 -26.426077 -65.591499
3300000000 -26.147324 -67.49189 -0.52990925 -67.857491 -0.52954841 -67.88678 -26.456207 -68.04364
3400000000 -26.221992 -69.776459 -0.53347927 -69.893105 -0.53423619 -69.90934 -26.479435 -69.849442
3500000000 -26.297825 -72.113731 -0.53639221 -71.92524 -0.53814346 -71.919746 -26.513428 -71.820457
3600000000 -26.331802 -74.230225 -0.53825718 -73.960373 -0.54065645 -73.958572 -26.558449 -73.765343
3700000000 -26.489908 -76.426651 -0.54182726 -75.976433 -0.54146391 -75.972031 -26.570704 -75.821815
3800000000 -26.491076 -78.294708 -0.54427665 -78.010811 -0.54373413 -78.014503 -26.664038 -77.920975
3900000000 -26.592024 -80.807083 -0.54435939 -80.046761 -0.54722476 -80.057724 -26.683649 -80.403076
4000000000 -26.653156 -82.474724 -0.5495441 -82.088844 -0.55024689 -82.096893 -26.759472 -82.34565
4100000000 -26.770315 -84.990089 -0.55313087 -84.109505 -0.55600995 -84.124542 -26.794456 -84.413269
4200000000 -26.868944 -86.690392 -0.55558664 -86.120781 -0.55755019 -86.148453 -26.946791 -86.323112
4300000000 -26.966108 -89.011192 -0.55872875 -88.171944 -0.55913126 -88.163803 -26.944971 -88.25251
4400000000 -27.146534 -90.9673 -0.56015831 -90.193497 -0.56309867 -90.206116 -27.107294 -90.07901
4500000000 -27.253201 -92.873047 -0.56425315 -92.217735 -0.56529856 -92.226761 -27.110207 -92.179642
4600000000 -27.440765 -94.965889 -0.56753081 -94.249519 -0.56866819 -94.262001 -27.271132 -94.289223
4700000000 -27.468203 -96.962524 -0.56918782 -96.276917 -0.56972229 -96.296417 -27.312307 -96.285347
4800000000 -27.702419 -98.900932 -0.57211572 -98.307304 -0.57396799 -98.321754 -27.456797 -97.997765
4900000000 -27.85903 -100.39822 -0.57458431 -100.3411 -0.5747968 -100.36475 -27.462265 -99.720398
5000000000 -28.017473 -103.07856 -0.57683879 -102.37342 -0.57826811 -102.3942 -27.698841 -101.77038
5100000000 -28.216337 -104.21864 -0.57878596 -104.4063 -0.58339256 -104.42091 -27.797686 -103.01933
5200000000 -28.408642 -106.52115 -0.5821169 -106.42254 -0.58447307 -106.44977 -27.984325 -105.11082
5300000000 -28.61734 -107.8871 -0.58579969 -108.45699 -0.58784366 -108.47224 -28.175516 -107.16264
5400000000 -28.767643 -110.03886 -0.58986217 -110.4833 -0.59031081 -110.49406 -28.289389 -109.59689
5500000000 -29.050426 -111.71016 -0.59189141 -112.51749 -0.59259814 -112.51797 -28.391687 -111.03616
5600000000 -29.279619 -113.87185 -0.59355599 -114.53603 -0.59617579 -114.55065 -28.47051 -112.57366
5700000000 -29.564148 -115.46899 -0.59905922 -116.55853 -0.59857249 -116.56413 -28.605753 -113.63882
5800000000 -29.756262 -117.14821 -0.60002357 -118.55894 -0.60053003 -118.58447 -28.866482 -115.10004
5900000000 -30.066488 -118.87845 -0.60150957 -120.59414 -0.60013801 -120.60918 -29.153425 -116.65788
6000000000 -30.304558 -120.30428 -0.60217381 -122.60707 -0.60200346 -122.61559 -29.373911 -119.45326
6100000000 -30.680237 -121.72961 -0.60162967 -124.63176 -0.6060186 -124.65086 -29.55196 -121.36141
6200000000 -31.185238 -122.99876 -0.60420585 -126.65156 -0.60710806 -126.68092 -29.755493 -123.37688
6300000000 -31.731783 -123.48808 -0.60368526 -128.68776 -0.60435104 -128.7007 -30.031614 -122.83989
6400000000 -32.175396 -124.03792 -0.60376501 -130.73238 -0.60468489 -130.72374 -30.330221 -124.01858
6500000000 -32.722191 -125.18238 -0.60516512 -132.75401 -0.60746235 -132.76242 -30.768637 -123.37781
6600000000 -33.012703 -124.91634 -0.60460812 -134.79784 -0.60792381 -134.81822 -31.077927 -124.70779
6700000000 -33.449867 -125.57821 -0.60714734 -136.82402 -0.60704851 -136.84717 -31.309994 -124.7272
6800000000 -33.689495 -123.67518 -0.61189914 -138.87631 -0.61070633 -138.89375 -31.519819 -125.90328
6900000000 -34.14893 -123.60702 -0.61128795 -140.93369 -0.61211044 -140.93156 -31.794739 -124.55686
7000000000 -34.310814 -121.18945 -0.61616868 -142.95335 -0.61533171 -142.97273 -31.835806 -124.90488
7100000000 -34.767536 -123.27684 -0.62075567 -144.97188 -0.62162536 -145.01064 -32.10191 -125.13546
7200000000 -35.389256 -121.97421 -0.62148738 -146.99692 -0.62127769 -147.01001 -32.498135 -127.71072
7300000000 -35.798649 -121.38911 -0.62148201 -149.02423 -0.62397617 -149.04973 -32.862328 -126.73919
7400000000 -36.695194 -116.57118 -0.622953 -151.0652 -0.62667269 -151.0945 -32.87661 -127.24414
7500000000 -36.6311 -114.51827 -0.6271987 -153.08974 -0.62771857 -153.10854 -33.104656 -124.16583
7600000000 -37.056515 -108.66032 -0.62772632 -155.15291 -0.62928647 -155.15907 -33.102787 -123.13581
7700000000 -37.037613 -105.56472 -0.6321528 -157.17818 -0.631392 -157.18788 -33.675541 -120.95831
7800000000 -37.482769 -103.98196 -0.63364053 -159.22621 -0.63522768 -159.23935 -33.913486 -121.03519
7900000000 -36.880817 -99.397705 -0.6363098 -161.24756 -0.63829339 -161.28047 -34.30653 -123.30789
8000000000 -37.258781 -97.319 -0.64023083 -163.2908 -0.64157885 -163.31085 -33.79084 -123.09995
8100000000 -36.893585 -91.939117 -0.64398217 -165.32617 -0.64548087 -165.35982 -33.633469 -119.40656
8200000000 -37.059998 -89.703117 -0.64882767 -167.38715 -0.65082091 -167.39049 -33.290054 -113.29671
8300000000 -37.094872 -84.824036 -0.6551587 -169.40749 -0.6547581 -169.43805 -34.624081 -106.03658
8400000000 -37.411297 -82.354568 -0.66632181 -171.49823 -0.66859573 -171.50314 -37.009094 -104.04749
8500000000 -36.419601 -75.686089 -0.69524771 -173.55043 -0.69571316 -173.57474 -42.507504 -141.99065
8600000000 -35.434074 -91.235977 -0.75979203 -175.30241 -0.76939166 -175.33162 -34.930588 139.54387
8700000000 -49.463848 -74.949821 -0.68175375 -176.13867 -0.68082863 -176.13538 -28.617617 91.632248
8800000000 -34.185661 -54.73233 -0.54757595 -179.17323 -0.54854393 -179.20702 -36.416195 56.160366
8900000000 -34.475666 -73.880043 -0.60942656 178.38023 -0.61206394 178.34537 -49.728008 -161.26509
9000000000 -35.030544 -75.653221 -0.64590347 176.34903 -0.64613718 176.33298 -36.112823 -134.71445
9100000000 -34.638153 -70.813217 -0.66019028 174.34517 -0.66171694 174.33932 -33.552479 -123.20341
9200000000 -33.737068 -71.553383 -0.66979313 172.36374 -0.66790104 172.32942 -32.395382 -113.22189
9300000000 -33.164234 -71.895386 -0.67082769 170.3495 -0.67362177 170.30714 -32.501289 -104.53854
9400000000 -32.801403 -72.640991 -0.67183983 168.31528 -0.6775201 168.32108 -32.892471 -101.41364
9500000000 -32.642498 -71.558716 -0.67798394 166.31726 -0.68008322 166.30605 -33.57465 -101.07485
9600000000 -32.206028 -71.842651 -0.68398613 164.29013 -0.68460006 164.2744 -33.439659 -103.67189
9700000000 -31.9779 -72.11544 -0.68379128 162.27219 -0.68479007 162.26172 -33.086079 -104.89668
9800000000 -31.367285 -73.780708 -0.68593615 160.25764 -0.68670166 160.22894 -32.448948 -104.99294
9900000000 -31.281479 -74.255501 -0.68853188 158.23349 -0.69072038 158.20589 -32.326447 -102.24406
10000000000 -30.746956 -74.849289 -0.69117838 156.20815 -0.69364697 156.19147 -32.10326 -101.85968
10100000000 -30.836678 -76.20179 -0.69387561 154.16734 -0.69820255 154.15239 -32.474678 -101.88362
10200000000 -30.215277 -76.499825 -0.69871116 152.1472 -0.69599968 152.13528 -32.237904 -103.96469
10300000000 -30.112316 -78.082214 -0.69946408 150.13129 -0.70034146 150.11005 -32.000469 -106.12537
10400000000 -29.648121 -79.090347 -0.70263726 148.11201 -0.70260435 148.08084 -31.319599 -106.29056
10500000000 -29.564856 -81.697533 -0.70339811 146.0714 -0.70724952 146.0556 -31.211227 -105.21423
10600000000 -29.204023 -82.394028 -0.70501161 144.03145 -0.70922893 144.01141 -30.693668 -103.58672
10700000000 -28.911385 -84.440262 -0.7109955 142.02344 -0.71031833 142.00182 -30.788248 -103.41262
10800000000 -28.743822 -83.067665 -0.71418929 140.02173 -0.7159918 139.98279 -30.792141 -102.44312
10900000000 -28.420218 -85.298965 -0.71566516 137.98027 -0.71706426 137.9622 -31.012245 -106.2458
11000000000 -28.361948 -86.526466 -0.72236955 135.98494 -0.72208101 135.95377 -30.707739 -107.51501
11100000000 -28.036148 -89.550232 -0.722664 133.96283 -0.72704446 133.91176 -30.463852 -110.76752
11200000000 -28.039379 -90.572617 -0.72632569 131.92322 -0.72918355 131.90103 -29.964075 -110.32328
11300000000 -27.709492 -92.236763 -0.73225629 129.90572 -0.73198146 129.89354 -29.788055 -112.15626
11400000000 -27.640648 -94.36277 -0.73206079 127.89983 -0.73375362 127.85464 -29.361563 -109.85781
11500000000 -27.31106 -96.051056 -0.73311764 125.87005 -0.73669404 125.8567 -29.267019 -110.54263
11600000000 -27.189507 -98.848114 -0.73843157 123.86443 -0.73930156 123.83594 -29.266949 -112.11487
11700000000 -26.9417 -99.390808 -0.73979294 121.85497 -0.74289834 121.83366 -29.33847 -115.16827
11800000000 -26.927568 -102.31824 -0.74140096 119.8544 -0.74615079 119.83942 -29.020641 -116.20575
11900000000 -26.82843 -103.37621 -0.74571466 117.86645 -0.74798656 117.82437 -28.832294 -119.42329
12000000000 -26.803003 -106.69642 -0.74799854 115.84024 -0.7491008 115.81892 -28.564825 -118.80624
12100000000 -26.7565 -108.38308 -0.74821413 113.84672 -0.74989724 113.81612 -28.386837 -121.54587
12200000000 -26.544298 -111.84465 -0.7459802 111.85673 -0.75171489 111.81051 -28.255142 -122.04929
12300000000 -26.497684 -113.72044 -0.74835992 109.83654 -0.74833685 109.81178 -28.16317 -124.9237
12400000000 -26.430122 -116.28094 -0.74786109 107.83353 -0.74790537 107.79185 -28.188114 -126.4844
12500000000 -26.59708 -117.98476 -0.74356127 105.81851 -0.74842358 105.78946 -28.085896 -129.53468
12600000000 -26.621334 -120.89338 -0.74126309 103.79201 -0.74419749 103.77827 -27.99848 -130.19551
12700000000 -26.785505 -122.84978 -0.73645139 101.77713 -0.74029785 101.7347 -27.983408 -132.99174
12800000000 -26.591845 -125.54941 -0.73564363 99.747383 -0.73736268 99.729889 -28.094046 -133.68741
12900000000 -26.785851 -127.55972 -0.73397368 97.709877 -0.73774922 97.702271 -28.066507 -136.89203
13000000000 -26.59289 -129.00925 -0.73383087 95.672905 -0.73583007 95.631981 -28.23567 -138.04568
13100000000 -26.999849 -131.09059 -0.73388392 93.643547 -0.73834753 93.59063 -28.220461 -141.32936
13200000000 -26.903023 -132.27875 -0.73422843 91.59314 -0.73508251 91.566345 -28.277023 -141.43649
13300000000 -27.188942 -135.59175 -0.73397309 89.558525 -0.73368925 89.519867 -28.226397 -142.66954
13400000000 -27.189516 -136.03148 -0.73185432 87.497177 -0.73593068 87.497101 -28.566477 -143.13559
13500000000 -27.188622 -139.50053 -0.73160094 85.463089 -0.73787564 85.44725 -28.698944 -145.26489
13600000000 -27.285574 -139.2682 -0.73421401 83.417465 -0.73812938 83.421715 -29.090235 -147.11095
13700000000 -27.321638 -142.34148 -0.7391082 81.370621 -0.74067205 81.346382 -29.001459 -150.53697
13800000000 -27.692324 -142.18329 -0.74054283 79.314964 -0.74570757 79.292732 -29.075996 -151.67322
13900000000 -27.606272 -145.42398 -0.74753302 77.24939 -0.75250071 77.22789 -28.733797 -151.65463
14000000000 -27.809067 -146.265 -0.76091546 75.218658 -0.76583678 75.212219 -28.986517 -150.12114
14100000000 -27.118788 -150.54247 -0.7740519 73.288193 -0.77663463 73.285156 -28.524801 -151.53311
14200000000 -27.494827 -154.8839 -0.76039827 71.339592 -0.76713014 71.311562 -29.008194 -156.33789
14300000000 -27.554729 -156.26437 -0.75756848 69.308037 -0.75839728 69.284172 -29.044434 -160.28484
14400000000 -28.217403 -159.28922 -0.75432134 67.28669 -0.75836366 67.228279 -29.455967 -163.83644
14500000000 -28.410053 -160.57468 -0.75620371 65.208839 -0.75762856 65.178909 -29.218849 -163.9679
14600000000 -28.805929 -165.25027 -0.75865805 63.165947 -0.75825363 63.141514 -29.412418 -165.23788
14700000000 -28.936256 -165.5999 -0.76462162 61.131996 -0.76736307 61.095013 -29.489773 -164.17427
14800000000 -28.874113 -170.89363 -0.76193094 59.132336 -0.76842326 59.09919 -29.898077 -168.10085
14900000000 -29.1723 -170.43503 -0.76417494 57.092285 -0.76769418 57.062683 -29.905571 -170.39388
15000000000 -29.342783 -172.66013 -0.76357836 55.074379 -0.76745695 55.011593 -30.167429 -173.07028
15100000000 -29.991983 -173.29062 -0.76904404 53.038898 -0.7673102 53.009014 -30.109358 -172.62515
15200000000 -30.179029 -177.94002 -0.76900417 50.996437 -0.77154398 50.972668 -30.345623 -174.29172
15300000000 -30.831528 178.85713 -0.77173108 48.964375 -0.77360213 48.910934 -30.572304 -173.866
15400000000 -30.525414 176.33815 -0.77355266 46.917427 -0.7745862 46.898529 -31.153847 -176.52798
15500000000 -31.159119 176.05598 -0.77883917 44.898289 -0.77720577 44.861824 -31.499535 -177.5262
15600000000 -30.930851 175.55946 -0.77487242 42.852497 -0.78199744 42.813721 -31.596554 178.37221
15700000000 -31.732166 173.0451 -0.78342336 40.817089 -0.78324383 40.796314 -31.533918 178.69592
15800000000 -32.083099 169.73965 -0.78862756 38.801449 -0.78725642 38.769726 -31.710873 177.59413
15900000000 -32.702805 163.42529 -0.78586 36.783863 -0.79320288 36.740417 -31.818724 179.10126
16000000000 -32.506378 162.09555 -0.79254818 34.748955 -0.79465359 34.719193 -32.488605 176.75104
16100000000 -32.986923 156.09276 -0.79366648 32.736465 -0.79883635 32.710442 -32.890514 174.83946
16200000000 -33.026249 159.54436 -0.79575843 30.71949 -0.80142015 30.661304 -33.333038 168.37939
16300000000 -33.877811 151.26134 -0.80177945 28.698238 -0.80437928 28.679934 -33.420063 168.68489
16400000000 -34.593735 150.66252 -0.80517101 26.693268 -0.80831826 26.657309 -33.557049 162.75208
16500000000 -34.55217 138.98717 -0.8074677 24.661312 -0.81108618 24.618137 -33.78405 165.91037
16600000000 -35.359978 139.47513 -0.80940068 22.664907 -0.8153007 22.623127 -34.45472 163.10446
16700000000 -34.535648 132.85051 -0.8093639 20.632284 -0.81456649 20.600767 -34.994011 164.12599
16800000000 -36.510849 133.20836 -0.81367165 18.615351 -0.81925827 18.563065 -35.774776 157.54813
16900000000 -35.775864 127.59698 -0.81391859 16.608208 -0.81946397 16.558485 -36.339054 157.65494
17000000000 -38.147724 112.86662 -0.81645578 14.583829 -0.82099986 14.558461 -35.770702 150.8808
17100000000 -37.483089 112.83894 -0.82010645 12.562956 -0.82250619 12.568208 -36.45908 155.38974
17200000000 -37.92971 96.393654 -0.82417518 10.580606 -0.82564473 10.522749 -36.749268 154.59668
17300000000 -38.711647 107.97231 -0.82260066 8.5604868 -0.82944852 8.513998 -38.297794 158.69522
17400000000 -39.092056 95.980644 -0.82845348 6.5440917 -0.8277747 6.503118 -39.108398 152.63538
17500000000 -41.941376 103.30849 -0.82250965 4.5055671 -0.82683671 4.4724908 -41.026058 146.54939
17600000000 -40.206253 77.193192 -0.82821542 2.5267162 -0.82909322 2.4578202 -39.727402 142.04221
17700000000 -43.220722 60.708908 -0.82882941 0.49196091 -0.8331418 0.45072162 -40.902302 138.2113
17800000000 -40.021542 57.45657 -0.82959926 -1.5361812 -0.83231366 -1.5857098 -40.019829 144.93407
17900000000 -42.091354 36.775208 -0.83235413 -3.5093973 -0.83501881 -3.593576 -42.30106 155.12509
18000000000 -42.095654 50.255356 -0.83266169 -5.5707474 -0.83332306 -5.578733 -44.106163 165.74338
18100000000 -42.89085 21.591642 -0.83328074 -7.5760741 -0.83448488 -7.5835624 -52.498344 -178.02789
18200000000 -43.270454 27.926258 -0.83370602 -9.5396433 -0.83650494 -9.5960751 -53.829266 153.64224
18300000000 -40.831066 8.6378803 -0.83048236 -11.585213 -0.83503795 -11.596405 -54.299526 86.36631
18400000000 -40.950199 6.7786388 -0.83091581 -13.582466 -0.83792216 -13.601412 -50.049458 129.25447
18500000000 -39.098587 -1.9261029 -0.83154619 -15.615532 -0.8329367 -15.638282 -55.567432 145.70607
18600000000 -39.241825 -7.6739573 -0.82873011 -17.630676 -0.83375716 -17.701876 -49.443203 -148.46002
18700000000 -38.067146 -16.151081 -0.82808012 -19.6605 -0.83173364 -19.665512 -47.952881 -92.782715
18800000000 -38.434711 -21.891056 -0.82970202 -21.698446 -0.83128661 -21.705669 -44.285271 -77.854012
18900000000 -36.844711 -26.532104 -0.82817155 -23.683109 -0.83057415 -23.733809 -42.297581 -52.235985
19000000000 -37.21402 -31.161072 -0.82399118 -25.694794 -0.82738572 -25.745983 -43.933674 -47.046371
19100000000 -36.102867 -31.100784 -0.82860917 -27.711901 -0.82720941 -27.775558 -43.348286 -52.914425
19200000000 -36.534233 -36.883659 -0.82554239 -29.738573 -0.82946199 -29.771126 -45.2258 -72.571045
19300000000 -35.376652 -39.346138 -0.82491446 -31.785757 -0.82564443 -31.826199 -41.078499 -80.885918
19400000000 -36.013592 -51.349514 -0.82188433 -33.839504 -0.82733655 -33.855991 -39.835381 -86.807289
19500000000 -35.009548 -47.118538 -0.81827402 -35.869736 -0.82343417 -35.897728 -37.815681 -79.941895
19600000000 -34.436478 -58.485851 -0.81885254 -37.911938 -0.82382464 -37.93597 -37.701794 -82.710411
19700000000 -34.787212 -51.236435 -0.81584197 -39.951332 -0.81778526 -39.958405 -37.23727 -75.974739
19800000000 -33.927151 -61.366798 -0.81743622 -41.982758 -0.82286847 -41.994389 -37.38129 -89.163322
19900000000 -35.277473 -59.447044 -0.81588507 -43.981632 -0.81941491 -44.042793 -36.720009 -85.606255
20000000000 -33.663441 -70.146957 -0.81975627 -46.053967 -0.82001954 -46.109722 -35.702 -94.160843
20100000000 -34.735191 -72.029488 -0.81959373 -48.107475 -0.82219428 -48.140526 -35.308884 -85.719131
20200000000 -32.753181 -71.020943 -0.82208699 -50.097683 -0.82737881 -50.156384 -34.36187 -92.967728
20300000000 -33.509312 -77.527794 -0.82176673 -52.16452 -0.82463557 -52.215508 -35.111332 -88.855476
20400000000 -32.482285 -72.788811 -0.82482898 -54.220116 -0.82615441 -54.278545 -34.2859 -98.632927
20500000000 -32.848927 -85.219612 -0.82653582 -56.281799 -0.83069706 -56.330456 -34.213749 -98.423561
20600000000 -32.436775 -80.85347 -0.83443689 -58.328602 -0.83381706 -58.377827 -32.409138 -101.25673
20700000000 -31.394346 -92.622169 -0.83501977 -60.365532 -0.83771122 -60.405956 -32.439941 -95.947121
20800000000 -31.450062 -88.4244 -0.85186052 -62.364872 -0.85538256 -62.405056 -31.133772 -94.374321
20900000000 -30.074451 -98.257393 -0.84621608 -64.308296 -0.85726762 -64.335785 -31.49391 -93.879112
21000000000 -30.964043 -101.62313 -0.84832531 -66.275299 -0.85336882 -66.321571 -30.82827 -102.78678
21100000000 -30.268307 -103.37463 -0.84244096 -68.314682 -0.84243309 -68.372208 -31.625851 -109.00614
21200000000 -31.080038 -109.70432 -0.83294833 -70.372261 -0.8393389 -70.41655 -30.612162 -114.91324
21300000000 -30.523914 -111.62443 -0.83560741 -72.425285 -0.84033805 -72.496056 -30.413637 -116.51006
21400000000 -30.414833 -118.47047 -0.83978617 -74.545303 -0.84735519 -74.554573 -29.457203 -114.62586
21500000000 -29.936201 -118.44405 -0.84404844 -76.52565 -0.85519183 -76.597931 -29.222927 -114.12601
21600000000 -29.553471 -123.01667 -0.85408312 -78.566147 -0.85935384 -78.578217 -28.9445 -113.89619
21700000000 -29.509661 -126.08105 -0.85353076 -80.491158 -0.85543579 -80.535072 -29.345186 -118.04387
21800000000 -29.796103 -131.30237 -0.84655738 -82.509094 -0.84904289 -82.549454 -29.056114 -124.1922
21900000000 -29.657774 -135.91364 -0.84385985 -84.560097 -0.84743828 -84.599083 -29.251429 -129.74567
22000000000 -29.788881 -141.09174 -0.84090602 -86.601532 -0.84756035 -86.683273 -28.28616 -133.97179
22100000000 -29.526651 -145.29785 -0.84549427 -88.665215 -0.85229391 -88.709854 -28.08844 -135.30287
22200000000 -29.683292 -150.60381 -0.84262007 -90.709526 -0.85071898 -90.763374 -27.467503 -135.35803
22300000000 -29.330101 -149.74808 -0.84301674 -92.746887 -0.84736341 -92.831924 -27.937447 -136.49728
22400000000 -29.387501 -159.16736 -0.84212416 -94.762451 -0.84828788 -94.835594 -27.673536 -137.23907
22500000000 -29.497868 -157.94682 -0.84315443 -96.84272 -0.84733915 -96.899605 -28.386461 -143.48254
22600000000 -28.814262 -166.98235 -0.85269779 -98.871178 -0.8478747 -98.896629 -27.524817 -145.99821
22700000000 -29.169554 -168.20409 -0.8527211 -100.90932 -0.85419971 -100.9927 -27.40593 -151.36913
22800000000 -27.994991 -172.45747 -0.85387295 -102.99992 -0.85651428 -103.01751 -26.727983 -149.74208
22900000000 -28.896093 -175.76234 -0.85632479 -104.98615 -0.86066175 -105.05317 -26.828632 -152.93404
23000000000 -27.982853 -176.8459 -0.86331517 -107.07746 -0.86369288 -107.16353 -26.577431 -152.17957
23100000000 -28.686106 174.43527 -0.85316813 -109.12403 -0.85481364 -109.1605 -26.819124 -157.85548
23200000000 -28.075411 176.57138 -0.86836249 -111.14929 -0.86935186 -111.24868 -26.446093 -158.98474
23300000000 -27.75318 165.34537 -0.868384 -113.19426 -0.86475158 -113.23814 -25.95982 -165.42892
23400000000 -27.625774 170.00671 -0.87737185 -115.22875 -0.87707406 -115.23802 -25.555161 -162.5361
23500000000 -26.882708 162.53979 -0.8808645 -117.22524 -0.88631672 -117.32488 -25.167294 -166.14171
23600000000 -27.434772 163.07346 -0.88018572 -119.31173 -0.88649958 -119.33985 -25.463484 -163.27373
23700000000 -26.392487 158.2036 -0.88320321 -121.29744 -0.89373362 -121.36722 -25.550879 -170.94402
23800000000 -27.050337 154.21997 -0.89237434 -123.35256 -0.8946448 -123.40145 -25.71298 -174.30118
23900000000 -25.990503 153.54573 -0.89548492 -125.38184 -0.89432961 -125.44088 -25.004612 178.47908
24000000000 -26.122726 145.41798 -0.90094376 -127.40006 -0.90257591 -127.46339 -24.380398 178.06198
24100000000 -25.465364 147.13348 -0.90333027 -129.44923 -0.90669143 -129.49162 -23.675215 176.97839
24200000000 -25.414499 140.40887 -0.90376371 -131.45792 -0.90438914 -131.52278 -24.073523 178.27605
24300000000 -25.394762 142.47035 -0.89946795 -133.46928 -0.90924895 -133.55319 -24.050423 176.78374
24400000000 -24.949608 134.91212 -0.91033351 -135.5143 -0.91518462 -135.5643 -24.752035 172.21901
24500000000 -25.087488 133.08255 -0.90897638 -137.53976 -0.91986519 -137.60158 -24.137577 164.58365
24600000000 -24.220797 129.10718 -0.91355121 -139.56465 -0.92818773 -139.62379 -24.057808 158.82259
24700000000 -24.253605 125.77761 -0.92351645 -141.53421 -0.93042666 -141.65648 -23.121733 157.36165
24800000000 -23.593018 124.56224 -0.92817527 -143.61542 -0.93214631 -143.679 -22.929771 156.46815
24900000000 -23.655266 120.79556 -0.92919147 -145.6385 -0.934264 -145.7043 -22.651386 156.7392
25000000000 -23.37937 118.89888 -0.92611724 -147.64891 -0.93200737 -147.72351 -23.216671 154.24779
25100000000 -23.353369 114.10072 -0.93392408 -149.69969 -0.94167233 -149.75017 -23.118292 150.06108
25200000000 -22.918539 111.09119 -0.93144888 -151.67728 -0.94065255 -151.77173 -23.149822 144.06142
25300000000 -22.59339 108.05862 -0.93984157 -153.73712 -0.94266117 -153.74861 -22.51053 141.04526
25400000000 -22.106813 105.22292 -0.9518919 -155.73695 -0.94747996 -155.77759 -22.36706 137.93953
25500000000 -22.064842 103.32697 -0.95025265 -157.77965 -0.95400792 -157.80721 -21.922266 136.71387
25600000000 -21.733202 101.62843 -0.95195538 -159.78209 -0.9583897 -159.84059 -22.013123 133.86729
25700000000 -21.860321 98.366089 -0.96081251 -161.82196 -0.96030676 -161.90372 -22.013609 131.24911
25800000000 -21.462425 96.027008 -0.95610017 -163.85245 -0.96413153 -163.93188 -21.991247 127.40717
25900000000 -21.348646 90.331917 -0.95781291 -165.85608 -0.96401453 -165.93542 -21.742334 124.46078
26000000000 -21.033588 90.297371 -0.96073532 -167.85759 -0.96373463 -167.91393 -21.554012 120.52094
26100000000 -20.727276 84.590546 -0.96827662 -169.89479 -0.97418314 -169.92647 -21.344311 119.65723
26200000000 -20.703861 85.038673 -0.96438199 -171.94124 -0.97161919 -171.96445 -21.171944 114.74979
26300000000 -20.20536 81.212036 -0.97989821 -173.95586 -0.98332858 -173.9494 -21.098188 115.03117
26400000000 -20.600237 79.944527 -0.98244601 -175.93398 -0.98672235 -176.02098 -21.101982 109.34757
26500000000 -19.792133 77.500481 -0.97188079 -177.93256 -0.98397177 -178.04816 -20.929035 108.73898
26600000000 -20.163591 73.22261 -0.99952304 -179.96198 -0.97028291 179.94202 -20.796768 103.67242
26700000000 -19.513235 73.841995 -0.99405676 177.98813 -0.98997283 177.95395 -20.597422 102.82408
26800000000 -19.806648 67.083298 -0.98207635 176.0056 -0.98910576 175.99779 -20.392422 98.727631
26900000000 -19.41744 70.04213 -0.98500144 174.01985 -1.0077112 173.81731 -20.553471 99.004135
27000000000 -19.446156 63.444946 -1.0091612 171.90958 -0.99691409 171.80336 -20.205696 93.964417
27100000000 -19.442511 64.350639 -1.0038679 169.89589 -1.0217012 169.84456 -20.354895 92.896484
27200000000 -18.767454 58.378822 -1.0117975 167.9046 -1.0128688 167.85052 -20.025406 87.578575
27300000000 -19.197893 59.767624 -1.0012436 165.96855 -1.0117161 165.87633 -20.298458 86.587013
27400000000 -18.378017 55.82106 -1.0276392 163.88911 -1.0226269 163.86057 -19.788614 81.395409
27500000000 -19.110205 54.704845 -1.0205884 161.8344 -1.0321339 161.75111 -19.895256 80.184036
27600000000 -18.519999 51.997425 -1.0243902 159.77708 -1.0259482 159.7831 -19.605148 78.410324
27700000000 -18.804291 47.813759 -1.0266019 157.94955 -1.0154158 157.73442 -19.794386 75.863846
27800000000 -18.25458 46.405025 -1.0341778 155.81888 -1.0370052 155.73233 -19.565807 73.903572
27900000000 -18.370161 43.66116 -1.022409 153.97459 -1.0328534 153.81268 -19.873438 70.630165
28000000000 -18.219799 45.19408 -1.0183012 151.73497 -1.0170178 151.90497 -19.570557 67.800392
28100000000 -18.281601 39.460907 -1.0155302 149.946 -1.0365213 149.65637 -19.478098 63.247532
28200000000 -18.264906 39.895733 -1.0371494 147.815 -1.038735 147.63242 -19.208614 61.670734
28300000000 -17.877077 34.220268 -1.0189172 145.68953 -1.0395778 145.72131 -19.35771 58.340492
28400000000 -17.897211 32.960484 -1.0392503 143.74147 -1.0319748 143.72484 -19.194384 57.153439
28500000000 -17.816124 29.296864 -1.0587031 141.88586 -1.0420065 141.82486 -19.12344 51.553261
28600000000 -17.806215 29.29921 -1.0418038 139.96016 -1.0401734 139.95711 -19.107599 50.57909
28700000000 -17.823135 26.077785 -1.0424159 137.90828 -1.0375383 138.02003 -18.988899 47.270966
28800000000 -18.088194 26.613623 -1.040905 135.84161 -1.0495661 135.67819 -18.948185 47.296577
28900000000 -17.71249 22.257641 -1.0320027 133.83734 -1.0414281 133.67821 -19.201172 44.744144
29000000000 -17.819056 21.482363 -1.0074008 131.8689 -1.0182999 131.70213 -19.131329 41.613789
29100000000 -17.717056 17.442369 -1.0072287 129.6837 -1.0233787 129.7059 -19.171688 36.366493
29200000000 -17.967152 17.537445 -1.0324502 127.77948 -1.0358224 127.65665 -18.802956 36.111591
29300000000 -17.570877 17.731977 -1.0208415 125.76882 -1.0283171 125.75114 -18.530451 31.679367
29400000000 -18.082466 15.081456 -1.0265603 123.85089 -1.0413287 123.61822 -18.417353 34.649441
29500000000 -17.705448 13.943184 -1.0148532 121.76029 -1.0347116 121.57245 -18.872032 29.594837
29600000000 -18.114275 8.4505959 -1.0302571 119.71307 -1.0162498 119.4684 -19.020002 30.230135
29700000000 -17.882965 10.582019 -1.0194887 117.57482 -1.0319951 117.57487 -19.092436 22.019714
29800000000 -17.829582 3.7940221 -1.0215391 115.51756 -1.0394238 115.5176 -19.24983 22.451088
29900000000 -17.791466 7.3237233 -1.0195243 113.60104 -1.0275762 113.31174 -18.606308 15.357281
30000000000 -17.857491 2.3629968 -1.0185574 111.53903 -1.0278957 111.6022 -18.872917 17.978355
30100000000 -18.451305 4.4861851 -1.0308328 109.54012 -1.0369128 109.35615 -18.232574 13.61959
30200000000 -17.940147 -2.3989065 -1.0253479 107.60624 -1.0313051 107.44289 -19.073015 14.83878
30300000000 -18.713129 -2.9679749 -1.043214 105.34021 -1.0397307 105.34954 -18.888742 9.059823
30400000000 -17.869219 -4.1739774 -1.0535353 103.48453 -1.0373322 103.39227 -19.641376 7.4752932
30500000000 -18.672718 -7.4062791 -1.0325161 101.32893 -1.0345155 101.3513 -19.149977 2.5770144
30600000000 -18.584251 -7.1466665 -1.020884 99.294083 -1.0407076 99.275406 -19.723915 -0.0215667
30700000000 -18.886375 -12.553846 -1.0311761 97.430595 -1.033874 97.163437 -18.919333 -1.7951117
30800000000 -18.888699 -11.3796 -1.017743 95.385345 -1.0411109 95.298279 -19.658237 -4.2002044
30900000000 -18.846466 -16.437059 -1.0325483 93.218811 -1.0374719 93.369431 -19.134886 -4.2204981
31000000000 -19.041237 -12.845831 -1.0328419 91.248062 -1.0441906 91.122055 -19.916914 -9.1119308
31100000000 -19.327084 -18.66901 -1.0212542 89.28817 -1.0031757 88.99411 -20.399988 -11.774837
31200000000 -19.546049 -18.116337 -1.0292455 87.172935 -1.0142092 87.108177 -20.145672 -18.117296
31300000000 -19.418253 -21.002657 -1.0373331 85.214745 -1.0326294 85.05674 -20.00453 -17.568048
31400000000 -19.867367 -21.096329 -1.0227041 83.227509 -1.0358589 83.158188 -20.292418 -19.641848
31500000000 -20.05827 -23.692751 -1.0039556 81.277161 -1.0246505 80.977745 -20.442406 -17.892515
31600000000 -20.675764 -23.497952 -1.0395077 79.225456 -1.0245781 78.932411 -21.00878 -22.308191
31700000000 -20.85008 -26.892191 -1.0179324 77.029236 -1.0517201 77.007729 -21.357283 -25.018221
31800000000 -21.280027 -26.272169 -1.0466512 74.986183 -1.0484841 74.85041 -21.982723 -33.508995
31900000000 -21.039888 -29.743927 -1.0012904 72.952019 -1.0191685 72.931229 -21.659569 -33.564514
32000000000 -21.601974 -29.19265 -1.0319016 70.836906 -1.0270473 70.937111 -21.738636 -38.218567
32100000000 -21.722771 -30.335371 -1.0242755 68.874023 -1.0396433 68.832848 -21.551601 -35.258999
32200000000 -22.551067 -30.137697 -1.0338454 67.048416 -1.0364212 66.709137 -22.341211 -37.853477
32300000000 -23.162735 -35.7416 -1.021374 64.810593 -1.0310044 64.733185 -23.086578 -36.754185
32400000000 -24.125803 -38.061371 -1.0232162 62.672634 -1.0427792 62.681816 -24.160898 -45.931831
32500000000 -24.09339 -35.913902 -0.99471718 60.693371 -1.0425248 60.592728 -24.03005 -52.653709
32600000000 -24.890205 -43.026596 -1.0251067 58.605919 -0.99499351 58.687389 -24.00189 -58.151001
32700000000 -25.04645 -33.352234 -1.0194553 56.644829 -1.0291992 56.516815 -23.820673 -55.416855
32800000000 -26.404875 -40.889664 -1.0066584 54.686489 -1.0362118 54.645191 -23.955927 -60.417892
32900000000 -27.308357 -28.433548 -0.9892875 52.288036 -1.0363417 52.518764 -25.945784 -58.533924
33000000000 -28.479364 -48.052021 -0.98545092 50.544197 -1.0005666 50.348377 -26.486341 -63.063622
33100000000 -29.924355 -33.21711 -1.0243624 48.420742 -1.0333397 48.182808 -28.379484 -70.341133
33200000000 -29.774815 -38.366756 -1.0062499 46.572849 -1.0192389 46.197983 -27.564568 -82.253311
33300000000 -32.172596 -17.117821 -1.0435932 44.226467 -1.0342451 44.057457 -29.056181 -81.68988
33400000000 -31.150354 -21.998981 -1.0380005 42.161018 -1.0515081 41.953999 -29.056149 -86.7575
33500000000 -35.577286 -3.2776952 -1.0440978 40.167805 -1.0392742 40.031937 -30.608706 -91.034203
33600000000 -32.053143 0.23939267 -1.0028721 37.925739 -1.0368888 38.078407 -31.317785 -94.732437
33700000000 -36.040665 18.638279 -1.049909 35.902607 -1.0518675 36.064865 -33.557796 -122.33921
33800000000 -31.736734 28.629419 -1.0352136 33.95602 -1.0482742 33.994743 -33.198776 -138.57137
33900000000 -34.170521 39.855618 -1.0494224 32.244404 -1.0571601 31.996712 -35.458088 -143.20682
34000000000 -30.459293 41.986931 -1.0335557 29.979193 -1.0618476 29.903788 -35.082115 -169.9805
34100000000 -31.04847 58.858536 -1.0349376 27.907541 -1.0508555 27.761646 -34.069683 -178.1745
34200000000 -27.652245 62.399837 -1.0753003 25.828638 -1.0371139 25.817972 -34.407475 156.2041
34300000000 -27.8603 65.122971 -1.0535647 24.01104 -1.0741502 23.563753 -30.444042 149.2348
34400000000 -26.219543 65.867889 -1.0719006 21.74758 -1.0936691 21.389282 -29.711926 139.84552
34500000000 -26.426384 66.826988 -1.0692372 19.326984 -1.0814861 19.473146 -28.17244 135.30484
34600000000 -25.214695 65.697723 -1.0850571 17.392719 -1.0739967 17.329067 -29.661591 126.10861
34700000000 -23.968761 63.230701 -1.0997897 15.593421 -1.1260027 15.460251 -27.649918 123.67568
34800000000 -23.210413 63.740513 -1.1068081 13.40918 -1.0967237 13.255877 -26.638849 109.20303
34900000000 -22.271725 68.461044 -1.1102279 11.300427 -1.0871973 11.228281 -24.225466 104.07285
35000000000 -21.745255 64.199776 -1.0838819 9.2427092 -1.0917435 9.4367676 -23.44335 103.64394
35100000000 -21.163898 66.274498 -1.1278515 7.3118548 -1.1000782 7.0833058 -23.214405 108.83698
35200000000 -20.853933 63.868095 -1.1043402 5.0892158 -1.1313373 5.1993947 -22.928537 106.24561
35300000000 -20.454067 60.977196 -1.1306448 3.2496796 -1.1459782 3.0923777 -23.112625 99.823776
35400000000 -19.257523 63.735897 -1.1437689 0.99690819 -1.1361668 0.88595247 -22.186449 95.177155
35500000000 -18.762405 60.965168 -1.1560704 -1.0413303 -1.1193662 -1.1766629 -21.003805 91.332382
35600000000 -18.516012 62.753239 -1.1832476 -2.9481099 -1.1771731 -2.9857712 -20.45727 90.643829
35700000000 -18.674091 57.409557 -1.1436403 -5.1830978 -1.1538215 -5.0448585 -19.953217 88.581436
35800000000 -18.031099 60.023586 -1.1464022 -7.1636853 -1.1603299 -7.0213771 -19.49662 87.43029
35900000000 -17.308084 53.415195 -1.168938 -9.2512512 -1.1601886 -9.1264296 -19.183077 86.23848
36000000000 -17.064302 57.308559 -1.1817056 -11.225334 -1.1711937 -11.28103 -18.491867 79.706261
36100000000 -15.79428 55.205627 -1.174418 -13.248973 -1.2173818 -13.36401 -17.895796 76.722115
36200000000 -16.669146 54.391285 -1.1712283 -15.26799 -1.1772863 -15.253006 -17.205893 73.655052
36300000000 -15.629555 52.999393 -1.2419069 -17.501339 -1.2566173 -17.461157 -16.941675 71.512733
36400000000 -16.093786 48.327576 -1.1950803 -19.442577 -1.2397609 -19.626467 -17.235847 70.807487
36500000000 -15.042418 49.446812 -1.2496465 -21.692348 -1.2332827 -21.530636 -16.704298 67.458954
36600000000 -15.037995 43.235416 -1.1768959 -23.657509 -1.254155 -23.508619 -16.07851 60.747074
36700000000 -14.460659 46.882641 -1.2330396 -25.30648 -1.2950757 -25.914492 -15.81512 60.886963
36800000000 -14.359318 40.467484 -1.2563217 -27.591221 -1.2940974 -27.68778 -14.893564 58.506706
36900000000 -14.424925 43.452068 -1.2750897 -29.458708 -1.2754713 -29.636726 -14.967443 59.115833
37000000000 -13.746944 38.036556 -1.2851694 -31.619226 -1.3143784 -31.330622 -14.68346 58.013245
37100000000 -14.054736 37.65419 -1.3068216 -33.878536 -1.3047268 -33.718571 -14.936666 51.498478
37200000000 -13.22621 35.133327 -1.3058746 -35.70842 -1.3211012 -35.706486 -14.701551 48.36998
37300000000 -13.523825 35.432907 -1.3517812 -38.133904 -1.3252746 -37.772682 -14.376893 43.80825
37400000000 -12.768356 34.2691 -1.3378993 -39.746231 -1.3542622 -39.525723 -13.544593 43.529434
37500000000 -13.098279 32.28614 -1.3380543 -41.591316 -1.3172045 -41.697308 -13.412021 42.105259
37600000000 -12.79999 30.553543 -1.3596312 -43.260071 -1.319566 -43.677876 -13.150663 42.47324
37700000000 -12.780915 26.841906 -1.3485264 -45.374039 -1.3638209 -45.761593 -13.353114 40.672165
37800000000 -12.403536 26.523289 -1.4091413 -47.600487 -1.3878881 -47.695793 -13.204321 38.286793
37900000000 -12.21881 25.312944 -1.3853959 -49.58276 -1.4136873 -49.581612 -13.329149 34.368298
38000000000 -12.144829 23.574163 -1.4106541 -51.808929 -1.380398 -51.62429 -13.019839 29.629316
38100000000 -12.145233 23.249866 -1.455789 -53.643024 -1.4076437 -53.674858 -12.666746 30.227867
38200000000 -11.718467 21.000927 -1.4039429 -55.50106 -1.3940759 -56.029396 -12.14454 27.124411
38300000000 -11.944266 19.321842 -1.4189081 -57.503002 -1.4543515 -57.38266 -12.215834 27.836487
38400000000 -11.521872 16.28351 -1.4307078 -59.366993 -1.4040198 -59.356209 -12.399965 25.611559
38500000000 -11.549792 14.952211 -1.4375623 -61.497543 -1.4453868 -61.573685 -12.360806 21.847559
38600000000 -11.358952 16.472826 -1.4644699 -63.382381 -1.4685833 -63.413376 -12.004082 19.333717
38700000000 -11.197423 11.99694 -1.4864013 -65.443596 -1.4777933 -65.289474 -11.908092 16.956272
38800000000 -11.229727 13.824092 -1.4291301 -67.191841 -1.4763224 -67.433472 -11.468568 14.395281
38900000000 -11.057267 8.4110069 -1.4531066 -69.338745 -1.4624119 -69.288887 -11.678864 14.488932
39000000000 -11.182409 9.7014284 -1.5014648 -71.06501 -1.488342 -71.075401 -11.448265 13.256167
39100000000 -10.738914 4.7955918 -1.4815325 -73.309898 -1.5024525 -73.38504 -11.954241 10.182618
39200000000 -11.286724 5.4255381 -1.465739 -74.850624 -1.5081874 -74.861046 -11.234221 6.8969631
39300000000 -10.497537 4.2967238 -1.4775497 -77.368248 -1.5147208 -77.415848 -11.445973 3.765126
39400000000 -11.321766 2.4183359 -1.4955966 -78.723618 -1.5041679 -79.20697 -10.7539 3.7128999
39500000000 -10.740394 2.1425343 -1.4798164 -80.764305 -1.5177524 -80.95166 -11.016676 2.1570868
39600000000 -10.995991 -1.4196484 -1.5378709 -83.026886 -1.5273165 -82.975616 -10.826198 2.4432189
39700000000 -10.820265 0.45956236 -1.5249696 -84.861763 -1.5448873 -84.743591 -11.434802 -3.0699737
39800000000 -10.642702 -6.26577 -1.5453387 -86.624443 -1.5657067 -86.656601 -11.034307 -4.6566043
39900000000 -10.933045 -3.0333946 -1.5225422 -88.577385 -1.5579824 -88.941963 -11.065672 -10.093705
40000000000 -10.713454 -7.8822064 -1.5223552 -90.950195 -1.4529551 -90.945305 -10.690502 -11.024932
40100000000 -11.014725 -5.1847372 -1.6096749 -92.943893 -1.4993175 -92.881508 -10.394273 -12.188298
40200000000 -10.65088 -10.377251 -1.4729904 -94.775917 -1.5783124 -94.552887 -10.606813 -10.350366
40300000000 -10.928576 -12.513854 -1.5173236 -96.362137 -1.5292969 -96.444664 -10.768394 -13.292898
40400000000 -10.417472 -11.378494 -1.5636733 -98.342262 -1.5263187 -98.578133 -11.249848 -16.039946
40500000000 -10.993738 -13.702908 -1.544363 -100.56686 -1.5619657 -100.42358 -10.963468 -20.076708
40600000000 -10.661324 -14.405779 -1.5376798 -102.38529 -1.5034623 -102.70087 -11.079811 -24.130796
40700000000 -10.958209 -17.426609 -1.5370289 -104.18331 -1.5421491 -104.71401 -10.626278 -24.834669
40800000000 -10.905192 -15.790059 -1.4758999 -106.3989 -1.5205076 -106.32033 -10.510356 -23.593691
40900000000 -10.802546 -20.707756 -1.4868548 -108.4958 -1.4847147 -107.92798 -10.714819 -24.610907
41000000000 -11.027423 -21.922909 -1.4977823 -110.40018 -1.5134058 -110.5079 -10.947163 -28.01577
41100000000 -11.004774 -21.077801 -1.458892 -112.20311 -1.4721246 -112.39598 -11.244123 -29.824137
41200000000 -11.184065 -23.165524 -1.4810424 -114.05628 -1.4840524 -114.44809 -11.315221 -34.126549
41300000000 -11.064084 -23.551554 -1.4686586 -116.1708 -1.443134 -116.44056 -11.433697 -36.152946
41400000000 -11.190606 -26.916542 -1.3782308 -118.12307 -1.4695625 -118.19726 -11.090872 -37.027641
41500000000 -11.650328 -26.42799 -1.4667901 -120.12702 -1.4208095 -120.07223 -10.979949 -40.4408
41600000000 -11.036575 -28.408104 -1.4138795 -122.41492 -1.4722248 -122.80911 -11.515957 -40.2617
41700000000 -11.464889 -30.863905 -1.4070438 -124.27567 -1.3996571 -124.06132 -11.37189 -42.693523
41800000000 -11.48007 -29.657501 -1.3799975 -126.00301 -1.4115672 -126.07455 -11.756506 -43.858524
41900000000 -12.097919 -33.84639 -1.3686866 -127.89427 -1.4442554 -128.01846 -11.835003 -48.765556
42000000000 -11.984991 -32.752041 -1.3976903 -129.84845 -1.3774537 -130.16681 -12.097624 -50.276871
42100000000 -11.687572 -34.995415 -1.3990263 -131.54356 -1.405371 -132.85136 -12.004688 -52.358765
42200000000 -12.224061 -34.724808 -1.3463687 -134.17369 -1.3949898 -134.42151 -11.950654 -53.48835
42300000000 -12.171161 -36.390835 -1.3332717 -136.35648 -1.3674943 -136.35175 -11.992326 -55.643547
42400000000 -12.755937 -35.680321 -1.4271041 -138.32823 -1.3968847 -138.43089 -12.622281 -58.255642
42500000000 -12.410829 -39.086521 -1.254881 -140.28458 -1.2885418 -140.29401 -12.748437 -59.941208
42600000000 -13.33368 -43.168549 -1.299618 -142.23773 -1.2802454 -142.3651 -13.308511 -61.733231
42700000000 -13.07913 -38.166451 -1.2166114 -144.38245 -1.2818598 -144.38655 -12.703084 -66.231728
42800000000 -13.688345 -41.627316 -1.2935064 -146.82713 -1.2337377 -146.60027 -13.310616 -70.314743
42900000000 -13.799314 -36.178001 -1.3011937 -148.72028 -1.284932 -148.707 -13.619847 -67.3498
43000000000 -13.673079 -45.938564 -1.1983005 -150.57132 -1.2723221 -151.19629 -13.908196 -70.253281
43100000000 -14.976144 -40.075447 -1.2759397 -153.00676 -1.3139741 -152.86996 -14.710547 -73.387573
43200000000 -13.775412 -45.762413 -1.2199446 -154.47646 -1.3259125 -155.11925 -14.877139 -78.644653
43300000000 -15.203094 -39.132153 -1.2363515 -156.97128 -1.2257365 -157.33366 -15.347666 -78.253349
43400000000 -14.292042 -39.717735 -1.2154037 -158.64609 -1.2349635 -158.68869 -15.454717 -82.18222
43500000000 -15.69157 -42.690987 -1.2955124 -161.35121 -1.3077813 -161.23865 -15.8378 -83.842636
43600000000 -15.465368 -39.785755 -1.2288219 -162.67831 -1.2120575 -163.60011 -15.652282 -86.789146
43700000000 -16.342474 -44.890331 -1.2751657 -165.24115 -1.2940856 -165.74333 -16.664009 -82.8106
43800000000 -16.630564 -40.592793 -1.1926377 -167.39948 -1.232486 -167.77272 -17.526358 -87.578316
43900000000 -16.741371 -45.061749 -1.2976772 -169.51178 -1.2609638 -169.21504 -19.336264 -93.891846
44000000000 -17.182701 -35.326363 -1.2761397 -171.51338 -1.2469434 -171.55484 -19.375772 -100.83491
44100000000 -16.470325 -39.258457 -1.2672734 -173.80464 -1.2807329 -174.455 -19.242321 -97.836693
44200000000 -18.877642 -28.067598 -1.1942081 -175.34627 -1.1868632 -175.57401 -19.028152 -101.0374
44300000000 -17.415279 -29.018223 -1.2141603 -177.38824 -1.2151034 -177.91861 -20.983803 -100.99648
44400000000 -18.647722 -30.75235 -1.3188879 179.76965 -1.2603375 179.74245 -21.239973 -105.67847
44500000000 -18.210115 -24.351297 -1.2622936 177.67552 -1.2019707 177.94286 -23.269361 -105.76366
44600000000 -18.68998 -30.273352 -1.2058309 176.02528 -1.1987628 175.95439 -26.12668 -115.50784
44700000000 -17.750557 -13.087355 -1.265588 174.14381 -1.1755221 173.74423 -26.784878 -133.15411
44800000000 -19.17473 -21.625835 -1.2519885 171.69099 -1.2915306 171.49411 -29.422668 -105.54539
44900000000 -18.044956 -11.075487 -1.2468737 169.28217 -1.2618757 169.43889 -32.390388 -111.59278
45000000000 -18.332455 -10.828047 -1.248418 167.11041 -1.2230431 167.23854 -41.836613 -98.596825
