!Keysight Technologies,N5247B,MY61255062,A.19.80.06
!Date: Monday, May 18, 2026 12:16:23
!Correction: S11(Cdelta 2-Port  ) 
!S21(Cdelta 2-Port  ) 
!S12(Cdelta 2-Port  ) 
!S22(Cdelta 2-Port  ) 
!S2P File: Measurements: S11, S21, S12, S22:
# Hz S  dB   R 50
1000000000 -26.775116 -21.055285 -0.40868062 -21.161993 -0.40784711 -21.170931 -27.208345 -22.797817
1100000000 -26.710686 -24.326635 -0.42145365 -23.232195 -0.42041552 -23.235855 -27.310804 -25.687315
1200000000 -26.642439 -26.771694 -0.42990869 -25.238901 -0.42869535 -25.253353 -27.307177 -27.029926
1300000000 -26.519011 -29.745615 -0.43716681 -27.336727 -0.43626857 -27.339476 -27.165499 -30.368093
1400000000 -26.419985 -31.759396 -0.44145557 -29.325104 -0.4410252 -29.324469 -27.128508 -31.447649
1500000000 -26.315304 -34.569485 -0.44322658 -31.373259 -0.4434562 -31.382647 -26.961348 -34.198647
1600000000 -26.251568 -36.997665 -0.44890872 -33.435352 -0.44666141 -33.439831 -26.86009 -37.359161
1700000000 -26.13043 -39.929268 -0.45079789 -35.475464 -0.4503749 -35.486435 -26.781464 -39.935169
1800000000 -26.011337 -42.771198 -0.45354098 -37.535568 -0.45280686 -37.528816 -26.686668 -42.956482
1900000000 -25.8755 -45.648636 -0.4561061 -39.594929 -0.4548429 -39.602215 -26.558115 -45.82933
2000000000 -25.845636 -48.506626 -0.4629949 -41.673363 -0.46198764 -41.683411 -26.528337 -49.12059
2100000000 -25.73823 -51.256348 -0.46653074 -43.719124 -0.46597105 -43.724075 -26.49917 -51.559963
2200000000 -25.707094 -54.12067 -0.47114608 -45.773376 -0.46968523 -45.789402 -26.43474 -54.530331
2300000000 -25.64542 -57.002243 -0.47561526 -47.840244 -0.47506943 -47.853348 -26.37693 -57.316441
2400000000 -25.630823 -59.847355 -0.48048577 -49.886475 -0.48017812 -49.902397 -26.409517 -60.196617
2500000000 -25.590761 -62.472244 -0.48735109 -51.953396 -0.48641029 -51.964478 -26.31967 -63.357109
2600000000 -25.58733 -65.381958 -0.49275029 -53.999847 -0.49404806 -54.004471 -26.345503 -66.274475
2700000000 -25.542757 -68.051331 -0.50115365 -56.040043 -0.5001924 -56.061836 -26.370186 -69.356499
2800000000 -25.592777 -70.854897 -0.50519788 -58.083855 -0.50486141 -58.106304 -26.352552 -71.954651
2900000000 -25.625301 -73.571709 -0.50950319 -60.129543 -0.50916117 -60.138561 -26.392591 -74.75013
3000000000 -25.60758 -76.200859 -0.5157426 -62.165226 -0.51598716 -62.166634 -26.444647 -77.263641
3100000000 -25.627377 -78.867928 -0.51833278 -64.196747 -0.518852 -64.232414 -26.558168 -80.195381
3200000000 -25.580849 -81.47541 -0.52347952 -66.243782 -0.52448416 -66.246353 -26.57163 -82.68148
3300000000 -25.574703 -83.934448 -0.52590394 -68.265221 -0.524535 -68.282303 -26.611498 -85.489029
3400000000 -25.624491 -86.514938 -0.53058749 -70.302307 -0.53106636 -70.322983 -26.612183 -87.655746
3500000000 -25.687986 -89.227791 -0.53449148 -72.337128 -0.53379625 -72.360466 -26.639278 -89.803223
3600000000 -25.651571 -91.542435 -0.53593212 -74.375008 -0.5356794 -74.390488 -26.693617 -92.006325
3700000000 -25.756834 -93.923042 -0.53849131 -76.418747 -0.53940272 -76.442253 -26.691542 -94.651047
3800000000 -25.72027 -96.185265 -0.54120064 -78.461174 -0.54310167 -78.487221 -26.781094 -97.090904
3900000000 -25.798079 -98.693588 -0.5441258 -80.512566 -0.54645318 -80.531029 -26.786562 -99.570595
4000000000 -25.828903 -100.70776 -0.54684335 -82.553146 -0.54984319 -82.566963 -26.868788 -101.74926
4100000000 -25.922285 -103.37359 -0.55134737 -84.602509 -0.55372453 -84.615494 -26.894726 -104.17855
4200000000 -25.998425 -105.3784 -0.55541861 -86.626328 -0.55653459 -86.642059 -27.020555 -106.30051
4300000000 -26.027117 -108.02349 -0.55750424 -88.666702 -0.56003875 -88.678154 -27.038851 -108.70384
4400000000 -26.187584 -110.15007 -0.56120276 -90.696175 -0.5623638 -90.717995 -27.239019 -110.66314
4500000000 -26.240631 -112.19546 -0.56226981 -92.746178 -0.56454325 -92.758636 -27.240902 -112.99151
4600000000 -26.397213 -114.69418 -0.56715029 -94.776901 -0.5691843 -94.804794 -27.354486 -115.70559
4700000000 -26.431911 -116.82409 -0.56999856 -96.838211 -0.570705 -96.84568 -27.395144 -117.45809
4800000000 -26.612246 -119.44852 -0.57245916 -98.866753 -0.57400936 -98.898064 -27.541435 -119.90789
4900000000 -26.773806 -121.07829 -0.57707739 -100.91773 -0.57661474 -100.92659 -27.641901 -121.6581
5000000000 -26.887316 -123.41206 -0.57936215 -102.94657 -0.58247924 -102.96149 -27.84186 -124.23441
5100000000 -27.047607 -125.42622 -0.58210361 -104.99697 -0.58469045 -104.993 -27.946936 -125.51923
5200000000 -27.148865 -127.71378 -0.58485657 -107.03794 -0.58633059 -107.04779 -28.206802 -128.11391
5300000000 -27.39941 -129.47104 -0.58976579 -109.05555 -0.5894171 -109.07735 -28.31148 -130.21432
5400000000 -27.570402 -132.11852 -0.59146988 -111.10477 -0.59308833 -111.12365 -28.390203 -132.9059
5500000000 -27.844606 -134.40208 -0.59507811 -113.13629 -0.59475183 -113.15435 -28.523392 -134.75218
5600000000 -27.982729 -136.87099 -0.59718639 -115.16579 -0.59888864 -115.18386 -28.669748 -136.26851
5700000000 -28.209106 -138.87502 -0.60021347 -117.20672 -0.60276681 -117.21662 -28.89278 -137.41988
5800000000 -28.403214 -140.90135 -0.60136539 -119.23359 -0.60385156 -119.2402 -29.159363 -139.63333
5900000000 -28.726349 -142.92821 -0.60407734 -121.26269 -0.60528773 -121.28282 -29.494484 -141.52824
6000000000 -28.928366 -144.78242 -0.60699373 -123.28468 -0.60711879 -123.29707 -29.606117 -144.74269
6100000000 -29.419397 -146.63997 -0.60727 -125.31807 -0.60640317 -125.34837 -29.822495 -146.70015
6200000000 -29.79207 -148.87694 -0.60568917 -127.36919 -0.61044115 -127.38057 -29.966648 -148.80879
6300000000 -30.310385 -151.46141 -0.60884577 -129.40297 -0.60844851 -129.40555 -30.358904 -149.12637
6400000000 -30.699076 -152.84732 -0.6097393 -131.43585 -0.61044711 -131.46532 -30.746502 -151.13811
6500000000 -31.259178 -155.38292 -0.60898751 -133.49142 -0.61008364 -133.49794 -31.25976 -151.23058
6600000000 -31.597288 -155.72594 -0.61217391 -135.51978 -0.61375415 -135.55511 -31.590721 -153.3284
6700000000 -32.081631 -157.82077 -0.61188215 -137.57172 -0.61424017 -137.59662 -31.932146 -153.62927
6800000000 -32.563114 -157.18681 -0.61371213 -139.63351 -0.61678922 -139.65561 -32.209393 -154.99826
6900000000 -33.189877 -159.45844 -0.61563206 -141.68736 -0.61620629 -141.69986 -32.790878 -154.54099
7000000000 -33.811275 -158.54771 -0.62332231 -143.71483 -0.62317288 -143.74319 -32.877495 -155.09219
7100000000 -34.281769 -161.67462 -0.62279522 -145.77487 -0.62448454 -145.78152 -33.303455 -155.64487
7200000000 -35.179913 -161.94673 -0.62628841 -147.8008 -0.62772214 -147.81967 -33.633411 -158.19579
7300000000 -35.911915 -163.43542 -0.62378758 -149.83142 -0.62820137 -149.86124 -34.049744 -158.65089
7400000000 -37.204277 -162.67494 -0.62903482 -151.89333 -0.63180727 -151.9334 -34.126381 -157.34915
7500000000 -37.447559 -161.87799 -0.63577396 -153.92009 -0.63687211 -153.95135 -34.62508 -155.65744
7600000000 -39.286152 -162.99782 -0.63705581 -155.94054 -0.63734484 -155.9758 -34.950214 -156.12216
7700000000 -40.244133 -157.02083 -0.63284987 -158.0038 -0.63394159 -158.03288 -36.311619 -154.71901
7800000000 -42.12178 -157.05556 -0.64007783 -160.07114 -0.6396054 -160.09688 -36.542522 -155.26894
7900000000 -42.870995 -145.79272 -0.64119023 -162.08757 -0.64416623 -162.13083 -36.554111 -157.61557
8000000000 -44.277363 -141.97049 -0.64481837 -164.15733 -0.64535296 -164.18013 -36.182877 -154.29562
8100000000 -45.32122 -121.19485 -0.64809704 -166.22395 -0.65123171 -166.22676 -36.568489 -148.25603
8200000000 -46.564701 -114.6106 -0.65230304 -168.26814 -0.65396929 -168.28517 -36.918484 -137.78358
8300000000 -47.163464 -86.560471 -0.66047418 -170.32265 -0.66180342 -170.34143 -39.611931 -133.35802
8400000000 -47.387436 -72.510399 -0.67144006 -172.41826 -0.67286915 -172.41321 -43.915707 -146.46465
8500000000 -43.54715 -55.330284 -0.69929922 -174.48526 -0.70109278 -174.49329 -40.192204 140.85732
8600000000 -41.98082 -88.685257 -0.77437675 -176.26443 -0.77763492 -176.26175 -31.46854 125.65394
8700000000 -43.55862 68.361649 -0.68893474 -176.99626 -0.69248641 -177.0309 -26.201077 93.666763
8800000000 -36.214184 -29.185873 -0.54307526 179.88496 -0.54685807 179.84862 -32.071266 70.133705
8900000000 -38.249611 -51.339806 -0.61257243 177.41148 -0.61153376 177.40565 -40.024952 114.55728
9000000000 -38.769012 -49.927681 -0.64525837 175.3759 -0.64994562 175.34956 -38.102348 -176.56696
9100000000 -37.377068 -44.844345 -0.66183299 173.36183 -0.66544676 173.34486 -36.571377 -147.9897
9200000000 -36.059708 -47.726505 -0.66985565 171.3475 -0.67262828 171.33655 -35.697674 -130.38335
9300000000 -35.009937 -48.974003 -0.67419344 169.33546 -0.67815793 169.31142 -36.504776 -117.99979
9400000000 -34.416405 -50.838821 -0.67739236 167.30989 -0.68121958 167.29152 -37.127293 -113.69505
9500000000 -33.773453 -50.003147 -0.68075991 165.28894 -0.68498558 165.27513 -38.480167 -113.421
9600000000 -33.174843 -50.092815 -0.68560392 163.26593 -0.68540204 163.24471 -38.04813 -117.78533
9700000000 -32.667347 -51.102497 -0.68635333 161.23846 -0.69033891 161.19228 -37.686638 -119.96298
9800000000 -31.969782 -53.760273 -0.6886884 159.19075 -0.69325429 159.16545 -36.810467 -117.42249
9900000000 -31.741255 -54.027184 -0.69349605 157.15382 -0.69452316 157.1348 -36.965599 -113.61852
10000000000 -31.08746 -56.014069 -0.69594616 155.13034 -0.69856709 155.10034 -36.482601 -112.15701
10100000000 -30.912891 -56.024792 -0.69788611 153.09576 -0.69844848 153.06085 -37.392616 -111.682
10200000000 -30.094885 -57.30418 -0.6984573 151.06966 -0.7014907 151.0233 -36.753841 -116.05978
10300000000 -29.99992 -58.914906 -0.70495009 149.02541 -0.70579022 148.98332 -36.428913 -118.56301
10400000000 -29.445902 -60.535606 -0.70741343 146.97551 -0.70702624 146.94432 -35.365322 -116.19674
10500000000 -29.431204 -64.078148 -0.70818973 144.93085 -0.7139684 144.90938 -35.392765 -114.40602
10600000000 -28.905224 -63.882877 -0.7121439 142.88712 -0.71597588 142.88873 -35.007526 -110.02604
10700000000 -28.646275 -66.520355 -0.71734977 140.87022 -0.71867913 140.83186 -35.450447 -109.64056
10800000000 -28.205469 -65.955948 -0.7167232 138.83063 -0.72204494 138.79614 -35.549335 -108.5812
10900000000 -27.864164 -68.860229 -0.72383815 136.80537 -0.72418463 136.80463 -36.256561 -114.10931
11000000000 -27.701757 -68.997787 -0.72485507 134.79497 -0.73072088 134.76331 -35.490627 -115.00945
11100000000 -27.412392 -71.807297 -0.72639084 132.77104 -0.73371685 132.72424 -35.290863 -119.83929
11200000000 -27.386566 -72.931458 -0.73003054 130.73193 -0.73824567 130.69342 -34.506744 -117.31908
11300000000 -27.022026 -74.735382 -0.73614287 128.71375 -0.73994392 128.66103 -34.283527 -119.12448
11400000000 -26.920986 -76.705025 -0.73925275 126.67948 -0.74082619 126.63448 -33.904839 -114.81306
11500000000 -26.554405 -78.295753 -0.73933655 124.65955 -0.74350351 124.61624 -33.983253 -115.09241
11600000000 -26.455803 -80.950722 -0.74376065 122.63259 -0.74370259 122.58242 -34.101364 -114.94744
11700000000 -26.172443 -81.689285 -0.74541008 120.61274 -0.74902362 120.57063 -34.348198 -119.86351
11800000000 -26.187244 -84.219582 -0.74803454 118.58927 -0.75280118 118.56836 -34.081871 -120.534
11900000000 -25.978136 -85.009125 -0.75447041 116.58164 -0.75458896 116.5598 -33.755047 -124.22585
12000000000 -26.036087 -87.860542 -0.75483537 114.5809 -0.75591469 114.55111 -33.482677 -122.94873
12100000000 -25.822189 -89.483162 -0.75508547 112.55197 -0.7575537 112.52409 -33.292732 -125.75623
12200000000 -25.750525 -92.462234 -0.75385725 110.55309 -0.75808007 110.50818 -33.160175 -125.12799
12300000000 -25.734085 -93.821388 -0.75556445 108.51558 -0.7581507 108.48784 -33.270817 -127.31632
12400000000 -25.695826 -96.081177 -0.75549269 106.50407 -0.759426 106.4796 -33.468613 -129.22641
12500000000 -25.774977 -97.206688 -0.75391454 104.48769 -0.75537962 104.47103 -33.457886 -133.81593
12600000000 -25.788666 -99.252396 -0.7508117 102.45789 -0.75096244 102.44799 -33.574245 -133.55225
12700000000 -25.88386 -100.0854 -0.7471779 100.4479 -0.75191993 100.40922 -33.461128 -136.51048
12800000000 -25.788721 -103.43309 -0.74550444 98.422226 -0.7473762 98.383789 -33.796211 -136.50146
12900000000 -25.888897 -104.48026 -0.74325806 96.370911 -0.74616706 96.335487 -33.943779 -139.80841
13000000000 -25.79118 -106.0517 -0.74138683 94.308403 -0.7441622 94.287552 -34.377338 -139.78299
13100000000 -26.053213 -106.54576 -0.73999214 92.279259 -0.74469405 92.238449 -34.644173 -144.27077
13200000000 -26.000698 -108.18251 -0.73871607 90.239082 -0.74324423 90.183388 -35.084373 -143.44762
13300000000 -26.344847 -110.28127 -0.73988289 88.163727 -0.74306303 88.141602 -35.080921 -143.78078
13400000000 -26.166809 -110.42268 -0.73841596 86.116028 -0.74049497 86.084061 -36.308174 -140.95239
13500000000 -26.306417 -112.71317 -0.74078506 84.073349 -0.74423313 84.02758 -36.797894 -144.14954
13600000000 -26.145823 -112.09622 -0.74092197 82.008286 -0.74231392 81.983406 -38.026173 -144.58577
13700000000 -26.336306 -114.20889 -0.74560583 79.943398 -0.74864286 79.908653 -37.888832 -148.53375
13800000000 -26.442474 -112.68037 -0.75164658 77.85157 -0.75394905 77.824913 -38.251377 -145.58664
13900000000 -26.312656 -116.74691 -0.76569599 75.840088 -0.76655138 75.792694 -37.018017 -141.56596
14000000000 -26.610628 -118.63066 -0.76749742 73.891586 -0.76917845 73.834839 -37.194424 -140.95975
14100000000 -26.507847 -122.55007 -0.76000541 71.868416 -0.76334846 71.828079 -37.490524 -144.1698
14200000000 -26.97356 -122.60966 -0.75821358 69.831589 -0.76022065 69.786682 -39.597954 -145.16957
14300000000 -26.744904 -123.2777 -0.75518155 67.77137 -0.75979942 67.728058 -39.808102 -150.85963
14400000000 -27.417267 -123.98969 -0.75869721 65.741089 -0.75822771 65.678528 -41.405136 -153.74179
14500000000 -27.384335 -124.03899 -0.75828815 63.669323 -0.76515508 63.622879 -40.375908 -149.47002
14600000000 -27.959688 -126.50742 -0.76190841 61.603329 -0.76565307 61.583076 -41.151852 -145.93892
14700000000 -27.885326 -126.62999 -0.77225548 59.549503 -0.7696352 59.516953 -40.83252 -134.63875
14800000000 -27.886742 -130.06853 -0.77759993 57.537693 -0.78346026 57.476677 -41.729336 -132.61363
14900000000 -27.92247 -130.56532 -0.78014851 55.565552 -0.78444535 55.51852 -41.292702 -139.88704
15000000000 -28.301819 -132.92639 -0.77461439 53.551716 -0.77615362 53.4865 -42.844028 -148.67816
15100000000 -28.840887 -130.44421 -0.77184421 51.472591 -0.77404851 51.42646 -42.747486 -139.86227
15200000000 -29.179804 -133.34921 -0.77079582 49.439743 -0.77106726 49.374897 -43.930847 -131.68037
15300000000 -29.600779 -132.86809 -0.7749145 47.380356 -0.77636659 47.318069 -42.88958 -118.04966
15400000000 -29.527939 -135.37379 -0.775828 45.310863 -0.78079385 45.276745 -44.547417 -103.36542
15500000000 -29.748245 -134.74338 -0.77684081 43.280743 -0.78311926 43.253811 -44.190693 -101.15385
15600000000 -29.660357 -135.77881 -0.78133953 41.2369 -0.78862572 41.184624 -45.912197 -97.434189
15700000000 -30.191931 -133.74419 -0.78328943 39.217934 -0.78779638 39.151817 -43.862709 -98.236603
15800000000 -30.541245 -136.13414 -0.78648692 37.160694 -0.79258394 37.113125 -43.420929 -100.81042
15900000000 -31.464542 -135.67714 -0.79127181 35.123875 -0.79434061 35.075031 -41.655369 -95.030945
16000000000 -31.263058 -138.39474 -0.79571801 33.08062 -0.79708815 33.03883 -42.00412 -85.8778
16100000000 -31.95759 -139.58618 -0.79653579 31.075407 -0.79822469 31.01969 -41.664177 -80.40197
16200000000 -31.538721 -140.15521 -0.7985028 29.031939 -0.80447775 28.959404 -42.74593 -74.915359
16300000000 -32.87397 -139.14749 -0.80071509 27.01214 -0.80502951 26.969618 -42.195484 -77.736076
16400000000 -32.900227 -137.62033 -0.80724603 24.967428 -0.80977154 24.930561 -43.114742 -74.760757
16500000000 -34.64341 -142.39621 -0.80849659 22.915287 -0.81188184 22.908123 -41.494915 -82.106682
16600000000 -34.168148 -138.32932 -0.81014931 20.906511 -0.8162359 20.865543 -41.176517 -73.40947
16700000000 -34.935375 -147.16583 -0.81356704 18.891359 -0.81724221 18.829844 -39.80434 -72.71833
16800000000 -35.057705 -135.24738 -0.81640297 16.854244 -0.82011992 16.795967 -40.987427 -64.696602
16900000000 -35.817043 -142.25471 -0.81766587 14.828025 -0.82140231 14.78784 -40.080963 -65.41954
17000000000 -37.464279 -125.1068 -0.82002485 12.809978 -0.82676655 12.772258 -42.087399 -68.408379
17100000000 -37.697361 -137.8531 -0.82334656 10.801243 -0.82979071 10.758968 -40.638947 -74.158226
17200000000 -40.509254 -125.38337 -0.82027656 8.7657509 -0.82622802 8.7171726 -40.581432 -75.583023
17300000000 -37.965553 -132.78758 -0.82645971 6.7155156 -0.83123177 6.6775098 -38.449005 -71.856331
17400000000 -39.915131 -121.86985 -0.82439613 4.7025309 -0.83119416 4.6742086 -39.120625 -72.214149
17500000000 -37.633785 -121.37937 -0.82824016 2.6707258 -0.83226788 2.6215758 -38.194607 -64.137344
17600000000 -40.869083 -107.04527 -0.83184654 0.67664689 -0.83220047 0.61555392 -39.883533 -68.494347
17700000000 -39.009079 -100.57123 -0.83393496 -1.3977344 -0.83881575 -1.4441292 -39.306911 -66.30423
17800000000 -41.632229 -96.443604 -0.83581424 -3.3863289 -0.83775985 -3.4461753 -40.280285 -78.679131
17900000000 -38.917049 -89.934059 -0.83480859 -5.397851 -0.84080106 -5.4686551 -38.576492 -78.438683
18000000000 -40.298164 -96.942139 -0.83458084 -7.4263573 -0.83840913 -7.4964914 -38.139954 -77.474854
18100000000 -38.445702 -83.129562 -0.83555692 -9.4246998 -0.84249562 -9.51443 -36.58741 -67.088463
18200000000 -39.529209 -85.075645 -0.83849895 -11.472301 -0.84113377 -11.526003 -37.720585 -67.316048
18300000000 -38.587273 -70.668137 -0.83420473 -13.50195 -0.84334332 -13.56172 -38.122162 -57.533245
18400000000 -38.970455 -69.792641 -0.83358151 -15.524132 -0.83888358 -15.564981 -39.325733 -63.852333
18500000000 -37.85611 -61.123077 -0.83705103 -17.551868 -0.84163934 -17.607225 -39.070766 -64.199409
18600000000 -37.740875 -60.679661 -0.84188157 -19.604774 -0.84116203 -19.650587 -38.369259 -76.235588
18700000000 -36.465252 -56.497154 -0.83414829 -21.60659 -0.83839405 -21.680525 -37.172832 -68.534248
18800000000 -36.740471 -56.497993 -0.83764404 -23.637312 -0.83726984 -23.712704 -36.270016 -65.920303
18900000000 -35.487659 -51.395721 -0.83544523 -25.695766 -0.84155858 -25.713602 -35.884796 -55.174492
19000000000 -35.747189 -50.712463 -0.83758062 -27.716045 -0.83981943 -27.74284 -37.201897 -50.404366
19100000000 -34.692314 -46.98402 -0.83547091 -29.728205 -0.83839375 -29.787022 -37.551117 -49.366192
19200000000 -34.966179 -49.656116 -0.83441585 -31.764549 -0.83928961 -31.817907 -38.843525 -57.044048
19300000000 -33.949169 -45.944527 -0.83238578 -33.802254 -0.83649772 -33.85598 -37.427937 -58.773151
19400000000 -34.379749 -52.120968 -0.83376968 -35.841187 -0.83984959 -35.882771 -37.840031 -61.583836
19500000000 -33.392933 -46.333916 -0.82651293 -37.902538 -0.83442557 -37.935501 -36.284439 -56.713367
19600000000 -32.917622 -50.798786 -0.82826525 -39.950314 -0.83426309 -40.008804 -37.022057 -53.865376
19700000000 -32.793186 -39.122814 -0.827402 -41.964138 -0.83471793 -42.020412 -35.940128 -47.027229
19800000000 -32.600224 -48.361523 -0.82844126 -44.015949 -0.83584625 -44.089088 -37.498402 -49.49844
19900000000 -33.237339 -39.969753 -0.82480645 -46.082516 -0.83036202 -46.1031 -36.559158 -44.875603
20000000000 -32.136669 -49.335537 -0.83148289 -48.116344 -0.83227509 -48.164143 -36.930168 -51.838402
20100000000 -32.788567 -45.575832 -0.83050865 -50.179028 -0.83623409 -50.242722 -35.382111 -41.957855
20200000000 -30.776142 -46.276146 -0.83603293 -52.216232 -0.84080076 -52.255112 -35.771187 -44.915581
20300000000 -31.535387 -44.728718 -0.83704036 -54.283085 -0.84284514 -54.326958 -35.095043 -33.206329
20400000000 -29.934666 -42.129585 -0.83974534 -56.316917 -0.84255916 -56.39727 -35.516434 -41.67577
20500000000 -30.965385 -49.101646 -0.8429696 -58.362343 -0.85115069 -58.422283 -34.945038 -36.450844
20600000000 -29.982763 -44.414928 -0.8493973 -60.408749 -0.85209364 -60.477322 -34.076992 -46.849434
20700000000 -30.044489 -54.095272 -0.84803551 -62.395786 -0.85442758 -62.470337 -32.769779 -39.816547
20800000000 -29.551456 -48.249107 -0.86011928 -64.415169 -0.8580513 -64.510681 -31.985268 -45.029114
20900000000 -29.201513 -53.786156 -0.85254812 -66.434196 -0.85440391 -66.48571 -31.969942 -35.844269
21000000000 -29.321541 -49.459461 -0.85111606 -68.442284 -0.85665274 -68.515846 -32.114185 -39.238445
21100000000 -28.7099 -51.99659 -0.84987175 -70.49044 -0.85682774 -70.562492 -32.491314 -34.840359
21200000000 -29.304352 -51.231255 -0.85185677 -72.600418 -0.85292172 -72.632889 -32.453308 -41.988079
21300000000 -28.638821 -52.745647 -0.85342741 -74.622391 -0.85757792 -74.703979 -32.218967 -40.3927
21400000000 -28.830648 -55.135048 -0.85236794 -76.682472 -0.86180061 -76.768326 -30.895493 -44.923828
21500000000 -28.254028 -56.836758 -0.86411101 -78.687851 -0.86882097 -78.755318 -30.315365 -44.955288
21600000000 -28.266878 -58.238407 -0.86225581 -80.661316 -0.86942869 -80.752426 -29.772615 -46.028702
21700000000 -28.304344 -57.888424 -0.85366625 -82.659393 -0.8601073 -82.731049 -30.338146 -40.999607
21800000000 -28.337513 -56.125885 -0.84675336 -84.693222 -0.85400748 -84.765671 -30.403027 -42.742691
21900000000 -28.477949 -57.561119 -0.85018998 -86.7472 -0.85835475 -86.846664 -30.734575 -38.450081
22000000000 -28.49921 -56.143696 -0.85566974 -88.847221 -0.85978484 -88.915108 -30.56386 -46.529945
22100000000 -28.291454 -60.253204 -0.85874653 -90.900452 -0.86612535 -90.961464 -29.980562 -47.845749
22200000000 -28.60354 -57.403122 -0.86200011 -92.942055 -0.86802071 -93.009293 -29.400167 -52.24551
22300000000 -27.999134 -60.564175 -0.85843676 -95.014946 -0.86395723 -95.059319 -29.070799 -48.137497
22400000000 -28.915634 -57.954887 -0.86367989 -96.982552 -0.86022156 -97.052048 -28.645029 -50.533871
22500000000 -27.959547 -58.398632 -0.85717839 -99.069786 -0.86189657 -99.122856 -28.950962 -45.329617
22600000000 -28.990984 -61.01775 -0.85715568 -101.07381 -0.86730379 -101.11938 -28.9105 -51.120636
22700000000 -28.081514 -59.862503 -0.8677457 -103.15824 -0.86678928 -103.22132 -29.119608 -50.996777
22800000000 -28.66744 -66.262604 -0.8694663 -105.19772 -0.87109208 -105.2646 -28.222727 -57.080589
22900000000 -28.054945 -58.085842 -0.86722761 -107.22099 -0.87538368 -107.28923 -28.257591 -56.383163
23000000000 -28.131264 -65.580933 -0.87179983 -109.2837 -0.87737817 -109.35609 -27.514036 -59.142506
23100000000 -28.274622 -58.448265 -0.87108326 -111.28468 -0.87003243 -111.36633 -28.061991 -57.004269
23200000000 -28.063009 -66.619408 -0.87963194 -113.33986 -0.88183862 -113.41756 -27.707092 -60.150753
23300000000 -29.023407 -61.324341 -0.87681937 -115.41535 -0.87727332 -115.45357 -28.346106 -62.803226
23400000000 -27.891174 -67.475266 -0.88218021 -117.40716 -0.88887781 -117.48047 -27.226372 -67.416061
23500000000 -28.949673 -67.041595 -0.88308263 -119.48456 -0.88745594 -119.56607 -27.419777 -70.226326
23600000000 -27.749817 -65.700745 -0.88300174 -121.57028 -0.88942134 -121.59377 -26.300146 -68.399704
23700000000 -28.838131 -70.196518 -0.88854557 -123.52696 -0.88831723 -123.58629 -27.061321 -67.668846
23800000000 -28.272581 -65.304771 -0.88945884 -125.59135 -0.89500743 -125.66121 -26.989059 -67.608902
23900000000 -28.654303 -74.555199 -0.88917929 -127.6181 -0.89703679 -127.70857 -28.061922 -72.122612
24000000000 -28.901796 -67.216881 -0.89401156 -129.68454 -0.89774114 -129.72086 -27.551359 -77.283371
24100000000 -28.73896 -76.072075 -0.89265126 -131.66704 -0.90021312 -131.79286 -27.572231 -85.453377
24200000000 -29.322178 -69.162186 -0.90032583 -133.70607 -0.89923036 -133.77887 -26.579508 -83.427467
24300000000 -28.62402 -74.598824 -0.89632237 -135.75978 -0.90162742 -135.81256 -26.316057 -84.924004
24400000000 -29.697891 -70.729004 -0.8945052 -137.76855 -0.89872539 -137.84207 -26.397757 -79.042763
24500000000 -29.29701 -72.299026 -0.89884895 -139.81055 -0.90255296 -139.862 -27.430109 -82.068962
24600000000 -30.555456 -74.058586 -0.89958191 -141.85822 -0.90812886 -141.89848 -28.092505 -82.074219
24700000000 -30.224939 -72.5158 -0.90241694 -143.90689 -0.90595913 -143.95059 -28.493439 -93.509171
24800000000 -31.362139 -77.722794 -0.90620917 -145.93279 -0.90813464 -145.98949 -28.103003 -96.152336
24900000000 -31.245972 -72.972054 -0.90508956 -147.97116 -0.90555131 -148.05186 -27.593023 -101.20003
25000000000 -31.349396 -74.193268 -0.90008956 -150.03169 -0.90373248 -150.05482 -27.396404 -96.465195
25100000000 -31.714224 -68.208656 -0.90154839 -152.03401 -0.90912896 -152.10857 -27.842039 -97.146034
25200000000 -32.019196 -66.420654 -0.90619004 -154.06825 -0.90796745 -154.10645 -28.549786 -94.621269
25300000000 -32.817505 -64.754196 -0.90667611 -156.11879 -0.91254312 -156.16405 -29.414011 -102.1675
25400000000 -33.902538 -59.193302 -0.91420871 -158.11726 -0.91085678 -158.18178 -29.50555 -104.98213
25500000000 -34.115196 -64.156357 -0.91176802 -160.19328 -0.91443175 -160.26163 -29.870134 -112.20658
25600000000 -35.373821 -56.728077 -0.91209698 -162.23534 -0.90847474 -162.31989 -29.876701 -111.74021
25700000000 -34.022568 -56.571964 -0.91035748 -164.31631 -0.9166348 -164.3757 -30.048931 -113.06351
25800000000 -35.876709 -52.746387 -0.90520501 -166.27461 -0.91905332 -166.40668 -30.604086 -113.24185
25900000000 -33.874973 -40.353897 -0.91201234 -168.34459 -0.9176231 -168.46849 -31.292334 -118.83176
26000000000 -35.645252 -39.347591 -0.9152351 -170.38646 -0.9183017 -170.46199 -32.635334 -118.1966
26100000000 -33.430893 -23.098152 -0.91410679 -172.4575 -0.92604804 -172.46103 -32.305527 -128.02527
26200000000 -35.347984 -33.510723 -0.91947973 -174.50786 -0.92406917 -174.61481 -33.80719 -126.18356
26300000000 -33.47261 -9.2827063 -0.92564279 -176.54723 -0.92420685 -176.57697 -32.985661 -135.43045
26400000000 -34.521702 -28.113256 -0.92284954 -178.63283 -0.93249893 -178.64513 -35.274105 -128.46249
26500000000 -33.604603 1.4546112 -0.91941255 179.39336 -0.92384148 179.31859 -34.766815 -140.6821
26600000000 -32.316807 -19.508148 -0.92627168 177.23897 -0.93069798 177.34073 -37.607288 -138.54521
26700000000 -33.26231 5.1812859 -0.9144845 175.36258 -0.91862053 175.2547 -36.206013 -153.15985
26800000000 -30.559183 -13.093081 -0.93148834 173.30916 -0.9319737 173.28348 -41.141991 -171.27379
26900000000 -33.130859 6.0310979 -0.93380725 171.20276 -0.94671792 171.09315 -36.505524 -170.33858
27000000000 -29.561436 -2.3950956 -0.94167459 169.18753 -0.94416273 169.11981 -42.118435 151.81491
27100000000 -31.685249 2.0724473 -0.91910797 167.26294 -0.93887776 167.09041 -39.57436 -177.6357
27200000000 -28.799995 6.5410995 -0.95021081 165.15533 -0.94301915 165.01294 -41.764805 130.63124
27300000000 -30.23159 1.5377275 -0.94851458 162.99022 -0.95534021 163.03809 -47.629719 115.01268
27400000000 -27.374756 9.1788158 -0.95611179 160.92375 -0.97540754 160.83293 -39.242714 83.417046
27500000000 -29.123888 -2.9612617 -0.95699555 158.93919 -0.96290416 158.88713 -42.824986 74.292
27600000000 -27.245789 6.822166 -0.96253455 156.93655 -0.960217 156.76314 -36.493382 78.915565
27700000000 -26.885609 -7.0851316 -0.95014215 154.94345 -0.9610709 154.89255 -39.535923 66.876976
27800000000 -26.709824 8.6119108 -0.95718718 152.98752 -0.94709104 152.82054 -36.282749 63.948521
27900000000 -26.113354 0.54568172 -0.96696562 150.84404 -0.95457131 150.84866 -36.635132 50.259041
28000000000 -26.363724 9.9937572 -0.9807933 148.68126 -0.96617562 148.75861 -33.103481 54.56852
28100000000 -25.499714 0.41141537 -0.9656589 146.8313 -0.95913213 146.74493 -31.951633 34.404041
28200000000 -25.536327 4.3934512 -0.95633185 144.51459 -0.97270006 144.63245 -30.339771 45.391441
28300000000 -24.005182 -0.51543951 -0.96449322 142.67105 -0.9842487 142.5553 -30.380692 36.527897
28400000000 -24.138184 -0.27248728 -0.9954896 140.69395 -0.9888249 140.51886 -29.589699 39.542091
28500000000 -23.57757 -2.121299 -0.97426903 138.7063 -0.96568412 138.53441 -28.615242 29.510826
28600000000 -23.595335 -0.049897235 -0.99018186 136.56882 -0.99991345 136.60625 -28.106003 27.485399
28700000000 -23.121101 -1.5316322 -0.98149025 134.61005 -0.98406756 134.47595 -27.40897 24.754602
28800000000 -23.630718 -2.2301643 -0.96946186 132.58617 -0.98797011 132.36789 -27.080242 28.346384
28900000000 -22.733316 -6.2792425 -0.99068069 130.41478 -0.9831692 130.36624 -26.539642 21.736618
29000000000 -22.863747 -3.7524471 -0.98238528 128.48338 -0.9963159 128.46037 -26.262747 20.552597
29100000000 -21.707533 -5.8105416 -0.98071605 126.30048 -0.98077154 126.29571 -25.525528 10.701354
29200000000 -22.561949 -7.4183021 -1.0063534 124.42762 -1.0186841 124.20837 -24.817358 14.280261
29300000000 -21.895166 -6.8370934 -0.97933775 122.42404 -1.0124236 122.34568 -24.179993 9.7723198
29400000000 -22.481407 -8.7585545 -1.0081085 120.35399 -1.0026164 120.30549 -24.046556 16.746574
29500000000 -21.473911 -6.222075 -0.993213 118.21234 -1.0134484 118.38006 -23.866329 9.7103348
29600000000 -21.73744 -14.822609 -0.98996401 116.25705 -0.99969023 116.19987 -24.268795 14.232568
29700000000 -21.472042 -7.7307892 -0.9831965 114.10521 -0.98313773 114.05138 -23.510056 2.7673535
29800000000 -21.278482 -15.683863 -1.0019777 112.15884 -1.0042785 112.16443 -23.682192 2.713918
29900000000 -21.311705 -7.1880264 -1.0113865 110.13322 -0.98941815 109.97718 -22.184311 -2.6441269
30000000000 -20.542862 -14.303264 -1.0207481 108.08588 -1.0075957 108.06021 -22.131069 0.32508317
30100000000 -21.710808 -11.279823 -1.0022144 106.019 -1.0219567 105.98262 -21.461742 -3.801064
30200000000 -20.034645 -17.704742 -1.0151427 104.10954 -1.0131018 104.07187 -22.079542 -2.5400119
30300000000 -20.94972 -16.578453 -1.0249809 102.12089 -1.0448912 101.84517 -21.378092 -6.2420034
30400000000 -19.742397 -17.792833 -1.0275818 99.736305 -1.0236071 99.849281 -22.342091 -9.4607134
30500000000 -20.591835 -22.287806 -1.0133722 97.815689 -1.0228325 97.643463 -20.846466 -15.166965
30600000000 -19.873775 -16.499933 -1.0105426 95.653259 -1.0301071 95.778053 -21.459305 -17.817741
30700000000 -20.195944 -24.215931 -1.0228713 93.758636 -0.99888605 93.693893 -19.953413 -18.130779
30800000000 -20.12191 -20.319263 -1.0424616 92.01091 -1.0608834 91.7117 -20.710972 -20.253708
30900000000 -19.778217 -27.056755 -1.0289768 89.947708 -1.0398208 89.714661 -20.034449 -20.171032
31000000000 -19.973633 -22.282274 -1.0291868 87.856178 -1.0295048 87.684128 -20.489124 -24.30439
31100000000 -19.471262 -27.322201 -1.0491518 85.753304 -1.0249819 85.573074 -20.185783 -27.394091
31200000000 -19.741531 -24.303177 -1.0547619 83.877159 -1.0232663 83.607208 -20.059978 -31.989775
31300000000 -19.256418 -26.747587 -1.0357829 81.834229 -1.0438259 81.759712 -19.730791 -31.186275
31400000000 -19.76362 -25.217915 -1.0337397 79.674988 -1.0651634 79.654015 -19.721952 -33.950287
31500000000 -19.546463 -28.421625 -1.0351962 77.688652 -1.0383523 77.561592 -19.443144 -32.719856
31600000000 -19.816822 -29.198631 -1.0546238 75.571732 -1.0601677 75.51265 -19.736662 -37.270649
31700000000 -19.431038 -32.34713 -1.0619328 73.479378 -1.0634385 73.548958 -19.73547 -38.408993
31800000000 -19.889084 -32.422497 -1.0512377 71.395676 -1.0658112 71.227448 -19.667206 -43.747009
31900000000 -19.300898 -31.676935 -1.0251917 69.452507 -1.0619863 69.46946 -19.248938 -44.612103
32000000000 -19.593662 -31.237906 -1.0427575 67.527763 -1.0492365 67.386093 -19.331228 -48.577389
32100000000 -19.848372 -35.325214 -1.0398649 65.429665 -1.0338432 65.40242 -18.805019 -46.131718
32200000000 -20.120476 -33.594025 -1.0195024 63.480038 -1.0600259 63.342125 -19.258291 -49.324257
32300000000 -19.668642 -35.960331 -1.0567751 61.259327 -1.0485339 61.125759 -19.343555 -49.178707
32400000000 -20.067427 -37.700996 -1.0536296 59.357979 -1.0431291 59.16922 -19.808788 -55.367912
32500000000 -19.7332 -36.039818 -1.0314357 57.281475 -1.0406885 57.150856 -19.64102 -55.959991
32600000000 -20.398087 -40.005173 -1.0258639 55.308723 -1.0776725 55.077553 -19.406195 -61.094158
32700000000 -19.822559 -35.809063 -1.0702831 53.176003 -1.0682161 53.178749 -18.944921 -60.798767
32800000000 -20.128267 -41.272408 -1.0565066 51.176357 -1.0741469 51.056541 -18.786621 -64.658844
32900000000 -20.216721 -35.158936 -1.0604215 49.061939 -1.0601938 48.962017 -19.329372 -63.444439
33000000000 -20.271467 -42.738564 -1.0612836 47.065819 -1.0591815 46.877163 -19.597816 -66.464172
33100000000 -20.851471 -38.887432 -1.0495352 45.07251 -1.0847017 44.765099 -19.951965 -69.676628
33200000000 -20.339973 -42.674164 -1.0555837 42.959064 -1.0734564 42.964462 -19.572134 -74.264824
33300000000 -21.140699 -39.199726 -1.0618013 40.948647 -1.0772094 40.894699 -19.839817 -74.23774
33400000000 -20.445221 -42.525486 -1.0713366 38.97229 -1.0667466 38.726856 -19.354191 -76.435608
33500000000 -21.314459 -42.247314 -1.0523326 36.872311 -1.0998558 36.752148 -20.511803 -79.602547
33600000000 -20.500278 -39.116692 -1.0207295 34.721821 -1.0574104 34.85989 -19.840952 -80.200974
33700000000 -21.446915 -43.130066 -1.079396 32.658474 -1.0687608 32.723946 -20.766453 -82.5821
33800000000 -20.911325 -38.587334 -1.0621791 30.970015 -1.0795134 30.743696 -20.258369 -86.27578
33900000000 -21.40386 -43.721481 -1.0736964 28.990038 -1.0850824 28.584297 -20.642378 -89.729218
34000000000 -21.134483 -37.316952 -1.0533136 26.896717 -1.0527383 26.736824 -20.611513 -89.808304
34100000000 -21.37438 -41.281857 -1.0526024 24.568909 -1.0448959 24.668026 -21.016846 -93.028687
34200000000 -22.441954 -36.092178 -1.0258079 22.963148 -1.0535281 22.533037 -21.524462 -93.614838
34300000000 -21.96685 -37.902897 -1.0545546 20.417789 -1.0433792 20.413876 -21.896082 -99.810654
34400000000 -22.415171 -33.995121 -1.0569389 18.368876 -1.0416298 18.268251 -22.340237 -102.79945
34500000000 -21.741346 -34.522182 -1.0882055 16.442011 -1.0671504 16.126583 -22.275854 -108.46724
34600000000 -22.419369 -35.97789 -1.0953107 14.281559 -1.1060573 14.293567 -22.550154 -109.09704
34700000000 -22.231457 -33.367443 -1.0864162 12.382006 -1.0827062 12.133919 -22.862032 -108.05499
34800000000 -22.185675 -32.262989 -1.0916706 10.288503 -1.0619411 10.273676 -23.555384 -110.76914
34900000000 -22.826502 -31.334583 -1.0653158 8.1863213 -1.058341 8.1247072 -24.620995 -119.69493
35000000000 -22.381901 -27.943748 -1.0581205 6.254447 -1.0607899 6.2152858 -25.397871 -126.23326
35100000000 -22.973484 -30.785589 -1.0844607 4.1159887 -1.0795569 4.0190411 -24.530577 -132.05536
35200000000 -23.027042 -24.286369 -1.0646334 2.0853605 -1.0739039 2.0913048 -24.966343 -135.72572
35300000000 -22.916336 -25.505154 -1.0755129 -0.071886078 -1.06304 -0.27362749 -25.623524 -129.6926
35400000000 -22.928375 -18.600904 -1.0779468 -2.1445513 -1.1099982 -2.1725857 -25.973404 -134.2942
35500000000 -22.63566 -19.884043 -1.0774887 -4.182148 -1.099406 -4.1237655 -27.491102 -144.54787
35600000000 -22.847273 -15.642915 -1.0978462 -6.2705045 -1.1338327 -6.1378818 -29.492777 -154.42691
35700000000 -21.459953 -17.585751 -1.096736 -8.2211046 -1.0700138 -8.47054 -29.779816 -154.57851
35800000000 -22.913424 -15.771902 -1.1101584 -10.269969 -1.1374874 -10.29472 -29.280191 -158.65031
35900000000 -21.129293 -11.995672 -1.0757171 -12.338181 -1.1283305 -12.48966 -28.531797 -168.55223
36000000000 -22.502003 -12.844563 -1.1329432 -14.226556 -1.0818222 -14.124393 -31.903866 -175.26768
36100000000 -20.826593 -4.7481155 -1.1234765 -16.303583 -1.0897895 -16.596218 -31.733038 164.22346
36200000000 -22.018177 -15.399787 -1.0974108 -18.610704 -1.0986621 -18.2913 -31.673044 148.39514
36300000000 -20.973763 -4.087832 -1.1307247 -20.752077 -1.1309843 -20.571312 -30.940655 135.89925
36400000000 -20.807384 -12.701937 -1.1151407 -22.682043 -1.1266203 -22.809254 -31.807173 136.04849
36500000000 -20.663469 -0.47367576 -1.1117862 -24.849993 -1.1244437 -24.699003 -29.389812 103.02412
36600000000 -19.288729 -11.088212 -1.0670133 -26.719418 -1.0637633 -26.826183 -30.572273 86.738792
36700000000 -20.231596 0.69752723 -1.1251204 -28.999956 -1.1753541 -28.920988 -29.45713 83.652908
36800000000 -18.952795 -8.7236862 -1.1151735 -30.833633 -1.172812 -30.785421 -26.288673 69.920486
36900000000 -19.883982 -2.9622197 -1.1661403 -32.895817 -1.1639647 -32.95927 -25.446487 80.795822
37000000000 -18.110277 -7.6056113 -1.1241015 -34.993046 -1.1676375 -34.878933 -25.573906 73.662727
37100000000 -18.665089 -5.2152309 -1.1749995 -36.994499 -1.1800911 -37.319305 -26.66188 73.743958
37200000000 -17.581268 -3.5993536 -1.1413436 -39.026718 -1.1596665 -39.205826 -25.113285 59.652481
37300000000 -18.74971 -0.70773256 -1.2008152 -40.949989 -1.2008551 -41.067734 -24.461739 54.659729
37400000000 -17.759026 -1.1164225 -1.1463493 -43.241692 -1.1465603 -43.143921 -22.138971 49.912865
37500000000 -17.882191 -4.9560742 -1.1739726 -44.772022 -1.1492099 -45.330765 -21.993427 46.683029
37600000000 -17.118986 -3.6896524 -1.1484375 -47.310291 -1.2088799 -47.596836 -20.956808 48.742683
37700000000 -17.049824 -6.5744658 -1.1674767 -49.13221 -1.1744744 -49.268471 -21.778465 45.598167
37800000000 -16.588425 -3.9016044 -1.201317 -51.141819 -1.1977988 -51.339924 -21.338438 46.460712
37900000000 -16.582964 -5.4442282 -1.1910563 -53.506702 -1.1937679 -53.318611 -21.416464 35.373062
38000000000 -16.360523 -8.5045071 -1.2240504 -55.512997 -1.2330506 -55.456638 -19.803669 32.228832
38100000000 -16.483759 -6.988656 -1.2081411 -57.455868 -1.1813304 -57.81818 -19.637514 26.105555
38200000000 -15.749255 -7.6526046 -1.2522258 -59.563164 -1.1929201 -59.655373 -18.718863 26.855742
38300000000 -16.036768 -12.196314 -1.242267 -61.778999 -1.2417547 -61.544983 -18.239298 30.582521
38400000000 -15.22419 -9.6474676 -1.2279416 -63.641525 -1.2281377 -63.257668 -18.73147 29.037664
38500000000 -15.757045 -14.03416 -1.2154872 -65.505768 -1.2232894 -65.641441 -18.529989 23.921341
38600000000 -15.160677 -9.1022091 -1.2505872 -67.416122 -1.2670807 -67.73555 -18.18458 18.462692
38700000000 -15.05222 -13.862925 -1.3155817 -69.629036 -1.327399 -69.544846 -17.495155 13.694479
38800000000 -15.289961 -9.2348194 -1.2414222 -71.281898 -1.2802135 -71.458229 -16.669956 14.190047
38900000000 -14.383106 -15.834977 -1.2558872 -73.661789 -1.2477883 -73.364555 -16.892891 12.707075
39000000000 -15.036425 -14.115567 -1.2997856 -75.433449 -1.295218 -75.811485 -16.264446 10.9584
39100000000 -13.811052 -17.282591 -1.239298 -77.958916 -1.2678629 -77.762909 -17.286215 4.1230011
39200000000 -15.202278 -15.915445 -1.2768573 -79.491547 -1.299862 -79.484329 -16.188158 2.0653026
39300000000 -13.472498 -15.978651 -1.2957078 -82.085625 -1.3292693 -81.880196 -16.002213 -2.6352329
39400000000 -15.031823 -20.552065 -1.2375319 -83.422699 -1.2561357 -83.753555 -15.112687 0.25211731
39500000000 -13.907588 -16.471748 -1.3491564 -85.548546 -1.3197771 -85.879829 -15.627791 -1.1975589
39600000000 -14.564389 -25.776148 -1.320438 -87.495636 -1.3012961 -87.698814 -15.159142 1.2130055
39700000000 -13.965354 -17.994463 -1.3302892 -89.715584 -1.2652804 -89.830872 -15.843071 -6.1404586
39800000000 -13.537473 -26.373112 -1.3115608 -91.736061 -1.3236519 -91.873573 -15.29408 -7.8782945
39900000000 -14.178196 -19.983475 -1.3129432 -93.564499 -1.3299749 -93.687141 -15.171109 -13.396278
40000000000 -13.400773 -27.761837 -1.3075641 -95.82225 -1.2887455 -95.8293 -14.154228 -15.58049
40100000000 -14.161445 -23.867632 -1.2888238 -97.831734 -1.2778689 -97.843857 -13.956133 -16.581587
40200000000 -13.102576 -28.512455 -1.3160828 -99.295532 -1.2998101 -99.835129 -14.009242 -15.383987
40300000000 -13.836955 -31.94532 -1.2822158 -101.94756 -1.3043249 -101.92963 -14.212465 -17.894497
40400000000 -13.018256 -28.572906 -1.3264011 -103.67392 -1.3402699 -103.87731 -14.838367 -20.685246
40500000000 -13.624631 -33.088966 -1.3420321 -105.89214 -1.3306824 -105.81493 -14.290801 -27.07
40600000000 -13.287198 -28.458561 -1.3604558 -108.16245 -1.2692735 -107.59612 -14.271248 -28.298752
40700000000 -13.684155 -36.322227 -1.2929716 -109.91952 -1.3015947 -110.15324 -13.79422 -30.98225
40800000000 -13.651857 -34.041927 -1.3278549 -111.75659 -1.3043441 -111.66799 -13.554247 -29.464903
40900000000 -13.270728 -35.645462 -1.2968242 -114.12302 -1.3054826 -113.82401 -14.044512 -30.850349
41000000000 -13.110575 -36.81506 -1.3163065 -116.07963 -1.3077887 -115.76904 -14.240595 -33.09338
41100000000 -13.15396 -33.222435 -1.3047726 -118.04643 -1.3065062 -118.14449 -14.247711 -37.456047
41200000000 -13.393898 -38.061897 -1.2956474 -120.03905 -1.2850677 -119.95066 -14.115539 -39.777134
41300000000 -13.530144 -35.547234 -1.3016562 -122.07726 -1.3464594 -122.0672 -14.035323 -42.024506
41400000000 -13.559486 -40.246281 -1.2393442 -123.95855 -1.2876638 -124.33739 -13.69604 -42.857098
41500000000 -13.846644 -39.04525 -1.3476317 -125.58486 -1.2786937 -126.35925 -13.391851 -45.940907
41600000000 -13.119105 -40.842323 -1.3496388 -128.28992 -1.3051019 -128.25723 -14.055495 -44.973885
41700000000 -14.302429 -44.319378 -1.2601472 -129.7131 -1.3250526 -130.26625 -13.833905 -49.803112
41800000000 -13.566091 -41.083408 -1.3370829 -132.00948 -1.295862 -132.07118 -14.028177 -48.616352
41900000000 -13.978165 -47.497616 -1.2941188 -133.98863 -1.3223954 -134.28441 -14.282933 -54.431702
42000000000 -13.843401 -43.701256 -1.3553843 -136.2393 -1.3589813 -136.25824 -14.366468 -57.007927
42100000000 -13.816103 -47.209217 -1.3546219 -138.17055 -1.3219743 -138.6331 -13.953218 -60.293804
42200000000 -14.743642 -43.247097 -1.2400564 -140.20956 -1.3029611 -140.51022 -14.435459 -59.162968
42300000000 -13.819978 -47.30304 -1.2979504 -142.20964 -1.3389019 -142.04352 -14.01694 -62.370434
42400000000 -14.916567 -45.208984 -1.287677 -144.25508 -1.3385003 -143.96524 -14.566257 -64.094681
42500000000 -14.004416 -44.335781 -1.3435168 -146.49861 -1.2814161 -146.51003 -15.276359 -69.389137
42600000000 -15.063407 -46.213646 -1.2761849 -148.36346 -1.2769963 -147.98988 -15.291445 -68.726433
42700000000 -14.505062 -48.319649 -1.3088456 -150.28174 -1.3234619 -150.59787 -14.55019 -72.545296
42800000000 -15.497082 -52.906006 -1.314261 -152.63547 -1.348233 -152.47301 -15.13563 -76.723381
42900000000 -15.281166 -45.776054 -1.2643656 -154.27159 -1.3086326 -154.64301 -14.903601 -74.897713
43000000000 -15.402225 -57.025875 -1.2118487 -156.74995 -1.3553554 -156.11229 -15.547526 -78.882362
43100000000 -16.149687 -46.843536 -1.3117582 -158.10315 -1.3261166 -158.96912 -15.997267 -76.10759
43200000000 -15.248805 -52.277702 -1.2550812 -160.31941 -1.2796425 -160.73392 -16.458687 -86.544853
43300000000 -16.031109 -45.47311 -1.3005078 -162.36441 -1.2659535 -162.30638 -17.066126 -89.953186
43400000000 -15.292581 -49.430096 -1.2248839 -164.69397 -1.2751057 -164.23442 -16.237322 -89.58947
43500000000 -16.522758 -54.392536 -1.3346753 -166.6683 -1.3584377 -166.50462 -16.509041 -94.748672
43600000000 -16.280338 -45.253414 -1.2065103 -168.03841 -1.2434229 -169.02942 -16.074711 -92.958023
43700000000 -16.622259 -50.394341 -1.2945526 -171.17067 -1.2378762 -171.34773 -17.784214 -90.903244
43800000000 -16.768724 -45.587883 -1.3173167 -172.45268 -1.2287731 -173.37616 -17.834034 -94.134659
43900000000 -16.481497 -52.443298 -1.2475047 -174.76006 -1.2533487 -175.8613 -18.863245 -102.79194
44000000000 -17.969452 -43.226971 -1.2202052 -177.02859 -1.3097751 -177.11162 -18.343616 -104.36456
44100000000 -16.673578 -45.625191 -1.2473477 -179.9615 -1.2994354 -179.27536 -18.944387 -101.91401
44200000000 -18.576488 -42.358936 -1.1587524 178.46744 -1.2439113 178.28128 -19.037319 -108.38666
44300000000 -16.914158 -40.365639 -1.1804864 176.96416 -1.2901113 176.49469 -20.596188 -110.76847
44400000000 -19.063509 -46.366817 -1.2562695 174.56511 -1.3071021 174.35229 -21.285656 -115.33337
44500000000 -17.595766 -38.042164 -1.2645184 172.0294 -1.2224855 172.34103 -22.547461 -120.4343
44600000000 -18.144985 -42.215889 -1.2824478 169.72269 -1.2475905 170.4294 -23.292187 -121.63108
44700000000 -18.213255 -27.481588 -1.269774 168.31401 -1.3419803 167.91888 -24.8242 -128.99329
44800000000 -18.418125 -42.398029 -1.271122 166.20302 -1.3429916 166.16483 -24.105183 -121.32061
44900000000 -17.939802 -29.369688 -1.2493135 163.71361 -1.3125451 163.8031 -27.420549 -134.2404
45000000000 -17.744328 -33.602352 -1.3265132 162.01645 -1.3089832 161.69452 -30.205269 -139.49193
