! Quiescent point : V1=-1.69695E-02 I1=+1.30241E-03 V2=-2.27218E-02 I2=-1.29068E-03
! Pulsed point : V1=-1.64169E-02 I1=+1.29382E-03 V2=-2.24586E-02 I2=-1.28034E-03
! Period : +2.00000E-04
! Input Supply timing : delay=+1.60000E-06 width=+2.20000E-06
! Output Supply timing : delay=+1.70000E-06 width=+2.00000E-06
! VNA timing : delay=+2.40000E-06 width=+1.10000E-06
# Hz S RI R 50
+2.70000E+10 -9.10737E-02 -4.19715E-02 -9.57602E-01 +8.23741E-02 -9.48299E-01 +2.12569E-03 +2.47722E-02 -6.72914E-02
+2.71000E+10 -4.29882E-02 -9.39416E-03 -9.76435E-01 +7.37708E-02 -9.27087E-01 +2.93986E-02 +1.49325E-02 -1.03984E-01
+2.72000E+10 +1.13329E-02 -1.10619E-01 -9.52341E-01 +5.09989E-02 -9.61033E-01 +3.16006E-02 -9.43571E-03 -2.06207E-05
+2.73000E+10 -3.18671E-02 -3.11537E-02 -9.96524E-01 +6.11317E-02 -9.27630E-01 +4.17740E-02 -3.62813E-02 -4.93145E-04
+2.74000E+10 +1.38428E-02 -1.36793E-02 -9.74851E-01 +1.34169E-01 -9.62608E-01 +8.90410E-02 +2.38875E-02 -1.20941E-03
+2.75000E+10 +4.70378E-02 -4.73305E-02 -9.78790E-01 +1.16039E-01 -9.94389E-01 +9.48334E-02 -9.51094E-02 +1.46481E-02
+2.76000E+10 +1.41394E-03 -9.74678E-02 -9.84041E-01 +8.45491E-02 -8.78503E-01 +6.36761E-02 +1.73700E-03 +6.90552E-03
+2.77000E+10 +3.15864E-02 -9.46010E-02 -9.52926E-01 +6.54491E-02 -9.96297E-01 +9.99678E-02 -4.46562E-02 -8.97644E-02
+2.78000E+10 -1.94669E-02 -1.11969E-01 -9.59117E-01 +1.79675E-01 -9.88744E-01 +2.05808E-01 +8.56824E-03 -6.93161E-02
+2.79000E+10 -3.46043E-02 -7.79017E-02 -9.43354E-01 +1.09593E-01 -9.80289E-01 +1.39210E-01 +8.89862E-03 -3.20403E-03
+2.80000E+10 +2.29486E-02 -1.05970E-01 -9.38598E-01 +1.35525E-01 -9.21277E-01 +1.03880E-01 +5.96504E-02 -1.09448E-02
+2.81000E+10 -1.78266E-02 -3.05477E-02 -8.97759E-01 +1.58655E-01 -1.02834E+00 +1.35584E-01 +2.15338E-03 -5.71153E-02
+2.82000E+10 +5.14250E-02 -8.33984E-02 -9.25993E-01 +2.91316E-01 -1.02084E+00 +1.86419E-01 -2.35695E-02 -1.99823E-02
+2.83000E+10 -1.06232E-02 -1.10802E-01 -9.25148E-01 +1.97886E-01 -9.60069E-01 +1.32297E-01 +1.21486E-01 -1.24767E-02
+2.84000E+10 +1.29509E-02 -3.68812E-02 -9.01473E-01 +1.97542E-01 -9.91624E-01 +1.60554E-01 +5.79391E-02 -2.07564E-02
+2.85000E+10 +5.45231E-03 -4.21945E-02 -8.36251E-01 +2.22363E-01 -8.71807E-01 +2.48934E-01 -3.38011E-02 +4.85688E-02
+2.86000E+10 -2.02698E-02 -8.82372E-02 -9.23583E-01 +2.54985E-01 -9.96705E-01 +1.67942E-01 +3.96869E-02 -4.16471E-02
+2.87000E+10 -1.04772E-03 -1.15566E-02 -9.39303E-01 +1.82239E-01 -9.87602E-01 +1.34892E-01 +9.38374E-02 -1.02289E-01
+2.88000E+10 +2.03700E-02 -1.95070E-01 -9.67245E-01 +2.22246E-01 -9.13967E-01 +2.93877E-01 -4.19561E-02 -1.62556E-02
+2.89000E+10 +8.49707E-02 +9.39765E-02 -9.53179E-01 +1.47708E-01 -9.29812E-01 +2.29425E-01 -1.45335E-02 +1.31614E-02
+2.90000E+10 +6.45012E-02 -6.87076E-02 -9.38966E-01 +2.25732E-01 -9.00972E-01 +3.19390E-01 -2.14085E-02 -7.65519E-04
+2.91000E+10 -2.54526E-02 -2.92340E-02 -9.35435E-01 +3.22306E-01 -8.18408E-01 +2.87017E-01 -6.20509E-03 -1.58128E-02
+2.92000E+10 +5.86762E-02 -6.80136E-02 -8.97542E-01 +3.04220E-01 -8.77355E-01 +2.98449E-01 +3.09357E-03 -6.02727E-02
+2.93000E+10 +5.34792E-02 -3.46176E-02 -9.52497E-01 +2.62129E-01 -9.42080E-01 +2.07280E-01 +3.71662E-02 +8.54832E-03
+2.94000E+10 +5.51841E-02 -6.77212E-02 -9.23987E-01 +2.77394E-01 -9.63700E-01 +2.75473E-01 +6.60837E-02 -1.16477E-01
+2.95000E+10 +2.29710E-03 -9.97903E-02 -8.86261E-01 +3.23547E-01 -8.84166E-01 +2.60754E-01 -4.45185E-02 -7.16142E-02
+2.96000E+10 -7.93337E-03 -7.72763E-02 -9.12896E-01 +2.52290E-01 -9.12444E-01 +3.41868E-01 -2.73582E-02 -3.38772E-02
+2.97000E+10 -1.52368E-02 +7.17909E-03 -8.47719E-01 +3.48136E-01 -8.61424E-01 +3.35673E-01 -6.14565E-03 -1.84249E-02
+2.98000E+10 +2.33487E-02 -5.38700E-02 -9.27380E-01 +4.10534E-01 -9.25963E-01 +2.56333E-01 +1.07520E-02 -7.02452E-03
+2.99000E+10 +3.45084E-02 -4.12859E-02 -9.71008E-01 +3.84570E-01 -9.50180E-01 +3.30367E-01 -5.63153E-02 +9.57542E-03
+3.00000E+10 +3.24194E-02 -3.96397E-02 -8.50689E-01 +3.81660E-01 -9.20471E-01 +3.72445E-01 -1.27879E-02 -1.04714E-01
+3.01000E+10 +1.58863E-01 -1.79663E-03 -8.87688E-01 +3.00807E-01 -9.69089E-01 +4.07472E-01 +7.09188E-03 -8.65497E-02
+3.02000E+10 -1.98344E-02 -9.32758E-02 -9.01906E-01 +4.62612E-01 -7.90497E-01 +4.21623E-01 -4.99871E-03 +2.35476E-02
+3.03000E+10 -2.15548E-02 -3.38326E-02 -9.05183E-01 +4.15171E-01 -9.00158E-01 +4.65775E-01 +7.73222E-03 -3.15375E-02
+3.04000E+10 +5.96825E-02 +4.06451E-02 -8.15749E-01 +3.99469E-01 -8.45719E-01 +3.64266E-01 +8.18861E-02 -8.04292E-02
+3.05000E+10 +6.72817E-03 -1.54706E-01 -8.02990E-01 +3.69372E-01 -8.40013E-01 +4.05993E-01 +4.51570E-03 -2.84050E-02
+3.06000E+10 -7.25130E-02 -2.93928E-02 -8.49264E-01 +3.89450E-01 -9.13272E-01 +5.46399E-01 -9.85200E-02 -7.85781E-02
+3.07000E+10 -1.28244E-01 -6.00854E-02 -8.61397E-01 +4.53804E-01 -9.46591E-01 +4.60289E-01 +1.33673E-01 -8.18076E-02
+3.08000E+10 -1.42437E-03 -1.06563E-01 -8.30074E-01 +3.87716E-01 -8.77548E-01 +4.85481E-01 -3.50103E-02 -8.09938E-02
+3.09000E+10 +2.17324E-02 +2.04712E-02 -8.37240E-01 +5.03524E-01 -8.62320E-01 +4.31023E-01 -4.52979E-03 -5.86083E-02
+3.10000E+10 +2.58203E-02 +2.79939E-02 -8.97212E-01 +4.63733E-01 -8.00284E-01 +3.68768E-01 +3.53216E-02 -8.64992E-02
+3.11000E+10 +4.53101E-02 +1.00639E-02 -8.31029E-01 +4.38862E-01 -8.72460E-01 +3.65795E-01 +1.89480E-02 +5.99885E-02
+3.12000E+10 +1.53286E-01 -4.99418E-02 -8.87326E-01 +4.35415E-01 -9.09449E-01 +4.61460E-01 +9.78707E-02 +2.36618E-02
+3.13000E+10 -3.57766E-03 -3.79533E-02 -7.91821E-01 +4.40573E-01 -8.64692E-01 +3.54034E-01 -9.06229E-04 -7.17511E-02
+3.14000E+10 +9.85659E-02 -5.92170E-02 -9.33691E-01 +4.15151E-01 -7.19001E-01 +5.63308E-01 +4.12197E-02 -6.89501E-02
+3.15000E+10 +3.27521E-02 -1.19436E-01 -8.61808E-01 +4.77501E-01 -8.35075E-01 +6.27257E-01 -5.02994E-02 -3.65427E-02
+3.16000E+10 +1.09210E-01 -2.10910E-02 -7.61091E-01 +5.81358E-01 -8.01445E-01 +5.17760E-01 +6.54098E-02 +1.63700E-03
+3.17000E+10 +1.46234E-02 -1.08473E-01 -7.77264E-01 +5.31392E-01 -8.14700E-01 +5.10026E-01 -3.37412E-02 -1.07272E-02
+3.18000E+10 +1.39147E-01 -1.10443E-01 -8.16617E-01 +5.17000E-01 -8.51607E-01 +4.71633E-01 -3.47861E-03 -3.77169E-02
+3.19000E+10 -1.60078E-04 -5.48715E-03 -7.80160E-01 +5.87500E-01 -7.15054E-01 +5.44456E-01 -6.20384E-02 -7.74704E-02
+3.20000E+10 +6.53465E-02 -3.35433E-02 -7.45269E-01 +6.03176E-01 -7.61166E-01 +5.89932E-01 -3.93938E-03 -3.77539E-02
+3.21000E+10 -1.79058E-02 -9.77002E-03 -7.40913E-01 +6.07496E-01 -8.06431E-01 +5.06430E-01 +6.96249E-02 -8.76045E-02
+3.22000E+10 +4.02019E-02 -7.92950E-02 -8.29972E-01 +5.70840E-01 -9.29852E-01 +6.06179E-01 -2.28516E-02 -4.45804E-02
+3.23000E+10 -3.66152E-02 +1.87067E-02 -7.43799E-01 +6.22406E-01 -7.55223E-01 +5.42064E-01 -6.18383E-02 +9.69417E-02
+3.24000E+10 +7.46844E-02 -4.41001E-03 -7.16846E-01 +6.43399E-01 -7.81216E-01 +6.12796E-01 +2.43343E-02 +1.91663E-02
+3.25000E+10 -3.42166E-02 -4.06195E-02 -7.59696E-01 +5.67611E-01 -7.45338E-01 +6.66952E-01 +1.81016E-02 +1.00275E-03
+3.26000E+10 -7.38945E-02 -5.48799E-02 -7.21791E-01 +6.81103E-01 -6.92559E-01 +5.21001E-01 -8.81359E-02 +1.18982E-03
+3.27000E+10 +1.01963E-01 -2.23790E-02 -7.28541E-01 +5.72422E-01 -6.64766E-01 +6.17834E-01 +6.79292E-02 -5.23470E-02
+3.28000E+10 +1.15540E-01 -9.53918E-02 -7.35613E-01 +6.00415E-01 -8.31497E-01 +6.17177E-01 -5.14236E-02 +7.32354E-02
+3.29000E+10 +5.56079E-02 -6.27977E-02 -6.77601E-01 +5.88118E-01 -7.51404E-01 +7.13279E-01 +1.19868E-01 -6.45129E-03
+3.30000E+10 -2.27244E-02 -9.55573E-03 -6.40507E-01 +7.48691E-01 -8.20959E-01 +5.61597E-01 +7.91310E-02 +9.58647E-03
+3.31000E+10 +6.86908E-02 -9.93850E-02 -6.36775E-01 +7.07271E-01 -6.45095E-01 +6.13798E-01 -1.05460E-01 -4.82394E-02
+3.32000E+10 +9.22645E-02 -5.06814E-02 -7.37624E-01 +7.43531E-01 -7.16151E-01 +7.47398E-01 +8.83519E-03 -3.13584E-02
+3.33000E+10 +7.09573E-02 +2.08702E-02 -7.08061E-01 +7.39230E-01 -7.73603E-01 +6.27726E-01 +8.27030E-04 -6.44195E-02
+3.34000E+10 +2.73410E-02 +6.33873E-02 -7.26731E-01 +6.84701E-01 -7.81446E-01 +5.71631E-01 +1.53580E-01 -4.99271E-02
+3.35000E+10 -1.68764E-02 +9.33224E-04 -5.47012E-01 +5.93193E-01 -6.51318E-01 +6.57746E-01 +3.16647E-02 -1.13256E-02
+3.36000E+10 -5.15363E-03 -3.73836E-02 -6.89119E-01 +7.62714E-01 -7.38652E-01 +6.91620E-01 +2.71463E-02 -5.09767E-02
+3.37000E+10 +5.37062E-02 -1.23956E-01 -6.38891E-01 +6.52374E-01 -6.47761E-01 +6.41084E-01 +4.61280E-02 -2.57016E-02
+3.38000E+10 +2.68707E-02 -1.68250E-01 -6.05915E-01 +6.97799E-01 -5.38781E-01 +7.84895E-01 -3.99875E-02 -3.95539E-03
+3.39000E+10 +1.59235E-02 +8.23261E-02 -5.97985E-01 +8.12607E-01 -5.82323E-01 +6.34857E-01 +2.95962E-02 -5.09551E-02
+3.40000E+10 +5.48320E-02 -7.86868E-02 -7.09313E-01 +8.46498E-01 -6.44294E-01 +6.27858E-01 +2.55679E-02 -1.86242E-02
+3.41000E+10 +2.75541E-02 -1.21583E-01 -7.10441E-01 +7.61269E-01 -6.93253E-01 +7.06041E-01 +1.46322E-01 -8.10400E-02
+3.42000E+10 +3.79659E-02 -6.77689E-02 -5.74775E-01 +6.63520E-01 -5.66063E-01 +6.10281E-01 -1.07185E-01 +1.38131E-02
+3.43000E+10 -4.89325E-02 -6.75255E-02 -5.21367E-01 +7.94401E-01 -4.81240E-01 +6.42243E-01 -9.68767E-02 -1.51068E-02
+3.44000E+10 +1.40969E-02 +3.41437E-02 -5.73571E-01 +5.23703E-01 -5.94537E-01 +6.67163E-01 +7.46475E-02 +1.35292E-01
+3.45000E+10 +1.55610E-01 -1.08919E-01 -6.48806E-01 +8.14997E-01 -6.43648E-01 +7.70815E-01 +5.19491E-03 -2.26124E-01
+3.46000E+10 -3.11231E-02 -1.10454E-01 -5.03421E-01 +7.48533E-01 -6.13610E-01 +8.63730E-01 -1.20285E-01 -1.99489E-01
+3.47000E+10 +6.64744E-02 -1.50707E-01 -4.09970E-01 +7.78200E-01 -7.08312E-01 +7.24935E-01 +7.43135E-02 -4.90966E-02
+3.48000E+10 +1.00108E-01 -1.69969E-01 -5.28933E-01 +6.75532E-01 -5.87512E-01 +7.62035E-01 +5.68584E-02 -2.66399E-02
+3.49000E+10 +1.78185E-01 -1.55181E-01 -6.44294E-01 +9.80749E-01 -5.39959E-01 +8.34807E-01 -1.41757E-01 -8.48200E-02
+3.50000E+10 +9.44586E-02 -1.26579E-01 -6.08465E-01 +9.52067E-01 -4.65042E-01 +8.20769E-01 -5.99058E-02 +3.83657E-02
+3.51000E+10 +2.13503E-01 +4.43205E-02 -4.96597E-01 +8.51212E-01 -5.20226E-01 +7.87115E-01 +2.89722E-02 -2.90935E-02
+3.52000E+10 +7.33532E-02 -1.13622E-01 -5.31983E-01 +7.64689E-01 -6.04550E-01 +7.76117E-01 +8.37755E-02 +4.50741E-03
+3.53000E+10 +7.33999E-02 -1.11252E-01 -4.59540E-01 +7.80535E-01 -5.42556E-01 +7.75387E-01 -2.91907E-02 -1.07153E-01
+3.54000E+10 +8.00158E-02 -2.11182E-01 -4.11244E-01 +8.94065E-01 -4.73611E-01 +7.67305E-01 -3.72215E-02 +1.18065E-01
+3.55000E+10 +3.06924E-02 -2.21870E-01 -5.13874E-01 +8.92382E-01 -4.82513E-01 +7.97947E-01 +4.25958E-03 +4.96300E-02
+3.56000E+10 +2.90866E-03 -5.68980E-03 -4.88334E-01 +7.63577E-01 -5.10502E-01 +8.04762E-01 -5.77978E-02 -1.07767E-01
+3.57000E+10 +5.38366E-02 -5.38282E-02 -4.14278E-01 +7.84752E-01 -3.66297E-01 +8.66390E-01 -1.00608E-01 -2.64067E-02
+3.58000E+10 +6.43533E-02 +6.40493E-02 -5.14091E-01 +1.00585E+00 -4.31387E-01 +8.72816E-01 +1.20172E-02 +2.42798E-02
+3.59000E+10 +1.59034E-01 -1.08627E-01 -4.68376E-01 +8.45143E-01 -4.72655E-01 +7.20200E-01 -4.09247E-02 +1.80702E-01
+3.60000E+10 +2.36000E-01 -5.33300E-02 -4.32135E-01 +9.02592E-01 -2.51885E-01 +8.68579E-01 +1.12451E-01 -7.20164E-02
+3.61000E+10 +2.39627E-01 +8.48048E-03 -4.92544E-01 +9.06825E-01 -5.22001E-01 +7.99631E-01 +6.79890E-02 -8.30644E-02
+3.62000E+10 +1.29461E-01 -7.79725E-02 -4.62927E-01 +8.31276E-01 -4.70511E-01 +9.91142E-01 +3.91500E-02 -1.62747E-01
+3.63000E+10 +1.25648E-01 -6.68790E-02 -5.42121E-01 +1.12050E+00 -4.77435E-01 +9.91472E-01 -4.34129E-02 -1.01690E-01
+3.64000E+10 +2.36920E-02 -8.83920E-02 -3.47020E-01 +8.56818E-01 -4.59230E-01 +9.36329E-01 +4.62194E-02 -6.69671E-02
+3.65000E+10 +2.16413E-01 -1.78474E-01 -4.33383E-01 +9.38525E-01 -4.44746E-01 +8.90704E-01 +1.95249E-01 -1.40974E-02
+3.66000E+10 +6.84752E-03 +6.05730E-03 -4.73488E-01 +8.97793E-01 -5.14509E-01 +9.02988E-01 -3.84394E-02 -1.04996E-01
+3.67000E+10 -1.01817E-01 -6.53000E-02 -3.58454E-01 +7.22256E-01 -3.69136E-01 +8.09198E-01 +1.39426E-01 +1.40080E-01
+3.68000E+10 +9.72550E-02 -2.81350E-02 -3.86187E-01 +1.05065E+00 -4.70945E-01 +8.28303E-01 +8.68617E-02 -1.96646E-02
+3.69000E+10 -1.70970E-02 -6.41220E-02 -4.73131E-01 +8.85361E-01 -4.59829E-01 +8.84242E-01 +1.05252E-01 -6.44653E-02
+3.70000E+10 -6.13591E-02 -1.44867E-01 -3.71906E-01 +1.03706E+00 -3.88927E-01 +9.50243E-01 +1.33034E-01 -1.91145E-01
+3.71000E+10 +7.51941E-03 -1.03221E-01 -2.94598E-01 +8.98562E-01 -3.36598E-01 +1.04464E+00 -1.27142E-02 -1.70457E-01
+3.72000E+10 -2.74532E-02 -1.26380E-01 -3.99479E-01 +9.63751E-01 -2.41782E-01 +9.42634E-01 -6.60060E-02 +3.45244E-02
+3.73000E+10 -5.21858E-02 -3.01276E-01 -2.63272E-01 +9.41430E-01 -1.60703E-01 +8.42760E-01 -2.71764E-02 -1.25471E-01
+3.74000E+10 +2.24189E-01 -3.14272E-01 -2.85138E-01 +9.76466E-01 -3.81240E-01 +9.62360E-01 +1.58905E-01 -1.72845E-02
+3.75000E+10 +3.29838E-02 -2.21897E-01 -2.54227E-01 +9.02350E-01 -3.71108E-01 +8.22884E-01 +9.81749E-02 -7.65392E-02
+3.76000E+10 +6.45910E-02 +4.04818E-02 -2.85291E-01 +1.05171E+00 -1.95017E-01 +9.48651E-01 +1.08346E-01 -4.63744E-02
+3.77000E+10 -9.73086E-02 -1.04531E-01 -2.49021E-01 +9.85529E-01 -3.00071E-01 +8.60921E-01 +2.58606E-01 -6.60663E-03
+3.78000E+10 +2.23269E-01 +6.23341E-02 -3.79076E-01 +9.38939E-01 -2.65874E-01 +1.17741E+00 -4.90490E-02 +7.84704E-02
+3.79000E+10 +1.43149E-01 -5.29631E-02 -3.38107E-01 +9.53192E-01 -7.62537E-02 +9.37951E-01 +1.56175E-01 +6.49266E-02
+3.80000E+10 +3.63620E-02 +3.18741E-02 -2.14465E-01 +8.24038E-01 -1.96370E-01 +1.14839E+00 -5.48896E-02 +6.88264E-02
+3.81000E+10 +2.65126E-02 -1.70763E-01 -3.35267E-01 +9.33664E-01 -3.52162E-01 +8.98163E-01 -1.95909E-02 +3.15531E-02
+3.82000E+10 -1.86298E-01 -2.32365E-01 -2.05401E-01 +8.88361E-01 -2.13054E-01 +1.15134E+00 +3.20701E-02 -3.51586E-02
+3.83000E+10 +1.35946E-01 -1.46517E-01 -1.30859E-01 +1.00223E+00 -1.40001E-01 +7.76283E-01 -4.96704E-02 -4.73706E-02
+3.84000E+10 -6.27593E-02 -1.59994E-01 -2.44431E-01 +9.81563E-01 -2.29743E-01 +9.91797E-01 +1.61952E-01 +1.02414E-01
+3.85000E+10 +2.00797E-01 +1.01869E-02 -1.85074E-01 +8.18945E-01 -1.61953E-01 +1.06865E+00 -6.69208E-02 -1.62085E-01
+3.86000E+10 -5.00982E-02 -1.11324E-01 -3.86710E-01 +9.29596E-01 -6.34101E-02 +9.45959E-01 +1.18067E-01 +1.24510E-01
+3.87000E+10 +5.71184E-02 +1.64005E-01 -3.65914E-01 +9.18913E-01 -3.75029E-02 +9.39292E-01 +8.75154E-02 -1.63940E-01
+3.88000E+10 +6.79280E-02 -1.03459E-01 -2.59566E-01 +8.81066E-01 -1.97545E-01 +1.16110E+00 -1.61224E-01 -5.47893E-02
+3.89000E+10 +1.26049E-01 -5.81365E-02 -1.62259E-01 +1.01209E+00 -3.82142E-02 +1.01428E+00 -1.18484E-01 +1.74198E-02
+3.90000E+10 -3.37985E-02 +9.02086E-02 -2.47583E-01 +1.03080E+00 -2.83227E-02 +9.89914E-01 -2.13103E-01 +3.77124E-02
+3.91000E+10 +4.60500E-02 -7.98516E-02 -4.29944E-02 +1.08419E+00 -8.15415E-02 +8.52398E-01 -2.16781E-01 -1.01601E-01
+3.92000E+10 +3.67028E-01 -1.14145E-01 -1.26197E-01 +1.01722E+00 +8.03572E-02 +8.77785E-01 +1.37232E-01 -7.92985E-02
+3.93000E+10 -1.76703E-01 +2.97432E-02 -4.79288E-02 +1.00702E+00 -1.74793E-01 +1.15663E+00 -1.07464E-01 -6.13987E-02
+3.94000E+10 -1.45051E-01 -1.94188E-01 -3.45469E-01 +9.62309E-01 -1.94350E-02 +9.09349E-01 +8.18937E-02 -9.57985E-02
+3.95000E+10 -2.75274E-02 -4.34756E-04 -5.39799E-02 +7.97125E-01 +3.01316E-01 +8.44942E-01 +8.60228E-02 -1.16580E-01
+3.96000E+10 +5.66547E-02 -2.14681E-01 +1.38689E-01 +9.36031E-01 -7.27975E-02 +9.03453E-01 -2.79148E-02 -1.15711E-01
+3.97000E+10 +4.17802E-02 -2.01506E-01 -4.57075E-02 +1.04658E+00 -3.93819E-02 +1.08606E+00 +2.19118E-01 -7.85817E-02
+3.98000E+10 -2.64661E-02 -2.19477E-01 -1.87334E-02 +9.42348E-01 +6.94381E-02 +9.03894E-01 -8.57898E-02 +7.44650E-02
+3.99000E+10 +1.35356E-01 -3.74895E-01 +1.00063E-01 +7.32633E-01 -1.21330E-01 +1.09382E+00 -7.77822E-02 -3.79257E-02
+4.00000E+10 +1.36610E-02 -9.54724E-02 -1.40049E-01 +8.40857E-01 +6.76977E-03 +9.89285E-01 +9.82132E-02 -2.95438E-02
