!Keysight Technologies,N5224A,MY55441802,A.10.65.16
!Date: Wednesday, May 13, 2026 19:11:50
!Correction: S11(Full 2 Port(1,2)) 
!S21(Full 2 Port(1,2)) 
!S12(Full 2 Port(1,2)) 
!S22(Full 2 Port(1,2)) 
!S2P File: Measurements: S11, S21, S12, S22:
# Hz S  dB   R 50
1000000000 -1.214094 -114.98335 -18.817911 41.194973 -12.633123 12.021379 -2.5273223 129.61775
1100000000 -0.30656973 165.30852 -20.7752 -24.396446 -17.301804 -15.175836 -2.4940903 104.4938
1200000000 1.7722998 9.2506666 -25.86762 -179.69948 -29.67215 -120.45126 7.5764832 87.813721
1300000000 4.1494455 -134.27916 -24.935257 22.264332 -13.660167 -4.0253048 -3.4606574 118.91152
1400000000 0.47866175 171.5358 -21.273838 -15.40976 -18.028526 -8.2100267 -3.2772543 98.814819
1500000000 5.1884246 16.116631 -19.866852 -153.6953 -22.819752 -120.32427 3.9215815 106.81893
1600000000 6.2843919 -144.69402 -24.786083 30.7024 -13.847178 -12.519981 -4.2763677 105.92826
1700000000 0.24941944 171.98941 -20.172834 -11.635526 -18.465395 -5.7134633 -3.6127133 90.325989
1800000000 14.326958 22.514694 -9.7613726 -149.50682 -11.519622 -137.82088 0.76550996 97.386322
1900000000 6.8482814 -149.66443 -23.750978 18.377808 -13.593078 -12.843173 -3.8360517 92.494987
2000000000 0.27336955 169.64615 -19.277758 -6.1573963 -18.301582 -4.5603185 -3.6545901 79.841629
2100000000 15.6707 130.15506 -6.3677092 -41.516129 -7.7139206 -34.735909 -0.96938437 85.930351
2200000000 6.3439803 -152.7309 -20.111526 20.641687 -13.690705 -13.718018 -3.6591852 80.855843
2300000000 -0.36969203 170.03918 -18.498125 -6.9808021 -18.145378 -9.47435 -3.5379908 68.272964
2400000000 12.155041 150.61526 -9.1605215 -22.981438 -9.9981108 -16.087461 -1.7468927 75.955818
2500000000 4.1609001 -167.6257 -18.567638 6.8229661 -14.973323 -18.07102 -3.2909553 69.528175
2600000000 -0.59825736 169.21373 -17.724657 -8.1044579 -17.49497 -11.949641 -3.0262377 58.218975
2700000000 5.6783247 166.68631 -13.510277 -13.731704 -14.042294 -9.8683414 -2.2654281 61.163872
2800000000 4.1457257 -168.49712 -15.907088 2.9870014 -14.252591 -19.261053 -3.214783 56.537979
2900000000 -0.90346813 169.95346 -16.994303 -10.404321 -16.775118 -15.445358 -2.4108117 47.967693
3000000000 4.4531803 166.6806 -13.903511 -18.292791 -14.166299 -13.883285 -2.3876846 47.463707
3100000000 3.0218136 -173.71077 -14.742036 -4.1600165 -14.302009 -21.104521 -2.8484662 42.525436
3200000000 -1.0069076 169.81421 -16.336292 -12.303974 -16.214703 -16.864014 -2.0407696 40.363663
3300000000 3.035455 165.56157 -14.212328 -23.091366 -14.245783 -19.024548 -2.395628 34.5131
3400000000 2.8738108 -172.97154 -13.965753 -10.247368 -13.663526 -22.407997 -2.489677 29.147432
3500000000 -1.1652356 169.99875 -15.757738 -16.157661 -15.837337 -21.363583 -2.3942182 30.349136
3600000000 3.4311407 167.24806 -13.615354 -25.788742 -13.480683 -20.705103 -2.5241292 21.440886
3700000000 3.0318899 -178.87985 -12.917898 -19.641518 -13.137918 -28.197956 -2.2276552 16.250408
3800000000 -1.2388195 169.65906 -15.051741 -21.394152 -15.283166 -26.948803 -2.5443852 17.991611
3900000000 2.1804254 166.97919 -13.78387 -31.435095 -13.537648 -25.666563 -2.5144043 7.2218347
4000000000 2.5389609 -179.58878 -12.230802 -25.668631 -12.620998 -32.055145 -2.0585506 2.8886371
4100000000 -1.3273579 170.62372 -14.179364 -25.384468 -14.287342 -33.711128 -2.4889414 3.2343152
4200000000 1.4387656 164.37659 -13.602391 -37.077663 -13.097026 -31.846235 -2.3483863 -5.7906127
4300000000 2.3416409 177.12704 -11.665132 -33.962887 -12.130851 -37.202446 -1.9534786 -11.088167
4400000000 -1.2922747 169.0491 -13.400047 -32.019424 -13.538669 -39.038597 -2.2933958 -10.518955
4500000000 0.87643051 166.00652 -13.175686 -40.814987 -12.801791 -35.855129 -2.2756212 -17.813177
4600000000 1.6658353 175.87814 -11.297751 -39.774429 -11.689959 -41.886765 -1.7961504 -24.666183
4700000000 -1.3704392 169.26375 -12.403894 -37.767834 -12.483676 -44.485828 -2.0287251 -24.648228
4800000000 0.57337248 162.7999 -12.480065 -46.815788 -12.052478 -42.279766 -2.3431163 -30.203684
4900000000 1.618459 172.40004 -10.738064 -47.323479 -11.091551 -47.867741 -1.8446792 -38.707703
5000000000 -1.3642063 167.32407 -11.547086 -44.526272 -11.673928 -50.462082 -1.7641344 -38.495434
5100000000 0.020865938 162.3907 -11.799767 -51.223553 -11.480493 -47.756763 -2.4772556 -43.279057
5200000000 1.0029085 169.2704 -10.245048 -54.385681 -10.542741 -54.214699 -1.9257383 -52.625362
5300000000 -1.4699033 166.24539 -10.436956 -51.33247 -10.611798 -56.58691 -1.65443 -52.78833
5400000000 -0.10492875 159.91896 -10.831056 -57.311832 -10.456115 -54.570915 -2.52724 -58.386124
5500000000 0.95409733 167.08241 -9.3304071 -60.845676 -9.5494404 -60.172661 -2.1413751 -67.63961
5600000000 -1.6700364 163.42102 -9.3720808 -59.376789 -9.550005 -63.926514 -1.8179768 -68.220726
5700000000 -0.18726638 156.14412 -9.6471643 -63.351906 -9.093811 -61.274612 -2.6914182 -73.311409
5800000000 0.24572283 162.82227 -8.2312231 -69.226936 -8.3487768 -68.484535 -2.4130292 -83.450668
5900000000 -2.0313582 160.24744 -7.5718503 -69.862061 -7.8668489 -73.915382 -2.0921905 -85.221542
6000000000 -1.0370356 150.91722 -7.6015038 -74.389664 -7.2299743 -73.399353 -3.2884316 -92.330299
6100000000 -0.43180287 157.32246 -5.8947859 -82.042686 -5.954711 -81.843468 -3.4191737 -102.94593
6200000000 -4.0206118 151.66948 -4.9273028 -90.264359 -5.2466788 -92.661072 -3.8783698 -107.18719
6300000000 -4.3314242 140.87439 -4.3104224 -103.68887 -4.1145911 -102.8336 -7.063633 -115.41142
6400000000 -5.8399591 173.92456 -3.5756242 -127.29012 -3.6151891 -127.08486 -9.9712629 -99.664879
6500000000 -5.0980363 -156.12767 -5.5152769 -150.79222 -5.5760593 -151.87419 -6.6427608 -70.355133
6600000000 -2.710314 -171.97137 -9.6912117 -166.07536 -9.450861 -166.01628 -4.2912993 -78.591988
6700000000 0.27601212 -170.92499 -12.904639 -165.05383 -12.785912 -164.78513 -2.8073535 -91.703888
6800000000 -0.99362195 -173.37753 -15.887306 -154.81523 -15.893463 -156.11812 -2.1012509 -96.713684
6900000000 -1.1195326 174.59412 -17.899111 -138.5813 -17.704365 -140.27544 -2.3871074 -105.55757
7000000000 0.35958323 176.93233 -17.420397 -125.90292 -17.32921 -125.64979 -2.1167345 -114.36134
7100000000 -0.69555783 179.75206 -16.609068 -117.17672 -16.643671 -118.20506 -1.8754721 -116.83767
7200000000 -1.0528128 169.69164 -16.541279 -112.70345 -16.403849 -114.4033 -2.1918874 -123.15222
7300000000 0.6450997 172.14044 -15.511537 -109.94688 -15.402453 -109.59863 -2.0697117 -130.70656
7400000000 -0.54638982 175.90265 -14.790527 -109.98277 -14.812677 -110.90596 -2.0011466 -134.07043
7500000000 -1.1661299 167.07039 -14.677613 -108.6124 -14.62136 -111.06722 -2.2598145 -137.86464
7600000000 0.073003076 167.56662 -14.240919 -109.8535 -14.14497 -109.81379 -2.1668897 -144.94255
7700000000 -0.48196167 173.0605 -13.468713 -111.79386 -13.536756 -112.44094 -1.9974887 -149.07607
7800000000 -1.1905297 165.3979 -13.538592 -110.96999 -13.52267 -113.03581 -2.4286828 -152.82808
7900000000 0.22339793 165.34859 -13.144248 -112.88058 -13.053352 -112.70661 -2.2813361 -158.88666
8000000000 -0.53960925 170.24481 -12.576906 -115.99326 -12.606329 -116.63432 -2.0994503 -162.73276
8100000000 -1.2822607 163.93146 -12.594107 -115.45443 -12.630131 -117.72995 -2.5571454 -167.1264
8200000000 -0.2443665 164.27022 -12.466004 -117.61668 -12.366293 -117.561 -2.4438307 -172.69228
8300000000 -0.5856542 169.35727 -11.835249 -120.47824 -11.824074 -121.23307 -2.2514086 -175.78935
8400000000 -1.3265164 162.70856 -11.895948 -120.98637 -11.995389 -123.28019 -2.61134 178.98988
8500000000 -0.22289114 162.67496 -11.760236 -122.41169 -11.659775 -122.80621 -2.5370688 173.63324
8600000000 -0.66279495 165.95242 -11.386065 -126.2339 -11.36504 -126.68621 -2.5161262 170.62337
8700000000 -1.3933434 161.61414 -11.322097 -127.48028 -11.406836 -129.43257 -2.7445071 165.54987
8800000000 -0.49976924 161.68082 -11.261851 -128.3389 -11.151491 -128.46935 -2.6472361 160.39244
8900000000 -0.70698053 165.39218 -10.832538 -131.71529 -10.800071 -132.03775 -2.6442933 157.31
9000000000 -1.4784324 160.34254 -10.796682 -133.12186 -10.888369 -135.37096 -2.8613479 152.24597
9100000000 -0.60490453 159.37935 -10.707479 -134.16563 -10.619287 -134.60535 -2.7233486 147.10876
9200000000 -0.68413305 162.66528 -10.360712 -137.78235 -10.340774 -138.10947 -2.7689736 143.8089
9300000000 -1.5521439 159.59196 -10.340688 -139.90022 -10.375789 -141.47704 -2.9991648 138.78822
9400000000 -0.62444288 158.07956 -10.174883 -140.55489 -10.119914 -140.86513 -2.8646395 133.8546
9500000000 -0.72095895 162.0025 -9.8662777 -143.74777 -9.8305521 -143.7533 -2.9037845 130.73413
9600000000 -1.6712204 158.70221 -9.8703394 -145.87801 -9.8865356 -147.55452 -3.0988593 125.59592
9700000000 -0.90900034 155.56696 -9.7148561 -147.31563 -9.6488409 -147.80544 -2.9453564 120.69202
9800000000 -0.94433546 160.67558 -9.4264345 -149.59624 -9.3806276 -149.91656 -3.0366898 117.45254
9900000000 -1.7276882 157.87714 -9.4087944 -152.04892 -9.3858385 -153.8183 -3.2330143 112.20403
10000000000 -0.85249138 154.75893 -9.2136326 -153.53551 -9.1493511 -153.96796 -3.0632496 107.11045
10100000000 -0.68420285 158.77011 -8.8051043 -156.43103 -8.8263235 -156.59871 -3.1556778 103.85543
10200000000 -1.7872176 156.74774 -8.9157114 -158.51164 -8.9043713 -160.2626 -3.3597543 98.598488
10300000000 -1.2660496 153.7551 -8.8189039 -160.5907 -8.7818871 -161.02156 -3.169477 93.663605
10400000000 -1.0685771 157.35187 -8.4147215 -163.17484 -8.3838215 -163.24533 -3.2973282 90.122871
10500000000 -1.8908144 155.70987 -8.4159832 -164.72826 -8.3205223 -166.40262 -3.4890137 84.595757
10600000000 -1.319521 152.12671 -8.3315449 -167.24318 -8.276124 -167.70926 -3.3108382 80.002029
10700000000 -0.99272311 155.29268 -7.8356795 -170.06018 -7.8135948 -170.36241 -3.4372296 76.306915
10800000000 -1.9559052 153.71399 -7.8766646 -171.63364 -7.7952018 -173.46399 -3.5869513 70.612709
10900000000 -1.6454954 151.05658 -7.8259854 -174.09203 -7.8373795 -174.95253 -3.4577715 66.164604
11000000000 -1.3387253 154.31207 -7.3323021 -177.11728 -7.3036094 -177.24924 -3.6421068 61.916603
11100000000 -2.1499841 152.34421 -7.2735457 -178.77864 -7.1520228 179.53104 -3.7239988 56.290695
11200000000 -1.8370715 148.51225 -7.2380595 178.65839 -7.2419562 177.58884 -3.6294591 51.743877
11300000000 -1.6297936 151.03282 -6.8469839 175.3136 -6.7902021 175.03743 -3.8439324 47.253754
11400000000 -2.3420212 149.77678 -6.6373496 173.35516 -6.5540466 171.65497 -3.889246 41.446785
11500000000 -2.0845644 146.7982 -6.5866513 171.32651 -6.6758032 169.61583 -3.8479869 36.948109
11600000000 -1.8705403 149.64404 -6.1583319 167.22125 -6.1345563 167.07001 -4.1495833 31.66239
11700000000 -2.7205667 147.78052 -5.864244 165.04504 -5.8104954 163.47847 -4.1485434 25.681452
11800000000 -2.3975461 142.9166 -5.775527 162.93661 -5.8705745 161.12061 -4.1087847 21.407589
11900000000 -2.3509982 145.10152 -5.4814444 158.01833 -5.4473352 157.82977 -4.5529504 15.606718
12000000000 -3.2819576 143.43677 -5.0726662 155.47981 -5.0426593 154.06819 -4.5231771 8.8206711
12100000000 -2.8873527 138.82306 -4.8768868 153.24757 -4.9835339 151.45294 -4.5939674 4.2720141
12200000000 -2.919235 142.16934 -4.5153875 147.67258 -4.5201459 147.4646 -5.2996764 -2.4875324
12300000000 -4.222867 139.88977 -4.0527058 143.81474 -4.0499067 142.60226 -5.3821611 -9.7117014
12400000000 -4.0886116 132.95993 -3.7092235 140.05449 -3.8697159 138.65822 -5.7197547 -14.856385
12500000000 -4.4214978 136.3788 -3.4036992 133.55154 -3.4362259 133.50508 -6.8232222 -22.160643
12600000000 -6.5490317 133.04106 -2.9566684 127.59559 -2.9472594 126.78237 -7.2903662 -30.430468
12700000000 -6.9036279 125.19318 -2.5273573 121.1856 -2.6358869 120.31683 -8.564167 -36.372154
12800000000 -8.2836685 135.20227 -2.3439658 111.8175 -2.3080716 111.82621 -11.378286 -42.616325
12900000000 -12.901389 151.80402 -2.182332 101.87605 -2.1168325 101.37658 -14.357061 -42.683281
13000000000 -14.652614 173.97264 -2.3027101 90.090881 -2.2736292 89.351288 -18.108042 -6.7351961
13100000000 -9.496769 -159.60144 -2.946979 77.741653 -2.8866284 77.615677 -14.126472 32.842751
13200000000 -6.2182379 -148.50792 -3.9848177 65.782936 -3.8845842 65.254532 -9.654542 28.253304
13300000000 -4.8582067 -156.97797 -5.7641129 55.052956 -5.5667362 53.59845 -6.7154527 19.544313
13400000000 -2.7266684 -165.47441 -7.8387547 47.752625 -7.7823901 47.151131 -5.3166418 8.8374958
13500000000 -1.9302359 -167.21146 -10.096513 44.993084 -10.0395 44.393871 -4.3880458 -3.572237
13600000000 -2.030859 -174.40599 -12.689902 47.806355 -12.526984 45.38047 -3.6897221 -12.511242
13700000000 -1.2136215 -179.89659 -14.718403 55.06982 -14.748658 54.274761 -3.5604961 -20.972063
13800000000 -1.0299731 -179.26897 -15.944447 66.397469 -15.891933 65.98587 -3.2594488 -30.513464
13900000000 -1.523365 175.56166 -16.610199 80.488358 -16.529457 77.514969 -2.9453471 -36.798904
14000000000 -0.9526794 171.37326 -16.355608 90.781746 -16.395103 89.959969 -3.1360488 -44.327953
14100000000 -0.92034769 172.61752 -15.436954 98.292572 -15.398355 98.102074 -2.998198 -52.058533
14200000000 -1.4064968 168.97188 -14.60687 103.89201 -14.52762 101.17269 -2.8842146 -57.049683
14300000000 -0.8699013 166.09033 -13.825606 104.98882 -13.868772 104.04787 -3.0704694 -63.367641
14400000000 -0.8147158 167.70229 -12.90021 104.77096 -12.848646 104.71308 -3.0033078 -70.060684
14500000000 -1.4783361 164.75153 -12.334004 105.73342 -12.259442 102.86234 -2.9434586 -74.393921
14600000000 -1.1601841 161.85513 -11.906651 103.74483 -12.014429 102.42616 -3.1032507 -80.340775
14700000000 -1.1641028 163.78494 -11.412289 101.62991 -11.360502 101.34808 -3.048924 -86.550659
14800000000 -1.6166586 162.05362 -10.983283 101.15589 -10.889018 98.038872 -3.0102112 -90.831909
14900000000 -1.3170708 159.73398 -10.765183 98.675301 -10.908432 97.289215 -3.1958754 -95.843132
15000000000 -1.1160294 160.92957 -10.506692 96.096901 -10.442052 95.962395 -3.1545079 -101.39076
15100000000 -1.5265613 159.84184 -10.109097 96.155647 -10.037557 93.178093 -3.012115 -105.79003
15200000000 -1.3831269 157.44514 -9.8729486 94.173897 -10.126916 92.609436 -3.1728857 -110.89378
15300000000 -1.3453759 158.34654 -9.6294956 91.254219 -9.5937891 90.911171 -3.1789091 -116.74069
15400000000 -1.6846665 157.54619 -9.2323847 89.455627 -9.2147312 86.277184 -3.0933726 -121.02454
15500000000 -1.5313677 155.16338 -9.0862494 87.605438 -9.4261694 85.709534 -3.2583756 -125.49806
15600000000 -1.3533092 155.95856 -9.0083876 84.513123 -8.9690886 84.601997 -3.2730346 -130.97217
15700000000 -1.6965343 155.45337 -8.6229925 83.093513 -8.6412458 80.607361 -3.130857 -135.13193
15800000000 -1.5889829 153.25632 -8.4655552 80.813644 -8.8530092 79.554565 -3.3209171 -140.02966
15900000000 -1.5192478 154.4203 -8.4948645 77.866524 -8.4539461 77.979988 -3.3128898 -145.42986
16000000000 -1.8913432 153.58499 -8.0967121 75.881271 -8.1893206 73.193092 -3.2316027 -149.4485
16100000000 -1.7135516 151.18092 -7.9526696 73.447296 -8.3191624 72.375031 -3.4260771 -154.20787
16200000000 -1.5200419 152.41336 -8.0098972 70.793053 -7.9578667 71.265671 -3.4054711 -159.27583
16300000000 -1.947436 152.44315 -7.6899714 68.822899 -7.7428322 67.110054 -3.3622653 -162.86511
16400000000 -1.7432095 149.80948 -7.5621114 66.212059 -7.8999372 65.9729 -3.5345578 -168.07872
16500000000 -1.5896261 151.50417 -7.6662316 64.198341 -7.588779 64.730225 -3.4141681 -172.96111
16600000000 -2.0973408 150.80157 -7.3307471 61.869431 -7.3125601 59.985836 -3.4759107 -176.53229
16700000000 -1.9553398 147.90021 -7.1621199 58.931931 -7.4324498 58.349861 -3.6635118 178.01787
16800000000 -1.6205211 149.76842 -7.2568412 57.340805 -7.1190705 57.611637 -3.5342174 173.5592
16900000000 -2.1229794 149.13885 -7.0021014 55.030918 -6.979012 53.793175 -3.6312323 170.10736
17000000000 -1.9546638 146.17119 -6.8263044 52.238461 -7.0669045 51.867855 -3.7539163 164.47221
17100000000 -1.8008796 147.90948 -6.8547997 50.487762 -6.7703042 50.504364 -3.6125891 160.28265
17200000000 -2.2653799 147.2944 -6.6055322 47.723415 -6.5469232 46.443249 -3.7546251 156.85164
17300000000 -2.235302 144.61713 -6.4683104 44.96505 -6.6364098 43.983112 -3.8945189 151.28116
17400000000 -1.9747778 145.73846 -6.4606037 43.175163 -6.3280649 43.090794 -3.7576668 146.98715
17500000000 -2.3888426 145.7317 -6.2291408 41.072525 -6.1282988 40.161766 -3.9074759 143.68877
17600000000 -2.2871625 142.4603 -6.0709686 37.855709 -6.2558689 37.076431 -4.0510192 137.81383
17700000000 -2.0896552 143.19702 -6.0309262 35.799435 -5.9732647 35.566986 -3.9263494 133.48035
17800000000 -2.5374558 143.61778 -5.7532344 33.289173 -5.6264763 32.131355 -4.0799222 130.44437
17900000000 -2.6279814 140.35126 -5.6266894 30.158394 -5.7742262 28.991442 -4.3092284 124.50054
18000000000 -2.3706427 141.09039 -5.5391879 27.966869 -5.4771504 27.705147 -4.1632838 120.22215
18100000000 -2.7381029 141.59053 -5.311121 25.704473 -5.1681137 24.842199 -4.3328886 117.3069
18200000000 -2.7954948 137.06773 -5.2030149 22.50794 -5.3578625 21.410923 -4.4985809 110.71241
18300000000 -2.5492949 137.49286 -5.1557732 20.00218 -5.1085725 19.414652 -4.4202871 106.32571
18400000000 -3.0946789 137.59204 -4.8366995 17.134703 -4.7035098 15.88956 -4.7128277 103.09418
18500000000 -3.2718296 133.65179 -4.6681533 13.970072 -4.8049583 12.826408 -4.9070158 96.594254
18600000000 -3.055994 134.33536 -4.5650277 11.312222 -4.5453262 10.670612 -4.9093819 92.693489
18700000000 -3.6142604 134.33371 -4.272696 8.3147259 -4.1662383 7.3038225 -5.2756567 89.21907
18800000000 -3.8221431 129.14993 -4.1563759 5.0674405 -4.2621746 3.7425992 -5.3840322 82.394417
18900000000 -3.7107904 129.52759 -4.0499434 1.920173 -4.0403242 1.2250757 -5.4815755 78.347588
19000000000 -4.498951 128.30795 -3.7128069 -1.8513689 -3.6267018 -3.1414847 -6.0206618 73.415947
19100000000 -4.8324318 123.65361 -3.4928892 -5.4359231 -3.5870476 -6.8411369 -6.2632022 66.752892
19200000000 -4.9135494 124.26868 -3.3201046 -9.3486557 -3.369169 -10.057414 -6.7196202 63.000538
19300000000 -6.0199575 122.84409 -3.0104301 -13.902591 -2.9755425 -15.024181 -7.4859056 58.470387
19400000000 -6.7137656 116.65263 -2.7764211 -18.504807 -2.8603749 -19.758083 -7.919898 51.865658
19500000000 -7.3264937 116.83074 -2.5941341 -23.752069 -2.6740451 -24.335152 -8.7631788 49.135796
19600000000 -9.3420105 117.01524 -2.3950045 -29.947201 -2.3664813 -30.637043 -10.202875 44.845352
19700000000 -11.440845 111.63757 -2.2121346 -36.315044 -2.2287157 -37.095825 -11.550206 40.923645
19800000000 -13.484096 119.87563 -2.1768086 -43.664703 -2.2054858 -44.00198 -13.611363 47.071377
19900000000 -17.709579 153.1716 -2.2842057 -51.597633 -2.2033508 -51.984802 -15.629433 63.697056
20000000000 -17.834949 -164.27785 -2.500591 -60.148205 -2.3997741 -60.987785 -15.183668 82.193893
20100000000 -12.633131 -151.82469 -3.0109313 -69.333344 -2.9327011 -69.917427 -12.307285 94.86615
20200000000 -8.5470448 -146.80566 -3.7649608 -77.887474 -3.5905743 -78.360443 -9.771944 97.421631
20300000000 -6.5810161 -149.04819 -4.7525721 -86.149529 -4.5731726 -87.329956 -7.9783816 91.071548
20400000000 -4.9442086 -158.14415 -6.1465702 -93.369217 -6.0599551 -94.863808 -6.3134961 83.913338
20500000000 -3.5107167 -162.55078 -7.6921315 -98.171303 -7.545403 -99.435844 -5.266994 76.521263
20600000000 -3.0975962 -167.1512 -9.4609108 -100.95689 -9.2410021 -103.2948 -4.5983377 66.709946
20700000000 -2.5837839 -174.11256 -11.440168 -100.85722 -11.395471 -103.08659 -3.9798834 58.451496
20800000000 -1.9731344 -176.9128 -13.157847 -96.790993 -13.069571 -98.143417 -3.7596507 50.729668
20900000000 -1.9324588 -179.85201 -14.670612 -89.110771 -14.536567 -91.186386 -3.5940309 42.15604
21000000000 -1.663914 174.60756 -15.79726 -78.263176 -15.844325 -80.696671 -3.4200623 35.819435
21100000000 -1.4059458 172.04407 -15.938222 -66.331673 -15.927816 -67.719017 -3.46333 29.125187
21200000000 -1.6869954 169.32217 -15.367516 -56.427658 -15.242401 -58.979778 -3.3717132 22.060892
21300000000 -1.6984311 165.8755 -14.593575 -50.292389 -14.65738 -52.801132 -3.3283432 16.421629
21400000000 -1.5911618 165.81255 -13.684777 -47.744194 -13.636783 -49.201958 -3.4567575 9.941205
21500000000 -1.7548474 164.40811 -12.940157 -46.390839 -12.821994 -48.794456 -3.4498718 3.5146461
21600000000 -1.6905875 161.72145 -12.376562 -45.724937 -12.499948 -48.523994 -3.4898856 -1.6648687
21700000000 -1.4940078 161.05095 -11.844277 -46.012966 -11.863922 -47.682606 -3.6079521 -7.0274487
21800000000 -1.6200628 159.62482 -11.204571 -46.109909 -11.119922 -48.699379 -3.6109955 -13.115144
21900000000 -1.6800214 156.62735 -10.625978 -46.62207 -10.754653 -49.613174 -3.5723727 -18.390509
22000000000 -1.7545581 156.13261 -10.125914 -49.418365 -10.171366 -51.045536 -3.7269106 -23.517704
22100000000 -1.9434906 157.21355 -9.8972273 -52.205345 -9.8553171 -54.794254 -3.8068819 -29.594624
22200000000 -1.7687143 154.70209 -9.6473627 -51.979805 -9.8471756 -55.560055 -3.667002 -34.702297
22300000000 -1.592869 153.21443 -9.2741566 -53.668884 -9.4287634 -55.66544 -3.8919339 -39.474152
22400000000 -1.8239144 152.52858 -8.8062458 -55.952068 -8.8356209 -58.900574 -3.9471891 -46.050961
22500000000 -1.9163418 150.37302 -8.4087639 -57.555252 -8.6975536 -60.638332 -3.7886994 -50.725353
22600000000 -1.8531394 150.34377 -8.1451979 -60.207661 -8.3510189 -61.727985 -4.1085281 -55.238983
22700000000 -2.1608038 150.23788 -7.8175116 -63.298943 -7.922946 -65.445061 -4.1693711 -62.358814
22800000000 -2.2518179 147.51768 -7.4946542 -65.499939 -7.8603497 -68.391296 -3.9817626 -66.759514
22900000000 -2.1548185 147.92667 -7.3643541 -68.824959 -7.6837111 -70.265053 -4.3508539 -71.59684
23000000000 -2.4071343 148.9879 -7.3495169 -72.645218 -7.4749045 -74.610954 -4.4310164 -77.931198
23100000000 -2.2863975 146.93785 -7.2237239 -73.372498 -7.6220274 -75.80159 -4.240139 -81.815025
23200000000 -2.0895345 147.47882 -6.9873843 -75.386742 -7.2545204 -75.866241 -4.4784355 -86.607323
23300000000 -2.4039364 147.43512 -6.7595105 -78.588272 -6.9294868 -79.265022 -4.4771972 -93.290741
23400000000 -2.458755 144.33713 -6.4850087 -80.732834 -6.8931775 -82.453491 -4.3424993 -97.933907
23500000000 -2.3304994 144.63422 -6.3808713 -83.559029 -6.6943836 -83.89138 -4.5741963 -102.73683
23600000000 -2.5901089 144.92465 -6.3068004 -86.737335 -6.4649734 -87.231789 -4.5442548 -109.18196
23700000000 -2.5873716 142.60428 -6.1112709 -88.872223 -6.4332204 -90.55629 -4.4671664 -113.89413
23800000000 -2.3957286 143.47655 -6.0396166 -92.063858 -6.2129445 -91.614021 -4.7458272 -119.31982
23900000000 -2.6366191 144.20226 -5.9617524 -94.766998 -5.9866681 -95.018181 -4.7340484 -125.39835
24000000000 -2.7402585 141.983 -5.8176641 -97.232628 -6.0424943 -98.198357 -4.7280598 -129.55321
24100000000 -2.5290077 142.04024 -5.6715031 -99.863647 -5.8871765 -99.640663 -4.9319701 -134.54984
24200000000 -2.7669125 142.57542 -5.6710005 -102.22774 -5.7069206 -102.3737 -4.8228683 -140.43762
24300000000 -2.8321743 139.33429 -5.5097394 -104.56097 -5.6566863 -105.77247 -4.7738819 -144.20087
24400000000 -2.5496843 139.34976 -5.3770227 -107.2402 -5.5375404 -107.72982 -4.9576797 -150.42166
24500000000 -2.8248005 140.315 -5.3475161 -109.75529 -5.2600369 -110.48212 -4.7697587 -156.27725
24600000000 -2.9690945 138.13109 -5.1580772 -112.71056 -5.2871361 -113.93439 -4.8822088 -159.87366
24700000000 -2.6867151 138.51118 -5.0492387 -115.43088 -5.2236342 -115.61923 -5.1631985 -166.18668
24800000000 -2.9837596 139.24738 -4.9864354 -117.99984 -4.9405489 -118.23078 -4.9340539 -171.2644
24900000000 -3.1111579 135.06264 -4.8091311 -120.63237 -4.9751987 -121.75008 -5.0283294 -174.05045
25000000000 -2.8591249 134.40521 -4.7404017 -123.43288 -4.9137864 -124.28726 -5.2317209 179.03389
25100000000 -3.2279398 134.95497 -4.6803689 -126.24954 -4.635632 -127.02643 -4.9245472 174.33681
25200000000 -3.4110656 132.70145 -4.5218539 -128.92548 -4.6489692 -130.33415 -5.1580734 171.03909
25300000000 -3.0934694 133.06111 -4.4449482 -132.15997 -4.6587901 -132.46576 -5.3850989 163.76274
25400000000 -3.3656313 133.65689 -4.3525233 -135.0081 -4.3362174 -135.23758 -5.1647062 159.60936
25500000000 -3.6205022 129.71664 -4.1899977 -137.68704 -4.3197417 -138.87227 -5.4387283 156.38808
25600000000 -3.5161877 128.56339 -4.1438756 -140.9698 -4.3599162 -141.39861 -5.5841708 149.52293
25700000000 -3.8926938 128.53551 -4.0622182 -144.02725 -4.0880728 -144.46794 -5.4223967 145.7338
25800000000 -4.0956745 125.44704 -3.9087803 -146.7531 -4.019073 -147.5341 -5.7444549 141.7574
25900000000 -3.9539902 125.21922 -3.8428795 -150.24165 -3.9971995 -150.10687 -5.8913236 134.99017
26000000000 -4.2988477 125.15765 -3.7658608 -153.49225 -3.7479227 -153.66809 -5.878068 131.46461
26100000000 -4.6930437 121.53263 -3.603111 -156.53479 -3.6809008 -157.36162 -6.235424 127.39384
26200000000 -4.7988338 120.35052 -3.554498 -160.14581 -3.6995857 -160.23761 -6.4160328 121.26414
26300000000 -5.3768668 119.57715 -3.4740293 -163.40674 -3.4677899 -163.73724 -6.5414119 117.94839
26400000000 -5.867991 115.62915 -3.3131335 -167.0542 -3.3238666 -167.65741 -7.0122509 113.66515
26500000000 -5.9006872 114.3456 -3.2149067 -170.79776 -3.2941949 -170.63046 -7.3007073 107.51228
26600000000 -6.747613 113.96841 -3.1433992 -174.96593 -3.1209302 -175.2977 -7.6554089 105.0681
26700000000 -7.6976485 110.26102 -2.9983068 -179.16324 -3.0130181 -179.92442 -8.4368715 101.24657
26800000000 -8.3978682 109.8686 -2.9337709 176.32121 -3.0014582 176.19417 -8.7723255 96.683746
26900000000 -9.9250803 110.96143 -2.8799787 171.72395 -2.8707523 171.33009 -9.4336386 95.928802
27000000000 -11.8547 107.05399 -2.7615905 166.13011 -2.6851041 165.79433 -10.749256 93.50576
27100000000 -13.18683 107.2855 -2.7307732 160.30641 -2.7101226 160.26425 -11.489354 93.935509
27200000000 -16.56344 122.65691 -2.8574088 153.68326 -2.8355229 153.37074 -12.348666 103.65602
27300000000 -20.166368 152.50951 -3.0483639 146.76357 -2.9398153 146.06006 -12.952957 112.6009
27400000000 -17.288589 -170.03838 -3.4302111 139.68752 -3.2043424 138.98927 -12.055533 122.48786
27500000000 -12.67199 -153.856 -4.0110903 132.18594 -3.715842 131.91675 -9.6446638 131.66595
27600000000 -9.8562508 -150.55707 -4.7516937 124.94359 -4.4978223 124.61029 -9.2484951 125.87254
27700000000 -7.8616233 -155.1035 -5.696743 118.36954 -5.5412769 117.37911 -7.4047332 116.92416
27800000000 -6.0134282 -159.55699 -6.9349637 113.10294 -6.8502922 111.69078 -5.916039 116.80947
27900000000 -4.8112397 -164.28658 -8.3353643 109.59046 -8.1278992 107.96149 -5.9346766 112.33192
28000000000 -3.9024777 -170.9539 -9.8623505 108.02785 -9.7383051 106.52367 -5.1125174 98.553169
28100000000 -3.1879337 -177.03706 -11.333336 109.5708 -11.440969 107.97079 -3.6402998 96.10379
28200000000 -2.8973453 179.09222 -12.787724 113.61243 -12.486995 109.44837 -4.8175368 103.79886
28300000000 -2.7566302 174.95442 -14.051907 126.17693 -13.062442 122.43904 -5.8817778 149.33604
28400000000 -2.5240867 171.74715 -13.94704 125.93503 -13.625929 120.3345 -3.3656297 88.697159
28500000000 -2.4977825 169.62103 -14.577902 132.37286 -14.182038 129.97565 -3.5425849 71.93187
28600000000 -2.5232298 165.71216 -14.689015 138.98732 -14.682992 137.76836 -3.3143787 68.374954
28700000000 -2.3009903 163.89908 -14.539804 145.57397 -14.635314 144.00658 -3.3525023 63.39389
28800000000 -2.2874153 163.15498 -14.011734 150.50597 -13.936797 148.41455 -3.2940321 58.847324
28900000000 -2.2038698 160.80247 -13.357404 153.4494 -13.329309 151.26283 -3.3931201 54.07922
29000000000 -1.9377126 159.42139 -12.873831 155.02449 -12.891596 153.46774 -3.3272817 49.138882
29100000000 -1.9550279 158.51285 -12.325273 156.1487 -12.222181 154.17519 -3.3667045 45.119648
29200000000 -1.9319668 154.76088 -11.748535 156.38593 -11.698011 153.86427 -3.4790471 39.882256
29300000000 -1.7423317 152.22591 -11.318911 156.19754 -11.339901 154.45486 -3.3927779 35.507793
29400000000 -1.9115723 150.77986 -10.846286 155.36896 -10.881064 153.0585 -3.5484793 31.773907
29500000000 -2.0399196 147.7524 -10.346741 154.44357 -10.403024 151.49547 -3.6972921 26.502754
29600000000 -2.0438163 146.82747 -9.9767523 153.29491 -10.069954 151.08008 -3.6118596 22.840845
29700000000 -2.2942264 146.91125 -9.5930052 151.7704 -9.5630159 149.34872 -3.7515242 20.048292
29800000000 -2.4427426 145.09323 -9.1978111 150.00995 -9.1864624 147.08881 -3.8371801 14.578818
29900000000 -2.2588222 144.41422 -8.8823633 148.56522 -8.993329 146.54449 -3.6082766 10.64406
30000000000 -2.3564615 144.1951 -8.5836544 146.58423 -8.6920328 144.10606 -3.8336813 6.9190407
30100000000 -2.388344 141.66319 -8.2380867 144.25684 -8.4374876 141.59193 -4.0112724 0.55705345
30200000000 -2.3223724 140.53104 -7.9022479 142.42863 -8.1190109 139.97549 -3.8268747 -3.4237697
30300000000 -2.5944543 140.81863 -7.6206594 139.80809 -7.7076693 137.51595 -4.1632237 -5.8576031
30400000000 -2.721451 139.30106 -7.3959398 136.93076 -7.5678835 134.43311 -4.4561391 -11.444618
30500000000 -2.4766946 139.04935 -7.2116752 134.80946 -7.4265213 132.81487 -4.1075268 -15.796842
30600000000 -2.5456362 138.52278 -7.0371547 133.02849 -7.2532964 131.36771 -4.3484221 -17.852158
30700000000 -2.5927298 135.4765 -6.800631 130.49947 -7.1408463 128.47626 -4.619575 -25.028082
30800000000 -2.5571983 134.2683 -6.5396481 128.20898 -6.8007221 126.34261 -4.2851772 -29.626581
30900000000 -2.8620121 133.7664 -6.2966208 125.78876 -6.5579104 124.29601 -4.7035084 -31.342936
31000000000 -3.0155618 133.08151 -6.1257992 123.24533 -6.3652081 121.7443 -5.0129895 -38.572468
31100000000 -3.2748556 132.78789 -5.8831983 120.14085 -6.0520902 118.84119 -4.6430354 -42.677273
31200000000 -3.9304473 126.66103 -5.5967741 116.48224 -5.8635101 116.24383 -5.1077981 -45.118641
31300000000 -3.199893 127.85718 -5.5262036 114.7443 -5.8440647 113.84756 -5.36023 -53.556255
31400000000 -3.4022665 131.58101 -5.398068 111.78946 -5.6310253 109.63194 -5.0970755 -57.527721
31500000000 -4.4852581 120.60778 -5.110683 108.17094 -5.1844897 105.71179 -5.6070628 -60.496742
31600000000 -3.5311365 93.984131 -5.4240942 103.53063 -5.501688 103.09397 -5.6172795 -69.106888
31700000000 -2.4857481 122.00941 -4.9561596 104.1916 -5.221386 103.07252 -5.3993578 -72.067215
31800000000 -3.2143972 136.79399 -4.8888121 102.07278 -5.1176991 101.40793 -6.0327687 -75.673805
31900000000 -4.7093959 127.55049 -4.7306533 98.240211 -4.8341098 97.661285 -6.2025418 -82.910385
32000000000 -3.6952693 122.56831 -4.575047 95.831451 -4.7913661 94.116676 -6.0149727 -86.768898
32100000000 -3.8609509 128.62912 -4.4120941 92.957718 -4.5723958 92.171341 -6.5326314 -91.410385
32200000000 -4.8301172 125.73618 -4.2761278 89.844261 -4.3422961 89.201729 -6.576714 -98.683846
32300000000 -4.1269398 122.13889 -4.1175046 87.277069 -4.3235526 85.717239 -6.441432 -102.62538
32400000000 -4.1789646 126.35402 -3.994684 83.990784 -4.2076688 83.272415 -6.9931426 -108.61348
32500000000 -4.9796629 122.14511 -3.8419504 80.840088 -3.9635527 79.567673 -6.893434 -116.25873
32600000000 -4.6495099 118.67863 -3.7208707 78.004318 -3.9281042 76.384369 -6.9037156 -120.3013
32700000000 -4.9226522 122.106 -3.6041362 74.319054 -3.7896025 73.570877 -7.6333609 -126.85046
32800000000 -5.7405438 120.82021 -3.4597721 71.321159 -3.5232124 70.380508 -7.5761662 -134.09126
32900000000 -5.2084951 117.22974 -3.3634441 67.993958 -3.5812759 66.91011 -7.6429458 -137.19719
33000000000 -5.1960878 119.84904 -3.2220058 64.827965 -3.5436339 64.074539 -8.2465734 -143.44238
33100000000 -6.1193032 116.5636 -3.1924744 60.922543 -3.3341379 60.042206 -7.9927197 -151.25671
33200000000 -6.0061965 113.01385 -3.0917826 57.802452 -3.3566716 56.727192 -8.017766 -155.67282
33300000000 -6.4275589 116.38044 -3.0366967 54.031162 -3.2755821 53.532738 -8.7425699 -164.03596
33400000000 -7.3625159 114.60313 -3.0035453 50.615273 -3.0854487 50.474239 -8.9001169 -172.00591
33500000000 -7.0088205 112.03841 -2.8703954 47.167194 -3.0602126 46.82193 -9.3425636 -174.51012
33600000000 -7.1222248 115.45973 -2.7833159 43.470638 -2.9955475 43.537334 -10.145043 179.1205
33700000000 -8.0875082 112.60291 -2.7407882 39.204483 -2.856328 39.203651 -10.030258 173.97424
33800000000 -8.0720768 108.6962 -2.693676 35.705669 -2.857378 35.269924 -10.425018 171.15781
33900000000 -8.8055782 112.97485 -2.7088969 31.252642 -2.8364573 31.291693 -11.038201 163.22404
34000000000 -10.389928 109.83726 -2.7341373 26.836964 -2.7258277 27.039587 -11.106489 158.47446
34100000000 -10.618415 107.14625 -2.7310801 22.848091 -2.736794 22.667246 -12.076515 155.81647
34200000000 -11.384543 115.83012 -2.7702765 18.322168 -2.8164918 18.371542 -13.127722 150.56741
34300000000 -13.465455 121.7249 -2.8811176 13.674993 -2.8436704 13.489104 -13.4422 151.41217
34400000000 -13.729567 124.08936 -2.9661956 9.3174505 -2.9797833 8.8116608 -14.166636 155.2325
34500000000 -13.157356 138.9184 -3.1505599 4.7551069 -3.1663857 4.3757844 -14.588732 154.72806
34600000000 -14.364617 150.41107 -3.3386834 -0.28169733 -3.258903 -0.69391644 -14.209622 157.2979
34700000000 -14.67424 152.49841 -3.5304725 -5.3163118 -3.4544632 -5.9026036 -14.097207 163.74933
34800000000 -13.211111 161.92986 -3.8569677 -10.550864 -3.8367016 -11.219695 -13.729761 167.50894
34900000000 -12.879232 175.04884 -4.3451438 -15.753321 -4.2743864 -16.246323 -12.256779 166.81679
35000000000 -12.261516 175.81013 -4.8723445 -19.890368 -4.7619972 -20.68549 -10.96277 166.80235
35100000000 -10.344188 179.05498 -5.4560885 -23.583551 -5.3974795 -24.643486 -10.296922 162.32684
35200000000 -9.5024214 -172.25467 -6.0769529 -27.476515 -5.9508076 -28.518635 -9.3920765 157.21025
35300000000 -8.9375906 -171.20288 -6.6530585 -30.687975 -6.4896655 -32.154388 -8.6290493 154.68491
35400000000 -7.1751094 -172.56964 -7.3238773 -33.722275 -7.2533445 -35.40041 -8.1235466 150.78391
35500000000 -6.0080047 -171.01595 -8.1110239 -37.104393 -8.0217113 -38.436031 -7.2516971 145.4138
35600000000 -5.337069 -174.59288 -9.0488434 -38.923622 -8.9110346 -40.535023 -6.4359775 141.51233
35700000000 -4.1369996 178.96971 -9.9761868 -39.199741 -9.9504633 -41.351429 -5.9755554 135.51201
35800000000 -3.5057333 177.1871 -10.946158 -38.99527 -10.906664 -40.763721 -5.2919598 128.13704
35900000000 -3.5279219 172.31688 -11.797133 -37.226089 -11.704949 -39.358383 -4.8891616 123.17908
36000000000 -2.9795568 167.47414 -12.59443 -33.842464 -12.653775 -36.043953 -4.7253127 117.91209
36100000000 -2.7196805 166.49002 -13.323793 -28.954187 -13.336793 -30.52759 -4.3277798 110.94485
36200000000 -3.0462472 162.82597 -13.596017 -23.370106 -13.564933 -25.197332 -3.9483168 105.95204
36300000000 -2.5536683 158.78891 -13.726665 -17.32616 -13.787075 -19.153276 -3.9624505 100.5406
36400000000 -2.3044405 158.38068 -13.487007 -11.423368 -13.503113 -12.688951 -3.8134811 93.598488
36500000000 -2.6610062 155.28676 -12.87161 -7.2183881 -12.811055 -8.8857727 -3.632242 89.182182
36600000000 -2.3444338 151.18944 -12.11057 -4.6502719 -12.135024 -6.6350126 -3.8146307 84.26181
36700000000 -2.2181625 151.85503 -11.428704 -4.1643324 -11.44015 -5.2623954 -3.7382536 78.517479
36800000000 -2.6430068 148.84874 -10.775732 -4.4891691 -10.703024 -6.3349266 -3.5981331 76.067627
36900000000 -2.4363463 144.37254 -10.164866 -6.1560144 -10.153462 -8.3123951 -3.7453666 71.725212
37000000000 -2.3817201 145.47652 -9.7376003 -8.7425575 -9.6963549 -10.318551 -3.5298176 65.640335
37100000000 -2.8655467 143.95966 -9.4524202 -12.167746 -9.335 -14.003988 -3.6510193 62.495644
37200000000 -2.4809465 140.19644 -9.3408699 -14.206445 -9.2919798 -16.522604 -4.0953097 57.541676
37300000000 -2.4128788 141.58653 -9.1573067 -15.330729 -9.149457 -17.034142 -3.8864977 53.657993
37400000000 -3.0409203 139.49362 -8.904458 -17.288263 -8.8475676 -19.528936 -3.9521854 53.314163
37500000000 -2.9354949 135.97716 -8.6609011 -20.070395 -8.7153263 -23.094799 -4.2828746 48.683613
37600000000 -2.8520899 139.42731 -8.7278566 -22.985332 -8.7804928 -25.412991 -3.9060144 44.444416
37700000000 -3.0575707 138.86186 -8.9887753 -24.076595 -8.9556732 -26.62632 -3.9155834 45.047886
37800000000 -2.4961054 134.58359 -8.9411993 -22.894175 -9.0125456 -25.828903 -4.1573596 39.908142
37900000000 -2.219744 135.76215 -8.5683947 -22.591593 -8.6689835 -24.998493 -3.5440586 34.219051
38000000000 -2.7254519 132.93993 -8.1953249 -23.62801 -8.2753229 -25.99667 -3.6162949 33.872448
38100000000 -2.3774669 128.289 -7.8215475 -25.303734 -8.0416346 -28.16592 -4.1984978 28.289522
38200000000 -2.3194447 130.34767 -7.5306606 -27.506395 -7.7420521 -29.773338 -3.6307271 22.726549
38300000000 -3.1214559 127.49139 -7.2656369 -29.64633 -7.3600736 -31.749031 -3.6038027 23.837374
38400000000 -2.6886234 122.87662 -7.0069466 -31.523584 -7.2230287 -34.004723 -4.303206 18.937235
38500000000 -2.5321145 126.03954 -6.7976189 -33.935051 -7.0120344 -36.100502 -3.7509181 12.253042
38600000000 -3.2691841 123.68242 -6.5501919 -36.27496 -6.6665425 -38.039616 -3.6785626 13.387929
38700000000 -2.794235 118.06717 -6.2891665 -38.550999 -6.5489068 -40.687729 -4.3362489 7.9869337
38800000000 -2.6965787 121.60806 -6.1415849 -40.99966 -6.3844738 -43.141388 -3.890198 1.3120031
38900000000 -3.6737514 118.75439 -5.9011226 -43.897438 -6.0326033 -45.638878 -4.0360131 2.4060466
39000000000 -3.1888788 112.99426 -5.6394501 -46.175785 -5.9399343 -48.149151 -4.7716165 -3.1080675
39100000000 -3.0931814 116.16869 -5.5231581 -48.793259 -5.7754216 -50.842861 -4.2197599 -7.2479973
39200000000 -4.2027054 114.01671 -5.3443184 -51.844852 -5.4696679 -53.382618 -4.3740287 -6.7257471
39300000000 -3.8063965 107.70741 -5.171082 -54.70908 -5.3692436 -56.551147 -5.0008621 -13.294617
39400000000 -3.6767325 112.30981 -5.0847015 -56.883369 -5.2909408 -58.817917 -4.5012941 -17.74181
39500000000 -4.6742654 109.80138 -4.9445486 -59.804985 -5.0565963 -61.367428 -4.891933 -17.573715
39600000000 -4.2177401 103.20462 -4.734601 -62.396919 -4.9487619 -64.340721 -5.4483471 -25.062796
39700000000 -4.1376739 105.86668 -4.6022148 -64.767952 -4.8666887 -66.752151 -5.0554576 -28.076641
39800000000 -5.2163482 101.95197 -4.404716 -67.675743 -4.573874 -69.700676 -5.5110378 -26.557081
39900000000 -5.107111 95.94693 -4.2031827 -70.716827 -4.3965335 -72.582497 -5.8867583 -33.932087
40000000000 -5.266326 99.860779 -4.0196719 -73.366608 -4.2843189 -75.470886 -5.4340878 -37.552868
