!Keysight Technologies,N5224A,MY55441802,A.10.65.16
!Date: Wednesday, May 13, 2026 19:13:36
!Correction: S11(Full 2 Port(1,2)) 
!S21(Full 2 Port(1,2)) 
!S12(Full 2 Port(1,2)) 
!S22(Full 2 Port(1,2)) 
!S2P File: Measurements: S11, S21, S12, S22:
# Hz S  dB   R 50
1000000000 -0.26957607 -97.811211 -45.934433 61.650185 -39.690472 58.978527 -3.24335 -12.725907
1100000000 0.30768287 152.88225 -41.207176 178.96002 -39.765976 151.63228 -2.3079727 17.519939
1200000000 2.0103228 -0.89608508 -44.536469 -146.69711 -50.748604 -53.425007 -0.13571537 -9.0726748
1300000000 6.2315307 -99.388168 -34.167336 46.035606 -33.994095 45.811707 -1.0189774 -7.5874114
1400000000 3.0310483 160.76517 -35.983406 -145.62344 -37.293995 -177.95609 -3.3086722 11.640365
1500000000 3.9928463 -14.089128 -35.188923 162.79314 -42.74456 -153.10237 -0.32609862 -11.112734
1600000000 9.730485 -88.661919 -28.195436 56.428604 -27.336853 60.490368 -0.5304991 -3.0730791
1700000000 8.2437992 179.77284 -28.031321 -110.94081 -35.357903 -161.04921 -3.0399735 -0.17608632
1800000000 5.2278709 -40.776699 -30.345833 101.69373 -34.322453 126.69214 -0.3659659 -13.1402
1900000000 9.1537104 -68.3517 -27.183975 75.383217 -27.264133 69.246758 -0.049505997 -3.1631043
2000000000 10.324232 -136.5938 -24.779074 -59.818039 -34.155209 -65.761017 -2.3215892 -4.161478
2100000000 4.922195 -66.249779 -27.993093 66.91703 -30.38101 87.554321 -0.28502181 -15.347794
2200000000 8.1314278 -66.97438 -27.153206 70.981163 -26.677666 64.948654 0.02279705 -3.9226689
2300000000 6.4801879 -112.80892 -25.92123 -12.628673 -33.521561 -0.36011928 -1.8962002 -8.7709713
2400000000 5.1640911 -85.92157 -26.054382 48.729305 -27.510593 71.174271 -0.21330997 -16.457588
2500000000 5.5492973 -81.682007 -26.890205 55.917301 -26.938528 50.70055 0.048642937 -9.4019098
2600000000 3.224355 -109.92307 -27.46603 0.79177845 -31.598265 15.898866 -1.4390761 -12.409722
2700000000 3.2390347 -101.34098 -26.06731 30.247923 -27.147995 48.348656 -0.23673482 -16.815573
2800000000 5.8174453 -88.240959 -25.543417 48.212128 -25.589243 42.162369 0.15144047 -12.261971
2900000000 1.5119365 -111.33791 -26.967428 7.327352 -28.675909 16.121622 -0.47937262 -17.36334
3000000000 2.9162953 -115.78784 -25.28808 20.571911 -26.035042 37.437687 -0.43522412 -17.66618
3100000000 4.3806872 -100.50598 -25.028852 35.982513 -25.442602 31.238724 0.16264617 -16.920567
3200000000 0.48120338 -118.84631 -26.237356 8.7618427 -26.810732 16.701506 0.34563345 -15.909934
3300000000 2.1106374 -129.5211 -25.176449 12.354264 -25.379416 24.936945 -0.63151801 -19.868263
3400000000 4.2620015 -108.12328 -24.125071 28.328581 -24.442232 23.725204 0.16783966 -20.906923
3500000000 -0.31085837 -127.18468 -25.9333 9.1998739 -25.941689 16.507807 0.21700394 -14.1689
3600000000 2.4245799 -140.2076 -24.681023 6.2723675 -24.579903 18.394945 -0.7085188 -23.65082
3700000000 4.2621508 -124.02946 -23.038818 16.85507 -23.526251 12.198061 0.22651091 -24.277641
3800000000 -0.63093442 -137.1525 -25.414045 4.9276762 -25.483486 10.605809 -0.1694791 -14.715639
3900000000 1.6503508 -150.43977 -24.576118 -2.8179762 -24.3137 8.2395096 -0.54119056 -26.807404
4000000000 3.6484504 -134.71704 -22.407541 8.1251593 -22.84936 3.8555551 0.37381789 -27.053917
4100000000 -0.80631608 -145.89766 -24.685402 -0.65656447 -24.717009 0.64238209 -0.4002997 -20.009258
4200000000 1.0548166 -162.1337 -24.292 -10.627041 -23.66531 -1.9698573 -0.25725394 -28.249334
4300000000 3.1847162 -148.56924 -21.94643 -2.865479 -22.364746 -5.4282756 0.36731526 -29.322908
4400000000 -1.1359894 -158.22246 -23.977638 -7.5696273 -23.927292 -8.5668612 -0.31133044 -24.105936
4500000000 0.60425752 -170.37299 -23.640036 -16.505415 -23.300291 -9.4037867 -0.18744083 -28.65303
4600000000 2.4202988 -160.0108 -21.616564 -12.435555 -21.98521 -14.269676 0.35826334 -30.925936
4700000000 -1.2069324 -167.40842 -22.949047 -14.973421 -22.884409 -18.649006 -0.06735529 -27.730976
4800000000 0.32569063 178.22389 -22.98321 -25.009615 -22.600937 -19.429562 -0.26022288 -29.516247
4900000000 2.0222747 -173.51132 -21.233452 -24.615526 -21.617535 -25.210836 0.18785371 -33.433582
5000000000 -1.3715237 179.86299 -22.327236 -24.856146 -22.288813 -29.499737 0.18222106 -30.028767
5100000000 -0.14434631 169.38426 -22.60643 -33.376362 -22.372997 -29.704319 -0.37997165 -30.615335
5200000000 1.19874 174.56551 -21.243515 -37.777832 -21.627213 -37.634823 0.050790697 -35.506256
5300000000 -1.496869 169.33757 -21.959948 -36.264217 -22.150982 -41.221611 0.25419214 -32.19117
5400000000 -0.13661337 159.54716 -22.673269 -44.138203 -22.432434 -41.418571 -0.40271369 -32.831646
5500000000 0.97783089 164.33253 -21.797194 -49.445431 -22.077576 -48.472141 -0.1177979 -37.566826
5600000000 -1.567891 158.12691 -22.636263 -46.479122 -22.936077 -51.499592 0.19699946 -34.314171
5700000000 0.12227309 149.58148 -23.500448 -50.360439 -23.200523 -48.424568 -0.42715317 -33.659424
5800000000 0.41521162 153.59702 -23.014393 -55.407528 -23.186409 -54.369152 -0.1392256 -39.045227
5900000000 -1.4419711 147.62924 -23.228992 -50.156284 -23.750612 -54.933514 0.30460301 -36.263065
6000000000 -0.072185688 140.33733 -24.032951 -51.409279 -23.864054 -50.395813 -0.41487008 -35.954617
6100000000 0.6640709 143.77148 -23.231422 -55.698177 -23.287401 -54.26704 -0.15594672 -40.895283
6200000000 -1.3898499 135.67642 -23.250738 -51.418125 -23.750309 -54.979866 0.28747806 -38.726025
6300000000 0.057999674 130.66489 -23.640841 -51.454601 -23.627422 -51.319382 -0.36928892 -38.772667
6400000000 0.3660138 131.83072 -22.974764 -58.17115 -22.966351 -56.399292 -0.15540007 -42.285763
6500000000 -1.3589231 124.42606 -22.706554 -54.63055 -23.345432 -57.142673 0.17244714 -40.248306
6600000000 -0.26112294 119.9697 -23.028746 -55.909943 -23.004379 -56.356323 -0.23618452 -42.085762
6700000000 0.041274495 123.16994 -22.440714 -61.125084 -22.262262 -58.999912 -0.12761176 -44.534538
6800000000 -1.3947884 112.73274 -22.087358 -59.424164 -22.597164 -61.133568 0.16605434 -42.72263
6900000000 -0.1314297 108.49343 -22.203415 -60.507519 -22.191893 -61.316254 -0.04267012 -43.666992
7000000000 -0.52406365 110.21576 -21.88397 -66.852448 -21.783985 -65.342751 -0.19088034 -46.643047
7100000000 -1.4505391 101.3232 -21.412395 -66.353157 -21.944256 -67.419128 0.14821041 -45.492336
7200000000 -0.2758854 98.155571 -21.336769 -68.046127 -21.427483 -68.254341 0.036233708 -45.192829
7300000000 -0.53363651 100.23248 -21.304075 -77.350731 -21.172596 -75.635689 -0.32517281 -48.965073
7400000000 -1.5128675 90.502617 -21.55094 -78.849037 -22.062891 -78.842834 0.029225668 -48.503246
7500000000 -0.051653881 87.387039 -21.742094 -74.534157 -22.051722 -74.466385 -0.026016856 -45.454582
7600000000 -0.75142413 88.128052 -22.06624 -80.023582 -21.970398 -79.060837 -0.29314998 -50.408356
7700000000 -1.4588926 79.136208 -21.516869 -80.381439 -21.990128 -79.343201 0.13890015 -50.68298
7800000000 -0.1200087 78.445587 -21.541328 -75.851807 -21.913734 -76.074608 -0.15668379 -48.043873
7900000000 -0.64273143 78.561501 -21.536448 -82.318619 -21.388216 -81.306717 -0.25597945 -52.261898
8000000000 -1.4253269 67.362206 -20.922338 -83.145454 -21.252134 -81.341347 0.19701254 -52.67017
8100000000 0.19877495 66.493973 -20.635979 -80.887489 -21.052277 -80.749245 -0.15396589 -50.393707
8200000000 -0.88708806 67.411667 -20.970469 -86.777214 -20.856613 -86.107178 -0.24322978 -53.752129
8300000000 -1.3890967 56.018642 -20.40332 -88.113121 -20.65554 -86.167892 0.17525087 -54.56398
8400000000 0.14131635 54.995354 -19.995646 -87.432442 -20.331764 -87.219688 -0.064477615 -53.565613
8500000000 -0.73995143 57.893612 -20.283295 -92.461868 -20.206297 -91.455391 -0.28232235 -55.395626
8600000000 -1.5015261 45.998276 -20.001097 -94.698761 -20.101336 -93.389565 0.031138936 -56.709404
8700000000 -0.042860765 44.466263 -19.487112 -94.533539 -19.755823 -93.640251 0.028655533 -55.536068
8800000000 -0.87629521 46.541061 -19.741339 -98.452522 -19.713076 -97.495064 -0.29384688 -57.226505
8900000000 -1.5242109 35.081936 -19.567127 -101.27896 -19.572222 -100.01556 -0.036813557 -59.019066
9000000000 0.099774204 32.097771 -18.916294 -101.98435 -19.134583 -100.93344 0.030511901 -57.879681
9100000000 -0.65172297 35.097466 -19.172098 -105.25478 -19.151299 -104.58064 -0.28354201 -59.197258
9200000000 -1.5870155 25.305113 -19.154089 -108.02013 -19.089306 -107.16628 -0.10941859 -61.170197
9300000000 -0.34833497 21.348179 -18.613644 -109.36272 -18.802429 -108.30451 0.019684825 -59.905212
9400000000 -0.72014052 24.319897 -18.707016 -112.50719 -18.66114 -111.40083 -0.27312472 -60.888397
9500000000 -1.5885836 14.562444 -18.726942 -114.8046 -18.634823 -114.12437 -0.15299237 -63.304405
9600000000 -0.30668691 9.413146 -18.215866 -117.17407 -18.306967 -115.99998 0.030856915 -62.397694
9700000000 -0.68998367 11.513158 -18.275719 -119.78072 -18.305056 -119.02598 -0.32846245 -62.734058
9800000000 -1.4821858 3.7262118 -18.354029 -121.81481 -18.260664 -121.31532 -0.17175755 -65.240005
9900000000 -0.37259519 -0.090465367 -17.861664 -123.67055 -17.918915 -122.76234 0.067707278 -64.373253
10000000000 -0.85711783 1.3908736 -17.874281 -127.02026 -17.930693 -126.2653 -0.36142251 -64.883415
10100000000 -1.5153544 -6.9978466 -17.992613 -129.05008 -17.852444 -128.93547 -0.20701021 -67.307281
10200000000 -0.62074178 -11.487363 -17.596212 -131.68765 -17.626347 -130.59859 0.001260414 -66.218994
10300000000 -1.0941356 -10.806835 -17.613529 -134.51796 -17.680075 -133.83676 -0.34896305 -67.193047
10400000000 -1.3727043 -18.23765 -17.641247 -136.57748 -17.563984 -136.45029 -0.22923489 -69.224907
10500000000 -0.60823208 -20.359711 -17.37973 -138.47829 -17.357885 -137.58392 -0.049992312 -68.045555
10600000000 -1.2178229 -21.607754 -17.345625 -142.22459 -17.335554 -141.79248 -0.29462969 -69.241524
10700000000 -1.380711 -29.543283 -17.34247 -144.29161 -17.266041 -144.23268 -0.2793974 -71.153076
10800000000 -0.75343484 -31.72365 -17.122328 -146.58577 -17.112068 -146.02011 -0.11754043 -70.397766
10900000000 -1.3038163 -32.990776 -17.089327 -150.06679 -17.071947 -149.22728 -0.26351109 -70.680717
11000000000 -1.2726347 -40.618259 -17.131596 -152.17751 -17.105145 -151.95432 -0.32192802 -72.997169
11100000000 -0.58627015 -41.874092 -16.910553 -154.27026 -16.851938 -153.74135 -0.12696703 -72.768471
11200000000 -1.3082789 -43.867523 -16.937963 -157.85358 -16.86326 -156.82114 -0.26173875 -72.142639
11300000000 -1.4019471 -51.617199 -16.995552 -160.35324 -16.984871 -160.12178 -0.3901611 -74.885422
11400000000 -0.76916796 -53.239613 -16.819914 -162.35497 -16.731686 -162.1265 -0.11116607 -74.998802
11500000000 -1.4223593 -54.646893 -16.816833 -164.99109 -16.790043 -163.91284 -0.3217144 -73.618309
11600000000 -1.3690726 -62.866032 -16.953293 -167.89777 -16.931618 -167.68152 -0.4039481 -76.63018
11700000000 -0.60270387 -63.839607 -16.709835 -169.63557 -16.615847 -169.48566 -0.082101271 -76.9534
11800000000 -1.3748305 -65.492531 -16.779676 -172.67075 -16.726751 -171.67915 -0.3521181 -75.706398
11900000000 -1.4983991 -73.426132 -16.963268 -175.23643 -16.93881 -174.95845 -0.44085976 -78.278419
12000000000 -0.90496451 -73.685555 -16.830158 -176.48924 -16.705826 -176.33582 -0.1082676 -78.489502
12100000000 -1.5076569 -76.527702 -16.824614 -179.15164 -16.689756 -178.50616 -0.30692092 -77.914429
12200000000 -1.4185625 -84.852707 -16.962658 178.49403 -16.937187 178.77795 -0.43945134 -80.083939
12300000000 -0.8250519 -85.161827 -16.862024 177.37506 -16.744671 177.20584 -0.17835702 -80.621864
12400000000 -1.6058723 -88.717346 -16.844067 174.61024 -16.636305 174.98741 -0.27834499 -79.973717
12500000000 -1.4388412 -95.693855 -16.882488 172.4519 -16.905594 172.73775 -0.46777898 -81.797745
12600000000 -1.0622486 -95.329834 -16.834492 171.37921 -16.745192 171.32178 -0.23120478 -82.562302
12700000000 -1.7066309 -99.483582 -16.760927 169.17508 -16.5075 169.35374 -0.26058558 -81.960533
12800000000 -1.3610511 -107.30112 -16.824316 166.89134 -16.777311 166.9892 -0.42889732 -84.032013
12900000000 -1.072283 -107.73837 -16.71048 165.54922 -16.620403 165.30135 -0.26392522 -84.93618
13000000000 -1.699664 -111.71769 -16.612846 163.75192 -16.35754 162.86662 -0.31068408 -84.612183
13100000000 -1.3400555 -118.15838 -16.512609 160.75562 -16.540922 160.78403 -0.45840645 -85.909653
13200000000 -1.020366 -118.47693 -16.353722 159.10144 -16.292334 158.91652 -0.35371327 -86.983475
13300000000 -1.7479101 -122.80939 -16.251326 156.17354 -16.004635 154.8743 -0.34586605 -86.535889
13400000000 -1.3798271 -130.18665 -16.379467 151.96976 -16.36389 151.72432 -0.55461496 -87.462814
13500000000 -1.0702168 -130.17874 -16.661518 150.06386 -16.607872 150.0506 -0.40139717 -88.149345
13600000000 -1.7126546 -134.00005 -16.772717 151.13861 -16.568888 149.62189 -0.25317347 -87.957764
13700000000 -1.3096279 -141.25693 -16.397005 149.93694 -16.45459 149.60593 -0.40781724 -89.273277
13800000000 -0.93087357 -141.23276 -15.904234 146.86703 -15.860876 147.02351 -0.33236474 -91.139244
13900000000 -1.8431401 -145.22896 -15.946996 142.58385 -15.777647 140.62328 -0.28480199 -90.578362
14000000000 -1.4912248 -151.97661 -16.391836 138.87646 -16.464821 138.4577 -0.52234411 -91.583771
14100000000 -1.1010895 -151.52089 -16.4545 138.71011 -16.409647 138.87971 -0.37717929 -92.725571
14200000000 -1.7462262 -155.64555 -16.352179 138.66249 -16.192732 136.91151 -0.33192107 -92.383759
14300000000 -1.2978191 -162.98531 -16.349951 135.56474 -16.386585 134.91872 -0.48323131 -93.314972
14400000000 -0.88812608 -162.88536 -16.086216 134.3353 -16.047209 134.65031 -0.39224538 -94.65889
14500000000 -1.6900533 -166.92995 -15.958302 133.50937 -15.813712 131.38159 -0.36150348 -94.458313
14600000000 -1.4245132 -174.29408 -15.853162 130.35034 -15.945846 128.99095 -0.4564971 -95.488617
14700000000 -1.2441332 -174.81044 -15.684423 126.51971 -15.636161 126.49057 -0.42488247 -97.028786
14800000000 -1.8539847 -178.0976 -15.646901 123.50788 -15.493061 121.02314 -0.45394373 -97.146599
14900000000 -1.5324771 175.98062 -16.081543 121.34655 -16.205309 119.81649 -0.57474494 -97.14846
15000000000 -1.1705658 173.96342 -15.808731 119.31058 -15.778368 119.29356 -0.54647571 -98.610771
15100000000 -1.7217766 170.84781 -15.702736 115.40345 -15.589202 112.69573 -0.52894855 -98.819893
15200000000 -1.5335662 165.937 -16.478966 113.48878 -16.720324 111.51586 -0.65612721 -98.184601
15300000000 -1.3062019 164.15096 -16.67672 113.7273 -16.679543 113.33629 -0.59656519 -99.527397
15400000000 -1.5708705 160.06166 -16.297575 115.19758 -16.268024 111.74029 -0.42429999 -100.01683
15500000000 -1.3978335 154.57227 -16.108574 114.00784 -16.492407 111.40833 -0.53001916 -100.02625
15600000000 -1.1857835 152.45291 -16.142471 110.70898 -16.192196 110.50157 -0.57817334 -101.37698
15700000000 -1.4762992 148.57938 -15.86954 110.38534 -15.964903 107.34744 -0.38583714 -101.78216
15800000000 -1.2442446 143.68112 -15.7229 109.28631 -16.217623 107.45237 -0.48913264 -101.91601
15900000000 -1.2354957 141.79385 -15.736214 105.58138 -15.870182 105.75404 -0.5539431 -103.41765
16000000000 -1.5377564 136.93793 -15.423939 104.11872 -15.750414 101.14719 -0.40395862 -104.07505
16100000000 -1.1712253 132.33559 -15.310678 102.91708 -15.870798 101.51057 -0.46827468 -103.76769
16200000000 -1.1668322 130.9536 -15.432777 99.385063 -15.606958 99.980057 -0.56969094 -105.09121
16300000000 -1.5408654 126.49999 -15.215784 97.896591 -15.523653 96.181282 -0.38361102 -105.67816
16400000000 -1.0684922 122.28555 -15.012523 96.653976 -15.558976 96.577553 -0.44015643 -105.58981
16500000000 -1.1674588 121.25968 -15.1572 93.083359 -15.366522 94.6558 -0.53314739 -107.24043
16600000000 -1.5778544 115.14562 -14.940877 91.284164 -15.27459 90.265663 -0.38221964 -107.86657
16700000000 -1.1281368 110.91352 -14.678057 90.090958 -15.20753 89.965248 -0.4237341 -107.53251
16800000000 -1.1559223 110.86903 -14.8526 86.365906 -14.987849 88.111725 -0.50586909 -109.10828
16900000000 -1.5771769 105.32552 -14.772943 84.646828 -14.994705 84.312164 -0.37792888 -109.89271
17000000000 -1.0273012 101.08528 -14.487474 82.991081 -14.925898 83.643791 -0.42332974 -109.95212
17100000000 -1.2078787 100.48784 -14.659868 79.850121 -14.781337 81.594559 -0.49321237 -111.1906
17200000000 -1.5896896 94.401772 -14.567591 77.707474 -14.787423 77.608688 -0.37336048 -111.98082
17300000000 -1.2337188 90.337814 -14.361257 75.901596 -14.745358 76.349464 -0.39774582 -112.00705
17400000000 -1.3241395 89.77742 -14.452809 72.884232 -14.531453 74.501549 -0.47650895 -113.27514
17500000000 -1.64324 84.843735 -14.483473 71.153946 -14.545625 71.17849 -0.3747187 -114.0902
17600000000 -1.1421113 80.905998 -14.19418 69.361969 -14.552677 69.886246 -0.40242398 -114.02404
17700000000 -1.2696002 79.789619 -14.27207 66.354965 -14.420778 67.777336 -0.49636826 -115.33254
17800000000 -1.6718261 74.151024 -14.300314 64.309647 -14.424531 64.265053 -0.36535597 -116.01533
17900000000 -1.3329238 70.025536 -14.070938 62.420559 -14.459304 62.934647 -0.36181208 -115.69726
18000000000 -1.4662349 69.328537 -14.181285 59.791088 -14.258731 60.665722 -0.44707218 -117.4734
18100000000 -1.7490203 64.369148 -14.214017 57.689785 -14.261831 57.928658 -0.33168247 -118.23484
18200000000 -1.2439073 60.776569 -13.994935 55.866764 -14.330198 56.665504 -0.41977632 -118.21001
18300000000 -1.3725553 60.062969 -13.977815 53.135674 -14.187131 54.344616 -0.50851113 -119.34115
18400000000 -1.7365198 53.692638 -14.048589 50.999664 -14.22456 51.339333 -0.35623556 -120.18046
18500000000 -1.3329282 50.366299 -13.845152 49.477276 -14.233683 50.237606 -0.37029982 -119.76356
18600000000 -1.5554441 49.666435 -13.906894 46.598541 -14.093058 47.751141 -0.46298772 -121.48049
18700000000 -1.8089411 43.812447 -13.989069 44.425797 -14.122353 45.182266 -0.32928732 -122.4158
18800000000 -1.2699466 40.651432 -13.734133 42.392345 -14.061997 43.959076 -0.37870681 -122.45097
18900000000 -1.5452881 39.938976 -13.7083 40.12072 -13.995882 41.877838 -0.53443897 -123.49473
19000000000 -1.7453461 33.859768 -13.882094 37.739632 -14.068123 38.993725 -0.40649548 -124.32967
19100000000 -1.3628488 31.123564 -13.667429 36.36282 -13.970624 37.840118 -0.36262637 -124.05734
19200000000 -1.664744 29.712183 -13.665981 33.792278 -13.901783 35.667217 -0.45056176 -125.57163
19300000000 -1.8158073 24.019316 -13.864331 31.229412 -13.944312 33.020027 -0.39130026 -126.57935
19400000000 -1.4142226 21.163242 -13.615899 29.35713 -13.850801 31.535309 -0.41787645 -126.90963
19500000000 -1.6886607 19.368067 -13.583179 26.895271 -13.774394 29.511024 -0.48273107 -127.79738
19600000000 -1.8428954 14.330933 -13.710364 25.012726 -13.809564 27.081669 -0.44097927 -128.39813
19700000000 -1.5547603 11.398378 -13.589654 23.319834 -13.743867 25.347075 -0.41267362 -128.69508
19800000000 -1.7350919 9.4428139 -13.514674 20.777855 -13.613679 23.275068 -0.42968288 -129.65498
19900000000 -1.907481 4.4771218 -13.712556 18.765659 -13.663815 21.087126 -0.42787844 -130.55432
20000000000 -1.6660397 1.4573909 -13.592088 17.102955 -13.616811 19.22813 -0.42399389 -131.24181
20100000000 -1.789933 -0.6552251 -13.410834 14.334718 -13.471334 17.317871 -0.44965786 -131.80559
20200000000 -1.9478288 -5.8535786 -13.585867 12.900542 -13.509603 15.135552 -0.46338081 -132.65678
20300000000 -1.7296884 -9.2006989 -13.482712 11.340709 -13.459781 13.133299 -0.41470665 -133.01926
20400000000 -1.8889995 -11.039129 -13.369741 8.7045059 -13.313388 11.054246 -0.41934124 -133.87822
20500000000 -2.0470397 -15.889076 -13.589062 7.071219 -13.379193 8.861907 -0.41072685 -134.77187
20600000000 -1.7732898 -18.94482 -13.551214 5.8602839 -13.42613 7.6433635 -0.40260059 -135.57883
20700000000 -1.926553 -21.102009 -13.201503 4.6560559 -13.166932 6.4449439 -0.42528149 -136.50238
20800000000 -1.9983931 -26.455925 -13.14782 2.8535542 -13.001649 4.2977643 -0.44868979 -137.53477
20900000000 -1.8029612 -29.600992 -12.952949 0.63302976 -12.854156 1.645879 -0.4861055 -137.88866
21000000000 -2.0684357 -32.323971 -12.888103 -3.3683779 -12.761414 -1.9058964 -0.53104293 -138.67397
21100000000 -2.1296053 -37.198589 -13.053164 -5.2813096 -12.865579 -4.1807404 -0.48522705 -139.13934
21200000000 -1.8870845 -39.614559 -13.027316 -6.9394546 -12.906782 -5.7049332 -0.49406719 -139.84169
21300000000 -2.1258945 -42.706638 -12.9189 -9.1056385 -12.812744 -7.8147626 -0.49894425 -140.54688
21400000000 -2.0921013 -47.860214 -12.932964 -10.304141 -12.845217 -9.0530882 -0.4445504 -141.33727
21500000000 -1.8983952 -50.358181 -12.745799 -10.512511 -12.633445 -9.8208189 -0.40593502 -142.15535
21600000000 -2.0876443 -53.679203 -12.412798 -13.402743 -12.290307 -12.584477 -0.44524854 -143.49747
21700000000 -2.1472917 -59.462036 -12.24733 -16.729074 -12.127024 -15.666002 -0.51913202 -144.60301
21800000000 -2.0362382 -62.574955 -12.090328 -20.323526 -11.985734 -19.298956 -0.62214303 -145.2787
21900000000 -2.3379662 -64.554985 -12.259082 -24.209877 -12.177367 -23.306713 -0.67399406 -145.4211
22000000000 -2.2300162 -69.839943 -12.376779 -24.951323 -12.345065 -23.978176 -0.66085428 -145.69154
22100000000 -1.9300811 -73.252472 -12.120496 -25.720919 -12.008691 -24.772261 -0.60755813 -146.86244
22200000000 -2.2893302 -76.086876 -11.76658 -29.129992 -11.655804 -28.541636 -0.65109968 -147.75734
22300000000 -2.4610109 -82.11734 -11.784491 -34.180466 -11.648532 -33.205032 -0.81940114 -148.55869
22400000000 -2.1801856 -85.055626 -11.871536 -37.840672 -11.748532 -36.713295 -0.88709962 -148.909
22500000000 -2.5458405 -87.179741 -12.074784 -41.30582 -11.975783 -40.615978 -0.9235723 -148.45605
22600000000 -2.4461653 -92.537651 -12.395397 -43.464355 -12.328799 -42.169258 -0.97891182 -148.70589
22700000000 -2.0758882 -94.920998 -12.574294 -43.871555 -12.413398 -42.628235 -0.87356234 -149.26561
22800000000 -2.3852205 -97.758514 -12.46946 -45.356281 -12.279378 -44.958897 -0.82964557 -149.09734
22900000000 -2.438133 -104.13448 -12.568347 -47.404606 -12.434534 -46.674923 -0.8463766 -149.82343
23000000000 -2.1430829 -106.75533 -12.681226 -48.138519 -12.462005 -47.240013 -0.72888845 -150.42287
23100000000 -2.3863025 -109.95975 -12.545299 -49.468979 -12.321534 -49.060448 -0.6929217 -150.895
23200000000 -2.1798451 -116.45741 -12.509358 -51.424164 -12.344108 -50.69799 -0.70662045 -151.96475
23300000000 -1.9092774 -119.0163 -12.514087 -53.295094 -12.217056 -52.003899 -0.64014345 -152.71063
23400000000 -2.2731805 -122.78499 -12.25057 -54.781822 -12.000615 -55.168663 -0.63832581 -153.12828
23500000000 -2.2159767 -129.10741 -12.227777 -57.012436 -12.062847 -57.161098 -0.64902818 -154.1088
23600000000 -2.0435398 -131.75104 -12.224269 -58.567631 -11.936047 -58.327412 -0.56650251 -154.78201
23700000000 -2.3318386 -135.87726 -11.99667 -60.216076 -11.708512 -61.289112 -0.56919938 -155.33304
23800000000 -2.109278 -141.83012 -12.030485 -63.274307 -11.829023 -63.430382 -0.58650959 -156.67668
23900000000 -1.9125265 -144.39359 -11.93846 -65.194199 -11.642123 -65.159279 -0.5314889 -157.47174
24000000000 -2.2097101 -148.69431 -11.811554 -67.671501 -11.610579 -69.046684 -0.59761608 -157.86342
24100000000 -2.0801222 -154.10881 -11.746346 -70.576637 -11.737846 -71.093628 -0.64433938 -158.85962
24200000000 -2.0072517 -156.54144 -11.811182 -72.104355 -11.621496 -72.383469 -0.54723763 -159.43437
24300000000 -2.2868507 -161.32776 -11.673289 -73.949684 -11.501745 -75.544945 -0.57146609 -159.37999
24400000000 -2.0374372 -167.0934 -11.589576 -76.58387 -11.57244 -77.919197 -0.5882054 -161.01205
24500000000 -1.9215668 -169.15428 -11.621621 -78.675972 -11.383274 -79.333321 -0.43936792 -161.87785
24600000000 -2.1470797 -173.78442 -11.473603 -81.33091 -11.409599 -82.762352 -0.53705573 -161.93373
24700000000 -1.8711859 -178.58707 -11.419047 -83.951073 -11.521986 -84.750137 -0.64220786 -163.52075
24800000000 -1.8670079 179.49382 -11.429598 -86.17263 -11.310196 -86.27684 -0.48852026 -164.15947
24900000000 -2.1884077 173.40988 -11.297824 -88.336845 -11.330833 -89.916008 -0.54125595 -163.5769
25000000000 -1.9243253 168.211 -11.306048 -90.964546 -11.407837 -92.458786 -0.63173747 -165.48212
25100000000 -1.9784569 166.07281 -11.342466 -93.581512 -11.246751 -94.17057 -0.41676849 -166.25688
25200000000 -2.1780527 161.23157 -11.258082 -95.575516 -11.290291 -97.237625 -0.51653653 -165.98375
25300000000 -1.8039199 157.22185 -11.215662 -98.612923 -11.448667 -99.560272 -0.66327995 -167.94934
25400000000 -1.8465137 155.23518 -11.241825 -101.19575 -11.244081 -101.28877 -0.48337454 -168.65489
25500000000 -2.0981278 149.21861 -11.184356 -103.09467 -11.299444 -104.7403 -0.56487882 -167.93843
25600000000 -1.9024308 144.88391 -11.19204 -105.93914 -11.50456 -107.05751 -0.65060312 -169.88272
25700000000 -2.0522075 142.2892 -11.228943 -108.6034 -11.331025 -109.00574 -0.4690527 -170.71658
25800000000 -2.1445305 137.31648 -11.213209 -110.50923 -11.406209 -111.75763 -0.55076343 -170.31274
25900000000 -1.8348539 133.99519 -11.218019 -113.22603 -11.574076 -113.61642 -0.66066504 -172.17522
26000000000 -1.9295945 131.43575 -11.283377 -115.97309 -11.433509 -115.86115 -0.49785018 -172.96704
26100000000 -2.0690401 126.2086 -11.309731 -117.84874 -11.576087 -118.83521 -0.53921396 -172.73271
26200000000 -1.9357079 122.75077 -11.300274 -120.62363 -11.783113 -120.62266 -0.63293231 -174.3979
26300000000 -2.1089332 120.0879 -11.466937 -123.10391 -11.656453 -122.3524 -0.50627679 -175.23151
26400000000 -2.1518421 115.26546 -11.494028 -124.97544 -11.774892 -124.80989 -0.53421021 -175.28224
26500000000 -1.8417947 112.30563 -11.463828 -126.69305 -11.921894 -125.58624 -0.64861292 -176.58354
26600000000 -1.975624 109.64437 -11.611948 -128.96361 -11.812735 -127.77419 -0.51315784 -177.54848
26700000000 -2.0587075 105.06591 -11.70169 -130.6456 -11.940077 -129.71031 -0.53808057 -177.43283
26800000000 -1.9573702 102.28716 -11.660061 -132.41539 -12.025092 -130.80006 -0.6150763 -179.24315
26900000000 -2.1332803 99.822906 -11.788507 -134.13205 -11.842953 -132.52422 -0.50371861 179.82393
27000000000 -2.1388071 94.98101 -11.698809 -136.26801 -11.753428 -134.2054 -0.61289746 179.77649
27100000000 -1.8262886 91.848618 -11.55651 -137.97557 -11.828798 -135.63332 -0.73127472 178.30038
27200000000 -1.9594184 89.546341 -11.63627 -139.61513 -11.65482 -138.27644 -0.55749702 177.44377
27300000000 -1.987431 85.360939 -11.616388 -141.50499 -11.602022 -139.77393 -0.61730766 178.36142
27400000000 -1.8684465 82.750099 -11.614981 -143.71532 -11.759782 -139.55013 -1.036508 179.99503
27500000000 -2.0238783 80.196281 -11.685946 -146.29901 -11.377591 -141.39246 -0.10064015 -179.7495
27600000000 -2.0958171 75.676323 -11.695048 -148.07976 -11.703872 -145.67603 -0.77190745 176.76805
27700000000 -1.946385 72.445854 -11.581218 -150.47736 -11.736609 -148.75046 -0.86211175 172.46992
27800000000 -2.0739455 70.311638 -11.654936 -151.71977 -11.602584 -150.62425 -0.34227058 171.75188
27900000000 -2.1250091 66.931488 -11.696505 -152.62947 -11.659732 -151.27507 -0.56328827 174.81209
28000000000 -1.9225813 64.597687 -11.570823 -154.97028 -11.76541 -153.25191 -1.2692964 169.54185
28100000000 -1.9346124 62.48175 -11.450017 -156.72231 -11.560558 -157.20747 -0.54774231 163.01408
28200000000 -2.0622063 58.392887 -11.558138 -158.00566 -10.834276 -157.62651 0.65735996 174.98007
28300000000 -1.8981007 54.86961 -12.430549 -155.48151 -11.239407 -140.34538 1.464316 -140.40143
28400000000 -2.0488286 52.470486 -10.417469 -162.72185 -9.36063 -156.12454 2.9521694 -175.10625
28500000000 -2.0815747 48.61536 -11.32949 -166.06422 -11.260525 -162.467 -0.68209636 173.11084
28600000000 -1.8730421 45.595699 -11.387177 -167.55254 -11.634265 -166.12291 -0.83238703 167.46689
28700000000 -1.9720068 43.767368 -11.404578 -169.10077 -11.494535 -168.25629 -0.58284348 165.7466
28800000000 -2.102973 40.119144 -11.375827 -169.78909 -11.378274 -168.56477 -0.57287496 165.7343
28900000000 -1.9455692 37.28595 -11.204163 -171.45938 -11.34992 -169.78687 -0.7450375 165.54369
29000000000 -2.0285177 34.774654 -11.00447 -174.37917 -11.171507 -172.75899 -0.87720674 163.98326
29100000000 -2.0591085 29.986502 -10.985618 -177.14595 -11.022887 -175.29211 -0.80157638 163.32265
29200000000 -1.871953 27.142046 -10.870629 -179.39894 -11.012045 -177.3846 -0.87507832 164.05728
29300000000 -2.0764103 25.241232 -10.81822 177.31343 -11.008192 179.3575 -1.0027775 162.96548
29400000000 -2.197201 21.337984 -10.937367 174.78984 -11.000521 176.85739 -0.85983539 162.17928
29500000000 -2.0379858 19.765366 -11.008818 172.31833 -11.134765 174.91914 -0.83765233 162.76665
29600000000 -2.1825943 17.334211 -11.132033 170.24153 -11.259004 172.98221 -0.91560686 161.51196
29700000000 -2.1747243 11.875388 -11.216029 167.72569 -11.193813 170.78049 -0.81331164 160.16869
29800000000 -2.0769527 9.4191141 -11.248773 166.20688 -11.255414 169.26837 -0.77741021 160.30351
29900000000 -2.3837879 7.5648403 -11.213369 163.85861 -11.298719 167.06807 -0.89182532 159.25894
30000000000 -2.4797003 3.9449091 -11.366079 162.37201 -11.318121 165.52954 -0.78456604 158.0986
30100000000 -2.2764764 2.9777811 -11.344102 161.73688 -11.312951 164.87642 -0.72718912 158.20178
30200000000 -2.4045262 0.78291273 -11.345737 159.76341 -11.261906 163.3488 -0.84433198 156.93446
30300000000 -2.3938217 -5.0113411 -11.32777 157.68004 -11.151239 160.60674 -0.75500661 155.48631
30400000000 -2.2991445 -7.2501974 -11.508997 156.26091 -11.211729 159.09039 -0.70360941 155.4861
30500000000 -2.6112065 -9.2658529 -11.425788 154.38188 -11.228192 157.69385 -0.85678822 154.37105
30600000000 -2.6536148 -12.937264 -11.460196 153.72351 -11.117788 156.31456 -0.76094866 152.88077
30700000000 -2.4090133 -14.136789 -11.31146 152.86536 -10.966746 155.44916 -0.74180454 153.20172
30800000000 -2.5604281 -16.50174 -11.141543 150.79221 -10.886777 153.45357 -0.92996645 151.98921
30900000000 -2.4871039 -21.527668 -11.193042 149.33115 -10.768064 150.98752 -0.75240308 150.37662
31000000000 -2.4722481 -24.536005 -11.077147 147.49168 -10.688501 149.50616 -0.74995506 150.93845
31100000000 -2.3941975 -28.581398 -10.963713 145.99518 -10.639321 147.45273 -0.97824746 149.1978
31200000000 -1.715335 -31.667261 -10.896819 143.28687 -10.408443 144.28906 -0.76669246 147.58951
31300000000 -2.4403732 -31.29229 -10.763392 142.78076 -10.289954 143.88885 -0.80901331 149.20207
31400000000 -2.6929362 -39.047192 -10.694048 140.11385 -10.32387 142.16484 -1.2820915 146.54469
31500000000 -1.2481914 -39.359184 -10.460345 137.37862 -10.262409 139.7576 -1.2137111 145.3007
31600000000 -1.3439004 -25.98633 -10.696921 135.44792 -10.512904 136.36841 -0.83511394 146.94214
31700000000 -3.649322 -35.741264 -10.367581 135.15086 -10.083828 135.97864 -1.0908138 145.51605
31800000000 -3.4382722 -55.963783 -10.221847 132.7267 -9.8790445 132.82141 -0.90416104 143.18318
31900000000 -2.1748216 -53.857063 -10.233131 130.07185 -9.8476171 130.50992 -0.81245863 144.12051
32000000000 -2.9754896 -52.844788 -10.072107 128.22646 -9.7759924 128.87782 -1.0935513 143.33853
32100000000 -2.897193 -63.452026 -9.9957285 125.37155 -9.7147903 125.56323 -1.0315545 141.03111
32200000000 -2.2975121 -64.670937 -9.9252405 123.34002 -9.6338577 123.8502 -0.91067111 141.57748
32300000000 -3.0120482 -67.107063 -9.7307262 121.54896 -9.5296307 121.79047 -1.142774 141.58513
32400000000 -2.9639444 -75.333008 -9.7435694 118.37531 -9.4891119 118.71637 -1.1217448 139.29312
32500000000 -2.547884 -75.585419 -9.5928135 116.24428 -9.3389235 116.78889 -0.95133555 139.70964
32600000000 -3.1059415 -77.679512 -9.5645666 114.4067 -9.3152723 114.89909 -1.1357336 139.51363
32700000000 -2.8394299 -85.89537 -9.5618486 111.06603 -9.3381548 111.7064 -1.1458369 137.19661
32800000000 -2.4181674 -87.083641 -9.4353418 109.11962 -9.2443476 110.09268 -1.0379249 137.10634
32900000000 -3.1722994 -91.799934 -9.3703232 106.85822 -9.1522322 107.76505 -1.222777 137.18341
33000000000 -3.1224372 -99.474281 -9.2482748 104.07169 -9.1337194 104.83246 -1.28784 135.53223
33100000000 -2.8513968 -100.25695 -9.2637386 101.85593 -9.0213852 102.7093 -1.1502522 135.49297
33200000000 -3.3892834 -103.09962 -9.1523609 100.11092 -8.8945656 101.01299 -1.2487601 135.6674
33300000000 -3.0939088 -110.71729 -9.1450272 96.727112 -8.9572783 98.02449 -1.2558311 133.88177
33400000000 -2.9128957 -112.08837 -9.1971331 94.358002 -8.8720541 95.916817 -1.1500208 133.254
33500000000 -3.4002635 -117.34142 -9.0249729 92.023811 -8.6801662 93.448433 -1.3001875 133.03632
33600000000 -3.3008437 -125.09525 -8.9766493 88.967422 -8.7307682 90.281677 -1.3512127 131.75346
33700000000 -3.1938717 -127.25137 -8.9733658 86.362541 -8.6196365 87.446205 -1.2858853 131.64551
33800000000 -3.6745338 -131.5123 -8.8985796 85.022202 -8.4671574 85.215462 -1.3519213 131.53026
33900000000 -3.3549812 -137.78697 -9.0053062 81.690918 -8.5912666 81.960884 -1.3056928 130.18491
34000000000 -3.3213978 -139.68349 -9.0577002 79.038803 -8.563158 79.52063 -1.2205032 129.88586
34100000000 -3.6709313 -145.51448 -9.0175829 77.283615 -8.4450693 77.047997 -1.3122524 128.8532
34200000000 -3.4277093 -152.0007 -8.993968 74.391899 -8.6043139 73.920578 -1.3484854 127.58836
34300000000 -3.4351003 -154.79915 -8.9972477 72.299942 -8.5883169 71.60173 -1.3674651 127.534
34400000000 -3.7095296 -160.50061 -8.883975 70.631752 -8.4372425 68.741913 -1.4602574 127.35896
34500000000 -3.4154971 -165.79514 -8.9340124 68.19191 -8.6114454 66.181427 -1.3885334 126.47097
34600000000 -3.4678564 -168.26224 -8.9475861 65.809189 -8.5373363 63.868896 -1.3002945 126.13928
34700000000 -3.7102683 -173.92166 -8.8183346 63.438942 -8.4076109 60.946354 -1.366446 125.47774
34800000000 -3.4164987 -179.26476 -8.789609 60.408646 -8.5695047 58.151146 -1.4194106 124.32148
34900000000 -3.4933918 177.71387 -8.8728218 57.379963 -8.6355829 55.622337 -1.3440992 123.88021
35000000000 -3.5248382 170.98123 -8.8684387 55.553947 -8.6506691 52.765373 -1.3642586 123.92245
35100000000 -3.1370776 166.05545 -8.9872456 53.625324 -8.9551725 51.25499 -1.3832083 122.44744
35200000000 -3.419523 163.13828 -9.0539713 52.011166 -8.9452219 49.833351 -1.3327811 121.41132
35300000000 -3.668313 156.94693 -8.8422394 50.73563 -8.744112 47.954193 -1.4280062 121.27342
35400000000 -3.3392746 153.37128 -8.6539288 48.209274 -8.6883545 46.168064 -1.5267578 120.77096
35500000000 -3.4698019 151.35765 -8.6113834 44.828705 -8.5876064 43.16518 -1.4528373 120.10933
35600000000 -3.5463114 145.24519 -8.5348835 42.283077 -8.4832525 40.368004 -1.4089626 120.43061
35700000000 -2.9547019 140.72401 -8.4709778 39.575077 -8.568078 37.876495 -1.4482661 119.45544
35800000000 -3.0753515 138.65421 -8.5281782 36.215523 -8.5673256 34.889744 -1.3774662 117.96391
35900000000 -3.2706985 131.6976 -8.4971046 33.251808 -8.520772 31.498756 -1.3950551 118.27834
36000000000 -2.8628986 127.73647 -8.4603062 30.602442 -8.6492805 29.256369 -1.4957596 118.44299
36100000000 -2.9917686 126.08791 -8.5972672 27.563303 -8.6926622 26.608015 -1.4071106 117.12443
36200000000 -3.167001 119.43826 -8.6917152 24.989878 -8.7662983 23.725065 -1.2177838 117.14432
36300000000 -2.604835 114.81198 -8.6966763 22.874397 -8.8749943 22.259729 -1.2656388 116.92869
36400000000 -2.7907314 112.95141 -8.7709923 19.776575 -8.8990889 19.562061 -1.2813672 114.74287
36500000000 -3.0726826 106.13 -8.8527451 16.907536 -8.9616079 16.318556 -1.1366144 114.18402
36600000000 -2.6424611 102.56179 -8.8976259 14.67872 -9.110569 14.337027 -1.2748632 114.18372
36700000000 -2.9364157 101.58506 -9.0023088 11.892552 -9.2063503 12.270754 -1.3206199 112.62267
36800000000 -3.1074576 94.76416 -9.2171736 9.9795008 -9.3242989 9.657547 -1.0572697 112.55411
36900000000 -2.5851743 91.089081 -9.3271322 7.6947732 -9.5160513 8.2452478 -1.1133914 112.3677
37000000000 -2.912488 90.069832 -9.4824753 5.4764442 -9.6045742 6.6170478 -1.1587026 109.82536
37100000000 -3.1794465 83.64608 -9.5782766 3.7821383 -9.656889 4.360292 -1.0914155 109.19458
37200000000 -2.6414869 81.867126 -9.5901566 2.2006829 -9.7206211 3.3526409 -1.2896156 109.19109
37300000000 -3.0020134 81.725838 -9.5687304 0.50739717 -9.6810188 2.0556653 -1.3412962 107.51019
37400000000 -3.0636837 74.413445 -9.6326818 -1.8354986 -9.6167765 -1.0946578 -1.162073 107.76752
37500000000 -2.4393055 71.516312 -9.7266655 -3.6788342 -9.833396 -3.0076084 -1.2991283 107.89552
37600000000 -2.9331634 70.511688 -9.9019585 -5.5358925 -9.9310932 -4.109323 -1.256276 105.76222
37700000000 -3.0496914 63.474827 -9.9242792 -6.9389801 -9.9462194 -6.0046706 -1.0600865 105.68258
37800000000 -2.5380867 63.112385 -9.917799 -8.2069063 -9.9309034 -7.2879477 -1.2914811 105.21499
37900000000 -3.0275886 63.824669 -9.9083967 -10.211236 -9.86695 -8.8728094 -1.290736 102.48572
38000000000 -3.0918374 56.686749 -9.9160137 -11.974245 -9.8747969 -11.18294 -1.1150544 103.16352
38100000000 -2.3446386 56.022087 -9.8955326 -13.316574 -9.8908644 -12.775978 -1.4054955 103.70621
38200000000 -2.9031136 56.023907 -9.8858175 -15.739097 -9.8737984 -14.558724 -1.3828973 100.45943
38300000000 -2.979588 46.891579 -9.9407854 -17.813581 -9.8852911 -17.037397 -1.0418081 101.0593
38400000000 -2.2509866 46.981781 -9.9062967 -18.823299 -9.8918066 -18.442499 -1.3250265 102.23183
38500000000 -2.9056852 47.972145 -9.9208841 -21.366711 -9.8732347 -20.560469 -1.4412199 98.025764
38600000000 -2.9703789 40.382 -9.9161339 -23.640976 -9.87358 -22.772387 -1.0453547 98.526123
38700000000 -2.0821848 40.285252 -9.8658018 -24.911936 -9.8848944 -24.374817 -1.3461063 99.766823
38800000000 -2.7713819 40.959106 -9.9450712 -27.203228 -9.9079266 -26.523512 -1.5930096 95.659966
38900000000 -2.7886147 31.712904 -9.9330835 -29.658024 -9.9024124 -29.08703 -1.120442 96.56572
39000000000 -1.9972467 32.004086 -9.8925018 -30.6908 -9.9224672 -30.37583 -1.3978935 99.049797
39100000000 -2.6459222 32.304562 -10.001163 -33.400131 -10.007351 -32.528481 -1.4525564 94.534348
39200000000 -2.6781709 23.50099 -10.025275 -35.809864 -10.038225 -34.852982 -1.0082095 94.487862
39300000000 -1.9972459 23.502895 -10.073433 -37.151852 -10.075613 -36.50985 -1.3176578 96.148148
39400000000 -2.7137041 23.913742 -10.122736 -39.249989 -10.148404 -37.900967 -1.590979 92.570335
39500000000 -2.6788173 16.217196 -10.264784 -41.014446 -10.257555 -40.017353 -1.1950387 92.590843
39600000000 -1.9909133 17.003099 -10.21053 -41.73909 -10.241435 -40.708492 -1.3932041 95.120476
39700000000 -2.5071428 16.76482 -10.232044 -43.029846 -10.271733 -41.600784 -1.4902879 92.039246
39800000000 -2.2862813 8.6600876 -10.287086 -45.381371 -10.310007 -43.462711 -1.0207587 91.102798
39900000000 -1.7857336 8.444706 -10.157244 -46.474319 -10.211934 -44.673035 -1.1771114 91.580078
40000000000 -2.4997761 6.5426278 -10.106886 -48.218102 -10.080778 -45.96143 -1.3324902 88.822456
