!Keysight Technologies,N5224A,MY55441802,A.10.65.16
!Date: Wednesday, May 13, 2026 19:15:10
!Correction: S11(Full 2 Port(1,2)) 
!S21(Full 2 Port(1,2)) 
!S12(Full 2 Port(1,2)) 
!S22(Full 2 Port(1,2)) 
!S2P File: Measurements: S11, S21, S12, S22:
# Hz S  dB   R 50
1000000000 -6.627018 -25.266169 -0.24389584 -12.672075 2.9880466 -7.0756555 -18.583212 -11.705776
1100000000 -4.1657333 153.55402 -2.9643998 12.515416 -0.89911181 -1.4554596 -5.513742 40.621002
1200000000 2.435734 -4.2109942 -6.5408263 -165.70393 -21.984579 -146.019 1.6015326 -21.876877
1300000000 -2.0361443 -13.916189 0.94376761 -15.525475 3.4898825 -12.035612 -27.418972 12.254315
1400000000 -2.2519708 154.48647 -2.1402998 19.461634 -1.5364658 -0.49629414 -6.1413512 30.124956
1500000000 5.5564795 -17.624624 0.85095191 156.69244 -6.8371549 146.42915 3.9855666 -37.052574
1600000000 0.68637663 -16.726469 1.5205781 -19.243174 3.9444997 -15.678211 -20.304476 40.973747
1700000000 -0.34858251 134.82401 1.3613994 18.06867 -0.85083377 -3.3776803 -5.1735063 1.4444873
1800000000 10.669592 -52.241379 7.3122005 106.19536 4.4766836 98.395607 7.1323099 -75.439255
1900000000 -0.67507344 -21.019131 1.4138502 -23.757376 2.9434772 -21.368818 -17.634657 43.979473
2000000000 2.9627912 112.66768 4.3741913 8.700223 1.1729212 -5.1207933 -3.353292 -23.711872
2100000000 8.7680063 -152.50966 9.131278 6.9647207 8.0596256 -5.433044 4.0413618 -168.2784
2200000000 -0.62546396 -28.206013 1.3391497 -29.280157 2.5730984 -28.159718 -15.074535 37.140541
2300000000 1.5422149 70.889191 5.807323 -20.031776 2.1044409 -28.460808 -4.335793 -59.925068
2400000000 6.3097663 171.77698 7.6130738 -25.576403 7.238801 -34.23288 0.33470815 155.98827
2500000000 -3.7879138 -46.333031 1.1740445 -44.521355 1.8469635 -44.875519 -19.092558 -0.1973635
2600000000 -0.32674277 40.96262 5.2969885 -43.610737 2.2453938 -46.635509 -7.3226409 -95.875717
2700000000 -1.7929745 162.95595 2.8354487 -41.512688 3.4973319 -47.756077 -9.8610334 156.27699
2800000000 -3.5189669 -55.404884 1.4336478 -50.082924 2.1390197 -50.644173 -16.273018 -13.734582
2900000000 -5.6227388 22.701757 3.1059046 -55.992332 1.3796901 -57.845863 -11.738472 -102.86375
3000000000 -3.1654656 148.20216 2.3574758 -54.65646 3.2507999 -56.726505 -12.273877 134.03673
3100000000 -6.6016297 -67.893387 1.1119469 -58.514996 1.5438163 -59.308159 -16.90378 -30.05324
3200000000 -7.0143857 12.422279 2.6518533 -63.574467 1.2943922 -61.860279 -12.393615 -105.11553
3300000000 -6.146553 137.94951 1.5913345 -65.432495 2.2908566 -63.796291 -16.370516 119.95508
3400000000 -7.2806268 -75.19545 0.95164502 -65.548111 1.1650264 -64.814781 -17.55839 -27.841969
3500000000 -8.7185669 -6.3657522 1.8430971 -73.043808 0.64314383 -68.511848 -15.332678 -104.79092
3600000000 -5.8750315 138.7558 1.5395305 -70.69619 2.0576308 -68.359627 -16.264032 123.28593
3700000000 -8.1317101 -97.825203 0.94804484 -74.558945 0.99497074 -73.815262 -18.48074 -38.733353
3800000000 -9.7578316 -14.483978 1.5388422 -79.390015 0.20770577 -75.746147 -17.617941 -104.02467
3900000000 -9.3929996 136.6754 0.7446686 -78.062866 0.99369156 -75.837105 -21.784664 134.6033
4000000000 -8.8994761 -102.91328 0.86331773 -81.802925 0.77696323 -81.623749 -20.14823 -56.866024
4100000000 -9.9823818 -24.294172 1.5425336 -84.922417 0.18327333 -84.122452 -17.585915 -109.81226
4200000000 -13.447459 116.58041 0.39519772 -87.3339 0.56588787 -86.715202 -29.133015 115.11478
4300000000 -10.130713 -116.48444 0.79393333 -88.85643 0.64641917 -89.268913 -20.642345 -73.982918
4400000000 -13.774907 -31.088215 0.87235361 -91.699257 -0.052274972 -91.413643 -21.446211 -122.79261
4500000000 -14.569825 119.60748 0.12311251 -93.430115 0.43161738 -91.867302 -31.843214 130.9406
4600000000 -11.356203 -118.87076 0.56649399 -94.915611 0.49434245 -95.612701 -20.191196 -85.553261
4700000000 -13.433091 -42.288071 0.7276724 -97.528358 0.16271421 -97.639259 -20.536255 -126.82749
4800000000 -15.468351 102.44225 0.029443381 -101.03267 0.45651966 -99.432785 -34.431297 97.812416
4900000000 -12.927843 -132.25832 0.42447668 -101.53941 0.32241407 -101.94874 -21.485325 -93.90744
5000000000 -15.666838 -56.069084 0.42307112 -105.43048 0.028300511 -104.26203 -22.880106 -140.61421
5100000000 -17.838591 104.02539 -0.035854716 -107.61552 0.22980414 -104.08466 -32.277145 99.295082
5200000000 -14.481162 -140.63771 0.16255312 -108.44487 0.11259132 -108.61491 -23.276178 -109.52687
5300000000 -16.632835 -61.49403 0.32628405 -110.91465 -0.012089837 -109.9523 -22.581982 -138.09172
5400000000 -18.479008 96.811623 -0.14093803 -113.2981 0.18012196 -111.28111 -32.12923 118.50854
5500000000 -15.569979 -151.80038 0.15961775 -114.37212 0.031204304 -114.42908 -25.837427 -115.47591
5600000000 -18.906357 -68.304527 0.10830843 -117.28656 -0.1261422 -116.56655 -25.299568 -148.38159
5700000000 -17.517794 79.713699 -0.074400418 -120.50845 0.28794566 -117.67937 -31.626223 89.958076
5800000000 -17.059948 -159.11368 -0.051243588 -121.05673 -0.10684524 -120.86262 -27.036545 -135.45755
5900000000 -18.76079 -80.806297 0.022423534 -123.80845 -0.11149105 -123.04135 -25.993587 -155.36766
6000000000 -21.604792 90.841118 -0.31501865 -125.93079 -0.017975606 -124.29671 -32.428894 115.01289
6100000000 -16.745327 -167.75212 0.028774595 -126.6597 -0.066967629 -126.85521 -28.975754 -134.37868
6200000000 -21.895901 -86.375412 -0.16138425 -129.91794 -0.25447974 -129.27687 -27.074751 -161.5784
6300000000 -21.628813 89.321335 -0.27472493 -132.26237 -0.13861968 -130.59076 -31.581709 104.29948
6400000000 -17.597914 -173.98326 -0.099128194 -133.81653 -0.16098145 -133.91072 -32.26786 -143.77934
6500000000 -22.584248 -97.616806 -0.2881144 -135.80484 -0.37002963 -135.47827 -30.484421 -172.26341
6600000000 -25.957535 102.28436 -0.46638933 -138.38821 -0.39019859 -137.71298 -31.19874 121.51969
6700000000 -17.930834 -172.46436 -0.18173558 -139.10741 -0.19995867 -139.35475 -32.342892 -149.37367
6800000000 -23.623594 -106.96776 -0.32064968 -141.74588 -0.3585833 -141.81744 -30.885298 -159.70598
6900000000 -25.301931 84.244843 -0.41821969 -144.49133 -0.34891513 -144.31491 -30.891602 104.90245
7000000000 -19.97694 -177.3922 -0.27129811 -146.00027 -0.26292321 -146.07312 -30.410046 174.15718
7100000000 -24.92717 -101.43784 -0.32424521 -147.72003 -0.35627851 -147.64914 -30.377415 -170.71098
7200000000 -25.239498 84.829247 -0.44805309 -150.93234 -0.37605968 -150.43234 -31.979687 95.393692
7300000000 -19.897377 174.79764 -0.27039051 -152.2095 -0.24544398 -152.11815 -30.623348 162.67667
7400000000 -25.229069 -103.92892 -0.361734 -154.28291 -0.32521692 -154.21736 -30.324389 163.59274
7500000000 -24.267696 71.475731 -0.40134206 -156.87329 -0.34954244 -156.18909 -30.33951 75.739471
7600000000 -22.201223 158.92064 -0.42759046 -158.83278 -0.39346901 -158.90451 -31.145479 148.39027
7700000000 -26.916096 -111.38663 -0.37411466 -160.54657 -0.34501576 -160.5518 -30.215599 160.05885
7800000000 -23.51903 77.665466 -0.44844896 -162.62755 -0.46207371 -162.13045 -28.792181 75.62925
7900000000 -20.80304 154.43857 -0.41770637 -165.17282 -0.38536 -164.97101 -32.280586 135.48041
8000000000 -27.695269 -106.22196 -0.37332773 -167.10767 -0.34260273 -166.88271 -30.738764 145.38992
8100000000 -23.562904 58.743561 -0.42718074 -168.97391 -0.42265892 -168.50703 -27.566801 62.855629
8200000000 -22.327204 148.23088 -0.52668953 -171.43103 -0.47737601 -171.37149 -32.544701 97.421577
8300000000 -27.304369 -96.98658 -0.40944046 -172.99034 -0.36440039 -172.93501 -32.752819 136.81789
8400000000 -23.6639 54.90062 -0.45355853 -175.18192 -0.45011353 -174.99557 -28.232141 58.771976
8500000000 -21.427849 142.47849 -0.4887473 -177.40233 -0.4540526 -177.3698 -31.633331 79.426697
8600000000 -29.06671 -126.45142 -0.48092732 -179.84857 -0.45137194 -179.80402 -33.433407 98.132797
8700000000 -23.860346 47.794304 -0.47399086 178.42799 -0.46361858 178.68015 -28.296551 45.895756
8800000000 -22.815079 137.45195 -0.55949157 176.38326 -0.51191509 176.57358 -30.980135 63.930481
8900000000 -27.825481 -117.42043 -0.52196747 174.07166 -0.46357077 174.16313 -34.19305 88.336235
9000000000 -23.108582 35.839474 -0.45791501 172.24281 -0.43317544 172.26891 -28.286095 31.740047
9100000000 -22.654171 119.63507 -0.52948827 170.19525 -0.48444217 170.2188 -31.226675 52.628624
9200000000 -27.847912 -141.92134 -0.52493376 167.80315 -0.48462698 167.73047 -33.839977 76.676399
9300000000 -24.638792 27.100508 -0.49763346 165.8231 -0.49630252 165.87531 -28.319969 22.516676
9400000000 -22.590166 117.33382 -0.51497418 163.79329 -0.4836328 164.02774 -31.619715 37.828712
9500000000 -26.860909 -138.04538 -0.5371775 161.73169 -0.48626131 161.83763 -35.944534 65.30574
9600000000 -24.203491 9.6268768 -0.52117056 159.45187 -0.47786576 159.48917 -28.847982 8.5705853
9700000000 -23.18289 97.428177 -0.52375889 157.26492 -0.48468682 157.36145 -32.097763 36.138046
9800000000 -28.129206 -130.54579 -0.57913125 155.78775 -0.51740205 155.7301 -38.35186 43.951164
9900000000 -24.142035 4.7345901 -0.5362007 153.70139 -0.50655806 153.54424 -28.388927 1.6387346
10000000000 -22.685694 102.80254 -0.4950268 151.211 -0.47798961 151.30255 -33.129498 18.584833
10100000000 -25.651628 -150.13983 -0.50574487 149.48862 -0.46649799 149.3958 -39.110977 39.422699
10200000000 -24.499426 -13.195594 -0.53034806 147.25233 -0.5048179 147.10074 -28.299295 -12.435067
10300000000 -25.73934 92.177971 -0.58674932 144.7462 -0.56899297 144.84283 -32.373322 7.331007
10400000000 -27.472691 -135.07915 -0.5576514 143.09813 -0.50304866 143.18634 -38.770527 3.4591482
10500000000 -24.416729 -16.186781 -0.57165754 141.66742 -0.51162106 141.41652 -28.166571 -16.418701
10600000000 -25.410069 92.313576 -0.59736973 138.61555 -0.55358326 138.58549 -31.984138 -13.503411
10700000000 -24.973129 -153.46663 -0.50589556 136.86189 -0.43957299 136.77637 -40.348278 -11.222808
10800000000 -25.374611 -29.975115 -0.54374731 135.3317 -0.50015134 134.9277 -27.908993 -27.350498
10900000000 -28.32592 77.230583 -0.58632636 132.37325 -0.5854724 132.48759 -30.856976 -28.437269
11000000000 -25.101116 -140.73117 -0.54324216 130.55579 -0.48552629 130.72867 -37.158417 -51.201218
11100000000 -23.691652 -42.146252 -0.51392817 129.08864 -0.43548679 128.91444 -27.737844 -40.494408
11200000000 -27.192015 62.812096 -0.55895364 126.18031 -0.54860878 126.27795 -30.408899 -43.024853
11300000000 -25.822287 -161.02754 -0.6058436 124.09394 -0.5353474 124.15366 -35.40239 -78.913933
11400000000 -25.106928 -55.281387 -0.49520668 122.49391 -0.45377392 122.17982 -27.577225 -58.680241
11500000000 -28.628006 57.961872 -0.50496274 120.21374 -0.56865889 120.25349 -29.739101 -57.389458
11600000000 -24.415915 -161.16602 -0.60202032 117.83075 -0.54257041 117.94839 -33.316391 -93.742043
11700000000 -22.767754 -67.180542 -0.43618628 116.16113 -0.38146281 115.93197 -26.562826 -74.264183
11800000000 -27.156261 45.593555 -0.44885844 113.67373 -0.49662 113.8083 -30.942015 -79.082085
11900000000 -26.135834 179.32008 -0.65497357 111.26745 -0.5902096 111.38858 -32.242245 -110.24287
12000000000 -25.46533 -69.994164 -0.4972069 109.7093 -0.45252946 109.51114 -26.562124 -85.248154
12100000000 -27.351635 49.100754 -0.45366973 107.51395 -0.46901852 107.58616 -29.588789 -97.879311
12200000000 -23.865368 179.91747 -0.6364975 105.24171 -0.56774384 105.34653 -30.825106 -125.59426
12300000000 -24.051544 -93.404495 -0.53358632 103.54164 -0.4514797 103.09854 -26.923607 -99.236618
12400000000 -33.089813 46.557861 -0.46826145 100.66962 -0.49636737 100.77655 -30.034143 -119.56461
12500000000 -24.468018 172.26144 -0.64545804 98.706146 -0.5925929 99.053917 -30.43601 -138.82625
12600000000 -26.252014 -97.894852 -0.60071754 96.930321 -0.51657897 96.73101 -27.350838 -109.05828
12700000000 -30.765535 60.715614 -0.48715538 94.459587 -0.4985829 94.652855 -29.135635 -125.96986
12800000000 -23.298126 165.65523 -0.66430241 92.604179 -0.57618612 92.702942 -28.684401 -148.006
12900000000 -25.641708 -130.75221 -0.65448618 90.664764 -0.56537658 90.276169 -27.172396 -127.96957
13000000000 -42.209122 112.6087 -0.59574223 87.993996 -0.5835768 87.738792 -28.632261 -139.68358
13100000000 -23.444698 167.83894 -0.69305885 86.162254 -0.6236195 86.503319 -27.781118 -154.4052
13200000000 -25.138494 -134.2852 -0.63838977 84.439835 -0.55836564 84.194443 -26.968571 -135.15977
13300000000 -46.704773 88.864891 -0.5624277 81.423851 -0.58108997 81.409233 -27.932611 -146.0025
13400000000 -24.23728 157.54073 -0.69426614 79.717499 -0.62097591 79.833595 -26.920895 -158.80461
13500000000 -23.866028 -151.46648 -0.6618048 78.1688 -0.57953757 77.904541 -25.742212 -149.22212
13600000000 -33.164749 -174.81012 -0.6693275 75.47065 -0.65182811 75.141579 -26.272795 -155.13445
13700000000 -22.481405 159.64664 -0.69880301 73.487839 -0.65001249 73.657967 -26.172005 -171.52995
13800000000 -22.650238 -157.32542 -0.65179563 71.953804 -0.5505085 71.817665 -25.586502 -156.14427
13900000000 -31.18465 -178.60796 -0.6134609 69.281525 -0.66142476 68.971138 -25.061329 -160.73409
14000000000 -22.489372 150.65828 -0.71493667 67.073227 -0.67965561 67.334557 -24.912737 -175.96123
14100000000 -23.301968 -169.65611 -0.64735013 65.72216 -0.55235606 65.593231 -24.028536 -168.65115
14200000000 -29.934067 156.69075 -0.62523681 63.121155 -0.65820229 62.806862 -24.146708 -174.57491
14300000000 -21.273129 148.68417 -0.74132025 60.761902 -0.685202 60.889416 -24.248852 173.17856
14400000000 -22.225498 -173.64275 -0.63976163 59.262081 -0.5124051 59.086533 -23.842007 -177.08965
14500000000 -29.468519 159.94362 -0.62856537 56.692986 -0.65029615 56.465824 -23.841953 174.61975
14600000000 -21.81308 141.40024 -0.73436165 54.329544 -0.73059011 54.464558 -23.583466 168.39076
14700000000 -22.84198 169.8678 -0.68545061 52.855331 -0.59067553 52.632259 -22.743456 174.0641
14800000000 -27.992344 140.3757 -0.63022822 50.548813 -0.64722127 50.169724 -22.489927 165.71228
14900000000 -21.543177 134.00911 -0.79568565 47.752399 -0.75431401 48.077309 -22.96245 156.65814
15000000000 -21.489927 159.93225 -0.72862357 46.075596 -0.60359776 45.825321 -22.434292 161.74304
15100000000 -25.446932 138.67056 -0.68876243 43.80217 -0.69782472 43.638542 -22.300785 155.16452
15200000000 -21.444574 129.52489 -0.8158198 41.691101 -0.81217855 41.921974 -22.58271 149.07458
15300000000 -22.004379 146.80824 -0.79375494 39.867901 -0.70577371 39.651371 -21.941982 151.21683
15400000000 -25.674562 121.51297 -0.72001398 37.722813 -0.71321768 37.488724 -21.53924 147.33806
15500000000 -21.305008 116.97182 -0.82988656 35.427395 -0.8337326 35.745895 -22.178488 138.43457
15600000000 -21.334555 140.30688 -0.84848171 33.544247 -0.74057329 33.354416 -21.47188 139.97072
15700000000 -23.826595 125.53321 -0.79022235 31.288895 -0.78459233 31.15378 -21.761913 138.38809
15800000000 -20.578012 113.83566 -0.88321173 29.515142 -0.85987538 29.790524 -21.80987 130.13655
15900000000 -21.104099 131.87354 -0.90775609 27.800203 -0.81405967 27.533716 -20.942375 132.242
16000000000 -24.88624 107.65582 -0.80186665 25.490963 -0.77351505 25.177256 -21.220886 130.34546
16100000000 -19.861393 103.83795 -0.8548854 23.699406 -0.82775724 23.756948 -21.222002 119.93436
16200000000 -20.329445 127.20064 -0.88687027 21.685354 -0.80523503 21.449083 -20.649321 123.11867
16300000000 -24.062365 113.14087 -0.81762338 19.389612 -0.80730867 19.09338 -21.482174 122.12158
16400000000 -19.177666 103.77422 -0.85753185 17.522163 -0.83775657 17.74114 -21.125965 110.83663
16500000000 -19.888977 122.19511 -0.90485764 15.843153 -0.81762725 15.739857 -20.233927 116.77946
16600000000 -23.984554 95.747803 -0.8285321 13.42059 -0.78943557 13.100082 -21.112558 114.66756
16700000000 -19.368624 94.604736 -0.85652828 11.431871 -0.82130343 11.382486 -20.745396 102.40039
16800000000 -19.835045 117.02648 -0.86868793 9.7384005 -0.78463852 9.4282084 -20.402145 108.60685
16900000000 -22.893278 99.389252 -0.85796845 7.4281073 -0.82973003 7.0172291 -21.365297 107.40948
17000000000 -18.625042 92.767029 -0.81585681 5.2514887 -0.81189668 5.2380681 -20.717804 95.686363
17100000000 -19.697517 109.94214 -0.84484625 3.5123148 -0.7875188 3.3232467 -20.180838 101.58041
17200000000 -22.53656 88.413681 -0.83806539 1.0850751 -0.80209744 0.84471434 -21.163134 99.670258
17300000000 -19.420916 83.024002 -0.85220659 -1.0577896 -0.82536 -1.1572737 -20.773302 89.56617
17400000000 -20.162054 102.36491 -0.84018344 -2.8931344 -0.77469558 -3.119148 -20.327494 95.255814
17500000000 -22.871489 85.849785 -0.85276997 -4.8594999 -0.79947251 -5.1480775 -21.351795 94.522896
17600000000 -18.610575 81.06234 -0.82722026 -7.148973 -0.81153679 -7.2868171 -20.710749 81.373268
17700000000 -19.388973 95.431961 -0.82688397 -9.1801195 -0.79149079 -9.3882236 -20.165462 86.970024
17800000000 -23.181919 76.656311 -0.79441935 -11.210251 -0.75301868 -11.439145 -21.101767 86.786491
17900000000 -19.425495 68.263237 -0.83476949 -13.377876 -0.81816339 -13.508002 -20.967533 72.673111
18000000000 -20.502523 89.678909 -0.81898677 -15.67009 -0.77905393 -15.756828 -20.414549 80.979263
18100000000 -23.990593 70.435974 -0.80538779 -17.374786 -0.7369014 -17.477972 -21.579611 82.608192
18200000000 -18.892904 65.781723 -0.83540219 -19.519854 -0.80559379 -19.704905 -20.638393 66.842743
18300000000 -19.295498 83.410545 -0.83093995 -21.792009 -0.79216629 -22.014391 -20.017576 71.792511
18400000000 -23.750238 59.309975 -0.77889383 -23.758806 -0.71799374 -24.03302 -21.540419 70.452652
18500000000 -19.167709 54.729305 -0.79728693 -25.568411 -0.79182118 -25.84441 -20.830511 55.959225
18600000000 -20.6343 77.445511 -0.81408346 -28.247126 -0.79494792 -28.393446 -20.814356 65.676308
18700000000 -24.622202 51.87112 -0.79156083 -30.180471 -0.72605777 -30.221413 -22.546352 64.487465
18800000000 -19.19467 48.217556 -0.77923006 -32.116226 -0.75278139 -32.293476 -21.046139 50.398705
18900000000 -20.197844 70.433418 -0.82397908 -34.412712 -0.82063699 -34.557537 -20.616613 59.03661
19000000000 -23.545521 44.672451 -0.81075978 -36.637787 -0.74758297 -36.764713 -22.132708 51.647343
19100000000 -19.601641 42.66758 -0.75751394 -38.210194 -0.75234979 -38.581028 -21.056681 38.646755
19200000000 -21.327866 63.715515 -0.81552649 -40.767933 -0.83144373 -41.000347 -21.976683 48.683334
19300000000 -24.695953 40.879185 -0.8393597 -43.080521 -0.76833671 -43.182281 -23.43083 45.795635
19400000000 -20.281822 35.38628 -0.77386236 -44.985458 -0.73966897 -45.212391 -22.125633 34.381947
19500000000 -21.633673 54.343834 -0.82208627 -47.33334 -0.83599055 -47.349281 -22.161766 43.429886
19600000000 -24.781036 37.517323 -0.85633731 -49.530781 -0.80020946 -49.55278 -23.233843 34.952877
19700000000 -21.279028 31.172325 -0.80474013 -51.373619 -0.77061665 -51.626045 -22.489582 22.774529
19800000000 -22.135778 51.263485 -0.83287519 -53.735733 -0.83873039 -53.771797 -23.486052 29.130648
19900000000 -26.367424 34.641994 -0.89625221 -55.777473 -0.82810414 -55.80106 -25.032478 27.630138
20000000000 -22.427402 25.672548 -0.86381537 -57.802956 -0.80613458 -58.165722 -24.184 17.329342
20100000000 -22.913391 42.216244 -0.84612286 -60.172176 -0.85801941 -60.09243 -23.952295 23.835455
20200000000 -27.669586 24.404799 -0.91285652 -62.193962 -0.83715189 -62.044647 -25.358526 18.859751
20300000000 -23.697727 10.557265 -0.89156264 -64.123085 -0.83248156 -64.436035 -24.582048 2.209636
20400000000 -23.96011 38.018105 -0.8963697 -66.492188 -0.88890904 -66.47567 -25.322075 8.1305532
20500000000 -30.138786 17.261059 -0.97958779 -68.291275 -0.87406176 -68.267738 -27.909006 4.2904649
20600000000 -24.851732 -3.6757164 -0.96087235 -70.2799 -0.85647947 -70.780121 -26.287834 -7.2427607
20700000000 -26.101921 25.723852 -0.93004537 -72.494888 -0.9356131 -72.765015 -26.268757 -2.7435138
20800000000 -35.271538 -1.7549529 -0.97999263 -74.426506 -0.90003335 -74.45726 -28.939869 -13.443665
20900000000 -27.701088 -15.71216 -0.96326751 -75.877747 -0.89425248 -76.498802 -27.607576 -30.424814
21000000000 -30.420214 27.765131 -0.94544268 -78.323265 -0.94359303 -78.699051 -30.504492 -23.377031
21100000000 -44.368073 38.938385 -0.94943678 -80.402924 -0.87456739 -80.527855 -34.224972 -38.016266
21200000000 -29.583267 -17.875055 -0.92157203 -82.454948 -0.84083074 -83.062241 -30.822979 -40.865475
21300000000 -31.714184 17.724047 -0.93791711 -84.97197 -0.95001549 -85.250359 -31.796751 -35.100918
21400000000 -38.315445 -112.99176 -0.960253 -86.893211 -0.8851192 -86.93985 -32.869942 -63.077446
21500000000 -34.918346 -52.84824 -0.90632433 -88.389137 -0.8535291 -89.167465 -30.209057 -78.85096
21600000000 -37.677185 52.178207 -0.89016056 -90.834496 -0.93916142 -91.379524 -32.66637 -96.891983
21700000000 -35.483543 157.61832 -0.94416612 -93.309685 -0.90100873 -93.463173 -34.12603 -119.56396
21800000000 -41.545471 -110.46915 -0.90700489 -95.296791 -0.84686005 -95.84021 -32.223804 -120.85384
21900000000 -38.794552 89.402924 -0.91060162 -97.641464 -0.95452368 -97.822609 -33.363033 -120.51641
22000000000 -32.80151 166.07269 -0.95010585 -99.838844 -0.93667406 -99.721947 -33.730915 -127.48529
22100000000 -35.532627 -145.44348 -0.91607147 -101.71841 -0.86875802 -102.18029 -29.069296 -135.27129
22200000000 -35.379715 105.52972 -0.90273172 -103.93873 -0.95720559 -104.17776 -28.535994 -137.08089
22300000000 -28.609396 144.82433 -1.0129558 -106.19836 -0.99849272 -106.2737 -28.951664 -154.3605
22400000000 -31.626892 -177.74461 -0.98959219 -108.3345 -0.93426424 -108.83749 -25.933954 -157.71436
22500000000 -31.857824 139.60422 -0.97858447 -110.44159 -1.0265549 -110.43128 -26.749697 -158.11032
22600000000 -26.062019 160.9586 -1.0692519 -112.71123 -1.0413169 -112.25862 -26.617746 -176.0126
22700000000 -28.425844 -176.68669 -1.0687351 -114.4379 -0.98383003 -114.63228 -24.057844 -175.22691
22800000000 -29.824116 132.08633 -1.0104519 -116.54023 -1.0173888 -116.50173 -25.098001 -176.09203
22900000000 -23.779985 147.71645 -1.1064633 -118.49041 -1.082111 -118.2591 -24.505693 171.54138
23000000000 -25.855663 159.0174 -1.0866212 -120.4156 -1.0172729 -120.90026 -22.622271 177.00191
23100000000 -25.430599 136.30453 -1.0892202 -122.55367 -1.0828975 -122.7186 -22.871094 175.42761
23200000000 -21.29608 152.90112 -1.1495241 -124.47762 -1.083329 -124.22327 -21.924751 161.90334
23300000000 -23.147228 163.78166 -1.1778764 -126.44643 -1.0426801 -126.73596 -20.761553 162.88547
23400000000 -23.119673 133.60776 -1.0953159 -128.71974 -1.079742 -128.89551 -21.373333 160.09761
23500000000 -20.084837 142.39206 -1.1774182 -130.50932 -1.1204284 -130.49408 -20.699219 151.45792
23600000000 -21.286276 146.37805 -1.1704037 -132.28548 -1.0942534 -132.80563 -19.625093 155.08025
23700000000 -20.417782 125.88461 -1.1038799 -134.26915 -1.1114988 -134.76349 -19.795906 153.92024
23800000000 -18.218063 135.91057 -1.1596632 -136.20438 -1.0765655 -136.40453 -18.950682 142.91104
23900000000 -19.58794 141.72693 -1.13355 -138.22292 -1.0371319 -138.87067 -18.067141 144.16457
24000000000 -19.19231 127.9915 -1.1121173 -140.48999 -1.1065053 -141.12053 -18.75741 141.86107
24100000000 -17.314566 131.31516 -1.1242255 -142.69989 -1.0985818 -142.80464 -18.330183 132.82597
24200000000 -18.340197 133.33766 -1.1281235 -144.44676 -1.0756267 -144.89174 -17.454515 135.75615
24300000000 -17.778418 114.27751 -1.0793705 -146.54274 -1.0877705 -147.08316 -17.999577 136.31317
24400000000 -16.065012 120.58198 -1.0804694 -148.7579 -1.0764081 -149.08748 -17.266272 127.38374
24500000000 -17.431479 124.24536 -1.076454 -150.51666 -1.0116507 -151.38339 -16.175831 130.72795
24600000000 -17.038557 113.78545 -1.0655082 -153.00864 -1.0933294 -153.62349 -16.967361 127.83904
24700000000 -15.396793 118.87762 -1.0711806 -155.22327 -1.1010388 -155.34265 -16.34565 117.66129
24800000000 -16.797005 120.61704 -1.0697466 -157.19492 -1.0205306 -157.55847 -15.758137 121.51983
24900000000 -15.974553 103.08988 -1.0490204 -159.50102 -1.0822173 -159.68713 -16.515966 119.83421
25000000000 -14.700221 106.98666 -1.0891073 -161.71129 -1.1104864 -161.9119 -15.701786 112.30393
25100000000 -15.976407 107.93008 -1.085654 -163.68942 -1.0474788 -164.261 -15.040289 116.69176
25200000000 -15.46778 96.985962 -1.0754951 -165.71024 -1.1156036 -166.09935 -15.650911 113.04877
25300000000 -14.313085 104.96958 -1.1305391 -168.12517 -1.1565036 -168.07678 -14.924384 104.40305
25400000000 -15.522054 105.01183 -1.1060442 -170.23387 -1.058598 -170.45073 -14.597494 107.84309
25500000000 -14.84765 91.638107 -1.0989767 -172.22218 -1.1113826 -172.48541 -15.173685 103.41723
25600000000 -13.98547 94.414444 -1.1662722 -174.47548 -1.1867119 -174.57336 -14.490197 98.132515
25700000000 -14.949582 92.585098 -1.1594136 -176.65988 -1.1471709 -176.91707 -14.19838 100.93302
25800000000 -14.287635 84.027458 -1.1534433 -178.51691 -1.1661863 -178.62936 -14.642045 96.176331
25900000000 -13.565714 89.99369 -1.2102289 179.26274 -1.2053844 179.36926 -13.89549 90.995377
26000000000 -14.400829 89.560013 -1.2104937 177.03746 -1.1630162 176.82431 -13.838098 92.74157
26100000000 -14.066327 80.222527 -1.18295 175.08162 -1.1786636 174.78069 -14.217787 88.314117
26200000000 -13.386909 82.514847 -1.2513695 173.01668 -1.2696306 172.96153 -13.587214 84.164101
26300000000 -14.187969 79.874939 -1.265954 170.8842 -1.2547376 170.69875 -13.497221 85.544319
26400000000 -13.677214 72.058487 -1.2459686 168.84756 -1.2374506 168.73927 -13.804351 81.179634
26500000000 -12.732244 75.96405 -1.2844825 167.02893 -1.2792556 167.1701 -13.18961 75.526649
26600000000 -13.577231 75.431198 -1.3358341 164.68895 -1.3062513 164.5347 -13.35803 77.18325
26700000000 -13.447391 68.24292 -1.3147849 162.68187 -1.3066738 162.42265 -13.812581 72.197296
26800000000 -13.080538 69.749092 -1.3519658 160.82892 -1.3750364 160.95958 -13.101309 69.540146
26900000000 -13.966146 67.741768 -1.3803655 158.9416 -1.3814731 158.86279 -13.172267 70.851456
27000000000 -13.71932 60.384644 -1.3415298 156.79413 -1.296865 156.72792 -13.466015 64.383492
27100000000 -12.709589 63.191059 -1.3242232 154.9639 -1.2993101 155.17227 -12.859946 61.215771
27200000000 -13.371873 63.992165 -1.3762001 152.79865 -1.3969408 152.75668 -13.371496 62.377968
27300000000 -13.147862 58.393509 -1.3856941 150.78366 -1.3815994 150.27081 -13.87046 55.750103
27400000000 -12.911377 59.168575 -1.4103323 149.10446 -1.306832 148.28687 -14.196642 55.351048
27500000000 -13.626578 58.325771 -1.3789237 147.03654 -1.3084217 146.50124 -14.653232 62.482101
27600000000 -13.718775 52.276875 -1.3785504 144.46033 -1.2840365 144.3533 -14.279398 44.469616
27700000000 -13.000388 52.400223 -1.3348622 142.49873 -1.2759166 142.63142 -12.27741 46.419327
27800000000 -13.431705 52.182507 -1.3640361 140.62013 -1.387472 140.59032 -13.269785 55.069782
27900000000 -13.428723 48.469658 -1.4182601 138.55005 -1.4041191 138.23717 -14.795195 40.768658
28000000000 -12.924851 48.249149 -1.4239397 136.24683 -1.3563899 136.28119 -12.196471 33.993401
28100000000 -13.331844 49.278954 -1.4092388 134.16942 -1.399025 134.52734 -11.944937 52.709446
28200000000 -13.777176 44.886795 -1.5829848 132.7899 -1.4901282 132.13417 -22.444708 83.468399
28300000000 -13.828778 38.036568 -1.8095648 136.21365 -1.701288 138.54453 -13.655637 -132.17688
28400000000 -13.419806 44.651253 -1.0000815 129.58336 -1.131922 129.34355 -23.461943 43.74786
28500000000 -13.851839 37.573738 -1.2923123 126.76718 -1.2114588 126.34814 -14.232511 24.604345
28600000000 -12.921251 37.643299 -1.3116642 124.77837 -1.2751243 124.81481 -13.333363 31.306921
28700000000 -13.486801 39.838795 -1.3153127 122.6075 -1.3357786 122.52578 -13.437763 31.007513
28800000000 -13.832669 34.081223 -1.3251909 120.46684 -1.3037401 120.08277 -13.639565 29.715862
28900000000 -13.28127 33.203732 -1.3326265 118.46976 -1.3147827 118.14552 -13.917298 24.423014
29000000000 -13.627641 33.224358 -1.3356539 116.32669 -1.3714517 116.29025 -13.462419 22.705303
29100000000 -13.884451 23.766489 -1.3499467 114.13837 -1.3314697 114.0369 -13.74619 22.789776
29200000000 -13.15119 23.379698 -1.3300993 112.29639 -1.3142506 111.95605 -14.055259 15.080448
29300000000 -13.91852 26.486044 -1.3443142 110.04518 -1.3925039 109.99461 -13.66656 12.813835
29400000000 -14.374031 20.349926 -1.400888 107.90421 -1.4361695 107.73639 -14.340268 12.439649
29500000000 -13.63284 21.855387 -1.3933004 106.08475 -1.4131484 105.97417 -14.950862 5.049861
29600000000 -14.166947 21.563732 -1.4274096 104.17914 -1.4584121 104.49645 -14.613564 4.4876084
29700000000 -14.660196 9.0850306 -1.4307758 102.08628 -1.4186989 102.31846 -15.150599 7.169508
29800000000 -14.426913 8.8005219 -1.4096706 100.34357 -1.3717278 100.34293 -15.698346 0.9562456
29900000000 -15.754966 12.963702 -1.3586773 98.425583 -1.3804761 98.696198 -15.005935 -0.38525635
30000000000 -16.509859 9.7358847 -1.35869 96.334496 -1.3857068 96.535248 -15.667987 -0.050173026
30100000000 -15.40857 15.012096 -1.3164372 94.292885 -1.3271959 94.340141 -16.362652 -9.1431675
30200000000 -15.795721 16.496441 -1.3191646 91.993759 -1.301746 92.471649 -15.782543 -10.715196
30300000000 -16.45739 3.3483665 -1.3427774 89.882759 -1.3041853 90.178993 -16.778141 -6.3662338
30400000000 -16.079191 2.9696348 -1.3696841 87.92186 -1.3035456 87.927429 -17.739441 -11.959174
30500000000 -17.580376 7.8652105 -1.3145244 85.652336 -1.2796893 85.931969 -16.434187 -15.419538
30600000000 -18.429726 2.5850596 -1.3530594 83.687927 -1.3018895 84.069305 -17.127407 -11.567788
30700000000 -17.154736 8.1082811 -1.3542849 81.650955 -1.3243796 81.687973 -18.189497 -25.213844
30800000000 -17.87262 11.220569 -1.3404034 79.601852 -1.2808074 79.711166 -17.097185 -28.919062
30900000000 -18.598101 -1.0589147 -1.3866603 77.625885 -1.2923868 77.818779 -18.868778 -21.60391
31000000000 -19.286465 -4.051147 -1.3784055 75.78067 -1.318715 75.770065 -20.131325 -36.513905
31100000000 -19.75411 -11.356508 -1.350019 73.712906 -1.2498326 73.496475 -18.71335 -34.547138
31200000000 -16.059771 -12.54094 -1.2934632 70.835915 -1.1915073 70.937653 -20.748178 -25.651943
31300000000 -19.310293 15.897948 -1.3159101 69.913658 -1.2883658 69.656128 -21.573202 -53.50209
31400000000 -24.575748 -7.1083598 -1.3384075 67.476913 -1.2619596 66.629158 -19.505989 -41.624096
31500000000 -14.334003 -8.1386938 -1.17349 64.560326 -1.0282835 63.588879 -22.11338 -21.276064
31600000000 -7.8368678 22.548834 -1.537605 61.631187 -1.4992712 61.62785 -24.807899 -68.166672
31700000000 -14.843241 62.118126 -1.2479532 62.237762 -1.2743506 61.888592 -21.788034 -62.07513
31800000000 -27.399355 169.42986 -1.2417732 60.39687 -1.258374 59.891315 -26.129515 -51.481895
31900000000 -21.159204 -14.009632 -1.2551298 57.526005 -1.1736439 57.073689 -27.302074 -84.600189
32000000000 -19.33139 42.789726 -1.1758505 55.565975 -1.2106411 54.800587 -24.790115 -80.292656
32100000000 -31.37359 65.153412 -1.1740113 53.051025 -1.1722661 52.662258 -29.922884 -69.695862
32200000000 -24.626696 -4.1384506 -1.1710598 50.854218 -1.1265782 50.461014 -29.052303 -112.23564
32300000000 -21.899759 51.16008 -1.0941446 48.723934 -1.1727489 48.16618 -26.713041 -104.83846
32400000000 -26.705523 95.324112 -1.1377527 46.256138 -1.17908 46.107841 -32.771244 -122.91278
32500000000 -25.345928 28.853762 -1.100147 43.913746 -1.1115787 43.514744 -26.82432 -157.67084
32600000000 -20.291382 54.758717 -1.1119184 41.984776 -1.1718377 41.517292 -26.954924 -150.29922
32700000000 -25.297544 76.401886 -1.1674911 39.244671 -1.1773442 39.174122 -29.476461 166.71164
32800000000 -26.359539 34.704399 -1.1306189 37.292049 -1.1142974 37.009552 -25.095598 166.2677
32900000000 -20.352339 67.588966 -1.1577864 35.008854 -1.2012107 34.841953 -26.924917 172.65062
33000000000 -20.777266 91.81572 -1.1680874 32.703094 -1.2493826 32.864277 -26.913746 142.61209
33100000000 -21.825546 61.061111 -1.2005999 30.377165 -1.2103724 30.236073 -23.064535 150.50111
33200000000 -18.088865 62.194946 -1.2021074 28.546371 -1.2626923 28.419037 -23.342852 154.05696
33300000000 -20.466408 75.009666 -1.2821381 26.012213 -1.306096 26.154285 -22.110039 130.18973
33400000000 -21.44417 53.486382 -1.3246638 24.235926 -1.2831331 24.303778 -20.124689 128.11948
33500000000 -18.231518 65.265678 -1.2890186 22.219561 -1.2945954 22.24703 -21.957253 127.46184
33600000000 -18.499372 84.734673 -1.3311474 20.164019 -1.3247272 20.388803 -21.270136 112.92156
33700000000 -19.363386 69.485977 -1.3281311 17.734585 -1.3038887 17.791681 -20.221334 122.04712
33800000000 -16.544157 68.50618 -1.3106103 16.121296 -1.3410332 15.973133 -20.543491 124.74386
33900000000 -17.579771 80.405838 -1.3731254 13.808505 -1.3707355 13.847101 -18.998825 113.82092
34000000000 -18.380577 64.901161 -1.3928195 11.542946 -1.3298514 11.646329 -17.541224 116.4249
34100000000 -15.909019 66.521545 -1.3655709 9.7159662 -1.3277631 9.6012564 -17.931913 110.30068
34200000000 -16.07971 78.870712 -1.3946475 7.526917 -1.3668383 7.5883121 -17.330303 100.21406
34300000000 -16.932077 70.995552 -1.4339987 5.252913 -1.379804 5.0563459 -17.031857 103.27611
34400000000 -14.884333 68.989006 -1.4256984 3.4112489 -1.4362242 3.2018614 -17.461781 102.69153
34500000000 -14.801605 79.172958 -1.4956706 1.6888508 -1.4945716 1.6425561 -16.471773 98.032097
34600000000 -15.64436 69.337608 -1.4986904 -0.37265027 -1.446654 -0.61362249 -15.554206 99.355759
34700000000 -14.00576 63.214172 -1.4289874 -2.3415554 -1.4047663 -2.6097162 -15.705797 96.158722
34800000000 -13.891143 70.181953 -1.4156592 -4.5639768 -1.4092331 -4.7626371 -15.510928 89.433014
34900000000 -14.681604 65.31559 -1.4598931 -6.8592515 -1.4273579 -7.1343427 -14.824277 90.170738
35000000000 -13.212278 63.996231 -1.4452893 -8.8352327 -1.448265 -9.1372194 -14.988623 91.089439
35100000000 -12.675512 72.112213 -1.4677361 -10.614806 -1.4709644 -10.76896 -14.608923 86.262924
35200000000 -13.414422 65.284348 -1.4988722 -12.932086 -1.4761225 -13.242651 -13.735466 85.912643
35300000000 -12.199911 57.373028 -1.4619532 -14.979307 -1.4620055 -15.431728 -13.552064 84.944542
35400000000 -12.037946 62.478188 -1.4570843 -17.023718 -1.4803278 -17.3428 -13.351988 79.446358
35500000000 -13.032068 58.215061 -1.4912825 -19.43014 -1.5082978 -19.716087 -12.731282 77.293205
35600000000 -11.959043 53.051632 -1.4884578 -21.543573 -1.4983001 -21.845274 -12.687965 77.635086
35700000000 -11.239485 59.739998 -1.4876605 -23.513279 -1.511899 -23.72123 -12.396573 72.19072
35800000000 -12.096258 56.487549 -1.5493454 -25.807285 -1.551846 -26.078726 -11.704142 69.169746
35900000000 -11.092552 47.95018 -1.5671271 -28.031849 -1.5810548 -28.386147 -11.932877 67.182335
36000000000 -10.835588 51.852234 -1.5721213 -29.968258 -1.6215965 -30.24194 -12.216195 62.877331
36100000000 -11.815127 48.815327 -1.6409651 -32.192039 -1.6708796 -32.375526 -11.722003 61.359837
36200000000 -11.027086 42.21587 -1.7056432 -34.266941 -1.7302034 -34.507988 -11.563008 62.294243
36300000000 -10.177977 47.071247 -1.7177893 -35.851334 -1.7457781 -35.901123 -11.713981 57.587914
36400000000 -11.102938 43.880962 -1.7662588 -37.735687 -1.7730088 -37.831627 -11.142437 53.478863
36500000000 -10.491493 34.670757 -1.7814171 -39.664936 -1.7973044 -39.842094 -11.112803 53.678535
36600000000 -10.242446 39.028923 -1.7577353 -41.248573 -1.7924531 -41.402256 -11.551101 48.336109
36700000000 -11.555413 37.065731 -1.7561059 -43.061501 -1.7775589 -43.121742 -11.159964 45.307358
36800000000 -10.809246 29.791367 -1.7315314 -45.136436 -1.7469772 -45.213112 -11.318933 49.782753
36900000000 -9.9977465 36.535576 -1.6942282 -47.11515 -1.7171102 -47.085789 -11.613591 47.411453
37000000000 -10.997454 36.143349 -1.6899608 -49.272865 -1.7105652 -49.259487 -10.499373 43.572304
37100000000 -10.137832 26.538507 -1.7100952 -51.65897 -1.7300982 -51.595387 -10.421642 43.780838
37200000000 -9.6108627 31.848396 -1.7272592 -53.739429 -1.7629454 -53.684685 -11.005567 35.958469
37300000000 -11.196444 30.131039 -1.773857 -55.562027 -1.7804047 -55.442211 -10.350059 32.2785
37400000000 -10.388561 20.522219 -1.805663 -57.597744 -1.7998738 -57.47913 -10.70856 36.85545
37500000000 -9.3702869 27.433582 -1.7785969 -59.354435 -1.8152074 -59.307236 -11.300332 30.715921
37600000000 -10.56205 25.030993 -1.7996438 -61.41885 -1.8051964 -61.210735 -10.35588 27.33
37700000000 -9.7241831 14.577248 -1.8017318 -63.377476 -1.8195318 -62.927723 -10.504027 31.581635
37800000000 -9.4099026 21.348959 -1.8088787 -65.183418 -1.8297108 -64.842514 -11.196647 24.196619
37900000000 -11.16468 21.736576 -1.7908064 -67.101585 -1.7674376 -66.910088 -10.102738 19.305016
38000000000 -10.394972 11.91516 -1.8037452 -69.201157 -1.7669231 -68.901924 -10.507852 24.236326
38100000000 -9.3799706 19.897655 -1.7942175 -71.035912 -1.8014339 -70.786873 -11.613189 17.615988
38200000000 -10.898672 18.649775 -1.8162962 -73.065796 -1.7928251 -72.904167 -10.302483 12.926368
38300000000 -9.9387083 3.8029099 -1.8053795 -75.156128 -1.7524704 -74.723892 -10.369945 19.31057
38400000000 -9.3010635 11.857648 -1.8048663 -76.574608 -1.7767487 -76.268829 -11.800541 13.338639
38500000000 -11.336539 12.250198 -1.8143238 -78.737244 -1.7651619 -78.721169 -10.47195 6.6294379
38600000000 -10.708788 0.47413039 -1.7641146 -80.974945 -1.6988211 -80.606796 -10.472077 13.281057
38700000000 -9.6425562 10.053632 -1.734773 -82.421577 -1.7012398 -82.290115 -11.69996 7.109839
38800000000 -11.668805 10.193356 -1.7821062 -84.497284 -1.7342895 -84.693771 -10.477897 -0.41912377
38900000000 -10.63185 -4.9316993 -1.7311945 -86.854095 -1.6435039 -86.835663 -10.79347 6.8101649
39000000000 -9.8161955 5.2572074 -1.6832725 -88.20639 -1.6360445 -88.355522 -12.330961 -0.86299795
39100000000 -11.782988 5.1543121 -1.7109909 -90.435989 -1.668704 -90.893509 -10.822298 -3.1074135
39200000000 -10.867685 -10.356364 -1.6711563 -92.972733 -1.6167835 -93.067833 -10.965597 3.0793071
39300000000 -10.020544 -1.0854449 -1.6489587 -94.778343 -1.611051 -94.9655 -12.148078 -6.2637119
39400000000 -12.347395 -1.6540203 -1.6428343 -96.46888 -1.6557902 -97.059982 -10.747014 -11.259171
39500000000 -11.413884 -14.823817 -1.692547 -98.996368 -1.6300112 -99.250725 -11.359789 -6.1418209
39600000000 -10.654718 -3.5508358 -1.613336 -100.68142 -1.6012288 -101.07415 -12.672422 -17.154072
39700000000 -12.498619 -2.1091115 -1.6264557 -102.35219 -1.6442488 -103.09258 -11.558842 -18.749599
39800000000 -11.441681 -16.461641 -1.6183175 -105.19347 -1.6026027 -105.37415 -11.981454 -9.4998827
39900000000 -10.562799 -8.7999077 -1.5630717 -107.06078 -1.5902354 -107.18965 -12.767872 -19.512377
40000000000 -12.897538 -11.409543 -1.5617336 -108.81575 -1.6007875 -109.34789 -11.491455 -23.70302
