!Keysight Technologies,N5224A,MY55441802,A.10.65.16
!Date: Wednesday, May 13, 2026 19:16:53
!Correction: S11(Full 2 Port(1,2)) 
!S21(Full 2 Port(1,2)) 
!S12(Full 2 Port(1,2)) 
!S22(Full 2 Port(1,2)) 
!S2P File: Measurements: S11, S21, S12, S22:
# Hz S  dB   R 50
1000000000 -0.037102856 -98.932045 -43.639271 26.44475 -42.831852 56.387489 -2.9011481 -11.16932
1100000000 0.40991309 153.47961 -39.63031 -165.74742 -41.859592 144.51297 -2.0495918 15.801233
1200000000 2.0094023 -0.32728922 -43.989017 -146.70915 -49.278751 -56.644325 -0.1525203 -8.8581905
1300000000 6.6335773 -101.33776 -32.830666 41.45866 -32.670029 44.401485 -0.86088979 -6.9345074
1400000000 2.9918795 161.84853 -35.415546 -143.69402 -37.553963 168.84598 -2.8062882 10.725006
1500000000 4.1077547 -13.176497 -35.356281 159.0074 -42.283001 -156.21152 -0.32564375 -10.928043
1600000000 10.582293 -91.538544 -27.717573 50.936363 -27.647112 54.512264 -0.35169232 -3.5551994
1700000000 7.6054215 179.49654 -27.884413 -116.08454 -35.429298 -166.88968 -2.6160848 -0.59607923
1800000000 5.6428828 -40.350525 -29.773157 103.25378 -33.533005 129.5444 -0.37109834 -12.975398
1900000000 9.8654032 -69.68071 -26.582426 71.434357 -26.279982 62.386047 0.066030979 -3.6559937
2000000000 9.9780807 -139.33749 -24.421503 -61.932018 -34.597591 -75.780624 -2.0967712 -4.1721616
2100000000 5.3779278 -67.772522 -27.112043 66.978554 -29.270344 87.926743 -0.28946498 -15.296217
2200000000 8.9120159 -67.595726 -26.398802 69.777679 -25.261734 64.400803 0.14406478 -4.5606871
2300000000 6.4821467 -115.29256 -25.828028 -17.614391 -32.916298 -5.0423093 -1.7601459 -8.492547
2400000000 5.5585809 -88.09243 -24.869465 46.39119 -26.239752 69.262009 -0.21886684 -16.43722
2500000000 6.0265026 -83.134727 -25.470264 51.913307 -25.458935 46.127834 0.10182904 -10.005283
2600000000 3.251097 -111.52722 -26.21452 -5.5529261 -30.323368 11.010754 -1.379853 -12.189091
2700000000 3.3873785 -104.36702 -24.243967 23.756617 -25.145018 42.269905 -0.24967644 -17.002949
2800000000 6.1162105 -90.392609 -23.087107 39.288368 -23.171104 32.829533 0.20149732 -12.880759
2900000000 1.250525 -112.55832 -24.435637 -7.3049831 -26.177383 0.48872343 -0.49176782 -17.475487
3000000000 2.5958464 -119.04539 -22.729004 -7.716969 -23.369343 8.9183598 -0.550807 -17.826778
3100000000 4.4379725 -101.63275 -24.113089 -3.8679938 -24.372961 -9.2689629 0.05981423 -16.888565
3200000000 0.4498556 -116.65168 -28.12076 -32.506741 -28.8556 -23.845732 0.18173113 -15.534236
3300000000 1.9066874 -129.33926 -28.836658 -15.752404 -29.096405 -3.852824 -0.68641895 -18.964872
3400000000 4.5104394 -107.93687 -28.094967 10.250528 -28.477625 4.8743601 0.10000582 -20.039572
3500000000 -0.22735423 -126.32635 -29.786558 -2.445538 -29.758987 5.5260768 0.16797061 -13.982247
3600000000 2.4773977 -140.61079 -28.105934 0.51099658 -28.043633 12.259942 -0.71290439 -22.693642
3700000000 4.6359644 -124.29373 -26.050451 14.082672 -26.49963 8.8987312 0.20678741 -23.528017
3800000000 -0.54768115 -136.8645 -28.247967 3.3742177 -28.330824 9.7154427 -0.10408779 -14.499324
3900000000 1.7404714 -151.27203 -27.089933 -2.9686913 -26.839785 8.2695761 -0.53493798 -25.918608
4000000000 3.962956 -135.6187 -24.720261 8.957571 -25.112957 4.3079934 0.35629964 -26.395462
4100000000 -0.66826385 -145.60915 -26.93104 0.97247177 -26.917498 2.1757627 -0.31779546 -19.428549
4200000000 1.1347078 -162.92642 -26.412771 -8.0842733 -25.772112 0.12115256 -0.24950348 -27.458811
4300000000 3.3864601 -149.59462 -23.95203 -0.17492272 -24.381798 -2.7717109 0.36482239 -28.689814
4400000000 -1.0602589 -158.04321 -25.948399 -4.4198208 -25.939119 -5.5213614 -0.27534601 -23.432745
4500000000 0.67263097 -170.91962 -25.546888 -12.821378 -25.166336 -5.5953226 -0.17293708 -27.901783
4600000000 2.6073487 -161.10699 -23.423904 -8.4339447 -23.80015 -10.3679 0.37763274 -30.225958
4700000000 -1.1268744 -167.35489 -24.751215 -10.235837 -24.665104 -13.649832 -0.0022332943 -26.893682
4800000000 0.38550362 177.31334 -24.707369 -19.244984 -24.329676 -13.778659 -0.21406123 -28.703819
4900000000 2.1597569 -174.51108 -22.868603 -18.585751 -23.253435 -19.324673 0.23322552 -32.636982
5000000000 -1.3606706 179.83652 -23.925343 -17.985277 -23.873613 -22.568142 0.24842755 -29.207125
5100000000 -0.13629901 168.71442 -24.099314 -25.852251 -23.870598 -22.291523 -0.29616845 -29.831165
5200000000 1.2924503 173.99001 -22.70932 -29.844337 -23.091116 -29.804565 0.13807128 -34.740524
5300000000 -1.4845786 169.9705 -23.421778 -27.348955 -23.568035 -32.281609 0.36341444 -31.461853
5400000000 -0.10177068 159.56889 -24.035339 -33.661427 -23.814287 -30.980867 -0.26912028 -32.157745
5500000000 1.1965588 164.19432 -22.92602 -37.640625 -23.224297 -36.671833 0.010810349 -37.016399
5600000000 -1.4574755 158.6004 -23.523434 -33.068558 -23.795591 -38.317551 0.33248913 -33.947289
5700000000 0.24625692 149.1494 -23.929392 -36.47065 -23.653292 -34.445843 -0.2588878 -33.34734
5800000000 0.58776605 153.05304 -23.068254 -42.295208 -23.27232 -41.24437 -0.016060591 -38.950855
5900000000 -1.3539401 147.56389 -22.98278 -38.141598 -23.492647 -43.138229 0.4433811 -36.349716
6000000000 0.019756094 139.57782 -23.521273 -41.209293 -23.398647 -40.159019 -0.28918573 -35.909992
6100000000 0.77890646 142.9104 -22.663717 -47.393497 -22.732058 -45.985538 -0.073383234 -40.97636
6200000000 -1.3539929 135.452 -22.653698 -44.33849 -23.15711 -48.033916 0.37598413 -38.986641
6300000000 0.084859408 129.94772 -23.077356 -45.628639 -23.032417 -45.562008 -0.29600367 -38.819656
6400000000 0.41517925 130.9752 -22.453939 -53.601044 -22.43001 -51.725872 -0.10338274 -42.358528
6500000000 -1.3602928 124.25363 -22.25881 -50.575665 -22.87871 -53.066273 0.21808073 -40.283184
6600000000 -0.28108609 119.43627 -22.640402 -52.303654 -22.601652 -52.717125 -0.19703822 -42.104263
6700000000 0.099707805 122.81416 -22.084724 -57.745193 -21.917446 -55.645481 -0.099018127 -44.576035
6800000000 -1.4271491 112.88585 -21.752768 -55.853794 -22.250452 -57.555431 0.20434761 -42.682926
6900000000 -0.15300834 108.00198 -21.84676 -57.418907 -21.825239 -58.220718 -0.017753538 -43.515884
7000000000 -0.44626898 110.18524 -21.593012 -64.430176 -21.49157 -62.881989 -0.16818386 -46.462215
7100000000 -1.4489237 101.73454 -21.25445 -63.936485 -21.782204 -65.035789 0.19130835 -45.274296
7200000000 -0.24140416 97.965431 -21.3354 -64.571136 -21.431261 -64.687263 0.091187529 -44.946716
7300000000 -0.41953555 99.672989 -21.22435 -71.251884 -21.10326 -69.412132 -0.24953137 -48.677101
7400000000 -1.4715517 90.002953 -20.638071 -72.259377 -21.155033 -72.272049 0.10852772 -48.654705
7500000000 -0.067702189 86.728729 -21.046711 -72.13929 -21.355349 -71.96199 0.039519884 -45.538769
7600000000 -0.73129356 87.587578 -21.261715 -77.483459 -21.17314 -76.618637 -0.23378336 -50.52787
7700000000 -1.5066587 78.930527 -20.700445 -78.752785 -21.153227 -77.724602 0.17451575 -50.912994
7800000000 -0.13287739 77.844864 -20.77792 -75.288841 -21.137787 -75.55114 -0.11164093 -48.182259
7900000000 -0.64907843 78.035843 -20.818434 -82.669197 -20.648705 -81.681503 -0.23294708 -52.434101
8000000000 -1.4839672 67.164139 -20.28051 -83.79464 -20.604073 -82.051811 0.21914001 -52.85173
8100000000 0.12620762 65.923714 -20.013067 -81.812302 -20.423044 -81.682655 -0.11765453 -50.495552
8200000000 -0.87719923 66.967484 -20.34634 -88.21357 -20.231695 -87.56414 -0.22393516 -53.92548
8300000000 -1.466004 55.686081 -19.819103 -89.953667 -20.067722 -88.109283 0.19201654 -54.797657
8400000000 0.039899372 54.216595 -19.438765 -89.885658 -19.771366 -89.703888 -0.053745352 -53.71674
8500000000 -0.8127358 57.320835 -19.782782 -95.265045 -19.699055 -94.307556 -0.27464947 -55.612701
8600000000 -1.6231848 45.533466 -19.54912 -97.902672 -19.646235 -96.64373 0.03404827 -56.922447
8700000000 -0.15261313 43.584419 -19.099951 -98.228516 -19.363194 -97.326996 0.019327626 -55.748096
8800000000 -1.0026553 45.973324 -19.428476 -102.43452 -19.391613 -101.51044 -0.295807 -57.397804
8900000000 -1.713784 34.644566 -19.321299 -105.50727 -19.321518 -104.28941 -0.042725202 -59.248676
9000000000 -0.074955463 31.314159 -18.735102 -106.44844 -18.943237 -105.47381 0.025384614 -58.082577
9100000000 -0.8449471 34.721416 -19.085207 -109.87752 -19.064528 -109.21623 -0.29516008 -59.363396
9200000000 -1.8323011 25.075336 -19.137228 -112.64301 -19.078777 -111.83642 -0.1231051 -61.390759
9300000000 -0.57111412 20.943583 -18.678635 -114.12852 -18.853086 -113.01003 0.0052404543 -60.155636
9400000000 -0.94230312 24.330782 -18.839647 -117.2061 -18.797546 -116.16547 -0.29098529 -61.110085
9500000000 -1.8721951 14.720222 -18.926542 -119.44281 -18.8381 -118.79324 -0.17769752 -63.525806
9600000000 -0.58362961 9.5329723 -18.492693 -121.72626 -18.582895 -120.64207 0.005773271 -62.677895
9700000000 -0.94827408 11.94456 -18.627453 -124.25633 -18.646181 -123.48728 -0.35360971 -62.973103
9800000000 -1.7774571 4.3684654 -18.75466 -126.05592 -18.66025 -125.59586 -0.2084209 -65.534225
9900000000 -0.64964056 0.45592025 -18.334766 -127.73813 -18.397532 -126.85867 0.028844515 -64.710358
10000000000 -1.0945538 2.4111137 -18.394802 -130.80486 -18.44644 -130.09692 -0.40409845 -65.147789
10100000000 -1.7824814 -5.866775 -18.552349 -132.62079 -18.409002 -132.47079 -0.25792688 -67.640266
10200000000 -0.83034533 -10.498141 -18.187885 -134.96739 -18.22381 -133.88115 -0.044074707 -66.561516
10300000000 -1.2868701 -9.326354 -18.261961 -137.47925 -18.322926 -136.84987 -0.40892604 -67.481888
10400000000 -1.5856686 -16.763058 -18.326847 -139.2769 -18.247272 -139.13934 -0.29622388 -69.593155
10500000000 -0.77700013 -19.05962 -18.095932 -140.88803 -18.068115 -139.91936 -0.11301671 -68.382103
10600000000 -1.3468112 -19.929882 -18.090239 -144.22495 -18.078625 -143.80354 -0.37708923 -69.599861
10700000000 -1.5383152 -27.904339 -18.093927 -145.98012 -18.017616 -145.95764 -0.36981305 -71.543648
10800000000 -0.85610133 -30.251667 -17.891405 -147.93666 -17.873293 -147.42157 -0.21517815 -70.751694
10900000000 -1.3620958 -31.268925 -17.860243 -151.16171 -17.849466 -150.35815 -0.37343329 -71.06282
11000000000 -1.3615274 -39.000362 -17.921013 -153.07671 -17.887148 -152.8544 -0.44661587 -73.433754
11100000000 -0.634067 -40.482445 -17.711096 -154.94078 -17.643433 -154.43802 -0.25981134 -73.166916
11200000000 -1.2890022 -42.202 -17.746218 -158.29451 -17.674339 -157.28769 -0.41760209 -72.528915
11300000000 -1.421024 -49.981178 -17.82531 -160.54492 -17.809883 -160.36072 -0.56510836 -75.270729
11400000000 -0.74856502 -51.935478 -17.684835 -162.40294 -17.583197 -162.18576 -0.30156249 -75.317688
11500000000 -1.3440201 -53.225033 -17.701294 -164.75102 -17.672886 -163.65102 -0.53761846 -73.80558
11600000000 -1.3247962 -61.430634 -17.881386 -167.31577 -17.858303 -167.11157 -0.64925259 -76.750076
11700000000 -0.53844851 -62.754456 -17.69257 -168.67198 -17.603237 -168.53465 -0.35182866 -76.86396
11800000000 -1.2472059 -64.355934 -17.822327 -171.11517 -17.770187 -170.1496 -0.64858365 -75.255188
11900000000 -1.3975435 -72.294678 -18.064154 -172.69716 -18.036442 -172.46973 -0.74632573 -77.469215
12000000000 -0.772883 -73.06221 -17.942087 -172.70248 -17.824442 -172.5658 -0.38638937 -77.242882
12100000000 -1.3501444 -75.957436 -17.869148 -173.91389 -17.731033 -173.22462 -0.54032671 -76.125488
12200000000 -1.3056772 -84.307816 -17.83226 -174.94398 -17.8048 -174.72331 -0.60549003 -78.145271
12300000000 -0.72127146 -84.977577 -17.505249 -175.42786 -17.395607 -175.56847 -0.25367251 -78.667168
12400000000 -1.4899074 -88.667458 -17.276098 -178.07054 -17.064104 -177.69392 -0.29637411 -78.129593
12500000000 -1.3520098 -95.567581 -17.124674 179.42175 -17.146397 179.68513 -0.44662148 -80.246941
12600000000 -1.0003901 -95.446602 -16.942579 177.84059 -16.848324 177.74644 -0.17467359 -81.309547
12700000000 -1.6304827 -99.682579 -16.776903 175.05022 -16.518429 175.19189 -0.19423705 -80.887115
12800000000 -1.3162971 -107.33862 -16.763239 172.14684 -16.717125 172.21234 -0.3653082 -83.214233
12900000000 -1.0409989 -107.94169 -16.618828 170.23253 -16.529375 169.97601 -0.19941397 -84.315109
13000000000 -1.6657122 -111.83496 -16.515896 167.93378 -16.254702 167.00446 -0.25154313 -84.113518
13100000000 -1.3212748 -118.24604 -16.433586 164.60782 -16.46117 164.5939 -0.41164562 -85.509186
13200000000 -1.004802 -118.59463 -16.326689 162.87367 -16.256302 162.68224 -0.30267188 -86.660103
13300000000 -1.7133032 -122.76932 -16.247528 160.35936 -16.005081 159.00546 -0.28688216 -86.230995
13400000000 -1.3484683 -130.15802 -16.302521 157.09706 -16.282967 156.8517 -0.48310202 -87.377014
13500000000 -1.0201528 -130.48093 -16.268934 155.23007 -16.207172 155.16919 -0.35199961 -88.443413
13600000000 -1.695504 -134.33167 -16.270493 153.97836 -16.066893 152.43883 -0.25945443 -88.293365
13700000000 -1.3334985 -141.34483 -16.132063 151.41016 -16.187315 151.06018 -0.45002583 -89.483307
13800000000 -0.9106366 -141.24393 -15.921662 149.2977 -15.870579 149.45523 -0.36108473 -91.107704
13900000000 -1.7322826 -145.43622 -15.864184 147.55809 -15.687476 145.5477 -0.26834789 -90.616631
14000000000 -1.4299757 -152.80156 -15.88594 143.81261 -15.95168 143.39032 -0.52344209 -91.993515
14100000000 -1.0941826 -152.53958 -15.775477 141.72401 -15.727169 141.90059 -0.41999102 -93.239929
14200000000 -1.7896205 -156.45618 -15.733789 140.2648 -15.573042 138.5092 -0.4068625 -92.754738
14300000000 -1.3673083 -163.60677 -15.770644 136.76483 -15.80571 136.11476 -0.58619297 -93.749481
14400000000 -0.97114003 -163.45483 -15.578489 134.25926 -15.535588 134.50037 -0.53339136 -94.811768
14500000000 -1.7637116 -167.41338 -15.606157 133.18089 -15.463843 131.08641 -0.49000943 -94.285919
14600000000 -1.5042441 -174.51572 -15.686889 130.1429 -15.778471 128.78157 -0.57319075 -95.225494
14700000000 -1.2852414 -175.03955 -15.645435 127.23334 -15.59579 127.17595 -0.51998472 -96.465042
14800000000 -1.8075893 -178.51843 -15.616582 126.26254 -15.457352 123.78023 -0.46408758 -96.440369
14900000000 -1.5497466 175.01645 -15.735114 124.25555 -15.864981 122.69547 -0.54230261 -96.801872
15000000000 -1.2199442 173.12544 -15.56426 121.95486 -15.531826 121.9124 -0.48880252 -98.410393
15100000000 -1.7140278 170.05093 -15.338827 120.73672 -15.233771 117.96204 -0.4048813 -99.069954
15200000000 -1.5454321 164.48398 -15.344501 118.37397 -15.59746 116.43686 -0.58281213 -99.483383
15300000000 -1.4180915 162.40663 -15.352598 113.84715 -15.358062 113.42851 -0.66453874 -100.84455
15400000000 -1.7372504 158.79698 -15.471893 113.49011 -15.454964 110.04203 -0.49066377 -100.81457
15500000000 -1.5204588 153.53473 -15.360993 113.24267 -15.74713 110.69283 -0.59542131 -100.89927
15600000000 -1.3021934 151.15654 -15.253277 109.8105 -15.302718 109.65179 -0.66084999 -102.46513
15700000000 -1.6159277 147.09801 -14.951308 108.2569 -15.055724 105.239 -0.49785569 -102.87696
15800000000 -1.4100742 142.13208 -14.863746 106.07675 -15.355835 104.36916 -0.64682114 -102.93166
15900000000 -1.4359101 140.34424 -15.018083 101.66751 -15.148049 101.83399 -0.73478961 -104.34997
16000000000 -1.740827 135.58133 -14.864129 100.256 -15.193173 97.419014 -0.57638085 -104.83562
16100000000 -1.3621184 130.9558 -14.762989 99.409637 -15.312611 98.121254 -0.64485192 -104.52233
16200000000 -1.3728558 129.47377 -14.854589 95.953293 -15.022316 96.551102 -0.75301749 -105.94709
16300000000 -1.767619 124.76914 -14.603996 94.018372 -14.906227 92.397835 -0.57719469 -106.53202
16400000000 -1.3215578 120.43642 -14.393673 92.033661 -14.923969 92.036026 -0.66711819 -106.44839
16500000000 -1.4715928 119.49126 -14.588604 87.82325 -14.784586 89.37384 -0.778795 -108.08645
16600000000 -1.9241976 113.38164 -14.4451 85.419975 -14.765335 84.513145 -0.64645666 -108.57304
16700000000 -1.4937185 109.30484 -14.273438 83.675659 -14.782294 83.589798 -0.71184641 -108.12345
16800000000 -1.559251 109.51539 -14.551126 79.695091 -14.675355 81.376755 -0.80596685 -109.63292
16900000000 -2.0045054 104.19328 -14.580691 77.774986 -14.787641 77.470451 -0.68040669 -110.24372
17000000000 -1.4553628 100.17191 -14.402538 75.905434 -14.817514 76.529175 -0.74152422 -110.16892
17100000000 -1.6340196 99.823769 -14.68615 72.79776 -14.79483 74.469429 -0.81779492 -111.35312
17200000000 -2.0126026 93.962837 -14.69301 70.865608 -14.897015 70.771317 -0.69349843 -111.99275
17300000000 -1.6395065 90.060959 -14.585582 69.229042 -14.948127 69.6362 -0.72447759 -111.83176
17400000000 -1.7163417 89.696663 -14.757577 66.534698 -14.831103 68.096611 -0.80636245 -113.06362
17500000000 -2.0095501 84.857544 -14.850525 65.213409 -14.904239 65.234009 -0.69006079 -113.73509
17600000000 -1.4796088 81.030891 -14.626791 63.744648 -14.970203 64.222351 -0.71774936 -113.52235
17700000000 -1.5799469 80.008667 -14.743418 61.221951 -14.888583 62.5448 -0.8130756 -114.81562
17800000000 -1.9582511 74.293541 -14.803309 59.579678 -14.92247 59.531109 -0.66333753 -115.44235
17900000000 -1.5931283 70.16539 -14.598989 58.097897 -14.976203 58.589188 -0.65673649 -114.93069
18000000000 -1.7007368 69.465736 -14.714702 55.846424 -14.792973 56.682671 -0.74358374 -116.73347
18100000000 -1.9670631 64.417915 -14.753559 54.123997 -14.797803 54.367828 -0.60432208 -117.4493
18200000000 -1.4467852 60.819893 -14.536933 52.636879 -14.863975 53.412846 -0.69162887 -117.25771
18300000000 -1.5584658 59.973011 -14.513401 50.205269 -14.709731 51.38641 -0.78374749 -118.43905
18400000000 -1.8924863 53.525185 -14.562303 48.355015 -14.735058 48.65271 -0.61047757 -119.29172
18500000000 -1.479273 50.12748 -14.341451 47.050114 -14.719849 47.787601 -0.61318403 -118.71861
18600000000 -1.6893282 49.278004 -14.372611 44.373035 -14.553026 45.496632 -0.71042186 -120.51862
18700000000 -1.9214959 43.287289 -14.427711 42.311451 -14.559061 43.099892 -0.55914032 -121.45228
18800000000 -1.3741405 40.077576 -14.145885 40.407013 -14.46262 41.964596 -0.60564518 -121.39426
18900000000 -1.6539727 39.234409 -14.092714 38.172626 -14.368738 39.926289 -0.7677561 -122.45237
19000000000 -1.8368472 33.000111 -14.22775 35.787922 -14.411418 37.037022 -0.62018323 -123.31869
19100000000 -1.4592696 30.236158 -13.986633 34.363533 -14.282554 35.830959 -0.57224923 -122.92505
19200000000 -1.7758058 28.608524 -13.954339 31.676714 -14.182268 33.509193 -0.66346145 -124.51482
19300000000 -1.9088136 22.771284 -14.118431 28.951073 -14.193754 30.668243 -0.59765893 -125.56651
19400000000 -1.5102986 19.938438 -13.845575 26.858667 -14.077084 28.942564 -0.62667108 -125.80753
19500000000 -1.8191577 17.929104 -13.794316 24.03256 -13.976339 26.596321 -0.70408976 -126.68713
19600000000 -1.9736538 12.71742 -13.906304 21.696583 -13.999319 23.712147 -0.65923333 -127.269
19700000000 -1.7050467 9.8098211 -13.791469 19.449045 -13.93369 21.387449 -0.62756771 -127.43528
19800000000 -1.9391494 7.7192869 -13.740985 16.122383 -13.830898 18.575878 -0.65977216 -128.34741
19900000000 -2.1430628 2.662226 -13.989919 13.150523 -13.945993 15.39959 -0.66575748 -129.10661
20000000000 -1.9606179 -0.053748075 -14.020646 10.384521 -14.047083 12.412219 -0.66282809 -129.49803
20100000000 -2.1538603 -1.7844918 -14.124086 6.6965933 -14.17942 9.5502481 -0.67696112 -129.66759
20200000000 -2.3320599 -6.3488965 -14.728169 5.2963452 -14.662742 7.4540777 -0.6322301 -130.18866
20300000000 -2.0475748 -8.7723188 -15.048007 5.9439425 -15.039752 7.6410503 -0.48411083 -130.38997
20400000000 -2.0934346 -10.122647 -15.049058 6.8382492 -15.004996 9.1360216 -0.40649822 -131.50232
20500000000 -2.1189396 -15.124441 -15.057073 7.9455113 -14.856504 9.7911005 -0.35474408 -132.93677
20600000000 -1.7701496 -18.660549 -14.681032 7.5395622 -14.562377 9.3526821 -0.36092976 -134.12645
20700000000 -1.930238 -21.184845 -14.221136 5.9510274 -14.188256 7.7565746 -0.41071892 -135.05402
20800000000 -1.9819031 -26.637264 -14.168322 4.3534336 -14.023685 5.8199573 -0.42119098 -136.07562
20900000000 -1.7754842 -29.721756 -13.954395 3.0284331 -13.85438 4.0478082 -0.40425098 -136.54565
21000000000 -2.0025842 -32.619488 -13.727513 -0.010335712 -13.598749 1.483145 -0.43946475 -137.74893
21100000000 -2.0266972 -37.71273 -13.688351 -1.947503 -13.501461 -0.86825198 -0.43777561 -138.56062
21200000000 -1.7970566 -40.280231 -13.536656 -4.0878839 -13.411089 -2.861074 -0.48158729 -139.27917
21300000000 -2.0330806 -43.639889 -13.349812 -6.8554516 -13.24434 -5.5611963 -0.52729392 -139.89294
21400000000 -1.9888889 -48.979515 -13.319292 -8.7919874 -13.23192 -7.5305176 -0.49272004 -140.52852
21500000000 -1.8541261 -51.498081 -13.216722 -9.9615679 -13.107639 -9.2467346 -0.45201555 -141.01715
21600000000 -2.087198 -54.6539 -13.055035 -12.814046 -12.929013 -12.027688 -0.46085078 -142.07088
21700000000 -2.1158884 -59.991909 -13.033834 -15.426522 -12.912487 -14.383813 -0.49020422 -143.0616
21800000000 -1.9131117 -62.767036 -12.935155 -17.075012 -12.823167 -16.029203 -0.5042882 -143.79608
21900000000 -2.1376905 -65.735115 -12.737859 -19.446201 -12.65194 -18.579191 -0.50986379 -144.43767
22000000000 -2.1383708 -71.395958 -12.597437 -22.089991 -12.562301 -21.160965 -0.54689199 -145.17145
22100000000 -1.9160907 -74.251251 -12.568352 -24.531679 -12.458606 -23.58671 -0.55149186 -146.02524
22200000000 -2.223825 -76.774101 -12.490548 -26.844816 -12.383524 -26.275272 -0.53844714 -146.32884
22300000000 -2.3159676 -82.687431 -12.535776 -29.660021 -12.402874 -28.668062 -0.59120744 -147.18448
22400000000 -2.0028555 -85.914558 -12.434393 -31.57324 -12.310453 -30.404016 -0.56508058 -148.05714
22500000000 -2.333447 -88.489586 -12.317128 -33.691578 -12.212883 -33.014839 -0.56302404 -148.41158
22600000000 -2.2459335 -94.385857 -12.225064 -36.64185 -12.160096 -35.352329 -0.66469324 -149.31155
22700000000 -1.9563432 -96.88768 -12.275806 -38.670471 -12.112996 -37.42804 -0.61018455 -150.03082
22800000000 -2.3161278 -99.916924 -12.125815 -40.66869 -11.937349 -40.300274 -0.57280487 -150.07103
22900000000 -2.3857026 -106.32728 -12.111134 -43.346817 -11.979774 -42.614834 -0.60852408 -151.14383
23000000000 -2.1546671 -108.87861 -12.134657 -45.044849 -11.914146 -44.126892 -0.53872901 -151.9933
23100000000 -2.4772944 -112.07346 -11.989387 -47.404758 -11.767032 -47.037357 -0.55109805 -152.57599
23200000000 -2.2629178 -118.20435 -11.969556 -50.161594 -11.804659 -49.422134 -0.59827548 -153.71042
23300000000 -2.0331056 -120.54012 -12.013978 -52.599827 -11.707555 -51.280369 -0.55943322 -154.45
23400000000 -2.4050622 -124.23943 -11.756535 -54.568016 -11.511296 -54.978218 -0.59275395 -154.87012
23500000000 -2.3477383 -130.43095 -11.771277 -57.3564 -11.60572 -57.476501 -0.6294415 -155.85837
23600000000 -2.2011335 -132.88545 -11.813545 -59.289574 -11.523635 -59.059048 -0.56068605 -156.46114
23700000000 -2.5094228 -136.85176 -11.63738 -61.259312 -11.354712 -62.33213 -0.58526212 -156.92921
23800000000 -2.2842913 -142.62656 -11.727766 -64.468307 -11.525892 -64.621452 -0.61540699 -158.25795
23900000000 -2.0925267 -144.96402 -11.687764 -66.421577 -11.393269 -66.417686 -0.56325024 -158.98848
24000000000 -2.3909507 -149.1993 -11.592836 -68.736916 -11.393636 -70.068306 -0.63377994 -159.33115
24100000000 -2.2520516 -154.6252 -11.503984 -71.563301 -11.491136 -72.038475 -0.68346399 -160.43768
24200000000 -2.1942079 -156.93266 -11.555294 -73.314972 -11.36283 -73.594345 -0.59241462 -161.04968
24300000000 -2.5076206 -161.64162 -11.430355 -75.381393 -11.262935 -76.939613 -0.63408184 -160.92253
24400000000 -2.2499428 -167.27121 -11.371646 -78.149376 -11.354448 -79.451576 -0.66083401 -162.58775
24500000000 -2.1462228 -169.00659 -11.422861 -80.269356 -11.183186 -80.951584 -0.50871485 -163.45459
24600000000 -2.3860528 -173.65065 -11.29103 -83.023613 -11.220094 -84.402771 -0.62165046 -163.48199
24700000000 -2.0887971 -178.42673 -11.253778 -85.708046 -11.350099 -86.47934 -0.73660809 -165.1264
24800000000 -2.0886383 179.93782 -11.284096 -87.940498 -11.157257 -88.060394 -0.57953566 -165.755
24900000000 -2.4325912 173.82269 -11.16724 -90.112083 -11.19838 -91.644669 -0.64015698 -165.04968
25000000000 -2.1484637 168.65089 -11.186478 -92.713745 -11.286594 -94.173676 -0.73806518 -167.04759
25100000000 -2.2162778 166.78351 -11.231665 -95.259758 -11.129061 -95.832947 -0.51755077 -167.85313
25200000000 -2.4247069 161.8232 -11.149704 -97.235596 -11.176599 -98.819038 -0.61973816 -167.53935
25300000000 -2.0259817 157.82318 -11.108934 -100.23132 -11.332499 -101.16352 -0.77619004 -169.55408
25400000000 -2.0695412 155.93553 -11.132854 -102.77249 -11.123218 -102.8521 -0.58834064 -170.3008
25500000000 -2.3358796 149.86349 -11.063152 -104.63235 -11.173567 -106.20717 -0.67375457 -169.5303
25600000000 -2.1264501 145.51048 -11.067268 -107.45496 -11.366974 -108.49998 -0.76611358 -171.52605
25700000000 -2.2770925 143.05042 -11.089154 -110.06107 -11.182968 -110.43307 -0.57762581 -172.42758
25800000000 -2.3801246 137.92357 -11.053818 -111.92968 -11.237108 -113.07792 -0.65781158 -172.0799
25900000000 -2.0538268 134.57793 -11.035928 -114.66004 -11.382422 -115.02011 -0.77948546 -173.99081
26000000000 -2.1498861 132.11064 -11.08037 -117.40538 -11.21982 -117.28111 -0.61243492 -174.8712
26100000000 -2.2893276 126.71117 -11.080558 -119.31738 -11.330443 -120.23297 -0.6563369 -174.68562
26200000000 -2.1410666 123.18803 -11.040031 -122.11545 -11.505314 -122.0405 -0.75922406 -176.43573
26300000000 -2.3100369 120.46509 -11.166387 -124.63325 -11.336247 -123.85939 -0.63281846 -177.37007
26400000000 -2.3605192 115.41651 -11.137337 -126.68256 -11.398991 -126.47631 -0.66729432 -177.53767
26500000000 -2.0589561 112.28408 -11.071362 -128.74057 -11.509199 -127.61346 -0.7982468 -178.9268
26600000000 -2.2181604 109.6717 -11.198956 -131.22871 -11.382724 -130.04456 -0.67424881 -179.98431
26700000000 -2.3090198 105.02962 -11.252733 -133.04451 -11.472042 -132.13614 -0.71155989 -179.97708
26800000000 -2.1966214 102.29378 -11.17559 -135.05429 -11.517552 -133.5162 -0.80724514 178.08369
26900000000 -2.3852475 99.74395 -11.251704 -137.07599 -11.285676 -135.56094 -0.71774083 177.0284
27000000000 -2.3972833 94.716148 -11.109525 -139.6425 -11.141998 -137.69272 -0.8544386 176.82124
27100000000 -2.0866854 91.477371 -10.936944 -141.98309 -11.188422 -139.71948 -1.000262 175.27483
27200000000 -2.2501359 89.143646 -10.989102 -144.2019 -11.002656 -142.96422 -0.87194383 174.35895
27300000000 -2.2989714 84.723206 -10.954314 -146.5657 -10.923215 -145.02159 -0.97470742 174.90097
27400000000 -2.1912541 82.189003 -10.908681 -149.14967 -11.01116 -145.22435 -1.3701272 175.99844
27500000000 -2.3933129 79.626854 -10.923462 -152.36551 -10.594553 -147.9068 -0.57085395 176.28984
27600000000 -2.4748356 75.067596 -10.84425 -155.22194 -10.833417 -153.02077 -1.3473518 173.27502
27700000000 -2.3224058 71.895065 -10.673836 -159.0659 -10.810602 -157.42242 -1.5292239 169.12413
27800000000 -2.4815133 69.677193 -10.72521 -162.26418 -10.677961 -161.25662 -1.0816979 168.76797
27900000000 -2.5710988 65.886559 -10.817701 -165.45172 -10.785486 -164.24875 -1.4215727 172.228
28000000000 -2.4754629 63.322296 -10.828597 -170.55853 -11.000391 -168.94687 -2.2644808 167.16209
28100000000 -2.6901066 61.721088 -11.064814 -175.84448 -11.158147 -176.24857 -1.6251639 161.93555
28200000000 -2.9345281 58.998192 -11.907912 179.9792 -11.255602 -179.58649 -0.44027686 176.40155
28300000000 -2.712774 57.021545 -13.701046 -177.56903 -12.70365 -163.40257 0.65013367 -139.14569
28400000000 -2.638639 55.798023 -12.627021 -179.59747 -11.694571 -173.23372 2.1054049 -171.92992
28500000000 -2.5427363 51.944141 -13.637492 -178.82489 -13.598114 -175.47108 -1.2658261 175.96162
28600000000 -2.1737661 48.80056 -13.769291 -176.78433 -14.023039 -175.49229 -1.3395741 170.42577
28700000000 -2.1615443 46.648811 -13.684803 -175.46996 -13.782648 -174.68593 -1.070702 168.95016
28800000000 -2.2401028 42.400066 -13.541709 -174.3474 -13.557448 -173.15169 -0.95869839 169.45271
28900000000 -2.0679595 39.257477 -13.285913 -174.61856 -13.43327 -173.00923 -0.92152995 169.3821
29000000000 -2.1258366 36.605682 -13.001521 -175.9391 -13.171477 -174.34666 -0.89389223 167.255
29100000000 -2.1458759 31.659624 -12.840213 -177.32906 -12.886362 -175.49088 -0.71591967 165.78427
29200000000 -1.9341345 28.627525 -12.591798 -178.50629 -12.740421 -176.51866 -0.73428768 165.73241
29300000000 -2.1057723 26.773832 -12.398449 179.05078 -12.601299 -178.91476 -0.85498112 163.90155
29400000000 -2.1791854 22.801746 -12.385877 177.36513 -12.453318 179.48874 -0.71749532 162.37241
29500000000 -1.9502574 20.88896 -12.269872 175.73386 -12.401074 178.40253 -0.73488945 162.34647
29600000000 -2.1145785 18.056889 -12.211599 173.72301 -12.338644 176.52316 -0.8859514 160.76181
29700000000 -2.1041152 12.61453 -12.158793 171.5873 -12.134672 174.67108 -0.83924884 159.28027
29800000000 -1.9743464 10.074508 -11.992887 170.26266 -11.9969 173.33957 -0.83919096 159.48703
29900000000 -2.2562137 8.0567303 -11.768389 167.57594 -11.850513 170.81578 -0.96876132 158.41422
30000000000 -2.3102639 4.134028 -11.780725 165.412 -11.726194 168.57867 -0.88392299 157.08881
30100000000 -2.0892072 2.8545201 -11.68543 164.01825 -11.646134 167.16647 -0.86287636 157.28734
30200000000 -2.2363591 0.43163466 -11.690392 161.29454 -11.604165 164.86545 -1.0022287 156.20346
30300000000 -2.1842728 -5.3880501 -11.693507 159.44264 -11.514665 162.39194 -0.88196689 154.78882
30400000000 -2.0599558 -8.0688038 -11.754161 158.09482 -11.451207 160.91835 -0.82040077 154.6113
30500000000 -2.3911419 -10.546699 -11.574298 155.65536 -11.371575 158.94194 -1.0124079 153.39981
30600000000 -2.4603214 -14.542226 -11.57212 154.20903 -11.222873 156.75391 -0.91562003 151.88953
30700000000 -2.242702 -15.734838 -11.444758 152.58838 -11.10185 155.14256 -0.89179629 152.10201
30800000000 -2.4007807 -18.317244 -11.37439 150.23608 -11.106451 152.91495 -1.1322749 150.59357
30900000000 -2.3085718 -23.69194 -11.454553 149.09714 -11.03002 150.74229 -1.0176589 149.01537
31000000000 -2.3252976 -26.999592 -11.297174 147.39677 -10.908771 149.35829 -1.0511942 149.92506
31100000000 -2.3094776 -31.328112 -11.162817 145.78738 -10.826079 147.15622 -1.2994864 148.47289
31200000000 -1.6660041 -34.228714 -11.072725 142.88739 -10.580638 143.83958 -1.072101 147.14713
31300000000 -2.4502046 -33.918995 -10.933943 142.24612 -10.464074 143.27956 -1.0884943 148.98813
31400000000 -2.7116294 -41.849579 -10.864601 139.47375 -10.488134 141.47736 -1.5321095 146.36736
31500000000 -1.2421402 -41.677704 -10.62621 136.53551 -10.413909 138.9048 -1.3967137 145.16763
31600000000 -1.4677562 -27.203346 -10.8707 134.57173 -10.695229 135.33981 -1.0259579 146.98801
31700000000 -3.8708618 -37.922882 -10.557783 134.4185 -10.274387 135.16817 -1.2775751 145.43219
31800000000 -3.4887366 -58.788673 -10.402004 132.02882 -10.060217 132.03278 -1.0618379 142.815
31900000000 -2.2296178 -56.263405 -10.374446 129.51193 -9.9797726 129.85109 -0.95204353 143.69096
32000000000 -3.1216176 -55.412876 -10.173337 127.5161 -9.8746157 128.0751 -1.2536486 142.80942
32100000000 -3.033891 -66.203796 -10.075267 124.5547 -9.8006907 124.70909 -1.1896596 140.37648
32200000000 -2.4507639 -67.007706 -9.9782467 122.36971 -9.689332 122.8599 -1.0586123 140.94849
32300000000 -3.2143903 -69.333023 -9.7706432 120.4174 -9.5613565 120.60413 -1.2930799 140.90733
32400000000 -3.1644306 -77.599716 -9.7646408 117.09249 -9.5144997 117.38031 -1.252838 138.52745
32500000000 -2.7558019 -77.470322 -9.5948496 114.83949 -9.3467541 115.38439 -1.0571201 138.84348
32600000000 -3.3614819 -79.503838 -9.5341978 112.83689 -9.2835512 113.25151 -1.2481966 138.42226
32700000000 -3.0876985 -87.714401 -9.5088263 109.21087 -9.2954378 109.84003 -1.2727692 135.88821
32800000000 -2.6762533 -88.509979 -9.3697681 107.00477 -9.1811447 107.90245 -1.171087 135.70242
32900000000 -3.4956048 -93.08268 -9.3086386 104.34657 -9.0870008 105.2356 -1.384416 135.59296
33000000000 -3.4432697 -100.74736 -9.199234 101.2031 -9.0847511 101.96303 -1.4864216 133.75233
33100000000 -3.1668949 -101.05659 -9.2442904 98.700859 -9.0012617 99.521072 -1.3868679 133.80943
33200000000 -3.7304351 -103.65766 -9.1748695 96.768349 -8.9163408 97.622765 -1.5267912 134.18503
33300000000 -3.4049165 -111.32266 -9.2175608 93.431847 -9.0232306 94.698433 -1.5353459 132.5518
33400000000 -3.2122333 -112.4846 -9.2789507 91.194206 -8.9542313 92.692574 -1.4077085 132.10727
33500000000 -3.7568758 -117.79332 -9.099122 89.009544 -8.757678 90.36985 -1.5563352 131.8795
33600000000 -3.6706202 -125.67485 -9.0355816 85.974304 -8.7894592 87.242905 -1.6139636 130.47287
33700000000 -3.5974956 -127.53603 -9.0115986 83.299477 -8.6632261 84.311775 -1.5531883 130.4037
33800000000 -4.1585965 -131.5343 -8.9087248 81.848312 -8.4901619 81.984253 -1.6451191 130.32307
33900000000 -3.8385537 -137.81787 -8.9993362 78.389984 -8.5994034 78.66021 -1.5964328 128.97408
34000000000 -3.8171377 -139.05986 -9.0314827 75.544991 -8.5501184 76.033478 -1.5061948 128.78578
34100000000 -4.2149844 -144.5667 -8.9614496 73.642052 -8.4081173 73.394623 -1.5962894 127.71767
34200000000 -3.9271331 -151.05374 -8.9255438 70.500961 -8.5388308 70.100388 -1.6327575 126.31827
34300000000 -3.8769541 -153.51878 -8.907423 68.105583 -8.5033016 67.477394 -1.6485171 126.19317
34400000000 -4.1938825 -159.45372 -8.7695799 66.113518 -8.3290777 64.289024 -1.7738148 125.87088
34500000000 -3.8872287 -165.12834 -8.7960844 63.108799 -8.4751997 61.203255 -1.7307072 124.97874
34600000000 -3.9876225 -167.44618 -8.8298845 60.037823 -8.432107 58.207809 -1.6388379 124.6672
34700000000 -4.3368235 -173.19194 -8.7595396 57.237354 -8.3610573 54.885517 -1.7196057 123.84235
34800000000 -4.0779629 -178.52644 -8.7937565 54.081345 -8.5687246 51.96109 -1.806089 122.42593
34900000000 -4.2109308 179.09668 -8.8980074 51.10133 -8.6621342 49.43478 -1.7729386 121.92482
35000000000 -4.3151035 172.75496 -8.8653421 49.134239 -8.649106 46.537724 -1.8715538 121.99069
35100000000 -3.865171 168.08289 -8.9201231 46.765572 -8.8719931 44.470898 -1.9385567 120.76194
35200000000 -4.0986881 165.79428 -8.9727125 44.101868 -8.8591738 41.975525 -1.9238123 119.95088
35300000000 -4.3525348 159.25713 -8.8556166 41.771812 -8.7496414 39.139858 -2.0477564 120.42058
35400000000 -3.9909163 155.15459 -8.8019161 38.706348 -8.8219528 36.70084 -2.123508 120.07988
35500000000 -4.1982594 153.35951 -8.8402958 35.041977 -8.8048553 33.443592 -2.0567191 119.01859
35600000000 -4.3704133 146.86353 -8.8644428 31.74033 -8.8116703 29.871775 -2.134048 120.21685
35700000000 -3.8074911 142.02885 -8.9696884 28.659874 -9.052599 27.033028 -2.0708668 119.87979
35800000000 -4.0459356 140.48779 -9.163372 25.202263 -9.1865139 23.956856 -1.9219037 118.24105
35900000000 -4.4137998 133.63998 -9.2828112 22.115726 -9.2882433 20.451275 -1.9254425 118.42731
36000000000 -4.0167685 130.16716 -9.4144392 19.550793 -9.5661993 18.235037 -2.050406 118.43613
36100000000 -4.2148476 129.77675 -9.6904545 16.711172 -9.7644634 15.77445 -1.9716084 117.05167
36200000000 -4.5206676 123.58371 -9.9065914 14.442176 -9.9513302 13.227171 -1.8026521 116.93082
36300000000 -3.9033692 119.67871 -10.091659 12.326432 -10.238239 11.639602 -1.974237 116.81674
36400000000 -4.0407877 119.5099 -10.371792 10.104815 -10.468292 9.7820816 -2.0602574 115.02662
36500000000 -4.3436208 113.48895 -10.574188 8.2696247 -10.646786 7.6061697 -1.9641103 115.24569
36600000000 -3.7209806 110.34852 -10.700951 6.9804578 -10.874115 6.4413104 -2.1621451 116.52264
36700000000 -3.8231251 110.62056 -10.890537 4.9745374 -11.075268 5.1059346 -2.1007731 116.30912
36800000000 -3.9252236 104.13963 -11.228939 3.9536932 -11.311833 3.4747295 -1.552519 116.70829
36900000000 -3.1779208 99.892426 -11.418086 3.1848302 -11.594942 3.4269822 -1.4389508 116.00178
37000000000 -3.274946 99.228645 -11.570656 2.5094554 -11.694239 3.4073653 -1.4611467 112.5431
37100000000 -3.4833562 92.283089 -11.603792 2.032835 -11.680708 2.3794913 -1.4234774 111.47482
37200000000 -2.7852323 89.40876 -11.578175 1.3657683 -11.717883 2.203002 -1.6900203 111.7707
37300000000 -3.0143585 89.256889 -11.55154 0.79832894 -11.687267 2.0894263 -1.7572312 110.63644
37400000000 -3.0961859 81.512444 -11.546761 0.19837561 -11.553534 0.81684333 -1.4279755 111.50351
37500000000 -2.344897 77.753906 -11.352246 -0.4195438 -11.48135 0.095054135 -1.3969773 111.61379
37600000000 -2.720206 76.257317 -11.288733 -2.6161528 -11.352289 -1.2429904 -1.2769092 108.41847
37700000000 -2.8466024 68.484535 -11.224445 -4.3757687 -11.252911 -3.5525181 -1.0950685 107.42564
37800000000 -2.3120217 67.168076 -11.15955 -5.8192835 -11.19131 -4.9447975 -1.3891704 106.69622
37900000000 -2.7524352 67.581505 -11.11947 -7.8707633 -11.093151 -6.5592012 -1.4422368 103.64169
38000000000 -2.8204286 59.851345 -11.13309 -9.6529112 -11.102638 -8.8189077 -1.2928144 104.20363
38100000000 -2.0700691 58.384266 -11.138984 -10.397388 -11.144221 -9.8240452 -1.6506058 104.9864
38200000000 -2.6174619 58.039074 -11.056917 -11.952861 -11.065798 -10.741554 -1.6824162 101.91987
38300000000 -2.7182429 48.265137 -10.981152 -13.434637 -10.93505 -12.59544 -1.3143538 102.84855
38400000000 -2.0088663 47.656532 -10.804651 -14.26249 -10.804252 -13.783656 -1.5733283 104.58899
38500000000 -2.7233284 48.385212 -10.697531 -16.744989 -10.660862 -15.9237 -1.668806 100.36227
38600000000 -2.8400631 40.395424 -10.575887 -19.120481 -10.544412 -18.238482 -1.2004176 100.77969
38700000000 -1.9618603 39.928883 -10.413791 -20.628645 -10.438971 -20.001356 -1.4477777 102.01196
38800000000 -2.6989572 40.702797 -10.403175 -23.164312 -10.37833 -22.401283 -1.6910573 97.670158
38900000000 -2.7593715 30.924286 -10.31347 -25.970316 -10.283526 -25.311029 -1.1409163 98.201965
39000000000 -1.9635915 31.210785 -10.20604 -27.224262 -10.229858 -26.909954 -1.4040034 100.62856
39100000000 -2.6682496 31.480062 -10.267506 -30.283318 -10.27307 -29.438919 -1.4799192 95.623848
39200000000 -2.7112091 22.226389 -10.25663 -33.083969 -10.267932 -32.033737 -1.0258784 95.279282
39300000000 -2.0316708 22.231148 -10.271967 -34.512867 -10.26399 -33.851597 -1.376968 96.98558
39400000000 -2.7924016 22.362457 -10.256515 -36.684673 -10.279605 -35.359669 -1.6954002 93.134544
39500000000 -2.7683916 14.240549 -10.293641 -38.775322 -10.289143 -37.758835 -1.285985 93.189407
39600000000 -2.1209099 15.107553 -10.190989 -40.264904 -10.217961 -39.210114 -1.5066135 95.928947
39700000000 -2.7066343 14.910771 -10.219239 -42.070724 -10.244096 -40.634434 -1.6310654 92.756187
39800000000 -2.4873965 6.5690594 -10.274374 -44.827175 -10.284381 -42.867794 -1.1241064 91.829163
39900000000 -1.995487 6.5278568 -10.153076 -46.150826 -10.194366 -44.372612 -1.2742836 92.375877
40000000000 -2.7567713 4.5474968 -10.091365 -48.00341 -10.062363 -45.799335 -1.4445062 89.594925
