!Keysight Technologies,N5247B,MY61255062,A.19.80.06
!Date: Monday, May 18, 2026 13:08:40
!Correction: S11(Cdelta 2-Port  ) 
!S21(Cdelta 2-Port  ) 
!S12(Cdelta 2-Port  ) 
!S22(Cdelta 2-Port  ) 
!S2P File: Measurements: S11, S21, S12, S22:
# Hz S  dB   R 50
1000000000 -27.045885 -29.226881 -0.4025518 -20.99383 -0.39846385 -20.976543 -27.126274 -30.041883
1100000000 -26.950706 -32.622334 -0.41283885 -23.036657 -0.40971482 -23.025415 -27.071756 -32.846054
1200000000 -26.879522 -35.538448 -0.42253655 -25.038475 -0.41951248 -25.024651 -27.035278 -35.194248
1300000000 -26.875156 -38.4006 -0.42882195 -27.103203 -0.42639738 -27.089062 -26.868967 -38.054523
1400000000 -26.74144 -41.061687 -0.43328953 -29.087477 -0.4283888 -29.076048 -26.759426 -40.447659
1500000000 -26.744753 -44.715702 -0.43680152 -31.127993 -0.43040055 -31.11828 -26.545853 -42.77161
1600000000 -26.599989 -47.596634 -0.43916973 -33.169621 -0.43581009 -33.149422 -26.335667 -46.662746
1700000000 -26.558416 -50.950558 -0.44087332 -35.201336 -0.43556398 -35.188473 -26.220402 -48.912254
1800000000 -26.337328 -53.530533 -0.4438054 -37.248703 -0.44006342 -37.232685 -26.029284 -51.701408
1900000000 -26.257362 -56.988232 -0.44791621 -39.296883 -0.44299522 -39.291508 -25.882732 -54.746258
2000000000 -26.230879 -60.064808 -0.45137975 -41.345428 -0.44828814 -41.348125 -25.702183 -57.7458
2100000000 -26.187143 -63.206505 -0.45376313 -43.392391 -0.45257357 -43.382092 -25.58993 -60.464066
2200000000 -26.240105 -66.954887 -0.45900559 -45.443378 -0.45640054 -45.435467 -25.425085 -63.387939
2300000000 -26.177284 -69.672768 -0.46340904 -47.488922 -0.45956352 -47.476002 -25.339659 -65.675362
2400000000 -26.112694 -72.683022 -0.46840137 -49.522079 -0.4635663 -49.517269 -25.285683 -68.048279
2500000000 -26.053335 -74.965012 -0.47193813 -51.583157 -0.47014675 -51.568127 -25.169584 -70.768585
2600000000 -26.005219 -78.472076 -0.48042274 -53.632229 -0.47782183 -53.626698 -25.141254 -73.884163
2700000000 -26.113577 -81.802376 -0.48813859 -55.679577 -0.48412469 -55.650986 -25.078108 -77.372955
2800000000 -26.146301 -84.869835 -0.49653855 -57.687305 -0.49278596 -57.66843 -24.9848 -79.820435
2900000000 -26.299768 -88.22245 -0.49973905 -59.718666 -0.4951092 -59.69207 -24.791401 -82.015137
3000000000 -26.300421 -89.819214 -0.50471431 -61.715 -0.50191081 -61.709652 -24.852436 -84.034355
3100000000 -26.418861 -93.047684 -0.50548983 -63.747086 -0.50292563 -63.726116 -24.798326 -85.559448
3200000000 -26.353437 -94.458443 -0.51232642 -65.790138 -0.50472945 -65.758141 -24.910038 -87.915833
3300000000 -26.331888 -98.935036 -0.51492882 -67.812164 -0.50889134 -67.790756 -24.790857 -90.092957
3400000000 -26.613827 -102.00417 -0.51960176 -69.852676 -0.51687759 -69.834221 -24.842913 -93.335068
3500000000 -26.559649 -104.88046 -0.52614558 -71.870605 -0.52272004 -71.846291 -24.754948 -94.982353
3600000000 -26.658695 -106.99263 -0.52811718 -73.869743 -0.52398473 -73.856598 -24.72027 -97.084946
3700000000 -26.539904 -108.94501 -0.52985722 -75.869049 -0.52439564 -75.867363 -24.645281 -97.634697
3800000000 -26.71858 -112.17807 -0.52903026 -77.908913 -0.52627647 -77.89817 -24.571054 -99.724571
3900000000 -26.742785 -112.91051 -0.52969372 -79.964958 -0.52619058 -79.948921 -24.704031 -101.75609
4000000000 -26.894711 -115.84198 -0.53750098 -82.015305 -0.53332824 -81.993538 -24.750759 -104.36012
4100000000 -27.080582 -116.93895 -0.54595941 -84.045982 -0.54146188 -84.02787 -24.937344 -105.67902
4200000000 -27.310326 -119.9445 -0.55252171 -86.040535 -0.54759943 -86.026497 -24.723846 -107.10098
4300000000 -27.590002 -121.4019 -0.55245495 -88.038925 -0.55009353 -88.021873 -24.800583 -109.10798
4400000000 -27.774416 -124.34693 -0.55480653 -90.042076 -0.55127186 -90.041779 -24.885115 -110.38087
4500000000 -28.021782 -126.33454 -0.55474299 -92.065948 -0.55027658 -92.05838 -25.028532 -112.11722
4600000000 -28.186712 -128.84995 -0.55504358 -94.097046 -0.55376184 -94.086197 -25.075808 -113.56387
4700000000 -28.422501 -132.01575 -0.55792546 -96.132729 -0.55470562 -96.122849 -25.027454 -115.77521
4800000000 -28.713566 -134.27827 -0.56052321 -98.155708 -0.55793548 -98.151779 -25.08046 -116.92093
4900000000 -29.014622 -135.30879 -0.5637064 -100.18645 -0.56017631 -100.16704 -25.007917 -118.06264
5000000000 -29.414806 -136.48753 -0.56518507 -102.22984 -0.56194425 -102.2037 -25.129826 -117.83258
5100000000 -29.73328 -136.28561 -0.56845605 -104.24767 -0.56541032 -104.22128 -25.32251 -118.22816
5200000000 -30.029661 -138.48193 -0.56707597 -106.26099 -0.56799191 -106.24928 -25.717957 -119.29749
5300000000 -30.286585 -139.61957 -0.57073629 -108.30933 -0.56915921 -108.27139 -25.885731 -121.83743
5400000000 -30.586924 -144.11615 -0.57466203 -110.32037 -0.5721063 -110.31344 -26.022776 -125.12369
5500000000 -31.168455 -145.36893 -0.57532012 -112.351 -0.57355177 -112.33487 -25.767956 -126.28577
5600000000 -31.398499 -146.92633 -0.58132762 -114.38372 -0.57662684 -114.3518 -25.739914 -126.61123
5700000000 -32.217773 -144.92404 -0.58359122 -116.39072 -0.57840711 -116.36789 -25.658546 -123.86999
5800000000 -32.289936 -144.62268 -0.58295554 -118.41763 -0.58078545 -118.38226 -26.071455 -123.44818
5900000000 -33.098686 -146.39676 -0.58552688 -120.42389 -0.58060974 -120.41256 -26.661673 -123.33549
6000000000 -33.162041 -146.57793 -0.5830695 -122.43312 -0.58131307 -122.41786 -27.122225 -127.91802
6100000000 -34.214622 -150.22241 -0.58575881 -124.4458 -0.58071297 -124.42622 -27.3605 -130.45624
6200000000 -35.106274 -148.76105 -0.58418876 -126.48706 -0.57902378 -126.47386 -27.019135 -132.11012
6300000000 -36.298866 -151.57924 -0.58370906 -128.55135 -0.57819921 -128.52498 -26.952963 -129.35924
6400000000 -37.187302 -146.72603 -0.58960837 -130.55977 -0.58746785 -130.55098 -26.835392 -128.05574
6500000000 -37.393047 -150.83231 -0.58905929 -132.62956 -0.58552039 -132.60072 -27.83955 -126.23969
6600000000 -38.358154 -146.22066 -0.59425998 -134.66896 -0.59202313 -134.64069 -28.447796 -125.55077
6700000000 -39.212624 -144.87756 -0.60025507 -136.67366 -0.59794801 -136.6481 -28.862661 -128.48726
6800000000 -39.824722 -120.58714 -0.60460871 -138.69182 -0.59645849 -138.68909 -28.538828 -130.23047
6900000000 -38.718243 -111.25172 -0.60016418 -140.73395 -0.59929186 -140.70624 -28.371689 -127.99675
7000000000 -38.337814 -99.027184 -0.61033213 -142.79211 -0.60812569 -142.76122 -27.947758 -123.63618
7100000000 -38.832928 -100.55436 -0.61347777 -144.72897 -0.61065626 -144.68739 -28.719864 -121.72106
7200000000 -39.626625 -89.6716 -0.60523951 -146.73276 -0.60114658 -146.72293 -29.438322 -118.69458
7300000000 -38.746422 -84.30407 -0.6022253 -148.80199 -0.59667289 -148.77881 -30.138699 -121.79608
7400000000 -38.158691 -76.840599 -0.60414457 -150.91246 -0.59833753 -150.88602 -29.706696 -123.95784
7500000000 -36.462513 -75.962402 -0.62217623 -152.94534 -0.61744535 -152.92314 -28.867733 -123.67535
7600000000 -35.281704 -67.407578 -0.61820936 -154.90292 -0.61787599 -154.86879 -28.626215 -116.86847
7700000000 -34.165577 -69.534698 -0.61387372 -156.91562 -0.60942954 -156.90305 -28.595589 -108.73872
7800000000 -33.64064 -72.677917 -0.61436599 -158.97421 -0.60985786 -158.93869 -29.43651 -103.66344
7900000000 -33.630955 -74.868324 -0.61500627 -161.00659 -0.60988855 -160.99783 -30.476248 -105.2073
8000000000 -33.33041 -72.418106 -0.61519599 -163.06161 -0.61187232 -163.0434 -30.560238 -112.60146
8100000000 -32.509018 -71.102417 -0.61812729 -165.10242 -0.61545187 -165.0779 -29.366755 -115.70232
8200000000 -31.667543 -70.183372 -0.61867559 -167.14285 -0.61622536 -167.12636 -27.973877 -111.48055
8300000000 -31.007662 -74.836029 -0.62015307 -169.19829 -0.61857378 -169.15852 -27.54645 -100.39379
8400000000 -31.276024 -76.866516 -0.62485397 -171.25752 -0.62110448 -171.2408 -28.602879 -89.857285
8500000000 -31.369646 -75.831398 -0.64212048 -173.36444 -0.63669616 -173.35529 -32.419014 -85.317413
8600000000 -30.569706 -73.606651 -0.70937461 -175.42162 -0.70348823 -175.39081 -39.574833 -164.86674
8700000000 -31.977694 -83.919067 -0.72528911 -176.34154 -0.71919906 -176.33041 -28.786724 113.60587
8800000000 -30.231075 -73.763367 -0.56361943 -178.79068 -0.55978167 -178.75894 -33.83382 105.85652
8900000000 -29.500463 -81.310921 -0.59427422 178.72424 -0.59126318 178.75317 -33.46315 -156.21309
9000000000 -29.306862 -83.586639 -0.62267125 176.62723 -0.61710161 176.65057 -27.796677 -129.99352
9100000000 -28.685236 -81.786179 -0.63253486 174.5992 -0.63257051 174.64073 -25.832867 -113.72875
9200000000 -28.295471 -85.203896 -0.64086235 172.59195 -0.63549978 172.61105 -25.14922 -100.3152
9300000000 -28.341597 -86.794975 -0.646662 170.58148 -0.64627534 170.597 -26.034292 -89.561241
9400000000 -28.307392 -91.163727 -0.64839697 168.58734 -0.64631981 168.60858 -26.974192 -86.647415
9500000000 -28.295204 -91.534218 -0.65095592 166.55603 -0.65136462 166.58528 -28.159979 -91.409088
9600000000 -27.719294 -93.095016 -0.65337861 164.52356 -0.65119082 164.55441 -27.526693 -99.999092
9700000000 -27.480684 -94.003792 -0.65332502 162.49451 -0.65287703 162.51146 -26.673777 -102.24051
9800000000 -27.27141 -95.388115 -0.65919352 160.44203 -0.65399635 160.48027 -25.843672 -98.727875
9900000000 -27.441574 -98.655899 -0.6599474 158.41093 -0.65498805 158.45444 -25.750069 -93.69001
10000000000 -27.632526 -100.06754 -0.66446686 156.38445 -0.65986544 156.40018 -26.027807 -89.959579
10100000000 -27.56221 -101.5368 -0.6663484 154.33585 -0.66458207 154.35854 -26.946659 -92.305313
10200000000 -27.3986 -100.89565 -0.67038214 152.30205 -0.66859514 152.32153 -26.908337 -97.609924
10300000000 -27.024809 -102.68436 -0.67972541 150.23267 -0.67316443 150.27585 -26.261183 -103.09461
10400000000 -26.981424 -106.23842 -0.6826964 148.20332 -0.68071723 148.25479 -25.336187 -102.29032
10500000000 -26.902536 -110.03524 -0.69048458 146.20058 -0.68802357 146.22916 -24.570856 -99.357719
10600000000 -27.228903 -112.4791 -0.69105637 144.172 -0.69006944 144.21141 -24.451475 -93.847015
10700000000 -27.274725 -112.44072 -0.69511735 142.16212 -0.69347054 142.20943 -24.791033 -90.944748
10800000000 -27.42152 -113.2152 -0.69695389 140.16884 -0.69540751 140.2115 -25.438095 -89.521805
10900000000 -27.374416 -112.51286 -0.70155734 138.14699 -0.70081782 138.20316 -25.986162 -93.872581
11000000000 -27.165588 -116.3383 -0.70685107 136.14433 -0.70382851 136.17574 -25.883181 -97.537689
11100000000 -27.311897 -120.03761 -0.71163613 134.12494 -0.71023661 134.16072 -25.317974 -101.41617
11200000000 -27.354204 -122.95265 -0.71470684 132.12309 -0.71161479 132.15584 -24.672894 -100.76711
11300000000 -27.751661 -123.87607 -0.71776199 130.13623 -0.71457899 130.15376 -24.346811 -99.70639
11400000000 -27.743509 -123.46279 -0.71811104 128.11092 -0.7145201 128.15111 -24.033684 -96.424538
11500000000 -27.871775 -125.54052 -0.71915382 126.1149 -0.71527267 126.12924 -24.056627 -95.740417
11600000000 -27.857115 -127.10769 -0.72086698 124.10738 -0.71705663 124.11008 -24.445889 -94.757332
11700000000 -28.099976 -130.12711 -0.72462749 122.09645 -0.71961486 122.11161 -24.613585 -95.822716
11800000000 -28.296642 -132.80121 -0.72351307 120.08263 -0.72042453 120.11629 -24.662487 -96.968559
11900000000 -28.632191 -134.95023 -0.72757822 118.07556 -0.72364575 118.10185 -24.601763 -99.011307
12000000000 -28.939505 -136.43799 -0.72656554 116.08101 -0.72660291 116.09897 -24.266632 -99.67849
12100000000 -29.061203 -137.70354 -0.73157769 114.0619 -0.72519702 114.10793 -24.041784 -101.06116
12200000000 -28.976315 -140.00705 -0.7309745 112.05083 -0.72878951 112.0852 -23.826777 -101.18421
12300000000 -29.355967 -142.90036 -0.7326923 110.05917 -0.72730398 110.09084 -23.746269 -100.71777
12400000000 -29.729517 -145.24901 -0.73233962 108.07581 -0.72722995 108.08746 -23.917078 -100.15094
12500000000 -30.835772 -149.0002 -0.72630697 106.04869 -0.72673172 106.07866 -24.022116 -101.18231
12600000000 -30.978388 -151.45595 -0.72578102 104.05446 -0.7217952 104.07458 -23.971552 -101.68845
12700000000 -31.548882 -155.44191 -0.72001171 102.01328 -0.71718913 102.05758 -23.98271 -103.02988
12800000000 -31.539841 -156.30893 -0.71662247 99.990097 -0.71273315 100.02257 -23.930983 -101.49461
12900000000 -32.176899 -159.78308 -0.71583486 97.951881 -0.71201944 97.976082 -24.095116 -102.71159
13000000000 -33.108707 -157.76312 -0.71658128 95.917099 -0.7083174 95.946747 -24.145678 -102.80473
13100000000 -34.193264 -168.19914 -0.71362793 93.873734 -0.70949715 93.882721 -24.055862 -104.4593
13200000000 -35.983158 -169.22469 -0.71476209 91.828911 -0.70816171 91.837433 -23.847824 -103.64959
13300000000 -36.523907 -179.56645 -0.71107018 89.779839 -0.70756876 89.795143 -23.384188 -102.82733
13400000000 -39.998329 -177.9511 -0.71176362 87.732254 -0.70665002 87.77018 -23.458845 -100.81794
13500000000 -40.634907 176.95065 -0.71138275 85.673065 -0.70930451 85.707695 -23.599173 -98.453041
13600000000 -45.644646 163.93083 -0.71673423 83.627235 -0.71213078 83.660286 -23.805389 -95.631615
13700000000 -48.801777 161.56934 -0.71987545 81.556404 -0.71688843 81.594269 -23.875126 -97.377708
13800000000 -56.412697 59.614323 -0.73363346 79.487877 -0.72799021 79.52169 -24.005571 -97.610245
13900000000 -51.123375 -61.920624 -0.75446671 77.470802 -0.75314695 77.50959 -23.232677 -100.15905
14000000000 -49.711842 15.559667 -0.75623232 75.659767 -0.75145298 75.69561 -23.14938 -101.46883
14100000000 -45.699585 37.334747 -0.73908001 73.64978 -0.73413217 73.691727 -23.002403 -101.16695
14200000000 -39.481182 30.034906 -0.72672683 71.575653 -0.72659618 71.622208 -23.208183 -97.821991
14300000000 -38.949146 16.2096 -0.72510922 69.496887 -0.72177225 69.526497 -23.23838 -97.496361
14400000000 -36.355167 14.394198 -0.72539496 67.4217 -0.72387087 67.481972 -23.205492 -95.478851
14500000000 -34.882839 -0.77755123 -0.72998339 65.368256 -0.7296052 65.391975 -23.229952 -95.684151
14600000000 -32.897106 -2.9912367 -0.73711026 63.303642 -0.73458248 63.346756 -23.354959 -93.321228
14700000000 -32.093018 -11.875175 -0.74965978 61.264217 -0.7467069 61.296524 -23.171318 -94.233421
14800000000 -32.912102 -16.328936 -0.77420753 59.319004 -0.77138138 59.3592 -23.386263 -96.366966
14900000000 -32.912666 -15.034211 -0.75374949 57.436981 -0.7510708 57.482113 -23.718435 -100.9536
15000000000 -31.777296 -10.894201 -0.7426554 55.366161 -0.73938471 55.410484 -23.202587 -100.99887
15100000000 -29.983389 -14.868222 -0.74583572 53.281284 -0.74130976 53.33527 -22.741051 -100.91018
15200000000 -29.62686 -14.624517 -0.74650586 51.253441 -0.7441327 51.278214 -22.273764 -97.835281
15300000000 -28.327162 -20.371031 -0.7538172 49.208332 -0.74704969 49.260052 -22.376003 -94.329834
15400000000 -28.759935 -25.360731 -0.74989909 47.174534 -0.74897659 47.215034 -22.808262 -92.472229
15500000000 -27.781218 -29.550343 -0.75453693 45.119625 -0.75226003 45.157116 -23.106611 -93.128662
15600000000 -28.082083 -32.70005 -0.75940412 43.064373 -0.754026 43.075489 -23.617393 -97.521164
15700000000 -26.689804 -30.196379 -0.76235086 41.029865 -0.76092321 41.069851 -22.912504 -101.50414
15800000000 -26.628542 -31.198532 -0.763071 39.000031 -0.76381165 39.049595 -22.319778 -104.0764
15900000000 -25.731024 -31.2703 -0.76901281 37.007736 -0.76559162 37.021996 -21.735209 -102.3924
16000000000 -26.054817 -37.425396 -0.76863027 34.957272 -0.76708937 35.010208 -21.602236 -99.593521
16100000000 -25.530386 -37.922104 -0.77234238 32.96397 -0.76789284 33.005997 -21.502665 -96.91761
16200000000 -25.313715 -45.630322 -0.77432507 30.940634 -0.77219892 30.959557 -22.094965 -95.598793
16300000000 -24.753162 -43.13599 -0.77733088 28.938934 -0.77547801 28.97175 -21.919895 -97.291023
16400000000 -24.092087 -46.726353 -0.78673548 26.896534 -0.78180718 26.921528 -22.324303 -99.228409
16500000000 -24.085037 -43.585041 -0.78653598 24.880203 -0.78779018 24.901201 -21.786282 -102.416
16600000000 -23.720249 -47.178715 -0.78889674 22.864269 -0.791834 22.91334 -21.716337 -101.26324
16700000000 -24.245827 -48.700531 -0.79402357 20.832006 -0.7921527 20.873804 -21.250622 -101.38935
16800000000 -23.804228 -54.461998 -0.79461259 18.815353 -0.79254264 18.86521 -21.423307 -99.384933
16900000000 -23.874678 -58.153767 -0.79909956 16.803251 -0.79783213 16.81954 -21.285475 -99.017311
17000000000 -22.832554 -58.457787 -0.79884195 14.779491 -0.79788715 14.827376 -21.642979 -100.62845
17100000000 -22.836006 -58.604206 -0.80209607 12.786648 -0.80266249 12.824531 -21.483721 -101.6088
17200000000 -22.672203 -56.852489 -0.80337036 10.782772 -0.80952448 10.827392 -21.470739 -104.57983
17300000000 -23.291899 -60.852596 -0.80296022 8.7761469 -0.80181366 8.7957649 -21.212799 -102.73747
17400000000 -23.559366 -64.946251 -0.8056016 6.7352657 -0.8054477 6.8012333 -21.484993 -100.51152
17500000000 -23.486662 -73.464256 -0.8083775 4.7090836 -0.80464131 4.7542963 -21.648415 -98.40609
17600000000 -22.80615 -72.507645 -0.81079692 2.7011015 -0.80800271 2.765218 -22.186222 -100.97294
17700000000 -22.48345 -73.208664 -0.8145228 0.67060691 -0.81312752 0.71863335 -22.520159 -105.21732
17800000000 -22.545403 -69.071617 -0.81877065 -1.3262997 -0.81573892 -1.3016398 -22.205952 -110.75623
17900000000 -22.988352 -72.736771 -0.82131255 -3.360302 -0.81406033 -3.3161955 -21.472071 -110.97512
18000000000 -23.546989 -77.802368 -0.81960905 -5.3662601 -0.81734157 -5.3500495 -20.909639 -108.13316
18100000000 -23.193281 -86.519371 -0.82064021 -7.4075613 -0.81244177 -7.3603768 -20.785273 -101.89812
18200000000 -22.929468 -88.159027 -0.81515831 -9.4135036 -0.81319773 -9.3702841 -21.431271 -97.803574
18300000000 -22.505142 -87.476311 -0.81488723 -11.386503 -0.81301731 -11.384247 -22.775713 -98.316597
18400000000 -22.935411 -85.398415 -0.81770527 -13.425817 -0.81573075 -13.406375 -23.942333 -105.98947
18500000000 -23.000254 -85.127991 -0.8165164 -15.518887 -0.81800276 -15.469079 -23.230091 -118.37625
18600000000 -23.31632 -88.785797 -0.81590009 -17.558855 -0.81693161 -17.528082 -21.720285 -119.30831
18700000000 -22.862541 -94.435974 -0.81421083 -19.58116 -0.81186968 -19.574556 -20.557156 -114.2708
18800000000 -22.991045 -99.332695 -0.80872613 -21.59107 -0.80954605 -21.562126 -20.236883 -104.25627
18900000000 -22.992897 -100.10522 -0.81188685 -23.575302 -0.8032735 -23.530848 -20.842552 -97.07901
19000000000 -23.333782 -101.63875 -0.80272788 -25.572515 -0.80354047 -25.482382 -22.828049 -93.617607
19100000000 -23.653553 -99.793533 -0.80575246 -27.578787 -0.80411202 -27.524837 -23.751957 -99.633392
19200000000 -23.867521 -101.94907 -0.8085655 -29.60803 -0.80941033 -29.553495 -24.30113 -114.4259
19300000000 -24.122002 -103.85059 -0.80757242 -31.637457 -0.80782187 -31.603464 -22.312941 -115.3148
19400000000 -24.605989 -109.48023 -0.80877411 -33.646019 -0.80611551 -33.62867 -22.066153 -112.08643
19500000000 -25.178413 -113.31847 -0.80743682 -35.707817 -0.80167043 -35.689526 -21.395237 -105.071
19600000000 -25.050911 -116.74789 -0.80030078 -37.761459 -0.8000412 -37.704155 -22.372244 -98.294708
19700000000 -25.359324 -116.48029 -0.80105001 -39.788448 -0.80145472 -39.765491 -23.110968 -96.229515
19800000000 -25.643084 -113.38409 -0.80033314 -41.811478 -0.80106837 -41.803448 -24.432041 -101.2966
19900000000 -27.116533 -111.69306 -0.80226141 -43.874996 -0.80178565 -43.835423 -24.02458 -102.61812
20000000000 -28.556976 -118.53783 -0.80897558 -45.92741 -0.80412757 -45.906296 -23.628315 -104.13656
20100000000 -30.097319 -129.43854 -0.80664349 -47.983093 -0.80494195 -47.960587 -23.25485 -96.895302
20200000000 -29.317699 -134.285 -0.8133145 -50.041134 -0.81211406 -49.985561 -23.578064 -91.000664
20300000000 -28.78644 -131.44606 -0.82488471 -52.053326 -0.82423496 -52.056664 -24.381907 -87.182152
20400000000 -28.659798 -120.91951 -0.83110982 -54.0909 -0.82510257 -54.065277 -25.303381 -93.284012
20500000000 -29.835192 -116.39634 -0.83613306 -56.098923 -0.83472639 -56.066288 -25.079062 -98.958023
20600000000 -31.878925 -120.93955 -0.83709753 -58.072426 -0.82974619 -58.028572 -23.363432 -100.15283
20700000000 -33.215363 -148.67377 -0.82108492 -60.073517 -0.81736875 -60.052643 -22.445305 -93.919716
20800000000 -33.680561 -165.34543 -0.81518203 -62.118202 -0.80925751 -62.114685 -21.789955 -86.8293
20900000000 -33.563152 -167.12593 -0.81139129 -64.142311 -0.81005538 -64.143326 -22.427122 -76.096909
21000000000 -35.380997 -150.45811 -0.81227231 -66.222122 -0.80822217 -66.197128 -23.750492 -74.043526
21100000000 -38.670029 -125.92433 -0.81657231 -68.289581 -0.80833131 -68.265976 -24.640886 -76.515038
21200000000 -44.547798 -118.32697 -0.82494038 -70.427452 -0.8215462 -70.410934 -25.175882 -86.947639
21300000000 -55.747406 157.95361 -0.83262348 -72.547302 -0.8267265 -72.527107 -23.194986 -93.510338
21400000000 -42.155518 100.59154 -0.84187591 -74.607643 -0.84209746 -74.549919 -21.884995 -88.525833
21500000000 -44.226906 125.53561 -0.84772176 -76.683281 -0.84514803 -76.631874 -20.35219 -86.193451
21600000000 -44.212246 88.612099 -0.84820324 -78.528564 -0.84457731 -78.525146 -20.202646 -75.633049
21700000000 -41.826523 18.257652 -0.83706015 -80.497498 -0.83128506 -80.444176 -20.664114 -67.290688
21800000000 -34.53236 12.057682 -0.83015984 -82.506065 -0.82959986 -82.459801 -21.941 -63.601753
21900000000 -32.392067 12.666146 -0.8516615 -84.486687 -0.84655863 -84.45311 -22.461216 -64.898758
22000000000 -30.508039 32.163586 -0.85393625 -86.506477 -0.85226339 -86.470367 -22.817831 -80.971352
22100000000 -29.675581 35.591198 -0.85082507 -88.594749 -0.84876186 -88.59063 -20.92594 -83.67054
22200000000 -29.267996 36.979805 -0.85409635 -90.69413 -0.85139287 -90.643364 -20.195549 -82.183083
22300000000 -28.766211 23.220699 -0.8474474 -92.805763 -0.84279895 -92.785965 -18.875317 -72.816917
22400000000 -26.722385 12.304591 -0.84564209 -94.797256 -0.84392524 -94.780899 -19.108608 -66.602852
22500000000 -25.012815 5.4472165 -0.84695566 -96.829544 -0.8415488 -96.852783 -19.635553 -59.90815
22600000000 -23.938597 11.121109 -0.8530944 -98.849602 -0.85241961 -98.841667 -20.540352 -66.645004
22700000000 -23.54594 16.042681 -0.86848044 -100.82939 -0.86108088 -100.84276 -20.210346 -71.023666
22800000000 -24.177628 18.417149 -0.88057029 -102.87855 -0.87907314 -102.82201 -19.331945 -80.431526
22900000000 -24.154478 9.8571854 -0.87804037 -104.97323 -0.87930894 -104.97391 -18.247467 -74.507034
23000000000 -23.313469 -3.7230022 -0.89531505 -106.95998 -0.88740385 -106.95716 -18.019735 -72.047203
23100000000 -21.816772 -7.3282681 -0.89052898 -109.01237 -0.88527399 -108.97279 -18.11751 -63.269096
23200000000 -20.902752 -5.4702411 -0.88995481 -111.03809 -0.88720191 -111.00991 -18.913099 -66.832176
23300000000 -20.604313 1.4501967 -0.88412297 -113.10792 -0.88423496 -113.07492 -19.635269 -73.131493
23400000000 -21.214323 2.4710634 -0.88912463 -115.12508 -0.89097804 -115.09676 -18.466785 -82.881317
23500000000 -21.898308 -0.34612945 -0.89625299 -117.14285 -0.8957786 -117.10767 -17.360836 -83.891701
23600000000 -21.500261 -11.364747 -0.8992511 -119.18265 -0.89987808 -119.11503 -16.022903 -79.519211
23700000000 -20.553164 -17.976263 -0.90953106 -121.15356 -0.90721041 -121.13496 -16.231417 -70.880371
23800000000 -19.609867 -20.592232 -0.91580755 -123.17764 -0.91326243 -123.16435 -17.160233 -68.921822
23900000000 -19.503389 -15.833115 -0.92382836 -125.24545 -0.92269748 -125.25279 -18.377668 -68.952705
24000000000 -19.425434 -12.897248 -0.91680521 -127.36475 -0.91147584 -127.3533 -18.86211 -88.159767
24100000000 -20.018717 -13.50925 -0.91569662 -129.37271 -0.91407073 -129.36542 -17.269897 -93.846878
24200000000 -19.930082 -18.504862 -0.9159236 -131.38998 -0.91042608 -131.32477 -15.919743 -92.418747
24300000000 -19.488993 -26.583115 -0.91383171 -133.40718 -0.90922976 -133.33807 -14.859728 -87.144821
24400000000 -18.468025 -29.972328 -0.9216181 -135.30374 -0.91482669 -135.23866 -15.178216 -79.181503
24500000000 -18.192165 -31.073057 -0.92675167 -137.25789 -0.92141777 -137.21671 -16.045628 -76.460373
24600000000 -18.133333 -27.525555 -0.93485081 -139.30658 -0.93263173 -139.23094 -17.387451 -79.358658
24700000000 -18.490705 -27.65213 -0.9419778 -141.3645 -0.93576074 -141.3343 -17.772539 -90.373161
24800000000 -18.843046 -29.141777 -0.94106662 -143.4799 -0.94550931 -143.44511 -16.925714 -98.886864
24900000000 -18.506479 -35.811691 -0.93651021 -145.49078 -0.93313044 -145.40492 -15.73425 -97.598869
25000000000 -18.023342 -39.225628 -0.93203884 -147.49055 -0.92489195 -147.45175 -14.786269 -95.362968
25100000000 -17.233694 -42.091637 -0.92293632 -149.33643 -0.92482883 -149.33788 -15.137626 -89.106537
25200000000 -17.218452 -40.211048 -0.93476605 -151.31015 -0.92262512 -151.29543 -15.535413 -88.500511
25300000000 -17.133221 -39.842712 -0.94374514 -153.30196 -0.93896681 -153.25197 -16.574465 -90.326462
25400000000 -17.797249 -39.992218 -0.94476599 -155.38652 -0.94223088 -155.36176 -16.286312 -98.597649
25500000000 -17.731842 -43.640537 -0.95140296 -157.38852 -0.94405556 -157.34683 -16.557959 -98.283722
25600000000 -17.570541 -50.002384 -0.94890815 -159.51968 -0.93975091 -159.4976 -15.523423 -103.84074
25700000000 -17.221174 -52.403561 -0.93754929 -161.48953 -0.93462479 -161.45876 -15.471536 -98.537621
25800000000 -17.065121 -52.635349 -0.93685615 -163.54291 -0.93773818 -163.45393 -15.618919 -101.84784
25900000000 -16.838005 -51.577526 -0.93697816 -165.49922 -0.93398505 -165.49022 -15.71298 -98.034805
26000000000 -17.021645 -53.342644 -0.93886238 -167.4976 -0.93590456 -167.51636 -16.267048 -101.3176
26100000000 -17.21056 -55.026314 -0.94207072 -169.55405 -0.94132155 -169.56926 -16.128315 -101.6056
26200000000 -17.415941 -57.363182 -0.94560397 -171.5685 -0.94171095 -171.48608 -16.51787 -103.36407
26300000000 -17.444084 -60.102005 -0.95061707 -173.57069 -0.95335019 -173.48572 -16.298229 -108.65044
26400000000 -17.460657 -63.796391 -0.94787377 -175.65584 -0.94599819 -175.55814 -16.12635 -105.83733
26500000000 -17.635429 -64.878487 -0.94345212 -177.63081 -0.94893485 -177.55481 -16.429081 -108.15071
26600000000 -17.379288 -64.093414 -0.93777514 -179.60069 -0.94324976 -179.63728 -16.192911 -105.98182
26700000000 -17.678797 -64.869781 -0.9423058 178.3954 -0.95497769 178.42615 -16.770607 -104.76365
26800000000 -17.837061 -66.607788 -0.94107658 176.40523 -0.94914001 176.30641 -17.370333 -107.87216
26900000000 -18.324642 -71.411026 -0.93654877 174.22905 -0.9390012 174.42506 -17.588968 -110.78603
27000000000 -18.223621 -71.930695 -0.93687987 172.26863 -0.93154192 172.27748 -18.166046 -116.58183
27100000000 -18.215181 -75.475403 -0.95211494 170.29645 -0.94403917 170.28435 -17.060629 -117.23148
27200000000 -18.75075 -72.474052 -0.9352653 168.31223 -0.93172926 168.24712 -16.992701 -115.33455
27300000000 -18.576757 -76.437035 -0.95172137 166.16425 -0.95110524 166.25186 -17.502857 -109.19362
27400000000 -18.981197 -76.311798 -0.9451769 164.21786 -0.93989682 164.19476 -18.377939 -110.04473
27500000000 -19.142145 -81.721123 -0.95405275 162.09924 -0.93358386 162.26065 -19.281782 -111.00928
27600000000 -19.507387 -81.982796 -0.93399149 159.96231 -0.93164998 160.01112 -19.630322 -124.64221
27700000000 -19.268057 -82.8955 -0.94359523 157.9032 -0.92245162 158.00905 -19.179115 -123.92373
27800000000 -19.816196 -80.46051 -0.92619699 155.86678 -0.9196611 155.88721 -18.481371 -125.36176
27900000000 -20.054268 -82.715225 -0.92369324 153.93622 -0.9227919 153.94522 -18.174726 -113.54169
28000000000 -21.052969 -84.285294 -0.92789572 151.82709 -0.92987698 151.81322 -19.225901 -115.25245
28100000000 -20.612276 -87.471581 -0.95049208 149.89638 -0.95160121 149.84772 -20.650097 -107.42078
28200000000 -20.927694 -88.33316 -0.95617473 147.73116 -0.94585115 147.70746 -21.334249 -117.73582
28300000000 -20.311102 -85.116394 -0.96248186 145.82623 -0.97493029 145.60356 -20.732061 -124.50999
28400000000 -20.673353 -89.061119 -0.96531361 143.6347 -0.94681418 143.56705 -19.456238 -125.90801
28500000000 -21.61899 -86.443497 -0.96195525 141.69171 -0.93137157 141.77736 -19.774515 -109.06431
28600000000 -21.886602 -88.447556 -0.93136066 139.68909 -0.92961538 139.688 -19.785105 -106.75389
28700000000 -22.813972 -87.069931 -0.93785352 137.63832 -0.95618957 137.87482 -22.20005 -91.799538
28800000000 -23.996296 -96.519066 -0.95984179 135.68066 -0.96480834 135.68187 -24.559082 -111.17175
28900000000 -24.406294 -88.471359 -0.97600871 133.65625 -0.94109684 133.66678 -23.24358 -117.59381
29000000000 -23.762491 -100.2626 -0.96893114 131.30351 -0.97072601 131.31374 -21.295397 -120.93387
29100000000 -25.341597 -95.466148 -0.9526906 129.0139 -0.94077438 129.13759 -19.271585 -108.84299
29200000000 -26.160925 -88.580002 -0.92697597 127.10371 -0.93833673 127.10403 -20.191235 -90.126846
29300000000 -28.85157 -60.691189 -0.92197758 125.22226 -0.89797854 125.17887 -20.885736 -67.356781
29400000000 -28.485794 -62.845604 -0.91616684 123.2874 -0.91046315 123.33957 -25.126348 -55.070412
29500000000 -33.147957 -51.303944 -0.94134438 121.06406 -0.92774832 121.26834 -26.485321 -61.102108
29600000000 -31.788822 -67.406601 -0.94718987 119.0577 -0.94201416 119.15187 -26.91995 -97.517632
29700000000 -34.40062 -57.67345 -0.98798901 117.17036 -0.95331991 116.994 -23.03142 -88.716331
29800000000 -28.88368 -48.278736 -0.97608423 115.0294 -0.97685754 114.83799 -21.169022 -89.035973
29900000000 -29.235327 -28.656755 -0.96046758 112.80492 -0.94721627 112.69705 -18.597244 -66.250793
30000000000 -26.29682 -5.5324168 -0.96026415 110.82247 -0.99139553 110.8897 -20.228365 -56.192245
30100000000 -26.505875 5.5157938 -0.96337622 108.72071 -0.96463609 108.70453 -20.004618 -42.401131
30200000000 -25.850786 2.9877324 -0.98164243 106.65152 -0.95742053 106.79164 -23.512005 -42.606056
30300000000 -28.89142 -8.203063 -0.97156638 104.6815 -0.95397121 104.67907 -22.231857 -50.10178
30400000000 -26.611284 -2.2376728 -0.97787195 102.49178 -0.99076003 102.59752 -21.515285 -77.52272
30500000000 -25.376245 -12.606555 -0.97969222 100.35806 -0.96268022 100.54174 -18.945629 -60.230946
30600000000 -22.978483 -5.4363756 -0.99419868 98.472504 -0.99864268 98.380379 -18.547119 -64.360649
30700000000 -22.567368 -4.9881234 -1.0097282 96.45002 -0.99631494 96.48494 -17.634455 -50.998478
30800000000 -21.281364 5.5059643 -1.0307626 94.371788 -1.0467902 94.41375 -19.484098 -49.785442
30900000000 -21.546488 0.97082698 -1.0379075 92.285652 -1.0297997 92.415627 -18.443754 -47.97979
31000000000 -20.780186 5.2972946 -1.0641088 90.237534 -1.0534379 90.413452 -19.134535 -56.472385
31100000000 -22.138832 -7.1359282 -1.0375357 88.095467 -1.0178595 88.120316 -17.63788 -62.753498
31200000000 -20.672564 -10.19808 -1.0598857 85.999947 -1.0278307 86.115036 -16.021963 -59.523384
31300000000 -19.241066 -15.370866 -1.0517205 84.085983 -1.0096215 84.2248 -16.40523 -58.512032
31400000000 -17.536598 -7.5424595 -1.0202165 82.148376 -1.010161 82.296112 -15.370843 -53.946552
31500000000 -17.208418 -6.3699756 -1.0366771 80.122002 -1.0591457 80.152206 -16.123661 -47.841007
31600000000 -17.781023 2.0220153 -1.0650892 78.118553 -1.0704401 78.028748 -16.554918 -56.109211
31700000000 -18.363308 -3.4452531 -1.0982201 76.196106 -1.0684826 76.064911 -16.261093 -56.503555
31800000000 -17.842257 -12.383191 -1.0956998 73.988747 -1.1089321 73.973366 -15.571438 -66.426613
31900000000 -16.117273 -21.237173 -1.0611773 71.831512 -1.0741389 71.829231 -14.195792 -62.940521
32000000000 -15.58698 -16.509354 -1.0917169 69.775291 -1.0825292 69.982841 -13.77147 -63.822006
32100000000 -14.874309 -11.40834 -1.1071628 67.96376 -1.08801 67.836922 -13.077728 -55.971378
32200000000 -15.829113 -7.1250591 -1.1116564 65.783134 -1.0953164 65.94796 -14.200643 -57.24334
32300000000 -15.938596 -9.9870033 -1.1302733 63.741962 -1.1036823 63.932961 -14.054778 -57.96307
32400000000 -16.199186 -21.449446 -1.1036767 61.768646 -1.1185634 61.739643 -15.624945 -65.622665
32500000000 -15.154407 -22.756065 -1.134748 59.777058 -1.1169009 59.67358 -14.159172 -74.519974
32600000000 -14.742914 -25.410089 -1.1314145 57.704487 -1.141386 57.948311 -13.289177 -76.603767
32700000000 -13.936872 -16.062559 -1.1344508 55.444611 -1.1387911 55.50201 -12.125967 -75.864937
32800000000 -14.132367 -21.40374 -1.1362455 53.74202 -1.1233344 53.845882 -11.604176 -68.596771
32900000000 -14.776069 -19.509031 -1.1281399 51.658615 -1.1684501 51.784016 -12.34708 -64.868347
33000000000 -14.544621 -27.850245 -1.1608855 49.702675 -1.1693263 49.803875 -13.340662 -64.87114
33100000000 -14.36267 -29.682722 -1.1618207 47.768394 -1.2344974 47.711803 -14.378734 -74.088516
33200000000 -13.355406 -31.948736 -1.1815859 45.640663 -1.1713632 45.609715 -12.804088 -82.236694
33300000000 -13.626147 -30.558912 -1.19525 43.764198 -1.1959805 43.545086 -12.82744 -84.605705
33400000000 -13.320246 -31.250547 -1.1825511 41.67849 -1.1764784 41.722912 -11.37158 -80.842407
33500000000 -13.518378 -33.903446 -1.1687886 39.620731 -1.1763518 39.780483 -11.685823 -79.472763
33600000000 -12.967023 -36.22765 -1.1635129 37.729362 -1.1733177 37.89941 -11.870173 -77.557144
33700000000 -12.810535 -40.407024 -1.1631157 35.805874 -1.2084786 35.759026 -12.346616 -78.386017
33800000000 -12.868925 -42.052845 -1.2069273 33.775337 -1.2177056 33.680611 -12.526639 -84.468285
33900000000 -13.089936 -45.509235 -1.2291373 31.512857 -1.1932417 31.491589 -11.601656 -87.004311
34000000000 -12.585513 -45.356052 -1.1919745 29.691963 -1.1811178 29.784447 -12.139658 -82.988846
34100000000 -12.514338 -48.388763 -1.2046967 27.545429 -1.1893675 27.531696 -11.440974 -87.99527
34200000000 -12.448799 -46.247646 -1.1967102 25.765749 -1.1570877 25.797163 -12.147455 -79.754608
34300000000 -12.482863 -49.304966 -1.251763 23.689342 -1.2246255 23.52644 -11.848746 -90.481445
34400000000 -12.368139 -49.348385 -1.2438943 21.659975 -1.2223231 21.726437 -12.379135 -90.082672
34500000000 -12.41057 -54.896042 -1.3025261 19.503345 -1.2530944 19.654703 -11.471401 -94.106956
34600000000 -12.507729 -55.31612 -1.2555097 17.678316 -1.2806286 17.576588 -11.333 -90.110802
34700000000 -12.271726 -56.766945 -1.2524285 15.668947 -1.2520375 15.620394 -11.259715 -88.172058
34800000000 -12.618346 -57.203861 -1.2164928 13.797721 -1.2129517 13.880987 -12.699263 -87.38131
34900000000 -12.74715 -59.579025 -1.2176272 11.819224 -1.2118894 11.797097 -13.247662 -91.401268
35000000000 -12.901953 -60.519527 -1.222945 9.6629381 -1.2099124 9.5610199 -14.271694 -101.5124
35100000000 -12.420125 -60.623013 -1.2073545 7.6914301 -1.2437358 7.7392054 -12.524556 -104.68018
35200000000 -12.622572 -60.893555 -1.228012 5.7895212 -1.2364306 5.8686152 -12.120381 -106.7883
35300000000 -12.582483 -64.960892 -1.2589536 3.8547459 -1.2508224 3.8840845 -11.382089 -96.154968
35400000000 -13.468288 -66.220497 -1.2224581 1.8832626 -1.2240469 2.067399 -11.890684 -95.221558
35500000000 -13.371243 -66.126694 -1.2071747 0.19804379 -1.2406267 -0.15225741 -12.81742 -98.359665
35600000000 -13.535028 -74.227776 -1.1846384 -2.1536849 -1.2110758 -2.2202241 -14.552509 -104.59123
35700000000 -13.156297 -74.982582 -1.1813141 -4.126616 -1.173709 -4.4601326 -13.577072 -109.04627
35800000000 -13.364627 -74.723579 -1.1880792 -6.3380933 -1.190645 -6.30161 -12.980999 -112.94882
35900000000 -13.405576 -73.686447 -1.1629208 -8.4688883 -1.1731013 -8.4640293 -12.297227 -117.03699
36000000000 -13.636876 -75.001587 -1.1599867 -10.21939 -1.2022903 -9.9353075 -13.178029 -104.53958
36100000000 -14.45816 -72.785858 -1.185156 -12.616545 -1.2014846 -12.285335 -13.767556 -109.88084
36200000000 -14.480619 -80.013687 -1.1873899 -14.71747 -1.1706103 -14.44313 -14.495255 -109.7122
36300000000 -15.535614 -85.156006 -1.2174482 -16.889223 -1.1603694 -17.021475 -14.371194 -118.7992
36400000000 -14.466248 -92.933678 -1.1850396 -18.894468 -1.1908472 -19.288036 -13.407938 -119.57667
36500000000 -13.958926 -89.106812 -1.1842257 -21.116835 -1.1838332 -21.162279 -12.951486 -117.16082
36600000000 -13.179788 -85.0541 -1.0945746 -22.679539 -1.0696021 -22.778236 -13.625497 -101.50503
36700000000 -15.123251 -81.476006 -1.1385118 -24.774376 -1.1390501 -24.587975 -14.020247 -106.66624
36800000000 -15.987619 -78.247551 -1.1454589 -26.422995 -1.1762981 -26.353157 -16.991169 -96.668182
36900000000 -18.624769 -96.223419 -1.1734329 -28.921654 -1.2029909 -28.776558 -16.993336 -117.86195
37000000000 -16.945906 -99.030258 -1.1715341 -31.180967 -1.17843 -31.05294 -16.861723 -128.85892
37100000000 -14.923387 -109.23692 -1.1622148 -33.746944 -1.1675898 -33.868019 -14.449966 -124.87729
37200000000 -15.425336 -96.57653 -1.1451988 -35.550686 -1.1626387 -35.626366 -13.940472 -116.31714
37300000000 -16.750486 -89.52951 -1.061429 -37.769886 -1.1044457 -37.847401 -13.600081 -100.45094
37400000000 -18.80979 -78.636986 -1.0747442 -39.832649 -1.1044784 -39.224819 -15.296955 -88.238701
37500000000 -20.573578 -96.496758 -1.0961652 -41.314583 -1.1209332 -41.318863 -17.320099 -85.282028
37600000000 -20.900684 -112.71803 -1.1311589 -43.490555 -1.1265877 -43.150791 -22.035278 -92.735374
37700000000 -19.226252 -112.87291 -1.1436039 -45.587288 -1.1522019 -45.431026 -22.395821 -120.46488
37800000000 -19.195103 -99.043701 -1.1403428 -47.83667 -1.1248695 -47.672226 -17.682774 -118.98058
37900000000 -19.299173 -85.232346 -1.1823241 -49.987705 -1.1265709 -49.844879 -16.589764 -121.12397
38000000000 -23.451679 -82.043404 -1.125592 -52.432819 -1.122815 -52.464001 -14.874828 -94.843246
38100000000 -26.002676 -92.597122 -1.0750629 -54.164349 -1.1390004 -54.084381 -16.816938 -79.086235
38200000000 -26.855791 -85.913826 -1.106916 -56.422279 -1.1246318 -56.415623 -16.599575 -64.914772
38300000000 -25.078554 -80.551216 -1.1354684 -58.584343 -1.0924239 -58.16264 -23.411444 -42.685169
38400000000 -23.384464 -74.259636 -1.061561 -60.385197 -1.0895889 -60.136215 -27.069618 -84.515366
38500000000 -24.38751 -73.627647 -1.1132009 -62.509899 -1.1325927 -62.011028 -21.380268 -100.66048
38600000000 -27.12392 -15.915263 -1.1443194 -64.567947 -1.1164814 -64.297417 -18.030117 -86.28566
38700000000 -24.68788 -33.380329 -1.161683 -66.540794 -1.1505723 -66.31356 -16.390406 -81.163933
38800000000 -27.644596 -13.483988 -1.1316305 -68.354012 -1.1341718 -68.851273 -16.188862 -50.425655
38900000000 -25.888174 -17.204433 -1.1441917 -70.671005 -1.1332362 -70.479027 -18.569485 -52.305908
39000000000 -27.126593 -1.6151879 -1.2045064 -72.456474 -1.2067184 -72.87149 -19.766665 -33.264221
39100000000 -23.851299 -18.501242 -1.1588727 -75.524323 -1.2170413 -75.030617 -19.914534 -87.347527
39200000000 -24.861328 -26.110868 -1.1930902 -76.852501 -1.1783719 -76.948479 -17.276472 -66.1689
39300000000 -18.952837 -12.074522 -1.2123811 -79.280029 -1.2449896 -79.277489 -14.046319 -71.365646
39400000000 -20.31513 10.26805 -1.19788 -81.122849 -1.2331734 -81.38221 -13.432843 -48.268162
39500000000 -17.569166 21.327137 -1.2334867 -83.263153 -1.2409949 -83.426712 -14.580366 -47.777569
39600000000 -20.698435 10.122236 -1.2648796 -85.268776 -1.2664552 -85.507622 -15.944177 -29.934336
39700000000 -22.147232 2.8702703 -1.2448018 -87.968674 -1.2519616 -87.482338 -20.284328 -63.468227
39800000000 -19.892735 -24.745131 -1.2303556 -89.83181 -1.2265416 -89.713387 -16.09683 -69.076248
39900000000 -15.821198 -0.3009938 -1.2626768 -92.328552 -1.2937281 -91.97142 -13.282743 -82.467644
40000000000 -15.00547 -1.5835271 -1.2325891 -94.379585 -1.2277489 -94.241005 -10.548574 -64.555008
40100000000 -15.165737 18.978703 -1.2437724 -96.363503 -1.2647386 -96.042999 -10.843518 -51.71817
40200000000 -16.519791 13.798406 -1.2863733 -97.907928 -1.2666371 -98.126579 -11.571805 -41.598442
40300000000 -19.208763 5.4070401 -1.3294035 -100.28662 -1.2674103 -100.27095 -12.947183 -44.272182
40400000000 -15.903554 -14.37566 -1.3561254 -102.23312 -1.2979877 -102.42317 -15.80268 -63.389389
40500000000 -13.909478 -10.099522 -1.3756372 -104.53995 -1.2927307 -104.35704 -13.430621 -74.6502
40600000000 -12.071713 -6.627697 -1.3292636 -106.43597 -1.3610698 -106.31936 -11.565998 -72.897774
40700000000 -14.130761 4.1402731 -1.4003029 -108.46162 -1.3745596 -108.97478 -9.9959745 -70.116585
40800000000 -13.472665 1.0563363 -1.3551927 -110.64493 -1.3517059 -109.9502 -9.6138678 -56.178322
40900000000 -14.069584 -11.9091 -1.405337 -112.19082 -1.3825759 -112.52697 -11.247498 -50.463718
41000000000 -12.729097 -23.611708 -1.384281 -114.30025 -1.4145634 -114.47003 -10.862917 -52.434982
41100000000 -12.427077 -18.497643 -1.3848147 -116.57633 -1.4332711 -116.7084 -12.560137 -70.210396
41200000000 -11.017766 -10.871824 -1.4262912 -118.26856 -1.4533075 -118.1257 -11.146753 -66.605354
41300000000 -11.47726 -14.288939 -1.475624 -120.58187 -1.5147315 -120.4715 -10.827472 -72.966423
41400000000 -11.95092 -14.523772 -1.4207524 -122.51489 -1.5171937 -122.47513 -9.3144579 -64.389297
41500000000 -11.649914 -19.396442 -1.5097713 -124.67354 -1.5196892 -124.23445 -8.9489279 -66.821152
41600000000 -10.297692 -22.758995 -1.5009564 -126.58024 -1.4158558 -126.51844 -9.6709108 -62.184944
41700000000 -10.754327 -25.237703 -1.5109718 -128.02443 -1.5596566 -128.35744 -9.4348917 -70.602211
41800000000 -10.304744 -23.679066 -1.6005387 -130.00749 -1.5660523 -130.25919 -9.8514996 -68.302437
41900000000 -10.794257 -29.231441 -1.60746 -132.30336 -1.6962785 -132.32225 -9.201108 -77.688004
42000000000 -9.7711954 -28.346939 -1.5888193 -134.34389 -1.6151816 -133.55328 -8.8034992 -72.381592
42100000000 -9.2030106 -31.921303 -1.6406111 -135.46156 -1.6029879 -135.77359 -8.4732828 -77.074211
42200000000 -9.4140329 -29.589254 -1.5420216 -137.73796 -1.5680168 -137.43396 -8.4300127 -70.511902
42300000000 -10.132853 -29.805395 -1.6123357 -139.85228 -1.6056437 -139.99095 -8.3667459 -76.511322
42400000000 -11.090199 -36.040726 -1.560568 -141.5782 -1.5656172 -141.72549 -9.6337261 -75.498711
42500000000 -9.393115 -42.844372 -1.5966972 -143.90463 -1.5936837 -143.84689 -9.6418533 -85.47393
42600000000 -9.0039063 -46.331673 -1.5933336 -146.16132 -1.618799 -145.33699 -9.3390799 -83.828857
42700000000 -8.5987158 -38.536507 -1.5657197 -148.1981 -1.6047139 -148.03642 -7.748436 -91.559296
42800000000 -9.0568056 -34.597755 -1.6650918 -150.37465 -1.5691208 -149.38412 -7.9902735 -90.188194
42900000000 -9.7771292 -31.830254 -1.599014 -152.00412 -1.6957828 -151.28729 -7.7437453 -82.860596
43000000000 -10.605579 -45.277679 -1.6058847 -154.53622 -1.6505312 -154.00307 -7.7263188 -81.356873
43100000000 -10.607843 -57.622948 -1.5878665 -156.15178 -1.5203544 -156.36632 -10.073295 -81.19487
43200000000 -8.7748404 -56.241364 -1.6307474 -157.92412 -1.6010922 -157.91374 -10.004751 -89.537064
43300000000 -8.4302769 -49.476765 -1.6871756 -159.78766 -1.6523577 -159.31633 -9.4997559 -100.30388
43400000000 -8.5825453 -42.155247 -1.6034518 -162.03293 -1.6328348 -161.82214 -8.2361374 -96.888443
43500000000 -9.283534 -42.100517 -1.5569506 -163.17456 -1.587133 -162.65715 -7.4092112 -100.04607
43600000000 -10.554029 -49.511089 -1.5680594 -165.12459 -1.6041176 -165.40305 -7.5389142 -91.772018
43700000000 -10.601071 -61.208897 -1.6348084 -167.3656 -1.586098 -168.08473 -8.172719 -90.165955
43800000000 -9.4816818 -66.009804 -1.6265527 -169.49875 -1.6130656 -169.70956 -9.5102415 -89.550407
43900000000 -9.1492958 -63.832825 -1.6316078 -171.70363 -1.6753148 -171.68556 -10.162884 -104.32292
44000000000 -9.0484724 -57.638519 -1.6767651 -173.07784 -1.6346542 -173.61263 -9.3900671 -106.84752
44100000000 -9.2182865 -56.412579 -1.5300236 -175.90947 -1.6385834 -175.60478 -8.092555 -102.2484
44200000000 -10.61629 -55.64098 -1.589378 -177.15462 -1.6316451 -177.19055 -8.2661552 -105.99004
44300000000 -10.245049 -65.713234 -1.6096123 -179.56078 -1.6013793 -179.24261 -8.701993 -99.628891
44400000000 -10.184996 -75.976845 -1.5646511 179.19556 -1.6257514 178.89221 -9.9536476 -99.795502
44500000000 -9.340292 -76.250267 -1.611257 176.6093 -1.5105047 177.33272 -9.2264652 -108.71313
44600000000 -9.3890238 -72.117554 -1.65727 174.67604 -1.5259081 174.67973 -10.747339 -116.51594
44700000000 -9.390439 -64.734344 -1.6592692 172.642 -1.620922 172.8618 -8.8963032 -113.5801
44800000000 -11.049535 -75.554947 -1.6081985 170.89586 -1.4966923 170.83434 -9.6187897 -102.87277
44900000000 -11.377563 -77.020393 -1.589618 168.4727 -1.5256864 168.41624 -9.0609179 -106.7342
45000000000 -11.588039 -80.287773 -1.5647699 166.48041 -1.5606351 166.7993 -12.124828 -105.60493
