!Keysight Technologies,N5247B,MY61255062,A.19.80.06
!Date: Monday, May 18, 2026 13:04:20
!Correction: S11(Cdelta 2-Port  ) 
!S21(Cdelta 2-Port  ) 
!S12(Cdelta 2-Port  ) 
!S22(Cdelta 2-Port  ) 
!S2P File: Measurements: S11, S21, S12, S22:
# Hz S  dB   R 50
1000000000 -26.938814 -15.469021 -0.40743822 -21.111506 -0.40144974 -21.095644 -27.307692 -17.612682
1100000000 -26.847532 -17.984318 -0.41794264 -23.16297 -0.41361493 -23.154057 -27.319723 -19.236296
1200000000 -26.753492 -19.982983 -0.4274027 -25.180357 -0.4219811 -25.15675 -27.297789 -20.343958
1300000000 -26.75296 -21.517633 -0.43292916 -27.245268 -0.4282791 -27.220224 -27.182465 -22.647734
1400000000 -26.625444 -23.709047 -0.4385291 -29.253756 -0.43220508 -29.226179 -27.147358 -24.125
1500000000 -26.625881 -26.332132 -0.44144496 -31.295706 -0.43386188 -31.279579 -26.94451 -26.351667
1600000000 -26.499592 -28.566753 -0.44545776 -33.348225 -0.43765491 -33.325054 -26.836605 -29.720366
1700000000 -26.467258 -31.241316 -0.44544399 -35.381256 -0.43833438 -35.373158 -26.753658 -31.376642
1800000000 -26.290678 -33.576126 -0.44719106 -37.443596 -0.44076303 -37.420605 -26.676998 -33.91964
1900000000 -26.229586 -36.324738 -0.45031375 -39.501591 -0.44384727 -39.492073 -26.587805 -36.937923
2000000000 -26.219114 -38.486893 -0.4564569 -41.55933 -0.44947165 -41.560104 -26.496027 -39.761383
2100000000 -26.189295 -41.401619 -0.45897511 -43.611183 -0.45266637 -43.607796 -26.431616 -42.182587
2200000000 -26.297009 -44.266796 -0.46201587 -45.676586 -0.45685947 -45.656635 -26.368908 -44.964569
2300000000 -26.244764 -46.849728 -0.46577048 -47.746639 -0.46017474 -47.724216 -26.356173 -47.306099
2400000000 -26.194414 -49.303005 -0.47000685 -49.780807 -0.46465054 -49.775307 -26.34646 -49.29277
2500000000 -26.136703 -51.377148 -0.47342858 -51.865566 -0.47027281 -51.838802 -26.310053 -52.252911
2600000000 -26.151257 -54.603149 -0.48222211 -53.919067 -0.47807902 -53.894005 -26.425079 -55.228161
2700000000 -26.278589 -57.41272 -0.49152827 -55.977421 -0.48324448 -55.940365 -26.493427 -58.948132
2800000000 -26.323496 -60.390793 -0.49752277 -58.00528 -0.48866755 -57.978615 -26.468369 -61.683296
2900000000 -26.505192 -62.977638 -0.49939343 -60.019196 -0.49648342 -60.019878 -26.291508 -64.738457
3000000000 -26.437969 -64.686813 -0.5038299 -62.052052 -0.49611601 -62.036999 -26.43811 -66.345451
3100000000 -26.570906 -67.380348 -0.50618261 -64.100449 -0.49731812 -64.07634 -26.421165 -67.813789
3200000000 -26.449265 -69.330734 -0.51044899 -66.149551 -0.50400722 -66.129128 -26.596045 -70.320938
3300000000 -26.534786 -73.776169 -0.51426172 -68.177696 -0.50470179 -68.182404 -26.591347 -73.325035
3400000000 -26.782032 -76.547012 -0.5183745 -70.235222 -0.51127851 -70.222717 -26.783758 -77.093262
3500000000 -26.755831 -79.262306 -0.52394497 -72.259048 -0.51648802 -72.239204 -26.769579 -79.631432
3600000000 -26.787706 -81.488503 -0.52587152 -74.293144 -0.51924843 -74.271858 -26.718822 -82.455963
3700000000 -26.617504 -84.614403 -0.52618325 -76.306885 -0.52107304 -76.295547 -26.658535 -83.452354
3800000000 -26.840834 -87.563774 -0.5256021 -78.360992 -0.51913089 -78.356079 -26.571115 -86.405685
3900000000 -26.74864 -89.004684 -0.52733356 -80.428787 -0.52013952 -80.399841 -26.81395 -88.625755
4000000000 -26.918522 -92.28653 -0.53395402 -82.496017 -0.52811605 -82.484024 -26.987165 -92.437645
4100000000 -26.882668 -94.127441 -0.54094493 -84.55011 -0.53469938 -84.520828 -27.233797 -94.088615
4200000000 -27.06214 -97.106949 -0.54869431 -86.560852 -0.54176217 -86.532135 -26.981468 -96.634468
4300000000 -27.17602 -99.060753 -0.54836768 -88.570816 -0.54241061 -88.544395 -27.105433 -99.661514
4400000000 -27.332281 -102.13035 -0.55028301 -90.591179 -0.54378927 -90.572372 -27.281279 -101.70911
4500000000 -27.487886 -104.84717 -0.55053633 -92.633774 -0.54467249 -92.616463 -27.466492 -104.52486
4600000000 -27.553383 -108.25168 -0.55227447 -94.683632 -0.54853129 -94.649506 -27.567362 -107.20547
4700000000 -27.711792 -112.0761 -0.5546003 -96.721107 -0.5498808 -96.700928 -27.476286 -111.18578
4800000000 -27.887224 -114.77892 -0.55808437 -98.747253 -0.55303675 -98.745735 -27.577673 -113.59035
4900000000 -27.986607 -117.07183 -0.55796814 -100.80812 -0.55516803 -100.7886 -27.412462 -115.94975
5000000000 -28.1453 -118.68736 -0.56181693 -102.8522 -0.55541068 -102.8275 -27.638367 -116.32014
5100000000 -28.252563 -120.05033 -0.56293339 -104.888 -0.55903322 -104.86493 -27.820837 -117.55298
5200000000 -28.386627 -123.69707 -0.5639773 -106.92554 -0.55954581 -106.91833 -28.393335 -120.48996
5300000000 -28.422119 -126.8703 -0.56759602 -108.97811 -0.56487048 -108.94856 -28.676558 -125.55222
5400000000 -28.539097 -132.45453 -0.57194978 -111.02368 -0.56634247 -110.99592 -28.753761 -131.84296
5500000000 -28.774691 -134.7444 -0.5736472 -113.0549 -0.56967068 -113.02945 -28.306864 -134.63835
5600000000 -28.72057 -138.17206 -0.58001089 -115.09528 -0.57415086 -115.07399 -28.261002 -136.29448
5700000000 -29.167646 -138.62404 -0.58258849 -117.13203 -0.57707059 -117.10399 -28.2658 -133.45966
5800000000 -29.067102 -141.87656 -0.58137143 -119.15268 -0.57735026 -119.12443 -28.895542 -135.42668
5900000000 -29.451479 -145.45839 -0.5857538 -121.18997 -0.58011532 -121.16199 -29.756021 -138.73286
6000000000 -29.177044 -149.14613 -0.58579111 -123.20177 -0.58005762 -123.18575 -30.182508 -148.07039
6100000000 -29.60825 -154.95081 -0.5870133 -125.23972 -0.57911664 -125.20849 -30.153481 -155.02335
6200000000 -29.783123 -156.45015 -0.58625686 -127.27959 -0.57943696 -127.25884 -29.661224 -157.53667
6300000000 -30.209425 -161.83003 -0.58460248 -129.35463 -0.57874221 -129.32324 -29.735334 -155.80296
6400000000 -30.561676 -163.70093 -0.59387296 -131.38208 -0.58788186 -131.35672 -29.738861 -155.44586
6500000000 -30.335291 -170.06306 -0.59149778 -133.45531 -0.58597773 -133.42072 -31.353514 -160.79855
6600000000 -30.574471 -173.5842 -0.59704149 -135.49664 -0.59240079 -135.47115 -32.182583 -167.06219
6700000000 -30.574543 -177.65977 -0.60208821 -137.5213 -0.59726602 -137.4949 -32.157253 -176.37247
6800000000 -31.383888 -176.41208 -0.6043784 -139.54895 -0.6000613 -139.53679 -31.634214 -178.5538
6900000000 -31.404112 -176.16602 -0.60549301 -141.6044 -0.60169572 -141.57646 -31.753855 -178.38667
7000000000 -32.079388 -178.34006 -0.61088926 -143.66675 -0.60442245 -143.64099 -32.322319 -174.30185
7100000000 -31.753609 178.3756 -0.62450397 -145.68231 -0.62035555 -145.65187 -33.482422 -178.59947
7200000000 -31.970903 168.24103 -0.61659169 -147.62238 -0.61106384 -147.58916 -34.552822 167.90535
7300000000 -32.154888 163.52602 -0.60934669 -149.70715 -0.60542399 -149.67001 -33.934994 153.87608
7400000000 -32.791824 158.35585 -0.61452109 -151.79739 -0.60846215 -151.7784 -33.485321 155.73848
7500000000 -33.185802 157.11394 -0.61703926 -153.78542 -0.61334985 -153.76497 -33.052212 160.57617
7600000000 -34.058365 154.86197 -0.61806041 -155.86009 -0.61095601 -155.82317 -34.528988 165.13252
7700000000 -34.116856 152.56554 -0.61760324 -157.90401 -0.61177099 -157.87105 -37.518272 159.34372
7800000000 -33.92474 150.96193 -0.61563116 -159.94899 -0.61158293 -159.93706 -39.079189 128.78828
7900000000 -33.453045 145.65498 -0.62238562 -162.01445 -0.61364502 -161.97281 -36.258224 112.27384
8000000000 -33.763798 138.12253 -0.62245703 -164.04889 -0.61818522 -164.01689 -34.263134 117.88244
8100000000 -34.313778 133.42148 -0.62338358 -166.10251 -0.62007636 -166.06662 -34.598572 128.77092
8200000000 -35.180183 128.27483 -0.62721545 -168.15997 -0.6216194 -168.11453 -37.277679 139.7686
8300000000 -35.164593 130.03682 -0.62736529 -170.20805 -0.62368536 -170.16443 -44.119457 112.30579
8400000000 -34.222931 124.12108 -0.63236654 -172.30315 -0.62740356 -172.2515 -37.663105 54.662762
8500000000 -33.826698 116.10612 -0.64767724 -174.40311 -0.64227533 -174.37747 -31.325714 67.389915
8600000000 -34.644405 106.32329 -0.71252149 -176.46036 -0.70570523 -176.44202 -26.71839 91.410645
8700000000 -32.419147 112.43272 -0.74482739 -177.43848 -0.73824167 -177.39127 -21.455479 95.368118
8800000000 -34.02861 95.662109 -0.58037126 -179.79204 -0.57296038 -179.77151 -22.640699 87.659096
8900000000 -34.963104 101.12062 -0.60207152 177.66104 -0.59758741 177.70309 -26.787315 99.508858
9000000000 -34.999111 96.614182 -0.6287443 175.5665 -0.62355953 175.58768 -31.969812 121.83238
9100000000 -35.708641 85.10199 -0.64185673 173.52286 -0.63650912 173.56404 -42.096348 138.63843
9200000000 -36.226994 85.767815 -0.64519107 171.49199 -0.64405662 171.53836 -42.304977 -15.317425
9300000000 -35.555103 80.302048 -0.65576226 169.49062 -0.64782023 169.52864 -34.184353 9.0412455
9400000000 -35.430923 82.309296 -0.65603411 167.47322 -0.651398 167.50835 -32.103817 19.821407
9500000000 -35.065929 76.295555 -0.66018152 165.44475 -0.65303349 165.48462 -31.977755 34.394848
9600000000 -36.135551 68.611679 -0.66035151 163.40692 -0.65583754 163.45294 -34.226326 37.111927
9700000000 -36.120678 63.008743 -0.66048318 161.36336 -0.65568912 161.37613 -35.901443 27.913603
9800000000 -36.297905 55.400108 -0.66505843 159.31177 -0.65732169 159.34831 -35.139843 4.8385773
9900000000 -35.80278 59.184826 -0.66692936 157.25505 -0.66166085 157.29962 -32.530449 0.3374427
10000000000 -35.08593 53.82391 -0.67233723 155.20801 -0.66544431 155.26492 -30.935463 2.185226
10100000000 -35.137199 49.826519 -0.67394978 153.16577 -0.6677205 153.20331 -30.998243 11.300301
10200000000 -34.696449 40.014938 -0.67926079 151.12338 -0.67114943 151.15834 -31.864502 13.018126
10300000000 -35.315758 32.613968 -0.68140429 149.06667 -0.67792219 149.103 -33.670284 5.3941412
10400000000 -35.580631 31.626513 -0.68641609 147.04199 -0.67927498 147.07063 -33.350876 -12.247146
10500000000 -36.256786 30.609749 -0.69117439 144.96428 -0.68798351 145.03883 -31.617136 -25.706726
10600000000 -35.84901 32.449608 -0.69599968 142.95836 -0.68910158 143.01335 -29.546564 -24.474375
10700000000 -35.22649 23.700739 -0.70248938 140.94675 -0.695526 140.99599 -28.789217 -20.344555
10800000000 -34.786102 19.893606 -0.70260072 138.92542 -0.69761401 138.98276 -28.501566 -14.28191
10900000000 -34.021145 11.891329 -0.70808643 136.91077 -0.69981015 136.96588 -29.509359 -11.20787
11000000000 -34.911747 8.4236422 -0.70948678 134.89169 -0.7044903 134.94481 -30.138288 -15.993607
11100000000 -35.360538 7.0434861 -0.71172881 132.86684 -0.70826775 132.92871 -30.72509 -25.924078
11200000000 -35.959366 3.6941335 -0.71658826 130.84705 -0.71236533 130.89926 -29.94976 -34.854542
11300000000 -35.08868 3.0307293 -0.71935916 128.83578 -0.7129665 128.88005 -29.198156 -39.029266
11400000000 -34.599457 -5.7784486 -0.71587092 126.81037 -0.71204937 126.85003 -28.058289 -40.655685
11500000000 -34.41058 -8.9490433 -0.71978956 124.80866 -0.71563554 124.84485 -27.845818 -41.160686
11600000000 -34.680302 -15.363957 -0.7204529 122.78693 -0.7148872 122.81847 -27.849319 -39.296066
11700000000 -35.044968 -16.978073 -0.72264409 120.75813 -0.71551436 120.79852 -28.061232 -40.05035
11800000000 -35.400475 -19.581701 -0.72365618 118.74577 -0.71933621 118.77452 -28.169161 -42.2855
11900000000 -35.245079 -22.892458 -0.72530931 116.71532 -0.71676111 116.76218 -28.468145 -47.043392
12000000000 -35.232021 -25.890425 -0.72733825 114.68906 -0.72133094 114.74005 -28.117157 -52.253284
12100000000 -35.036644 -31.77544 -0.72964805 112.68163 -0.72273093 112.72179 -28.230169 -57.54184
12200000000 -35.414604 -41.913643 -0.73165637 110.66766 -0.72168791 110.70774 -27.797104 -60.976219
12300000000 -35.516243 -43.473709 -0.72640735 108.66696 -0.72357392 108.69427 -27.56683 -62.732372
12400000000 -35.940441 -48.212219 -0.73080021 106.65177 -0.72096848 106.67118 -27.615988 -62.738689
12500000000 -36.184845 -41.59856 -0.72698176 104.62139 -0.72028702 104.66568 -27.829319 -66.037209
12600000000 -36.499298 -49.867256 -0.72172093 102.59594 -0.71622103 102.66292 -27.834051 -69.015221
12700000000 -37.225956 -51.503544 -0.71586573 100.56242 -0.71208745 100.62837 -28.039225 -73.346848
12800000000 -36.989201 -64.125488 -0.71245104 98.538918 -0.70859349 98.571533 -27.77072 -74.155586
12900000000 -37.424412 -68.187355 -0.71204966 96.486992 -0.70449519 96.52916 -28.301075 -76.809059
13000000000 -36.545162 -70.301788 -0.71135163 94.442184 -0.7040903 94.466316 -28.312578 -79.221016
13100000000 -38.852596 -73.682266 -0.70798802 92.37989 -0.70128083 92.393394 -28.405367 -85.740318
13200000000 -38.057796 -66.824089 -0.7068724 90.31855 -0.70271575 90.351196 -27.919485 -87.820671
13300000000 -39.946117 -77.424454 -0.70576584 88.261894 -0.70165014 88.285255 -27.229389 -90.04483
13400000000 -38.427837 -66.145836 -0.70558864 86.200142 -0.69841325 86.253349 -27.282475 -89.077415
13500000000 -39.436794 -79.104164 -0.70648003 84.147034 -0.6984728 84.188446 -27.574894 -86.96492
13600000000 -39.646305 -71.364395 -0.70479965 82.089561 -0.7006228 82.13353 -27.934347 -85.363174
13700000000 -39.050365 -82.1073 -0.71243364 80.00589 -0.70703781 80.04924 -28.336599 -90.225891
13800000000 -39.720306 -77.29023 -0.71936065 77.91478 -0.7157445 77.95443 -28.818151 -93.651421
13900000000 -37.171223 -86.087143 -0.73557651 75.833366 -0.73435318 75.885384 -27.807453 -100.41341
14000000000 -38.160118 -86.688431 -0.75572711 73.902451 -0.74806714 73.956985 -27.424139 -102.93897
14100000000 -39.017815 -108.14716 -0.75059938 72.003189 -0.7438221 72.057884 -27.108383 -107.37196
14200000000 -42.530964 -120.44444 -0.73426402 70.018684 -0.73153448 70.056831 -27.86388 -106.25593
14300000000 -41.627739 -129.78488 -0.72417635 67.932205 -0.72177535 67.997017 -28.199406 -108.87918
14400000000 -44.044838 -137.50203 -0.72111452 65.836998 -0.71782672 65.893623 -28.687366 -107.81376
14500000000 -41.833927 -120.20354 -0.72460854 63.727005 -0.72270584 63.788933 -29.076777 -110.42564
14600000000 -42.257225 -114.32492 -0.74654979 61.668045 -0.74031597 61.71244 -29.693054 -110.37187
14700000000 -42.240616 -139.20026 -0.74486029 59.772217 -0.73464322 59.818935 -30.000538 -119.53457
14800000000 -42.470173 -166.54637 -0.73837239 57.72102 -0.73256546 57.748287 -31.622114 -127.13995
14900000000 -42.01268 -159.20215 -0.73542011 55.693916 -0.73255658 55.728275 -31.536606 -137.22586
15000000000 -41.075726 -176.60512 -0.73089182 53.636524 -0.72997051 53.697075 -30.327095 -136.40689
15100000000 -43.556084 -165.18359 -0.73579973 51.575443 -0.72756416 51.634216 -29.653175 -136.66187
15200000000 -42.200275 171.8 -0.73459351 49.500546 -0.72980821 49.583248 -29.600386 -130.27322
15300000000 -44.613258 -171.52843 -0.73695165 47.461422 -0.73140794 47.514694 -30.955326 -126.95138
15400000000 -38.756943 174.06364 -0.73766303 45.387501 -0.73569947 45.445637 -33.619598 -132.05826
15500000000 -40.32785 178.38 -0.74314409 43.343582 -0.74043322 43.401031 -34.897564 -145.04626
15600000000 -37.200085 168.13367 -0.75061351 41.271141 -0.74390101 41.311283 -34.094074 -171.91046
15700000000 -40.869366 150.10379 -0.75069505 39.242477 -0.74723262 39.293182 -31.724209 -169.63936
15800000000 -39.299435 140.74083 -0.74988741 37.224998 -0.75093049 37.255119 -30.472874 -166.18437
15900000000 -39.916286 118.27 -0.75437397 35.164665 -0.75119448 35.22913 -30.566801 -159.5937
16000000000 -37.513241 138.41882 -0.75702703 33.14362 -0.75330549 33.202881 -32.220695 -157.05672
16100000000 -37.243538 125.96325 -0.76272416 31.120886 -0.75602591 31.168264 -33.836369 -154.47531
16200000000 -37.062004 141.90674 -0.76685035 29.085606 -0.76191276 29.156801 -36.874645 -177.02153
16300000000 -37.600174 122.4383 -0.76814276 27.069878 -0.7622453 27.125599 -36.138031 -179.50304
16400000000 -39.588566 117.83339 -0.77506024 25.025951 -0.77088732 25.075638 -34.960274 159.02084
16500000000 -36.697628 96.9189 -0.77294791 22.999016 -0.77206469 23.044008 -33.726151 166.79544
16600000000 -36.699306 94.838493 -0.77733213 20.966549 -0.77326494 21.029634 -34.841713 162.32071
16700000000 -33.876858 101.39747 -0.78020889 18.937607 -0.77735841 18.989231 -35.740723 168.67458
16800000000 -34.521961 108.1462 -0.78051281 16.894833 -0.7803672 16.953728 -38.098705 150.47809
16900000000 -33.957935 112.28302 -0.7828089 14.869546 -0.7785663 14.938076 -39.545998 141.96028
17000000000 -36.374027 97.598969 -0.78769243 12.819231 -0.78234988 12.916832 -36.473888 123.03624
17100000000 -35.197456 84.932747 -0.78859872 10.820441 -0.78647047 10.854085 -36.62561 122.01718
17200000000 -33.191193 72.392212 -0.79335266 8.7791395 -0.79172933 8.8167257 -35.419586 121.55774
17300000000 -31.548124 84.061935 -0.79418892 6.747087 -0.79010564 6.8021288 -37.79657 109.10198
17400000000 -30.505028 92.387619 -0.79385513 4.7156534 -0.79427814 4.7799568 -35.983028 81.6987
17500000000 -30.779736 102.94094 -0.79965281 2.6677186 -0.79488707 2.7390814 -33.91114 66.130844
17600000000 -32.063725 92.089745 -0.80186599 0.67514497 -0.79631251 0.72582018 -31.680172 72.561768
17700000000 -32.259483 81.191101 -0.80453134 -1.3679426 -0.80051833 -1.2969584 -30.389725 79.572731
17800000000 -30.242004 65.209152 -0.81295365 -3.3910413 -0.80659175 -3.3577285 -30.501814 90.279587
17900000000 -29.281513 71.456718 -0.81140912 -5.4215794 -0.80469364 -5.3488755 -32.648609 90.275871
18000000000 -28.360723 78.119621 -0.80908382 -7.4504457 -0.80632651 -7.4273391 -35.72805 71.600021
18100000000 -29.416681 87.85144 -0.81120348 -9.4657755 -0.80404907 -9.4333925 -33.397713 33.523422
18200000000 -29.78587 84.050148 -0.81025159 -11.498193 -0.8036949 -11.43705 -29.614639 30.956039
18300000000 -30.463577 72.806923 -0.80735672 -13.49555 -0.8073352 -13.472575 -27.292805 43.443279
18400000000 -28.518948 64.223114 -0.81273764 -15.578818 -0.81432545 -15.526009 -26.184278 56.67437
18500000000 -28.068867 57.453976 -0.8192361 -17.629488 -0.81274045 -17.557655 -27.44589 70.767143
18600000000 -27.566631 61.150181 -0.8125813 -19.674986 -0.809246 -19.632351 -30.884659 74.351196
18700000000 -28.889299 62.639011 -0.81061691 -21.717083 -0.80644399 -21.649418 -35.338066 42.942822
18800000000 -28.843815 66.123955 -0.80777383 -23.757021 -0.79943001 -23.698112 -30.471378 1.5847902
18900000000 -28.67907 59.406528 -0.80980802 -25.774616 -0.79661852 -25.686281 -26.688726 5.7077532
19000000000 -28.133133 57.790943 -0.80735576 -27.707727 -0.80038667 -27.645294 -24.625746 21.812164
19100000000 -26.956415 50.043026 -0.81179637 -29.725389 -0.80388242 -29.66765 -24.815346 29.817533
19200000000 -27.028271 47.528996 -0.81249547 -31.753298 -0.80975908 -31.72123 -25.83639 44.412037
19300000000 -26.549261 46.486607 -0.81222016 -33.835518 -0.80484104 -33.76432 -28.932173 32.707096
19400000000 -26.614313 49.275261 -0.81067556 -35.867249 -0.80635488 -35.822365 -28.548138 18.969822
19500000000 -26.039942 51.396252 -0.80991191 -37.920898 -0.80359435 -37.889542 -26.981752 1.0748714
19600000000 -26.459772 48.491581 -0.81368536 -39.972538 -0.80550593 -39.914467 -24.762564 5.6901288
19700000000 -26.383661 43.618816 -0.81234688 -41.984669 -0.80243737 -41.924358 -24.031841 8.9052191
19800000000 -25.712446 34.607956 -0.81510425 -44.023708 -0.80864501 -43.985447 -24.262674 17.014257
19900000000 -24.74354 33.520763 -0.81846249 -46.078121 -0.80994308 -46.036964 -24.714548 12.713308
20000000000 -24.056992 37.346375 -0.8188591 -48.155804 -0.81232625 -48.111015 -25.218067 7.7756948
20100000000 -23.795834 41.027386 -0.82195967 -50.198315 -0.81784087 -50.128613 -23.979237 -0.025557157
20200000000 -24.483566 40.481014 -0.82694536 -52.216488 -0.8201077 -52.163532 -23.007883 -0.50695401
20300000000 -25.323395 33.287525 -0.82958984 -54.262249 -0.82641149 -54.203754 -22.572184 3.2796202
20400000000 -24.955328 23.076996 -0.8340655 -56.29335 -0.83259463 -56.251644 -23.297766 6.6440835
20500000000 -24.03698 18.388929 -0.84519422 -58.37291 -0.83969003 -58.307323 -24.22617 4.6370635
20600000000 -23.542727 20.039692 -0.85240859 -60.407055 -0.84122109 -60.350616 -24.621325 -10.453644
20700000000 -23.921429 25.990356 -0.85314322 -62.386669 -0.84633309 -62.352997 -23.284412 -19.404318
20800000000 -24.369434 27.112164 -0.85596257 -64.344482 -0.85094601 -64.297798 -21.897057 -24.690266
20900000000 -25.169844 23.983366 -0.84486657 -66.271797 -0.83742523 -66.228546 -21.033396 -17.852798
21000000000 -25.106136 15.262018 -0.83570564 -68.271545 -0.82922888 -68.219246 -21.625889 -11.11022
21100000000 -24.430248 8.7474957 -0.83175248 -70.358963 -0.82093632 -70.302475 -22.480564 -8.5037594
21200000000 -23.771158 9.9622622 -0.83980876 -72.526947 -0.83095688 -72.494904 -24.084433 -10.71926
21300000000 -24.042185 10.659827 -0.84695536 -74.694786 -0.83558673 -74.59951 -24.508694 -28.534271
21400000000 -24.184059 15.674144 -0.86399382 -76.681091 -0.85768265 -76.633354 -23.104731 -36.762318
21500000000 -25.397537 10.080929 -0.85563976 -78.69912 -0.85137802 -78.632393 -21.689487 -45.722237
21600000000 -25.173838 9.8056831 -0.85038996 -80.617836 -0.84367907 -80.538475 -20.590868 -38.06134
21700000000 -24.48971 -1.0050768 -0.83852404 -82.588486 -0.83125907 -82.517426 -20.219933 -30.63195
21800000000 -23.731655 -1.3589989 -0.83106846 -84.542511 -0.82432318 -84.465828 -21.167427 -23.490704
21900000000 -23.195381 -1.4330773 -0.83238173 -86.522263 -0.82756358 -86.482811 -21.964285 -22.42664
22000000000 -23.443602 5.3214827 -0.84134489 -88.656395 -0.8356027 -88.609138 -24.251062 -34.328556
22100000000 -23.570593 5.6115184 -0.84175056 -90.75161 -0.83510041 -90.705437 -22.925138 -49.26405
22200000000 -24.513924 4.0152831 -0.84895134 -92.839203 -0.84419215 -92.771088 -22.213356 -52.781582
22300000000 -24.114651 -3.0035822 -0.84154379 -94.949631 -0.83703536 -94.889313 -20.034363 -48.048946
22400000000 -23.272053 -10.859587 -0.84148127 -96.941139 -0.83312047 -96.885788 -20.073215 -41.175735
22500000000 -22.257849 -12.288616 -0.83344573 -98.940117 -0.8297835 -98.883858 -20.329268 -33.65678
22600000000 -22.194445 -9.5740538 -0.8424589 -100.96507 -0.83469695 -100.88488 -22.17392 -37.782749
22700000000 -22.785553 -1.8764259 -0.8438611 -102.9637 -0.84095311 -102.87573 -22.558565 -45.095982
22800000000 -24.081842 -3.4553638 -0.85341483 -104.97041 -0.84505397 -104.92724 -22.397888 -61.090183
22900000000 -24.759836 -11.792017 -0.84877318 -107.07759 -0.84226274 -107.02958 -20.709579 -57.147968
23000000000 -23.614645 -25.720043 -0.85499328 -109.10341 -0.84805501 -109.06436 -20.470356 -55.207222
23100000000 -22.677126 -27.021242 -0.85404688 -111.20569 -0.84244978 -111.16087 -20.467577 -44.432362
23200000000 -22.009003 -21.524036 -0.85571539 -113.24062 -0.83811808 -113.18173 -22.198532 -46.086651
23300000000 -22.680912 -12.052949 -0.84898907 -115.31996 -0.84216124 -115.28185 -24.237606 -53.643143
23400000000 -24.11245 -9.2145748 -0.84996933 -117.34678 -0.84509552 -117.29822 -23.316338 -74.466133
23500000000 -26.03067 -16.130352 -0.85497564 -119.36325 -0.84958118 -119.31282 -21.7959 -78.056282
23600000000 -25.603531 -31.817225 -0.85891622 -121.41164 -0.85454071 -121.34304 -19.72677 -72.900085
23700000000 -24.027596 -40.338619 -0.86565864 -123.42239 -0.85858691 -123.38882 -19.919962 -58.542454
23800000000 -23.335381 -40.752075 -0.8702355 -125.4455 -0.86375004 -125.39182 -21.689425 -51.681465
23900000000 -24.006226 -30.37619 -0.87392753 -127.54959 -0.86887246 -127.48239 -24.30821 -46.246708
24000000000 -24.900684 -22.212412 -0.86990148 -129.71495 -0.86420417 -129.61021 -27.532642 -89.020203
24100000000 -27.181242 -20.397348 -0.86763632 -131.71323 -0.85676402 -131.68987 -23.943758 -102.30745
24200000000 -27.674555 -31.502476 -0.86179996 -133.72902 -0.84859157 -133.70053 -21.593191 -97.643044
24300000000 -26.814575 -48.291096 -0.85786903 -135.74596 -0.84844083 -135.65312 -19.871784 -86.406281
24400000000 -24.79985 -48.947269 -0.85675395 -137.65691 -0.84919965 -137.6057 -20.539448 -70.275414
24500000000 -25.086992 -48.065235 -0.86634558 -139.65251 -0.8596406 -139.61279 -22.575161 -61.435905
24600000000 -25.907925 -34.712135 -0.88148856 -141.73186 -0.86984837 -141.6636 -26.614128 -59.661068
24700000000 -27.95048 -31.613691 -0.8793695 -143.77599 -0.8724314 -143.74701 -29.568302 -94.291763
24800000000 -30.355997 -27.921915 -0.8805728 -145.93695 -0.87557966 -145.87495 -26.464973 -118.73419
24900000000 -29.750385 -51.751152 -0.86332119 -147.94676 -0.85713136 -147.88246 -23.820553 -109.30257
25000000000 -28.780458 -54.146015 -0.86455446 -149.96103 -0.85378188 -149.93248 -21.954203 -100.59301
25100000000 -26.266993 -56.264996 -0.85541469 -151.92114 -0.84658474 -151.87067 -23.165573 -82.834373
25200000000 -27.846693 -43.983223 -0.86293024 -153.86331 -0.85825509 -153.8257 -24.66415 -78.447403
25300000000 -27.620819 -35.860893 -0.87295359 -155.88567 -0.86754531 -155.81023 -29.214865 -76.042023
25400000000 -31.718969 -24.233715 -0.87205774 -157.97011 -0.86800528 -157.91235 -28.623537 -109.03365
25500000000 -32.052696 -27.023867 -0.88520509 -160.02052 -0.87323624 -159.92589 -30.935587 -107.69024
25600000000 -32.67474 -61.541309 -0.8789885 -162.16437 -0.86963743 -162.10339 -26.447262 -118.89253
25700000000 -31.642433 -54.978382 -0.86727065 -164.19318 -0.85799485 -164.10458 -27.023363 -96.361046
25800000000 -31.27564 -51.295063 -0.87181503 -166.18449 -0.86756551 -166.12177 -28.112236 -106.76025
25900000000 -30.908527 -30.077848 -0.86319107 -168.17442 -0.86034554 -168.14664 -28.86088 -84.8601
26000000000 -31.493 -29.185163 -0.87115979 -170.19714 -0.86379963 -170.15967 -33.571983 -88.838295
26100000000 -34.119034 -19.37792 -0.86772484 -172.31415 -0.86280298 -172.21321 -33.107639 -82.937973
26200000000 -34.560207 -10.401683 -0.87953651 -174.33096 -0.87007481 -174.26987 -36.47805 -78.383781
26300000000 -37.040028 -11.084076 -0.88692755 -176.35243 -0.88437521 -176.31163 -35.61953 -123.79276
26400000000 -38.345085 -8.4738884 -0.88810855 -178.47496 -0.8843717 -178.38077 -34.510792 -84.5065
26500000000 -39.443584 5.9453759 -0.88557929 179.49049 -0.88461006 179.60309 -38.013443 -83.403175
26600000000 -34.340286 11.145623 -0.9002462 177.49445 -0.88849854 177.52296 -34.581554 -64.873657
26700000000 -32.423069 17.533529 -0.90507877 175.405 -0.89221889 175.46875 -34.355686 -17.898909
26800000000 -32.328308 26.08857 -0.89038092 173.48233 -0.88295323 173.42989 -34.089878 -0.18564114
26900000000 -32.530754 46.728161 -0.90556657 171.27052 -0.89389867 171.37016 -33.764175 24.273169
27000000000 -32.508434 45.682636 -0.89861685 169.26157 -0.8957544 169.42841 -32.594761 63.649586
27100000000 -32.563293 36.393147 -0.91298836 167.38365 -0.90804911 167.39862 -42.238571 30.357019
27200000000 -29.457104 45.629688 -0.90749013 165.30214 -0.90933061 165.33072 -37.059967 -8.3650455
27300000000 -29.30794 42.33176 -0.92693365 163.29456 -0.92055982 163.31294 -29.141052 -4.1959743
27400000000 -27.946053 40.752441 -0.92775154 161.22902 -0.92158097 161.26608 -27.523571 11.229982
27500000000 -28.489061 45.555614 -0.92226529 159.22673 -0.92975903 159.23116 -26.037716 20.234308
27600000000 -27.920023 43.261799 -0.91387326 157.11514 -0.91587245 157.09525 -27.279709 46.13382
27700000000 -28.173042 37.29417 -0.9239555 155.22211 -0.90297204 155.15302 -29.052395 41.649624
27800000000 -25.791573 38.071918 -0.92034352 152.97198 -0.89818388 153.18321 -32.192551 34.258633
27900000000 -26.653259 39.294788 -0.91708398 151.06516 -0.9135263 151.10507 -27.387148 -11.61664
28000000000 -25.074945 41.408802 -0.92789769 148.79265 -0.93709832 149.0921 -25.998299 6.1176581
28100000000 -26.422752 37.665661 -0.93789721 147.00775 -0.92933512 147.22951 -23.523899 8.289732
28200000000 -25.683201 34.888149 -0.95695424 144.91302 -0.93733281 145.10622 -24.206261 22.698565
28300000000 -25.272911 23.371218 -0.95308131 142.84279 -0.94325006 142.87605 -26.108131 23.250315
28400000000 -25.570393 26.203058 -0.93497247 140.76634 -0.94593543 140.81453 -29.556789 5.769659
28500000000 -24.13069 28.758154 -0.96109539 138.7139 -0.92322832 138.83061 -23.890289 -9.1489019
28600000000 -23.896633 25.743504 -0.91148227 136.69952 -0.8940714 136.8759 -22.644266 -14.394032
28700000000 -23.359072 28.320786 -0.9238264 134.91507 -0.90901691 134.94609 -20.003448 1.4965221
28800000000 -23.681694 36.379784 -0.95808661 132.81064 -0.96049082 132.80728 -21.610947 15.645963
28900000000 -22.305157 30.116125 -0.94804412 130.49757 -0.94771212 130.78865 -23.26153 11.323381
29000000000 -24.263304 24.899355 -0.94391692 128.40265 -0.95666349 128.44341 -25.239824 -9.1234913
29100000000 -22.831636 28.070786 -0.94995147 126.29181 -0.95766288 126.26032 -22.072342 -36.088085
29200000000 -22.023596 23.152727 -0.93304825 124.29568 -0.92742592 124.33368 -19.608408 -23.46516
29300000000 -20.105127 25.779274 -0.93686128 122.28979 -0.92512125 122.37248 -17.39229 -12.21397
29400000000 -20.299286 21.187874 -0.94853485 120.50264 -0.94741464 120.55777 -18.015213 3.1319304
29500000000 -20.488079 29.840178 -0.94540858 118.43353 -0.94981742 118.58389 -18.664421 5.1955109
29600000000 -21.270531 26.63213 -1.0058345 116.45831 -0.96445119 116.26044 -21.987782 2.9700732
29700000000 -21.467562 26.00532 -0.97902799 114.3643 -0.97090244 114.26331 -20.944071 -18.789751
29800000000 -20.497255 14.972503 -1.0104368 112.05319 -1.0010072 112.18021 -20.478125 -32.431473
29900000000 -20.205599 14.954436 -0.96988285 110.15952 -0.96182251 110.29985 -16.575596 -29.270973
30000000000 -18.426851 16.83964 -0.9966324 108.11204 -0.98895949 108.13205 -16.97941 -19.374823
30100000000 -18.567081 17.959303 -0.99401027 106.10233 -0.98842448 106.18789 -16.329563 -13.388267
30200000000 -18.36018 17.176214 -0.99584609 104.07912 -0.98827207 104.30785 -18.470945 -7.3326716
30300000000 -20.280455 12.669086 -0.99162775 102.17969 -0.99452317 102.26743 -18.642649 -14.319124
30400000000 -20.161911 9.0584488 -1.0297712 100.12286 -0.99190062 100.06369 -20.717253 -35.695576
30500000000 -19.881725 1.4459198 -1.0072457 98.103905 -0.99365783 98.215157 -17.574469 -34.227634
30600000000 -18.89533 0.71226311 -0.9985404 96.157562 -0.98438996 96.118111 -17.593416 -38.813213
30700000000 -19.041691 1.3943709 -0.97076064 94.075958 -0.99673402 94.086113 -16.349964 -31.359961
30800000000 -18.342493 6.0799875 -1.0123711 92.278099 -1.0116123 92.132492 -17.856806 -24.818903
30900000000 -18.801968 2.8042314 -1.0233411 90.047447 -0.99665296 90.317078 -17.281183 -28.038532
31000000000 -18.574764 6.0689535 -1.0297853 88.029022 -1.0187205 88.118484 -18.687916 -35.103664
31100000000 -20.708103 -5.3502202 -1.0190858 85.707176 -1.0104204 85.835976 -18.060524 -45.57
31200000000 -19.783388 -9.89639 -1.042173 83.860153 -0.99653995 83.89296 -16.234215 -46.496784
31300000000 -18.644695 -17.291506 -1.0254515 81.805412 -0.99855471 81.949692 -17.025568 -46.796257
31400000000 -17.41398 -10.121485 -0.97337496 79.980499 -0.98935026 80.054512 -16.026842 -43.365868
31500000000 -17.526321 -7.5875597 -1.0195506 78.05909 -1.0022594 77.936226 -16.797268 -34.267456
31600000000 -18.468142 1.8440183 -1.0321964 75.889801 -1.0364861 75.907776 -18.244141 -44.396763
31700000000 -19.759762 -2.769413 -1.0407428 73.820679 -1.0249543 73.92691 -18.039354 -45.998863
31800000000 -19.701107 -13.436377 -1.0405132 71.703514 -1.0236388 71.671982 -17.822401 -60.76659
31900000000 -17.56349 -26.788979 -1.0170195 69.571228 -1.0351433 69.644028 -16.262213 -58.24366
32000000000 -17.581308 -20.04236 -1.0141934 67.593651 -1.0100095 67.748337 -16.031729 -59.151932
32100000000 -16.728769 -12.201657 -1.0013303 65.616196 -1.0039889 65.766869 -15.148713 -50.132057
32200000000 -18.811275 -4.6281848 -1.0068543 63.784698 -1.0054468 63.766918 -16.738682 -50.669025
32300000000 -19.411739 -5.8480515 -0.99835116 61.561836 -1.0279796 61.845493 -16.89757 -50.652592
32400000000 -20.19417 -23.777365 -1.016994 59.611568 -1.0268328 59.639225 -20.0816 -60.435242
32500000000 -18.921356 -25.759796 -1.0343187 57.562866 -1.0207891 57.661037 -18.137308 -75.970482
32600000000 -18.560335 -29.525068 -1.0202686 55.583961 -1.0138743 55.416195 -17.182335 -79.699539
32700000000 -17.560444 -11.907692 -1.0289161 53.123486 -1.0156732 53.472332 -15.585376 -78.386688
32800000000 -18.158527 -17.195633 -1.0181704 51.358593 -1.0239619 51.627907 -14.88072 -67.305008
32900000000 -20.124861 -13.604873 -1.0144308 49.297638 -1.0210851 49.515881 -16.362648 -60.566299
33000000000 -20.415216 -25.098728 -1.0494066 47.339928 -1.0244277 47.474174 -18.685865 -59.259411
33100000000 -20.215252 -30.203566 -1.0379483 45.522301 -1.0248121 45.418144 -21.453051 -78.670692
33200000000 -18.897583 -31.612226 -1.0501032 43.327332 -1.0423579 43.444759 -18.010777 -90.858543
33300000000 -19.510992 -27.969534 -0.9998613 41.319481 -1.0237011 41.228092 -18.377275 -94.722809
33400000000 -19.440178 -24.308466 -1.0068671 39.22657 -1.0199962 39.430588 -16.085455 -85.658104
33500000000 -20.104733 -26.172184 -0.99725705 37.292351 -0.9946745 37.528564 -17.123384 -80.66774
33600000000 -19.520044 -29.312214 -1.0249609 35.13575 -0.99665391 35.371861 -17.823374 -79.423286
33700000000 -19.653891 -36.615047 -1.0589164 33.298176 -1.0106331 33.379307 -19.319147 -79.599823
33800000000 -19.493139 -37.619671 -1.0505406 31.160727 -1.0405691 31.288858 -19.839956 -93.822166
33900000000 -21.375309 -40.458939 -1.064907 29.056889 -1.0490322 29.020884 -17.759058 -94.153664
34000000000 -20.129148 -36.977955 -1.0057297 27.283699 -1.0172325 27.411057 -19.599281 -85.515167
34100000000 -20.302446 -42.603245 -1.0178601 24.97546 -0.99576175 25.246599 -18.052944 -93.610252
34200000000 -19.520473 -31.453325 -0.98505765 23.425379 -0.97249669 23.378443 -20.676966 -73.628944
34300000000 -20.611128 -37.791317 -1.0291419 20.746988 -1.0329286 20.927334 -19.875467 -102.1336
34400000000 -21.087231 -34.059978 -1.0300268 19.0919 -1.0363456 19.100353 -21.958124 -99.080154
34500000000 -21.429026 -46.806568 -1.0663236 16.678408 -1.0551773 17.00139 -19.292517 -104.18959
34600000000 -21.785215 -42.566788 -1.0558778 14.827603 -1.0374926 14.935609 -19.442335 -91.436844
34700000000 -21.333269 -43.687397 -1.0137292 12.585524 -1.0493357 12.972787 -19.486925 -84.809311
34800000000 -23.30715 -32.316833 -1.0346669 10.916371 -1.048431 10.887289 -23.739553 -72.672623
34900000000 -22.98295 -36.183529 -1.0102639 8.796339 -1.0118998 8.7876396 -28.664307 -83.41819
35000000000 -24.034456 -31.285276 -1.0225803 6.9859395 -1.0246593 6.8436933 -30.850756 -168.35249
35100000000 -21.466021 -30.87574 -1.0228595 4.8423581 -1.0136465 4.9351211 -23.30645 -131.58662
35200000000 -22.485893 -30.484247 -1.0289384 2.7903392 -0.9980967 2.9020836 -22.062502 -133.0518
35300000000 -22.696831 -29.625578 -1.0282446 0.68006903 -1.0485371 0.52919656 -21.490149 -92.693909
35400000000 -25.975826 -19.973728 -1.0257672 -1.4939212 -1.0170101 -1.1419499 -23.057041 -85.49192
35500000000 -24.110731 -7.2351246 -1.0336901 -3.4717138 -1.0148157 -3.2234902 -29.378273 -81.076439
35600000000 -28.001019 -25.151794 -1.0156267 -5.6825228 -1.0189021 -5.6161003 -36.290356 103.9279
35700000000 -26.568094 -22.699905 -1.0151712 -7.6665707 -0.99405354 -7.7525492 -32.110176 -167.42944
35800000000 -24.362103 -18.548517 -0.98955244 -9.8637257 -1.011992 -9.9240494 -27.982609 -167.26599
35900000000 -23.990616 -6.3296247 -1.0012686 -12.143424 -0.9881261 -11.860276 -24.955133 -155.25471
36000000000 -22.590649 -4.9549947 -1.0054947 -13.841904 -1.0019627 -13.708261 -34.58614 -74.916489
36100000000 -22.190331 10.014918 -1.0423783 -16.210962 -1.0450859 -15.935199 -45.262241 -50.268929
36200000000 -23.852507 5.7394609 -1.0593572 -18.363466 -1.0468298 -18.053802 -36.092514 61.469116
36300000000 -25.202047 22.003937 -1.0456793 -20.676928 -1.0585095 -20.683901 -32.1506 123.21838
36400000000 -29.077259 4.1098514 -1.0382595 -22.907207 -1.0531374 -22.604168 -34.167099 -176.36237
36500000000 -25.014334 -21.052118 -1.0373417 -24.77282 -1.0234951 -24.667902 -32.346703 -126.24352
36600000000 -21.897062 -26.021252 -1.0264328 -26.255157 -1.0340664 -26.336941 -24.524338 -28.431839
36700000000 -20.724915 1.8583807 -1.0101464 -28.091339 -1.019475 -28.207924 -27.379391 -20.609016
36800000000 -19.374657 15.35048 -1.0434654 -30.031696 -1.0719877 -30.136919 -20.827078 26.713453
36900000000 -21.171249 40.17033 -1.1031474 -32.556076 -1.1194242 -32.710968 -23.871485 55.819672
37000000000 -23.142462 27.542513 -1.1291156 -34.654243 -1.1551169 -34.535015 -24.582001 79.792503
37100000000 -30.072716 -28.468542 -1.1150196 -37.399952 -1.1044511 -37.490177 -45.329239 118.9751
37200000000 -22.493303 -12.822053 -1.059157 -39.4786 -1.0910965 -39.480309 -29.979116 -48.582726
37300000000 -19.057819 3.7467728 -1.049518 -41.461754 -1.0044527 -41.320183 -19.877932 -32.742352
37400000000 -16.863457 12.172696 -1.0447612 -43.223743 -1.0406405 -43.214481 -17.883276 -8.7994728
37500000000 -19.110491 24.180752 -1.0733994 -44.94891 -1.0812172 -44.931667 -17.456621 5.5275068
37600000000 -20.336319 33.759087 -1.0711588 -46.827477 -1.0900749 -46.766903 -17.260601 29.486084
37700000000 -21.713337 14.248486 -1.1165518 -48.937981 -1.136885 -48.876423 -19.085667 43.557728
37800000000 -19.091593 -0.73449099 -1.1009676 -51.118385 -1.0752618 -51.078506 -25.403713 21.168394
37900000000 -17.236353 -2.9987674 -1.1891285 -53.403728 -1.1522417 -53.114216 -28.70635 10.638057
38000000000 -16.926476 11.605966 -1.1191227 -55.523422 -1.112841 -55.482723 -18.185373 -25.9606
38100000000 -17.215443 15.331793 -1.1175253 -57.230267 -1.1864849 -57.404606 -16.165415 -9.6648445
38200000000 -17.688475 17.054121 -1.1514763 -59.556137 -1.1282969 -59.208336 -14.43823 -5.7897439
38300000000 -16.655241 5.3699446 -1.166737 -61.663639 -1.1363698 -61.178905 -14.645583 22.028448
38400000000 -16.93589 -2.0317295 -1.1409911 -63.562252 -1.1068509 -63.189781 -17.145414 30.459915
38500000000 -16.720499 -3.3463426 -1.1315529 -65.367165 -1.1492462 -65.289703 -19.975319 16.591482
38600000000 -15.356956 11.090102 -1.1704911 -67.697998 -1.1884469 -67.282211 -18.064079 -12.345761
38700000000 -14.999652 4.1617484 -1.2055982 -69.361847 -1.1679698 -69.283852 -16.529514 -21.953445
38800000000 -16.006495 4.9366193 -1.1687856 -71.333847 -1.1874222 -71.37822 -13.612149 -6.2494049
38900000000 -15.340261 4.4194312 -1.2011467 -73.247887 -1.1625619 -73.355179 -14.691064 -1.295966
39000000000 -15.674611 2.1804457 -1.2615064 -75.060593 -1.2235405 -75.374908 -14.537766 8.5722723
39100000000 -15.83156 -4.1597548 -1.185928 -77.670799 -1.1810838 -77.822487 -19.585243 -8.3668451
39200000000 -15.766223 -10.25026 -1.2547032 -79.666664 -1.2199734 -79.416924 -16.286976 -17.506981
39300000000 -14.11854 -7.982111 -1.190581 -81.898315 -1.2061248 -81.585442 -14.736588 -34.857952
39400000000 -14.3221 0.82073659 -1.2357049 -83.660728 -1.2452101 -83.539948 -12.440405 -18.849615
39500000000 -13.676604 9.3483782 -1.2766068 -85.739113 -1.2818565 -85.445122 -13.474785 -13.108448
39600000000 -15.54103 -0.72763896 -1.3211524 -87.313812 -1.2981176 -87.429977 -12.960044 1.6702561
39700000000 -17.252377 -14.168447 -1.2546606 -89.709892 -1.285831 -89.900505 -18.677298 -1.0152627
39800000000 -15.486236 -24.909124 -1.2715362 -91.867371 -1.2869601 -91.746735 -16.690422 -24.860645
39900000000 -13.33681 -10.511332 -1.270394 -93.824921 -1.2929577 -93.978836 -15.600329 -54.070831
40000000000 -12.834647 -9.8402004 -1.2144445 -95.792137 -1.2440857 -95.446983 -11.207808 -42.918266
40100000000 -13.496828 5.0655909 -1.2464919 -97.617836 -1.2677788 -97.335579 -10.859744 -31.003643
40200000000 -15.094963 0.36791003 -1.2606302 -99.867821 -1.2622743 -99.22319 -11.400256 -18.764721
40300000000 -17.706112 -16.363153 -1.2667505 -101.62327 -1.2685475 -101.51345 -12.652915 -16.622793
40400000000 -14.629655 -27.024437 -1.2915337 -103.6704 -1.2295767 -103.37772 -17.112848 -24.550571
40500000000 -12.736574 -21.786674 -1.2782899 -105.42315 -1.2713513 -105.62814 -16.157099 -51.059704
40600000000 -11.763562 -17.561642 -1.2217437 -107.69606 -1.2313743 -107.25555 -13.337467 -53.749516
40700000000 -14.492225 -8.7132759 -1.2721951 -110.0992 -1.2529728 -110.50794 -11.94957 -56.016891
40800000000 -13.893285 -11.218042 -1.2892764 -111.59766 -1.2723949 -111.19592 -10.783406 -38.756077
40900000000 -14.452511 -26.292885 -1.2139899 -113.23618 -1.2578219 -113.33418 -12.289158 -26.513584
41000000000 -12.843206 -39.033546 -1.2619401 -115.87779 -1.2321787 -115.37086 -12.659189 -29.801256
41100000000 -13.527164 -34.085884 -1.322962 -117.53366 -1.3558283 -117.47598 -15.584541 -47.862865
41200000000 -12.246783 -20.412893 -1.2562263 -119.20007 -1.2417625 -118.97191 -13.775982 -47.119858
41300000000 -13.416359 -26.908924 -1.2971885 -121.41007 -1.2770493 -121.0359 -13.77122 -55.749111
41400000000 -13.728103 -25.33683 -1.2004026 -123.25004 -1.2659022 -123.04916 -11.517838 -48.052338
41500000000 -13.407607 -34.678616 -1.3420025 -125.16549 -1.2685746 -125.09966 -11.371917 -52.641777
41600000000 -12.392838 -35.538136 -1.291562 -127.46782 -1.2212242 -127.53302 -12.10264 -43.524727
41700000000 -12.561914 -40.050777 -1.2494467 -129.07664 -1.2732326 -129.22522 -12.467474 -54.652489
41800000000 -13.435924 -36.190651 -1.293268 -131.7583 -1.2913409 -130.89665 -12.965506 -52.837666
41900000000 -13.276032 -41.631573 -1.2769288 -133.22437 -1.3173959 -133.4399 -12.786931 -68.358383
42000000000 -12.660612 -41.468918 -1.3100803 -135.30974 -1.27779 -135.32047 -12.047779 -60.852009
42100000000 -11.769865 -40.752125 -1.2499065 -137.63921 -1.2172071 -137.26309 -12.014098 -67.143204
42200000000 -13.144212 -40.282978 -1.1506165 -139.6176 -1.2161331 -139.16783 -11.946802 -55.395359
42300000000 -14.051871 -36.658512 -1.2302994 -141.59848 -1.3009737 -141.55014 -11.754532 -66.201241
42400000000 -15.697664 -51.113316 -1.2236118 -143.07579 -1.263646 -143.57542 -14.044115 -59.68309
42500000000 -13.005727 -58.158268 -1.212607 -145.61234 -1.2705206 -145.79915 -15.18221 -76.464622
42600000000 -12.189326 -59.396076 -1.1337326 -147.32864 -1.1998109 -147.62038 -14.659069 -72.706161
42700000000 -12.538848 -46.111492 -1.2068774 -149.89581 -1.1841264 -149.65474 -11.721387 -88.817574
42800000000 -13.11948 -36.029922 -1.2325981 -151.95743 -1.2627136 -151.71352 -12.645505 -85.310226
42900000000 -15.336876 -28.249006 -1.1939962 -153.86961 -1.2112602 -153.48969 -11.829508 -71.494934
43000000000 -17.696865 -52.2771 -1.1703168 -156.51883 -1.3080043 -155.68076 -11.794433 -66.593697
43100000000 -16.011198 -78.685318 -1.1644791 -158.39734 -1.1792868 -158.26381 -16.291346 -57.19894
43200000000 -13.252279 -70.125031 -1.220333 -160.31281 -1.2259699 -160.08418 -17.289263 -72.438148
43300000000 -13.259787 -55.431202 -1.196818 -161.70111 -1.229409 -162.42932 -16.260077 -97.437202
43400000000 -13.481583 -43.331001 -1.2302182 -164.07774 -1.1773664 -163.46265 -13.625834 -91.62574
43500000000 -15.055274 -33.037949 -1.2230883 -166.59331 -1.2830585 -166.06096 -12.117553 -97.902283
43600000000 -19.273506 -48.484398 -1.2328891 -167.06682 -1.1404233 -167.94049 -12.575882 -80.638794
43700000000 -18.05711 -73.89949 -1.3262631 -170.32524 -1.14934 -170.45305 -13.639164 -74.081795
43800000000 -15.380537 -84.570801 -1.1257231 -172.45528 -1.1962987 -172.01637 -16.330818 -65.058884
43900000000 -15.442291 -72.068008 -1.2478501 -173.96919 -1.2186911 -174.42891 -19.835979 -101.8046
44000000000 -15.149617 -51.151676 -1.1694392 -176.49532 -1.1595076 -175.73849 -17.157143 -105.30316
44100000000 -17.019875 -48.975662 -1.1165892 -178.18927 -1.1441604 -178.57153 -15.121813 -95.22509
44200000000 -18.492903 -31.499815 -1.168628 179.95226 -1.2210826 179.3457 -14.91081 -100.77925
44300000000 -18.661648 -72.7258 -1.2388339 177.86688 -1.2162476 177.92006 -16.101713 -82.811813
44400000000 -18.738863 -86.677315 -1.1808249 175.18723 -1.1996318 175.81361 -18.471432 -70.667236
44500000000 -15.845165 -84.57795 -1.2082655 173.76181 -1.1852689 173.84155 -18.148521 -100.75806
44600000000 -17.105478 -69.721504 -1.1808701 171.22359 -1.1666483 171.73816 -23.327393 -119.55553
44700000000 -16.320417 -52.020489 -1.2223717 169.48062 -1.2104019 169.52213 -17.226908 -110.26381
44800000000 -22.101133 -55.347595 -1.1793598 167.06453 -1.1422049 167.29108 -17.675749 -77.534706
44900000000 -23.020227 -70.653397 -1.1019064 164.67751 -1.1724193 165.06145 -16.796101 -84.639168
45000000000 -25.5089 -76.418808 -1.1429124 163.48434 -1.0899062 163.21027 -23.994276 -43.244015
