!Keysight Technologies,N5224A,MY55441802,A.10.65.16
!Date: Tuesday, March 03, 2026 17:03:07
!Correction: S11(Full 2 Port(1,2)) 
!S21(Full 2 Port(1,2)) 
!S12(Full 2 Port(1,2)) 
!S22(Full 2 Port(1,2)) 
!S2P File: Measurements: S11, S21, S12, S22:
# Hz S  dB   R 50
25000000000 -22.126984 -91.376884 -0.37935799 -170.7731 -0.38212627 -170.7401 -22.023226 -89.361061
25025000000 -22.740705 -90.71051 -0.38809735 -170.97957 -0.35916138 -170.99756 -23.090773 -94.80603
25050000000 -23.256802 -93.221512 -0.36978224 -170.98012 -0.36097881 -171.1535 -22.068489 -97.48259
25075000000 -22.804781 -101.10767 -0.35538191 -171.33115 -0.3522087 -171.38284 -22.259184 -91.610985
25100000000 -21.849529 -97.400101 -0.37201604 -171.43483 -0.33833948 -171.58153 -22.838285 -96.94664
25125000000 -22.080479 -90.986191 -0.34769398 -171.32182 -0.35717088 -171.6106 -21.63858 -97.529335
25150000000 -23.036123 -95.557007 -0.334061 -171.93654 -0.36802953 -171.81212 -22.201857 -90.290443
25175000000 -22.915087 -96.283569 -0.38525835 -172.2715 -0.35032478 -172.06506 -23.414129 -93.909027
25200000000 -23.295124 -97.403366 -0.36652604 -171.96455 -0.34412411 -172.13908 -22.12743 -100.12667
25225000000 -22.124662 -104.12433 -0.3249853 -172.18726 -0.33711153 -172.27454 -21.752455 -93.114021
25250000000 -21.682564 -95.793434 -0.35706592 -172.62175 -0.33394167 -172.55727 -22.796692 -92.737602
25275000000 -23.050497 -90.490082 -0.35233951 -172.74944 -0.33677518 -172.73123 -22.38201 -96.726517
25300000000 -23.90284 -102.70509 -0.34035391 -173.03389 -0.34153339 -172.99664 -22.52564 -91.939415
25325000000 -22.785536 -104.3784 -0.35357633 -173.31142 -0.34541529 -173.3056 -23.30617 -93.598854
25350000000 -22.304462 -100.91335 -0.33942038 -173.27081 -0.34618288 -173.34094 -22.113155 -98.539925
25375000000 -22.2054 -98.95343 -0.35126758 -173.31862 -0.35203677 -173.2681 -21.902746 -90.084572
25400000000 -22.690094 -99.049469 -0.36526173 -173.74365 -0.35733023 -173.56561 -23.29821 -88.234116
25425000000 -23.09506 -95.273636 -0.37383357 -173.97777 -0.35663384 -173.87195 -22.963812 -98.002449
25450000000 -23.657135 -101.78192 -0.35216999 -174.0549 -0.35038733 -173.97189 -22.270468 -93.373489
25475000000 -22.74581 -106.4341 -0.35947552 -174.27133 -0.35329852 -174.24232 -22.966307 -90.903069
25500000000 -22.044285 -98.765976 -0.37172487 -174.42801 -0.3565124 -174.42725 -22.649639 -96.789291
25525000000 -23.048506 -95.713097 -0.35403806 -174.62634 -0.35558149 -174.38185 -22.435839 -91.524551
25550000000 -23.407764 -101.25533 -0.38933185 -174.75551 -0.36034748 -174.50946 -23.534014 -88.389069
25575000000 -23.246229 -99.310989 -0.38559011 -174.87077 -0.36350554 -174.79854 -23.307198 -98.505295
25600000000 -22.871906 -103.20149 -0.34722131 -175.07715 -0.34270114 -174.8893 -22.167389 -95.785034
25625000000 -22.482119 -100.58045 -0.37123126 -175.32088 -0.32770252 -175.09599 -22.745136 -89.655655
25650000000 -22.787184 -95.214836 -0.40166357 -175.43001 -0.34513369 -175.36566 -23.374088 -96.247467
25675000000 -23.475538 -97.297417 -0.38405371 -175.60454 -0.35310861 -175.48407 -22.974882 -96.072487
25700000000 -23.117039 -101.11053 -0.37744689 -175.7617 -0.34306204 -175.61644 -23.118845 -92.511375
25725000000 -22.835096 -99.946587 -0.39336404 -175.8569 -0.34839058 -175.83272 -23.078526 -97.669594
25750000000 -22.513145 -98.797188 -0.37644541 -175.98047 -0.34795335 -175.97737 -22.437393 -96.257324
25775000000 -22.829697 -98.252899 -0.37470919 -176.31711 -0.33305711 -176.14873 -23.101244 -91.602821
25800000000 -22.765821 -95.295654 -0.40598914 -176.37309 -0.34087306 -176.44711 -23.552935 -98.073547
25825000000 -23.375475 -96.562233 -0.37703049 -176.48198 -0.36040577 -176.59154 -22.684975 -98.61293
25850000000 -23.027784 -102.52312 -0.36992538 -176.75832 -0.34625244 -176.69388 -22.688351 -93.838768
25875000000 -22.293716 -99.223579 -0.39061356 -176.83575 -0.33945969 -176.87959 -23.092419 -96.916542
25900000000 -22.735611 -93.664757 -0.39245254 -176.9558 -0.35523281 -177.07294 -22.805876 -98.568123
25925000000 -23.364208 -99.126411 -0.38050318 -177.22066 -0.35029954 -177.26474 -23.013346 -94.613396
25950000000 -22.713678 -98.856026 -0.37663189 -177.31126 -0.34649482 -177.47131 -23.314445 -98.471962
25975000000 -22.784286 -97.378273 -0.38390526 -177.4548 -0.36602524 -177.5791 -22.418425 -100.13864
26000000000 -22.781609 -98.066727 -0.38139021 -177.6414 -0.36428827 -177.67519 -22.358101 -94.05471
26025000000 -22.86824 -97.631088 -0.38607743 -177.93285 -0.35103983 -177.87509 -23.285889 -96.208229
26050000000 -23.022818 -95.669365 -0.38329268 -177.92244 -0.35202825 -178.02855 -22.873926 -101.72906
26075000000 -23.042736 -100.15202 -0.3563216 -178.08658 -0.35451916 -178.20316 -22.32971 -96.420708
26100000000 -22.733799 -100.87167 -0.36999777 -178.38594 -0.34921435 -178.41461 -22.831968 -95.815941
26125000000 -22.335377 -98.064827 -0.36222363 -178.43019 -0.34538636 -178.53622 -22.538488 -99.845871
26150000000 -22.866989 -96.316147 -0.36769411 -178.65744 -0.35655409 -178.66153 -22.380531 -96.25592
26175000000 -22.981396 -98.267273 -0.36873388 -178.95026 -0.35197383 -178.91437 -23.184652 -96.103264
26200000000 -23.153412 -97.206383 -0.35177064 -178.99185 -0.34239861 -179.08417 -22.745274 -101.42942
26225000000 -22.988482 -102.45657 -0.33498895 -179.11374 -0.34118626 -179.1658 -21.97547 -97.491898
26250000000 -22.50197 -102.00398 -0.35180524 -179.43665 -0.3396202 -179.42715 -22.696205 -94.112549
26275000000 -22.582619 -95.589867 -0.35990673 -179.60246 -0.33667192 -179.63213 -22.977785 -99.603973
26300000000 -23.657698 -98.612732 -0.34069008 -179.85995 -0.34534967 -179.819 -22.512476 -98.241173
26325000000 -23.105524 -103.22335 -0.35636985 179.93262 -0.35396707 179.92366 -22.909929 -94.47406
26350000000 -22.763565 -99.85405 -0.35332933 179.77521 -0.34843636 179.737 -22.782478 -99.540451
26375000000 -23.00069 -100.01009 -0.33579478 179.74046 -0.34761199 179.73335 -22.168762 -97.920197
26400000000 -23.139681 -102.45789 -0.35739958 179.42448 -0.34619197 179.54425 -22.805077 -93.28215
26425000000 -22.926447 -97.842667 -0.36943966 179.15291 -0.35085368 179.26469 -23.136675 -99.305046
26450000000 -23.740993 -99.079086 -0.34046739 179.06157 -0.34591439 179.13972 -22.408949 -99.08268
26475000000 -23.562426 -106.48302 -0.35674158 178.87895 -0.36006474 178.91582 -22.712051 -93.884468
26500000000 -22.491026 -103.20659 -0.37916398 178.64963 -0.36841738 178.65285 -23.062445 -98.489761
26525000000 -22.886965 -96.293839 -0.36875147 178.58273 -0.36493856 178.5882 -22.763193 -99.346184
26550000000 -23.84347 -99.812531 -0.37121835 178.41173 -0.36448082 178.52658 -23.032942 -95.153198
26575000000 -23.617163 -100.18992 -0.37829575 178.12239 -0.36616355 178.25961 -23.286116 -99.121765
26600000000 -23.495115 -101.75569 -0.3642199 177.98993 -0.36037612 178.09329 -22.601995 -99.973961
26625000000 -23.274441 -103.56056 -0.3678228 177.93224 -0.35114428 177.99466 -22.880955 -95.250038
26650000000 -22.804047 -99.891396 -0.39473179 177.72775 -0.35236883 177.73492 -23.50267 -99.112488
26675000000 -23.269861 -96.549599 -0.39648554 177.48486 -0.35881472 177.52187 -22.906933 -101.57166
26700000000 -23.704712 -100.88384 -0.37862152 177.40643 -0.35102618 177.47371 -22.931952 -95.344559
26725000000 -23.479633 -101.89718 -0.38585582 177.25273 -0.35140601 177.25531 -23.501162 -98.520821
26750000000 -23.120291 -100.52979 -0.38450325 177.05521 -0.36068949 176.97375 -22.916273 -102.09187
26775000000 -23.298109 -101.91299 -0.37687021 176.95401 -0.34968367 176.89793 -23.047688 -96.782715
26800000000 -22.783894 -99.257782 -0.40822613 176.74405 -0.34931955 176.71237 -23.7164 -99.64563
26825000000 -23.462532 -94.841415 -0.39736158 176.56573 -0.3537237 176.46883 -23.053684 -102.5083
26850000000 -23.995745 -102.79815 -0.37619182 176.39194 -0.35180971 176.3317 -22.920055 -97.262703
26875000000 -22.835106 -105.18884 -0.39590105 176.29361 -0.3528921 176.11177 -23.581411 -99.553337
26900000000 -22.497271 -96.327263 -0.38476914 176.15286 -0.35431063 175.83907 -23.117016 -103.55678
26925000000 -23.584402 -98.605385 -0.3762069 175.94023 -0.35839179 175.74297 -23.028578 -98.64357
26950000000 -23.089231 -100.9561 -0.3831597 175.75388 -0.35859734 175.63895 -23.550816 -99.043221
26975000000 -23.068008 -97.924416 -0.39293441 175.57822 -0.3665407 175.4537 -22.921402 -103.59375
27000000000 -23.545502 -100.84737 -0.37816513 175.44025 -0.36943489 175.29002 -22.746769 -98.787758
27025000000 -22.913492 -104.59125 -0.3778353 175.27647 -0.3611536 175.09894 -23.441946 -99.384888
27050000000 -22.300842 -98.325745 -0.39359075 175.0519 -0.37244928 174.87828 -23.046753 -104.38368
27075000000 -23.213497 -95.553047 -0.38429466 174.87604 -0.37335873 174.75029 -22.780415 -99.03154
27100000000 -23.743565 -101.11118 -0.37531283 174.67221 -0.37048739 174.62947 -23.335962 -99.43174
27125000000 -22.788303 -101.64695 -0.3870962 174.49997 -0.37269756 174.45766 -22.76878 -105.06278
27150000000 -23.037836 -98.722603 -0.39203465 174.41489 -0.37284371 174.33295 -22.567547 -99.142586
27175000000 -23.19935 -101.76368 -0.38516438 174.24019 -0.36446726 174.16084 -23.564211 -98.692612
27200000000 -22.768795 -97.916145 -0.38355231 173.98721 -0.36077288 173.94136 -23.124924 -105.87601
27225000000 -23.374159 -98.463379 -0.38577732 173.84915 -0.3656269 173.82117 -22.338619 -100.58311
27250000000 -23.363674 -102.25431 -0.38503242 173.65749 -0.36476544 173.63251 -23.290442 -97.132904
27275000000 -22.700222 -99.210381 -0.39023185 173.47006 -0.35553107 173.39911 -23.564726 -105.97369
27300000000 -23.328259 -98.924591 -0.38505167 173.32025 -0.36344841 173.27309 -22.398455 -104.24773
27325000000 -23.165552 -100.53886 -0.40732154 173.22223 -0.37955838 173.19699 -22.729301 -93.986427
27350000000 -22.789345 -97.939857 -0.42025268 173.13271 -0.38562122 173.03339 -24.421221 -95.987671
27375000000 -23.595352 -99.832756 -0.38714376 173.02513 -0.37722781 172.89894 -23.889277 -109.77549
27400000000 -23.282711 -103.58689 -0.36219001 172.8362 -0.34394556 172.82773 -21.904257 -107.68603
27425000000 -22.762758 -103.83881 -0.34133378 172.77608 -0.30367592 172.61386 -21.370312 -97.341461
27450000000 -23.242945 -95.430801 -0.33607468 172.43265 -0.31592911 172.26361 -23.088362 -91.611473
27475000000 -23.814831 -99.590233 -0.35699874 172.089 -0.34713134 172.01543 -24.293716 -102.91325
27500000000 -23.248888 -103.12201 -0.35719463 171.93237 -0.34025195 171.76794 -22.622499 -108.40707
27525000000 -23.118647 -96.426758 -0.35649067 171.81242 -0.33906147 171.61313 -22.383797 -99.815613
27550000000 -24.013042 -100.86873 -0.3601737 171.631 -0.36284441 171.55411 -23.822412 -98.236343
27575000000 -23.23595 -101.55704 -0.3788633 171.29555 -0.36227542 171.26706 -23.322666 -106.48837
27600000000 -23.192141 -96.155434 -0.36701664 171.13174 -0.35268506 171.04587 -22.711895 -103.35421
27625000000 -23.835281 -99.646202 -0.35885355 171.11067 -0.36393863 171.00455 -23.437981 -100.41315
27650000000 -23.339268 -100.78053 -0.3683219 170.82314 -0.36397016 170.86372 -23.388514 -105.32851
27675000000 -23.313385 -97.801529 -0.3768464 170.64648 -0.35392919 170.62845 -22.970303 -103.57059
27700000000 -23.519741 -99.030235 -0.37124175 170.56639 -0.35611862 170.54507 -23.608006 -100.99
27725000000 -23.592773 -97.541039 -0.35415408 170.31064 -0.35365206 170.39311 -23.584627 -105.10663
27750000000 -23.451588 -99.647736 -0.37852725 170.06287 -0.35554439 170.0766 -22.972311 -104.75576
27775000000 -23.306898 -100.10867 -0.37467104 170.03984 -0.36152273 169.95825 -23.406128 -101.60342
27800000000 -23.326632 -98.939384 -0.36418805 169.81297 -0.35420609 169.86923 -23.616228 -104.29736
27825000000 -23.229507 -97.354782 -0.38771927 169.51518 -0.34466621 169.56288 -23.241463 -104.5992
27850000000 -23.679174 -97.832794 -0.37287322 169.42091 -0.34970513 169.41803 -23.547638 -102.89355
27875000000 -23.462168 -101.9156 -0.37117985 169.32858 -0.35268483 169.25533 -23.407011 -105.24702
27900000000 -22.882984 -98.283989 -0.38013357 169.0558 -0.35113409 168.93456 -23.064768 -104.09438
27925000000 -23.889677 -98.932938 -0.38206375 168.91322 -0.35700703 168.7917 -23.658327 -102.35732
27950000000 -23.221155 -103.76414 -0.38942969 168.74535 -0.3565836 168.6922 -23.606054 -105.41343
27975000000 -22.753887 -96.692818 -0.38433462 168.50281 -0.34923479 168.3927 -23.012135 -105.03587
28000000000 -23.956329 -98.333084 -0.38176653 168.29941 -0.36001602 168.21547 -23.417982 -103.31816
28025000000 -23.3913 -104.50148 -0.38593343 168.28992 -0.36905357 168.13795 -23.558058 -105.17086
28050000000 -22.796713 -99.485863 -0.39647672 168.09467 -0.36567849 167.89479 -23.141775 -105.15907
28075000000 -23.522053 -98.717705 -0.40007991 167.70662 -0.37904614 167.68237 -23.562668 -102.8061
28100000000 -23.559572 -100.77992 -0.40083402 167.61853 -0.38185945 167.65164 -23.627823 -104.53307
28125000000 -23.268164 -101.11679 -0.4073489 167.55966 -0.37645698 167.46272 -23.052782 -107.10132
28150000000 -23.216383 -100.4481 -0.407199 167.36195 -0.39200407 167.21576 -23.161024 -102.90263
28175000000 -23.518501 -100.34669 -0.40559503 167.19916 -0.39391801 167.14589 -23.67226 -101.74506
28200000000 -23.174244 -100.76319 -0.41295701 167.01591 -0.38563237 166.97008 -23.613132 -106.8895
28225000000 -23.223278 -98.766747 -0.42361543 166.81763 -0.39808929 166.77504 -22.892424 -105.6915
28250000000 -23.764393 -99.92646 -0.42255363 166.62643 -0.40666196 166.6499 -22.961271 -98.904282
28275000000 -23.042606 -101.02168 -0.43667227 166.49197 -0.40412495 166.43634 -24.4571 -101.3533
28300000000 -23.369692 -98.625244 -0.44732445 166.44865 -0.40692616 166.27893 -23.818102 -113.81239
28325000000 -23.748947 -100.20802 -0.43901736 166.49391 -0.4225457 166.36655 -21.575584 -106.11103
28350000000 -22.55653 -100.55672 -0.45273703 166.38809 -0.41659069 166.42314 -22.079174 -88.342773
28375000000 -23.718508 -97.093155 -0.41999909 166.2196 -0.37004581 166.10567 -26.143673 -91.036331
28400000000 -23.509554 -101.97534 -0.34820983 165.98613 -0.32850331 165.83809 -24.489433 -122.71704
28425000000 -23.177349 -103.58539 -0.32901132 165.65433 -0.30363303 165.59181 -21.427118 -112.49087
28450000000 -23.556541 -95.162415 -0.36850342 165.355 -0.32914633 165.19337 -22.301004 -96.186615
28475000000 -23.664438 -99.773178 -0.38401958 165.12383 -0.36073676 164.94731 -24.817465 -100.80694
28500000000 -23.51829 -102.08886 -0.36732692 164.90135 -0.35842758 164.81734 -23.401503 -112.79207
28525000000 -23.296764 -96.753662 -0.38010275 164.68433 -0.36333799 164.60413 -22.578432 -105.20755
28550000000 -23.961782 -98.317841 -0.40673289 164.59805 -0.38218534 164.4659 -23.864628 -100.82394
28575000000 -23.427645 -103.15865 -0.39189214 164.57085 -0.38661185 164.32645 -23.971148 -108.33971
28600000000 -22.863228 -95.561554 -0.38698679 164.10652 -0.38668755 164.10176 -23.125706 -107.21258
28625000000 -24.067959 -94.349602 -0.42469618 163.98709 -0.39694494 163.94102 -23.498203 -102.97853
28650000000 -23.896477 -104.3476 -0.40009499 164.09637 -0.39869851 163.84674 -23.891792 -106.32022
28675000000 -22.98225 -96.90374 -0.38161924 163.56343 -0.38756976 163.60747 -23.459702 -107.43887
28700000000 -23.847958 -95.048111 -0.42515942 163.45721 -0.39798814 163.43391 -23.765659 -104.95553
28725000000 -23.643902 -100.1073 -0.41673169 163.50635 -0.40881106 163.39481 -23.901608 -106.49722
28750000000 -23.338207 -95.825569 -0.40171781 163.15518 -0.40422609 163.2361 -23.499647 -108.32537
28775000000 -23.872097 -95.461311 -0.42309156 163.0253 -0.40415943 163.04727 -23.491098 -105.25654
28800000000 -23.713963 -100.0323 -0.4147689 162.92845 -0.40586916 162.99229 -23.943123 -105.38213
28825000000 -23.299393 -97.01062 -0.41136876 162.70674 -0.39218476 162.7446 -23.632748 -108.4563
28850000000 -23.46579 -95.791359 -0.4158749 162.46715 -0.40639845 162.49739 -23.372681 -106.10881
28875000000 -23.62421 -97.697578 -0.41965616 162.34525 -0.40574807 162.47647 -23.662184 -104.30408
28900000000 -23.43191 -97.7267 -0.42863086 162.19774 -0.39102635 162.30067 -23.689766 -107.4315
28925000000 -23.638287 -95.171661 -0.42775765 162.04794 -0.39983007 162.00197 -23.403242 -106.37692
28950000000 -23.75235 -101.40775 -0.42257595 161.91473 -0.4016175 161.94554 -23.66885 -104.1963
28975000000 -22.87121 -98.39608 -0.43479607 161.64488 -0.38862282 161.71535 -23.637167 -107.3658
29000000000 -23.339306 -92.483932 -0.43661141 161.55984 -0.40187687 161.43044 -23.322008 -107.26564
29025000000 -24.03731 -99.526718 -0.42991021 161.48886 -0.40687841 161.40492 -23.484447 -104.22973
29050000000 -23.115734 -99.742981 -0.43153659 161.21646 -0.3989113 161.24191 -23.764593 -107.61646
29075000000 -23.504595 -95.242126 -0.44940463 161.10661 -0.39533058 160.9872 -23.302311 -108.31969
29100000000 -23.56884 -101.13078 -0.43555203 161.05191 -0.41178784 160.86385 -23.393837 -104.60301
29125000000 -22.891518 -99.101166 -0.41987073 160.74728 -0.39605531 160.72276 -23.587128 -106.53332
29150000000 -23.265617 -94.196358 -0.42949414 160.53523 -0.40091074 160.37959 -23.255632 -108.37144
29175000000 -23.952528 -99.148506 -0.451006 160.48274 -0.42858741 160.34222 -23.442574 -104.09733
29200000000 -23.278576 -102.43523 -0.42594388 160.35623 -0.41408604 160.25925 -23.627396 -107.13602
29225000000 -22.897923 -97.693283 -0.44062847 159.95467 -0.41599238 160.02432 -23.333406 -108.29795
29250000000 -23.28842 -96.108589 -0.45926589 160.01334 -0.42255896 159.95609 -23.339952 -104.66306
29275000000 -23.505005 -99.532097 -0.42015028 159.922 -0.40775758 159.82401 -23.758724 -106.69902
29300000000 -23.087566 -96.703865 -0.43557504 159.55768 -0.4099907 159.52667 -23.473917 -109.06486
29325000000 -23.585819 -97.498322 -0.44662741 159.53287 -0.42057949 159.42006 -23.363529 -105.69003
29350000000 -23.243916 -100.87675 -0.43776971 159.42265 -0.41317365 159.33209 -23.673283 -106.75094
29375000000 -22.954548 -96.058487 -0.42203787 159.07323 -0.40300569 159.08295 -23.52795 -108.71362
29400000000 -23.48107 -96.286484 -0.43857959 159.04312 -0.40567768 158.93045 -23.532848 -106.10988
29425000000 -23.306643 -99.151817 -0.42716837 158.9763 -0.41390938 158.8313 -23.903578 -107.25897
29450000000 -23.416897 -95.511642 -0.42885938 158.65326 -0.39506498 158.59319 -23.561106 -109.4425
29475000000 -23.600677 -99.690773 -0.43223768 158.60353 -0.4124997 158.40068 -23.518747 -105.66036
29500000000 -23.089684 -99.655182 -0.41884029 158.32143 -0.40086219 158.35802 -24.128439 -106.10588
29525000000 -23.070623 -94.665298 -0.41864097 158.09547 -0.38395754 157.99969 -23.892616 -111.43291
29550000000 -23.578682 -95.50473 -0.42770869 157.97298 -0.41163391 157.82109 -23.549046 -108.99458
29575000000 -23.495062 -98.998024 -0.41774461 157.95898 -0.41061133 157.78937 -23.854792 -107.0336
29600000000 -23.412491 -95.881706 -0.41404203 157.68956 -0.39212075 157.61803 -24.02903 -108.75315
29625000000 -23.579876 -95.429489 -0.41190797 157.39984 -0.40343866 157.32257 -23.932814 -108.81004
29650000000 -23.62784 -98.94101 -0.41185337 157.33327 -0.40920928 157.24797 -24.141706 -108.77763
29675000000 -23.020166 -95.793358 -0.41701838 157.06879 -0.39949694 156.94283 -23.887159 -111.63139
29700000000 -23.614983 -93.681702 -0.42954811 156.8503 -0.41950178 156.71771 -23.708714 -109.25817
29725000000 -23.73452 -98.823044 -0.41606861 156.97406 -0.42573097 156.75417 -24.127968 -106.64491
29750000000 -23.345217 -94.830421 -0.38974532 156.54326 -0.40525129 156.62823 -24.455711 -110.46974
29775000000 -23.462215 -94.409279 -0.42367589 156.24876 -0.40375939 156.28951 -23.817623 -113.69462
29800000000 -23.378695 -98.407303 -0.42562455 156.28603 -0.43189111 156.1893 -23.664457 -109.59232
29825000000 -23.102003 -94.164299 -0.40100968 156.08566 -0.40899742 156.06429 -23.871134 -109.03667
29850000000 -23.618124 -94.523163 -0.42279494 155.78247 -0.40927199 155.84344 -24.030479 -110.34264
29875000000 -23.511013 -97.078003 -0.41620037 155.67673 -0.42656565 155.73581 -24.046892 -109.90584
29900000000 -23.276289 -95.541901 -0.41011289 155.43266 -0.40136528 155.60316 -23.886131 -111.73368
29925000000 -23.339966 -95.953957 -0.44564551 155.19841 -0.40704489 155.28003 -23.684982 -113.42004
29950000000 -23.445505 -98.118355 -0.43142965 155.20007 -0.43631119 155.18503 -23.602037 -109.24104
29975000000 -23.301975 -95.924545 -0.41863596 155.01445 -0.402657 155.14468 -23.960621 -108.44366
30000000000 -23.365013 -95.260651 -0.42451042 154.61409 -0.40540883 154.80708 -24.167833 -112.88273
30025000000 -23.513872 -98.398827 -0.45949951 154.51674 -0.42221344 154.73663 -23.633982 -112.27532
30050000000 -22.945024 -98.878601 -0.45619363 154.5307 -0.41525903 154.5168 -23.43438 -110.6957
30075000000 -23.189762 -94.978149 -0.4673166 154.25853 -0.42059824 154.29146 -23.723063 -110.0209
30100000000 -23.467299 -99.081139 -0.45250303 154.29906 -0.42057779 154.19099 -23.775379 -108.7038
30125000000 -22.970387 -96.25956 -0.42875513 153.92146 -0.41187468 154.04489 -24.134708 -109.54065
30150000000 -23.295582 -93.366539 -0.45987132 153.72862 -0.39712533 153.7878 -23.981756 -114.64864
30175000000 -23.815302 -99.994507 -0.4822284 153.74039 -0.42596236 153.62273 -23.292673 -111.42458
30200000000 -23.003944 -100.69152 -0.46334669 153.70258 -0.43894389 153.56671 -23.405701 -105.83472
30225000000 -23.180042 -97.067879 -0.45639977 153.43431 -0.41023993 153.36467 -24.237253 -108.22027
30250000000 -23.29138 -98.0709 -0.4552854 153.20793 -0.43150529 153.09682 -24.043907 -111.80309
30275000000 -23.181561 -98.374306 -0.46391135 153.05916 -0.4284839 153.10187 -23.498558 -110.01793
30300000000 -23.214972 -98.045799 -0.47928438 153.04836 -0.41563955 152.83228 -23.711746 -110.64175
30325000000 -23.512373 -100.19554 -0.47563207 152.89882 -0.44216824 152.69904 -23.438005 -108.65067
30350000000 -23.235826 -101.70412 -0.44615713 152.92973 -0.42215303 152.71072 -23.804386 -106.06526
30375000000 -23.0208 -97.22876 -0.41369683 152.40276 -0.40777993 152.3927 -24.689692 -111.7095
30400000000 -23.501539 -97.165894 -0.46406931 152.26479 -0.41207248 152.17712 -23.697868 -116.25706
30425000000 -23.48222 -101.62165 -0.45169994 152.52463 -0.41629833 152.12067 -22.903952 -108.68965
30450000000 -23.510443 -98.449966 -0.41204312 152.14966 -0.415907 151.97426 -24.048164 -106.012
30475000000 -24.000444 -102.01559 -0.42600828 151.85632 -0.40404841 151.72849 -24.432911 -111.89467
30500000000 -23.12718 -102.19807 -0.40913656 151.6537 -0.41247493 151.53723 -24.066631 -111.72816
30525000000 -23.050728 -95.617851 -0.41336793 151.269 -0.40085095 151.31621 -24.230715 -113.82248
30550000000 -24.116571 -97.155861 -0.44882619 151.28839 -0.40381077 151.01549 -23.698734 -115.00236
30575000000 -23.904016 -102.28886 -0.41403729 151.36826 -0.42636091 151.03728 -23.494076 -108.09635
30600000000 -23.71175 -98.246696 -0.37455499 150.91377 -0.39266601 150.95763 -25.028257 -108.57884
30625000000 -23.745529 -99.7472 -0.41862524 150.54756 -0.40531486 150.59105 -24.734722 -120.03641
30650000000 -23.303995 -100.14675 -0.43141204 150.37086 -0.42368367 150.46117 -23.551781 -115.26637
30675000000 -23.214565 -95.590897 -0.44006562 150.37076 -0.41035584 150.22055 -24.122478 -111.5457
30700000000 -24.399136 -94.462189 -0.41505983 150.23485 -0.4279274 149.97231 -24.357279 -114.98793
30725000000 -24.383606 -102.49185 -0.40534288 149.9425 -0.41748202 150.01036 -24.110628 -111.86114
30750000000 -23.309526 -100.18179 -0.41525987 149.59372 -0.40087891 149.77855 -25.022593 -115.07943
30775000000 -23.44842 -97.123772 -0.43088236 149.39825 -0.42363948 149.56177 -24.267782 -123.4779
30800000000 -23.43751 -100.99417 -0.47630978 149.4006 -0.43421763 149.4613 -23.139711 -114.12885
30825000000 -23.125563 -94.210182 -0.42175835 149.37418 -0.43418503 149.23914 -24.498371 -108.93554
30850000000 -24.886877 -92.335869 -0.41252112 148.89651 -0.41288847 149.14459 -24.970503 -119.35203
30875000000 -24.216215 -108.4696 -0.46918911 148.77725 -0.42114362 148.98476 -23.821617 -118.06896
30900000000 -22.327461 -101.31897 -0.45416647 148.412 -0.44383428 148.70485 -24.300386 -115.25338
30925000000 -23.437864 -91.148438 -0.50317478 148.38519 -0.44158724 148.55687 -24.006285 -119.16445
30950000000 -24.658737 -102.57667 -0.47658324 148.62601 -0.43270513 148.42271 -23.30159 -112.54886
30975000000 -23.040041 -101.35983 -0.43649116 148.03694 -0.42714128 148.23892 -24.911427 -108.85482
31000000000 -24.064356 -92.169991 -0.46290737 147.82867 -0.41136497 148.0777 -25.02273 -124.18439
31025000000 -25.20225 -112.36556 -0.51678729 147.85083 -0.42318121 148.04253 -22.888363 -118.23769
31050000000 -21.00494 -114.8899 -0.56169939 147.74281 -0.45518258 147.95233 -23.485678 -107.70523
31075000000 -20.421947 -88.365005 -0.46848291 147.6676 -0.47838056 147.7627 -24.725559 -114.38361
31100000000 -25.740854 -68.164238 -0.45636162 147.32002 -0.41464707 147.5127 -23.600834 -115.17513
31125000000 -28.672556 -140.96443 -0.53707683 147.30315 -0.3763611 147.1647 -24.50824 -109.39716
31150000000 -21.525303 -129.90758 -0.52853322 146.81419 -0.41038838 147.19434 -24.42514 -118.01242
31175000000 -20.153021 -102.97071 -0.56438291 146.94955 -0.45910704 147.1221 -22.405464 -115.38423
31200000000 -21.891958 -79.196472 -0.55592966 147.29451 -0.54567295 146.68634 -23.424885 -100.32504
31225000000 -27.850777 -80.212097 -0.50267929 146.76527 -0.50298578 146.6433 -25.614656 -114.85214
31250000000 -24.187403 -129.24918 -0.53624624 146.61861 -0.45485649 146.71327 -23.118803 -120.49006
31275000000 -19.798164 -105.9549 -0.57341009 146.38118 -0.55695873 146.64641 -22.941519 -101.74487
31300000000 -21.180483 -76.469055 -0.59956461 146.51956 -0.55887151 146.39395 -25.106314 -108.54501
31325000000 -29.528709 -110.34032 -0.5165478 146.72839 -0.45572805 146.12801 -23.35755 -123.14961
31350000000 -20.43121 -123.10952 -0.51806355 146.27399 -0.45547864 146.21573 -22.378662 -106.76238
31375000000 -19.362099 -82.208389 -0.51890397 146.19815 -0.5103305 145.8987 -24.902517 -101.65951
31400000000 -34.610107 -35.233212 -0.46762285 146.0825 -0.43495935 145.60782 -24.567204 -121.70701
31425000000 -17.866657 -156.37163 -0.56313312 146.3647 -0.37260038 146.29303 -22.448664 -114.81596
31450000000 -13.62391 -99.42112 -0.38524067 146.27866 -0.4123266 147.51088 -23.3043 -110.62783
31475000000 -14.876278 -22.86264 -0.29978341 145.82808 -0.34035024 147.16988 -24.903091 -113.43633
31500000000 -15.091308 92.873795 -0.48405355 146.6506 -0.074169576 146.41231 -24.301065 -107.66413
31525000000 -10.827033 178.13615 -0.47127309 145.6853 0.13094051 145.60831 -24.220293 -115.74753
31550000000 -11.105878 -111.16525 -0.44852194 143.7993 -0.1275295 144.36095 -23.675848 -119.81077
31575000000 -14.673062 -38.287437 -0.26964453 144.86116 -0.41020754 142.87666 -23.051895 -111.0416
31600000000 -23.334225 83.928276 -0.34316781 145.01407 -0.50367272 142.82846 -25.772228 -111.25217
31625000000 -17.423143 -151.98787 -0.46909255 143.53625 -0.46949691 143.22003 -25.137545 -125.2522
31650000000 -16.412237 -85.630302 -0.40470636 143.08746 -0.56108332 142.73903 -23.498585 -121.65276
31675000000 -24.365995 -35.429577 -0.34955812 143.85472 -0.59317696 143.12531 -24.617147 -112.23386
31700000000 -26.245865 -148.8519 -0.43947369 143.70938 -0.45720497 143.41055 -25.480934 -118.88792
31725000000 -20.09864 -106.86927 -0.40744436 142.98407 -0.45959589 143.01218 -24.413095 -119.41018
31750000000 -23.465727 -77.523224 -0.38578403 142.86781 -0.49316329 143.14052 -25.442877 -114.77619
31775000000 -25.558449 -113.91126 -0.45478395 142.95537 -0.41535535 143.04277 -25.002134 -123.81512
31800000000 -21.486229 -103.67747 -0.46863958 142.47986 -0.45931545 142.60234 -23.778019 -118.37217
31825000000 -23.714912 -83.159462 -0.46097657 142.689 -0.49486473 142.72191 -24.846256 -108.55814
31850000000 -26.55879 -111.24582 -0.39344385 142.55498 -0.42929101 142.64375 -26.165779 -120.4486
31875000000 -21.715658 -110.33044 -0.49056393 141.62779 -0.44518507 142.16743 -24.291798 -125.5902
31900000000 -22.085064 -90.088806 -0.50331265 141.99818 -0.50229496 142.09138 -24.293993 -113.25439
31925000000 -25.155018 -95.925468 -0.43528059 141.94717 -0.44204357 142.15482 -25.109694 -118.58025
31950000000 -23.369287 -105.81923 -0.49713799 141.68248 -0.41940683 141.73557 -24.228523 -120.61559
31975000000 -23.65695 -94.707718 -0.45243424 141.60284 -0.47257107 141.52629 -24.596262 -112.56158
32000000000 -24.991899 -105.33038 -0.44461146 141.22354 -0.42761028 141.64452 -25.317476 -119.92548
32025000000 -22.600241 -109.85408 -0.54294348 141.16223 -0.42553443 141.24397 -23.967014 -124.42672
32050000000 -22.675501 -96.730751 -0.49723098 141.17026 -0.49844259 141.2169 -23.560101 -111.29889
32075000000 -24.599323 -99.532028 -0.47859713 141.01372 -0.43219236 141.25491 -25.125786 -113.62952
32100000000 -23.880049 -106.31161 -0.49564067 140.79193 -0.40722331 140.6745 -24.71866 -122.67512
32125000000 -23.595791 -101.07519 -0.52004331 140.38417 -0.47551015 140.56894 -24.007959 -113.85472
32150000000 -24.194691 -107.88062 -0.52227104 140.62012 -0.44062316 140.62927 -24.554424 -117.08182
32175000000 -22.686235 -109.5628 -0.5232231 140.44502 -0.42090961 140.32375 -23.976927 -121.51913
32200000000 -22.649166 -98.585846 -0.55575657 140.56985 -0.47122025 140.30556 -23.361023 -111.37776
32225000000 -25.034964 -98.844597 -0.46909127 140.43813 -0.44808468 140.20744 -25.117435 -112.35394
32250000000 -24.237034 -113.23707 -0.49211892 139.82605 -0.41252586 139.88959 -24.498293 -122.43265
32275000000 -22.745066 -109.0242 -0.5910089 140.10342 -0.45856288 139.80252 -23.184267 -113.18816
32300000000 -23.539017 -107.42699 -0.47570676 140.16438 -0.44277662 139.89372 -24.206581 -113.09736
32325000000 -23.086948 -108.75158 -0.49057999 139.60463 -0.38207617 139.48087 -24.566515 -119.71529
32350000000 -23.018908 -100.75637 -0.50474179 139.91478 -0.43183914 139.06276 -23.746309 -112.17308
32375000000 -24.792503 -101.79573 -0.42134374 139.47514 -0.44713232 139.24951 -24.969801 -112.12596
32400000000 -23.918093 -113.82072 -0.49165779 139.10034 -0.38960639 138.88347 -24.700203 -123.74636
32425000000 -22.855064 -109.07148 -0.49097741 139.38664 -0.43593821 138.74571 -23.091148 -116.32829
32450000000 -23.517408 -107.76215 -0.45075363 139.25209 -0.41353574 138.95747 -24.58873 -110.84232
32475000000 -23.219875 -105.31177 -0.42820409 138.83208 -0.36729118 138.27782 -25.763834 -120.33327
32500000000 -23.186073 -98.63607 -0.43203276 138.55132 -0.4284187 137.93614 -23.961258 -118.41837
32525000000 -24.981104 -101.32111 -0.44871005 138.66832 -0.43513322 138.21829 -24.631193 -111.59158
32550000000 -24.387331 -113.56738 -0.39955628 138.34213 -0.40358761 137.92168 -25.826775 -121.37989
32575000000 -22.533001 -108.22028 -0.42272002 138.08447 -0.40408838 137.65457 -24.172647 -121.08955
32600000000 -23.237947 -98.094421 -0.38971132 138.22586 -0.40142241 137.76587 -25.044529 -111.99557
32625000000 -24.304445 -99.471184 -0.33978921 137.65009 -0.364813 137.46524 -26.41189 -119.64062
32650000000 -23.469873 -101.60429 -0.42401081 137.26033 -0.40064675 136.83849 -24.47682 -123.80998
32675000000 -24.450636 -99.255302 -0.37289178 137.5049 -0.43398306 137.08171 -24.676832 -114.73121
32700000000 -24.33149 -108.24257 -0.35680726 137.01915 -0.37389922 137.02094 -26.448811 -119.69547
32725000000 -22.498396 -103.17564 -0.37488407 136.68663 -0.3824915 136.23804 -24.780266 -124.81018
32750000000 -23.417755 -91.492744 -0.32618448 136.65967 -0.42335677 136.50095 -25.23045 -113.99321
32775000000 -24.828983 -96.877106 -0.3563396 136.12141 -0.36154211 136.424 -26.696201 -122.21866
32800000000 -23.767082 -101.77037 -0.41630995 135.98331 -0.40648657 135.73991 -24.662325 -129.67082
32825000000 -24.201275 -98.229271 -0.38800418 136.01921 -0.43992931 136.01318 -24.375633 -115.84733
32850000000 -24.630779 -101.72164 -0.37196341 135.737 -0.38081673 135.95847 -26.78348 -118.69821
32875000000 -23.238968 -102.29237 -0.37258905 135.35419 -0.3804161 135.38464 -25.080334 -130.78671
32900000000 -23.31702 -94.129524 -0.41550624 135.06656 -0.42771527 135.16708 -24.667282 -119.14604
32925000000 -24.651279 -94.261581 -0.38431707 135.15927 -0.3975898 135.34853 -26.332134 -120.92865
32950000000 -24.420519 -100.67719 -0.40757069 134.69011 -0.38236016 134.96854 -24.816658 -132.72479
32975000000 -24.252777 -99.141136 -0.47040495 134.78082 -0.4316074 134.74063 -24.344738 -118.85915
33000000000 -24.800127 -100.82155 -0.36444119 134.69916 -0.39159903 134.93393 -26.460264 -119.92599
33025000000 -23.459688 -104.05276 -0.44529691 133.95731 -0.36604354 134.44431 -25.138899 -137.44753
33050000000 -23.885302 -92.970123 -0.51500666 134.3006 -0.43863651 134.00613 -23.96438 -122.48711
33075000000 -26.290262 -96.847595 -0.41188279 134.32468 -0.42924315 134.30209 -25.265581 -118.80405
33100000000 -25.275093 -112.06253 -0.46752414 133.79149 -0.37009633 134.04678 -25.329842 -131.84013
33125000000 -24.189114 -105.81998 -0.47199714 133.88593 -0.42298064 133.75896 -24.41568 -122.57446
33150000000 -24.951706 -104.0621 -0.44558671 133.57658 -0.40412205 133.85712 -25.864429 -122.11373
33175000000 -24.101406 -109.10059 -0.47542933 133.39488 -0.35935363 133.46852 -25.10881 -137.048
33200000000 -24.338953 -98.846489 -0.51302963 133.60254 -0.43892083 133.17076 -23.521708 -121.58685
33225000000 -26.391722 -100.38136 -0.47113261 133.47102 -0.43669167 133.24539 -25.288574 -115.93883
33250000000 -25.91506 -117.08498 -0.42508841 133.04189 -0.3633576 133.07809 -25.974241 -134.452
33275000000 -23.999691 -113.46716 -0.51478964 132.90955 -0.40591264 132.89223 -24.117655 -126.55546
33300000000 -24.378225 -105.9753 -0.49393648 133.11511 -0.41036049 132.82851 -24.816303 -119.95351
33325000000 -25.46776 -105.97028 -0.43940219 132.74747 -0.35684213 132.51135 -25.433414 -130.72365
33350000000 -25.848345 -108.2906 -0.49428132 132.88576 -0.39376226 132.14461 -23.971088 -122.22774
33375000000 -26.641394 -114.59124 -0.41158855 132.71204 -0.41287294 132.16644 -25.461281 -118.14603
33400000000 -24.988958 -124.74256 -0.42826515 132.0571 -0.3612338 132.03207 -26.340876 -134.1839
33425000000 -23.338051 -116.00694 -0.49783313 132.1629 -0.38540208 131.79211 -24.165159 -128.80824
33450000000 -24.157242 -107.68842 -0.43286347 132.43787 -0.4175635 131.94679 -24.730045 -118.25131
33475000000 -25.332983 -106.89455 -0.39980376 131.86342 -0.35754529 131.54457 -26.979307 -127.76717
33500000000 -25.38648 -108.32084 -0.41902348 131.61687 -0.38017613 130.99586 -25.239996 -129.43698
33525000000 -25.896959 -112.36369 -0.40834737 131.58748 -0.4183273 131.16777 -25.460878 -122.75333
33550000000 -24.723619 -120.37759 -0.42443362 131.1888 -0.36423823 131.01913 -26.557411 -133.33374
33575000000 -23.272003 -112.52254 -0.40882429 131.27446 -0.36382896 130.7653 -24.860371 -129.6442
33600000000 -24.034616 -100.5119 -0.40145543 131.36125 -0.40208715 130.76314 -25.722549 -116.48511
33625000000 -26.187574 -100.32366 -0.33337983 130.87115 -0.36824286 130.49022 -28.372026 -128.64166
33650000000 -25.645273 -110.84095 -0.38210744 130.33138 -0.37176511 130.13022 -25.849298 -135.92136
33675000000 -24.862026 -111.36492 -0.42051929 130.41447 -0.39909008 130.13742 -25.42671 -123.92634
33700000000 -24.643282 -111.61849 -0.35717955 130.4064 -0.35646164 130.11876 -27.606478 -129.13602
33725000000 -23.739037 -106.5728 -0.34044322 129.9184 -0.33669904 129.5937 -26.422867 -131.25021
33750000000 -24.093021 -96.779953 -0.34755552 129.66679 -0.40502858 129.32529 -26.788754 -122.47215
33775000000 -26.1742 -97.266777 -0.31657267 129.54305 -0.38585514 129.52351 -28.652323 -133.9827
33800000000 -25.620481 -109.65818 -0.3946327 128.88176 -0.35664278 129.07378 -26.142628 -139.62938
33825000000 -24.525488 -108.93808 -0.3891266 129.32185 -0.38199791 129.08595 -25.866802 -124.32333
33850000000 -24.603462 -101.83948 -0.31463662 129.03848 -0.33376461 129.03439 -29.312836 -125.28148
33875000000 -24.470274 -99.073158 -0.34742546 128.19383 -0.32138258 128.33676 -27.423433 -142.30922
33900000000 -25.224951 -95.359657 -0.397356 128.0927 -0.40328744 128.06267 -26.614513 -129.75623
33925000000 -26.265678 -101.34359 -0.38907209 128.22104 -0.40067279 128.27202 -27.921837 -130.05479
33950000000 -25.468052 -108.35519 -0.39692187 127.82294 -0.3448723 128.09085 -26.889202 -139.05701
33975000000 -24.607716 -104.05408 -0.4207404 127.92935 -0.37560636 127.74092 -26.709661 -126.51412
34000000000 -24.972311 -98.39196 -0.36596224 127.55725 -0.36117861 127.71582 -29.193869 -127.51907
34025000000 -24.885099 -97.418617 -0.38905966 127.1818 -0.3329244 127.27735 -27.567038 -144.57251
34050000000 -25.917273 -89.750305 -0.51167214 127.07093 -0.42969131 126.83854 -26.203156 -127.46179
34075000000 -27.986361 -102.29309 -0.43154353 127.48313 -0.42773652 127.20213 -27.292648 -125.10584
34100000000 -26.13529 -115.43763 -0.3948122 126.8957 -0.3498404 126.99576 -28.145901 -136.37563
34125000000 -24.116983 -106.06538 -0.48318705 126.66758 -0.38488331 126.4537 -27.321472 -128.93517
34150000000 -24.96505 -93.172462 -0.41880271 126.85361 -0.4213765 126.55035 -27.984804 -124.41977
34175000000 -26.464079 -95.67643 -0.4327555 126.42011 -0.37768373 126.41787 -27.861876 -137.36247
34200000000 -26.861395 -100.57648 -0.51170093 126.50555 -0.39964807 126.09006 -26.09395 -127.15595
34225000000 -26.978077 -106.36039 -0.43401381 126.73752 -0.40839949 126.20168 -27.784796 -121.40264
34250000000 -26.096615 -110.03883 -0.40778354 125.83447 -0.34576976 125.88571 -29.620796 -135.13498
34275000000 -24.739532 -103.66845 -0.49204606 125.92751 -0.38793263 125.40361 -27.146046 -130.56903
34300000000 -25.565693 -94.606407 -0.47098655 126.17651 -0.455158 125.5712 -26.523859 -119.98762
34325000000 -28.075262 -98.200432 -0.4247075 125.72697 -0.39094079 125.48832 -28.821373 -127.96065
34350000000 -27.379908 -112.4222 -0.45429713 125.77803 -0.37749937 125.05958 -27.567871 -127.57194
34375000000 -26.150156 -111.21188 -0.43345326 125.55194 -0.39386371 125.0657 -28.200964 -120.68704
34400000000 -25.827923 -109.88562 -0.40447396 125.13769 -0.3641063 124.79871 -29.899479 -129.54514
34425000000 -25.175079 -106.85553 -0.46516854 125.23323 -0.39795765 124.52995 -27.197655 -127.87748
34450000000 -26.040592 -104.3689 -0.43420976 125.33125 -0.41592622 124.64114 -27.139275 -116.44312
34475000000 -26.800123 -109.24339 -0.37163693 124.89989 -0.38620991 124.41246 -31.063831 -120.22698
34500000000 -25.487083 -110.57838 -0.4211297 124.47829 -0.37208566 123.96859 -29.077911 -130.51083
34525000000 -25.55121 -107.44714 -0.41187164 124.56379 -0.40338719 123.98511 -28.141914 -118.02783
34550000000 -25.427725 -109.87954 -0.4014717 124.33489 -0.37912497 123.87925 -30.96183 -118.43354
34575000000 -24.35359 -106.13457 -0.39913821 124.0229 -0.37787962 123.40323 -29.382511 -126.16739
34600000000 -24.77537 -99.81179 -0.40334284 124.2935 -0.42290246 123.59412 -28.427658 -114.86645
34625000000 -26.176069 -100.35719 -0.35471892 123.83553 -0.40277314 123.48825 -32.859394 -111.71982
34650000000 -24.62764 -109.43375 -0.37527007 123.14877 -0.375743 122.90905 -30.173954 -132.74753
34675000000 -23.53985 -104.22102 -0.41845 123.68738 -0.39600262 123.09026 -27.821569 -117.71726
34700000000 -24.364841 -95.88903 -0.35048801 123.49746 -0.3714563 123.08882 -31.45537 -99.22361
34725000000 -24.073582 -98.828255 -0.338359 122.79197 -0.37398335 122.42857 -31.77083 -120.24146
34750000000 -23.569323 -97.198738 -0.3924897 122.80697 -0.42331767 122.3584 -29.010223 -117.14473
34775000000 -24.51021 -94.359535 -0.3383384 122.80253 -0.40755239 122.5847 -31.9734 -102.97252
34800000000 -23.832489 -99.431381 -0.33452863 122.22353 -0.35871467 122.14225 -32.311699 -119.32352
34825000000 -22.883581 -99.116409 -0.37019795 122.15486 -0.3774606 121.72932 -28.969477 -114.00327
34850000000 -22.801865 -94.198471 -0.3206571 122.30313 -0.35890511 121.97559 -30.9681 -94.1595
34875000000 -22.240948 -91.582245 -0.30199495 121.38976 -0.35460937 121.382 -32.334698 -118.55352
34900000000 -22.780455 -89.433441 -0.40400651 121.15611 -0.41788754 121.22268 -28.884174 -121.94083
34925000000 -23.735733 -90.586235 -0.35946265 121.83247 -0.38263541 121.62339 -30.428358 -99.206467
34950000000 -22.703936 -92.884102 -0.28923702 120.80509 -0.30191201 120.96769 -32.010662 -102.43406
34975000000 -21.988699 -92.105583 -0.37214917 120.63882 -0.36004603 120.22041 -29.765398 -118.73478
35000000000 -22.176058 -85.276726 -0.34215432 120.8462 -0.41520774 120.61317 -30.15736 -102.58469
35025000000 -22.656153 -83.954597 -0.34812537 120.05807 -0.36564049 120.4364 -32.083115 -113.67699
35050000000 -22.882605 -85.087761 -0.40593123 120.24428 -0.40007541 120.10004 -29.618458 -119.29174
35075000000 -23.474031 -84.011703 -0.34912154 120.32909 -0.38196769 120.33543 -30.13386 -96.819794
35100000000 -22.852793 -92.786369 -0.36106294 119.40026 -0.32719171 119.58174 -32.458061 -111.06277
35125000000 -21.430954 -90.168159 -0.43436745 119.40061 -0.41978541 118.85206 -30.13451 -126.2344
35150000000 -21.753984 -77.025314 -0.40165251 119.54659 -0.48476976 119.39017 -28.92635 -104.20033
35175000000 -23.665937 -74.878044 -0.39063889 119.33652 -0.41078258 119.6324 -31.987663 -99.309151
35200000000 -23.574234 -83.977119 -0.41564158 118.81672 -0.38726369 118.99699 -30.752056 -119.16676
35225000000 -23.144688 -83.49234 -0.42421678 119.14465 -0.41080907 118.86826 -29.509624 -101.96523
35250000000 -22.929827 -83.901344 -0.40596813 118.73312 -0.39423513 118.55852 -31.673946 -101.21087
35275000000 -22.51053 -81.853745 -0.48035952 118.44963 -0.43504438 118.0161 -30.47419 -114.87861
35300000000 -22.846262 -74.878975 -0.42687154 118.95608 -0.50665128 118.38133 -28.934362 -100.95271
35325000000 -24.102589 -71.236343 -0.37546414 118.37466 -0.43572557 118.6622 -31.933578 -89.079842
35350000000 -24.726957 -83.624268 -0.44458085 117.71538 -0.39671668 117.87561 -31.46656 -116.1121
35375000000 -22.96443 -86.594933 -0.45662987 118.23716 -0.4821766 117.60708 -29.070755 -101.02127
35400000000 -22.69244 -77.160789 -0.40447661 118.03175 -0.46011949 117.71127 -30.802828 -92.356224
35425000000 -23.525009 -75.57354 -0.43395588 117.5947 -0.45513669 117.31989 -30.758738 -104.55132
35450000000 -23.765045 -77.39312 -0.41921812 117.60414 -0.49736345 117.41414 -29.456707 -94.744598
35475000000 -24.133026 -76.16185 -0.39315584 117.33515 -0.45425263 117.44388 -31.670897 -85.587959
35500000000 -24.216814 -85.898514 -0.46821034 116.78644 -0.44607782 116.86375 -30.869434 -109.97566
35525000000 -23.025377 -87.505844 -0.45410264 117.20995 -0.50189734 116.65339 -27.913696 -96.38736
35550000000 -22.756762 -81.083389 -0.38120428 117.20017 -0.51907921 116.8615 -29.859732 -78.031998
35575000000 -22.947165 -77.69191 -0.41294965 116.41414 -0.47805735 116.67468 -31.831144 -95.121651
35600000000 -23.600088 -80.695366 -0.44960034 116.15939 -0.51178658 116.25018 -29.277996 -101.37067
35625000000 -23.606089 -86.859131 -0.45549449 116.46124 -0.51406032 116.48176 -29.195627 -87.902473
35650000000 -22.729427 -87.219406 -0.42026779 116.11386 -0.46958724 116.06866 -29.526579 -95.093842
35675000000 -22.578171 -87.029716 -0.42762607 116.00952 -0.53334427 115.80661 -28.479523 -92.797783
35700000000 -22.319281 -85.316315 -0.37306121 115.76385 -0.53544647 116.15584 -29.992725 -80.965828
35725000000 -22.424944 -84.373459 -0.44440183 115.2713 -0.4901526 115.90178 -30.641438 -105.47038
35750000000 -22.899504 -90.662132 -0.48440284 115.32343 -0.52393639 115.51679 -27.707369 -103.81779
35775000000 -22.137259 -91.925652 -0.38397416 115.4529 -0.50133938 115.7013 -28.038486 -82.367897
35800000000 -21.571852 -90.895645 -0.39925906 114.84431 -0.46847817 115.37328 -30.931856 -93.114365
35825000000 -21.369802 -90.852119 -0.47188219 114.44965 -0.51330924 114.94369 -29.106632 -110.60061
35850000000 -21.438908 -87.54007 -0.42574567 114.52961 -0.54591554 115.06934 -28.295763 -96.388351
35875000000 -21.825409 -86.875694 -0.45362604 114.3218 -0.48062918 115.21478 -29.589855 -98.294006
35900000000 -21.785316 -90.817574 -0.46774095 114.04767 -0.47389001 114.61548 -28.558767 -108.17155
35925000000 -21.373182 -90.647751 -0.43716612 114.07643 -0.49703723 114.66863 -28.190548 -93.865791
35950000000 -20.896259 -89.085503 -0.41674256 113.53382 -0.42255712 114.35663 -30.088562 -101.895
35975000000 -21.348242 -87.578705 -0.53212392 113.19209 -0.50071448 113.84465 -29.796398 -117.28732
36000000000 -21.426199 -88.84227 -0.53077769 113.7039 -0.54860848 114.14716 -27.518974 -102.83095
36025000000 -20.849806 -86.51033 -0.42564696 113.12315 -0.43666759 114.26083 -28.580233 -95.537674
36050000000 -21.229338 -85.491837 -0.51910472 112.88084 -0.4227699 113.57925 -30.05217 -110.38792
36075000000 -21.332661 -87.370277 -0.51642072 112.82525 -0.48696163 113.27207 -28.977133 -106.67049
36100000000 -20.834606 -85.975525 -0.51301157 112.60178 -0.47035339 113.2023 -29.327076 -106.01935
36125000000 -21.301949 -83.293213 -0.60431939 112.54079 -0.49882209 112.78818 -29.264917 -110.04131
36150000000 -21.342903 -82.927216 -0.55385792 112.72935 -0.53296816 113.02 -27.59132 -101.33338
36175000000 -21.229887 -81.5373 -0.5015015 112.29326 -0.45053479 113.10468 -28.96966 -95.984879
36200000000 -21.777674 -82.913651 -0.59324843 111.97762 -0.4142895 112.44659 -30.864161 -116.14723
36225000000 -21.926802 -82.592239 -0.61803007 112.1124 -0.51761287 111.94425 -28.359409 -108.40482
36250000000 -21.667694 -82.537491 -0.58716923 112.47311 -0.54861957 112.36356 -27.562147 -100.39162
36275000000 -21.725496 -79.723564 -0.55288398 111.96703 -0.48466897 112.11859 -29.20014 -105.86285
36300000000 -22.361322 -76.618668 -0.59215593 111.91719 -0.51255137 111.98038 -28.229372 -105.41331
36325000000 -22.879032 -79.450409 -0.55862641 111.76348 -0.46587306 111.99374 -28.88253 -103.17587
36350000000 -22.945871 -80.078491 -0.59261149 111.57676 -0.44446844 111.53857 -29.958319 -113.04311
36375000000 -23.254629 -77.979233 -0.6244908 111.90282 -0.52033174 110.99252 -27.118771 -107.43694
36400000000 -23.403139 -79.561424 -0.52390301 111.82426 -0.5665378 111.52452 -27.24588 -98.794212
36425000000 -23.588552 -78.437744 -0.49239141 111.23653 -0.47687426 111.50509 -30.305908 -103.36098
36450000000 -24.043329 -78.871567 -0.58293009 111.02834 -0.47697982 110.98676 -29.10154 -115.85576
36475000000 -24.337355 -78.526749 -0.55994004 111.12777 -0.50003374 110.97963 -27.385292 -107.2929
36500000000 -25.414555 -79.212746 -0.54096782 111.13156 -0.47429052 110.7328 -28.723553 -104.28907
36525000000 -25.377684 -86.687019 -0.53083694 110.91021 -0.49657384 110.44881 -28.280251 -109.16029
36550000000 -24.703281 -85.267319 -0.46784008 110.67659 -0.54892641 110.64391 -28.357279 -101.57241
36575000000 -25.134954 -82.963814 -0.50862116 110.09864 -0.47181019 110.68715 -30.856293 -107.74384
36600000000 -25.926235 -86.234169 -0.56306076 110.17713 -0.4564254 110.1412 -28.972376 -122.36823
36625000000 -26.329363 -90.060387 -0.53314316 110.67263 -0.50835127 110.04973 -26.662058 -109.57184
36650000000 -26.410915 -95.487228 -0.43059379 110.05855 -0.46625468 110.10324 -29.573824 -99.522797
36675000000 -25.525969 -97.738174 -0.4744395 109.53498 -0.48218924 109.74592 -30.79332 -115.95139
36700000000 -25.220968 -94.042854 -0.49105707 109.52444 -0.51294065 109.84081 -28.392523 -113.6507
36725000000 -25.864906 -91.100487 -0.4637481 109.06248 -0.44783518 109.82606 -29.83499 -111.80678
36750000000 -26.966476 -98.354439 -0.52515787 109.13994 -0.43129891 109.26283 -29.74057 -122.88542
36775000000 -26.182594 -104.46786 -0.47234443 109.18219 -0.46747395 109.18609 -27.854916 -110.41266
36800000000 -25.450897 -101.97008 -0.38597685 108.52808 -0.44376659 109.15978 -31.292963 -95.543823
36825000000 -25.036156 -101.99071 -0.51677632 108.0446 -0.45257163 108.88274 -32.668034 -130.26387
36850000000 -24.907606 -98.712021 -0.54913396 108.40841 -0.48008773 108.90071 -27.498911 -125.03966
36875000000 -26.025658 -97.548813 -0.49983084 108.30542 -0.4374001 108.74917 -28.763683 -106.87244
36900000000 -26.076569 -108.44824 -0.46105775 107.89802 -0.40517113 108.175 -32.409821 -112.71357
36925000000 -24.236135 -106.00179 -0.46950111 107.47473 -0.47507471 108.14609 -30.6378 -114.39905
36950000000 -24.059109 -100.38507 -0.50997782 107.30765 -0.44800964 108.25307 -30.560137 -110.99072
36975000000 -24.210152 -101.07677 -0.53577816 107.05622 -0.41704717 107.87579 -31.032606 -126.9854
37000000000 -23.835239 -98.252029 -0.57722878 107.45033 -0.45362163 107.764 -28.337078 -115.67695
37025000000 -24.460512 -94.134323 -0.49181002 107.13041 -0.39862496 107.60801 -30.538229 -94.087158
37050000000 -24.549833 -100.10822 -0.48298219 106.44489 -0.38813478 107.01151 -35.777622 -116.36155
37075000000 -23.302631 -102.05818 -0.60491258 106.49007 -0.47770336 106.97196 -29.708725 -119.78445
37100000000 -22.485186 -95.842583 -0.57770532 106.59261 -0.456065 107.22784 -28.666847 -105.06374
37125000000 -23.190645 -88.834991 -0.56232649 106.43767 -0.40534127 106.83303 -32.155754 -107.4683
37150000000 -23.530218 -89.569611 -0.57248658 106.39508 -0.41169763 106.37327 -30.321009 -112.158
37175000000 -23.507122 -87.296974 -0.52348375 106.13026 -0.43186763 106.21957 -30.070168 -92.466484
37200000000 -23.967833 -90.147041 -0.58320314 105.81233 -0.41786462 105.87976 -34.718567 -104.05974
37225000000 -22.975714 -93.879646 -0.61105955 106.07259 -0.47922215 105.78878 -28.981775 -118.52725
37250000000 -22.446066 -86.626549 -0.56686985 106.28201 -0.50417542 106.16379 -27.779266 -99.361855
37275000000 -23.497728 -80.574989 -0.52427459 105.68526 -0.38759309 105.7363 -33.104328 -84.35659
37300000000 -23.690987 -84.919968 -0.54753137 105.2675 -0.40914923 104.96857 -32.447128 -112.73457
37325000000 -23.141939 -83.84861 -0.59319168 105.67474 -0.50452721 104.97839 -28.428894 -98.778938
37350000000 -23.505917 -81.359245 -0.52844799 105.42902 -0.46195298 104.90321 -31.632666 -92.274788
37375000000 -23.292734 -83.115204 -0.56212187 105.18436 -0.49718171 104.74017 -30.356592 -110.13134
37400000000 -23.024698 -78.830246 -0.540874 105.50236 -0.48844439 104.94122 -28.912462 -96.634903
37425000000 -23.797832 -72.188789 -0.44000578 104.63891 -0.41427913 104.59496 -32.826759 -75.207458
37450000000 -24.696465 -78.026123 -0.56895304 104.4168 -0.42782211 103.94365 -33.333885 -108.07229
37475000000 -23.734861 -80.692146 -0.543908 104.96762 -0.53079396 104.02077 -27.929012 -102.94089
37500000000 -24.174822 -72.772621 -0.45301017 104.5647 -0.50998914 104.18761 -31.086657 -83.094566
37525000000 -25.124805 -78.266548 -0.50448191 103.99442 -0.4412834 103.82065 -33.522243 -100.39699
37550000000 -23.837826 -79.353394 -0.46882716 104.09045 -0.49152559 103.66212 -30.246422 -98.667717
37575000000 -24.03536 -67.584908 -0.46168417 103.64425 -0.45972723 103.53419 -32.486961 -80.115929
37600000000 -26.28953 -66.791672 -0.514202 103.4906 -0.42813644 103.00378 -33.674625 -106.61957
37625000000 -26.557207 -79.585289 -0.46281576 103.60469 -0.50221819 103.02344 -29.307373 -102.87594
37650000000 -26.131702 -79.701309 -0.44872433 103.21925 -0.48078895 103.19179 -31.366764 -72.755493
37675000000 -25.840874 -83.256378 -0.4474383 102.64519 -0.4489899 102.84064 -36.834671 -90.859184
37700000000 -25.117746 -82.494041 -0.52410769 102.64555 -0.48627385 102.681 -30.77553 -106.14224
37725000000 -25.619093 -74.365509 -0.48203513 102.56724 -0.47280219 102.53446 -30.988535 -82.268555
37750000000 -27.975225 -79.147369 -0.4803367 102.3367 -0.45089644 102.18359 -34.541187 -90.369408
37775000000 -26.556156 -97.952431 -0.49509943 102.09568 -0.47857028 102.14623 -30.598949 -99.163078
37800000000 -24.626549 -90.814514 -0.46823776 101.83104 -0.48922202 102.34285 -30.692802 -76.059166
37825000000 -25.202362 -84.113922 -0.48152745 101.44872 -0.45112172 102.01252 -36.30463 -89.993294
37850000000 -26.013237 -90.952194 -0.59048176 101.55949 -0.47853756 101.70548 -30.218555 -111.04832
37875000000 -25.766333 -90.241913 -0.4918575 101.7025 -0.48953006 101.69909 -29.4086 -86.339211
37900000000 -26.912275 -96.120079 -0.49690223 101.06245 -0.46532768 101.4502 -33.635811 -78.486931
37925000000 -25.082273 -111.78423 -0.53871149 100.96741 -0.46725798 101.48718 -31.27886 -107.04533
37950000000 -23.054382 -104.19037 -0.54652888 100.92453 -0.46190715 101.71281 -29.679461 -93.62973
37975000000 -23.511091 -93.851799 -0.53840715 100.63332 -0.41393659 101.34311 -33.928261 -96.041504
38000000000 -24.755856 -95.772255 -0.57602751 100.73194 -0.45490119 100.90433 -30.828749 -111.92573
38025000000 -24.792597 -102.33371 -0.55911744 100.76383 -0.46676356 100.89578 -28.921587 -91.238495
38050000000 -24.126635 -105.03613 -0.49753636 100.25897 -0.42577162 100.74675 -34.01487 -79.12278
38075000000 -23.199337 -106.37639 -0.57129735 100.02033 -0.43825799 100.69624 -31.89979 -119.7461
38100000000 -22.72291 -102.12649 -0.6420241 100.40894 -0.4198598 100.77741 -29.030935 -103.69981
38125000000 -23.107372 -92.902428 -0.50314772 100.25023 -0.3660939 100.25134 -33.121746 -74.412689
38150000000 -23.979807 -94.742638 -0.57076317 99.625458 -0.41111159 99.647888 -33.513412 -105.18859
38175000000 -23.767294 -100.34377 -0.58585578 100.14801 -0.46875623 99.849434 -28.943487 -94.225441
38200000000 -23.040854 -99.873047 -0.48705307 99.5728 -0.40625995 99.820671 -32.658337 -69.134178
38225000000 -22.291016 -98.446167 -0.58305627 99.156631 -0.38114032 99.488258 -34.228706 -113.0178
38250000000 -22.213165 -90.322464 -0.60030413 99.938889 -0.41938463 99.496979 -29.004898 -97.157623
38275000000 -23.138254 -85.537514 -0.48735169 99.443222 -0.36784264 99.102554 -30.611015 -59.85141
38300000000 -23.038391 -93.09346 -0.52972436 98.695274 -0.40836644 98.325233 -36.479744 -85.010185
38325000000 -22.182226 -91.586082 -0.58283049 99.2547 -0.51144195 98.800873 -28.847467 -100.45113
38350000000 -22.417656 -85.238533 -0.51227254 98.986015 -0.41987854 98.950577 -31.058783 -69.578911
38375000000 -22.380194 -85.975487 -0.53240198 98.549561 -0.37281892 98.234825 -36.163536 -85.186676
38400000000 -22.019218 -79.982674 -0.50978881 99.230026 -0.41809073 98.064026 -29.286846 -94.768982
38425000000 -22.94441 -72.859467 -0.42163092 98.549812 -0.41102612 97.967949 -29.281553 -60.574436
38450000000 -23.859816 -82.200958 -0.47403812 97.87429 -0.42861462 97.373856 -37.294807 -60.684845
38475000000 -22.505684 -86.49752 -0.5174408 98.186272 -0.50945371 97.656868 -30.14444 -108.01189
38500000000 -22.440891 -75.819939 -0.46015975 98.216522 -0.44880965 98.009872 -29.887501 -70.826797
38525000000 -23.180557 -73.570679 -0.42288637 97.54435 -0.36614853 97.175636 -34.839676 -54.185192
38550000000 -22.786907 -74.504807 -0.46237192 97.425827 -0.4401533 96.577362 -31.496544 -95.105156
38575000000 -23.405521 -64.790115 -0.39899942 97.573891 -0.47766727 96.780968 -30.158573 -66.548088
38600000000 -25.63838 -70.218056 -0.41196409 96.497063 -0.42102176 96.605339 -37.685577 -44.497028
38625000000 -24.028549 -83.903999 -0.51243997 96.959068 -0.47970799 96.618332 -31.907036 -111.91549
38650000000 -23.186626 -68.644089 -0.3747704 97.095169 -0.44794366 96.920685 -29.892715 -71.357765
38675000000 -24.741034 -60.822247 -0.37903783 95.814827 -0.36457938 96.178658 -33.766586 -34.636612
38700000000 -25.671715 -67.944847 -0.46285436 95.996323 -0.4315142 95.512207 -36.987869 -94.253815
38725000000 -25.869524 -66.362419 -0.42461538 95.775734 -0.47627103 95.733192 -31.324692 -77.533325
38750000000 -27.664919 -72.672592 -0.44801119 95.501091 -0.42188489 95.689835 -35.686115 -51.013802
38775000000 -26.239246 -85.426659 -0.44921583 95.435898 -0.42356959 95.577911 -35.309631 -95.486404
38800000000 -24.634459 -74.412918 -0.45240036 95.139969 -0.43348312 95.50811 -30.805523 -66.193787
38825000000 -26.049269 -62.29451 -0.41106194 94.9319 -0.39997682 95.132202 -35.408943 -24.578444
38850000000 -28.243877 -69.269646 -0.50195241 94.341431 -0.40980864 94.741135 -37.419567 -103.42179
38875000000 -28.272415 -74.962547 -0.56840962 94.886047 -0.46350762 94.761345 -29.713413 -86.284348
38900000000 -29.751478 -80.579727 -0.42122701 94.54319 -0.40591744 94.647728 -33.426632 -36.374859
38925000000 -26.903727 -95.097328 -0.49926946 93.754074 -0.38986957 94.481026 -38.048038 -85.681229
38950000000 -25.715988 -77.761765 -0.56097853 94.286636 -0.44426721 94.430931 -31.054123 -78.626366
38975000000 -29.406437 -63.524509 -0.47961387 93.666885 -0.39867815 94.044922 -34.871735 -36.240475
39000000000 -30.947046 -107.34843 -0.58307123 93.810707 -0.38477233 93.958855 -35.378448 -111.70679
39025000000 -27.684338 -102.00104 -0.56762743 94.385864 -0.39934662 94.117767 -29.608335 -89.757561
39050000000 -27.765215 -97.619453 -0.47318321 93.270828 -0.35164899 93.659996 -31.448885 -35.538494
39075000000 -26.461811 -106.31799 -0.57870913 93.121147 -0.3382645 93.367935 -43.981323 -85.132637
39100000000 -25.098444 -93.473785 -0.62590849 93.838326 -0.39415568 93.446526 -30.375227 -90.214302
39125000000 -27.504961 -75.400955 -0.52653563 93.328369 -0.4038516 93.114952 -31.090437 -47.593407
39150000000 -31.263166 -104.52526 -0.57898384 93.096733 -0.36326623 92.687279 -37.162392 -72.085022
39175000000 -26.630524 -118.68861 -0.56519145 93.525055 -0.35853693 92.929764 -29.724497 -80.003464
39200000000 -24.978613 -100.54533 -0.52842677 92.82193 -0.3134838 92.636475 -29.778238 -33.24905
39225000000 -24.900642 -94.531395 -0.5695526 92.384201 -0.31745118 92.010635 -39.664742 -38.546196
39250000000 -25.03039 -91.056259 -0.65584505 93.61673 -0.41642758 92.403366 -28.119415 -90.506889
39275000000 -26.511435 -78.59304 -0.52677447 93.445473 -0.40940583 92.202362 -27.514441 -41.26358
39300000000 -27.857958 -102.82823 -0.48942152 91.942184 -0.37807447 91.485748 -32.090561 -29.291269
39325000000 -24.019163 -111.25497 -0.61266291 92.846169 -0.35670805 91.93293 -30.926483 -76.939796
39350000000 -22.4575 -89.579956 -0.51475972 92.983627 -0.31587788 91.847382 -27.871037 -38.597992
39375000000 -23.006336 -80.311218 -0.50230026 92.015015 -0.3217459 90.970818 -30.755053 -33.911251
39400000000 -24.526834 -76.774399 -0.5232442 93.021049 -0.40171725 91.03302 -28.280109 -69.887894
39425000000 -25.850603 -80.76445 -0.3751446 92.51548 -0.39862034 91.106293 -25.967339 -39.430275
39450000000 -24.626514 -98.547272 -0.45502353 91.05941 -0.37612021 90.444984 -29.75115 -26.481943
39475000000 -22.277512 -93.252701 -0.49002647 92.205788 -0.37404215 90.639755 -30.091402 -65.135086
39500000000 -21.61545 -76.284904 -0.38736725 91.948799 -0.35728231 90.856186 -25.623339 -42.969067
39525000000 -22.911741 -67.510544 -0.42012098 91.43 -0.36666712 89.896378 -27.520662 -30.468628
39550000000 -24.42783 -74.400429 -0.33667997 90.986397 -0.43865588 89.679138 -28.909342 -58.658825
39575000000 -24.265291 -81.084702 -0.36109516 90.719017 -0.4529615 90.055908 -26.443775 -39.655575
39600000000 -23.314367 -87.195816 -0.39273506 90.271851 -0.39587921 89.647736 -29.296135 -22.318964
39625000000 -21.450914 -83.524551 -0.38298967 90.364655 -0.39190367 89.500076 -29.509996 -63.472805
39650000000 -21.005371 -64.802223 -0.31255856 90.889717 -0.41708148 89.704895 -24.799061 -45.733852
39675000000 -23.630655 -55.781906 -0.26062125 89.398636 -0.41308099 89.125443 -26.949026 -23.67939
39700000000 -25.462631 -77.361351 -0.40464735 88.635834 -0.4673726 88.701576 -31.86809 -45.278732
39725000000 -23.687199 -80.748688 -0.41386873 89.531898 -0.45828176 89.208801 -27.649857 -49.708557
39750000000 -23.029871 -76.894196 -0.30331093 88.641273 -0.39968133 88.869522 -26.983168 -30.795151
39775000000 -22.44586 -75.013145 -0.44139382 88.540543 -0.41489407 88.333817 -30.123053 -46.550873
39800000000 -22.596073 -63.029102 -0.31775182 88.604591 -0.43964288 88.22097 -26.71904 -47.243088
39825000000 -25.361456 -60.116383 -0.37848613 87.390793 -0.46562946 87.989159 -27.798618 -23.618311
39850000000 -27.011099 -83.960487 -0.52306354 87.901726 -0.44653904 87.928665 -33.370266 -56.032681
39875000000 -24.329067 -88.489754 -0.44601214 88.096802 -0.43547818 88.160187 -27.235201 -60.037003
39900000000 -23.298893 -78.780724 -0.4040567 87.569603 -0.40600309 88.004219 -26.374788 -34.924873
39925000000 -24.124514 -74.524307 -0.47644433 86.910019 -0.41937274 87.310478 -31.646412 -38.855946
39950000000 -25.192015 -73.919746 -0.56166506 87.004013 -0.4998399 87.201439 -28.158157 -62.072227
39975000000 -27.812611 -78.180679 -0.52302539 87.488297 -0.46994412 87.23436 -28.681105 -45.037655
40000000000 -27.194973 -103.5733 -0.49197951 86.882362 -0.41740343 87.079895 -31.017082 -58.262409
40025000000 -24.521992 -101.40488 -0.60689539 87.375755 -0.40363094 87.280289 -28.082478 -65.683624
40050000000 -24.521536 -87.688957 -0.47797304 87.211243 -0.3865937 86.935287 -27.241907 -40.380962
40075000000 -26.072046 -92.141983 -0.5679338 86.170654 -0.43056116 86.535278 -32.465961 -52.654343
40100000000 -27.263996 -97.067749 -0.66688132 87.726982 -0.44566971 86.809052 -28.344986 -86.69342
40125000000 -28.11536 -107.15456 -0.49067187 87.320999 -0.38704777 86.541039 -27.2714 -52.459721
40150000000 -25.21101 -122.6757 -0.5438363 86.583572 -0.3204962 85.988434 -29.945694 -45.317806
40175000000 -22.834888 -108.69933 -0.5521878 87.486809 -0.33329549 86.033066 -28.326569 -57.054882
40200000000 -23.500977 -91.82634 -0.46605653 86.825066 -0.35638326 86.173363 -26.952589 -48.12413
40225000000 -26.980556 -93.496811 -0.56040615 86.687157 -0.3687866 85.680389 -29.977495 -48.510857
40250000000 -27.068024 -118.04524 -0.47727925 87.543198 -0.34263563 85.869781 -27.715866 -68.281006
40275000000 -24.159 -114.77346 -0.4134798 87.224037 -0.24851711 85.679863 -25.016722 -41.188839
40300000000 -22.961437 -111.91547 -0.42106736 86.331657 -0.22279091 84.58181 -26.748077 -31.048954
40325000000 -22.1443 -107.93029 -0.43718863 86.785339 -0.31184202 84.568298 -27.418087 -56.463272
40350000000 -22.326696 -93.310646 -0.39117119 87.323051 -0.29688829 85.193336 -24.880156 -48.166157
40375000000 -24.257883 -91.51329 -0.32147431 86.724266 -0.29512987 84.471367 -24.758444 -37.574196
40400000000 -24.249933 -112.60181 -0.27211732 86.48822 -0.32041824 84.300835 -25.652643 -46.260483
40425000000 -21.172058 -110.50002 -0.22033989 86.941147 -0.20779231 84.108589 -23.111788 -37.337097
40450000000 -19.53573 -104.2461 -0.184558 85.495224 -0.17970844 83.27285 -24.290684 -36.534664
40475000000 -19.593891 -91.951012 -0.21679173 86.161217 -0.25977701 83.171745 -25.148664 -51.531708
40500000000 -20.68292 -80.023491 -0.015142133 86.584496 -0.28994125 83.904305 -22.488546 -46.411633
40525000000 -22.432106 -88.19622 -0.0089869499 84.707565 -0.31638777 83.414238 -23.305601 -33.687588
40550000000 -21.667831 -104.53048 -0.11736858 84.220795 -0.33775368 82.603218 -26.29117 -39.683418
40575000000 -19.275478 -100.79333 0.029352462 84.54528 -0.26968309 83.018181 -23.78796 -44.770466
40600000000 -18.12727 -92.681465 0.022525579 83.867828 -0.17351653 82.492546 -23.467054 -38.26701
40625000000 -18.661058 -86.05574 0.049725715 83.142052 -0.25401467 81.702415 -26.399977 -46.269257
40650000000 -19.817783 -80.235481 0.086832561 82.27758 -0.34571999 82.227997 -25.030092 -40.324196
40675000000 -20.89073 -82.261673 -0.030646773 82.223198 -0.34687865 82.259865 -24.946882 -24.296652
40700000000 -20.575079 -95.976524 -0.051289544 80.860344 -0.3855449 81.681877 -28.977249 -26.546404
40725000000 -18.238585 -92.293678 -0.052266147 81.317436 -0.32809696 81.79245 -25.302299 -41.971401
40750000000 -17.403328 -79.074463 0.063494839 81.040398 -0.21664578 81.93261 -24.522852 -27.691542
40775000000 -19.734009 -72.928513 -0.19324119 79.228676 -0.32799003 81.04631 -29.278816 4.1567845
40800000000 -21.394033 -75.403343 -0.26251525 79.87941 -0.44012657 80.961937 -27.74398 -24.913836
40825000000 -20.880087 -82.4198 -0.1174034 79.623634 -0.39237744 81.7481 -25.40889 -21.617609
40850000000 -20.344711 -89.544922 -0.31952894 78.674217 -0.35246879 81.121155 -29.958559 -10.851742
40875000000 -19.043783 -86.668602 -0.28538179 79.104256 -0.3459931 80.643967 -28.509802 -36.008247
40900000000 -18.637468 -76.676285 -0.29479071 78.112877 -0.28251398 80.719048 -26.914997 -12.596352
40925000000 -20.742649 -63.37706 -0.53007245 78.623482 -0.33917251 80.319611 -28.811455 14.186232
40950000000 -23.667416 -68.627296 -0.53278661 78.433411 -0.46660951 80.337708 -30.387541 -45.158726
40975000000 -22.94245 -93.465187 -0.47947034 78.110718 -0.37478173 80.853569 -27.199957 -44.604717
41000000000 -21.219271 -92.464005 -0.61849505 78.181282 -0.26889861 80.266014 -33.938744 -9.9483833
41025000000 -20.770138 -78.882019 -0.71121383 78.284294 -0.37280264 79.584435 -31.803812 -49.181477
41050000000 -21.615076 -66.952995 -0.69335049 78.703926 -0.41481748 79.781075 -28.187082 -50.986004
41075000000 -24.870184 -61.822598 -0.77316701 78.99897 -0.39682919 79.902153 -31.612867 -57.884842
41100000000 -27.161236 -86.634964 -0.8627466 79.743103 -0.4567149 80.100357 -26.415249 -88.553528
41125000000 -25.260273 -96.079781 -0.74957144 79.575195 -0.31985945 80.029793 -27.148575 -64.974762
41150000000 -23.9977 -84.712852 -0.81563491 79.759743 -0.25962234 79.50853 -30.715372 -57.905308
41175000000 -23.070892 -69.565414 -0.92504048 82.101547 -0.40922645 79.552315 -22.937933 -86.36409
41200000000 -25.286961 -51.003155 -0.74099731 82.07299 -0.46741655 80.002831 -21.790001 -74.713783
41225000000 -31.029449 -40.649742 -0.70259577 82.234886 -0.37352753 80.292809 -23.128412 -73.14151
41250000000 -30.628288 -78.22403 -0.65288752 83.980484 -0.31343374 80.810371 -19.857513 -75.51178
41275000000 -24.650721 -67.542526 -0.62155336 84.894867 -0.28916088 81.277191 -17.41876 -57.90078
41300000000 -20.578199 -43.125492 -0.4652518 86.684219 -0.18250698 81.379608 -15.774174 -56.667324
41325000000 -19.602423 -22.291662 -0.015416374 89.854591 -0.34898767 83.678024 -12.725608 -63.751259
41350000000 -17.839724 -2.1954439 -0.16809727 91.487274 -0.43591896 87.129166 -10.391569 -40.738895
41375000000 -14.702826 -4.0518904 0.058678951 96.451447 -0.15113686 91.546799 -7.3062825 -30.586195
41400000000 -8.9135571 7.2411795 0.45620599 116.64253 -0.29049873 109.23914 -0.70305032 -13.409241
41425000000 -4.2976508 35.759853 -2.818414 -176.63446 -3.8493443 144.18204 5.1677938 38.037022
41450000000 -5.8688617 94.489159 11.724548 64.10347 -14.981902 33.470203 5.9417048 -101.52435
41475000000 -4.3442564 62.16111 -7.990643 29.421618 -19.819944 36.233269 -4.1664686 102.85339
41500000000 -6.62433 31.514486 -9.7404032 81.946724 -9.2854795 105.19991 -1.327657 95.746239
41525000000 -10.012642 -12.932117 -3.3915892 95.590622 -3.3806758 101.39031 -4.3384433 68.62632
41550000000 -11.641429 -50.602802 -1.5418521 88.849762 -1.4998031 92.847771 -7.1825566 57.375729
41575000000 -13.184119 -64.881035 -1.0570523 81.49015 -0.95975286 85.289734 -11.514873 56.684944
41600000000 -15.166107 -67.763382 -0.78212631 77.364784 -0.65194798 81.131981 -16.953485 43.007427
41625000000 -17.652489 -72.942162 -0.64385283 75.704849 -0.54105324 78.917168 -18.353617 33.770893
41650000000 -18.642286 -86.439522 -0.68698263 74.523758 -0.57166219 77.900658 -22.059076 28.080273
41675000000 -17.886269 -94.708275 -0.69888443 73.76004 -0.45283642 76.291588 -24.784008 12.190106
41700000000 -16.890665 -88.016129 -0.74331766 73.519867 -0.42329022 74.954727 -24.056177 6.5835323
41725000000 -16.760406 -74.853851 -0.70207548 73.338608 -0.47172147 74.228683 -25.221779 -13.173279
41750000000 -18.21784 -63.667152 -0.64393371 72.801033 -0.49724224 74.250839 -23.329203 -28.367802
41775000000 -20.962019 -68.299408 -0.63769943 72.024147 -0.50838214 74.004745 -23.098684 -22.765795
41800000000 -19.640882 -85.585724 -0.76889509 71.458099 -0.5973863 73.663422 -22.788031 -36.127792
41825000000 -17.200548 -80.991425 -0.69657362 71.446838 -0.45430106 73.127747 -21.215414 -37.558239
41850000000 -16.777693 -66.68586 -0.74076027 70.341194 -0.39099398 71.835472 -20.166901 -22.523073
41875000000 -17.091539 -55.498131 -0.87496942 70.140579 -0.50985432 71.027824 -19.282459 -25.731701
41900000000 -17.668325 -54.370285 -0.92875856 69.243347 -0.6240806 71.090149 -18.215254 -30.345495
41925000000 -18.389753 -58.511627 -1.0478565 68.457916 -0.58076876 70.568962 -17.386297 -21.556713
41950000000 -17.247108 -68.327126 -1.2068483 67.860092 -0.64568698 69.226608 -15.96561 -19.598574
41975000000 -14.731371 -70.24794 -1.323287 66.628571 -0.64430523 67.509567 -13.635703 -10.211768
42000000000 -12.997831 -62.572872 -1.5013812 65.316467 -0.61552632 64.782417 -11.454535 -0.47831088
42025000000 -12.009304 -66.794731 -2.1040175 61.855587 -1.0460459 59.670856 -9.2683573 -6.5555544
42050000000 -9.5837154 -99.742744 -4.6305656 49.976719 -2.9775672 49.337452 -3.7236218 -24.695761
42075000000 -6.1698465 -140.0936 -14.811705 112.55882 -8.8616352 43.564575 0.46565866 -66.873093
42100000000 -4.5238876 167.44812 0.080657206 105.76695 -9.2314301 116.05792 -10.809799 -33.168659
42125000000 -6.9827127 -119.1677 -1.0153103 20.938921 -4.1257281 31.531361 1.7576165 21.548151
42150000000 -8.7701721 -68.353378 0.7836867 58.945415 0.34378958 56.191208 -7.9624834 66.257996
42175000000 -14.02221 -57.822716 0.15383989 68.641243 -0.084798604 64.429886 -16.382532 51.375767
42200000000 -18.789104 -75.543037 -0.074439839 69.651764 -0.29064503 65.883415 -18.339806 50.787918
42225000000 -18.810955 -85.729881 0.17061372 72.379181 -0.24916582 68.473473 -28.437675 14.871306
42250000000 -18.056768 -77.745796 0.3390955 73.3274 -0.36375639 70.535034 -23.003754 -41.013973
42275000000 -18.324381 -68.912239 0.072792433 71.391281 -0.52551419 70.29554 -23.496294 -4.4181275
42300000000 -19.573816 -52.713459 0.036211658 70.139671 -0.49747422 69.806023 -26.76067 -10.213225
42325000000 -24.555105 -35.277767 0.037295263 70.454643 -0.4187763 70.15094 -23.310808 -31.466377
42350000000 -28.663225 -111.78793 0.059028152 70.59066 -0.3617433 70.42675 -21.419022 -25.648951
42375000000 -19.896944 -112.78672 0.1398458 69.237022 -0.29965222 70.154182 -22.701815 -40.21571
42400000000 -18.58215 -87.823372 -0.015451408 68.24762 -0.38565564 69.956284 -23.348694 -32.766541
42425000000 -19.694914 -63.761997 -0.17486338 68.201988 -0.5310052 70.174316 -22.871431 -15.581661
42450000000 -23.48897 -49.954308 -0.24754617 67.822014 -0.49746889 70.050606 -23.490835 -34.742691
42475000000 -32.682354 -105.13978 -0.13677268 67.614426 -0.40014565 69.59201 -21.660467 -38.496555
42500000000 -21.083733 -140.52069 -0.18982616 66.978142 -0.31604666 69.394768 -22.682598 -26.260809
42525000000 -17.457659 -113.70862 -0.42531812 66.521378 -0.28104088 68.59362 -26.054922 -28.609011
42550000000 -17.522707 -81.343491 -0.47287497 66.613602 -0.35466525 68.518791 -23.269526 -27.445332
42575000000 -20.82667 -59.294109 -0.51596612 66.742241 -0.48432446 69.241226 -22.390167 -21.805532
42600000000 -28.254101 -91.067108 -0.59449774 66.737579 -0.43957454 69.259468 -24.24559 -40.992252
42625000000 -22.256762 -142.28572 -0.50474173 66.204468 -0.34580818 67.69957 -22.913195 -38.354691
42650000000 -16.927677 -128.65155 -0.61813396 66.041328 -0.36423472 67.377937 -23.088285 -12.27577
42675000000 -14.700047 -100.87639 -0.86576682 67.154564 -0.27827993 67.312172 -25.10321 -22.658138
42700000000 -15.561708 -69.713463 -0.77113479 67.178772 -0.30449119 66.876053 -21.802034 -39.064125
42725000000 -21.534 -54.477886 -0.78183967 66.526543 -0.48309916 68.020844 -21.025553 -31.226839
42750000000 -23.406883 -126.90026 -0.80824208 67.391724 -0.37552357 68.362686 -25.101858 -35.768551
42775000000 -16.568037 -121.91354 -0.82703841 67.146988 -0.31385362 66.078018 -22.584236 -37.844135
42800000000 -13.428918 -100.83828 -0.91854066 67.920784 -0.31575704 64.503288 -20.8395 -29.674837
42825000000 -12.477136 -77.667595 -0.89477021 69.099197 -0.36449435 64.562431 -22.34506 -46.459297
42850000000 -14.587749 -50.609604 -0.82535505 69.512047 -0.38428706 65.739494 -21.196844 -56.39122
42875000000 -24.233858 -43.407024 -0.70322257 67.723564 -0.47425613 67.362137 -21.961174 -41.204372
42900000000 -19.433683 -127.77599 -0.77434438 68.359489 -0.34089947 67.452637 -24.391476 -41.912579
42925000000 -12.685686 -106.58997 -0.65446204 69.751472 -0.23346969 63.879795 -20.424763 -52.679512
42950000000 -10.644657 -84.692551 -0.6137957 69.281242 -0.41865894 61.05127 -20.811613 -50.043602
42975000000 -10.678355 -59.528145 -0.47078699 70.341942 -0.56563699 61.592175 -24.664303 -67.518623
43000000000 -14.380631 -23.821682 -0.40135509 68.947243 -0.41275638 64.757431 -22.507183 -56.948784
43025000000 -36.382526 64.695938 -0.49714854 67.12397 -0.33104333 66.732925 -21.523951 -37.803143
43050000000 -13.905095 -127.82315 -0.43211675 68.675163 -0.19497085 65.321457 -22.899157 -43.01265
43075000000 -8.4535627 -96.640793 -0.018224586 68.687561 -0.32613617 59.67617 -21.443935 -69.085304
43100000000 -7.4410639 -64.995712 -0.1080085 67.591515 -0.56031269 56.492931 -22.644245 -41.52898
43125000000 -8.6611986 -26.784199 -0.20340955 65.973465 -0.45062658 56.970291 -23.505438 -29.620901
43150000000 -12.487786 29.113272 -0.34384423 65.851372 -0.18049982 60.804974 -21.503553 -48.410091
43175000000 -14.650152 154.71133 -0.17884785 65.91761 -0.035374403 64.020401 -19.915361 -38.867233
43200000000 -6.9302702 -127.81908 -0.13263223 65.612473 -0.25081342 60.226963 -22.724768 -46.609409
43225000000 -3.4612257 -88.023277 -0.035282806 64.340073 -1.2516763 50.699371 -22.120943 -45.743328
43250000000 -1.7451632 -45.236923 -1.0103046 63.965637 -1.8596207 41.927181 -18.996063 -54.247086
43275000000 0.40356341 -0.96304828 -1.0083625 65.037781 -1.8736393 30.84087 -25.59656 -54.311634
43300000000 2.441524 57.755322 -0.68847585 63.244717 -1.1824908 25.847065 -22.468687 -55.964451
43325000000 5.0033579 136.28656 0.73698914 58.908859 -1.6034423 28.851152 -21.228579 -68.258171
43350000000 4.4280515 -140.1088 -0.26641983 64.551743 -5.4174161 37.678505 -22.535606 -38.418816
43375000000 2.9155672 -97.522598 -0.91347891 70.576569 -9.9295826 77.268227 -26.299015 -85.433586
43400000000 -0.1805114 -80.966881 0.5403617 81.478645 -3.1997664 95.106171 -14.567876 31.871067
43425000000 1.0439564 -10.333186 1.2195404 63.005997 -7.0023708 86.610649 -14.815503 -50.696911
43450000000 8.3884535 65.91777 0.43176037 56.350391 -13.925797 -98.026863 -22.108057 -92.654915
43475000000 5.5877948 -159.85725 0.82283896 59.632278 -2.1980488 29.170269 -23.308077 -38.854107
43500000000 0.94097543 -58.339886 -1.0266994 62.768013 -2.6622791 49.617554 -21.475075 -43.629768
