!Keysight Technologies,N5224A,MY55441802,A.10.65.16
!Date: Tuesday, March 03, 2026 16:51:38
!Correction: S11(Full 2 Port(1,2)) 
!S21(Full 2 Port(1,2)) 
!S12(Full 2 Port(1,2)) 
!S22(Full 2 Port(1,2)) 
!S2P File: Measurements: S11, S21, S12, S22:
# Hz S  dB   R 50
25000000000 -15.375613 -68.27536 -0.45699701 -162.98138 -0.44503668 -162.64061 -14.931708 -84.138824
25025000000 -16.078999 -67.435226 -0.46489048 -163.33415 -0.41172409 -162.93851 -15.461736 -86.053146
25050000000 -16.325186 -70.762695 -0.4312247 -163.31136 -0.40075725 -163.11794 -15.060937 -88.028259
25075000000 -15.946853 -74.146385 -0.40979299 -163.5307 -0.39480001 -163.25174 -15.02888 -85.4161
25100000000 -15.582364 -72.572411 -0.44028863 -163.61389 -0.37683398 -163.48196 -15.342017 -87.450974
25125000000 -15.554954 -70.732521 -0.41231689 -163.49306 -0.39873865 -163.5748 -14.816333 -88.332512
25150000000 -15.951698 -71.280373 -0.39602402 -164.17703 -0.42292273 -163.69243 -14.955713 -84.963135
25175000000 -16.133455 -71.787148 -0.45544797 -164.56995 -0.40511146 -163.94101 -15.538338 -85.970169
25200000000 -16.322792 -73.570442 -0.42974636 -164.19778 -0.38960803 -164.06146 -15.022552 -89.51236
25225000000 -15.587271 -77.300644 -0.38276371 -164.24298 -0.38545486 -164.05376 -14.687724 -86.331627
25250000000 -15.375186 -73.208969 -0.42697823 -164.74657 -0.38118309 -164.35828 -15.207822 -85.618134
25275000000 -15.991846 -70.532761 -0.42157167 -164.96854 -0.38222492 -164.6241 -15.107078 -88.243118
25300000000 -16.498098 -75.204872 -0.39276439 -165.23346 -0.39114457 -164.84151 -15.037335 -86.303795
25325000000 -16.186682 -77.391052 -0.41170895 -165.49594 -0.40231737 -165.11848 -15.426445 -86.215233
25350000000 -15.782261 -77.724449 -0.39952159 -165.40111 -0.39458489 -165.19695 -15.006476 -89.09005
25375000000 -15.439883 -75.687744 -0.41199011 -165.38933 -0.40734771 -165.02942 -14.775991 -85.520027
25400000000 -15.921858 -74.671211 -0.42841938 -165.84676 -0.41044295 -165.24879 -15.358439 -83.811562
25425000000 -16.206438 -74.359337 -0.44052124 -166.15883 -0.40142086 -165.63527 -15.360463 -88.549995
25450000000 -16.217243 -77.371674 -0.40197542 -166.17999 -0.39294386 -165.74457 -14.959969 -87.418304
25475000000 -15.952338 -78.717484 -0.41028529 -166.34593 -0.40112522 -165.94878 -15.215137 -85.601181
25500000000 -15.660283 -76.900948 -0.43804917 -166.50415 -0.39964902 -166.13864 -15.178929 -88.196091
25525000000 -15.841011 -75.09832 -0.41707295 -166.75732 -0.40296555 -166.14342 -15.007109 -86.616127
25550000000 -16.178862 -76.374344 -0.44814172 -166.85886 -0.4064503 -166.1976 -15.442719 -84.30899
25575000000 -16.275023 -76.639915 -0.44713503 -166.99304 -0.40027663 -166.53156 -15.515186 -88.785606
25600000000 -15.824691 -80.01886 -0.39772323 -167.1313 -0.38167551 -166.61555 -14.905302 -88.979454
25625000000 -15.547942 -77.157623 -0.42612541 -167.36502 -0.36557701 -166.76263 -15.020131 -85.472969
25650000000 -15.867395 -74.379036 -0.47587514 -167.51425 -0.38152102 -167.0311 -15.440465 -87.696419
25675000000 -16.190086 -76.362457 -0.45358345 -167.69716 -0.39275011 -167.26947 -15.322058 -89.040871
25700000000 -15.873988 -78.019165 -0.44562134 -167.83493 -0.39336291 -167.36163 -15.255315 -87.02021
25725000000 -15.874249 -77.468483 -0.46257576 -167.91103 -0.39460361 -167.58881 -15.358422 -88.486626
25750000000 -15.634891 -77.805183 -0.45334685 -168.00824 -0.40205303 -167.71568 -15.0953 -88.94664
25775000000 -15.764777 -77.043571 -0.449038 -168.39624 -0.38506266 -167.83875 -15.18282 -86.546646
25800000000 -15.822473 -75.773933 -0.49216914 -168.44843 -0.38475412 -168.14673 -15.480328 -88.505363
25825000000 -16.019114 -77.245049 -0.4556368 -168.45267 -0.41255009 -168.32768 -15.270719 -90.052216
25850000000 -15.773097 -79.221268 -0.44704533 -168.70988 -0.41177025 -168.33972 -15.076971 -87.906372
25875000000 -15.576566 -77.752876 -0.48091221 -168.80487 -0.39737317 -168.49362 -15.271764 -88.152214
25900000000 -15.742587 -75.624199 -0.4834381 -168.95509 -0.41200265 -168.73404 -15.278348 -89.891571
25925000000 -16.039473 -77.817078 -0.46152091 -169.18274 -0.4113614 -168.86041 -15.202278 -88.431816
25950000000 -15.831232 -78.216728 -0.46037048 -169.24245 -0.40333283 -169.08354 -15.384248 -89.17765
25975000000 -15.757608 -78.926506 -0.46157834 -169.3264 -0.42402533 -169.2142 -15.148033 -90.572411
26000000000 -15.525372 -78.004959 -0.46298689 -169.46249 -0.43256727 -169.1636 -14.928806 -88.152916
26025000000 -15.824277 -76.684113 -0.47882873 -169.83948 -0.41145235 -169.31828 -15.320925 -87.972855
26050000000 -16.073862 -77.313354 -0.46988004 -169.82997 -0.39951286 -169.59969 -15.322676 -91.352081
26075000000 -15.820045 -80.629723 -0.42389852 -169.92055 -0.40400097 -169.72864 -14.928835 -89.70694
26100000000 -15.664634 -79.755516 -0.44840994 -170.21596 -0.40495756 -169.94452 -15.129756 -88.320518
26125000000 -15.590311 -79.313286 -0.44466662 -170.27634 -0.4001345 -170.12476 -15.166231 -90.418976
26150000000 -15.703579 -78.652405 -0.44500971 -170.51634 -0.41343772 -170.19765 -14.959917 -89.493118
26175000000 -15.815603 -78.928963 -0.4481779 -170.78979 -0.41046792 -170.35585 -15.242713 -88.263016
26200000000 -16.062069 -79.438095 -0.42460981 -170.84221 -0.39472422 -170.6274 -15.25692 -91.09716
26225000000 -15.767478 -83.286438 -0.39061064 -170.87451 -0.38809437 -170.6801 -14.764014 -90.400551
26250000000 -15.455736 -81.866638 -0.41806716 -171.17599 -0.39259744 -170.87212 -15.002512 -87.798286
26275000000 -15.658954 -78.578163 -0.44752252 -171.46434 -0.39747205 -171.13118 -15.309917 -90.116371
26300000000 -16.213423 -80.969292 -0.40782002 -171.77324 -0.40199968 -171.3768 -15.042012 -90.640488
26325000000 -15.895345 -83.475838 -0.42084613 -171.86877 -0.41588661 -171.51503 -15.120259 -87.841118
26350000000 -15.754409 -82.665947 -0.4229565 -172.00366 -0.4106802 -171.73314 -15.235651 -90.054245
26375000000 -15.645543 -82.731003 -0.39939043 -172.01131 -0.40668386 -171.72386 -14.847445 -90.390038
26400000000 -15.797813 -82.504707 -0.42582002 -172.33472 -0.40502906 -171.7894 -14.972338 -87.150879
26425000000 -15.958303 -80.990776 -0.45437062 -172.71379 -0.41778472 -172.10803 -15.332532 -89.580421
26450000000 -16.216784 -83.200279 -0.40279087 -172.82663 -0.40356842 -172.31914 -14.978187 -91.088837
26475000000 -16.001869 -85.707741 -0.41427177 -172.87181 -0.41611186 -172.46152 -14.945789 -87.877014
26500000000 -15.622425 -84.840248 -0.4544366 -173.03119 -0.42402694 -172.67143 -15.265109 -89.111168
26525000000 -15.648543 -82.00209 -0.44745541 -173.18542 -0.42072582 -172.82368 -15.11277 -91.129707
26550000000 -16.034559 -82.250618 -0.44449216 -173.38116 -0.41739208 -172.77544 -15.017644 -88.339752
26575000000 -16.247566 -82.710686 -0.45752621 -173.66121 -0.42598021 -173.01315 -15.302724 -89.340935
26600000000 -16.075073 -85.999481 -0.43618318 -173.7991 -0.41716248 -173.27191 -15.039247 -91.559952
26625000000 -15.623588 -85.650665 -0.4320997 -173.79893 -0.39769098 -173.37076 -14.931486 -89.084885
26650000000 -15.596025 -82.721466 -0.48082501 -173.92343 -0.39439118 -173.52292 -15.37185 -89.465103
26675000000 -15.977714 -82.08326 -0.48727718 -174.26321 -0.40369448 -173.84244 -15.240118 -92.392136
26700000000 -15.957355 -84.587059 -0.45030653 -174.34731 -0.4008663 -173.88388 -15.003315 -89.544762
26725000000 -15.972682 -84.603378 -0.45540997 -174.42902 -0.39604598 -174.05299 -15.298794 -89.290474
26750000000 -15.786934 -85.398567 -0.46644324 -174.60033 -0.41058752 -174.37592 -15.213983 -92.330658
26775000000 -15.602728 -85.507988 -0.45868665 -174.6767 -0.39858565 -174.47278 -15.06255 -90.354462
26800000000 -15.540891 -83.115181 -0.50484049 -174.90683 -0.39832851 -174.61636 -15.411533 -90.261902
26825000000 -16.038805 -82.200127 -0.49197042 -175.09799 -0.40692648 -174.89087 -15.315874 -92.68354
26850000000 -16.132925 -86.616631 -0.45546612 -175.29649 -0.41229555 -175.0199 -15.046525 -90.479095
26875000000 -15.640751 -87.734802 -0.47771937 -175.28143 -0.40577251 -175.19023 -15.336119 -89.997757
26900000000 -15.373168 -84.384857 -0.48172539 -175.33524 -0.41053578 -175.49141 -15.361383 -93.082047
26925000000 -15.712753 -84.353165 -0.47510749 -175.58853 -0.42276222 -175.57216 -15.111581 -91.529114
26950000000 -15.722635 -84.550865 -0.47935051 -175.83176 -0.4205572 -175.62384 -15.300839 -90.03759
26975000000 -15.868009 -84.958328 -0.48628533 -175.95232 -0.42346331 -175.80888 -15.293894 -92.910423
27000000000 -15.790568 -86.505989 -0.46607044 -176.05637 -0.42992705 -175.93945 -15.002896 -91.853981
27025000000 -15.588582 -87.105896 -0.4684656 -176.15614 -0.41812602 -176.0791 -15.196762 -90.464073
27050000000 -15.477808 -85.291267 -0.48967034 -176.34273 -0.42325503 -176.36798 -15.345743 -92.961098
27075000000 -15.661036 -84.797096 -0.47092393 -176.56065 -0.43397227 -176.45753 -15.096631 -91.919411
27100000000 -15.878013 -85.642403 -0.45914686 -176.7883 -0.43367711 -176.51939 -15.160789 -90.839989
27125000000 -15.720646 -87.219566 -0.47829777 -176.95097 -0.42952383 -176.72768 -15.169093 -92.995537
27150000000 -15.575171 -86.976395 -0.47335592 -176.98088 -0.4327285 -176.8289 -15.012611 -91.956551
27175000000 -15.549699 -86.901108 -0.47273412 -177.12965 -0.42217669 -176.91457 -15.182981 -90.889801
27200000000 -15.666316 -85.430054 -0.47337052 -177.40703 -0.41294789 -177.1978 -15.220864 -92.724968
27225000000 -15.810819 -87.386635 -0.46148011 -177.5464 -0.41825852 -177.33322 -15.025179 -92.071098
27250000000 -15.598179 -88.386078 -0.45401773 -177.69547 -0.41175166 -177.42674 -15.108993 -91.580093
27275000000 -15.519987 -87.110237 -0.46539858 -177.83228 -0.39707795 -177.64603 -15.061032 -92.884781
27300000000 -15.785102 -87.468056 -0.46190622 -178.08231 -0.40896091 -177.8624 -15.030866 -91.547028
27325000000 -15.584776 -88.694107 -0.46589249 -178.26158 -0.41243336 -177.97075 -15.332813 -91.40757
27350000000 -15.705919 -87.222946 -0.45081636 -178.44275 -0.39195758 -178.27153 -15.025392 -94.748657
27375000000 -15.821564 -88.202682 -0.44186708 -178.64175 -0.40812653 -178.50584 -14.575452 -91.868317
27400000000 -15.733113 -90.139664 -0.4781478 -178.89706 -0.43431008 -178.59064 -15.291667 -87.998833
27425000000 -15.545912 -88.764236 -0.5160296 -179.09154 -0.44489199 -178.8793 -15.865041 -93.935753
27450000000 -15.697151 -87.76165 -0.49273151 -179.19467 -0.43591169 -179.03427 -15.026558 -96.047195
27475000000 -15.876306 -89.169876 -0.47406626 -179.22292 -0.44729286 -178.9738 -14.814874 -90.38343
27500000000 -15.634198 -90.731827 -0.49464864 -179.22591 -0.44697979 -179.10521 -15.407922 -90.565819
27525000000 -15.568268 -88.668991 -0.48875561 -179.45683 -0.43534446 -179.36972 -15.240507 -93.963043
27550000000 -15.90255 -89.556572 -0.46161443 -179.67105 -0.43490589 -179.37605 -14.949897 -91.566803
27575000000 -15.822626 -89.845406 -0.49229476 -179.88858 -0.4330548 -179.53291 -15.234936 -91.216812
27600000000 -15.818518 -89.282951 -0.48112902 179.98119 -0.4306376 -179.82452 -15.303236 -94.018532
27625000000 -15.77739 -90.374924 -0.45751852 179.86847 -0.43764487 -179.94681 -15.010147 -93.003052
27650000000 -15.67632 -89.924728 -0.47306865 179.65941 -0.43077353 179.9966 -15.149183 -91.60218
27675000000 -15.837741 -89.39222 -0.49269664 179.49715 -0.42497677 179.76222 -15.321565 -93.319267
27700000000 -15.780113 -90.47583 -0.48107001 179.33142 -0.42976245 179.60388 -15.150677 -93.218201
27725000000 -15.834976 -89.325371 -0.45114514 179.14101 -0.4178291 179.49509 -15.183363 -92.297859
27750000000 -15.799034 -91.065926 -0.48169732 179.04056 -0.4235048 179.17854 -15.295251 -93.645531
27775000000 -15.518007 -91.116661 -0.48369214 178.92932 -0.43812463 179.06682 -15.125895 -93.500053
27800000000 -15.585357 -89.539307 -0.47426423 178.65697 -0.41967672 179.03378 -15.148298 -92.19648
27825000000 -15.812069 -88.69487 -0.50702006 178.44644 -0.4046945 178.73291 -15.362479 -93.39164
27850000000 -15.937429 -90.785004 -0.47920951 178.32709 -0.424564 178.53215 -15.262163 -94.247978
27875000000 -15.65181 -92.771126 -0.47030142 178.26439 -0.42588824 178.34222 -15.066418 -93.382019
27900000000 -15.362888 -90.792145 -0.49194086 178.09695 -0.42406839 178.0322 -15.222407 -93.097855
27925000000 -15.763547 -90.558037 -0.49805149 177.90683 -0.43940714 177.94391 -15.305957 -93.725143
27950000000 -15.630582 -92.228439 -0.51138151 177.67303 -0.43836743 177.88538 -15.127949 -93.402756
27975000000 -15.574371 -90.070351 -0.49378714 177.54257 -0.41966149 177.63824 -15.210485 -93.537872
28000000000 -15.834128 -92.178154 -0.48138121 177.43338 -0.44073772 177.49693 -15.245634 -94.591797
28025000000 -15.475368 -93.602798 -0.5005039 177.42545 -0.45048034 177.4315 -15.018081 -93.882988
28050000000 -15.367279 -91.112495 -0.50973624 177.22681 -0.43429071 177.15692 -15.169278 -92.805901
28075000000 -15.719896 -91.225784 -0.5112527 176.88504 -0.45321062 176.99716 -15.434793 -93.999092
28100000000 -15.671589 -92.002357 -0.51323563 176.78235 -0.46426493 177.05835 -15.03441 -94.675674
28125000000 -15.695528 -93.011322 -0.51031101 176.76636 -0.44948307 176.81143 -14.940097 -93.50145
28150000000 -15.528024 -93.512688 -0.49717993 176.6274 -0.45733675 176.60178 -15.295494 -93.30394
28175000000 -15.417603 -92.782867 -0.5037778 176.52747 -0.45674369 176.67209 -15.043165 -94.804237
28200000000 -15.502993 -91.927391 -0.51884407 176.33942 -0.44304815 176.42929 -14.846886 -93.105644
28225000000 -15.697266 -92.0205 -0.50032532 176.06477 -0.4404988 176.17117 -15.347821 -92.339127
28250000000 -15.589703 -94.290024 -0.46176037 175.99875 -0.4223938 176.23616 -15.16181 -97.179344
28275000000 -15.392964 -95.052963 -0.46091542 176.05562 -0.40543666 176.10326 -14.199574 -95.466942
28300000000 -15.623832 -92.474495 -0.47983339 175.73759 -0.40376964 175.64828 -14.65929 -87.502762
28325000000 -15.468886 -95.076889 -0.43450594 175.35889 -0.38386244 175.40593 -16.406904 -91.673149
28350000000 -15.518757 -94.120865 -0.42257518 174.79961 -0.35622811 175.06998 -15.326369 -106.82694
28375000000 -15.705825 -92.25341 -0.50386769 174.59709 -0.42729986 174.69121 -13.47074 -100.10478
28400000000 -15.781016 -96.642975 -0.5357812 174.73296 -0.49944207 174.71231 -14.183098 -85.819939
28425000000 -15.322392 -94.486092 -0.58034796 174.50876 -0.51503384 174.68546 -16.560444 -87.987617
28450000000 -15.483776 -93.266785 -0.569906 174.58684 -0.49146143 174.5405 -15.754827 -102.16606
28475000000 -15.672196 -94.981232 -0.5303486 174.5833 -0.48338026 174.57687 -14.247595 -95.892731
28500000000 -15.556567 -95.80777 -0.51354408 174.37416 -0.47975421 174.54538 -14.934385 -89.653595
28525000000 -15.527938 -94.954674 -0.52390677 174.0959 -0.47334644 174.23862 -15.548809 -95.819801
28550000000 -15.75716 -95.937027 -0.51398551 173.99614 -0.4658052 174.06548 -14.764579 -96.357582
28575000000 -15.499359 -97.196922 -0.50345445 174.06013 -0.4655112 174.01892 -14.937358 -92.468643
28600000000 -15.373535 -94.560425 -0.5086543 173.62398 -0.46919546 173.78185 -15.3689 -95.550606
28625000000 -15.78436 -95.068985 -0.52367908 173.43401 -0.47048682 173.60645 -14.770181 -96.457115
28650000000 -15.688701 -98.512932 -0.48962101 173.59509 -0.46006396 173.60587 -14.793945 -93.007271
28675000000 -15.439477 -95.856766 -0.49874645 173.12849 -0.45248467 173.3557 -15.310259 -95.183151
28700000000 -15.670338 -96.085678 -0.52597147 172.98041 -0.46601179 173.1017 -14.980241 -97.122147
28725000000 -15.509441 -97.057625 -0.51143885 172.99982 -0.46583763 173.11014 -14.852325 -94.47467
28750000000 -15.579471 -95.648987 -0.50082397 172.69754 -0.45927706 172.96895 -15.205044 -95.954613
28775000000 -15.718961 -97.004761 -0.51173013 172.53476 -0.46082807 172.74048 -14.886632 -97.167473
28800000000 -15.546291 -98.091576 -0.50281817 172.44514 -0.45253527 172.72195 -14.874534 -94.761871
28825000000 -15.529315 -96.398949 -0.50270009 172.3121 -0.43309683 172.47154 -15.238161 -96.36692
28850000000 -15.580453 -97.477043 -0.50222558 172.06819 -0.45802101 172.17659 -14.899554 -97.825333
28875000000 -15.497721 -98.142105 -0.49874789 171.89326 -0.45374128 172.17366 -14.803661 -95.133957
28900000000 -15.437492 -97.672432 -0.51934415 171.84277 -0.43455726 172.01666 -15.21595 -96.313957
28925000000 -15.614038 -97.082176 -0.51486546 171.68211 -0.4476817 171.70143 -14.951178 -98.216515
28950000000 -15.604986 -99.894279 -0.50273597 171.49107 -0.44525027 171.67105 -14.811697 -95.611603
28975000000 -15.290232 -98.529243 -0.5108645 171.33244 -0.42257094 171.44374 -15.206892 -96.453644
29000000000 -15.516934 -97.157547 -0.50118762 171.23 -0.44119084 171.1422 -14.960881 -98.866043
29025000000 -15.686797 -100.24283 -0.49144033 171.08791 -0.44578227 171.12485 -14.745831 -96.275978
29050000000 -15.313488 -99.585594 -0.50893867 170.88446 -0.43607023 170.94931 -15.198374 -96.680511
29075000000 -15.568743 -98.320236 -0.52065265 170.78407 -0.43331096 170.70241 -15.01998 -99.417778
29100000000 -15.588666 -100.72005 -0.50062275 170.65952 -0.4520795 170.61595 -14.747031 -96.786652
29125000000 -15.413302 -100.23516 -0.47806147 170.40614 -0.43346947 170.4785 -15.127819 -96.263329
29150000000 -15.501598 -99.434937 -0.48622718 170.22726 -0.43952209 170.13225 -15.067768 -99.291168
29175000000 -15.630056 -100.85484 -0.5079304 170.14494 -0.4662281 170.14186 -14.795544 -97.075584
29200000000 -15.513444 -101.17831 -0.49613342 169.97601 -0.45146859 170.0592 -15.107473 -96.776497
29225000000 -15.489761 -100.61009 -0.50068533 169.61852 -0.44887206 169.8174 -15.091455 -99.293327
29250000000 -15.572659 -100.62352 -0.510351 169.63017 -0.45553529 169.78911 -14.778002 -97.529686
29275000000 -15.604668 -101.9913 -0.47072473 169.59773 -0.43865821 169.6602 -15.13285 -96.61467
29300000000 -15.474513 -101.14838 -0.48829752 169.26804 -0.43867543 169.31831 -15.200306 -99.419823
29325000000 -15.631895 -101.83915 -0.50028604 169.16872 -0.44502053 169.23839 -14.840602 -98.289513
29350000000 -15.53583 -102.31541 -0.4958162 169.04591 -0.43954 169.15591 -15.061657 -96.92868
29375000000 -15.612685 -101.42686 -0.48250619 168.70766 -0.42757612 168.8895 -15.214245 -99.12735
29400000000 -15.721446 -102.89617 -0.48354685 168.65369 -0.43268946 168.71611 -14.95758 -98.467102
29425000000 -15.450055 -103.49139 -0.48262328 168.66971 -0.4403953 168.65904 -15.160806 -97.153046
29450000000 -15.605592 -101.5686 -0.49296564 168.36076 -0.42127937 168.35831 -15.259279 -99.454742
29475000000 -15.738763 -103.52261 -0.49085537 168.22256 -0.43583444 168.16856 -14.972013 -98.482285
29500000000 -15.64297 -103.59608 -0.47574863 167.90425 -0.42564669 168.16914 -15.179746 -96.896927
29525000000 -15.672419 -102.92823 -0.47951603 167.80902 -0.41673374 167.81206 -15.40681 -99.660156
29550000000 -15.728344 -103.69051 -0.48188958 167.70007 -0.44186097 167.60196 -15.080668 -99.583817
29575000000 -15.596428 -104.24566 -0.48452336 167.66301 -0.43945432 167.62869 -15.131573 -97.387466
29600000000 -15.700929 -102.9385 -0.48785001 167.45695 -0.41996738 167.44772 -15.412181 -98.604927
29625000000 -15.841637 -103.10672 -0.4817996 167.11517 -0.43222857 167.10382 -15.230806 -99.458076
29650000000 -15.874486 -105.08573 -0.4661561 167.03448 -0.43527958 167.05191 -15.245378 -98.015327
29675000000 -15.589934 -104.33544 -0.47822854 166.90065 -0.43243593 166.77196 -15.425203 -99.497467
29700000000 -15.744462 -103.77205 -0.48947027 166.68434 -0.45719767 166.54218 -15.177788 -99.656021
29725000000 -15.739848 -104.54954 -0.48565847 166.70749 -0.45698074 166.62566 -15.192323 -97.396828
29750000000 -15.80874 -103.29069 -0.46073535 166.41284 -0.43143532 166.54462 -15.579704 -98.45639
29775000000 -15.846682 -104.15565 -0.48332575 166.1051 -0.43630791 166.17274 -15.316347 -100.88823
29800000000 -15.670516 -105.92377 -0.4808768 166.10681 -0.45854503 166.07874 -15.095779 -98.935196
29825000000 -15.5868 -103.94996 -0.46189919 165.98068 -0.43367165 165.96315 -15.318784 -98.590546
29850000000 -15.749171 -104.5102 -0.48399514 165.70569 -0.44050226 165.72113 -15.326788 -99.84549
29875000000 -15.688328 -104.75214 -0.4782674 165.51855 -0.45279577 165.63263 -15.21357 -98.942368
29900000000 -15.716249 -104.68018 -0.46454746 165.37523 -0.4245882 165.52875 -15.361594 -99.46286
29925000000 -15.708897 -105.77289 -0.49048406 165.1761 -0.43668559 165.20905 -15.246059 -101.04798
29950000000 -15.611279 -106.7305 -0.48279801 165.14529 -0.46259165 165.12772 -15.028438 -99.249573
29975000000 -15.556196 -105.49851 -0.47035345 164.98987 -0.42082909 165.06352 -15.274994 -98.584808
30000000000 -15.642223 -105.22523 -0.47356945 164.60806 -0.43244004 164.72371 -15.396721 -100.82426
30025000000 -15.735804 -106.88954 -0.50049424 164.44907 -0.44813052 164.67636 -15.102576 -100.65951
30050000000 -15.478775 -107.57085 -0.49730781 164.4836 -0.43664438 164.49016 -15.133202 -99.777061
30075000000 -15.629707 -106.38763 -0.50153208 164.28426 -0.44044521 164.29295 -15.220676 -100.4344
30100000000 -15.648833 -108.21932 -0.49029717 164.24533 -0.43736061 164.19025 -15.095251 -99.801445
30125000000 -15.514281 -107.06513 -0.46451208 163.95097 -0.42290318 164.02754 -15.31525 -99.293007
30150000000 -15.681788 -106.56446 -0.48332587 163.75514 -0.41155469 163.76144 -15.375388 -101.85847
30175000000 -15.818066 -109.38357 -0.5089795 163.68758 -0.44232324 163.60513 -15.010493 -101.20464
30200000000 -15.531349 -109.25048 -0.50229818 163.65176 -0.44795728 163.57552 -15.06008 -98.779221
30225000000 -15.676993 -108.43093 -0.48711464 163.43457 -0.41637665 163.34982 -15.451499 -100.16415
30250000000 -15.712314 -108.76073 -0.48062581 163.17032 -0.44117916 163.05829 -15.30604 -101.40841
30275000000 -15.718994 -109.27074 -0.48202351 163.00734 -0.43738708 163.05664 -15.179735 -100.34914
30300000000 -15.728617 -109.41772 -0.49880835 162.9872 -0.42515132 162.77925 -15.355577 -101.04004
30325000000 -15.840424 -110.16004 -0.50399232 162.81105 -0.45224169 162.67036 -15.12207 -100.60148
30350000000 -15.752028 -110.65856 -0.48207507 162.81215 -0.42942095 162.7056 -15.256684 -98.945534
30375000000 -15.775233 -109.21027 -0.44910941 162.39665 -0.41744256 162.37047 -15.732491 -100.74488
30400000000 -15.941996 -109.86356 -0.48401189 162.21539 -0.42617619 162.1678 -15.328115 -103.12167
30425000000 -15.797128 -111.84908 -0.47914299 162.4214 -0.42991683 162.11015 -14.97197 -99.987953
30450000000 -15.845772 -110.09516 -0.46306464 162.11725 -0.42740327 161.95686 -15.434876 -98.901611
30475000000 -16.035795 -111.58827 -0.47337925 161.82236 -0.4170813 161.68033 -15.566865 -101.28416
30500000000 -15.785507 -111.68493 -0.45094025 161.60321 -0.42503804 161.49278 -15.403133 -100.74427
30525000000 -15.827148 -110.23553 -0.442909 161.34204 -0.41893795 161.31302 -15.589245 -101.26508
30550000000 -16.101933 -111.47859 -0.48151752 161.31303 -0.42709818 161.0329 -15.380075 -102.46778
30575000000 -15.936866 -112.74847 -0.46202651 161.37848 -0.44459355 161.10631 -15.161009 -99.695847
30600000000 -15.970882 -111.21159 -0.42776376 161.05922 -0.40413579 161.00728 -15.762077 -99.307533
30625000000 -15.992017 -111.8455 -0.45937678 160.64372 -0.4264147 160.61339 -15.799353 -103.3065
30650000000 -15.93522 -112.39561 -0.46083122 160.43332 -0.44075716 160.49121 -15.306295 -102.41563
30675000000 -15.867162 -112.03705 -0.46480334 160.50237 -0.42672089 160.30865 -15.506999 -100.58454
30700000000 -16.152931 -111.99454 -0.45678473 160.40704 -0.44802487 160.08557 -15.603604 -101.91032
30725000000 -16.084524 -113.76008 -0.45263824 160.08527 -0.42991418 160.08659 -15.463137 -101.11133
30750000000 -15.862455 -113.03821 -0.44720468 159.80766 -0.41244832 159.85808 -15.83011 -101.13807
30775000000 -15.945361 -112.5218 -0.45210057 159.56969 -0.44368091 159.63513 -15.706224 -104.63525
30800000000 -15.904275 -114.29968 -0.4939597 159.48892 -0.44881347 159.56352 -15.179711 -102.46085
30825000000 -15.838178 -112.49409 -0.45310152 159.55809 -0.44529316 159.39679 -15.555904 -99.758873
30850000000 -16.262724 -112.99422 -0.44638482 159.24655 -0.42852682 159.29019 -15.904851 -102.80606
30875000000 -15.960115 -115.97596 -0.50178051 158.93135 -0.43393847 159.08836 -15.537374 -103.52663
30900000000 -15.658811 -113.98941 -0.46598729 158.59363 -0.45154247 158.85823 -15.590227 -102.23855
30925000000 -16.03447 -113.15173 -0.50208217 158.64696 -0.4476032 158.74951 -15.561737 -103.55702
30950000000 -16.082039 -115.9137 -0.50485814 158.81451 -0.43875811 158.62404 -15.252088 -102.01075
30975000000 -15.792941 -114.73817 -0.45333174 158.26384 -0.43007237 158.42311 -15.670759 -100.13651
31000000000 -16.127506 -114.42463 -0.47542393 158.11929 -0.41765216 158.26003 -15.945562 -104.02412
31025000000 -16.009033 -118.32965 -0.55089986 158.06873 -0.43473321 158.21326 -15.295689 -104.14799
31050000000 -15.060013 -118.001 -0.57409704 157.72694 -0.45557329 158.08345 -15.30157 -100.78279
31075000000 -15.375105 -111.50575 -0.44356698 157.82033 -0.46159872 157.93402 -15.666302 -101.88308
31100000000 -16.671169 -114.75426 -0.45685166 157.90515 -0.410335 157.67635 -15.533148 -102.76538
31125000000 -16.45046 -125.49492 -0.58056402 157.79927 -0.40135309 157.42171 -15.700696 -101.10145
31150000000 -15.397452 -124.0026 -0.56152171 156.81163 -0.42628077 157.38454 -15.648549 -102.93355
31175000000 -15.288689 -116.71126 -0.51366627 156.80113 -0.43770429 157.27029 -15.132904 -103.08406
31200000000 -16.158886 -110.80396 -0.49873477 157.46973 -0.49203363 156.94644 -15.322194 -99.401245
31225000000 -17.344246 -115.541 -0.50833535 157.23648 -0.46164355 156.93533 -15.776757 -101.82491
31250000000 -16.144453 -123.72797 -0.54503417 156.49898 -0.416316 156.70085 -15.629445 -103.48717
31275000000 -15.025874 -115.69249 -0.51166475 156.11617 -0.48584852 156.57323 -15.642268 -101.36665
31300000000 -16.22934 -108.86644 -0.50727737 156.73926 -0.47611415 156.58548 -15.39837 -103.53201
31325000000 -17.14674 -121.9802 -0.53949749 156.88297 -0.41997781 156.27364 -15.112844 -102.10629
31350000000 -15.019138 -122.1921 -0.52007174 155.77478 -0.41921994 156.02933 -15.767358 -98.269188
31375000000 -15.582179 -107.99515 -0.43777442 155.81563 -0.44698331 155.65755 -16.263815 -104.48985
31400000000 -18.203993 -121.22743 -0.5031389 156.46159 -0.4266251 155.62038 -15.0943 -105.80632
31425000000 -14.057686 -134.52681 -0.72155088 155.66002 -0.45259345 155.96469 -15.096987 -97.049637
31450000000 -12.18032 -109.68961 -0.40363702 155.36844 -0.48568705 156.73666 -16.318581 -98.968742
31475000000 -17.183384 -85.022392 -0.22989163 156.24449 -0.39471051 156.26146 -16.314482 -105.44025
31500000000 -19.157373 -176.0416 -0.71559 158.17656 -0.29005489 156.10831 -15.720041 -97.946426
31525000000 -11.17016 -157.72076 -0.77328891 154.78955 -0.10529024 155.74045 -15.817381 -97.283333
31550000000 -11.603487 -118.18015 -0.41738647 152.44814 -0.26638547 154.69984 -15.696638 -103.05181
31575000000 -17.154732 -85.600098 -0.13187845 155.37625 -0.38448411 153.70183 -15.011978 -101.03747
31600000000 -21.255627 -141.17628 -0.47627163 156.15045 -0.47436398 153.73892 -15.786041 -100.17961
31625000000 -14.776245 -133.33507 -0.59228778 153.56624 -0.41205665 153.87595 -16.117228 -105.51074
31650000000 -15.023755 -106.90884 -0.33198231 152.8855 -0.47415674 153.10043 -15.3779 -105.52663
31675000000 -18.587776 -111.65468 -0.3318648 154.58034 -0.53808594 153.57553 -15.654241 -101.78907
31700000000 -16.857758 -130.03294 -0.51810169 154.12448 -0.42311603 153.74138 -16.117908 -103.72307
31725000000 -15.657356 -119.72426 -0.42241809 153.01088 -0.43103695 153.1515 -15.749535 -103.66945
31750000000 -16.991171 -117.067 -0.36569184 153.25114 -0.46806067 153.3503 -16.023308 -101.90553
31775000000 -16.623148 -124.84834 -0.47494745 153.30042 -0.40124047 153.21565 -16.12727 -104.84475
31800000000 -15.979044 -120.75517 -0.4719857 152.56369 -0.44329855 152.74493 -15.591976 -104.02757
31825000000 -16.895205 -118.70196 -0.45068547 152.92139 -0.47001106 152.9176 -15.803163 -100.42451
31850000000 -16.954023 -125.6032 -0.42407939 152.98265 -0.40269151 152.8127 -16.418867 -103.16832
31875000000 -15.843199 -123.52851 -0.48509723 151.81673 -0.42725709 152.26163 -15.930301 -105.86275
31900000000 -16.356356 -118.37524 -0.48208404 152.15057 -0.48252746 152.2338 -15.752853 -102.40265
31925000000 -16.949104 -122.98286 -0.43865836 152.3002 -0.42658663 152.29349 -16.041672 -103.32034
31950000000 -16.448015 -124.57166 -0.49974263 151.85541 -0.41227183 151.8432 -15.88283 -103.97395
31975000000 -16.639837 -122.44769 -0.45374921 151.7966 -0.46167061 151.71071 -15.884802 -101.88205
32000000000 -16.733862 -125.4213 -0.44946516 151.55919 -0.41655353 151.81279 -16.165142 -103.63467
32025000000 -16.155598 -125.31224 -0.53725487 151.24101 -0.42371264 151.33977 -15.85129 -105.36983
32050000000 -16.438408 -122.45216 -0.48563334 151.2617 -0.48265895 151.35684 -15.595798 -101.69926
32075000000 -16.799971 -124.47836 -0.47634476 151.23305 -0.41960612 151.40123 -16.06498 -102.06423
32100000000 -16.693581 -125.76934 -0.50148082 150.96713 -0.40203086 150.78496 -16.073946 -104.2944
32125000000 -16.669123 -125.16444 -0.51647013 150.5088 -0.46691284 150.72354 -15.787861 -102.14709
32150000000 -16.593058 -126.82478 -0.5267989 150.7406 -0.4298394 150.80022 -15.938859 -103.07018
32175000000 -16.317707 -126.02036 -0.52656209 150.52051 -0.41488248 150.43716 -15.83687 -104.59726
32200000000 -16.505524 -123.94396 -0.54535103 150.56874 -0.46115685 150.38644 -15.564775 -101.50285
32225000000 -17.056511 -125.49074 -0.48161802 150.57729 -0.43575183 150.32455 -16.122105 -101.49271
32250000000 -16.741901 -128.92177 -0.50339836 149.97882 -0.41215324 149.95715 -16.099859 -104.54591
32275000000 -16.366972 -127.41318 -0.59199429 150.01117 -0.4626137 149.87917 -15.587661 -101.8717
32300000000 -16.505146 -127.229 -0.49145249 150.19867 -0.44121653 150.04926 -15.827208 -101.57048
32325000000 -16.536003 -126.79836 -0.50017864 149.64522 -0.38275886 149.59979 -16.149616 -103.50481
32350000000 -16.769304 -125.45384 -0.52005267 149.82379 -0.43145224 149.15161 -15.826874 -101.46134
32375000000 -17.062593 -127.51396 -0.44547221 149.58853 -0.44110107 149.36493 -16.077267 -100.97675
32400000000 -16.715084 -129.44302 -0.52118784 149.12836 -0.39784002 148.97551 -16.262032 -103.89108
32425000000 -16.651171 -127.97681 -0.52625805 149.24736 -0.44705006 148.78677 -15.649472 -102.52952
32450000000 -16.64987 -128.53441 -0.47749436 149.23474 -0.42188436 149.03815 -15.94514 -100.5499
32475000000 -16.775839 -126.72005 -0.46447 148.92528 -0.37812436 148.41986 -16.526361 -102.13718
32500000000 -17.002619 -125.49084 -0.46817982 148.64664 -0.44352499 148.04932 -15.970924 -102.56916
32525000000 -17.287859 -128.48523 -0.4881084 148.72598 -0.44565594 148.32513 -15.989953 -100.47188
32550000000 -16.971132 -130.45518 -0.45824748 148.45142 -0.41982141 148.06329 -16.500345 -102.40202
32575000000 -16.628466 -128.32391 -0.47034216 148.13628 -0.42670912 147.76675 -16.049772 -103.17586
32600000000 -16.938456 -126.35612 -0.43964124 148.29295 -0.42445511 147.89096 -16.173265 -100.1106
32625000000 -17.306803 -127.29377 -0.39566499 147.95073 -0.38770103 147.61534 -16.777584 -101.1159
32650000000 -17.131351 -127.82042 -0.46576911 147.44807 -0.42506117 146.99139 -16.226751 -103.62099
32675000000 -17.342224 -129.02834 -0.42753226 147.64977 -0.45346898 147.24109 -16.013699 -100.88434
32700000000 -17.077559 -129.90092 -0.41682705 147.3127 -0.39095932 147.192 -16.70579 -101.0517
32725000000 -16.842806 -126.93295 -0.42701909 146.9118 -0.40514678 146.39836 -16.368385 -103.44175
32750000000 -17.394585 -125.80191 -0.37964892 146.90811 -0.44675669 146.62022 -16.200836 -100.561
32775000000 -17.48595 -128.58611 -0.40808016 146.53871 -0.39330673 146.52759 -16.798355 -100.6362
32800000000 -17.293144 -128.66833 -0.46120635 146.30228 -0.44153458 145.89673 -16.405497 -104.33971
32825000000 -17.409254 -129.37312 -0.4450542 146.30963 -0.47297084 146.16562 -15.996805 -101.29028
32850000000 -17.293579 -129.99216 -0.42874792 146.1163 -0.41463825 146.09834 -16.71365 -99.977547
32875000000 -17.060408 -128.46997 -0.4214758 145.77878 -0.41996464 145.55867 -16.533112 -103.7445
32900000000 -17.312927 -127.55116 -0.45300195 145.42287 -0.46864831 145.36539 -16.165514 -101.58195
32925000000 -17.54776 -128.88647 -0.43928468 145.55768 -0.44398361 145.53694 -16.627155 -100.72054
32950000000 -17.461826 -130.43103 -0.45456618 145.14781 -0.43179911 145.16261 -16.446276 -104.47944
32975000000 -17.426289 -130.80586 -0.51433331 145.11099 -0.47491822 144.97151 -16.03208 -101.21715
33000000000 -17.450773 -131.16206 -0.42142373 145.14056 -0.43489474 145.12317 -16.636988 -99.85881
33025000000 -17.066021 -130.88339 -0.47136033 144.35764 -0.41724545 144.60194 -16.621117 -104.98673
33050000000 -17.655638 -129.22726 -0.54872918 144.55479 -0.48526043 144.23018 -15.989112 -102.32315
33075000000 -17.896254 -132.90913 -0.48035282 144.71022 -0.47965163 144.50601 -16.26585 -100.12481
33100000000 -17.414473 -135.44116 -0.5247786 144.16252 -0.43529835 144.20689 -16.555994 -103.14616
33125000000 -17.273798 -133.08192 -0.53451753 144.18021 -0.48854637 143.96899 -16.091703 -101.50205
33150000000 -17.440025 -133.0864 -0.50735092 143.93022 -0.46947894 144.06721 -16.463514 -100.00804
33175000000 -17.256632 -132.85703 -0.53147137 143.64702 -0.43532521 143.64079 -16.59573 -104.28419
33200000000 -17.682938 -131.85715 -0.57616508 143.82068 -0.50936198 143.41168 -15.794134 -101.36405
33225000000 -17.878624 -133.96439 -0.56179059 143.81427 -0.51434845 143.53169 -16.118576 -98.304436
33250000000 -17.501162 -136.96576 -0.52732402 143.4472 -0.45600173 143.34523 -16.686481 -102.10328
33275000000 -17.106468 -135.17963 -0.59774804 143.15552 -0.50129855 143.18123 -16.005453 -101.93694
33300000000 -17.251547 -133.14468 -0.59165895 143.41531 -0.50514424 143.18347 -15.979046 -99.212547
33325000000 -17.637867 -133.80611 -0.54702455 143.16632 -0.45781177 142.87791 -16.357721 -101.41185
33350000000 -17.778194 -136.19867 -0.60269314 143.20049 -0.49320167 142.54558 -15.777931 -100.34381
33375000000 -17.599812 -138.24763 -0.54044062 143.15918 -0.50999266 142.65353 -15.988851 -98.364571
33400000000 -17.043531 -138.93376 -0.55534738 142.56709 -0.46920016 142.5162 -16.55122 -101.3873
33425000000 -16.895563 -135.60448 -0.60939473 142.50281 -0.50045127 142.231 -15.870266 -102.04682
33450000000 -17.14336 -134.5184 -0.5584141 142.91165 -0.52919942 142.49141 -15.679519 -98.37645
33475000000 -17.555868 -135.06279 -0.53027314 142.51544 -0.47220817 142.15446 -16.465084 -99.285942
33500000000 -17.631094 -136.16504 -0.55364251 142.27242 -0.50199389 141.63428 -16.041798 -101.14648
33525000000 -17.54818 -138.34721 -0.54595125 142.24957 -0.53289449 141.90256 -15.824492 -99.505852
33550000000 -16.994427 -138.8096 -0.55632967 141.90436 -0.4808332 141.79521 -16.317524 -101.20385
33575000000 -16.886869 -135.48793 -0.54095376 141.94397 -0.48296934 141.53925 -15.817444 -102.30679
33600000000 -17.287552 -133.57957 -0.53020334 142.15002 -0.51463985 141.58554 -15.703503 -98.44516
33625000000 -17.845425 -136.1264 -0.47039831 141.89433 -0.47779658 141.41492 -16.492256 -99.131233
33650000000 -17.539831 -138.65155 -0.51061332 141.3427 -0.48312768 141.04108 -16.144777 -103.28234
33675000000 -17.230841 -138.63158 -0.54010242 141.34372 -0.50307107 141.08508 -15.683152 -101.33842
33700000000 -17.152937 -137.75876 -0.48601228 141.40599 -0.45872024 141.12889 -16.254822 -101.15009
33725000000 -17.204626 -136.0777 -0.45727083 141.02081 -0.43730247 140.60471 -16.166098 -102.28163
33750000000 -17.514624 -135.04396 -0.45226023 140.82828 -0.49644238 140.34943 -15.990554 -100.7813
33775000000 -17.873171 -138.064 -0.43336725 140.83159 -0.47158459 140.59238 -16.54071 -101.96782
33800000000 -17.55302 -140.45164 -0.48881832 140.14676 -0.44689584 140.14285 -16.194349 -105.17749
33825000000 -17.225628 -140.06145 -0.4875035 140.45964 -0.46448866 140.17142 -15.755588 -102.44928
33850000000 -17.390594 -137.78827 -0.41170806 140.31827 -0.41064036 140.12889 -16.539335 -100.83665
33875000000 -17.641171 -137.41112 -0.41490495 139.60297 -0.39691308 139.46887 -16.526499 -104.81763
33900000000 -17.938536 -139.3324 -0.46205634 139.44131 -0.47213352 139.24387 -16.068281 -103.96112
33925000000 -17.778936 -141.85899 -0.46545991 139.57025 -0.4628267 139.47716 -16.298475 -103.02118
33950000000 -17.537043 -142.13516 -0.46346137 139.19705 -0.40780801 139.26482 -16.365826 -105.56222
33975000000 -17.482817 -140.96692 -0.47925985 139.19136 -0.43324512 138.92435 -16.06991 -103.6844
34000000000 -17.681942 -140.20313 -0.41554502 138.93958 -0.41370299 138.89821 -16.553041 -102.23069
34025000000 -17.84329 -139.79474 -0.42749292 138.57961 -0.38910544 138.44745 -16.642874 -106.19337
34050000000 -18.47892 -141.49121 -0.54075491 138.3325 -0.47415343 138.06609 -16.058611 -104.61906
34075000000 -18.169313 -146.19644 -0.49290732 138.76398 -0.46711019 138.4556 -16.14736 -103.08643
34100000000 -17.577337 -146.33708 -0.4464111 138.23871 -0.38976976 138.21176 -16.706381 -104.71986
34125000000 -17.466745 -142.40263 -0.50476378 137.84904 -0.42390597 137.63681 -16.400702 -104.67081
34150000000 -18.04817 -141.16254 -0.45618802 138.15381 -0.4565722 137.77452 -16.328125 -102.93011
34175000000 -18.329763 -144.07436 -0.47054216 137.7357 -0.41678444 137.58968 -16.625092 -104.98887
34200000000 -18.271093 -146.99057 -0.5467242 137.67101 -0.43553069 137.27933 -16.115431 -104.68472
34225000000 -17.883942 -147.29034 -0.48695606 137.97499 -0.4340682 137.43326 -16.267456 -102.95098
34250000000 -17.77034 -146.50925 -0.44332373 137.15846 -0.37610412 137.08763 -16.982513 -103.69942
34275000000 -17.879951 -144.34642 -0.51470637 137.04918 -0.4194541 136.55542 -16.51903 -104.96611
34300000000 -18.181698 -144.16643 -0.50244766 137.37595 -0.47905242 136.78563 -16.056597 -102.84488
34325000000 -18.482357 -148.18748 -0.47171679 137.03554 -0.41656917 136.70584 -16.699039 -103.30553
34350000000 -18.094738 -150.46738 -0.50827163 136.9576 -0.41363397 136.25298 -16.522663 -103.95683
34375000000 -17.749199 -149.06822 -0.47996181 136.74876 -0.42264378 136.29559 -16.474625 -102.58069
34400000000 -17.723053 -147.77559 -0.45020473 136.4189 -0.39503884 136.03427 -17.02371 -102.96928
34425000000 -17.924664 -146.23509 -0.510782 136.34781 -0.43501946 135.73114 -16.509077 -104.18736
34450000000 -18.098751 -148.56102 -0.47888631 136.4928 -0.44341901 135.87723 -16.203938 -101.79106
34475000000 -18.032063 -150.12958 -0.43037182 136.20036 -0.40727264 135.72292 -17.065266 -101.15679
34500000000 -17.904902 -148.77177 -0.47263226 135.71709 -0.40280142 135.21748 -16.997559 -103.90183
34525000000 -17.994087 -149.1808 -0.45746726 135.74724 -0.4304055 135.22528 -16.525814 -102.20029
34550000000 -17.779942 -149.20154 -0.45225883 135.59164 -0.40446123 135.18735 -17.071733 -101.03312
34575000000 -17.873291 -146.51283 -0.44981378 135.27303 -0.40633735 134.67917 -17.000938 -102.98211
34600000000 -18.200668 -146.82849 -0.45374218 135.49483 -0.44667214 134.84457 -16.538145 -101.38216
34625000000 -18.425274 -149.51909 -0.40770793 135.21573 -0.41617438 134.80911 -17.342098 -99.892555
34650000000 -17.866577 -148.68745 -0.41911605 134.57118 -0.3942914 134.2513 -17.285297 -103.76437
34675000000 -17.79422 -146.18184 -0.45946664 134.89262 -0.41950604 134.35803 -16.522047 -102.39777
34700000000 -18.331087 -146.24492 -0.39408946 134.83072 -0.38648906 134.37155 -17.236897 -98.366684
34725000000 -18.329813 -146.29248 -0.37966299 134.30397 -0.38572392 133.77191 -17.519783 -101.13657
34750000000 -18.281639 -145.89694 -0.42439035 134.1608 -0.4319385 133.6404 -16.818283 -102.03577
34775000000 -18.468124 -147.77905 -0.37144959 134.26129 -0.40739974 133.87195 -17.317604 -99.083389
34800000000 -18.294058 -146.23219 -0.36846021 133.70932 -0.36222595 133.48492 -17.674417 -101.02731
34825000000 -18.21311 -145.28642 -0.39646208 133.48526 -0.38121745 133.02 -16.91168 -101.09389
34850000000 -18.335735 -144.31627 -0.35059994 133.70393 -0.36674204 133.2354 -17.296982 -96.711327
34875000000 -18.56686 -141.26556 -0.321776 132.99162 -0.36177778 132.696 -17.721127 -99.621605
34900000000 -18.942352 -144.05267 -0.40845513 132.62547 -0.42613584 132.45248 -16.928976 -102.57058
34925000000 -18.760223 -147.15184 -0.39157 133.21719 -0.38888317 132.84695 -17.105816 -97.72773
34950000000 -18.595621 -143.33917 -0.30821294 132.50342 -0.30935329 132.31372 -17.678078 -96.351997
34975000000 -18.632774 -142.15439 -0.37676978 132.173 -0.36555505 131.55865 -17.110369 -100.7146
35000000000 -19.020607 -142.04121 -0.35677025 132.38036 -0.4244791 131.85526 -17.022045 -97.880119
35025000000 -19.219936 -143.09419 -0.3493351 131.79474 -0.37736225 131.76271 -17.548536 -98.669273
35050000000 -19.322491 -144.1674 -0.41119927 131.80373 -0.4095802 131.41351 -17.072556 -101.58349
35075000000 -19.436243 -146.81609 -0.36541453 131.87338 -0.38896716 131.62331 -17.078144 -97.084488
35100000000 -18.757946 -145.84612 -0.34294006 131.1848 -0.32445586 130.97395 -17.613174 -97.301247
35125000000 -18.782097 -140.9959 -0.40197954 130.94427 -0.41102326 130.19937 -17.170601 -102.34714
35150000000 -19.960527 -140.58904 -0.38713238 131.11859 -0.47597408 130.67305 -16.785057 -98.639076
35175000000 -20.201933 -147.38387 -0.38828215 131.0463 -0.40930775 130.90271 -17.537985 -96.959702
35200000000 -19.734175 -147.71907 -0.39662284 130.48322 -0.38577187 130.31609 -17.33363 -100.51336
35225000000 -19.728107 -147.1329 -0.41418648 130.67958 -0.40923357 130.16835 -16.973583 -97.608124
35250000000 -19.67931 -146.04176 -0.38738883 130.37198 -0.39071539 129.89951 -17.430141 -96.651604
35275000000 -19.927353 -144.75465 -0.44772235 130.01146 -0.43050852 129.37672 -17.165144 -100.23092
35300000000 -20.373453 -146.08643 -0.42421085 130.53473 -0.49522585 129.72452 -16.724749 -97.778931
35325000000 -20.715479 -149.44339 -0.37498289 130.10236 -0.42545927 129.95953 -17.56653 -95.120926
35350000000 -20.100271 -152.52203 -0.42161307 129.39833 -0.3901484 129.22229 -17.41395 -99.825882
35375000000 -19.638577 -148.23965 -0.44377208 129.78662 -0.47097754 128.97041 -16.777237 -97.914383
35400000000 -20.281677 -146.19443 -0.39210385 129.71196 -0.44856933 129.11087 -17.238903 -95.572884
35425000000 -20.648531 -149.35768 -0.42171097 129.32074 -0.44382197 128.73685 -17.267191 -98.465515
35450000000 -20.459793 -151.53897 -0.41196665 129.31624 -0.4741163 128.8015 -16.933367 -97.393417
35475000000 -20.494207 -152.90001 -0.37571314 129.13583 -0.42781091 128.81775 -17.530539 -95.137177
35500000000 -19.968708 -153.61046 -0.43117791 128.48988 -0.41965076 128.23976 -17.371277 -99.589638
35525000000 -19.823298 -150.78505 -0.42768273 128.79233 -0.47088099 128.01398 -16.684856 -97.308517
35550000000 -20.107597 -149.7921 -0.36036983 128.94339 -0.47894657 128.22932 -17.272408 -93.745331
35575000000 -20.668615 -149.63211 -0.37045649 128.24014 -0.43769258 128.03568 -17.722164 -96.921883
35600000000 -20.631233 -154.02791 -0.39743018 127.88997 -0.46969238 127.592 -17.098129 -98.741188
35625000000 -20.046331 -154.65874 -0.41265059 128.10062 -0.46574867 127.77715 -17.226044 -95.371498
35650000000 -20.058538 -151.27733 -0.37024537 127.82233 -0.42291719 127.34347 -17.370071 -96.073936
35675000000 -20.219044 -151.80029 -0.37195379 127.59329 -0.48450243 127.04917 -17.005766 -96.391846
35700000000 -20.224661 -150.92427 -0.32742673 127.44166 -0.48195371 127.34785 -17.491688 -93.756172
35725000000 -20.590763 -150.82141 -0.36787042 126.97478 -0.43940723 127.09854 -17.703348 -97.457092
35750000000 -20.22146 -154.53929 -0.41536859 126.81248 -0.47458625 126.66834 -16.966524 -98.504333
35775000000 -19.888676 -151.90753 -0.33725849 126.98038 -0.45193577 126.80749 -17.146362 -92.741768
35800000000 -19.997826 -149.03102 -0.32123253 126.47878 -0.41983634 126.47553 -17.707981 -94.239166
35825000000 -20.157589 -148.68204 -0.38336456 125.92649 -0.46468312 126.04343 -17.315693 -98.638405
35850000000 -20.459236 -149.1169 -0.35303566 126.04735 -0.498254 126.11748 -17.150106 -95.801353
35875000000 -20.714544 -150.35989 -0.37771645 125.84624 -0.44158009 126.22191 -17.524788 -95.222672
35900000000 -20.444132 -151.09335 -0.38410181 125.49623 -0.4345451 125.62909 -17.190792 -97.304138
35925000000 -20.338985 -149.8925 -0.3596454 125.51134 -0.45874685 125.64954 -17.177256 -93.915802
35950000000 -20.431129 -145.98917 -0.32702902 125.01105 -0.38957617 125.33571 -17.510778 -94.466568
35975000000 -21.10866 -148.81149 -0.42838797 124.51189 -0.46580675 124.83932 -17.432812 -99.058563
36000000000 -20.901299 -150.83009 -0.45332348 124.95221 -0.51474082 125.07281 -16.978951 -95.81118
36025000000 -20.885397 -146.21407 -0.34902909 124.6106 -0.41724882 125.18433 -17.312803 -92.809998
36050000000 -21.374069 -147.46539 -0.42799252 124.19405 -0.40339574 124.51952 -17.392797 -96.421844
36075000000 -21.255396 -149.6488 -0.42791331 124.09972 -0.46376798 124.20219 -17.156292 -95.773949
36100000000 -21.31003 -146.17079 -0.41854462 123.89838 -0.44841319 124.133 -17.324345 -95.210236
36125000000 -22.041929 -148.425 -0.51255143 123.69419 -0.47840229 123.72773 -17.2899 -97.243629
36150000000 -22.083382 -149.38625 -0.48208544 123.90496 -0.51307273 123.87742 -16.881927 -94.747208
36175000000 -22.177118 -148.04025 -0.42315662 123.5742 -0.441861 123.92772 -17.286362 -92.187096
36200000000 -22.416761 -149.6832 -0.50021982 123.04639 -0.40920845 123.28765 -17.607874 -97.072258
36225000000 -22.819275 -151.755 -0.53581244 123.06542 -0.50847888 122.76637 -17.050116 -96.50248
36250000000 -22.721395 -150.04596 -0.53313446 123.40623 -0.54384458 123.07609 -16.909437 -93.01902
36275000000 -23.210985 -148.72905 -0.50253636 122.98087 -0.49643177 122.85116 -17.289164 -94.055191
36300000000 -23.950233 -152.42183 -0.5518378 122.85999 -0.53149521 122.7019 -17.02972 -94.282814
36325000000 -23.447912 -154.77979 -0.53325665 122.73534 -0.50113559 122.69098 -17.087772 -92.704643
36350000000 -23.664057 -153.0947 -0.56439346 122.47419 -0.49035707 122.27382 -17.323168 -94.778511
36375000000 -24.176916 -155.64569 -0.61848122 122.68886 -0.56307483 121.79382 -16.65012 -94.658691
36400000000 -23.612661 -156.09735 -0.54755324 122.7925 -0.61489207 122.27961 -16.550352 -91.922951
36425000000 -23.757462 -155.31085 -0.51751804 122.32847 -0.54687989 122.26667 -17.194954 -92.016785
36450000000 -23.945877 -157.82863 -0.60038215 121.99906 -0.55195236 121.83688 -17.025539 -95.366562
36475000000 -23.802919 -159.31799 -0.59232384 122.15945 -0.57869339 121.84661 -16.542685 -93.929489
36500000000 -23.706005 -163.16977 -0.59352916 122.20467 -0.56386948 121.67344 -16.751141 -93.039223
36525000000 -23.022274 -163.6377 -0.58596158 121.97066 -0.58655262 121.44471 -16.624548 -94.403603
36550000000 -22.80438 -160.84702 -0.52650249 121.92845 -0.62802023 121.65896 -16.640543 -92.853615
36575000000 -23.028891 -160.78625 -0.55667239 121.39848 -0.56638658 121.69549 -17.194029 -93.410095
36600000000 -23.07456 -164.70161 -0.61148888 121.35078 -0.55729157 121.22645 -16.855518 -97.569962
36625000000 -22.599617 -167.4489 -0.60651106 121.79499 -0.60243255 121.16186 -16.189085 -94.984215
36650000000 -21.963413 -166.96628 -0.51142383 121.43511 -0.56544352 121.24539 -16.86595 -92.263573
36675000000 -21.980585 -164.59636 -0.53173625 120.84087 -0.58031219 120.901 -17.185492 -95.88517
36700000000 -22.06933 -165.04256 -0.54793322 120.82314 -0.60225111 120.99865 -16.688133 -95.956383
36725000000 -22.186901 -165.93146 -0.51644468 120.4847 -0.54461038 120.99475 -16.986269 -94.504829
36750000000 -21.985241 -170.04077 -0.58697331 120.40607 -0.53574163 120.46081 -17.038572 -97.29213
36775000000 -21.342808 -169.28857 -0.54618925 120.48766 -0.56865764 120.42464 -16.516787 -95.415192
36800000000 -21.318438 -166.71251 -0.45032671 120.05716 -0.54384404 120.41006 -17.208935 -91.761444
36825000000 -21.56403 -165.32742 -0.55693483 119.39729 -0.55462384 120.12807 -17.643059 -96.853989
36850000000 -21.841192 -165.30804 -0.60073733 119.65842 -0.58121514 120.1109 -16.640017 -98.226151
36875000000 -21.941141 -168.66115 -0.56526017 119.64042 -0.53843194 119.9817 -16.761742 -93.604652
36900000000 -21.24795 -170.35565 -0.53085124 119.26499 -0.51180208 119.4434 -17.390999 -94.143654
36925000000 -21.236223 -165.46678 -0.52272296 118.82296 -0.57975262 119.3587 -17.125385 -94.926575
36950000000 -21.588469 -163.03104 -0.5625096 118.63398 -0.55852091 119.43501 -17.0998 -92.922424
36975000000 -21.778008 -162.99913 -0.59018672 118.32816 -0.53517532 119.09555 -17.329485 -95.748535
37000000000 -22.020206 -161.47304 -0.65368623 118.62031 -0.57813686 118.96942 -16.604374 -95.190735
37025000000 -22.303385 -162.7702 -0.57974553 118.49179 -0.53027809 118.82886 -16.836258 -89.726151
37050000000 -22.040096 -162.32097 -0.56030113 117.81395 -0.52511346 118.27187 -17.610584 -91.888916
37075000000 -21.894461 -158.67047 -0.68309808 117.65065 -0.62214029 118.19879 -16.878922 -94.855247
37100000000 -21.924875 -152.71188 -0.67942107 117.90084 -0.61843044 118.48464 -16.379482 -91.805481
37125000000 -22.962553 -152.4818 -0.67861366 117.86311 -0.57839555 118.19879 -16.888054 -91.476456
37150000000 -23.055647 -154.95872 -0.6967808 117.84566 -0.58983916 117.80063 -16.56781 -93.155891
37175000000 -23.045813 -154.56213 -0.6583944 117.74936 -0.61757904 117.72435 -16.374443 -89.931938
37200000000 -22.785608 -155.5168 -0.71757495 117.40856 -0.61055958 117.46304 -16.956196 -91.557999
37225000000 -22.281963 -152.06142 -0.75006944 117.6143 -0.67205685 117.41862 -16.220274 -95.416862
37250000000 -22.458757 -148.32907 -0.72584808 118.03143 -0.70263511 117.87497 -15.749742 -92.394928
37275000000 -23.061291 -151.38971 -0.6874277 117.70538 -0.5945977 117.63978 -16.577291 -90.526016
37300000000 -22.862772 -152.72322 -0.69687206 117.3315 -0.60845375 116.9965 -16.464178 -94.983521
37325000000 -22.703812 -151.78044 -0.7481665 117.73991 -0.69612509 117.095 -15.778783 -93.494331
37350000000 -22.658955 -153.37494 -0.6901024 117.74065 -0.65423691 117.17527 -16.255445 -93.212662
37375000000 -22.458199 -153.72099 -0.70746398 117.53668 -0.67708856 117.07537 -16.104527 -96.742538
37400000000 -22.554203 -153.57771 -0.68568635 117.98215 -0.65781319 117.36256 -15.811172 -95.289551
37425000000 -23.074997 -158.10573 -0.56836253 117.45261 -0.57393372 117.14358 -16.583628 -93.067848
37450000000 -22.80282 -163.25114 -0.66318738 117.02229 -0.5723483 116.53823 -16.640865 -98.107315
37475000000 -22.317564 -161.00594 -0.64652538 117.58339 -0.65520859 116.61952 -15.764442 -97.685265
37500000000 -22.893364 -164.49863 -0.55383807 117.40858 -0.61965644 116.85457 -16.409286 -95.19017
37525000000 -22.450649 -169.24011 -0.5802989 116.77411 -0.54891115 116.4807 -16.785606 -97.779953
37550000000 -22.407438 -165.77867 -0.537202 116.89407 -0.5828371 116.31229 -16.369381 -97.963501
37575000000 -23.513813 -169.5442 -0.51521158 116.56293 -0.54090607 116.2063 -16.839792 -95.672928
37600000000 -23.263502 179.57721 -0.56291074 116.24351 -0.50855023 115.7048 -16.943176 -99.221489
37625000000 -22.034739 179.38905 -0.51588815 116.36816 -0.56886244 115.7076 -16.289326 -99.154449
37650000000 -21.820915 -178.88322 -0.49202502 116.1152 -0.53541595 115.88892 -16.871613 -94.612511
37675000000 -21.860792 -177.24547 -0.47127736 115.56022 -0.50589627 115.52621 -17.456388 -97.995956
37700000000 -22.10211 -177.15579 -0.53188819 115.40155 -0.53587955 115.344 -16.754284 -99.829636
37725000000 -22.466503 179.5648 -0.49506319 115.42467 -0.5112493 115.22584 -16.877352 -96.26609
37750000000 -21.846937 172.67383 -0.4954738 115.18143 -0.48884866 114.891 -17.338366 -98.194069
37775000000 -20.790573 176.64922 -0.49266836 114.8506 -0.50962192 114.83839 -16.843065 -99.115372
37800000000 -21.282133 -177.22441 -0.45190558 114.6883 -0.50565118 115.00999 -17.11244 -95.227829
37825000000 -22.064083 179.42279 -0.44905439 114.33966 -0.46432567 114.65479 -17.778875 -98.344849
37850000000 -21.549591 175.69368 -0.55289131 114.16556 -0.48759076 114.33026 -16.954195 -101.13444
37875000000 -21.458742 175.78896 -0.46554881 114.42211 -0.48716107 114.29362 -16.896353 -96.471878
37900000000 -21.068127 172.25291 -0.45410222 113.78445 -0.45801604 114.03188 -17.726688 -96.179146
37925000000 -20.141603 176.46255 -0.48523134 113.50674 -0.46524721 114.01765 -17.314779 -100.16739
37950000000 -20.460522 -175.89763 -0.48141888 113.42647 -0.4562268 114.18719 -17.024002 -96.878532
37975000000 -21.690742 -176.44981 -0.46573013 113.16188 -0.39710179 113.81803 -17.770844 -97.089745
38000000000 -21.753448 176.38843 -0.50987595 113.15684 -0.43861425 113.32187 -17.377913 -100.744
38025000000 -20.989559 175.46532 -0.50106162 113.13476 -0.45058066 113.29675 -16.915331 -96.219147
38050000000 -20.858463 178.49182 -0.43658578 112.69489 -0.41382834 113.13063 -17.881458 -94.437256
38075000000 -20.944071 -179.37978 -0.49546561 112.31374 -0.43065241 113.02991 -17.671236 -100.58193
38100000000 -20.997183 -176.79872 -0.57293785 112.58703 -0.40949592 113.12642 -16.902779 -98.245689
38125000000 -22.135023 -177.58406 -0.44805953 112.66818 -0.34464642 112.63248 -17.82513 -93.444473
38150000000 -22.32164 176.74095 -0.49142128 111.90864 -0.3895157 111.97161 -17.850935 -98.331596
38175000000 -21.525223 176.6469 -0.52641457 112.37357 -0.45020545 112.16088 -16.983252 -96.254837
38200000000 -21.460182 -179.40407 -0.42379263 111.98527 -0.38731885 112.16164 -17.846279 -92.260521
38225000000 -22.003578 -175.71893 -0.49775606 111.39275 -0.36178792 111.79974 -18.031244 -98.576157
38250000000 -22.974087 -176.50038 -0.53581804 112.1116 -0.39705178 111.76017 -17.085346 -97.142471
38275000000 -23.348364 176.93629 -0.42408484 111.85762 -0.33568484 111.37952 -17.718349 -89.499786
38300000000 -23.004929 177.71764 -0.43757528 110.99442 -0.37094632 110.56235 -18.367556 -95.008759
38325000000 -23.204491 -179.36525 -0.50446463 111.40811 -0.47877431 110.95421 -17.148781 -96.770287
38350000000 -23.718342 178.29753 -0.43994454 111.30506 -0.38612521 111.15253 -17.684761 -91.079231
38375000000 -24.200907 179.09999 -0.44709659 110.79791 -0.33961806 110.42332 -18.357821 -94.076256
38400000000 -25.379807 177.32887 -0.44732821 111.40921 -0.38537493 110.21435 -17.283895 -95.225784
38425000000 -25.626274 165.82129 -0.35692897 110.95681 -0.3786447 110.11768 -17.528019 -87.550278
38450000000 -24.394281 164.59872 -0.38887987 110.17741 -0.39524239 109.53183 -18.592972 -91.60582
38475000000 -24.340485 172.52388 -0.43509611 110.30774 -0.47678974 109.73942 -17.45709 -97.203438
38500000000 -25.544624 168.90385 -0.39233786 110.45868 -0.41485786 110.07844 -17.546711 -89.813614
38525000000 -26.124842 162.60434 -0.34876117 109.88476 -0.33548477 109.28489 -18.473497 -88.970695
38550000000 -26.575415 160.83011 -0.3791576 109.64143 -0.40758157 108.68549 -17.69429 -94.483788
38575000000 -26.514149 147.88882 -0.34145916 109.88811 -0.44290686 108.88696 -17.582329 -88.752251
38600000000 -24.505928 145.90114 -0.33966225 108.85632 -0.39478764 108.69994 -18.789154 -89.299866
38625000000 -24.630795 158.84927 -0.43967736 108.99736 -0.45400572 108.64594 -17.813818 -96.337753
38650000000 -26.517143 151.72375 -0.32169214 109.36278 -0.41901073 108.90648 -17.52985 -88.730835
38675000000 -25.968657 138.0376 -0.30102965 108.21503 -0.34346265 108.21458 -18.579414 -85.087563
38700000000 -24.987291 137.70818 -0.38948491 108.12371 -0.40850246 107.58975 -18.437471 -93.83548
38725000000 -24.370779 137.65244 -0.35743946 108.01524 -0.44676125 107.78306 -17.658384 -90.03466
38750000000 -23.502562 140.36845 -0.38969737 107.68006 -0.40506437 107.75539 -18.545351 -87.431274
38775000000 -23.667871 147.57021 -0.39230555 107.5597 -0.41134933 107.63511 -18.255697 -93.462196
38800000000 -25.121716 145.11092 -0.37935591 107.33891 -0.41837469 107.50932 -17.621061 -87.45636
38825000000 -24.811699 132.81482 -0.34960932 107.18885 -0.38803124 107.15301 -18.817039 -84.680321
38850000000 -23.453281 131.53833 -0.42105049 106.36249 -0.40267009 106.77831 -18.573637 -93.442314
38875000000 -22.871737 136.11581 -0.51187462 106.80849 -0.44468868 106.82597 -17.215755 -90.145805
38900000000 -22.248138 138.95042 -0.37825832 106.75834 -0.38432452 106.7775 -18.477053 -84.205231
38925000000 -23.040701 147.08168 -0.41928351 105.81106 -0.38396928 106.58217 -18.563208 -91.150826
38950000000 -24.555441 140.94043 -0.50107723 106.25583 -0.43601668 106.49398 -17.533251 -89.128632
38975000000 -22.998146 129.51282 -0.42321435 105.80612 -0.38777936 106.12983 -18.527403 -84.660873
39000000000 -21.569189 138.34969 -0.52910233 105.57645 -0.39054 106.04634 -18.256884 -93.118828
39025000000 -21.94565 145.04059 -0.53399485 106.21182 -0.3926827 106.23826 -17.089127 -90.563751
39050000000 -22.298061 145.63527 -0.41919932 105.38682 -0.33263001 105.82291 -18.214006 -81.491226
39075000000 -22.661024 149.72884 -0.51329082 104.99495 -0.33607969 105.53396 -18.79689 -91.694489
39100000000 -23.878052 148.86684 -0.58146608 105.64258 -0.39830169 105.55231 -17.215012 -90.946548
39125000000 -23.65077 134.22429 -0.4950386 105.37534 -0.39634827 105.24285 -17.850195 -83.129242
39150000000 -21.56826 135.83849 -0.5513494 104.95929 -0.36101183 104.82378 -18.412325 -89.675659
39175000000 -21.193827 148.57747 -0.53954083 105.37962 -0.35943618 105.13504 -17.119204 -89.26033
39200000000 -23.011955 152.48682 -0.4808948 104.81222 -0.3015689 104.85368 -17.951092 -79.844505
39225000000 -24.350861 148.67107 -0.51515251 104.34303 -0.30705658 104.15156 -18.893187 -88.158539
39250000000 -24.298994 144.97864 -0.62550741 105.37954 -0.41712537 104.53621 -16.74645 -90.759369
39275000000 -23.896343 134.78214 -0.51341468 105.45059 -0.3921935 104.34187 -17.400677 -79.174332
39300000000 -22.520983 140.42271 -0.451419 103.99884 -0.36364964 103.62247 -18.541111 -81.574493
39325000000 -22.594894 155.13963 -0.58341968 104.61794 -0.35983235 104.07331 -17.435198 -88.771042
39350000000 -25.770308 156.99953 -0.48289213 104.94931 -0.31064689 103.99678 -17.615183 -78.777084
39375000000 -27.945496 144.18916 -0.45681107 104.04087 -0.31090173 103.09235 -18.280651 -80.436745
39400000000 -26.133307 128.92632 -0.51823914 104.91334 -0.40146068 103.13335 -16.999378 -85.566582
39425000000 -24.19969 131.37961 -0.37474245 104.67075 -0.38435686 103.19768 -17.155321 -75.738838
39450000000 -24.349131 146.5341 -0.40844935 103.13259 -0.3660292 102.54284 -18.371967 -77.225372
39475000000 -26.549276 155.036 -0.46900725 104.08125 -0.37367404 102.71906 -17.531715 -86.007622
39500000000 -29.881124 138.22624 -0.37168235 104.1042 -0.35494667 102.84769 -16.995426 -75.814682
39525000000 -29.071671 114.97283 -0.40556747 103.57358 -0.36157298 101.93182 -17.80855 -73.65815
39550000000 -26.2791 119.30413 -0.32233897 103.18008 -0.44170535 101.70581 -17.325001 -82.755676
39575000000 -25.67692 128.76437 -0.34058031 102.90554 -0.44848421 102.08829 -17.14794 -76.023369
39600000000 -26.868093 140.37871 -0.3666012 102.47496 -0.39418668 101.71902 -18.322536 -74.668541
39625000000 -30.743685 145.75026 -0.35463527 102.47294 -0.40567729 101.5095 -17.413538 -83.401352
39650000000 -32.124725 93.530548 -0.31199715 103.12689 -0.43032461 101.66747 -16.497669 -74.643593
39675000000 -26.434113 93.672691 -0.25150251 101.96465 -0.42593414 101.13611 -17.569342 -70.317039
39700000000 -25.692696 114.43741 -0.35990858 100.81635 -0.48130411 100.77331 -18.158083 -81.768097
39725000000 -26.838915 122.66441 -0.3978717 101.56288 -0.46710715 101.21703 -17.101103 -79.454437
39750000000 -28.756102 121.0159 -0.28357074 101.10106 -0.4092097 100.93105 -17.434633 -71.91378
39775000000 -30.531889 109.48803 -0.4073891 100.74016 -0.43583837 100.39244 -17.651079 -79.412437
39800000000 -28.19927 89.91024 -0.30723619 100.9883 -0.46102092 100.24807 -16.822742 -76.973755
39825000000 -25.279917 97.714035 -0.34392151 99.770508 -0.48516008 100.04736 -17.745375 -72.388794
39850000000 -24.537066 115.2479 -0.50623894 99.907326 -0.47419539 100.01248 -17.931158 -82.63649
39875000000 -26.099541 126.72598 -0.43331939 100.18504 -0.46356881 100.21548 -16.658798 -80.206841
39900000000 -28.816856 118.64227 -0.38095731 99.879753 -0.43183818 100.06832 -16.950911 -71.366241
39925000000 -27.842175 104.5298 -0.43745974 99.173203 -0.45518297 99.394478 -17.793459 -78.846832
39950000000 -26.067152 105.00709 -0.52701706 99.064308 -0.53884518 99.310936 -16.849388 -81.237259
39975000000 -24.088037 113.10582 -0.5316993 99.560959 -0.50475281 99.404106 -17.052629 -77.669006
40000000000 -23.790707 127.76875 -0.48654425 99.003502 -0.45622852 99.272293 -17.333647 -81.134209
40025000000 -25.338539 137.36511 -0.60793936 99.300438 -0.45484191 99.498726 -16.54311 -82.169624
40050000000 -26.879873 126.73098 -0.4815903 99.454109 -0.42547351 99.122604 -16.843573 -74.883652
40075000000 -25.699463 121.60861 -0.54186529 98.281326 -0.48141447 98.718903 -17.532114 -81.972504
40100000000 -24.006645 122.87908 -0.70264876 99.583382 -0.50417131 99.084435 -16.33045 -87.143517
40125000000 -22.783464 128.93025 -0.52257782 99.482941 -0.42375979 98.855354 -16.558184 -79.067253
40150000000 -22.886663 142.89009 -0.55105478 98.67485 -0.35540405 98.392914 -17.237717 -80.172539
40175000000 -25.242023 150.81857 -0.58040142 99.554016 -0.38605925 98.419159 -16.754942 -82.355217
40200000000 -27.115387 133.4424 -0.48380139 99.191048 -0.41348401 98.568817 -16.558352 -77.740532
40225000000 -24.492886 121.87317 -0.58418363 98.861649 -0.41694099 98.048447 -17.311533 -80.898331
40250000000 -22.279377 131.56844 -0.52783531 99.684731 -0.3940779 98.307228 -16.506445 -84.909607
40275000000 -23.148806 143.36702 -0.44809511 99.467628 -0.27934757 98.230911 -16.448233 -75.488197
40300000000 -24.68379 149.82401 -0.43135461 98.721375 -0.23473105 97.16774 -17.261795 -73.385048
40325000000 -26.029209 151.29404 -0.4519771 99.048546 -0.34363842 97.042068 -16.789305 -81.253334
40350000000 -27.581312 134.3194 -0.42916062 99.671021 -0.33928466 97.704056 -16.242632 -76.694313
40375000000 -25.760389 123.63657 -0.37389573 99.244095 -0.32115775 96.937027 -16.670307 -71.819252
40400000000 -23.808096 136.46931 -0.31769639 98.943169 -0.34770679 96.778671 -16.663195 -76.829239
40425000000 -25.408882 154.24715 -0.26725426 99.353958 -0.22587745 96.695 -16.24946 -70.119118
40450000000 -28.351259 175.86926 -0.19417512 98.290565 -0.18880518 95.900055 -16.459629 -69.209808
40475000000 -35.65189 161.70355 -0.24252166 98.807487 -0.28107291 95.705002 -16.296442 -76.31115
40500000000 -31.560863 97.4935 -0.083386078 99.508423 -0.32340634 96.402763 -15.459144 -70.904015
40525000000 -28.294107 113.95473 -0.042193528 97.97422 -0.33698931 95.925125 -16.12656 -65.672348
40550000000 -27.617565 140.57431 -0.11505304 97.158333 -0.34896457 95.091011 -16.837547 -74.09079
40575000000 -31.148422 166.44899 0.023387065 97.65947 -0.28893113 95.546761 -15.902966 -72.363792
40600000000 -38.427368 -132.99678 0.043360125 97.228577 -0.18460014 95.180214 -15.762526 -66.791809
40625000000 -44.957985 9.5403576 0.08611466 96.591568 -0.26243094 94.287918 -16.220833 -74.888077
40650000000 -32.938251 63.511894 0.14778741 95.789673 -0.35832962 94.707207 -16.02874 -73.941528
40675000000 -30.818092 81.958412 0.036834605 95.65406 -0.35578391 94.758789 -16.550673 -67.06852
40700000000 -32.666512 121.41682 0.052139513 94.239952 -0.39185271 94.193527 -17.515629 -75.501862
40725000000 -46.78458 -124.71657 0.050022557 94.539665 -0.34276727 94.244469 -16.186056 -74.581787
40750000000 -30.224316 -14.19712 0.18820123 94.795837 -0.23065101 94.506935 -15.939225 -66.18512
40775000000 -28.071524 33.574379 -0.0031648481 92.530334 -0.33298683 93.610413 -18.26627 -74.964157
40800000000 -27.246853 60.884758 -0.12327483 92.829277 -0.44642648 93.464561 -17.509096 -75.734482
40825000000 -29.524435 70.103195 0.024106998 93.017517 -0.40286306 94.191734 -16.987104 -66.739471
40850000000 -34.472824 69.759018 -0.10645089 91.698997 -0.3578907 93.665398 -18.004957 -73.363556
40875000000 -35.48373 24.911713 -0.10820793 92.021873 -0.35564378 93.149193 -17.027681 -76.758606
40900000000 -28.698006 10.822696 -0.060842812 91.110443 -0.28334022 93.206612 -17.178253 -69.707024
40925000000 -24.537794 38.487106 -0.33031809 91.148041 -0.33131573 92.810951 -19.216805 -71.260757
40950000000 -23.772814 65.221481 -0.34883165 90.880562 -0.46128392 92.775024 -17.660118 -78.52729
40975000000 -27.494314 92.208481 -0.27521199 90.529129 -0.38454229 93.218048 -16.523853 -72.242325
41000000000 -33.809399 82.944603 -0.40706715 90.332161 -0.26214701 92.736221 -18.097574 -78.191803
41025000000 -28.985188 40.052643 -0.51732743 90.321083 -0.37494424 91.994926 -17.617067 -81.693619
41050000000 -25.128016 45.456146 -0.53149235 90.671837 -0.42287579 92.078278 -16.812416 -76.230362
41075000000 -23.352314 64.656181 -0.63370264 90.755951 -0.40021968 92.189384 -17.570959 -79.210762
41100000000 -24.058207 86.513374 -0.76397741 91.18261 -0.47047344 92.428413 -16.070717 -84.181068
41125000000 -25.767904 97.814476 -0.66032362 91.206772 -0.33361599 92.377777 -16.06949 -79.246605
41150000000 -27.783642 79.880699 -0.71215254 91.284409 -0.25657284 91.754585 -17.45422 -81.269875
41175000000 -26.084631 55.389011 -0.89128327 93.428787 -0.4236314 91.749626 -15.246262 -83.870659
41200000000 -22.523014 66.422722 -0.74900311 93.702301 -0.49749604 92.144577 -14.599489 -78.987305
41225000000 -21.06319 83.522087 -0.72675246 93.702454 -0.40007856 92.340065 -15.285935 -79.634659
41250000000 -22.242706 93.976982 -0.69116777 95.366913 -0.34177738 92.788567 -14.012089 -80.209335
41275000000 -24.814692 81.496864 -0.6531744 96.234421 -0.32515112 93.107552 -13.211681 -69.398972
41300000000 -22.463213 46.059208 -0.53624189 97.864136 -0.22044568 92.986526 -12.454381 -66.263412
41325000000 -19.04878 51.449867 -0.1834873 101.45238 -0.433936 95.0998 -9.8691778 -68.189812
41350000000 -16.141609 59.012939 -0.32023668 102.50304 -0.53072113 97.97924 -8.9856329 -50.304222
41375000000 -14.775941 49.303612 -0.10920466 106.23189 -0.2037098 101.09068 -7.0361214 -40.067905
41400000000 -9.7310123 43.581711 0.36318606 125.34628 -0.19560018 116.38673 -0.75501287 -20.87339
41425000000 -4.8194904 60.972813 -2.3342948 -176.94846 -3.1104724 146.26823 4.9751477 30.664858
41450000000 -4.8067484 117.5617 10.578466 83.193893 -13.490384 41.532372 6.5626082 -94.532951
41475000000 -3.8904307 89.354538 -7.8207345 55.592319 -17.87991 63.350067 -4.3597155 102.16964
41500000000 -6.1445026 62.095615 -8.3766155 100.39693 -7.7336369 117.23947 -2.0966406 91.232948
41525000000 -11.137817 29.669741 -2.2878127 107.44397 -2.5773959 109.7773 -6.1894464 53.869648
41550000000 -14.847774 -4.3038692 -0.72176522 100.35366 -1.0967785 102.61243 -9.4229584 34.306126
41575000000 -17.413639 -14.927016 -0.48703176 93.201118 -0.744932 96.187866 -15.180154 23.833912
41600000000 -19.664047 -8.6055202 -0.35794476 89.331535 -0.54447103 92.555214 -18.425219 -20.886368
41625000000 -22.573433 4.7998619 -0.28634095 87.747879 -0.46046951 90.665199 -18.271511 -31.600286
41650000000 -27.195942 7.100986 -0.3411642 86.608139 -0.51341683 89.897041 -18.794216 -46.788719
41675000000 -30.812037 -29.517885 -0.38286382 85.726379 -0.40345931 88.433571 -17.820911 -62.085388
41700000000 -25.286175 -34.800323 -0.45549798 85.503372 -0.37075046 87.191681 -17.85091 -61.657799
41725000000 -21.9233 -14.454035 -0.45164144 85.558899 -0.43039367 86.586411 -17.283649 -67.255302
41750000000 -21.308281 8.5285406 -0.42315915 85.223801 -0.47356251 86.698944 -16.130419 -66.355057
41775000000 -23.428797 28.777271 -0.41864577 84.420441 -0.48927513 86.497803 -16.496265 -64.924385
41800000000 -27.731682 11.306938 -0.51315355 83.706741 -0.58261102 86.17244 -16.00141 -68.516983
41825000000 -24.424816 -21.432232 -0.45983151 83.907364 -0.44498032 85.821289 -15.071481 -67.949417
41850000000 -20.561106 -8.9100122 -0.49192905 82.868919 -0.35478261 84.682228 -15.775903 -62.237942
41875000000 -18.865358 6.0818758 -0.63355404 82.630409 -0.46733865 83.937538 -15.532264 -60.35688
41900000000 -19.08132 13.623526 -0.66540122 81.808746 -0.58265126 84.074951 -14.555037 -59.148659
41925000000 -20.454613 15.699091 -0.79152828 80.900322 -0.5399242 83.847427 -14.765434 -55.116207
41950000000 -21.354624 0.53722817 -0.96898264 80.379463 -0.60066986 82.876976 -14.296679 -53.158928
41975000000 -18.938028 -18.390747 -1.0795959 79.573547 -0.55744928 81.618401 -13.69721 -42.853508
42000000000 -15.767076 -14.408303 -1.2073988 79.358917 -0.41135561 79.779724 -13.572431 -26.45504
42025000000 -14.474462 -12.792197 -1.6599815 77.52906 -0.55601591 76.259056 -11.963556 -26.745108
42050000000 -13.493865 -52.183071 -3.2370465 68.025246 -1.7358742 66.323044 -6.1223302 -27.447731
42075000000 -8.8398027 -115.21042 -11.895001 93.062126 -5.893445 56.292686 -0.61957687 -58.525352
42100000000 -5.9506183 171.38901 -0.18605931 106.54684 -7.0168767 114.99671 -11.629795 -30.811424
42125000000 -8.2053881 -74.024796 0.74543011 41.268291 -1.2599729 49.816174 0.28104049 38.449017
42150000000 -10.70347 -15.66082 0.99409908 79.555428 0.68511516 76.412285 -20.572165 103.16077
42175000000 -14.812901 4.2640643 0.10815556 84.280724 -0.01403117 80.186516 -20.982307 -56.284779
42200000000 -20.708151 18.163883 -0.12288146 83.281517 -0.24966365 79.87059 -22.137136 -50.73753
42225000000 -24.459921 12.652608 0.067516901 85.582726 -0.25570968 81.830666 -17.16781 -76.472244
42250000000 -22.691822 2.7948937 0.19025815 86.785179 -0.44735339 83.473083 -14.195609 -69.680801
42275000000 -20.785955 6.5811663 -0.012669252 84.705132 -0.6011498 83.008804 -16.32416 -62.993496
42300000000 -19.114759 20.757414 -0.046066903 83.436226 -0.55680025 82.491951 -16.785009 -72.264656
42325000000 -18.864101 45.983891 -0.075832658 83.677551 -0.49459606 82.86937 -15.321149 -69.104546
42350000000 -22.54451 75.000145 -0.046302877 83.788948 -0.44926387 83.153496 -15.255 -62.077438
42375000000 -40.326855 66.568336 0.14435782 83.04026 -0.37887841 82.94059 -14.685871 -68.126793
42400000000 -25.574768 -10.203776 0.096002363 81.947403 -0.45129511 82.712883 -14.81518 -70.234398
42425000000 -20.615412 18.00013 -0.1019409 81.714844 -0.59423852 82.920639 -16.312555 -63.986019
42450000000 -19.764315 44.269749 -0.18148403 81.132507 -0.55597812 82.690674 -15.743037 -69.855881
42475000000 -21.153597 76.877167 -0.040005933 80.891754 -0.43555847 82.26561 -14.556543 -67.437843
42500000000 -26.466051 129.34415 0.027517268 80.070892 -0.33338565 82.220329 -15.18141 -64.141731
42525000000 -31.011112 -100.65018 -0.17183509 79.115051 -0.28604373 81.387413 -16.000273 -75.083
42550000000 -22.416361 -16.834473 -0.26971352 79.203636 -0.38470712 81.126534 -15.827873 -71.569725
42575000000 -19.778181 23.889608 -0.3485845 79.31057 -0.52414519 81.75605 -16.158907 -64.076515
42600000000 -21.895689 64.776604 -0.43245959 78.977661 -0.48472756 81.87011 -15.697961 -71.487625
42625000000 -25.481138 118.17356 -0.32175836 78.236549 -0.35293731 80.260376 -14.999411 -72.292542
42650000000 -27.602346 -145.59727 -0.38140285 77.858948 -0.36631113 79.830734 -16.561966 -66.120186
42675000000 -21.283993 -68.732666 -0.66957891 78.955956 -0.29117832 79.880577 -16.876295 -72.036583
42700000000 -18.015877 -18.25469 -0.64413762 79.289337 -0.34055367 79.460075 -15.404855 -70.239594
42725000000 -19.065857 26.509443 -0.65938777 78.345474 -0.5382579 80.435509 -15.375788 -62.359314
42750000000 -26.348312 89.179001 -0.70806605 78.89946 -0.43248025 80.924004 -16.107132 -71.985603
42775000000 -26.743876 -124.1265 -0.68406135 78.687813 -0.31908014 78.519333 -15.582054 -71.77449
42800000000 -18.229416 -71.508698 -0.7605049 79.540535 -0.30117121 76.941521 -15.633085 -63.779961
42825000000 -14.924949 -40.151798 -0.80114055 81.03183 -0.36702114 77.152565 -15.430686 -70.193817
42850000000 -14.635674 -4.4133458 -0.85295063 81.479729 -0.43217364 78.367348 -14.461034 -71.648666
42875000000 -18.391096 38.389465 -0.70641929 79.450981 -0.5552808 79.826416 -15.116149 -66.473557
42900000000 -34.155937 148.83134 -0.7389459 79.854294 -0.42017752 80.040375 -15.860431 -71.963051
42925000000 -17.156956 -83.436737 -0.59216434 81.53389 -0.24138042 76.423859 -14.290074 -70.484642
42950000000 -12.316615 -54.817574 -0.54075754 81.285812 -0.35714504 73.436546 -14.530306 -68.879631
42975000000 -10.779333 -25.013166 -0.50878859 82.924622 -0.48152912 74.003098 -15.15344 -78.530609
43000000000 -12.138083 14.896154 -0.53019285 81.614342 -0.45169833 77.422729 -14.606129 -74.47419
43025000000 -17.707039 67.409485 -0.56992418 78.976669 -0.44775221 79.41053 -14.829858 -65.084068
43050000000 -20.425663 -124.03379 -0.40852147 80.525658 -0.28461173 78.057053 -15.285936 -69.034065
43075000000 -9.9310284 -74.958397 0.059626117 81.289787 -0.2584058 72.068237 -13.956964 -78.791954
43100000000 -7.0006905 -40.692097 -0.056446865 80.307709 -0.38933849 68.254158 -15.259206 -70.895821
43125000000 -6.7100539 -1.3624463 -0.26067308 78.706932 -0.26671752 68.958588 -16.039228 -67.419258
43150000000 -8.7663488 47.66362 -0.52883273 78.264 -0.13257322 73.741539 -14.423469 -70.401215
43175000000 -14.111725 131.39859 -0.22837031 77.679459 -0.12076035 77.271103 -14.11436 -62.934818
43200000000 -8.7624235 -115.4921 0.053111106 77.882362 -0.22700214 72.977013 -14.95154 -71.709618
43225000000 -3.2741716 -73.285645 0.091780663 76.876755 -1.0990307 61.277172 -15.270396 -71.60202
43250000000 -0.6562196 -34.011192 -1.377309 76.455933 -1.6959854 51.770298 -12.647129 -67.756874
43275000000 2.0058625 8.5902481 -1.9130175 78.491821 -1.1596006 40.662006 -14.383358 -87.518478
43300000000 4.0742416 65.231583 -1.8212167 72.968666 -0.010306066 36.116589 -14.64102 -90.269531
43325000000 6.2833648 143.15532 0.93578601 63.60038 -0.56557029 36.541512 -13.81343 -88.764915
43350000000 4.7424107 -134.71677 0.14816889 74.861771 -5.3027878 44.440651 -16.117205 -65.736023
43375000000 2.5452108 -94.356636 -1.1726463 85.479218 -10.17359 84.926872 -14.11015 -91.362709
43400000000 -1.8967943 -72.733589 -0.53365409 97.368774 -3.6276932 104.48484 -44.67289 12.783824
43425000000 0.63649434 -1.8385721 0.35832042 81.62455 -7.079566 91.809082 -13.332075 -41.724106
43450000000 8.2420225 62.459499 -1.5098147 66.955765 -14.800321 -105.00681 -17.69437 -84.820107
43475000000 6.443728 -152.65582 1.8757375 67.178024 -1.4295545 36.576679 -17.037258 -85.687981
43500000000 1.4465103 -43.468975 -0.99948472 77.826614 -2.3374612 59.235615 -14.858308 -67.279587
