!Keysight Technologies,N5224A,MY55441802,A.10.65.16
!Date: Tuesday, March 03, 2026 17:07:29
!Correction: S11(Full 2 Port(1,2)) 
!S21(Full 2 Port(1,2)) 
!S12(Full 2 Port(1,2)) 
!S22(Full 2 Port(1,2)) 
!S2P File: Measurements: S11, S21, S12, S22:
# Hz S  dB   R 50
25000000000 -21.034256 -84.856468 -0.39167285 -170.10486 -0.39402443 -170.16048 -20.439081 -90.662422
25025000000 -21.219614 -83.64859 -0.40001911 -170.28697 -0.36960897 -170.37781 -21.256187 -95.338066
25050000000 -21.815237 -84.101547 -0.38219357 -170.3141 -0.37306958 -170.53355 -20.399498 -97.541389
25075000000 -21.694822 -93.142471 -0.36789697 -170.67572 -0.36682981 -170.79129 -20.586145 -92.20118
25100000000 -20.442312 -90.580986 -0.38629609 -170.75397 -0.35076123 -170.97946 -20.973783 -96.944855
25125000000 -20.643982 -82.95639 -0.36474434 -170.63522 -0.37397909 -171.01939 -19.987726 -97.3405
25150000000 -21.839998 -87.557121 -0.35152414 -171.3085 -0.38798386 -171.24411 -20.524263 -90.909935
25175000000 -21.423901 -89.50779 -0.40048936 -171.61444 -0.36552376 -171.47087 -21.399212 -94.313126
25200000000 -21.678791 -87.867027 -0.38188487 -171.28767 -0.3604219 -171.52376 -20.318991 -99.254074
25225000000 -21.083073 -95.757294 -0.34251809 -171.52797 -0.35616344 -171.67818 -20.068281 -93.26796
25250000000 -20.285963 -89.625954 -0.37538978 -171.94472 -0.34979787 -171.94862 -20.863607 -93.348717
25275000000 -21.373375 -82.630196 -0.37123343 -172.0816 -0.35464162 -172.12611 -20.48037 -96.588905
25300000000 -22.525255 -93.332314 -0.35879803 -172.36914 -0.36144122 -172.40375 -20.664536 -92.465263
25325000000 -21.324896 -96.57608 -0.36847585 -172.65903 -0.36282066 -172.7114 -21.246557 -94.107368
25350000000 -20.830141 -92.324188 -0.35738364 -172.59326 -0.36109185 -172.72287 -20.211077 -98.151947
25375000000 -20.944225 -91.721878 -0.37061006 -172.62346 -0.37071756 -172.66524 -20.1042 -91.007446
25400000000 -21.130739 -92.268364 -0.38473916 -173.08391 -0.37566897 -172.95744 -21.22757 -89.855965
25425000000 -21.39566 -87.151085 -0.39303851 -173.32639 -0.37203622 -173.26221 -20.859007 -97.894524
25450000000 -22.250914 -92.716927 -0.37098825 -173.3858 -0.37014055 -173.37813 -20.363712 -93.855965
25475000000 -21.328447 -99.153397 -0.37721768 -173.61336 -0.37239394 -173.64813 -20.91905 -91.800148
25500000000 -20.471672 -91.292015 -0.39026377 -173.75931 -0.37159419 -173.8235 -20.560764 -96.867363
25525000000 -21.504187 -87.901932 -0.37417898 -173.93364 -0.37465885 -173.75978 -20.424509 -92.436455
25550000000 -21.826933 -94.058365 -0.4091278 -174.07198 -0.38242516 -173.90079 -21.326675 -90.071884
25575000000 -21.433083 -91.019478 -0.40689924 -174.21793 -0.38296062 -174.19849 -21.069607 -98.455597
25600000000 -21.506807 -94.081169 -0.36818776 -174.40219 -0.3671023 -174.2953 -20.188242 -95.961273
25625000000 -21.063869 -94.571152 -0.39425462 -174.62148 -0.35607305 -174.49852 -20.659969 -91.049019
25650000000 -20.941076 -89.026314 -0.42615592 -174.76672 -0.37104464 -174.75893 -21.062529 -96.789192
25675000000 -21.720419 -88.697906 -0.40711895 -174.94246 -0.37640458 -174.88936 -20.796824 -96.588364
25700000000 -21.580851 -93.92321 -0.39950523 -175.07303 -0.3679972 -174.99368 -20.940228 -93.526329
25725000000 -21.102354 -92.747612 -0.41486081 -175.15254 -0.37429097 -175.19966 -20.832527 -97.936562
25750000000 -20.950384 -91.208717 -0.40011904 -175.28262 -0.37519613 -175.34317 -20.331799 -96.444908
25775000000 -21.271383 -92.046112 -0.39949819 -175.62788 -0.35861349 -175.50465 -20.872766 -92.742882
25800000000 -20.943295 -89.373528 -0.43236843 -175.68655 -0.36502635 -175.80461 -21.167625 -98.300201
25825000000 -21.529861 -88.567596 -0.40248951 -175.82095 -0.38340202 -175.97316 -20.515778 -98.696625
25850000000 -21.527084 -95.237045 -0.39426047 -176.08327 -0.37128657 -176.06795 -20.587172 -94.556961
25875000000 -20.611353 -93.443642 -0.41725492 -176.14128 -0.36159247 -176.21904 -20.82863 -97.215508
25900000000 -20.944296 -87.354736 -0.42065793 -176.269 -0.37800542 -176.42155 -20.602436 -98.482208
25925000000 -21.69861 -92.583664 -0.40750268 -176.53123 -0.37409604 -176.62389 -20.81122 -95.20636
25950000000 -20.900009 -93.01815 -0.40343627 -176.59988 -0.36964333 -176.82915 -21.000986 -98.613319
25975000000 -20.997589 -89.990311 -0.41269061 -176.7477 -0.39233977 -176.95917 -20.296265 -99.908913
26000000000 -21.302124 -91.909271 -0.41077417 -176.95293 -0.39433745 -177.06918 -20.309385 -94.558304
26025000000 -21.076544 -92.893379 -0.4146921 -177.24699 -0.37501752 -177.23816 -20.960209 -96.546967
26050000000 -21.077164 -89.34008 -0.41348442 -177.22171 -0.37685123 -177.39177 -20.600548 -101.06493
26075000000 -21.42095 -93.146538 -0.38491443 -177.3866 -0.38427353 -177.56676 -20.239077 -96.40493
26100000000 -20.986555 -95.346344 -0.39481306 -177.66997 -0.37506616 -177.77078 -20.620583 -96.373558
26125000000 -20.521542 -91.686584 -0.39282408 -177.70044 -0.37211862 -177.877 -20.319754 -99.526077
26150000000 -21.221033 -90.041786 -0.40049246 -177.95473 -0.39109126 -178.02386 -20.257048 -96.105598
26175000000 -21.236155 -93.76429 -0.39917818 -178.26372 -0.38194552 -178.26353 -20.837957 -96.395744
26200000000 -21.047749 -91.418388 -0.37940702 -178.29001 -0.36674902 -178.42625 -20.448732 -100.85735
26225000000 -21.310398 -94.734978 -0.36387697 -178.39404 -0.37133873 -178.51373 -19.902462 -97.412163
26250000000 -20.861992 -96.829254 -0.37999514 -178.70421 -0.370175 -178.76393 -20.463522 -94.882622
26275000000 -20.635029 -90.598541 -0.38964123 -178.88612 -0.36238241 -178.95247 -20.625389 -99.545647
26300000000 -21.742712 -91.80085 -0.37050483 -179.13463 -0.37222514 -179.13144 -20.29237 -98.258705
26325000000 -21.341366 -97.727715 -0.3842833 -179.34828 -0.38243377 -179.4102 -20.612591 -95.354256
26350000000 -20.749861 -94.517685 -0.3796095 -179.51277 -0.37331697 -179.59959 -20.451317 -99.767723
26375000000 -21.159912 -93.043671 -0.36249691 -179.51767 -0.37385944 -179.59889 -20.01605 -98.089745
26400000000 -21.386913 -97.076271 -0.38645235 -179.86047 -0.37494367 -179.79399 -20.521328 -94.315399
26425000000 -20.896494 -93.209068 -0.39722085 179.85382 -0.37505302 179.9254 -20.714233 -99.39682
26450000000 -21.714598 -92.499947 -0.36609873 179.79019 -0.37181804 179.81793 -20.168369 -98.819855
26475000000 -21.770962 -100.80349 -0.38337708 179.59698 -0.38881376 179.57593 -20.428244 -94.619461
26500000000 -20.491106 -98.060249 -0.40690428 179.35889 -0.39324892 179.28775 -20.623127 -98.682762
26525000000 -20.886908 -90.128372 -0.39702192 179.30762 -0.39021847 179.25356 -20.423689 -99.120041
26550000000 -21.960802 -94.375648 -0.40140119 179.13148 -0.39440411 179.18967 -20.659967 -95.779236
26575000000 -21.419888 -95.628021 -0.40798065 178.82074 -0.39281175 178.90526 -20.762926 -99.012421
26600000000 -21.386604 -94.901009 -0.38967285 178.70393 -0.38655823 178.76744 -20.238472 -99.625572
26625000000 -21.406919 -98.153854 -0.39417183 178.68536 -0.38182038 178.68672 -20.479294 -95.927345
26650000000 -20.687754 -95.619576 -0.42797005 178.44717 -0.38156787 178.39807 -20.885124 -99.165443
26675000000 -21.028347 -90.431725 -0.42862886 178.19492 -0.38806444 178.16457 -20.437798 -101.09166
26700000000 -21.792448 -95.196022 -0.40862271 178.14355 -0.38589692 178.16911 -20.488493 -95.827583
26725000000 -21.294659 -97.813713 -0.41713008 177.97809 -0.38328317 177.93275 -20.87932 -98.751213
26750000000 -20.867937 -94.690292 -0.41232947 177.77725 -0.38731703 177.63223 -20.39603 -101.4922
26775000000 -21.28186 -96.066147 -0.40554664 177.72939 -0.37857437 177.61223 -20.574411 -96.998207
26800000000 -20.731689 -95.550575 -0.44114065 177.51918 -0.38004848 177.42366 -21.075037 -99.800217
26825000000 -21.086269 -90.384232 -0.42843682 177.29449 -0.38191628 177.15219 -20.516159 -101.86476
26850000000 -21.89884 -96.93856 -0.40429044 177.12514 -0.38335764 177.02484 -20.466999 -97.290909
26875000000 -20.741543 -100.89034 -0.42550966 177.04404 -0.38224152 176.80222 -20.927511 -99.666924
26900000000 -20.252583 -92.325142 -0.41583481 176.88385 -0.38090673 176.50233 -20.51927 -102.74321
26925000000 -21.425421 -93.430634 -0.40501776 176.68837 -0.38423067 176.40192 -20.528522 -98.675919
26950000000 -20.964714 -97.249153 -0.41505864 176.50911 -0.38674238 176.3365 -20.928633 -99.094521
26975000000 -20.778484 -93.695564 -0.42298198 176.31541 -0.39209586 176.12741 -20.396351 -102.70879
27000000000 -21.440924 -96.265854 -0.40627462 176.17336 -0.39415082 175.97041 -20.286106 -98.804604
27025000000 -20.745899 -100.92165 -0.41041896 176.03381 -0.38812998 175.78093 -20.825579 -99.268364
27050000000 -20.081636 -94.162659 -0.42752796 175.77689 -0.40020639 175.53604 -20.476826 -103.67509
27075000000 -21.113983 -91.359039 -0.41715813 175.59663 -0.40206292 175.4117 -20.303251 -99.077568
27100000000 -21.507574 -97.976852 -0.40722257 175.41188 -0.40128592 175.29962 -20.773975 -99.165565
27125000000 -20.489576 -97.750038 -0.42169729 175.23573 -0.402491 175.12677 -20.26783 -104.15844
27150000000 -20.87837 -94.49054 -0.42642519 175.16656 -0.4055796 175.01917 -20.11116 -99.037666
27175000000 -21.075937 -98.736618 -0.41875485 175.00008 -0.39817473 174.8358 -20.936628 -98.691132
27200000000 -20.420881 -95.103111 -0.42191097 174.72202 -0.39362258 174.60649 -20.556843 -104.89385
27225000000 -21.110327 -94.102768 -0.42323688 174.58333 -0.40037036 174.48248 -19.914709 -100.36407
27250000000 -21.233849 -99.179802 -0.42134941 174.39037 -0.40105015 174.29787 -20.708656 -97.145256
27275000000 -20.346874 -96.688408 -0.43088618 174.18697 -0.39121863 174.06523 -20.910814 -104.89673
27300000000 -21.017891 -94.710289 -0.42584777 174.05731 -0.39843872 173.94595 -19.909773 -103.76607
27325000000 -21.052275 -97.761047 -0.44854087 173.98221 -0.41968679 173.89458 -20.1394 -94.380905
27350000000 -20.417923 -95.939194 -0.46863481 173.90024 -0.42880049 173.74387 -21.651413 -95.81678
27375000000 -21.244925 -95.847237 -0.42875257 173.79575 -0.41486657 173.62157 -21.280834 -108.29351
27400000000 -21.109352 -100.27978 -0.40288731 173.65515 -0.37928838 173.59047 -19.392139 -106.34257
27425000000 -20.52844 -101.12432 -0.37414268 173.62099 -0.32907009 173.39445 -18.860519 -97.17234
27450000000 -20.886044 -92.730659 -0.36982799 173.2206 -0.34121212 172.99719 -20.439482 -92.452263
27475000000 -21.497948 -96.91864 -0.39550114 172.8615 -0.37934262 172.74318 -21.419222 -102.39254
27500000000 -20.870228 -100.28234 -0.39320016 172.71268 -0.37244108 172.47385 -19.966021 -107.00564
27525000000 -20.77389 -93.618568 -0.39418671 172.58815 -0.36986089 172.30869 -19.791767 -99.570396
27550000000 -21.698921 -98.088257 -0.40020168 172.41997 -0.39922968 172.2682 -20.977243 -98.268257
27575000000 -20.835684 -99.814873 -0.42152742 172.05772 -0.39888638 171.96506 -20.514307 -105.06766
27600000000 -20.74416 -93.832909 -0.40588069 171.89487 -0.38574606 171.73099 -20.026279 -102.36384
27625000000 -21.512177 -96.820045 -0.39686298 171.90283 -0.40073532 171.72012 -20.650785 -99.976776
27650000000 -20.936131 -99.053246 -0.41036725 171.62114 -0.40303573 171.59236 -20.548285 -103.89237
27675000000 -20.843863 -95.133324 -0.41757905 171.42496 -0.38931015 171.35107 -20.194775 -102.43824
27700000000 -21.26689 -96.673332 -0.41012859 171.38367 -0.39517269 171.28461 -20.711336 -100.37914
27725000000 -21.105635 -96.79776 -0.39735073 171.11395 -0.3955074 171.12721 -20.649708 -103.63038
27750000000 -20.845964 -96.957413 -0.42147356 170.86589 -0.39566627 170.76869 -20.168007 -103.36065
27775000000 -21.004301 -97.110153 -0.41791907 170.8533 -0.40577877 170.69702 -20.540495 -100.81607
27800000000 -20.989101 -97.981766 -0.41052026 170.62892 -0.39848313 170.63098 -20.614063 -102.95051
27825000000 -20.681257 -95.909065 -0.43587902 170.32018 -0.38848212 170.29703 -20.295418 -103.37965
27850000000 -21.1917 -95.712708 -0.41428986 170.2355 -0.39204723 170.17654 -20.584688 -101.80479
27875000000 -21.034588 -100.20987 -0.41272709 170.19104 -0.39545962 170.03746 -20.46246 -103.90886
27900000000 -20.379715 -97.049957 -0.42790851 169.91422 -0.39519161 169.69031 -20.157923 -103.18871
27925000000 -21.287237 -96.382744 -0.42867368 169.7587 -0.40172064 169.56131 -20.640142 -101.50517
27950000000 -20.897671 -101.59478 -0.43544957 169.60449 -0.39967167 169.5002 -20.579021 -103.95036
27975000000 -20.268269 -96.235718 -0.43136403 169.32191 -0.3896679 169.16832 -20.074957 -103.86281
28000000000 -21.305273 -96.508926 -0.42666763 169.13266 -0.40113172 168.98763 -20.419477 -102.40573
28025000000 -20.948555 -102.47462 -0.42969954 169.18158 -0.40927187 168.95609 -20.515059 -103.9676
28050000000 -20.264593 -98.165779 -0.44450316 168.97632 -0.40603775 168.69475 -20.133911 -104.24721
28075000000 -20.974382 -96.581474 -0.4489429 168.5683 -0.4213877 168.46567 -20.488686 -102.33427
28100000000 -21.087059 -99.74791 -0.44692695 168.50594 -0.42370841 168.48412 -20.527372 -103.62734
28125000000 -20.616829 -100.07013 -0.45370889 168.4458 -0.41629213 168.26144 -20.049484 -105.92308
28150000000 -20.653999 -98.210396 -0.45277169 168.2529 -0.43502152 168.00594 -20.157784 -102.85434
28175000000 -21.024906 -99.242264 -0.4492774 168.12331 -0.43367371 167.97905 -20.540905 -101.94502
28200000000 -20.537495 -99.977585 -0.45928326 167.95149 -0.42480245 167.79631 -20.474092 -106.19432
28225000000 -20.615065 -97.240768 -0.47052026 167.72246 -0.44154394 167.59213 -19.910879 -105.39288
28250000000 -21.23464 -98.991531 -0.46527657 167.53511 -0.45113578 167.4899 -19.969837 -99.753906
28275000000 -20.453485 -101.07625 -0.48250127 167.41734 -0.44808769 167.27591 -21.187502 -102.10564
28300000000 -20.603508 -97.695251 -0.49226379 167.3959 -0.45309171 167.11638 -20.683569 -112.51422
28325000000 -21.166033 -98.796181 -0.48162213 167.45161 -0.46984622 167.2523 -18.769032 -105.97565
28350000000 -20.106359 -100.53785 -0.50309563 167.38608 -0.46442309 167.37256 -19.212862 -90.670975
28375000000 -20.900282 -97.09211 -0.45948622 167.20166 -0.40665907 167.03981 -22.534016 -94.089485
28400000000 -20.926182 -100.97626 -0.37635446 166.9248 -0.35660809 166.7438 -21.243937 -119.57365
28425000000 -20.582714 -103.52117 -0.3553524 166.6301 -0.3260034 166.50162 -18.545658 -111.82477
28450000000 -20.743088 -95.958412 -0.40015602 166.30836 -0.35543263 166.05045 -19.343254 -98.096138
28475000000 -21.036043 -99.275444 -0.41877294 166.032 -0.39079431 165.79391 -21.468332 -102.29481
28500000000 -20.896667 -102.54026 -0.39921749 165.81441 -0.38689497 165.681 -20.23848 -112.24552
28525000000 -20.576454 -97.769592 -0.41432467 165.60222 -0.3911007 165.4713 -19.571877 -105.83131
28550000000 -21.201195 -98.591904 -0.44200978 165.53482 -0.4116523 165.31812 -20.69442 -102.37012
28575000000 -20.778446 -103.27702 -0.42348829 165.50853 -0.41583201 165.20235 -20.707413 -108.61465
28600000000 -20.235714 -96.827415 -0.42250603 165.03282 -0.41584256 164.95505 -20.015842 -107.39082
28625000000 -21.330753 -95.826935 -0.46076542 164.90201 -0.42618415 164.79659 -20.387487 -103.95129
28650000000 -21.13995 -105.05629 -0.43205494 165.03281 -0.42996207 164.69225 -20.640791 -106.81952
28675000000 -20.262207 -98.653824 -0.4185842 164.50009 -0.41601923 164.46135 -20.274664 -107.77589
28700000000 -21.100636 -96.12809 -0.45912781 164.39619 -0.42676547 164.27257 -20.533741 -105.66943
28725000000 -21.012335 -101.78038 -0.44757757 164.45648 -0.43854761 164.25592 -20.637959 -106.99622
28750000000 -20.55899 -98.11055 -0.43250513 164.08299 -0.43259987 164.10248 -20.30648 -108.49828
28775000000 -21.120991 -97.231522 -0.45386669 163.95862 -0.43339148 163.90588 -20.331913 -105.95705
28800000000 -21.014732 -102.0922 -0.44698656 163.8719 -0.43561548 163.85193 -20.669275 -106.52252
28825000000 -20.509472 -99.591583 -0.44468549 163.65599 -0.41963586 163.60248 -20.398098 -108.85496
28850000000 -20.731821 -97.359879 -0.44668764 163.39507 -0.43501744 163.33566 -20.271101 -106.82591
28875000000 -21.027739 -100.39902 -0.45097578 163.28012 -0.43591949 163.35257 -20.499136 -105.81781
28900000000 -20.620033 -100.89725 -0.46093336 163.16045 -0.41762477 163.15608 -20.446781 -108.13537
28925000000 -20.81349 -97.725883 -0.45912105 162.96631 -0.42782232 162.8399 -20.316002 -107.09648
28950000000 -21.040237 -103.16003 -0.45320603 162.854 -0.42814782 162.81291 -20.548239 -105.91902
28975000000 -20.233095 -101.41125 -0.46608669 162.59889 -0.41388464 162.58678 -20.466194 -108.40731
29000000000 -20.625109 -96.023674 -0.46661639 162.48845 -0.42941597 162.27293 -20.248619 -107.93745
29025000000 -21.255032 -102.36038 -0.45660326 162.42487 -0.43201596 162.26753 -20.417446 -105.8354
29050000000 -20.379435 -102.71376 -0.46230751 162.15018 -0.42213985 162.09705 -20.577774 -108.51454
29075000000 -20.736052 -98.111069 -0.4798246 162.01808 -0.41967893 161.81615 -20.254519 -108.6819
29100000000 -20.952719 -103.68752 -0.46381816 161.9592 -0.43593049 161.69962 -20.386337 -106.01073
29125000000 -20.244184 -102.5622 -0.44899374 161.64107 -0.41943464 161.57076 -20.472155 -107.5842
29150000000 -20.577301 -97.790642 -0.45965779 161.42973 -0.42643011 161.19641 -20.223753 -108.76701
29175000000 -21.242491 -102.26296 -0.48205209 161.39363 -0.45549852 161.18193 -20.408417 -105.38499
29200000000 -20.591078 -105.15131 -0.45732155 161.27362 -0.4402281 161.1044 -20.516066 -108.0052
29225000000 -20.305738 -100.31528 -0.47343868 160.84471 -0.44129878 160.84874 -20.28561 -108.63201
29250000000 -20.832645 -100.06047 -0.48863649 160.92517 -0.44916543 160.78604 -20.330412 -105.90124
29275000000 -20.754078 -103.59464 -0.44934005 160.82837 -0.4354654 160.63622 -20.590813 -107.62133
29300000000 -20.420753 -99.818016 -0.46866417 160.45412 -0.44007489 160.32068 -20.368631 -109.09532
29325000000 -21.027384 -100.66136 -0.47873586 160.42924 -0.45176995 160.22656 -20.326536 -106.6103
29350000000 -20.667307 -104.2773 -0.47269943 160.34111 -0.44451445 160.14581 -20.503187 -107.46078
29375000000 -20.337656 -99.548233 -0.45656756 159.95412 -0.43487892 159.89529 -20.390226 -108.98802
29400000000 -20.903742 -99.654381 -0.47236794 159.94397 -0.43909401 159.75296 -20.436565 -106.99156
29425000000 -20.682325 -102.80988 -0.46078551 159.89639 -0.44822472 159.66464 -20.685467 -107.96676
29450000000 -20.648888 -99.200813 -0.46547756 159.55888 -0.42919415 159.4101 -20.386938 -109.54201
29475000000 -20.987749 -102.09705 -0.46968094 159.51944 -0.44611448 159.25226 -20.386229 -106.52937
29500000000 -20.580973 -103.43905 -0.45727998 159.22675 -0.43452078 159.21333 -20.784063 -107.09208
29525000000 -20.425425 -99.147392 -0.4559238 159.02046 -0.42012453 158.82156 -20.582155 -111.03881
29550000000 -20.87072 -99.261742 -0.46396029 158.89896 -0.44788826 158.66034 -20.393555 -109.03149
29575000000 -20.816822 -102.69592 -0.4561184 158.90816 -0.44665509 158.65565 -20.594963 -108.05028
29600000000 -20.648134 -99.989304 -0.45220265 158.6346 -0.42433944 158.47502 -20.652584 -109.16541
29625000000 -20.914221 -99.381462 -0.44904903 158.33551 -0.43476272 158.19092 -20.647373 -109.06593
29650000000 -20.914038 -103.28458 -0.44734439 158.28038 -0.44163546 158.12721 -20.780241 -109.22662
29675000000 -20.331268 -100.30842 -0.45174524 158.02167 -0.42935324 157.79901 -20.563665 -111.36286
29700000000 -20.898682 -98.254784 -0.46421409 157.804 -0.45290256 157.55545 -20.457481 -109.44585
29725000000 -21.007505 -103.12553 -0.45234182 157.95328 -0.45821419 157.61723 -20.757547 -107.80116
29750000000 -20.583933 -100.00533 -0.42647931 157.47336 -0.43519804 157.48024 -20.948656 -110.59351
29775000000 -20.782253 -98.790916 -0.45936286 157.15985 -0.43355569 157.11192 -20.540508 -112.72614
29800000000 -20.783558 -102.75809 -0.45983252 157.23444 -0.46501175 157.0407 -20.448462 -109.79582
29825000000 -20.448381 -99.605713 -0.43814462 157.02602 -0.44253856 156.9137 -20.564377 -109.54723
29850000000 -20.874012 -98.86441 -0.46046647 156.70575 -0.44285309 156.66959 -20.694168 -110.21513
29875000000 -20.896683 -101.71227 -0.45324731 156.62025 -0.46134284 156.59201 -20.719988 -109.82178
29900000000 -20.554235 -100.76501 -0.44809872 156.3705 -0.43755823 156.46317 -20.572407 -111.34524
29925000000 -20.598423 -100.24991 -0.48611581 156.12604 -0.44445866 156.11424 -20.439259 -112.32861
29950000000 -20.780558 -102.24328 -0.46926293 156.14839 -0.47305018 156.03569 -20.398199 -109.33707
29975000000 -20.583094 -101.22123 -0.45722452 155.97668 -0.43925729 156.01129 -20.607788 -108.94584
30000000000 -20.595772 -99.851891 -0.46244049 155.56345 -0.44269156 155.65048 -20.797085 -112.06118
30025000000 -20.798004 -102.75141 -0.49918675 155.46385 -0.4585011 155.60579 -20.413654 -111.65092
30050000000 -20.280535 -103.49721 -0.49630514 155.51357 -0.45260331 155.40169 -20.234272 -110.58607
30075000000 -20.435753 -100.06914 -0.50731707 155.22652 -0.45893586 155.16391 -20.437469 -109.9988
30100000000 -20.743601 -103.33801 -0.49115315 155.259 -0.45611322 155.06969 -20.473787 -109.17499
30125000000 -20.300631 -101.86498 -0.46842825 154.90068 -0.44835836 154.92172 -20.695341 -109.84726
30150000000 -20.515028 -99.215034 -0.50058377 154.68707 -0.43654388 154.65422 -20.578213 -113.3692
30175000000 -20.969391 -104.21035 -0.52307087 154.69926 -0.46461079 154.49426 -20.118107 -111.05824
30200000000 -20.334137 -105.08461 -0.50342506 154.66624 -0.47460648 154.47115 -20.187241 -107.21001
30225000000 -20.420729 -101.97746 -0.49714518 154.40082 -0.44484952 154.23932 -20.784147 -109.17433
30250000000 -20.612667 -102.6375 -0.49494803 154.16649 -0.46756727 153.97441 -20.663872 -111.5943
30275000000 -20.47356 -103.48767 -0.50358224 154.02007 -0.46552506 153.9888 -20.269571 -110.37823
30300000000 -20.428652 -102.54954 -0.52284068 154.01477 -0.45589185 153.68034 -20.412008 -110.85309
30325000000 -20.724983 -103.85346 -0.52156031 153.86018 -0.48515368 153.55792 -20.225945 -109.23808
30350000000 -20.508057 -105.54012 -0.4915289 153.91859 -0.46380988 153.59596 -20.470652 -107.53532
30375000000 -20.244211 -101.82462 -0.46214136 153.36729 -0.45133615 153.24524 -21.098524 -111.44547
30400000000 -20.657715 -101.41183 -0.51269966 153.23613 -0.4608928 153.04813 -20.400776 -114.48913
30425000000 -20.59063 -105.56995 -0.49987096 153.5461 -0.46688339 153.01332 -19.818171 -109.0114
30450000000 -20.486572 -103.04396 -0.46500492 153.18507 -0.46656781 152.88347 -20.593451 -107.2187
30475000000 -20.857958 -105.10817 -0.48011586 152.87556 -0.45304814 152.64189 -20.86928 -111.35227
30500000000 -20.265005 -106.05078 -0.46129474 152.68318 -0.46215978 152.46979 -20.587475 -111.25639
30525000000 -20.101536 -101.26524 -0.4648588 152.31177 -0.45096058 152.25887 -20.696514 -112.78433
30550000000 -20.890347 -102.22815 -0.50205886 152.33548 -0.45445037 151.96332 -20.317276 -113.59824
30575000000 -20.748669 -106.56399 -0.46543264 152.44464 -0.4762626 152.02029 -20.139488 -108.60049
30600000000 -20.488192 -103.84177 -0.4263036 152.01315 -0.44158575 151.95099 -21.163721 -109.37892
30625000000 -20.541897 -104.26466 -0.46952036 151.62836 -0.45543283 151.58572 -21.009253 -116.88257
30650000000 -20.279701 -105.40418 -0.47968608 151.4713 -0.47182578 151.46838 -20.156675 -113.90209
30675000000 -20.135626 -102.55668 -0.48698702 151.50511 -0.45674559 151.23869 -20.491251 -111.48866
30700000000 -20.968117 -101.81083 -0.46317551 151.38422 -0.47569019 150.99547 -20.65205 -113.64279
30725000000 -20.962786 -108.07078 -0.45137179 151.09642 -0.45976976 151.0531 -20.461235 -111.78915
30750000000 -20.085913 -106.3795 -0.45997027 150.74211 -0.44018906 150.82097 -21.07012 -113.86828
30775000000 -20.298237 -103.49386 -0.47375765 150.51898 -0.46607387 150.58188 -20.621405 -119.69297
30800000000 -20.359144 -107.41135 -0.51559281 150.55666 -0.47098902 150.52463 -19.768066 -113.68461
30825000000 -20.061743 -102.88405 -0.45751882 150.55644 -0.46879163 150.30833 -20.670607 -110.33482
30850000000 -21.310904 -101.86572 -0.44639519 150.08632 -0.44736028 150.18614 -21.017086 -117.25513
30875000000 -20.826958 -113.28062 -0.50587451 149.93166 -0.45254695 150.02994 -20.25638 -116.5815
30900000000 -19.411585 -107.79198 -0.48722664 149.54562 -0.47646067 149.76045 -20.598415 -114.90896
30925000000 -20.437639 -100.31434 -0.5341776 149.53958 -0.47338501 149.59398 -20.406527 -117.80453
30950000000 -21.265467 -110.16539 -0.505449 149.8076 -0.46000624 149.46667 -19.902195 -113.16737
30975000000 -19.912857 -109.1535 -0.46162191 149.19815 -0.45182574 149.29019 -21.022583 -111.17262
31000000000 -20.773874 -101.76859 -0.4883337 148.96329 -0.43629935 149.1024 -21.115797 -121.38899
31025000000 -21.55175 -117.30164 -0.54553717 148.98541 -0.44415662 149.05724 -19.666668 -117.36074
31050000000 -18.31163 -118.65179 -0.59044695 148.85272 -0.4730446 148.98088 -20.172609 -110.30164
31075000000 -18.17865 -97.044884 -0.48156875 148.74113 -0.49532565 148.79568 -21.034859 -115.40132
31100000000 -22.973173 -88.854065 -0.46639553 148.44427 -0.42705566 148.47871 -20.218494 -115.61642
31125000000 -23.409626 -137.49802 -0.56160671 148.43655 -0.39273173 148.10555 -20.956226 -111.5109
31150000000 -18.780306 -129.41835 -0.56449807 147.7952 -0.43186566 148.12538 -20.933491 -117.46484
31175000000 -18.11035 -109.10633 -0.58884805 147.88625 -0.48254511 148.05626 -19.439924 -115.63434
31200000000 -19.71545 -92.300476 -0.58007365 148.34825 -0.57531071 147.61339 -20.312088 -104.2141
31225000000 -23.745003 -96.816872 -0.53574347 147.84499 -0.53412956 147.59251 -21.795637 -115.27225
31250000000 -21.235168 -129.55508 -0.57322371 147.62973 -0.47909227 147.62517 -20.066437 -119.13469
31275000000 -17.615734 -112.22198 -0.60910326 147.36613 -0.59135735 147.60205 -19.941277 -104.11023
31300000000 -18.863964 -87.370811 -0.64141172 147.57552 -0.6008774 147.35939 -21.585632 -109.57999
31325000000 -24.793983 -114.71577 -0.55968672 147.7881 -0.49267307 147.06329 -20.317801 -120.93777
31350000000 -18.053383 -125.95222 -0.56558633 147.29691 -0.49082556 147.19801 -19.356157 -107.92503
31375000000 -17.24337 -91.442848 -0.55794191 147.28287 -0.5556283 146.91422 -21.193979 -103.28654
31400000000 -29.482075 -85.146446 -0.50855947 147.22061 -0.47144264 146.57484 -21.180981 -117.66608
31425000000 -15.859545 -152.73416 -0.61578214 147.5013 -0.39838618 147.32518 -19.449162 -114.15038
31450000000 -12.072278 -103.36314 -0.39247328 147.35597 -0.42879197 148.67874 -19.893627 -111.0406
31475000000 -14.612683 -33.640785 -0.26583427 147.12187 -0.35255966 148.20349 -21.148083 -111.09436
31500000000 -15.629072 102.1492 -0.51048768 148.32057 -0.095673218 147.47313 -20.691412 -107.1822
31525000000 -9.6511135 -176.9136 -0.52848852 146.7939 0.1326021 146.68385 -20.603876 -113.84077
31550000000 -10.019138 -112.62473 -0.47376239 144.27501 -0.15398635 145.31139 -20.104132 -115.80293
31575000000 -14.632233 -45.320751 -0.2486755 145.74416 -0.44382498 143.75479 -19.704588 -110.93353
31600000000 -25.263741 111.76709 -0.38893682 146.2299 -0.53917229 143.71175 -21.473091 -110.71724
31625000000 -15.360656 -146.12717 -0.55788094 144.4677 -0.49960086 144.10828 -21.039108 -120.31307
31650000000 -15.306664 -90.023628 -0.43232054 143.79146 -0.59443653 143.56113 -20.041882 -118.74474
31675000000 -24.905819 -62.210861 -0.3724218 144.91632 -0.63275355 144.0407 -20.69268 -111.29016
31700000000 -21.237808 -142.32587 -0.50209624 144.85374 -0.4892247 144.3839 -21.167198 -115.9967
31725000000 -17.83473 -110.37601 -0.45925742 143.96019 -0.49863416 143.94527 -20.530151 -116.44023
31750000000 -21.59705 -93.813057 -0.41867507 143.93863 -0.53461212 144.12888 -21.120813 -113.04119
31775000000 -21.27409 -123.34595 -0.50511283 144.12958 -0.4530353 144.05373 -20.860704 -119.40778
31800000000 -18.892786 -109.6913 -0.51831967 143.52718 -0.5013237 143.59622 -19.999619 -116.06622
31825000000 -21.513004 -98.870041 -0.49684829 143.79375 -0.53360784 143.74448 -20.64175 -109.61083
31850000000 -22.018854 -122.2469 -0.43564594 143.76051 -0.4647516 143.67503 -21.460522 -117.62594
31875000000 -18.921898 -115.52882 -0.53764611 142.70634 -0.48437592 143.17896 -20.307171 -121.26497
31900000000 -19.980694 -101.73396 -0.53702837 143.09874 -0.53817731 143.11075 -20.275736 -113.283
31925000000 -21.66515 -111.98952 -0.46499237 143.13347 -0.47281373 143.19833 -20.77474 -117.15033
31950000000 -20.204863 -114.2654 -0.53483993 142.82254 -0.45023265 142.76195 -20.215025 -118.59985
31975000000 -21.037939 -107.26415 -0.47959334 142.70834 -0.50273484 142.54568 -20.484047 -113.44663
32000000000 -21.367788 -118.08194 -0.47135445 142.38715 -0.45209739 142.68068 -20.942579 -118.51332
32025000000 -19.611126 -116.6767 -0.5805499 142.25772 -0.45624825 142.23613 -20.105572 -121.71149
32050000000 -20.372499 -107.44497 -0.5284577 142.2283 -0.52856457 142.22064 -19.825827 -112.86956
32075000000 -21.516037 -114.85794 -0.50474465 142.12007 -0.45780784 142.24931 -20.832037 -114.96973
32100000000 -20.518702 -115.72588 -0.52752435 141.87987 -0.4359118 141.61658 -20.626701 -120.83604
32125000000 -20.921841 -111.04263 -0.55215061 141.42276 -0.50670433 141.53391 -20.170927 -114.90056
32150000000 -21.118027 -118.99776 -0.55134225 141.69331 -0.4653554 141.60867 -20.525433 -117.27633
32175000000 -19.832798 -117.56644 -0.55465108 141.51752 -0.44834691 141.28598 -20.157673 -120.19296
32200000000 -20.232101 -108.75212 -0.58791286 141.61847 -0.50379205 141.2529 -19.772861 -113.11874
32225000000 -21.91168 -113.36637 -0.49839532 141.52464 -0.47705886 141.16716 -20.941141 -114.18539
32250000000 -20.766218 -121.17096 -0.5295732 140.88112 -0.44344255 140.8244 -20.53455 -120.81792
32275000000 -20.140791 -116.01284 -0.63463908 141.11861 -0.49829388 140.72099 -19.666479 -114.14262
32300000000 -20.75638 -117.68479 -0.51218379 141.20045 -0.48116744 140.83488 -20.327671 -114.30605
32325000000 -20.073849 -117.61079 -0.53138679 140.62321 -0.41451108 140.41118 -20.563946 -118.88707
32350000000 -20.353313 -110.26894 -0.54769838 140.94736 -0.47246996 139.97498 -20.061022 -113.58059
32375000000 -21.703503 -114.7452 -0.46136931 140.53305 -0.48905995 140.20874 -20.824409 -113.73579
32400000000 -20.523352 -121.76295 -0.54140383 140.1622 -0.4310542 139.84755 -20.659176 -121.44775
32425000000 -20.056746 -116.10714 -0.5424186 140.45088 -0.48275203 139.7175 -19.539787 -116.19488
32450000000 -20.693405 -117.36455 -0.49775586 140.32275 -0.46189448 139.94299 -20.500687 -112.77733
32475000000 -20.183233 -115.991 -0.48086679 139.90314 -0.41286027 139.25912 -21.276669 -119.16234
32500000000 -20.316639 -109.3838 -0.48312604 139.65985 -0.47908723 138.91862 -20.077044 -117.62664
32525000000 -21.716518 -113.91455 -0.4995051 139.7979 -0.4837274 139.24554 -20.479971 -113.27642
32550000000 -20.8148 -121.9209 -0.45326588 139.50601 -0.44952667 138.97868 -21.211235 -119.75785
32575000000 -19.659733 -115.7129 -0.47578636 139.24089 -0.4510743 138.71121 -20.123518 -119.69898
32600000000 -20.52528 -110.34413 -0.43666059 139.41676 -0.44801095 138.85645 -20.677284 -114.07069
32625000000 -20.917089 -113.7064 -0.38540849 138.86818 -0.40782076 138.53336 -21.493935 -119.28337
32650000000 -20.304441 -112.4418 -0.47271004 138.46541 -0.44629404 137.88663 -20.31624 -121.98404
32675000000 -21.325558 -112.3965 -0.41687515 138.71741 -0.47820431 138.19534 -20.403467 -116.30658
32700000000 -20.817656 -119.97614 -0.39997971 138.26704 -0.41141051 138.12531 -21.489534 -120.16836
32725000000 -19.580221 -113.35658 -0.41777173 137.88857 -0.41994673 137.3 -20.502714 -123.27921
32750000000 -20.853592 -106.43849 -0.35885105 137.87375 -0.4579303 137.60133 -20.757673 -116.36547
32775000000 -21.471087 -114.4511 -0.39028344 137.38396 -0.39399227 137.52109 -21.675964 -121.65201
32800000000 -20.466913 -114.58137 -0.4553706 137.2018 -0.44458404 136.81348 -20.487333 -126.46806
32825000000 -21.191607 -111.86218 -0.42343244 137.23677 -0.47610107 137.11905 -20.264959 -117.68415
32850000000 -21.292908 -117.34835 -0.40497643 136.97752 -0.41013402 137.0703 -21.781971 -120.1109
32875000000 -20.108795 -114.72542 -0.40517485 136.55426 -0.41027182 136.42365 -20.782228 -127.36602
32900000000 -20.707346 -108.87258 -0.44108716 136.23763 -0.45813203 136.21213 -20.531191 -120.01062
32925000000 -21.630001 -112.57891 -0.40955943 136.37236 -0.4267973 136.41087 -21.568384 -121.40437
32950000000 -21.018805 -115.62043 -0.43865913 135.89561 -0.41388011 136.0043 -20.689848 -128.62384
32975000000 -21.250437 -113.26617 -0.50283355 135.94089 -0.46581009 135.76689 -20.354225 -119.53205
33000000000 -21.524578 -117.65775 -0.39235279 135.86206 -0.42255017 135.96692 -21.678141 -120.4245
33025000000 -20.314665 -116.96159 -0.48063979 135.10437 -0.40452018 135.45317 -20.949125 -131.15067
33050000000 -21.196199 -108.17701 -0.55094284 135.40756 -0.47808233 134.99524 -20.155104 -121.51695
33075000000 -22.678366 -116.69981 -0.44484201 135.51456 -0.46664923 135.34174 -20.971146 -119.24871
33100000000 -21.310587 -124.35342 -0.50673473 135.00571 -0.40951273 135.09009 -21.032164 -127.22371
33125000000 -20.960754 -117.88945 -0.51385176 135.06511 -0.46501556 134.79968 -20.3862 -121.23303
33150000000 -21.606073 -119.81158 -0.47835833 134.76027 -0.43979791 134.91208 -21.299311 -120.97664
33175000000 -20.702238 -121.86437 -0.5127793 134.60748 -0.3991043 134.53737 -20.884108 -130.61638
33200000000 -21.217627 -114.23993 -0.5516116 134.81764 -0.47984493 134.2393 -19.760366 -120.72458
33225000000 -22.653051 -119.32789 -0.50735134 134.67532 -0.47152916 134.32152 -20.919455 -117.34433
33250000000 -21.610048 -128.85191 -0.46252111 134.29892 -0.40007791 134.15799 -21.372065 -128.85764
33275000000 -20.60124 -123.52644 -0.55594152 134.10213 -0.44853309 133.97183 -20.155092 -124.06102
33300000000 -21.238653 -120.32066 -0.53026116 134.31058 -0.44757926 133.91771 -20.606865 -119.9683
33325000000 -21.638962 -122.41161 -0.47481102 133.99829 -0.39184657 133.59192 -20.962086 -126.72208
33350000000 -21.930368 -122.27493 -0.53482622 134.10226 -0.43652236 133.22728 -20.01511 -121.21807
33375000000 -22.422367 -128.5802 -0.44777459 133.9353 -0.45087695 133.27408 -20.952717 -118.85289
33400000000 -20.947771 -133.91388 -0.46569178 133.29556 -0.39420417 133.14404 -21.507736 -128.66025
33425000000 -20.139408 -125.2813 -0.53977251 133.3671 -0.42648342 132.87379 -20.141527 -125.45014
33450000000 -21.034428 -122.12744 -0.46627373 133.64197 -0.45573917 133.05746 -20.460077 -118.81236
33475000000 -21.58164 -124.03911 -0.43260512 133.10043 -0.39043403 132.65338 -21.820118 -124.9814
33500000000 -21.548838 -122.78223 -0.4590207 132.85115 -0.41816613 132.09315 -20.789219 -125.99687
33525000000 -22.072176 -126.38902 -0.44883528 132.80576 -0.45861024 132.28166 -20.892889 -121.83488
33550000000 -20.94939 -131.72665 -0.45981139 132.42064 -0.39533967 132.14824 -21.580614 -128.50597
33575000000 -20.148129 -124.01075 -0.4454003 132.49513 -0.39655825 131.8849 -20.502449 -126.45594
33600000000 -21.185167 -117.28886 -0.43419546 132.58893 -0.43726504 131.8737 -21.043055 -118.338
33625000000 -22.387928 -121.67075 -0.36454383 132.12206 -0.40263474 131.6097 -22.513437 -125.68948
33650000000 -21.670187 -125.54601 -0.41857982 131.57709 -0.40758908 131.24937 -21.113632 -129.99265
33675000000 -21.492966 -125.46782 -0.45826 131.62688 -0.43676957 131.24292 -20.826448 -122.86065
33700000000 -21.177387 -126.96657 -0.39225379 131.64574 -0.39058998 131.23085 -22.032415 -125.99511
33725000000 -20.563116 -121.41692 -0.37339678 131.16272 -0.36928761 130.71017 -21.40073 -127.18999
33750000000 -21.377842 -114.93475 -0.37675181 130.89801 -0.44083163 130.42955 -21.601515 -122.00509
33775000000 -22.602808 -120.79201 -0.3465566 130.8134 -0.41840759 130.66234 -22.62207 -128.23897
33800000000 -21.653549 -125.81187 -0.43082491 130.14375 -0.39292488 130.19296 -21.279892 -132.46422
33825000000 -21.305788 -123.43073 -0.42642504 130.56561 -0.42126429 130.21657 -21.001917 -123.2665
33850000000 -21.560339 -121.2349 -0.34733722 130.30142 -0.36756146 130.16188 -22.843601 -123.93564
33875000000 -21.288063 -118.65734 -0.37709734 129.45856 -0.3566108 129.44156 -21.998875 -133.20322
33900000000 -22.137897 -116.13071 -0.43018928 129.33614 -0.44456023 129.17996 -21.435253 -126.29725
33925000000 -22.645708 -123.46492 -0.42127514 129.49007 -0.43549064 129.42456 -22.121761 -126.62757
33950000000 -21.684063 -126.11909 -0.4287723 129.11784 -0.37727708 129.23685 -21.598181 -131.8396
33975000000 -21.433657 -121.31976 -0.45455217 129.20451 -0.41327822 128.88863 -21.419872 -124.58321
34000000000 -21.964443 -119.89344 -0.39203399 128.83788 -0.39432496 128.88507 -22.730993 -125.36642
34025000000 -21.689833 -119.03949 -0.41820073 128.47986 -0.36772466 128.43484 -21.966293 -134.57018
34050000000 -22.787725 -114.18104 -0.55028403 128.35864 -0.47319317 127.98925 -21.118362 -125.32893
34075000000 -23.727381 -127.28262 -0.46488401 128.76172 -0.46413732 128.3943 -21.727394 -124.47673
34100000000 -21.864273 -132.51587 -0.4274264 128.18907 -0.37735894 128.16354 -22.214874 -130.56934
34125000000 -21.002052 -122.37516 -0.51565599 127.92545 -0.41860059 127.59573 -21.761806 -126.70947
34150000000 -22.264078 -116.38402 -0.44491816 128.13058 -0.45380709 127.74622 -22.097361 -124.46754
34175000000 -22.836576 -121.81987 -0.46048075 127.74326 -0.40588337 127.60284 -22.030594 -131.40794
34200000000 -22.948181 -123.62442 -0.54481208 127.82814 -0.43377471 127.29017 -21.014206 -125.95232
34225000000 -23.025702 -128.37032 -0.46560273 128.06403 -0.44031996 127.41895 -21.956402 -123.11562
34250000000 -22.073954 -130.45264 -0.43518746 127.14956 -0.37116423 127.08862 -22.923624 -130.22835
34275000000 -21.492413 -122.68877 -0.52172369 127.23494 -0.42042103 126.5904 -21.6259 -128.11221
34300000000 -22.722601 -118.51434 -0.49903172 127.47046 -0.49031761 126.75006 -21.306103 -122.18117
34325000000 -23.757484 -128.21512 -0.44785544 127.06267 -0.41721001 126.68904 -22.459957 -127.30154
34350000000 -22.741844 -132.37408 -0.48398367 127.14263 -0.40697804 126.27869 -21.791945 -126.81529
34375000000 -22.382708 -130.17511 -0.46327266 126.88951 -0.42190415 126.30119 -22.147858 -123.30814
34400000000 -22.092533 -130.83574 -0.4279913 126.467 -0.388733 126.00612 -22.964624 -128.37595
34425000000 -21.653807 -126.54805 -0.49352017 126.57091 -0.42683917 125.76904 -21.575047 -127.16651
34450000000 -22.656528 -126.40305 -0.46188152 126.64497 -0.44335306 125.87102 -21.584179 -121.18425
34475000000 -22.785183 -132.59015 -0.39568391 126.24993 -0.40920517 125.63937 -23.407169 -124.77975
34500000000 -21.753231 -130.09105 -0.44554177 125.83383 -0.39379558 125.18682 -22.51907 -129.09187
34525000000 -22.150524 -127.90032 -0.43571839 125.90033 -0.42660284 125.24037 -22.070332 -122.87191
34550000000 -21.987173 -131.17661 -0.42397863 125.66595 -0.39812353 125.12127 -23.347343 -124.43612
34575000000 -21.228754 -126.27714 -0.41888869 125.36027 -0.39685145 124.64126 -22.605682 -127.63847
34600000000 -22.017014 -122.13638 -0.42501915 125.627 -0.44420862 124.84972 -22.204386 -121.641
34625000000 -22.846558 -127.33868 -0.3730377 125.19066 -0.41592568 124.72198 -24.158516 -123.26153
34650000000 -21.322697 -129.34766 -0.39072526 124.52055 -0.38741803 124.1513 -22.983978 -131.4856
34675000000 -20.986958 -123.43776 -0.43494332 125.03506 -0.41166252 124.33753 -21.922785 -123.65047
34700000000 -22.044323 -121.13082 -0.36453947 124.83 -0.38209316 124.31719 -23.883471 -118.58196
34725000000 -21.420586 -122.35699 -0.34721881 124.15562 -0.3783541 123.65604 -23.732744 -127.17966
34750000000 -21.331535 -118.86028 -0.40146673 124.16865 -0.43018275 123.57993 -22.553572 -124.53414
34775000000 -22.305914 -120.45496 -0.34362251 124.14896 -0.41292921 123.80972 -24.067106 -121.02428
34800000000 -21.354864 -122.70139 -0.33921105 123.545 -0.35656375 123.33856 -24.016846 -127.42878
34825000000 -20.836956 -119.11159 -0.37418786 123.44682 -0.37705442 122.91274 -22.677786 -123.25418
34850000000 -21.248686 -116.83651 -0.32307696 123.61147 -0.36293963 123.17231 -23.969831 -116.06975
34875000000 -20.641176 -114.26994 -0.30153728 122.67158 -0.3585403 122.54387 -24.141512 -127.19749
34900000000 -21.208569 -111.62531 -0.40452155 122.43148 -0.42331403 122.36974 -22.571667 -126.97905
34925000000 -22.228607 -115.63731 -0.36623418 123.1201 -0.3909775 122.79157 -23.641901 -118.0811
34950000000 -21.089989 -116.6684 -0.29189584 122.10097 -0.30731443 122.11216 -24.338364 -120.79247
34975000000 -20.501425 -112.71574 -0.37128112 121.89945 -0.36086708 121.34431 -23.077559 -125.78224
35000000000 -21.253914 -107.92459 -0.33879745 122.1291 -0.4215115 121.74091 -23.520624 -118.99582
35025000000 -21.573248 -109.52612 -0.34338588 121.33782 -0.36755824 121.57974 -24.182753 -125.1231
35050000000 -21.63706 -109.22533 -0.4034892 121.51108 -0.40093613 121.24404 -23.035419 -126.29727
35075000000 -22.503502 -110.01607 -0.34879386 121.59953 -0.3843382 121.47256 -23.678946 -116.46133
35100000000 -21.37488 -117.38221 -0.35934821 120.67324 -0.33017173 120.69548 -24.462788 -124.21945
35125000000 -20.229536 -110.3727 -0.43103114 120.60766 -0.42298406 119.92183 -23.272167 -129.53908
35150000000 -21.462765 -99.17498 -0.39591476 120.75382 -0.48791423 120.4919 -22.996971 -118.64085
35175000000 -23.22319 -104.95544 -0.38497809 120.60061 -0.41261306 120.73103 -24.513792 -119.44421
35200000000 -22.318888 -110.50195 -0.41030487 120.05791 -0.38670042 120.06676 -23.669615 -126.61723
35225000000 -22.309519 -108.10155 -0.4182713 120.37013 -0.41063458 119.95409 -23.371239 -118.03753
35250000000 -22.077753 -109.97314 -0.40031233 119.96428 -0.39697832 119.63709 -24.337482 -119.68263
35275000000 -21.649456 -105.78579 -0.4765715 119.65959 -0.44263238 119.05959 -23.57515 -124.51765
35300000000 -22.597689 -100.03831 -0.42367142 120.18101 -0.51561737 119.46329 -23.102327 -116.93626
35325000000 -23.987524 -103.28226 -0.37389264 119.62228 -0.43898568 119.73335 -24.811783 -115.52842
35350000000 -23.160765 -114.13551 -0.44658157 118.9253 -0.40283966 118.9038 -24.018269 -125.96131
35375000000 -21.920641 -109.86892 -0.45522165 119.44956 -0.49054253 118.65589 -23.159014 -117.21812
35400000000 -22.427896 -103.4979 -0.39864829 119.26981 -0.46553367 118.81528 -24.191751 -115.37959
35425000000 -22.987158 -104.39893 -0.43203238 118.86912 -0.46213749 118.41119 -23.825928 -120.65744
35450000000 -23.282679 -104.86763 -0.41790599 118.85234 -0.50428569 118.50306 -23.512415 -114.98074
35475000000 -23.866615 -107.23447 -0.38624018 118.60244 -0.45510763 118.54855 -24.807604 -114.53454
35500000000 -22.963648 -115.61787 -0.46226066 118.03691 -0.44537106 117.92892 -23.813732 -123.83674
35525000000 -22.051434 -111.60197 -0.44727868 118.42765 -0.50261974 117.72029 -22.694647 -114.37693
35550000000 -22.49131 -107.13872 -0.36735076 118.43822 -0.51537865 117.95965 -24.315956 -108.7023
35575000000 -22.665264 -105.60892 -0.39546698 117.64377 -0.47058022 117.74918 -24.649757 -118.84736
35600000000 -23.112762 -108.31892 -0.43124571 117.38139 -0.50488192 117.29522 -23.366224 -118.9585
35625000000 -22.932594 -113.89604 -0.43886888 117.66843 -0.50264519 117.52116 -23.770834 -112.61671
35650000000 -22.085009 -112.68401 -0.40053436 117.31332 -0.45757565 117.08645 -23.761383 -116.06445
35675000000 -21.994194 -110.43262 -0.40765086 117.15175 -0.523072 116.81731 -23.264675 -113.55307
35700000000 -22.082006 -108.81785 -0.35237777 116.90123 -0.52225268 117.14937 -24.543552 -110.00891
35725000000 -22.135029 -108.75504 -0.42133948 116.39151 -0.4780966 116.87457 -24.135685 -122.306
35750000000 -22.181952 -113.97655 -0.4651736 116.39614 -0.51374584 116.45907 -22.647478 -118.3677
35775000000 -21.631804 -113.38931 -0.36674243 116.54005 -0.49153298 116.63279 -23.541441 -106.77413
35800000000 -21.080217 -112.07899 -0.3757171 115.90107 -0.45989576 116.27855 -24.616812 -116.37331
35825000000 -20.874897 -110.24224 -0.45283782 115.45596 -0.50703818 115.83251 -23.310154 -122.8083
35850000000 -21.29833 -107.51829 -0.40671372 115.54092 -0.54019576 115.96046 -23.212812 -114.59151
35875000000 -21.62966 -108.65475 -0.43526554 115.3321 -0.475548 116.09382 -23.87627 -117.03058
35900000000 -21.297689 -110.73013 -0.45051897 115.03122 -0.46746644 115.45885 -23.120596 -120.84386
35925000000 -21.177551 -109.5843 -0.41787767 115.04395 -0.49292982 115.50494 -23.310516 -112.52978
35950000000 -20.750406 -108.165 -0.39870772 114.47953 -0.42059174 115.16811 -24.092857 -118.46831
35975000000 -21.080242 -106.6007 -0.52241898 114.08685 -0.50519979 114.63728 -23.673958 -126.13172
36000000000 -21.322155 -106.78361 -0.52165109 114.59448 -0.55194539 114.93322 -22.723001 -116.59476
36025000000 -20.940672 -104.50217 -0.41394454 114.04209 -0.44181991 115.04627 -23.5186 -113.2935
36050000000 -21.211451 -104.02711 -0.5103628 113.75954 -0.42809993 114.33508 -23.90799 -122.01997
36075000000 -21.325756 -105.01552 -0.50595719 113.67716 -0.4917804 114.02277 -23.460548 -119.33157
36100000000 -21.010807 -103.35418 -0.50269502 113.43537 -0.47682971 113.93918 -23.6752 -119.28619
36125000000 -21.450495 -100.93941 -0.59843719 113.3357 -0.50949514 113.50549 -23.589432 -121.35813
36150000000 -21.618612 -99.011948 -0.54833257 113.49419 -0.5432539 113.69556 -22.923412 -114.80137
36175000000 -21.710707 -97.71328 -0.49484017 113.04134 -0.46346843 113.74625 -23.885736 -112.7787
36200000000 -22.004244 -99.938461 -0.59720457 112.66705 -0.43391204 113.03474 -24.473801 -123.81493
36225000000 -22.073069 -98.017761 -0.63091099 112.74116 -0.54509395 112.50635 -23.258579 -118.05215
36250000000 -21.879124 -97.089745 -0.6085214 113.11386 -0.58297712 112.9073 -22.939255 -111.99261
36275000000 -21.834408 -94.494453 -0.58471429 112.60351 -0.52970082 112.6473 -23.722677 -115.65701
36300000000 -22.433241 -91.088593 -0.6355648 112.55813 -0.56848907 112.51541 -23.136892 -114.44203
36325000000 -22.801958 -95.050537 -0.61119193 112.43002 -0.52974027 112.55656 -23.450567 -113.12982
36350000000 -22.518715 -96.436356 -0.65687734 112.26993 -0.52011245 112.10887 -23.75036 -118.63754
36375000000 -22.705317 -93.45153 -0.69961399 112.59569 -0.60668206 111.57546 -22.212912 -114.50973
36400000000 -22.869673 -96.228294 -0.60241586 112.60891 -0.65380311 112.19992 -22.307474 -109.80958
36425000000 -22.842478 -97.491547 -0.57500136 112.09437 -0.56797916 112.23107 -23.739388 -114.51559
36450000000 -23.032408 -98.14341 -0.67029548 111.92377 -0.57559335 111.74483 -22.916761 -120.39636
36475000000 -23.406368 -99.141304 -0.64568228 112.06922 -0.59736234 111.80816 -22.030855 -115.5531
36500000000 -23.977201 -104.03135 -0.63151228 112.15808 -0.57472932 111.63199 -22.709881 -115.08365
36525000000 -23.436499 -108.37857 -0.62406552 111.93561 -0.60223776 111.35619 -22.401663 -117.48342
36550000000 -23.199965 -106.61568 -0.55395311 111.73389 -0.64766538 111.60173 -22.542162 -114.40219
36575000000 -23.582266 -108.41463 -0.59069407 111.2214 -0.56363446 111.70366 -23.642048 -119.4845
36600000000 -23.78639 -112.23993 -0.64715928 111.32799 -0.54803818 111.17256 -22.595324 -125.99535
36625000000 -24.015589 -115.98687 -0.61394513 111.84107 -0.59569812 111.11893 -21.480295 -118.63402
36650000000 -23.723059 -122.07169 -0.50464839 111.27151 -0.54773861 111.20197 -23.215994 -116.18501
36675000000 -22.903984 -121.07075 -0.54487783 110.72809 -0.56272966 110.84427 -23.536587 -124.79198
36700000000 -23.074589 -117.6827 -0.56104201 110.70399 -0.59048826 110.93362 -22.4713 -122.72931
36725000000 -23.730598 -119.06789 -0.52440161 110.2542 -0.5177511 110.91215 -23.300171 -122.73177
36750000000 -23.905329 -125.81472 -0.59055424 110.32288 -0.50407249 110.32771 -23.125927 -127.89871
36775000000 -23.332924 -128.00958 -0.534688 110.3488 -0.5381729 110.23397 -22.328468 -120.49464
36800000000 -22.961943 -126.35654 -0.44049659 109.68127 -0.50685298 110.21481 -24.380066 -116.24226
36825000000 -22.619562 -124.72938 -0.57628453 109.16766 -0.51856291 109.91783 -24.563309 -131.63382
36850000000 -22.839579 -121.40014 -0.61355817 109.50581 -0.55107915 109.92561 -22.103123 -128.09071
36875000000 -23.725302 -125.11095 -0.56246871 109.41004 -0.50418878 109.75848 -23.002825 -118.83398
36900000000 -23.024683 -131.27621 -0.52552629 109.00365 -0.47135788 109.17463 -24.632067 -123.63597
36925000000 -22.036385 -125.05997 -0.53552735 108.52578 -0.54827029 109.12249 -23.804499 -123.31736
36950000000 -22.212631 -121.71449 -0.57566571 108.37656 -0.51874793 109.23411 -23.863892 -121.25686
36975000000 -22.133427 -122.52769 -0.60385567 108.12521 -0.48806274 108.87191 -23.995384 -128.8367
37000000000 -22.096083 -118.40929 -0.65109545 108.50603 -0.5319941 108.75924 -22.642408 -122.20665
37025000000 -22.889313 -118.05586 -0.56297284 108.19289 -0.47483444 108.58177 -24.151529 -112.56441
37050000000 -22.367092 -123.20436 -0.55540818 107.49601 -0.46572101 107.96578 -25.855806 -124.96651
37075000000 -21.436823 -120.15787 -0.68374419 107.49168 -0.56312275 107.91866 -23.360731 -124.15578
37100000000 -21.2488 -114.428 -0.65555412 107.60134 -0.54348981 108.16908 -23.035191 -115.86539
37125000000 -22.019197 -110.79366 -0.64185703 107.46835 -0.49169436 107.77744 -24.64032 -118.9091
37150000000 -22.203342 -111.10309 -0.65570414 107.42076 -0.49911276 107.29713 -23.726379 -119.5136
37175000000 -22.449121 -109.21514 -0.60912222 107.1449 -0.5264076 107.12797 -23.951754 -109.35938
37200000000 -22.509476 -113.22576 -0.67568386 106.81001 -0.51801473 106.78802 -25.603092 -117.37119
37225000000 -21.438566 -112.55483 -0.71336055 107.04364 -0.58941853 106.68389 -22.941851 -120.82111
37250000000 -21.42634 -105.61835 -0.67452526 107.25115 -0.62008339 107.06536 -22.458164 -109.62189
37275000000 -22.464371 -104.2842 -0.63820761 106.67602 -0.50529093 106.63835 -25.17683 -107.0622
37300000000 -22.15601 -107.00018 -0.67226678 106.26438 -0.53705961 105.86382 -24.349575 -117.31593
37325000000 -21.859438 -104.63392 -0.72517633 106.69797 -0.64314371 105.91594 -22.55228 -108.819
37350000000 -22.129986 -104.54865 -0.66824216 106.511 -0.60889882 105.88441 -24.040657 -108.08525
37375000000 -21.678017 -104.98499 -0.71280485 106.30206 -0.65436965 105.76098 -23.094942 -115.12904
37400000000 -21.73497 -100.97182 -0.69960451 106.67326 -0.65342176 106.00536 -22.443645 -107.80778
37425000000 -22.587599 -99.87912 -0.60470003 105.92442 -0.58408082 105.74108 -24.41523 -103.04079
37450000000 -22.565121 -106.43829 -0.7431255 105.75247 -0.60568106 105.12072 -23.770399 -115.31504
37475000000 -21.786036 -105.83951 -0.72281706 106.37085 -0.71564198 105.29315 -21.455549 -111.44209
37500000000 -22.541998 -103.80319 -0.63381833 106.08726 -0.6943897 105.58106 -23.050545 -106.30656
37525000000 -22.543791 -110.60791 -0.68822885 105.60897 -0.62745166 105.29598 -23.427546 -114.91467
37550000000 -21.765762 -108.39754 -0.6505881 105.8036 -0.67746103 105.232 -22.133467 -113.09532
37575000000 -22.748251 -103.79392 -0.63455093 105.48959 -0.63727343 105.21507 -23.262411 -109.71092
37600000000 -23.909393 -112.32125 -0.68825269 105.41694 -0.60631806 104.75124 -23.017647 -119.8206
37625000000 -23.21538 -119.52334 -0.63605344 105.58908 -0.68051594 104.86852 -21.41119 -117.05389
37650000000 -23.135139 -121.01194 -0.6081363 105.30277 -0.64378583 105.13906 -22.947899 -109.80557
37675000000 -22.584917 -123.51848 -0.59374034 104.8124 -0.60059971 104.83926 -23.825836 -122.09241
37700000000 -22.378792 -121.18172 -0.66187698 104.84023 -0.63323951 104.76022 -21.85038 -122.5654
37725000000 -23.472261 -120.99361 -0.60489672 104.8348 -0.60118026 104.66985 -22.550097 -115.9525
37750000000 -23.918531 -133.09935 -0.59520268 104.67458 -0.56978124 104.3533 -23.289186 -124.13478
37775000000 -22.200968 -136.67929 -0.59935927 104.43617 -0.5919705 104.35047 -21.938148 -123.5015
37800000000 -21.909184 -129.13881 -0.55618888 104.18454 -0.58346701 104.5869 -22.891768 -117.46877
37825000000 -22.749489 -129.30246 -0.54927349 103.84424 -0.52697438 104.24919 -23.884377 -129.91866
37850000000 -22.706623 -134.93622 -0.65446836 103.92713 -0.54722786 103.94563 -21.792383 -130.11655
37875000000 -22.93754 -135.28987 -0.53989464 104.05397 -0.5429495 103.93811 -22.402487 -120.78959
37900000000 -23.016502 -143.17714 -0.53005731 103.3908 -0.50125033 103.63916 -24.166307 -126.58401
37925000000 -21.262478 -145.01999 -0.5681119 103.24302 -0.50037414 103.65321 -22.658092 -132.08775
37950000000 -20.83742 -136.22809 -0.56453687 103.12213 -0.48586935 103.82155 -22.676884 -125.14726
37975000000 -21.894384 -132.36287 -0.54649222 102.79565 -0.42342493 103.40095 -24.129595 -132.52841
38000000000 -22.458784 -136.53244 -0.58327121 102.88502 -0.46393031 102.90896 -22.74301 -133.7932
38025000000 -22.31176 -140.39308 -0.56406409 102.84264 -0.47484401 102.85658 -22.760725 -122.62276
38050000000 -21.728836 -140.74202 -0.4951297 102.30424 -0.430657 102.66637 -25.100698 -128.23665
38075000000 -21.082518 -138.05862 -0.56975055 102.03277 -0.44373733 102.62585 -23.239559 -137.56467
38100000000 -21.277742 -133.45117 -0.64111799 102.39153 -0.42669997 102.6708 -22.576595 -127.38136
38125000000 -22.311365 -129.67715 -0.49893758 102.22368 -0.36338618 102.11597 -25.388697 -124.64299
38150000000 -22.620117 -133.2755 -0.56306601 101.5649 -0.40665558 101.47343 -24.289799 -134.0822
38175000000 -22.207979 -135.37268 -0.57876658 102.09724 -0.46983096 101.67021 -22.985611 -122.95395
38200000000 -21.889868 -133.99275 -0.4725191 101.50397 -0.39881116 101.63033 -25.718103 -122.29055
38225000000 -21.362854 -130.0175 -0.5644204 101.04679 -0.36620042 101.28413 -24.555851 -137.85693
38250000000 -22.126673 -122.49761 -0.5813486 101.81683 -0.40561929 101.24755 -23.164885 -124.66734
38275000000 -23.476755 -124.08365 -0.46098015 101.31371 -0.34433591 100.80631 -26.021917 -113.08249
38300000000 -22.515875 -128.74388 -0.50076741 100.51773 -0.38782114 99.972084 -26.210789 -133.77408
38325000000 -22.10136 -122.98775 -0.5568946 101.06491 -0.49818 100.4727 -23.09656 -125.81075
38350000000 -23.208302 -119.29454 -0.48252559 100.73518 -0.39676952 100.6025 -25.737354 -117.14845
38375000000 -22.907862 -120.00074 -0.49954244 100.2706 -0.34455726 99.829582 -26.468494 -132.64371
38400000000 -23.216463 -111.30434 -0.47670665 100.94125 -0.39309245 99.641968 -23.691587 -123.21141
38425000000 -25.093922 -109.49058 -0.38332874 100.25982 -0.38314492 99.510117 -25.711763 -106.55167
38450000000 -24.631058 -122.5377 -0.43698591 99.536972 -0.40461469 98.871834 -27.856964 -129.79219
38475000000 -23.134502 -117.8662 -0.48682648 99.782913 -0.49517369 99.143417 -23.734142 -130.01256
38500000000 -24.39065 -108.04447 -0.42860004 99.819565 -0.42872861 99.496284 -25.399408 -112.14447
38525000000 -25.229208 -110.88381 -0.38926739 99.135986 -0.34284985 98.587227 -28.070774 -121.06046
38550000000 -24.615459 -107.62395 -0.43071553 98.982918 -0.42675599 97.974854 -24.787117 -125.49281
38575000000 -26.711596 -99.559212 -0.36964914 99.127815 -0.46455002 98.190544 -25.716311 -109.88399
38600000000 -27.923113 -121.54111 -0.38379616 98.063797 -0.4094635 97.991547 -29.006872 -126.04546
38625000000 -24.719778 -120.10411 -0.49642169 98.455025 -0.47822496 98.002838 -24.514191 -132.03728
38650000000 -25.961601 -100.55703 -0.3574757 98.599609 -0.44332802 98.290672 -25.298418 -110.52666
38675000000 -28.874451 -104.82597 -0.35595089 97.339058 -0.35844615 97.527969 -29.278023 -111.09729
38700000000 -28.061483 -115.82294 -0.45122048 97.500008 -0.43689147 96.867638 -26.491545 -131.32385
38725000000 -28.967377 -113.99879 -0.41384205 97.273987 -0.48304081 97.090446 -25.436279 -116.32822
38750000000 -29.201033 -134.36723 -0.43737444 96.997169 -0.42400733 97.058929 -28.184614 -119.95565
38775000000 -26.290771 -131.56451 -0.44472674 96.949333 -0.43054295 96.969688 -25.944004 -129.3562
38800000000 -26.708126 -113.7001 -0.44510975 96.630524 -0.44185767 96.855759 -25.783953 -109.82829
38825000000 -29.893652 -115.34188 -0.40068907 96.4459 -0.40378866 96.475883 -29.969856 -116.53271
38850000000 -29.694464 -132.7648 -0.50158274 95.815674 -0.42558998 96.094749 -26.2472 -133.15851
38875000000 -29.320881 -135.22218 -0.57604629 96.382088 -0.47916743 96.134407 -24.165543 -116.79927
38900000000 -29.020456 -151.20554 -0.42277172 96.042343 -0.41167343 96.030937 -28.73963 -110.21193
38925000000 -25.833027 -142.10739 -0.50010908 95.244919 -0.39775929 95.880615 -26.80475 -130.375
38950000000 -27.378918 -122.62167 -0.56667757 95.775177 -0.45781159 95.818932 -25.043587 -115.87546
38975000000 -31.763941 -146.37671 -0.47976452 95.182999 -0.405202 95.416588 -28.826845 -115.5328
39000000000 -26.440554 -163.15854 -0.59216362 95.335419 -0.39876387 95.381821 -25.357201 -134.09393
39025000000 -25.986322 -147.60292 -0.58654332 95.899124 -0.42081797 95.581551 -23.807745 -118.34919
39050000000 -26.540648 -149.43411 -0.48357585 94.769539 -0.36248815 95.078102 -28.331579 -102.48221
39075000000 -24.639885 -148.13342 -0.58544385 94.624771 -0.34837937 94.809334 -27.462282 -137.55566
39100000000 -25.053078 -132.42104 -0.6373539 95.347359 -0.40942454 94.889343 -24.094584 -120.08374
39125000000 -29.174936 -136.17973 -0.5344401 94.852417 -0.41318819 94.530273 -27.090315 -105.43363
39150000000 -26.86054 -165.08788 -0.58839661 94.64447 -0.36994007 94.13488 -26.957424 -128.09547
39175000000 -24.00157 -154.95659 -0.57882965 95.102211 -0.37026089 94.428986 -24.273495 -115.1771
39200000000 -24.608343 -140.00021 -0.53720403 94.316177 -0.32239267 94.082405 -28.169659 -95.166534
39225000000 -24.780592 -135.22307 -0.57108361 93.926727 -0.3178696 93.421715 -28.751675 -130.89191
39250000000 -25.399748 -130.59682 -0.66190368 95.165504 -0.42684621 93.86116 -23.107004 -117.0391
39275000000 -28.555887 -131.01976 -0.53687626 95.000053 -0.41739544 93.650574 -26.091269 -88.496567
39300000000 -25.916101 -152.74474 -0.49292287 93.467834 -0.37752688 92.898521 -29.50885 -106.11629
39325000000 -23.002985 -142.02879 -0.62040406 94.36541 -0.36169177 93.396667 -25.125992 -116.92532
39350000000 -23.74798 -119.26442 -0.51937908 94.486778 -0.32294461 93.289909 -26.826431 -88.249512
39375000000 -24.946924 -113.75595 -0.50114244 93.503067 -0.31947425 92.364159 -28.766569 -100.23339
39400000000 -26.66888 -114.90659 -0.52529871 94.552536 -0.40507886 92.44606 -24.399282 -107.10941
39425000000 -27.914846 -127.25152 -0.38021448 94.052498 -0.40262827 92.51265 -25.540241 -80.278946
39450000000 -24.525251 -136.71225 -0.4533996 92.541344 -0.37725374 91.841454 -29.477245 -92.080704
39475000000 -22.982258 -121.00197 -0.49192518 93.71904 -0.37648705 92.066177 -25.720354 -110.1528
39500000000 -24.123638 -100.51387 -0.3880024 93.488533 -0.36038718 92.231171 -25.090427 -81.387016
39525000000 -26.43438 -98.082993 -0.41653329 92.944473 -0.3666743 91.253517 -27.770267 -80.832077
39550000000 -27.019701 -112.57589 -0.33382049 92.527489 -0.44446662 91.030624 -25.61614 -103.17384
39575000000 -26.550781 -116.9455 -0.36128247 92.232483 -0.45834041 91.436394 -25.938328 -82.006592
39600000000 -24.890209 -120.77441 -0.38901985 91.758232 -0.39544386 91.00631 -30.076714 -86.684242
39625000000 -23.098484 -108.55363 -0.37596315 91.868431 -0.39267144 90.845512 -25.643673 -107.60787
39650000000 -24.222996 -82.755852 -0.3066043 92.427841 -0.41801372 91.068253 -24.04076 -79.76207
39675000000 -29.365082 -83.223236 -0.25053969 90.981415 -0.41482332 90.46241 -28.158337 -71.083466
39700000000 -27.890985 -120.99343 -0.39765853 90.128937 -0.47591305 90.048767 -28.143591 -109.33672
39725000000 -26.206543 -111.78751 -0.41648182 90.972 -0.46866259 90.560349 -25.817148 -93.935616
39750000000 -25.986965 -106.77746 -0.2972993 90.165314 -0.40257749 90.214386 -27.548565 -77.518753
39775000000 -25.228464 -102.47272 -0.43073806 90.022537 -0.41895989 89.66803 -27.375454 -102.09759
39800000000 -26.685633 -86.247551 -0.30408737 90.124313 -0.44357124 89.549843 -25.451513 -88.198425
39825000000 -31.772837 -99.832184 -0.36019343 88.883629 -0.46827641 89.332138 -29.106976 -78.091393
39850000000 -28.538223 -136.53389 -0.51681936 89.371582 -0.45036119 89.287491 -27.71353 -117.4983
39875000000 -26.105991 -122.68894 -0.44247848 89.536919 -0.44106439 89.515678 -24.831869 -98.228767
39900000000 -26.471889 -107.88088 -0.39532435 89.01062 -0.40733427 89.336395 -26.649036 -76.090508
39925000000 -27.750109 -109.6494 -0.46175545 88.324959 -0.41663378 88.585022 -28.980593 -104.55012
39950000000 -28.970314 -110.94315 -0.55241406 88.351616 -0.50592452 88.468292 -25.291492 -101.34153
39975000000 -31.246458 -135.55551 -0.51904029 88.841354 -0.47270632 88.492859 -27.114254 -93.065659
40000000000 -26.903679 -149.73412 -0.48713577 88.213562 -0.41778073 88.328217 -27.088831 -107.96695
40025000000 -25.226297 -134.0618 -0.61158252 88.678169 -0.41441786 88.521324 -24.895771 -101.44522
40050000000 -26.89086 -122.17673 -0.48157015 88.494949 -0.39411145 88.102051 -26.410133 -81.736298
40075000000 -27.441254 -134.83409 -0.57461977 87.42614 -0.44701836 87.666412 -27.759054 -108.46897
40100000000 -27.61034 -140.87794 -0.68957651 89.001778 -0.47466496 88.006577 -23.788219 -112.47551
40125000000 -27.444405 -152.43434 -0.52085322 88.585922 -0.41704369 87.728256 -25.207829 -90.037453
40150000000 -23.902977 -153.69446 -0.57609385 87.798241 -0.34924993 87.161049 -27.071539 -96.114388
40175000000 -22.83621 -133.62143 -0.59159118 88.742218 -0.36911312 87.243866 -25.146034 -96.155968
40200000000 -24.903198 -120.22126 -0.50660908 88.13472 -0.4007636 87.411049 -25.04528 -86.472672
40225000000 -27.543756 -138.99709 -0.60497719 88.030029 -0.41263533 86.9216 -26.550047 -98.998253
40250000000 -25.257559 -153.89157 -0.53166813 88.933159 -0.39537385 87.195671 -23.911251 -101.88095
40275000000 -23.768629 -143.96719 -0.47346935 88.61763 -0.30208451 87.068314 -24.247271 -77.379463
40300000000 -22.785963 -139.47371 -0.47193202 87.769615 -0.26514071 85.951401 -26.551065 -77.323868
40325000000 -22.13084 -132.36969 -0.48456609 88.230415 -0.35476723 85.948532 -24.530354 -96.315514
40350000000 -23.619284 -118.70782 -0.44108367 88.812073 -0.34321862 86.623619 -23.651579 -82.9907
40375000000 -25.661892 -126.52782 -0.37109584 88.272446 -0.33508661 85.885086 -24.577005 -74.673553
40400000000 -23.623722 -142.78583 -0.32094967 88.061638 -0.36061707 85.767426 -24.392738 -84.787796
40425000000 -21.455753 -131.30852 -0.27245536 88.508392 -0.2458908 85.629761 -23.344389 -67.926598
40450000000 -20.246681 -122.94804 -0.22801131 87.09726 -0.21863705 84.749557 -24.503529 -70.890579
40475000000 -20.781227 -110.16918 -0.2542842 87.773399 -0.29461229 84.645164 -23.762543 -86.39695
40500000000 -22.880093 -98.105263 -0.053456441 88.295563 -0.32330748 85.442917 -22.054399 -73.596268
40525000000 -24.414644 -114.94305 -0.04298963 86.471825 -0.34760416 84.915146 -23.826757 -64.47258
40550000000 -22.144119 -128.59903 -0.14860192 85.917168 -0.36632702 84.071327 -25.749159 -82.315643
40575000000 -20.158709 -117.35025 0.0028529249 86.276382 -0.29819706 84.523254 -23.437225 -76.54937
40600000000 -19.482115 -107.08701 0.0024416295 85.620911 -0.2015575 84.025803 -23.641865 -68.828972
40625000000 -20.243292 -101.18583 0.041647874 84.92157 -0.27746534 83.173218 -25.059818 -86.938286
40650000000 -21.904341 -95.669891 0.084354959 84.07151 -0.37028047 83.725708 -24.705004 -77.858803
40675000000 -23.307261 -101.44865 -0.034794215 84.004044 -0.37279958 83.769608 -26.387125 -63.383022
40700000000 -21.844254 -116.67157 -0.051564455 82.598236 -0.41024444 83.184975 -29.01161 -89.229584
40725000000 -19.544313 -105.73849 -0.051776417 83.023148 -0.35119325 83.287704 -24.910358 -80.647102
40750000000 -19.3202 -89.099991 0.080250226 82.84153 -0.23855561 83.436592 -25.473957 -65.508934
40775000000 -22.421726 -87.330688 -0.17410593 80.916199 -0.35735393 82.523079 -35.146408 -86.549538
40800000000 -24.171535 -93.373848 -0.25622427 81.518715 -0.47044981 82.420715 -28.771786 -82.936607
40825000000 -23.364681 -100.08381 -0.10282466 81.346771 -0.42015806 83.27121 -27.494152 -64.303001
40850000000 -22.11915 -108.26839 -0.30232072 80.29557 -0.37479132 82.648605 -32.106865 -92.62513
40875000000 -20.71876 -100.17962 -0.26968971 80.739922 -0.36805707 82.176239 -27.732401 -93.287292
40900000000 -20.900122 -86.959366 -0.26427379 79.753883 -0.3040072 82.275673 -30.341187 -69.08374
40925000000 -24.270756 -75.744499 -0.51797187 80.241638 -0.36805871 81.856003 -41.085758 -84.592148
40950000000 -27.809044 -90.111877 -0.5252763 80.04184 -0.49668819 81.866119 -27.767719 -106.82641
40975000000 -24.929117 -117.57185 -0.46945214 79.676086 -0.40013444 82.437172 -26.241892 -91.042572
41000000000 -23.005404 -113.59831 -0.60800076 79.701294 -0.28398558 81.822113 -31.593361 -122.55797
41025000000 -23.153711 -94.490295 -0.70547271 79.800652 -0.39394793 81.119247 -27.695305 -114.07994
41050000000 -25.130217 -78.771957 -0.6841948 80.255905 -0.43574989 81.346474 -26.199076 -99.907776
41075000000 -30.848839 -84.344658 -0.77338147 80.601921 -0.41939142 81.496887 -26.827503 -115.64192
41100000000 -29.818888 -129.47736 -0.87750846 81.32016 -0.48261803 81.68734 -22.594055 -114.34589
41125000000 -27.509743 -129.03975 -0.75944263 81.14814 -0.33941483 81.654533 -24.339325 -102.85077
41150000000 -27.310583 -113.5726 -0.81933415 81.360092 -0.26647317 81.140854 -26.637901 -112.80547
41175000000 -26.843733 -89.399605 -0.93214113 83.774506 -0.42650738 81.148544 -20.416267 -106.38863
41200000000 -32.241718 -61.212498 -0.7483151 83.779053 -0.48326242 81.645538 -20.020241 -95.551117
41225000000 -46.584324 125.80456 -0.71092796 83.977692 -0.38436785 81.961235 -21.04644 -97.227646
41250000000 -34.499218 -154.75011 -0.66274315 85.756424 -0.31950364 82.519127 -18.319458 -92.261948
41275000000 -30.14621 -86.565971 -0.62542421 86.652603 -0.29767835 83.003708 -16.883715 -72.462883
41300000000 -24.439821 -39.826939 -0.46404314 88.523949 -0.18145415 83.108292 -15.291762 -68.538704
41325000000 -22.533663 -11.862941 -0.029465185 91.914665 -0.36049506 85.512032 -12.01197 -71.112091
41350000000 -19.179068 11.998133 -0.18127602 93.695473 -0.4454585 89.172432 -10.138768 -46.860332
41375000000 -15.635812 7.2441254 0.05367155 98.848808 -0.13282992 93.748528 -7.1308517 -34.631798
41400000000 -9.3012743 16.25783 0.3970376 120.00008 -0.29964781 112.03165 -0.43795994 -14.079524
41425000000 -4.552074 43.530792 -3.0084929 -173.30475 -3.9824302 146.41316 5.1805267 38.414356
41450000000 -5.5376673 102.15967 11.844975 67.420334 -14.983716 33.483475 6.1649327 -100.42995
41475000000 -4.3412652 69.642014 -8.1334982 30.528231 -20.115 37.806572 -4.1290002 102.97005
41500000000 -6.7048469 39.915394 -9.9053717 84.141457 -9.445261 107.79019 -1.3172399 96.33461
41525000000 -10.643464 -4.9117894 -3.3775883 98.161774 -3.3961194 103.55059 -4.4787016 68.784439
41550000000 -12.644936 -48.085136 -1.4696413 90.897316 -1.4786148 94.685471 -7.6006894 57.504341
41575000000 -14.245525 -65.303406 -0.9979701 83.047279 -0.95501435 86.799179 -12.534816 58.919857
41600000000 -16.577139 -70.33197 -0.72136694 78.799568 -0.64732724 82.489967 -19.34804 44.15448
41625000000 -19.377146 -80.045273 -0.59774923 77.071075 -0.54241508 80.213638 -21.265894 32.707127
41650000000 -19.966518 -96.41404 -0.65279275 75.840866 -0.57810909 79.226868 -26.898663 22.461605
41675000000 -18.968365 -104.70777 -0.67162085 75.05455 -0.45985162 77.632774 -30.888369 -16.825546
41700000000 -18.061121 -96.787987 -0.7193442 74.845955 -0.43440124 76.275009 -29.094542 -20.087326
41725000000 -18.210758 -81.404205 -0.68148655 74.706024 -0.48845235 75.541328 -28.142134 -53.751446
41750000000 -20.358732 -69.232346 -0.62501264 74.214668 -0.5155381 75.586777 -24.482721 -59.247078
41775000000 -23.715582 -80.829247 -0.62726778 73.436798 -0.53127861 75.336525 -24.800314 -52.937191
41800000000 -21.177265 -98.306877 -0.75765795 72.802513 -0.62165934 75.010048 -23.326345 -64.453705
41825000000 -18.661749 -88.810532 -0.67997003 72.841103 -0.47439629 74.496117 -21.662237 -61.479469
41850000000 -18.602045 -71.841751 -0.72253519 71.752411 -0.40933964 73.214363 -21.697578 -42.937435
41875000000 -19.037378 -58.245182 -0.85786641 71.528915 -0.52912337 72.35218 -20.519846 -43.338043
41900000000 -19.757532 -56.214375 -0.91013205 70.603973 -0.63975543 72.453773 -19.138098 -45.400898
41925000000 -20.655874 -62.592751 -1.0357579 69.777824 -0.58941215 71.928864 -18.615751 -33.788006
41950000000 -18.837723 -73.615433 -1.2010653 69.084503 -0.6572234 70.486206 -17.057905 -28.933577
41975000000 -15.88925 -73.506264 -1.3090971 67.782791 -0.64385986 68.688766 -14.634952 -15.111493
42000000000 -13.928496 -64.823631 -1.4953039 66.396034 -0.62112558 65.756577 -12.210355 -2.5332401
42025000000 -12.554369 -70.156685 -2.1384826 62.528294 -1.0872957 60.181187 -9.5654421 -8.073658
42050000000 -9.4871788 -103.891 -4.8397379 49.797554 -3.1508732 49.058662 -3.5904984 -25.974981
42075000000 -5.8417344 -142.9848 -14.853767 118.05728 -9.4260006 43.65062 0.581236 -68.414963
42100000000 -4.0494742 168.90501 0.13428284 107.33087 -9.6953926 118.1965 -10.719157 -33.578705
42125000000 -6.7154942 -123.75352 -1.1110897 19.536827 -4.4042277 29.829807 1.9925745 20.852379
42150000000 -9.1523094 -70.645401 0.88487798 59.135818 0.42154682 56.26524 -7.5381155 70.782013
42175000000 -15.198951 -60.470348 0.21624891 69.646057 -0.02232888 65.277962 -17.08617 64.266617
42200000000 -20.637327 -84.422607 -0.037485857 70.806122 -0.24971452 66.922203 -19.574116 66.650978
42225000000 -20.542742 -95.808212 0.20709887 73.743492 -0.19414783 69.690773 -47.516941 96.543015
42250000000 -20.028292 -86.156593 0.37628534 74.935226 -0.31981438 71.853355 -24.141441 -71.676743
42275000000 -20.624872 -74.686508 0.11605761 72.985245 -0.50023276 71.630325 -28.681826 -25.755335
42300000000 -22.635839 -53.544075 0.087642103 71.731918 -0.46478471 71.10701 -33.386223 -64.13842
42325000000 -30.610016 -22.857628 0.082437597 72.093826 -0.38162792 71.519035 -25.321997 -64.839661
42350000000 -28.9902 -157.73489 0.091152139 72.221252 -0.33013642 71.850243 -23.675802 -48.82666
42375000000 -20.717115 -129.11285 0.19907986 70.816696 -0.26870215 71.503105 -23.60313 -69.826485
42400000000 -20.337456 -99.254234 0.06057268 69.748489 -0.35680425 71.263527 -24.879141 -67.418915
42425000000 -22.496334 -69.824234 -0.1092743 69.694366 -0.50843906 71.493156 -26.631199 -43.821117
42450000000 -28.736347 -49.092213 -0.19325083 69.273849 -0.47778055 71.349762 -25.23591 -69.213409
42475000000 -31.33119 179.85608 -0.084686168 69.069588 -0.37347129 70.903923 -22.782795 -65.343338
42500000000 -20.483082 -157.67467 -0.13475445 68.282295 -0.28930104 70.710991 -24.973196 -56.594193
42525000000 -18.198456 -125.44513 -0.37174532 67.717575 -0.2564595 69.913345 -28.365622 -80.145134
42550000000 -19.401188 -89.605034 -0.42116192 67.859993 -0.34382784 69.757103 -26.022095 -61.967636
42575000000 -24.042557 -63.739216 -0.47619393 68.010315 -0.48177761 70.48111 -25.60886 -49.520725
42600000000 -32.290546 -138.2473 -0.56930453 68.001015 -0.43243822 70.560722 -25.454268 -78.766258
42625000000 -21.587711 -163.11542 -0.48416197 67.42617 -0.33366632 68.968758 -24.420258 -70.630058
42650000000 -17.121487 -139.5858 -0.59205395 67.196182 -0.35202596 68.634087 -27.699638 -38.980495
42675000000 -15.62957 -107.23316 -0.83584893 68.344261 -0.26971576 68.614288 -29.191067 -66.900414
42700000000 -17.288786 -72.649094 -0.74112493 68.479866 -0.308792 68.122849 -23.426716 -66.497002
42725000000 -25.143637 -57.361412 -0.77084273 67.839218 -0.49459535 69.286888 -23.185722 -54.104107
42750000000 -23.649155 -148.23044 -0.80885231 68.66732 -0.38172525 69.732773 -27.117994 -78.241051
42775000000 -17.162643 -131.92343 -0.8193053 68.329124 -0.31326374 67.380638 -24.355738 -67.625839
42800000000 -14.202017 -105.95387 -0.89555395 69.100647 -0.30950707 65.76107 -23.223106 -50.733883
42825000000 -13.441018 -79.359406 -0.8559292 70.37722 -0.3650454 65.84584 -23.485756 -75.853477
42850000000 -16.04393 -49.26865 -0.80029726 70.924934 -0.39579758 67.039612 -21.524433 -80.826378
42875000000 -28.889246 -39.306995 -0.70620382 69.102295 -0.48885688 68.662964 -23.485558 -67.525513
42900000000 -19.819695 -140.26367 -0.77996564 69.630508 -0.34879169 68.814949 -25.875313 -80.371925
42925000000 -13.376884 -110.91915 -0.63950294 71.001907 -0.23761636 65.26944 -21.000355 -75.008705
42950000000 -11.376474 -86.808678 -0.57932866 70.56794 -0.42377451 62.369759 -21.782034 -73.224518
42975000000 -11.504292 -59.281269 -0.42449427 71.69854 -0.57376146 62.932579 -23.924683 -102.28652
43000000000 -15.658898 -18.690781 -0.38399965 70.520172 -0.427784 66.150002 -22.864855 -85.5634
43025000000 -29.482151 111.61973 -0.5150196 68.586594 -0.34970397 68.139153 -23.397869 -62.155891
43050000000 -14.225558 -133.80142 -0.43470824 69.946831 -0.20053507 66.779022 -24.518311 -73.987358
43075000000 -9.0419168 -98.248772 0.030218014 70.049591 -0.31366703 61.127571 -21.069933 -94.177307
43100000000 -8.1201973 -64.903931 -0.050170358 69.095268 -0.55975592 57.944752 -24.772575 -70.678131
43125000000 -9.3194036 -23.695194 -0.1592961 67.583809 -0.44777951 58.414967 -27.448586 -58.829506
43150000000 -12.61262 37.408226 -0.34696561 67.581398 -0.17845522 62.305889 -22.898071 -73.470505
43175000000 -13.623987 152.83165 -0.21826361 67.379242 -0.042811159 65.559822 -21.611671 -56.833397
43200000000 -7.1794872 -129.39905 -0.095355563 66.744781 -0.22528328 61.716953 -24.332924 -76.458824
43225000000 -3.8331819 -87.778923 0.078813374 65.605934 -1.2028871 52.073235 -24.439575 -71.841682
43250000000 -2.0393434 -43.701828 -0.91801625 65.934258 -1.8122826 43.498581 -20.299353 -69.172089
43275000000 0.35488051 1.1243114 -0.97976148 67.714165 -1.8007162 32.460358 -28.28688 -92.534454
43300000000 2.5944674 59.536068 -0.84760672 66.517349 -1.0364987 27.482748 -24.803852 -76.386299
43325000000 5.2053194 136.86349 0.5229851 60.341129 -1.4486619 29.843275 -21.479502 -87.108139
43350000000 4.448102 -139.90999 -0.11471899 64.210983 -5.3213701 38.269543 -26.189377 -53.535084
43375000000 2.9234545 -97.06559 -0.57454175 71.074249 -9.9967499 76.978455 -26.813387 -100.50256
43400000000 -0.28833562 -80.796463 0.77123785 82.518074 -3.4157448 94.303047 -16.563702 28.81048
43425000000 0.95463157 -8.8047142 1.3572357 66.914902 -7.2875586 86.62587 -15.367784 -49.766262
43450000000 8.3152351 65.712151 0.23504578 61.86211 -14.395737 -96.35701 -20.835737 -91.419395
43475000000 5.6093731 -159.52713 0.80669469 60.126511 -2.1500585 30.305494 -25.870022 -61.904606
43500000000 0.7207427 -56.24403 -0.82665205 64.478142 -2.6074963 50.751514 -23.669165 -60.840431
