!Keysight Technologies,N5224A,MY55441802,A.10.65.16
!Date: Tuesday, March 03, 2026 16:46:05
!Correction: S11(Full 2 Port(1,2)) 
!S21(Full 2 Port(1,2)) 
!S12(Full 2 Port(1,2)) 
!S22(Full 2 Port(1,2)) 
!S2P File: Measurements: S11, S21, S12, S22:
# Hz S  dB   R 50
25000000000 -20.31481 -86.233826 -0.36813155 -170.73961 -0.34972423 -170.43654 -19.958509 -79.440575
25025000000 -21.855371 -86.656792 -0.37071431 -171.05592 -0.32594645 -170.79379 -20.91181 -81.697701
25050000000 -21.66638 -94.01487 -0.33962336 -171.05873 -0.31393269 -170.94093 -20.294027 -84.934906
25075000000 -21.00425 -94.656303 -0.33201581 -171.31844 -0.30846354 -171.08458 -20.205431 -81.25367
25100000000 -21.016331 -92.86377 -0.35282513 -171.45221 -0.29957375 -171.36687 -20.817797 -83.790306
25125000000 -20.809605 -92.41111 -0.32490316 -171.37393 -0.3108421 -171.42496 -19.962757 -85.34758
25150000000 -21.10008 -91.615974 -0.31592229 -171.94199 -0.32357028 -171.55693 -20.139984 -80.618271
25175000000 -21.791227 -91.567932 -0.37100744 -172.27867 -0.3165831 -171.87218 -21.085066 -81.424202
25200000000 -21.902981 -97.012924 -0.34609628 -172.0471 -0.30884767 -172.01256 -20.327442 -86.773361
25225000000 -20.55719 -99.681961 -0.30942905 -172.23119 -0.30072737 -172.08836 -19.836067 -82.422974
25250000000 -20.663059 -92.228874 -0.34867147 -172.64816 -0.30154562 -172.38155 -20.613708 -80.860039
25275000000 -21.730042 -91.207848 -0.3411184 -172.82703 -0.30611458 -172.6095 -20.482573 -84.4907
25300000000 -21.951447 -97.619827 -0.32669234 -173.02682 -0.31037226 -172.78535 -20.301149 -81.548256
25325000000 -21.771294 -98.876007 -0.34132162 -173.28426 -0.32310927 -173.0881 -20.918879 -81.594635
25350000000 -21.184799 -100.75659 -0.3307201 -173.30865 -0.31969488 -173.19786 -20.351402 -86.099648
25375000000 -20.586863 -96.173637 -0.34020269 -173.3506 -0.32304299 -173.09634 -19.90658 -80.961906
25400000000 -21.672915 -94.001678 -0.35354745 -173.71631 -0.32899445 -173.30438 -20.829557 -78.119858
25425000000 -22.044109 -96.927704 -0.36153781 -173.96794 -0.32843941 -173.65395 -20.95586 -84.962967
25450000000 -21.629808 -99.407379 -0.33699167 -174.04167 -0.31656599 -173.7399 -20.231627 -83.400192
25475000000 -21.571009 -99.534195 -0.34167275 -174.19765 -0.32281032 -173.96996 -20.650978 -81.063797
25500000000 -21.230257 -98.25399 -0.35875243 -174.40349 -0.32446182 -174.19424 -20.720882 -84.97216
25525000000 -21.331621 -95.41951 -0.34247291 -174.66013 -0.32144195 -174.21414 -20.34215 -82.267471
25550000000 -22.025623 -95.957642 -0.36874542 -174.75467 -0.32138494 -174.30232 -20.984648 -78.734375
25575000000 -22.26244 -99.06765 -0.36331803 -174.87526 -0.32192439 -174.60367 -21.254862 -85.179024
25600000000 -21.137863 -102.79848 -0.32927665 -175.08627 -0.30159256 -174.71837 -20.215448 -85.938797
25625000000 -20.977463 -95.506203 -0.35081479 -175.29485 -0.28281486 -174.88756 -20.38298 -81.122009
25650000000 -21.976591 -93.169518 -0.38052717 -175.41211 -0.30295563 -175.16364 -21.221224 -83.623672
25675000000 -22.049082 -98.829796 -0.36730421 -175.62952 -0.31591457 -175.35759 -20.87233 -85.194115
25700000000 -21.501392 -98.190872 -0.36375594 -175.81953 -0.30937973 -175.53052 -20.712803 -82.886055
25725000000 -21.805054 -98.352966 -0.37803489 -175.91693 -0.315559 -175.75883 -20.953232 -84.893234
25750000000 -21.222549 -99.514732 -0.36645195 -176.06364 -0.31833091 -175.90814 -20.504164 -85.892441
25775000000 -21.361097 -96.204208 -0.36671284 -176.40645 -0.30477288 -176.05508 -20.637142 -82.350639
25800000000 -21.852106 -95.040184 -0.39432517 -176.42189 -0.31284037 -176.34404 -21.221018 -84.747139
25825000000 -21.958914 -98.939728 -0.36800885 -176.52864 -0.33781844 -176.48357 -20.733511 -86.874367
25850000000 -21.477993 -100.12986 -0.36755925 -176.79594 -0.33154577 -176.56982 -20.382586 -84.481178
25875000000 -21.392805 -97.738037 -0.38961273 -176.92021 -0.32271323 -176.76195 -20.807743 -85.048088
25900000000 -21.629118 -95.946083 -0.3884927 -177.0538 -0.33647501 -176.96161 -20.803558 -87.216385
25925000000 -21.913538 -97.857491 -0.37818718 -177.27428 -0.33553365 -177.12648 -20.660984 -85.323112
25950000000 -21.931772 -98.203804 -0.37392205 -177.37936 -0.33252174 -177.33688 -21.00069 -86.374168
25975000000 -21.684824 -101.06291 -0.37938637 -177.48625 -0.34679279 -177.41824 -20.524591 -88.41494
26000000000 -21.130892 -98.030281 -0.37883851 -177.61797 -0.34340221 -177.42848 -20.146902 -85.80761
26025000000 -21.910749 -94.990967 -0.38645014 -177.94788 -0.33241779 -177.63539 -20.914234 -85.419655
26050000000 -22.285131 -99.116028 -0.38158211 -178.01088 -0.33025035 -177.88431 -20.926605 -89.81411
26075000000 -21.558006 -101.83582 -0.35593113 -178.14629 -0.33031112 -178.0273 -20.244812 -87.669151
26100000000 -21.715408 -99.420723 -0.37404317 -178.4296 -0.33154452 -178.25644 -20.599705 -85.652802
26125000000 -21.653059 -101.26661 -0.36729249 -178.53717 -0.3260864 -178.44475 -20.682154 -88.879066
26150000000 -21.423391 -99.466583 -0.3661567 -178.70622 -0.32969165 -178.52115 -20.316494 -87.829216
26175000000 -21.860664 -97.153458 -0.3693471 -178.93846 -0.33075485 -178.72096 -20.878296 -85.890686
26200000000 -22.528269 -100.49409 -0.35493848 -179.06268 -0.32905942 -178.99686 -20.914976 -89.609161
26225000000 -21.710325 -105.91059 -0.33827874 -179.17561 -0.32213917 -179.08316 -20.109669 -88.911499
26250000000 -21.407236 -101.61797 -0.35903767 -179.43054 -0.32380465 -179.29164 -20.50696 -85.237381
26275000000 -22.011505 -98.260963 -0.37372836 -179.68086 -0.33223125 -179.55453 -21.0401 -88.514793
26300000000 -22.414225 -102.86584 -0.34774595 -179.94296 -0.33384854 -179.73965 -20.567661 -89.331779
26325000000 -21.971729 -102.89457 -0.36097503 179.95097 -0.3424772 -179.89635 -20.69903 -85.632278
26350000000 -22.183559 -102.277 -0.36449331 179.7861 -0.3466678 179.87416 -20.94726 -88.707748
26375000000 -21.836847 -104.05485 -0.34827968 179.7178 -0.34400621 179.8497 -20.311411 -89.368141
26400000000 -21.97938 -102.05403 -0.36681595 179.46059 -0.3386246 179.76497 -20.551382 -84.991341
26425000000 -22.401833 -100.5683 -0.38371664 179.16747 -0.35273188 179.45642 -21.177843 -88.428185
26450000000 -22.534348 -104.29729 -0.35146379 179.02661 -0.34503108 179.27133 -20.586592 -90.590469
26475000000 -22.313213 -105.38987 -0.35729545 178.91437 -0.3502441 179.14558 -20.586687 -86.296562
26500000000 -22.069418 -104.73875 -0.38682052 178.74971 -0.36046904 178.92677 -21.192535 -88.165794
26525000000 -21.975712 -102.22304 -0.38022494 178.58098 -0.35737005 178.77332 -20.90214 -90.62764
26550000000 -22.416882 -100.88613 -0.37389761 178.43335 -0.34936517 178.77332 -20.822998 -86.962349
26575000000 -23.045282 -102.18398 -0.38821188 178.18782 -0.3570458 178.53543 -21.364931 -88.705727
26600000000 -22.511757 -107.65633 -0.3769587 177.99017 -0.35437104 178.26651 -20.891314 -91.434113
26625000000 -21.897745 -104.31905 -0.36932257 177.93478 -0.33348331 178.15472 -20.765453 -87.75103
26650000000 -22.355343 -100.38876 -0.39429978 177.7991 -0.33170858 178.01096 -21.582945 -88.324142
26675000000 -22.654449 -103.37506 -0.40252703 177.52025 -0.34535211 177.733 -21.216646 -92.16256
26700000000 -22.209803 -103.88454 -0.37887469 177.38577 -0.3321512 177.62611 -20.887573 -88.139473
26725000000 -22.717253 -102.09929 -0.38168794 177.28398 -0.32842615 177.4537 -21.520185 -87.890572
26750000000 -22.557245 -105.8791 -0.39227784 177.08839 -0.34809664 177.13779 -21.292038 -91.952377
26775000000 -22.035341 -105.06374 -0.39049166 176.92212 -0.33836034 176.99664 -21.021881 -88.579857
26800000000 -22.21925 -100.73997 -0.41450295 176.7536 -0.33963743 176.83443 -21.6973 -88.458092
26825000000 -22.949007 -101.83412 -0.40691829 176.56761 -0.35246632 176.59663 -21.353075 -92.153656
26850000000 -22.685818 -106.94229 -0.38872272 176.33755 -0.35267705 176.42712 -20.892311 -88.769379
26875000000 -22.190369 -106.18223 -0.40396193 176.30376 -0.34860131 176.24997 -21.513254 -88.216385
26900000000 -22.129839 -102.6321 -0.4030619 176.1926 -0.36233002 175.99957 -21.431322 -92.864113
26925000000 -22.43989 -103.65385 -0.40259424 175.93567 -0.3706716 175.88168 -20.917547 -90.145172
26950000000 -22.494251 -102.81804 -0.40563732 175.73067 -0.36758393 175.78229 -21.324554 -88.442505
26975000000 -22.797857 -104.67416 -0.41268906 175.60947 -0.37598309 175.62489 -21.278004 -93.201065
27000000000 -22.41346 -106.23138 -0.4054389 175.46555 -0.38270262 175.49167 -20.726095 -91.204453
27025000000 -22.367039 -105.41058 -0.40468517 175.32076 -0.37146476 175.33759 -21.212528 -89.531715
27050000000 -22.40391 -105.08502 -0.41696331 175.1747 -0.38342613 175.12807 -21.418491 -93.176483
27075000000 -22.280497 -103.60983 -0.41354257 174.98567 -0.38957095 175.02594 -20.848528 -91.537582
27100000000 -22.876028 -102.64695 -0.40162602 174.76611 -0.3838321 174.92328 -21.103771 -90.534286
27125000000 -22.835886 -107.53145 -0.41337171 174.59172 -0.38483879 174.71155 -21.145824 -93.916176
27150000000 -22.245792 -106.36275 -0.42114592 174.53004 -0.38569146 174.61139 -20.787819 -92.25074
27175000000 -22.432089 -103.8788 -0.41146168 174.37503 -0.37476149 174.49239 -21.210339 -90.850777
27200000000 -22.898817 -103.95043 -0.40970922 174.11934 -0.37066409 174.25563 -21.278063 -93.952705
27225000000 -22.728649 -107.62594 -0.41088942 174.00536 -0.37431443 174.12019 -20.816595 -92.974785
27250000000 -22.433828 -106.39739 -0.403079 173.86464 -0.36504114 173.99794 -21.072937 -92.611404
27275000000 -22.744211 -104.6424 -0.40495467 173.69542 -0.35737571 173.77654 -21.12529 -94.789528
27300000000 -22.882204 -107.62124 -0.40648195 173.48869 -0.36865929 173.5777 -20.925686 -92.443436
27325000000 -22.389038 -106.20432 -0.41086194 173.31256 -0.36695936 173.43626 -21.528725 -92.450943
27350000000 -23.084511 -103.91753 -0.39960206 173.11589 -0.35600501 173.16586 -21.131674 -98.001823
27375000000 -23.131062 -108.35331 -0.39209315 172.97183 -0.36881605 172.97331 -20.329199 -93.519958
27400000000 -22.691719 -108.58356 -0.42504564 172.73064 -0.38258299 172.87595 -21.454851 -87.59539
27425000000 -22.756666 -105.63217 -0.44355106 172.60576 -0.39437267 172.61357 -22.590874 -97.258591
27450000000 -22.899101 -105.87192 -0.42022541 172.46268 -0.39335912 172.44469 -21.146589 -99.966225
27475000000 -23.164907 -105.77672 -0.41634434 172.36177 -0.39359847 172.46117 -20.896494 -91.971977
27500000000 -23.063871 -108.65021 -0.42881757 172.34087 -0.39407632 172.32001 -21.961884 -92.426727
27525000000 -22.896662 -106.74751 -0.41995752 172.12082 -0.3896873 172.08717 -21.619812 -97.660408
27550000000 -23.257652 -106.56167 -0.39963341 171.93796 -0.38401535 172.04936 -21.231764 -93.953239
27575000000 -23.308958 -106.59002 -0.41357931 171.76326 -0.37967375 171.87341 -21.887909 -93.499382
27600000000 -23.38859 -106.29686 -0.40992621 171.56482 -0.38302651 171.62688 -21.836735 -97.948967
27625000000 -23.210154 -107.20694 -0.39425054 171.4453 -0.38558182 171.51036 -21.322245 -96.348892
27650000000 -23.275328 -105.53393 -0.39839095 171.24995 -0.37574622 171.42345 -21.720535 -94.353508
27675000000 -23.530794 -107.08561 -0.411814 171.09599 -0.37492168 171.21684 -21.98152 -97.306259
27700000000 -22.967459 -106.55695 -0.40173373 170.93535 -0.37366411 171.04077 -21.640224 -97.223625
27725000000 -23.495277 -101.47257 -0.37057588 170.72327 -0.35656542 170.93993 -21.862812 -95.793373
27750000000 -23.765753 -108.17445 -0.39846039 170.57289 -0.36493504 170.69173 -21.929667 -98.062363
27775000000 -22.768909 -108.04926 -0.40086836 170.47539 -0.37271929 170.54434 -21.568806 -98.249985
27800000000 -23.054754 -102.57941 -0.37926748 170.23077 -0.3534627 170.43941 -21.867403 -96.321449
27825000000 -23.624155 -103.95399 -0.40073127 170.01617 -0.34659231 170.1707 -22.234474 -97.902069
27850000000 -23.390619 -106.26104 -0.39342129 169.85979 -0.36004791 169.96756 -21.957556 -100.04028
27875000000 -23.137228 -106.50618 -0.38344219 169.73009 -0.35527101 169.76994 -21.744265 -98.477295
27900000000 -23.079996 -104.92271 -0.38998228 169.52013 -0.35231897 169.49457 -22.031616 -97.925224
27925000000 -23.494343 -106.91836 -0.4004961 169.36868 -0.36548871 169.38129 -22.156931 -99.713097
27950000000 -22.930014 -107.99403 -0.40319091 169.16267 -0.3618018 169.25089 -21.985779 -99.258575
27975000000 -23.010696 -102.78254 -0.38793457 168.96426 -0.35021091 169.01149 -22.159922 -99.187103
28000000000 -23.653353 -106.71663 -0.39624211 168.79608 -0.36536786 168.88475 -22.192627 -101.58437
28025000000 -23.002691 -108.81117 -0.40131828 168.74638 -0.37263703 168.78618 -21.880686 -100.26171
28050000000 -23.134455 -105.56181 -0.39942384 168.57442 -0.36105612 168.54678 -22.270502 -98.043976
28075000000 -23.368179 -108.02827 -0.40541059 168.27562 -0.3716169 168.42143 -22.658121 -100.71889
28100000000 -23.020811 -106.23317 -0.40951964 168.17557 -0.37668231 168.38541 -21.996792 -102.07079
28125000000 -23.563816 -107.18729 -0.4060623 168.07771 -0.36476183 168.14592 -21.964966 -99.198547
28150000000 -23.206701 -110.30137 -0.40098184 167.92763 -0.37088883 167.96005 -22.58737 -99.157188
28175000000 -22.965906 -107.27517 -0.40105033 167.80812 -0.36920294 167.94322 -22.21932 -102.39079
28200000000 -23.468287 -107.27888 -0.40358767 167.61565 -0.3567206 167.7187 -21.993088 -98.739685
28225000000 -23.417011 -108.9473 -0.39550066 167.41338 -0.35135496 167.5145 -22.906073 -97.819847
28250000000 -23.012331 -109.68542 -0.3680205 167.30664 -0.33096316 167.4805 -22.536177 -107.3753
28275000000 -23.230288 -110.29519 -0.36089092 167.23901 -0.31356457 167.30669 -20.985706 -102.60809
28300000000 -23.805685 -108.23572 -0.37239856 166.99069 -0.31376332 166.91608 -21.959181 -87.408157
28325000000 -23.128675 -113.38698 -0.3298848 166.60988 -0.29356158 166.61145 -25.908405 -97.462685
28350000000 -23.382797 -109.67562 -0.32563111 166.10585 -0.27435657 166.26437 -22.658365 -126.25154
28375000000 -23.75337 -107.08649 -0.39278799 165.99466 -0.33355367 165.98149 -19.648439 -108.11046
28400000000 -23.630749 -114.17254 -0.42533833 166.03252 -0.39502904 165.92851 -20.981342 -83.072815
28425000000 -23.133892 -107.81185 -0.45107427 165.79585 -0.40208179 165.86885 -26.236891 -85.648781
28450000000 -23.746866 -108.53477 -0.43240219 165.75571 -0.38444567 165.71765 -23.711653 -117.69404
28475000000 -23.679741 -111.9656 -0.41173744 165.75668 -0.37953705 165.68269 -21.211349 -102.34563
28500000000 -23.508383 -110.87743 -0.39544809 165.58067 -0.3720077 165.60533 -22.880838 -90.681152
28525000000 -23.702387 -110.36938 -0.39786351 165.27109 -0.36999029 165.31061 -24.065954 -104.22992
28550000000 -23.939953 -111.69337 -0.40017244 165.16113 -0.36905468 165.13008 -22.395081 -103.74905
28575000000 -23.655752 -112.88266 -0.37750658 165.16846 -0.36567774 165.0412 -23.04525 -95.704437
28600000000 -23.545866 -109.26257 -0.37786585 164.70036 -0.37095502 164.83366 -23.818916 -102.8933
28625000000 -24.081224 -109.53178 -0.41190654 164.56387 -0.3746905 164.66528 -22.508188 -103.4259
28650000000 -23.997332 -113.95838 -0.3768248 164.70955 -0.36310586 164.61208 -22.90263 -96.983154
28675000000 -23.818726 -109.75471 -0.36562943 164.20248 -0.35646668 164.37448 -23.908175 -101.77779
28700000000 -24.102638 -111.02325 -0.40665108 164.02425 -0.36730927 164.14911 -23.030521 -104.98006
28725000000 -23.757679 -110.93316 -0.39044926 164.03746 -0.36398625 164.08269 -23.04352 -99.29409
28750000000 -24.201654 -108.58566 -0.37249327 163.72604 -0.35960433 163.92291 -23.775461 -102.95145
28775000000 -24.176804 -111.98373 -0.39573494 163.55881 -0.36112311 163.71097 -22.988686 -104.61236
28800000000 -23.771639 -110.60596 -0.37915209 163.45192 -0.35031739 163.63292 -23.253908 -99.307755
28825000000 -24.28447 -108.40356 -0.37278482 163.28322 -0.33421561 163.40436 -24.004478 -102.97155
28850000000 -24.061937 -111.96474 -0.38210201 163.02856 -0.35535842 163.14252 -23.031733 -105.27245
28875000000 -23.839325 -109.60247 -0.3840352 162.85178 -0.34842837 163.07069 -23.147171 -99.078514
28900000000 -24.274715 -109.3768 -0.38807559 162.73697 -0.33332333 162.88635 -24.092222 -102.12054
28925000000 -24.380335 -110.65134 -0.3888036 162.57867 -0.3484883 162.60181 -23.236753 -105.83479
28950000000 -24.040745 -113.46883 -0.38353217 162.40836 -0.34643373 162.50192 -23.236847 -99.327385
28975000000 -23.80229 -109.51565 -0.38568997 162.16672 -0.32809594 162.29433 -24.198328 -102.14682
29000000000 -24.310019 -107.70577 -0.38776287 162.0929 -0.34533507 162.02618 -23.364519 -106.72485
29025000000 -24.53129 -112.86514 -0.38304177 161.96712 -0.35003847 161.93266 -23.143751 -99.945473
29050000000 -24.104935 -111.45123 -0.3793633 161.68546 -0.34013999 161.75832 -24.340258 -101.30812
29075000000 -24.467316 -110.82582 -0.3971701 161.5927 -0.34151039 161.52969 -23.654434 -107.42775
29100000000 -24.122955 -113.40936 -0.38666227 161.49974 -0.35736278 161.41988 -23.153721 -100.47374
29125000000 -24.127285 -110.19592 -0.36595798 161.18698 -0.33968437 161.25775 -24.245169 -99.62989
29150000000 -24.53492 -110.54136 -0.37439838 160.9967 -0.34341657 160.95232 -23.907856 -106.67543
29175000000 -24.545235 -112.93581 -0.398478 160.93404 -0.36938599 160.91138 -23.312294 -100.62411
29200000000 -24.478642 -113.76615 -0.36895245 160.76878 -0.3531771 160.79207 -24.299259 -99.810867
29225000000 -24.204548 -113.70811 -0.38092974 160.37811 -0.35445806 160.5627 -24.105387 -105.90114
29250000000 -24.130791 -109.97199 -0.40251058 160.42809 -0.36025012 160.50774 -23.438547 -101.16026
29275000000 -24.975845 -111.1925 -0.36232975 160.31363 -0.34205645 160.35472 -24.465271 -98.720345
29300000000 -24.853945 -113.99351 -0.37378415 159.96135 -0.3414726 160.06102 -24.464201 -105.35259
29325000000 -24.580257 -114.7168 -0.38685498 159.91884 -0.34760728 159.93915 -23.640053 -102.11097
29350000000 -24.507977 -113.52833 -0.37890065 159.79675 -0.33853418 159.83534 -24.366676 -98.647316
29375000000 -24.79208 -112.09061 -0.36258635 159.4364 -0.33222565 159.5502 -24.583607 -103.75651
29400000000 -24.804768 -113.53024 -0.38308635 159.37898 -0.33763871 159.36215 -23.935587 -101.57366
29425000000 -24.764853 -112.67274 -0.37252614 159.29904 -0.3444443 159.2686 -24.580914 -98.877182
29450000000 -25.487286 -112.97923 -0.37139055 158.98964 -0.32816306 159.02477 -24.739889 -103.87964
29475000000 -24.898111 -118.17174 -0.37394065 158.92686 -0.34229201 158.81387 -23.991138 -101.28978
29500000000 -24.564028 -112.78933 -0.36094344 158.65254 -0.32993793 158.76135 -24.81423 -97.481491
29525000000 -25.296814 -110.41209 -0.36305305 158.46495 -0.321877 158.41508 -25.158886 -104.57229
29550000000 -25.38167 -113.3614 -0.37491971 158.29805 -0.34969783 158.21323 -24.238787 -104.20631
29575000000 -25.331408 -113.52339 -0.3662428 158.27419 -0.34922573 158.1815 -24.67063 -98.592201
29600000000 -25.716694 -113.22858 -0.36294374 158.03372 -0.33615541 158.01646 -25.373537 -101.78246
29625000000 -25.411938 -113.45683 -0.36181739 157.73944 -0.34728971 157.71255 -24.751419 -103.31017
29650000000 -25.486809 -112.82106 -0.35511002 157.6696 -0.34724244 157.63185 -25.028996 -99.730583
29675000000 -25.435455 -111.1903 -0.35745889 157.4519 -0.3391138 157.38811 -25.420519 -103.678
29700000000 -25.684395 -111.67242 -0.37360415 157.22281 -0.36306709 157.17215 -24.677746 -103.69708
29725000000 -25.494219 -112.80245 -0.35777092 157.31207 -0.36175254 157.19215 -25.000675 -97.485519
29750000000 -25.79038 -109.64782 -0.32878318 156.93031 -0.33897239 157.08978 -25.999914 -100.61292
29775000000 -25.563232 -112.01762 -0.36635485 156.63164 -0.34239593 156.77577 -25.067316 -107.1377
29800000000 -25.129183 -111.8913 -0.36514151 156.63368 -0.36286858 156.63475 -24.635742 -101.11933
29825000000 -25.595829 -107.27218 -0.33517757 156.44858 -0.333855 156.5188 -25.343435 -99.745369
29850000000 -25.888441 -112.65624 -0.35957235 156.13828 -0.33996111 156.28519 -25.194633 -103.40789
29875000000 -25.270924 -111.11634 -0.35089904 155.98976 -0.34961376 156.14613 -24.9937 -100.72135
29900000000 -25.739716 -108.68266 -0.33648312 155.77702 -0.31921571 156.02301 -25.444771 -101.83681
29925000000 -25.681776 -113.18654 -0.37324652 155.56073 -0.33077148 155.7395 -24.978304 -106.79377
29950000000 -25.297394 -112.86526 -0.36115259 155.52007 -0.3563295 155.60672 -24.526846 -101.09714
29975000000 -25.732279 -109.41621 -0.34252355 155.33421 -0.31718627 155.53061 -25.38871 -98.010963
30000000000 -25.854351 -111.94317 -0.34467235 154.94455 -0.32453963 155.20932 -25.498783 -104.98695
30025000000 -25.585102 -113.80111 -0.38404468 154.78955 -0.34112665 155.08586 -24.720297 -103.88625
30050000000 -25.367657 -112.62584 -0.37419787 154.78697 -0.32921338 154.84959 -24.896652 -100.88393
30075000000 -25.911129 -111.08397 -0.38310379 154.53091 -0.33549899 154.64935 -25.101851 -102.90096
30100000000 -25.727331 -114.71587 -0.37480685 154.52061 -0.3379249 154.51967 -24.782005 -100.35517
30125000000 -25.638218 -109.50027 -0.34727144 154.1478 -0.32732186 154.33939 -25.485085 -98.56916
30150000000 -26.435658 -109.79458 -0.37528449 153.95621 -0.31263965 154.103 -25.545698 -106.28967
30175000000 -26.356817 -117.37972 -0.40431282 153.94095 -0.34668261 153.92329 -24.447039 -103.4108
30200000000 -25.780691 -114.52505 -0.38333848 153.87204 -0.35436073 153.8446 -24.695753 -96.468506
30225000000 -26.344126 -113.59662 -0.37258315 153.6127 -0.32795408 153.64136 -25.766121 -99.819878
30250000000 -26.040428 -113.5679 -0.37518096 153.37279 -0.35026303 153.36717 -25.233576 -103.63125
30275000000 -26.427084 -111.0795 -0.38064867 153.17535 -0.34427601 153.32689 -24.996513 -100.38728
30300000000 -26.885302 -114.88877 -0.39057386 153.1572 -0.33100748 153.07037 -25.43572 -102.29576
30325000000 -26.57317 -117.17672 -0.39371431 153.00458 -0.3578479 152.94205 -24.773893 -101.31285
30350000000 -26.378056 -115.20931 -0.3649419 153.01607 -0.33928517 152.91034 -25.339376 -95.758171
30375000000 -26.714722 -111.67649 -0.33466059 152.49059 -0.32956424 152.59612 -26.558128 -101.77428
30400000000 -26.949181 -112.4807 -0.39063501 152.34167 -0.33692512 152.40546 -25.293367 -108.17973
30425000000 -26.928419 -115.45367 -0.38247871 152.54692 -0.34248161 152.27629 -24.448885 -99.138367
30450000000 -27.473341 -113.93613 -0.34344858 152.2012 -0.34036034 152.1208 -25.797705 -95.78421
30475000000 -27.343697 -119.95956 -0.35933873 151.91594 -0.33336794 151.88417 -26.048954 -102.59335
30500000000 -26.315712 -114.535 -0.3447026 151.70529 -0.34220684 151.67485 -25.642984 -100.80635
30525000000 -27.176653 -107.32839 -0.34698153 151.35555 -0.33039203 151.48441 -26.198349 -102.53149
30550000000 -28.172342 -113.9095 -0.38719285 151.37708 -0.33705437 151.22939 -25.463415 -106.08544
30575000000 -27.52883 -116.65025 -0.35568246 151.44551 -0.35936001 151.2226 -25.015131 -98.124367
30600000000 -28.031647 -113.3344 -0.31056571 151.03702 -0.32653087 151.12637 -26.849331 -95.467743
30625000000 -27.367945 -117.1489 -0.35449439 150.67122 -0.34193027 150.8063 -26.68261 -109.66217
30650000000 -26.805037 -111.58522 -0.36806375 150.47417 -0.36019632 150.64014 -25.314037 -105.78301
30675000000 -27.725233 -107.43049 -0.37338182 150.48004 -0.34283686 150.41434 -25.944069 -100.56223
30700000000 -28.863201 -113.0127 -0.35239303 150.35716 -0.35998753 150.20354 -26.134054 -105.42503
30725000000 -28.046371 -118.131 -0.34295663 150.04565 -0.35184473 150.20227 -25.758383 -101.8555
30750000000 -27.49666 -114.48573 -0.34635398 149.69647 -0.33471349 149.99762 -26.929289 -102.96057
30775000000 -27.411282 -113.41835 -0.36370343 149.53003 -0.35755149 149.80078 -26.385284 -114.74182
30800000000 -26.913347 -112.69776 -0.41342798 149.51064 -0.37156501 149.68246 -24.908987 -106.52208
30825000000 -27.803253 -103.37164 -0.35909891 149.47055 -0.36809668 149.46242 -26.14336 -98.783752
30850000000 -30.1383 -112.91473 -0.3491872 149.04953 -0.34871492 149.38416 -27.061094 -109.33295
30875000000 -27.396614 -124.26514 -0.40467617 148.88284 -0.35766295 149.21458 -25.849281 -110.63187
30900000000 -26.451073 -110.59918 -0.38190007 148.51015 -0.37316948 148.94037 -26.285797 -107.23792
30925000000 -28.359472 -106.39978 -0.42897731 148.54529 -0.36552876 148.83459 -26.118317 -111.45186
30950000000 -28.14802 -117.79623 -0.41333547 148.76596 -0.36435744 148.70195 -25.252251 -106.10566
30975000000 -27.489517 -109.76387 -0.36817622 148.157 -0.35634238 148.48936 -26.771059 -100.56413
31000000000 -29.676943 -111.14804 -0.39379308 147.97061 -0.33870816 148.34674 -27.386049 -115.39892
31025000000 -27.824261 -133.13269 -0.44962358 147.98311 -0.35399771 148.31392 -25.292709 -113.37785
31050000000 -24.202278 -121.562 -0.49030122 147.81996 -0.38429686 148.17073 -25.604782 -101.92424
31075000000 -25.146013 -92.165085 -0.39740324 147.82248 -0.40269887 148.00615 -26.805639 -105.78944
31100000000 -33.940479 -74.872284 -0.39447233 147.54431 -0.34351176 147.83829 -26.389526 -108.60704
31125000000 -29.691048 -174.14789 -0.46268982 147.56737 -0.30552238 147.6281 -26.894053 -103.24197
31150000000 -23.94047 -143.50424 -0.4350723 147.09366 -0.31881645 147.5992 -26.770277 -111.32024
31175000000 -23.511675 -106.23202 -0.45055726 147.08978 -0.35162863 147.35826 -25.307207 -108.45905
31200000000 -27.203209 -72.013199 -0.42731899 147.35127 -0.40823057 146.88179 -26.069899 -97.956726
31225000000 -40.347221 -131.57042 -0.37877119 146.82977 -0.37269923 146.7928 -27.909842 -104.56786
31250000000 -25.716562 -143.51469 -0.42033413 146.46999 -0.34560385 146.68968 -26.832027 -109.65079
31275000000 -23.429468 -103.29538 -0.43299013 146.14912 -0.41345841 146.52794 -27.225283 -102.35194
31300000000 -28.53507 -69.134041 -0.43510246 146.37479 -0.39344555 146.34988 -26.821898 -109.33537
31325000000 -31.71085 -159.28542 -0.41457185 146.53555 -0.34076869 146.08939 -25.688473 -105.194
31350000000 -23.476488 -124.43968 -0.40728641 145.82147 -0.35079128 145.88875 -27.777277 -90.531151
31375000000 -24.761221 -71.380554 -0.39470384 145.60075 -0.38253617 145.46573 -30.058214 -111.94997
31400000000 -38.118233 105.17551 -0.4086107 145.78949 -0.36019111 145.43033 -25.710567 -115.9483
31425000000 -20.229034 -157.24464 -0.55764073 145.62411 -0.38612393 145.89922 -25.510738 -88.62072
31450000000 -17.145559 -95.133743 -0.41674489 145.58347 -0.44557515 146.70821 -29.245905 -88.211823
31475000000 -18.361097 -8.991621 -0.36825055 145.29791 -0.36400962 146.68761 -29.130402 -116.9593
31500000000 -16.357965 98.561462 -0.58015043 146.06502 -0.13624887 146.34372 -27.375942 -91.675575
31525000000 -13.152182 173.85532 -0.51546216 145.19582 0.038827974 145.61398 -27.746958 -92.051773
31550000000 -13.896822 -114.44571 -0.4048889 144.32991 -0.12621115 144.59673 -28.273092 -111.5735
31575000000 -16.923462 -36.812729 -0.26723996 145.44254 -0.3526428 143.32918 -25.997044 -95.932983
31600000000 -23.250849 73.213203 -0.31085071 145.18192 -0.44016096 143.34598 -29.56418 -92.159973
31625000000 -20.343615 -171.10039 -0.3507714 143.7652 -0.40041545 143.61475 -30.35919 -109.21379
31650000000 -19.372881 -93.860657 -0.3082833 143.69615 -0.47590429 143.21487 -26.926544 -106.95006
31675000000 -25.590166 -28.31459 -0.3017275 144.12375 -0.51025522 143.52675 -28.229845 -96.464233
31700000000 -31.805168 161.83736 -0.35359105 143.68697 -0.38310325 143.61082 -30.2577 -100.32521
31725000000 -24.123262 -125.30796 -0.30398172 143.14273 -0.37520888 143.2215 -28.18428 -103.05916
31750000000 -26.71174 -77.106461 -0.31718215 142.98 -0.40525484 143.30972 -29.605486 -94.514755
31775000000 -34.50145 -117.66968 -0.36991441 142.84032 -0.33382607 143.1059 -29.870619 -106.37059
31800000000 -26.875193 -119.21574 -0.36876142 142.47752 -0.36694312 142.70099 -27.653957 -103.70188
31825000000 -27.994093 -85.062271 -0.38367942 142.68732 -0.40415415 142.80708 -28.420433 -88.591675
31850000000 -36.149792 -115.44655 -0.31405595 142.43277 -0.34668261 142.67168 -31.157833 -95.432693
31875000000 -26.98914 -126.96483 -0.39087802 141.58945 -0.35846388 142.20541 -28.992413 -110.37572
31900000000 -25.920265 -93.835938 -0.42448148 142.02017 -0.41744459 142.14752 -28.018126 -95.259979
31925000000 -31.892366 -81.861374 -0.36715102 141.83774 -0.36697245 142.1447 -29.328083 -95.875595
31950000000 -30.556015 -121.01004 -0.41410497 141.55743 -0.34689867 141.69664 -28.608662 -99.759995
31975000000 -28.613976 -101.11906 -0.3797169 141.53877 -0.39678481 141.54153 -28.51972 -91.794258
32000000000 -31.998579 -99.694862 -0.3759197 141.08638 -0.36042318 141.63403 -29.676699 -96.43161
32025000000 -28.895172 -122.73582 -0.45547459 140.98631 -0.35428461 141.22562 -28.494341 -104.49881
32050000000 -27.281794 -101.8669 -0.42018059 141.06825 -0.41639152 141.21521 -27.269884 -92.199593
32075000000 -30.244831 -88.334686 -0.40904915 140.87209 -0.36018592 141.24437 -29.059959 -89.808769
32100000000 -32.344788 -111.10268 -0.41594371 140.60349 -0.33645928 140.63724 -29.057369 -99.126595
32125000000 -29.576723 -111.98684 -0.438766 140.24135 -0.39439151 140.54854 -27.860149 -92.383514
32150000000 -29.720005 -108.14665 -0.45483094 140.43547 -0.36767662 140.57396 -28.607555 -94.531952
32175000000 -29.175325 -113.02306 -0.45075908 140.21225 -0.35255522 140.2422 -28.200842 -100.15706
32200000000 -27.988323 -102.37212 -0.48262915 140.36337 -0.39681122 140.18634 -26.893915 -90.748917
32225000000 -30.956827 -88.686111 -0.40727028 140.2274 -0.37985954 140.07741 -28.947985 -85.670815
32250000000 -32.724178 -118.96359 -0.42368126 139.56009 -0.35126689 139.75119 -29.100761 -98.609383
32275000000 -28.204556 -118.96501 -0.51697105 139.83693 -0.39023742 139.66745 -26.855619 -92.095428
32300000000 -28.563046 -105.59014 -0.41406679 139.94139 -0.38013422 139.76738 -28.036844 -88.483307
32325000000 -29.77297 -103.07301 -0.43230999 139.34787 -0.33320773 139.32907 -29.127213 -91.674408
32350000000 -29.069788 -99.398399 -0.45002204 139.64024 -0.38109428 138.92201 -27.434921 -87.735489
32375000000 -30.759869 -92.805214 -0.37308261 139.2373 -0.39213794 139.10849 -28.590858 -83.192154
32400000000 -31.533365 -111.29176 -0.44291845 138.81104 -0.34814849 138.74347 -29.428112 -93.389915
32425000000 -28.869335 -114.56119 -0.43943262 139.08481 -0.38506547 138.58583 -27.068115 -93.427765
32450000000 -28.251953 -104.06756 -0.39905155 138.99333 -0.35786641 138.76851 -28.210789 -82.647957
32475000000 -29.069784 -90.357864 -0.38080934 138.57884 -0.32216996 138.1494 -29.998825 -82.531456
32500000000 -29.843525 -90.37812 -0.39079845 138.30621 -0.38648733 137.81172 -28.076311 -91.083099
32525000000 -31.172274 -93.271538 -0.41264567 138.37877 -0.39414206 138.04033 -27.981298 -82.316086
32550000000 -31.527248 -106.00658 -0.36707333 138.07381 -0.37245926 137.78732 -29.836334 -83.521851
32575000000 -28.27112 -108.12547 -0.394402 137.85625 -0.37962306 137.53934 -28.220985 -91.275818
32600000000 -27.578293 -90.086037 -0.37076661 138.01213 -0.37781253 137.6284 -28.176748 -79.199677
32625000000 -29.890636 -77.537926 -0.3197566 137.47165 -0.34119633 137.39674 -29.941147 -77.432076
32650000000 -30.235779 -93.041016 -0.39831498 137.13338 -0.37491664 136.85719 -28.454325 -93.416069
32675000000 -29.955025 -93.217682 -0.35436544 137.37936 -0.40569007 137.08186 -27.563869 -84.658531
32700000000 -30.220737 -96.578888 -0.33404472 136.93553 -0.34916747 137.03206 -29.558537 -77.554115
32725000000 -28.129385 -98.515778 -0.35102212 136.64723 -0.36160496 136.32408 -28.591652 -92.957787
32750000000 -27.847965 -83.068604 -0.31147709 136.63484 -0.39873666 136.52853 -27.814203 -83.299454
32775000000 -30.14872 -77.103897 -0.33380255 136.06439 -0.33535749 136.43121 -29.511034 -80.961517
32800000000 -30.916122 -92.460754 -0.37941477 135.96359 -0.37223387 135.86324 -28.764589 -99.515434
32825000000 -30.089951 -96.108093 -0.35834733 136.04012 -0.40555725 136.07892 -27.189878 -89.354294
32850000000 -30.097466 -90.750916 -0.34241766 135.70566 -0.35016632 135.99535 -29.133642 -80.638153
32875000000 -29.648851 -93.883354 -0.33402941 135.37088 -0.34789276 135.49059 -28.998327 -99.312675
32900000000 -28.771711 -88.016853 -0.38409606 135.13098 -0.39760271 135.29951 -27.620529 -92.483788
32925000000 -29.982697 -76.607773 -0.35771587 135.15526 -0.37122425 135.41249 -29.044346 -87.824219
32950000000 -32.301754 -85.82019 -0.36887598 134.68474 -0.34994948 135.07704 -28.694366 -105.34663
32975000000 -30.939911 -95.867989 -0.43083057 134.81203 -0.39636284 134.88942 -27.114456 -94.084213
33000000000 -30.620617 -86.98922 -0.33384591 134.69777 -0.36145532 135.03008 -29.031109 -86.456703
33025000000 -30.384472 -93.376801 -0.39973006 133.96426 -0.32990646 134.57268 -29.490084 -110.59157
33050000000 -30.116285 -82.375229 -0.47131351 134.37323 -0.39743918 134.20782 -26.97773 -100.28244
33075000000 -32.815407 -75.27137 -0.38104263 134.37553 -0.39427048 134.47595 -27.94523 -92.319656
33100000000 -34.791286 -105.70492 -0.42092073 133.80853 -0.32975987 134.21263 -29.359324 -105.30144
33125000000 -31.067314 -109.07023 -0.41999915 133.97836 -0.37390038 133.9706 -27.656275 -101.22103
33150000000 -30.746159 -95.902298 -0.40485507 133.6562 -0.36311188 134.02556 -29.042398 -94.434402
33175000000 -31.513315 -97.333 -0.42269793 133.38792 -0.31189778 133.60542 -29.933727 -113.28276
33200000000 -31.919115 -91.643814 -0.44997421 133.64156 -0.37708589 133.34566 -27.019215 -102.70818
33225000000 -33.339031 -85.702591 -0.42494026 133.53154 -0.38689369 133.41696 -28.362404 -90.939064
33250000000 -36.378319 -112.94685 -0.37605342 133.03139 -0.31758851 133.21884 -31.111506 -106.15898
33275000000 -31.275885 -121.5107 -0.45063126 132.88374 -0.34750837 133.03146 -28.355518 -106.06464
33300000000 -29.987564 -101.1567 -0.44402236 133.13857 -0.35803106 132.97723 -28.44603 -95.656815
33325000000 -33.460972 -83.545166 -0.39441594 132.72342 -0.3090739 132.62762 -30.35548 -103.38614
33350000000 -36.754391 -104.94175 -0.43507409 132.81503 -0.33399776 132.24919 -28.057997 -100.22329
33375000000 -35.580612 -120.80853 -0.35871968 132.70468 -0.35390809 132.28145 -29.341991 -90.176567
33400000000 -33.241756 -131.56822 -0.3785207 132.02658 -0.3168661 132.12411 -32.339931 -101.04707
33425000000 -30.129707 -121.82305 -0.43744409 132.1075 -0.33497143 131.87827 -29.083487 -105.96066
33450000000 -29.844946 -104.56078 -0.37783822 132.43686 -0.36017615 132.05423 -28.68832 -92.058121
33475000000 -32.933281 -84.945168 -0.35164768 131.83815 -0.31097794 131.63649 -32.458099 -86.792717
33500000000 -35.847549 -97.89463 -0.36584401 131.54526 -0.32721755 131.10274 -30.760099 -100.84736
33525000000 -34.714043 -117.43352 -0.35194284 131.56483 -0.35721317 131.27205 -30.101765 -92.130066
33550000000 -32.303844 -121.25073 -0.37153253 131.1507 -0.31409186 131.11166 -32.827244 -94.201653
33575000000 -30.287176 -112.1032 -0.35639963 131.20552 -0.31782329 130.82986 -30.341925 -101.59801
33600000000 -29.888979 -91.412216 -0.35009715 131.3354 -0.34962544 130.84128 -29.572443 -83.957687
33625000000 -33.511089 -66.693047 -0.28738752 130.8231 -0.31934553 130.59247 -33.688568 -73.957146
33650000000 -37.290268 -100.7184 -0.32954487 130.27892 -0.3205092 130.2263 -32.703976 -102.61024
33675000000 -32.534618 -113.97601 -0.36312139 130.37541 -0.34048116 130.23547 -30.240343 -92.495491
33700000000 -31.61245 -100.85291 -0.30775532 130.39653 -0.30311164 130.2036 -33.103443 -79.177124
33725000000 -31.219904 -92.981628 -0.291664 129.90005 -0.29186711 129.68503 -32.520336 -89.089226
33750000000 -30.461775 -81.437149 -0.29920471 129.68268 -0.35304365 129.44209 -31.590387 -82.01416
33775000000 -33.230354 -62.653908 -0.27205044 129.53937 -0.33505106 129.60591 -35.074089 -74.56488
33800000000 -37.206287 -89.955589 -0.33837536 128.84317 -0.30659109 129.16493 -33.393551 -102.73995
33825000000 -32.374638 -109.19707 -0.33121684 129.28384 -0.32565555 129.15053 -30.659843 -87.78952
33850000000 -30.552042 -83.651314 -0.26390436 129.04048 -0.28121626 129.09833 -33.180584 -61.26733
33875000000 -31.625296 -69.303711 -0.29049504 128.20476 -0.26773903 128.45299 -35.571251 -92.263039
33900000000 -33.582355 -69.753189 -0.33897865 128.14769 -0.34427878 128.20296 -32.154701 -88.418907
33925000000 -34.775173 -74.897598 -0.33726713 128.24434 -0.34517512 128.38672 -32.87476 -76.14637
33950000000 -35.637463 -86.383865 -0.34045738 127.81245 -0.29451197 128.19528 -33.914993 -91.126312
33975000000 -32.766762 -95.129143 -0.36200514 127.93224 -0.32072261 127.86295 -31.444187 -83.431076
34000000000 -31.109785 -76.43399 -0.31450829 127.57401 -0.30867109 127.8101 -32.985043 -64.107155
34025000000 -31.868889 -62.053661 -0.33178389 127.16399 -0.27864531 127.373 -36.095379 -88.623596
34050000000 -33.97839 -48.905392 -0.44262233 127.09324 -0.36269987 126.99274 -31.159548 -86.295723
34075000000 -38.937073 -63.834103 -0.3695558 127.48959 -0.36542293 127.32525 -31.345594 -75.117195
34100000000 -37.93618 -98.42421 -0.33612549 126.8685 -0.29839572 127.09998 -34.397465 -71.105392
34125000000 -32.145351 -93.703247 -0.41747725 126.6375 -0.32438231 126.59344 -32.680584 -78.695053
34150000000 -31.126509 -67.411461 -0.36577466 126.86126 -0.36185822 126.68517 -31.600342 -70.612076
34175000000 -33.798492 -46.277611 -0.38178471 126.37063 -0.32376987 126.48382 -34.080456 -73.813255
34200000000 -39.351982 -55.787369 -0.44834 126.41694 -0.33659551 126.15064 -31.126072 -83.347771
34225000000 -37.335152 -92.251945 -0.3689737 126.73837 -0.34242573 126.30038 -31.286964 -69.910187
34250000000 -35.507915 -82.632027 -0.3486864 125.8213 -0.29158807 125.98489 -34.014553 -56.68977
34275000000 -33.832092 -81.396896 -0.42449498 125.87811 -0.32635272 125.50216 -32.588799 -77.173988
34300000000 -32.777584 -69.985832 -0.4081108 126.19199 -0.38567474 125.69631 -29.986063 -76.623734
34325000000 -36.030674 -41.858753 -0.37139171 125.75018 -0.33550024 125.61134 -32.461723 -61.227524
34350000000 -45.583477 -83.391991 -0.39493421 125.72093 -0.32016143 125.13795 -32.16621 -71.096352
34375000000 -35.625637 -109.32052 -0.3688646 125.57607 -0.32759947 125.1758 -31.329313 -64.647705
34400000000 -34.205265 -88.304611 -0.34829468 125.16427 -0.30965635 124.92061 -33.014183 -51.364643
34425000000 -34.547394 -82.68586 -0.40463063 125.1961 -0.34001806 124.61899 -32.038166 -72.808502
34450000000 -35.41967 -86.845322 -0.36682636 125.33366 -0.34683177 124.73461 -30.105774 -68.545395
34475000000 -36.419395 -77.952187 -0.31214476 124.99068 -0.32540214 124.58591 -31.984434 -41.773968
34500000000 -36.386055 -90.221176 -0.35739976 124.49058 -0.31509671 124.09614 -33.605042 -56.769524
34525000000 -34.910381 -98.082901 -0.34013915 124.57301 -0.33371294 124.09042 -31.097048 -62.351452
34550000000 -33.497494 -93.619759 -0.33312246 124.39997 -0.31149694 124.02992 -31.802513 -41.96867
34575000000 -32.47184 -86.072037 -0.33311653 124.05781 -0.31753087 123.54338 -32.752316 -53.169315
34600000000 -32.440628 -80.858437 -0.33076751 124.30181 -0.35001296 123.67561 -30.881819 -58.252274
34625000000 -33.934437 -67.321884 -0.28064799 123.8995 -0.32678676 123.61855 -31.175549 -30.070621
34650000000 -34.130268 -89.154427 -0.30238789 123.1945 -0.30921075 123.05309 -33.904629 -45.273945
34675000000 -30.732994 -95.305946 -0.34172475 123.6791 -0.3201482 123.16019 -30.948124 -61.623417
34700000000 -29.968164 -72.557411 -0.26831457 123.52718 -0.29067525 123.15784 -29.683239 -32.595589
34725000000 -30.96714 -67.994637 -0.25931039 122.85146 -0.30173758 122.54011 -31.995802 -34.731945
34750000000 -30.741974 -76.97406 -0.31023321 122.81033 -0.34390137 122.43655 -31.277351 -53.186256
34775000000 -30.660961 -67.566826 -0.24953057 122.82512 -0.31881294 122.65736 -30.050356 -30.656765
34800000000 -30.818546 -71.399483 -0.24864654 122.23727 -0.2811856 122.20258 -31.588552 -29.950844
34825000000 -29.681684 -83.245987 -0.28655133 122.12759 -0.3018831 121.75951 -30.495298 -50.723862
34850000000 -27.636066 -74.12957 -0.23231818 122.29144 -0.2739915 121.98512 -28.629875 -32.027027
34875000000 -26.802456 -63.234261 -0.21398363 121.37906 -0.27373371 121.43231 -31.240454 -29.903282
34900000000 -28.736582 -59.379639 -0.31515619 121.11767 -0.33879656 121.23677 -31.541931 -53.740578
34925000000 -29.319386 -66.050323 -0.27002972 121.75777 -0.29353216 121.57478 -28.731098 -35.370022
34950000000 -27.397095 -66.227539 -0.19546601 120.76171 -0.21964914 120.96003 -29.021191 -30.415758
34975000000 -27.316698 -67.989243 -0.28263825 120.61431 -0.28722936 120.25845 -31.003906 -48.50758
35000000000 -26.410637 -62.153778 -0.26002416 120.80922 -0.33754006 120.59938 -28.935793 -40.924236
35025000000 -26.437265 -52.035046 -0.26145616 120.00457 -0.28504449 120.43901 -30.189314 -32.367226
35050000000 -28.031881 -51.813072 -0.31770572 120.169 -0.32267237 120.10632 -30.929552 -48.415768
35075000000 -28.319721 -55.091324 -0.26171947 120.21973 -0.30048266 120.28793 -28.137844 -38.961353
35100000000 -27.622292 -63.384239 -0.26132303 119.33115 -0.24141496 119.5826 -29.76458 -32.667515
35125000000 -26.288223 -64.388145 -0.32995051 119.36382 -0.33367687 118.91687 -31.888243 -47.851448
35150000000 -25.294001 -49.958794 -0.30910778 119.48942 -0.39567155 119.39449 -28.528591 -46.771042
35175000000 -26.6563 -35.63208 -0.29638594 119.23195 -0.32424885 119.58608 -28.663654 -30.617031
35200000000 -28.622665 -42.655937 -0.31500134 118.71243 -0.30290893 118.98616 -30.812859 -41.258392
35225000000 -27.970736 -52.387455 -0.32725841 119.01307 -0.32443291 118.81894 -28.315813 -43.134781
35250000000 -26.710815 -49.69268 -0.30619583 118.55105 -0.30440989 118.49368 -28.778349 -31.648291
35275000000 -26.662483 -44.087002 -0.37265536 118.28795 -0.3417438 118.00176 -30.358252 -40.472935
35300000000 -26.682005 -40.204571 -0.32428744 118.81033 -0.40901962 118.32588 -28.127922 -44.108761
35325000000 -26.533022 -29.614817 -0.27530608 118.17312 -0.33954567 118.54462 -27.676001 -26.794754
35350000000 -29.161875 -29.566227 -0.3379603 117.49524 -0.3004992 117.81938 -30.47962 -34.867397
35375000000 -28.315857 -52.474537 -0.35209036 118.02274 -0.38566241 117.52633 -28.08885 -43.712532
35400000000 -25.768127 -42.446049 -0.30704471 117.78354 -0.3612107 117.57304 -27.506922 -30.76989
35425000000 -26.512892 -28.708473 -0.33258426 117.31973 -0.35558999 117.17107 -28.992887 -32.929264
35450000000 -28.000685 -31.512749 -0.31189606 117.32848 -0.39050925 117.22412 -27.735401 -36.966656
35475000000 -27.248497 -31.287331 -0.28295708 117.02692 -0.34629741 117.20319 -27.136478 -26.014671
35500000000 -28.7852 -31.462095 -0.35201177 116.42568 -0.33806926 116.64082 -29.242754 -32.61253
35525000000 -28.558302 -46.177422 -0.33921713 116.85037 -0.39368919 116.41101 -27.103933 -41.973591
35550000000 -26.401104 -42.654701 -0.27269807 116.81714 -0.41229129 116.55043 -26.056055 -26.411177
35575000000 -25.799847 -31.709076 -0.29973349 115.96881 -0.37341568 116.30775 -27.749298 -23.70993
35600000000 -27.467922 -29.188343 -0.33411157 115.67089 -0.40651885 115.85851 -27.777122 -35.969154
35625000000 -27.798796 -39.563553 -0.34642279 115.91788 -0.40959921 116.00745 -26.113739 -30.444262
35650000000 -26.581053 -39.447208 -0.31376693 115.51043 -0.37374061 115.56497 -26.760056 -30.634109
35675000000 -26.964161 -40.64296 -0.32422081 115.35143 -0.44118303 115.284 -26.371319 -34.843914
35700000000 -25.778057 -44.191387 -0.2808674 115.07257 -0.44788638 115.51486 -25.392017 -25.694458
35725000000 -25.155888 -37.544991 -0.35581082 114.54185 -0.41345948 115.23371 -27.123457 -28.032892
35750000000 -27.098372 -39.732834 -0.4024874 114.52428 -0.45652342 114.85838 -26.488089 -40.587448
35775000000 -25.885925 -51.496681 -0.31886157 114.61938 -0.44771942 114.9614 -24.367874 -32.798847
35800000000 -24.518761 -49.820606 -0.34293911 113.99232 -0.42470762 114.64169 -25.624264 -28.380905
35825000000 -24.617199 -50.221912 -0.42704663 113.65032 -0.48043412 114.28362 -26.692627 -38.337997
35850000000 -23.919111 -50.417648 -0.39867654 113.75433 -0.52390116 114.40858 -25.041519 -38.491516
35875000000 -23.772886 -45.868477 -0.44044402 113.53756 -0.47325668 114.53876 -25.238455 -36.404732
35900000000 -24.546352 -50.478935 -0.46313912 113.31403 -0.47994515 114.01836 -25.667227 -43.81448
35925000000 -23.750734 -57.231182 -0.44862199 113.41125 -0.5143612 114.08451 -24.407358 -41.328533
35950000000 -22.558928 -56.487423 -0.43594611 112.92296 -0.44896084 113.84001 -25.403763 -40.427647
35975000000 -23.150492 -51.921642 -0.55110103 112.70395 -0.52565461 113.47949 -26.553707 -46.106277
36000000000 -23.473549 -57.529091 -0.55590194 113.28989 -0.57761848 113.8436 -24.634674 -50.245705
36025000000 -22.25811 -58.231453 -0.45777655 112.82284 -0.47260895 114.03014 -24.563797 -46.598427
36050000000 -22.876822 -55.260162 -0.54400551 112.66947 -0.4595854 113.46706 -26.14105 -50.197166
36075000000 -23.338543 -60.329887 -0.53913617 112.69387 -0.51517302 113.2449 -25.551405 -52.367172
36100000000 -22.423267 -60.271996 -0.52691233 112.52924 -0.49009952 113.2212 -25.934818 -50.934669
36125000000 -23.102989 -54.175991 -0.60091221 112.4973 -0.50267053 112.88821 -26.483858 -54.813164
36150000000 -23.495972 -56.851357 -0.54588819 112.7632 -0.52873611 113.14647 -25.082394 -56.903008
36175000000 -22.889603 -56.215286 -0.48785302 112.33528 -0.441057 113.20787 -25.493959 -49.643829
36200000000 -23.739925 -52.751202 -0.56290257 111.97707 -0.39665735 112.60345 -28.154604 -51.65274
36225000000 -24.296419 -52.944798 -0.58122694 112.12987 -0.48898542 112.12382 -26.512001 -57.546299
36250000000 -23.773018 -54.353214 -0.55246031 112.45211 -0.51279753 112.46078 -25.474718 -54.424179
36275000000 -23.683496 -48.730534 -0.50977153 111.91588 -0.44821575 112.19508 -26.880793 -51.164757
36300000000 -24.323362 -44.156235 -0.54662675 111.85596 -0.4710989 112.07024 -26.437565 -54.837303
36325000000 -24.719988 -45.962032 -0.51821548 111.65805 -0.42509663 112.02771 -26.417206 -50.18491
36350000000 -24.745626 -42.627808 -0.54131031 111.44055 -0.39780515 111.56171 -27.838171 -48.21843
36375000000 -25.322775 -39.420872 -0.57006973 111.77943 -0.46586189 111.07379 -26.235369 -57.571754
36400000000 -25.496773 -43.389275 -0.47814029 111.71449 -0.51459765 111.55828 -25.461874 -52.609779
36425000000 -25.248119 -38.478138 -0.44597241 111.0881 -0.42990881 111.48365 -26.917423 -43.856903
36450000000 -26.114468 -35.262695 -0.52552903 110.87027 -0.42528883 110.98271 -27.695313 -51.733532
36475000000 -26.272285 -36.330616 -0.50639164 110.95145 -0.44675705 110.96912 -26.268072 -55.020103
36500000000 -26.810534 -28.496719 -0.48984191 110.92134 -0.42133021 110.71159 -26.565308 -49.445011
36525000000 -28.521879 -31.683989 -0.46947575 110.70358 -0.43750685 110.4284 -26.73373 -52.421589
36550000000 -27.790651 -40.807678 -0.41097477 110.52148 -0.48701826 110.62157 -26.115627 -47.715012
36575000000 -27.022068 -34.367767 -0.4552449 109.88696 -0.41876194 110.61344 -27.432743 -40.87722
36600000000 -28.357407 -26.692904 -0.5010047 109.91722 -0.39701515 110.07452 -28.395576 -52.602222
36625000000 -29.599825 -29.375425 -0.47620863 110.39812 -0.44709259 109.96466 -26.050051 -56.867527
36650000000 -30.031614 -32.302521 -0.38111407 109.78235 -0.4155955 109.98112 -26.364676 -41.51281
36675000000 -30.083504 -37.74707 -0.41520259 109.2237 -0.42493868 109.61914 -28.027632 -41.539925
36700000000 -29.576622 -40.482994 -0.43218872 109.25201 -0.45463613 109.70042 -26.892687 -50.726292
36725000000 -28.794836 -34.657471 -0.41169581 108.80459 -0.40007544 109.67947 -27.070671 -44.144558
36750000000 -31.086079 -24.042042 -0.46905115 108.83514 -0.38103449 109.11112 -28.253073 -46.954937
36775000000 -33.002651 -43.360912 -0.41608495 108.93993 -0.41613054 109.07182 -26.440653 -51.673019
36800000000 -30.654537 -49.201344 -0.33820206 108.29772 -0.39924571 109.04354 -26.182302 -36.051414
36825000000 -30.439247 -46.185104 -0.46014655 107.78464 -0.40386415 108.75235 -28.841722 -36.367817
36850000000 -30.314793 -48.375023 -0.48573592 108.15975 -0.42502618 108.78355 -27.509817 -58.67672
36875000000 -30.393215 -39.929722 -0.4434177 108.08081 -0.38654634 108.64816 -26.232388 -47.161198
36900000000 -33.305378 -41.046154 -0.40477648 107.66676 -0.35742849 108.11171 -27.597641 -37.538624
36925000000 -31.2456 -63.836914 -0.40449566 107.28867 -0.41674638 108.06816 -27.265606 -43.633125
36950000000 -29.050623 -59.357239 -0.44674146 107.13736 -0.39178237 108.1513 -26.73258 -41.953011
36975000000 -29.474281 -53.003593 -0.46791005 106.84052 -0.36057204 107.77943 -28.486839 -41.827343
37000000000 -29.355089 -56.049286 -0.50490963 107.23974 -0.39066243 107.67339 -26.985966 -53.255795
37025000000 -28.719488 -50.921894 -0.4219861 106.96643 -0.33665848 107.51924 -25.724398 -39.025341
37050000000 -29.526409 -49.522053 -0.40627751 106.25735 -0.32483864 106.93276 -27.783054 -27.138308
37075000000 -29.155876 -62.489826 -0.5169462 106.27313 -0.40477213 106.87302 -27.773575 -46.212532
37100000000 -26.797642 -63.693729 -0.49137124 106.41723 -0.38096461 107.10324 -26.07221 -46.958984
37125000000 -26.297478 -47.824402 -0.48158303 106.21163 -0.33500817 106.68519 -26.935595 -36.329746
37150000000 -27.406811 -44.592247 -0.48622426 106.13476 -0.33883172 106.22467 -27.071295 -42.471931
37175000000 -26.919647 -45.578667 -0.44018734 105.86736 -0.35858256 106.06525 -25.478777 -38.281044
37200000000 -27.165422 -41.952957 -0.49891463 105.47616 -0.34709108 105.66348 -26.783079 -28.106363
37225000000 -27.322977 -49.714504 -0.51504284 105.68997 -0.39881822 105.54589 -27.177074 -46.292801
37250000000 -25.722315 -50.00058 -0.47497466 105.92989 -0.42014581 105.90088 -25.186626 -46.074993
37275000000 -25.283426 -36.906933 -0.43794832 105.32248 -0.31418663 105.46017 -25.464905 -29.10076
37300000000 -26.188866 -35.980618 -0.45976189 104.84605 -0.33968279 104.7086 -26.824902 -33.757668
37325000000 -25.744831 -40.537144 -0.5103938 105.25351 -0.43009767 104.71856 -25.02343 -43.0079
37350000000 -25.323914 -35.671333 -0.45204088 104.9781 -0.39309222 104.60352 -25.351313 -32.883419
37375000000 -25.630001 -35.743172 -0.47969058 104.69661 -0.42488745 104.40549 -26.187252 -39.593327
37400000000 -25.066263 -37.446083 -0.46153802 105.03625 -0.41748527 104.57789 -24.91707 -40.925446
37425000000 -24.282778 -29.435957 -0.37057817 104.16917 -0.35197556 104.23277 -24.652884 -27.554081
37450000000 -25.360662 -24.449781 -0.49448723 103.8794 -0.36518392 103.59454 -26.166876 -30.470404
37475000000 -25.575222 -32.67218 -0.46749863 104.44693 -0.45792016 103.67636 -24.98481 -45.378296
37500000000 -24.560955 -26.540636 -0.38922495 104.06817 -0.44539359 103.81929 -24.50765 -32.389771
37525000000 -25.64415 -22.212553 -0.43822789 103.44802 -0.38151509 103.43882 -25.562836 -30.15601
37550000000 -25.307875 -31.437199 -0.40275282 103.56965 -0.42699292 103.29199 -25.063719 -37.099125
37575000000 -23.675129 -23.678257 -0.40487698 103.11658 -0.40061992 103.13864 -24.480394 -29.37471
37600000000 -24.533785 -9.6727505 -0.45429543 102.878 -0.3689025 102.58726 -25.67194 -30.235622
37625000000 -26.781256 -12.562842 -0.39674965 103.00079 -0.43157071 102.58302 -24.952343 -39.800201
37650000000 -26.594135 -20.114204 -0.38874325 102.67381 -0.4194662 102.75419 -23.776314 -29.333551
37675000000 -26.32794 -21.621939 -0.38935858 102.08265 -0.39714381 102.38788 -25.123369 -24.307121
37700000000 -26.25288 -24.360262 -0.46061006 102.05604 -0.4280909 102.22871 -25.171537 -36.632233
37725000000 -25.400099 -20.45932 -0.42712292 101.99192 -0.41999784 102.09706 -23.993002 -32.436333
37750000000 -26.378258 -8.0136776 -0.42874011 101.72856 -0.40499741 101.71978 -24.818348 -28.193535
37775000000 -29.404692 -19.159691 -0.43001238 101.47861 -0.42220995 101.67528 -24.550268 -36.34272
37800000000 -27.11994 -36.904812 -0.40361011 101.31129 -0.43196714 101.87717 -23.445501 -31.2885
37825000000 -25.78653 -26.045071 -0.42533711 100.88072 -0.40535614 101.52084 -24.792883 -26.136721
37850000000 -27.526644 -20.65062 -0.52515328 100.90522 -0.42429012 101.19417 -25.075628 -39.709854
37875000000 -27.512596 -25.736753 -0.42748654 101.06977 -0.43318135 101.18201 -23.478947 -36.367043
37900000000 -28.07218 -18.596243 -0.44002733 100.40084 -0.4176375 100.90369 -23.94462 -27.757088
37925000000 -31.395767 -36.681316 -0.47069532 100.24696 -0.41538841 100.8821 -24.780594 -36.211872
37950000000 -27.806335 -56.745499 -0.47736639 100.21358 -0.40784705 101.07285 -23.575104 -38.288734
37975000000 -25.649944 -42.511463 -0.48231888 99.91272 -0.37363699 100.6836 -24.219566 -30.085846
38000000000 -26.866217 -32.117519 -0.52301723 99.938911 -0.41822121 100.23798 -24.845701 -37.822788
38025000000 -28.438511 -39.589531 -0.50774705 99.977539 -0.43070427 100.23119 -23.179052 -40.275936
38050000000 -27.586096 -46.929039 -0.4579432 99.467407 -0.40717632 100.05117 -23.374735 -29.45277
38075000000 -27.448984 -51.791965 -0.53080666 99.186913 -0.42072701 99.955879 -24.887403 -36.635605
38100000000 -26.464869 -58.597641 -0.60080248 99.606056 -0.39920518 100.05145 -23.686928 -44.143661
38125000000 -24.721123 -48.669373 -0.47711885 99.497017 -0.35825545 99.585197 -23.005375 -31.694687
38150000000 -25.568962 -40.888432 -0.54660851 98.858871 -0.40877578 99.028862 -24.294888 -34.442123
38175000000 -27.007507 -49.851231 -0.55871612 99.415321 -0.45814976 99.249146 -23.143343 -43.180859
38200000000 -25.7251 -56.815254 -0.4689883 98.891609 -0.40330768 99.200783 -22.769741 -32.231262
38225000000 -24.683094 -56.099098 -0.56448245 98.426407 -0.38487628 98.84993 -24.551971 -34.204514
38250000000 -24.013569 -52.071548 -0.5800727 99.207108 -0.41580424 98.870193 -23.363844 -43.829227
38275000000 -23.721891 -45.06657 -0.47153983 98.760681 -0.36607063 98.4953 -22.077646 -32.702827
38300000000 -24.291086 -46.059872 -0.51234794 97.972115 -0.41230083 97.748116 -23.700871 -29.122288
38325000000 -24.124157 -50.652859 -0.56130642 98.518234 -0.50355709 98.179176 -23.289948 -44.515121
38350000000 -23.32391 -48.029392 -0.50133175 98.258705 -0.4191038 98.301422 -22.261009 -34.772015
38375000000 -22.806955 -46.402092 -0.53217906 97.784897 -0.39151093 97.576279 -23.326061 -30.811739
38400000000 -22.317226 -43.154644 -0.51623535 98.435272 -0.44007826 97.398689 -22.788153 -42.516663
38425000000 -22.157946 -37.186447 -0.44044521 97.768829 -0.43916023 97.307121 -21.443766 -35.112099
38450000000 -23.159197 -36.741615 -0.49745744 97.078331 -0.46371117 96.75827 -22.856199 -28.488527
38475000000 -23.266127 -45.171158 -0.53654641 97.376091 -0.53869033 97.012619 -23.281837 -44.369949
38500000000 -22.108131 -42.703678 -0.49428833 97.474297 -0.48780093 97.375145 -21.679649 -38.013096
38525000000 -21.79678 -37.998356 -0.47281802 96.819603 -0.4225671 96.601105 -22.324656 -31.076698
38550000000 -21.875261 -38.03265 -0.5154832 96.725647 -0.49816957 96.078308 -22.853989 -42.139259
38575000000 -21.700111 -32.979771 -0.47286883 96.951469 -0.54582477 96.322708 -21.570454 -39.13797
38600000000 -22.98596 -28.998787 -0.49432269 95.908882 -0.50133133 96.180801 -22.604109 -30.764067
38625000000 -23.749235 -41.311283 -0.5814988 96.391182 -0.55179572 96.221642 -23.399 -46.860832
38650000000 -22.076956 -39.112484 -0.45536557 96.67498 -0.52505237 96.614174 -21.585617 -42.862122
38675000000 -22.017996 -29.855249 -0.46758723 95.499863 -0.45414904 95.96701 -22.199461 -32.659309
38700000000 -23.407549 -26.598038 -0.53673553 95.706894 -0.5049997 95.410049 -23.807499 -41.163967
38725000000 -24.240244 -28.061125 -0.49272335 95.636566 -0.54190636 95.693291 -22.390564 -45.643147
38750000000 -25.192667 -27.608717 -0.51954532 95.410225 -0.49798337 95.701653 -22.965183 -36.696037
38775000000 -26.045074 -35.359917 -0.50417262 95.342712 -0.48538607 95.602371 -24.085218 -44.44215
38800000000 -24.528782 -38.293495 -0.4920803 95.163307 -0.48251539 95.584671 -22.439272 -44.391605
38825000000 -23.885988 -25.89658 -0.45584443 94.960602 -0.45004284 95.232864 -23.188072 -31.782114
38850000000 -25.552647 -14.573715 -0.52415431 94.262291 -0.44223332 94.820297 -24.837137 -40.976955
38875000000 -27.716639 -18.189651 -0.56973237 94.903732 -0.46897325 94.902519 -23.036934 -50.779076
38900000000 -28.387451 -20.23348 -0.42978978 94.627655 -0.41976738 94.813477 -22.962141 -32.979374
38925000000 -28.31048 -34.389709 -0.49587432 93.742928 -0.40141889 94.607849 -24.771786 -37.505527
38950000000 -26.249437 -31.848858 -0.54681158 94.284973 -0.43977872 94.538757 -23.369696 -45.242752
38975000000 -26.035881 -12.254066 -0.47487125 93.678268 -0.40320873 94.155571 -23.367039 -31.746874
39000000000 -30.423069 -1.9629461 -0.56603962 93.61525 -0.3809734 93.946518 -25.04253 -41.788433
39025000000 -32.028374 -29.342981 -0.53014237 94.224861 -0.36668944 94.084488 -23.345695 -48.568794
39050000000 -29.919876 -36.07687 -0.4403367 93.228081 -0.33128083 93.685982 -22.443413 -31.188915
39075000000 -29.653557 -41.505543 -0.55267292 92.968933 -0.33531785 93.351677 -25.117395 -32.54446
39100000000 -27.732191 -42.360748 -0.59401447 93.642021 -0.37590832 93.367584 -23.480646 -47.790939
39125000000 -26.411572 -22.405478 -0.50136036 93.20002 -0.38706523 93.082703 -22.385002 -34.230667
39150000000 -29.946646 -2.6672387 -0.55763471 92.852745 -0.35690972 92.602409 -24.205318 -34.287041
39175000000 -35.497623 -49.194965 -0.5233562 93.272194 -0.32956162 92.803253 -22.942516 -45.636631
39200000000 -27.831093 -57.004345 -0.48311415 92.701332 -0.28289658 92.563873 -21.73432 -30.464048
39225000000 -26.284431 -43.293427 -0.53794926 92.190727 -0.31034064 91.921257 -23.979845 -28.42506
39250000000 -27.235569 -38.480793 -0.61690623 93.288429 -0.39525205 92.244087 -22.720182 -51.330002
39275000000 -26.501383 -30.109076 -0.48630044 93.210129 -0.37745348 92.03495 -20.987038 -33.424835
39300000000 -29.158718 -29.439602 -0.45881888 91.677017 -0.36702129 91.354736 -22.353292 -27.948864
39325000000 -29.555866 -66.259308 -0.57307643 92.485466 -0.33888546 91.688522 -23.009443 -41.903793
39350000000 -24.184177 -58.682568 -0.46952569 92.716927 -0.28770086 91.614265 -21.005413 -32.256767
39375000000 -23.020241 -43.667347 -0.4693028 91.762718 -0.31331217 90.816002 -21.937492 -29.806635
39400000000 -24.433451 -31.315489 -0.49858233 92.664505 -0.39608386 90.838211 -21.793224 -43.355762
39425000000 -26.0378 -32.558678 -0.34208214 92.184525 -0.38259158 90.8731 -20.150688 -33.036865
39450000000 -26.324041 -49.967152 -0.4234921 90.749634 -0.37034169 90.270798 -21.545025 -27.214804
39475000000 -24.446415 -56.337788 -0.46042889 91.840874 -0.36980817 90.414688 -22.356546 -39.888451
39500000000 -22.144548 -48.30162 -0.35459149 91.615585 -0.34447753 90.573395 -20.055115 -35.793797
39525000000 -21.770887 -35.927361 -0.39688623 91.112389 -0.36013162 89.724754 -20.653925 -29.842955
39550000000 -23.669107 -29.809418 -0.31828594 90.608482 -0.43486986 89.503807 -21.783714 -39.089901
39575000000 -24.962397 -39.073746 -0.33730486 90.385162 -0.43977743 89.836914 -20.393475 -34.327915
39600000000 -23.961618 -49.1208 -0.37372366 89.997749 -0.39227107 89.4813 -21.167526 -27.24221
39625000000 -22.340961 -50.79681 -0.36840433 90.034027 -0.39976719 89.306595 -21.925669 -40.247715
39650000000 -20.723465 -39.406181 -0.29950956 90.553551 -0.41863638 89.484207 -19.713966 -38.344887
39675000000 -21.469938 -25.203247 -0.25755048 89.117744 -0.41631287 88.9832 -20.377747 -28.477451
39700000000 -24.391214 -26.49316 -0.38964576 88.346947 -0.46193251 88.617973 -22.247145 -32.591747
39725000000 -24.496426 -40.439205 -0.3907724 89.252144 -0.44243199 89.054459 -20.962418 -37.573261
39750000000 -22.746269 -42.940121 -0.28331327 88.473076 -0.38976839 88.78418 -20.282419 -31.477314
39775000000 -22.105539 -39.255791 -0.42407876 88.332718 -0.41403791 88.26786 -21.749544 -35.118885
39800000000 -21.737747 -30.681702 -0.3034322 88.372429 -0.43130904 88.130257 -20.597158 -38.198189
39825000000 -22.751545 -21.39464 -0.36408061 87.164642 -0.45507064 87.885071 -20.684761 -28.736238
39850000000 -25.622223 -19.015768 -0.49736181 87.557266 -0.43126535 87.769753 -22.602882 -35.754524
39875000000 -26.138929 -39.760273 -0.40310457 87.778229 -0.40272152 87.939682 -20.905561 -42.601616
39900000000 -23.245531 -42.495644 -0.36041871 87.343895 -0.3746596 87.829529 -20.047955 -33.644081
39925000000 -22.796045 -30.699495 -0.43736091 86.615616 -0.39925569 87.169785 -22.064129 -32.434723
39950000000 -24.025457 -23.582226 -0.51582527 86.646889 -0.46861628 87.004341 -21.374775 -41.913086
39975000000 -25.52692 -18.399385 -0.4861086 87.111427 -0.4430283 86.981705 -21.025894 -36.293545
40000000000 -27.941067 -25.449812 -0.45588291 86.42495 -0.40179297 86.749657 -21.901295 -38.210674
40025000000 -27.315248 -46.886944 -0.56020766 86.86097 -0.38227367 86.856163 -21.270878 -43.736816
40050000000 -24.423285 -42.878403 -0.4313992 86.756516 -0.36098844 86.536987 -20.32943 -35.435368
40075000000 -24.84325 -30.817326 -0.53502065 85.640289 -0.42186862 86.15863 -22.138893 -35.805317
40100000000 -27.091002 -21.946754 -0.6335386 87.053131 -0.42893073 86.324242 -21.871517 -50.261341
40125000000 -29.259407 -29.200605 -0.45575505 86.709259 -0.36981171 85.98819 -20.339743 -39.681293
40150000000 -29.596169 -58.562656 -0.51954401 85.958107 -0.32829046 85.449585 -21.230997 -36.106083
40175000000 -25.705963 -65.109268 -0.5397408 86.831612 -0.3541705 85.48896 -21.009445 -41.858002
40200000000 -23.830105 -51.428001 -0.46091717 86.218002 -0.37840772 85.663361 -20.107294 -39.995377
40225000000 -25.221434 -33.46513 -0.57403088 86.062317 -0.40653151 85.22419 -21.166519 -37.529354
40250000000 -30.345493 -37.768951 -0.49065161 86.815231 -0.38367817 85.326813 -21.010679 -46.294643
40275000000 -27.24589 -73.374138 -0.41371769 86.618599 -0.27370143 85.156677 -19.290499 -38.836948
40300000000 -24.658739 -72.978775 -0.42882162 85.867264 -0.26614749 84.228233 -19.861952 -34.819695
40325000000 -24.133549 -70.205917 -0.45946252 86.296005 -0.37159547 84.259865 -20.664904 -43.976604
40350000000 -23.07486 -60.808159 -0.41620317 86.881493 -0.34755886 84.856224 -19.421358 -42.541
40375000000 -23.891918 -51.55336 -0.34995815 86.341492 -0.350411 84.228867 -19.23559 -37.630299
40400000000 -27.161901 -65.804436 -0.30211493 86.067375 -0.38271025 84.04332 -19.988873 -41.20042
40425000000 -23.436108 -86.457153 -0.22968651 86.541565 -0.25360686 83.797874 -18.580799 -38.758823
40450000000 -20.622313 -82.185211 -0.19209349 85.218903 -0.22817995 83.093582 -19.119587 -38.344208
40475000000 -20.200443 -66.8927 -0.23519544 85.895653 -0.3156715 83.083122 -19.888119 -44.19334
40500000000 -20.825766 -55.542912 -0.03832572 86.213051 -0.33911595 83.713409 -18.510429 -43.326252
40525000000 -22.341299 -57.590141 -0.029791169 84.428635 -0.35488942 83.30703 -18.774323 -36.114262
40550000000 -23.267052 -71.415512 -0.1322128 83.99601 -0.38296208 82.569901 -20.407194 -38.278893
40575000000 -20.733749 -79.277542 0.018678598 84.286697 -0.31130841 82.89035 -19.148407 -41.84893
40600000000 -18.578291 -73.887756 0.019198319 83.623062 -0.20559932 82.393997 -18.781742 -38.784348
40625000000 -18.806822 -62.758682 0.03375493 82.925407 -0.29455176 81.708229 -20.531153 -41.18264
40650000000 -19.775398 -55.727264 0.060671072 82.033958 -0.37903875 82.183334 -19.789585 -39.424564
40675000000 -20.436047 -55.868725 -0.047894556 81.982323 -0.37357181 82.17189 -19.528698 -31.256924
40700000000 -21.127705 -65.275681 -0.070026062 80.709419 -0.41355139 81.671227 -21.421162 -31.509336
40725000000 -18.988684 -71.635391 -0.07253819 81.090759 -0.36818749 81.667519 -19.918852 -40.154675
40750000000 -17.08095 -62.235867 0.040140003 80.79882 -0.24630597 81.728447 -19.202806 -33.89426
40775000000 -18.437244 -48.918636 -0.21283145 79.132828 -0.35133573 81.000923 -21.755457 -20.766115
40800000000 -20.327093 -46.278858 -0.2868883 79.715096 -0.47187299 80.956665 -20.913925 -31.388021
40825000000 -20.334028 -56.085506 -0.14995527 79.445641 -0.43016645 81.624672 -19.605938 -30.50631
40850000000 -20.014437 -62.220203 -0.33939373 78.586105 -0.39208573 81.046463 -21.615284 -27.654615
40875000000 -19.059429 -63.905571 -0.31902102 78.998413 -0.39985359 80.616196 -21.140865 -37.154507
40900000000 -17.910713 -58.365082 -0.33666795 78.030716 -0.3403886 80.605652 -20.477081 -28.572884
40925000000 -18.654808 -41.912766 -0.55725878 78.444305 -0.3829155 80.241974 -21.737194 -19.122704
40950000000 -21.477728 -36.250221 -0.55459321 78.305054 -0.50446534 80.341042 -21.564699 -40.118614
40975000000 -22.97316 -62.657589 -0.50510585 78.051132 -0.4229005 80.838242 -20.184137 -42.088634
41000000000 -20.823629 -66.945808 -0.63719624 78.142464 -0.31648529 80.316673 -22.791422 -31.870615
41025000000 -19.974684 -55.601749 -0.73513472 78.275726 -0.42580104 79.728912 -22.293545 -42.442551
41050000000 -20.091562 -46.471958 -0.73204023 78.663414 -0.47224137 79.87278 -20.741573 -44.171577
41075000000 -21.787579 -35.193966 -0.80555689 78.890465 -0.44440159 79.995399 -22.105124 -43.314915
41100000000 -25.613813 -39.908237 -0.88063163 79.616043 -0.49096778 80.247704 -21.160686 -61.347515
41125000000 -25.508705 -63.006393 -0.77063555 79.534149 -0.3609193 80.171959 -20.618675 -52.277973
41150000000 -22.570055 -57.632816 -0.83326596 79.645325 -0.29809359 79.587875 -22.051306 -44.519215
41175000000 -21.290497 -43.711395 -0.94126487 81.99308 -0.43335754 79.714066 -19.655432 -65.343666
41200000000 -22.509811 -27.044783 -0.76626378 82.013733 -0.49283716 80.172745 -18.561529 -61.116901
41225000000 -25.14559 -13.96878 -0.73192531 82.069817 -0.40781516 80.331566 -19.452026 -57.780334
41250000000 -27.478664 -28.256096 -0.66369307 83.707764 -0.33894005 80.698952 -17.762568 -63.408348
41275000000 -23.601053 -46.020386 -0.62429363 84.590584 -0.30728891 81.042183 -15.787643 -52.660561
41300000000 -18.952057 -34.526669 -0.46820199 86.228142 -0.2052539 80.947617 -14.624286 -52.177296
41325000000 -17.892311 -15.822256 -0.0028206983 88.893311 -0.36250159 82.958855 -12.456074 -60.848122
41350000000 -16.92664 0.93875134 -0.1580632 90.153923 -0.45029387 85.873436 -10.324907 -40.350018
41375000000 -14.837736 -4.7456484 0.062475707 94.011185 -0.19185935 89.114174 -7.7819467 -31.707121
41400000000 -9.3763847 1.4416804 0.73923695 111.36772 -0.13445814 104.15842 -1.4212191 -19.430265
41425000000 -4.2087483 28.456482 -1.6755651 172.83517 -2.9737489 138.56104 5.1398592 31.460159
41450000000 -6.0880885 87.891197 10.807606 64.873444 -14.238461 37.384426 5.798893 -101.40343
41475000000 -4.3805747 58.687752 -7.406446 39.935184 -17.753502 47.691498 -4.3906174 102.02531
41500000000 -6.7993188 26.506416 -8.2826891 84.873199 -7.7346392 103.00738 -1.9267963 91.718582
41525000000 -10.585397 -16.876245 -2.5334163 92.09874 -2.6568072 97.157127 -5.7541871 61.009769
41550000000 -12.19449 -49.504326 -1.0625148 86.035507 -1.120154 89.806572 -8.6009321 46.905983
41575000000 -13.787229 -58.669189 -0.80003071 80.013168 -0.76459491 83.685486 -12.760387 44.257645
41600000000 -15.399796 -58.001892 -0.63855773 76.579422 -0.54434168 80.268677 -17.614948 23.268831
41625000000 -17.711006 -56.797142 -0.51645273 75.2005 -0.44748586 78.453873 -18.067665 12.672239
41650000000 -19.55607 -68.478676 -0.56399345 74.293716 -0.48628104 77.711716 -20.402346 2.0178945
41675000000 -18.705458 -80.785057 -0.59039378 73.653603 -0.37861055 76.232765 -21.61104 -13.025812
41700000000 -17.142426 -73.900864 -0.63424426 73.479568 -0.349536 74.99308 -20.827765 -13.785667
41725000000 -16.716892 -60.813766 -0.60278285 73.443069 -0.40106648 74.421165 -20.990889 -25.062263
41750000000 -17.624695 -49.494045 -0.55910194 72.962341 -0.43054065 74.506027 -19.710976 -32.716099
41775000000 -20.037039 -47.323357 -0.54121369 72.214806 -0.43375519 74.330307 -19.674538 -28.737444
41800000000 -20.131769 -66.062462 -0.65799552 71.738594 -0.51943052 74.114326 -19.532921 -37.025574
41825000000 -17.40303 -68.642769 -0.59928143 71.83696 -0.38033655 73.623451 -18.600899 -38.927589
41850000000 -16.333313 -54.72258 -0.64410311 70.745422 -0.3139936 72.412643 -18.132641 -27.801218
41875000000 -16.406351 -42.055927 -0.76549476 70.622948 -0.4243468 71.723763 -17.4235 -30.342354
41900000000 -17.136892 -39.9678 -0.81478745 69.925331 -0.53350198 71.973457 -16.610847 -34.465847
41925000000 -18.064657 -41.998684 -0.9216519 69.357414 -0.4786137 71.752655 -16.38781 -27.745441
41950000000 -17.765482 -52.423637 -1.0741851 69.15168 -0.53689468 70.870033 -15.676719 -27.522131
41975000000 -15.497451 -58.090111 -1.1757513 68.468102 -0.51291639 69.712196 -14.169599 -19.466801
42000000000 -13.497984 -48.370872 -1.2854209 68.043495 -0.40207794 67.7295 -12.76217 -8.1352587
42025000000 -13.013236 -44.642544 -1.6051189 66.794128 -0.54021567 64.477295 -11.651659 -10.714966
42050000000 -12.13434 -75.674889 -3.0137615 58.635181 -1.658034 56.742771 -6.3290234 -20.858086
42075000000 -8.4296236 -124.62479 -11.327001 77.529694 -5.2090015 48.022312 -0.82731134 -55.339729
42100000000 -7.2105451 161.7868 -0.6943742 95.362854 -6.7533116 101.77783 -11.486955 -30.945389
42125000000 -8.1702976 -93.657494 0.27465791 34.353184 -1.5920031 43.229485 -0.032640874 35.863823
42150000000 -10.211514 -47.263077 0.82317638 67.088837 0.45190957 64.336868 -14.611108 70.263695
42175000000 -14.149139 -34.55999 0.16939421 71.86412 -0.032559246 67.971588 -20.352783 7.4448295
42200000000 -19.639225 -40.98909 -0.027769962 71.414848 -0.23065016 67.978493 -19.883163 8.0171442
42225000000 -20.011129 -58.548164 0.22119926 73.28476 -0.21059614 69.646637 -21.031963 -34.742916
42250000000 -18.133818 -54.955666 0.38996705 73.517929 -0.3308017 71.094025 -17.932467 -45.785973
42275000000 -17.553034 -46.741821 0.13172877 71.479462 -0.46210021 70.630844 -18.990221 -25.886166
42300000000 -17.618805 -32.574444 0.078290612 70.25563 -0.43043056 70.102364 -20.048206 -31.580784
42325000000 -20.078018 -12.596398 0.072312914 70.334816 -0.37038529 70.280914 -18.175688 -37.007515
42350000000 -28.846464 -31.947496 0.11971001 70.272469 -0.31023559 70.339668 -17.394178 -32.967846
42375000000 -21.655344 -90.205734 0.21311443 68.923973 -0.24069135 69.978378 -18.148251 -43.065125
42400000000 -18.272243 -66.883278 0.044634871 68.003036 -0.33052987 69.828819 -18.592054 -37.941406
42425000000 -18.192327 -43.055069 -0.12306595 67.981209 -0.47393706 70.021469 -18.536682 -26.546015
42450000000 -20.540464 -26.610451 -0.19902973 67.500488 -0.44614887 69.833282 -18.8302 -38.241035
42475000000 -28.347776 -22.417278 -0.0809016 67.153351 -0.3555682 69.304398 -17.763462 -41.432003
42500000000 -25.205591 -122.07185 -0.11158845 66.513519 -0.27021304 69.030281 -18.426723 -33.850391
42525000000 -18.386026 -99.371613 -0.34875369 66.141418 -0.23373947 68.239822 -20.462221 -35.475918
42550000000 -16.791866 -65.572365 -0.415544 66.226555 -0.31533504 68.200134 -19.051313 -33.933933
42575000000 -18.799236 -39.296951 -0.46229178 66.278015 -0.44194221 68.882904 -18.375746 -30.082619
42600000000 -26.169786 -42.88039 -0.53135329 66.268692 -0.39345148 68.93911 -19.379993 -40.939137
42625000000 -25.809177 -115.79441 -0.44707009 65.68277 -0.3171646 67.358696 -18.895916 -41.696777
42650000000 -18.516375 -114.68602 -0.5526579 65.458191 -0.34549901 66.897316 -19.081877 -26.955318
42675000000 -14.896529 -90.521378 -0.81269032 66.662735 -0.25540611 66.800453 -19.93116 -31.434492
42700000000 -14.518656 -59.326012 -0.74090064 66.648628 -0.27827236 66.48674 -18.228043 -39.890095
42725000000 -18.924105 -35.026268 -0.74626094 65.930031 -0.45571482 67.660103 -17.618624 -36.060268
42750000000 -26.512766 -98.507317 -0.75861192 66.783844 -0.35002658 67.942284 -19.902056 -39.591694
42775000000 -17.197546 -110.8508 -0.7753045 66.586266 -0.29159662 65.629456 -18.873878 -40.569328
42800000000 -13.336205 -91.438286 -0.88059086 67.441177 -0.30726233 64.102455 -17.713902 -35.242573
42825000000 -11.986906 -70.218948 -0.89137089 68.708328 -0.3641586 64.19178 -18.43491 -45.195896
42850000000 -13.216738 -43.836147 -0.83553505 68.981125 -0.37041476 65.395294 -17.90292 -51.685349
42875000000 -20.196865 -24.066362 -0.68209475 67.130386 -0.44659668 67.074776 -18.31543 -42.942772
42900000000 -21.224382 -113.24509 -0.73165458 67.84623 -0.31992733 67.120476 -19.771387 -43.235939
42925000000 -12.517521 -99.167747 -0.61144328 69.277115 -0.21804748 63.406868 -17.604752 -50.18951
42950000000 -10.073328 -77.738686 -0.58216238 68.800255 -0.39583978 60.692516 -17.817883 -48.324497
42975000000 -9.7842083 -53.844627 -0.47641692 69.927887 -0.53402895 61.214054 -20.176664 -56.653736
43000000000 -12.596736 -21.329201 -0.41876587 68.378319 -0.38889623 64.344795 -18.936331 -52.07674
43025000000 -25.437641 17.451851 -0.46809027 66.453354 -0.302077 66.367447 -18.208839 -41.351074
43050000000 -14.623416 -121.66358 -0.37988079 68.200554 -0.18292369 64.878426 -18.994204 -43.371796
43075000000 -8.0147781 -92.840546 -0.0057572955 67.996559 -0.32800254 59.003773 -18.752008 -59.429409
43100000000 -6.5348434 -61.462955 -0.10849725 66.699249 -0.52871555 55.667068 -18.973581 -41.770187
43125000000 -7.4293647 -24.834385 -0.21909806 65.133766 -0.40320578 56.196701 -19.130228 -36.3592
43150000000 -11.138382 24.204773 -0.35182807 65.056564 -0.15297954 60.276863 -18.140684 -47.619785
43175000000 -16.147642 146.28186 -0.11909496 65.020943 -0.013235986 63.463921 -17.250784 -42.059624
43200000000 -7.0427756 -125.73806 -0.091446638 65.158264 -0.26696578 59.641006 -19.104639 -45.93597
43225000000 -3.025949 -86.597076 -0.13561018 63.605804 -1.3244405 49.835148 -18.459423 -44.518223
43250000000 -1.0655283 -45.483486 -1.1954224 62.406414 -1.9580153 40.369167 -15.950178 -55.746521
43275000000 0.93397039 -2.3873596 -1.2274297 63.180489 -1.917302 29.00079 -20.256832 -62.691048
43300000000 2.6286526 55.874287 -0.74722242 60.443836 -1.2187364 24.430525 -19.342085 -61.751644
43325000000 4.9250154 135.46609 0.8557148 56.345268 -1.6926131 28.080372 -19.423828 -66.704338
43350000000 4.4374533 -139.97612 -0.34588179 65.048454 -5.5630236 37.407032 -18.757006 -44.430038
43375000000 2.841908 -97.740784 -1.3696711 71.397194 -9.8838406 78.494652 -21.292459 -88.104614
43400000000 -0.36452088 -80.818657 -0.092210934 81.180382 -2.9217401 96.449959 -15.354386 32.662903
43425000000 0.99696755 -11.451498 0.61154127 60.126709 -6.5061207 87.024422 -14.830052 -56.141201
43450000000 8.4927111 65.691711 0.29708278 51.054779 -13.299347 -101.37215 -22.713108 -97.354408
43475000000 5.6262836 -159.33653 0.98214859 58.205063 -2.1638031 28.299171 -20.999575 -40.068233
43500000000 1.2929877 -58.306469 -1.1992723 62.477116 -2.7265718 48.983837 -18.482712 -47.650452
