!Keysight Technologies,N5224A,MY55441802,A.10.65.16
!Date: Tuesday, March 03, 2026 16:55:20
!Correction: S11(Full 2 Port(1,2)) 
!S21(Full 2 Port(1,2)) 
!S12(Full 2 Port(1,2)) 
!S22(Full 2 Port(1,2)) 
!S2P File: Measurements: S11, S21, S12, S22:
# Hz S  dB   R 50
25000000000 -19.917683 -75.877846 -0.38750648 -168.93741 -0.38703576 -168.73299 -19.183628 -93.680878
25025000000 -20.834452 -75.077621 -0.39838681 -169.22032 -0.36057979 -169.03772 -20.04777 -97.515633
25050000000 -21.138885 -78.624649 -0.37370962 -169.20387 -0.35511246 -169.18709 -19.303127 -99.951538
25075000000 -20.776188 -83.724144 -0.35583362 -169.50717 -0.34847909 -169.37445 -19.39691 -95.64756
25100000000 -20.215479 -81.991631 -0.37567189 -169.61978 -0.33509865 -169.60025 -19.878824 -99.466263
25125000000 -20.135809 -78.922676 -0.34868038 -169.47253 -0.34763491 -169.63254 -18.953194 -100.10598
25150000000 -20.76952 -79.706078 -0.33745682 -170.09027 -0.36874738 -169.80768 -19.339952 -94.682632
25175000000 -20.988491 -80.125435 -0.39352861 -170.48808 -0.35536879 -170.0764 -20.315794 -97.216873
25200000000 -21.300718 -82.3433 -0.37358451 -170.16856 -0.34300077 -170.1545 -19.328758 -102.14325
25225000000 -20.218206 -88.008705 -0.32741684 -170.27727 -0.33653265 -170.20671 -18.954269 -96.461197
25250000000 -19.951458 -81.647507 -0.36298969 -170.75471 -0.3341181 -170.50996 -19.865747 -95.861938
25275000000 -20.875824 -77.558823 -0.35672677 -170.92149 -0.33399332 -170.73302 -19.612968 -99.778725
25300000000 -21.649731 -84.791061 -0.3402209 -171.18478 -0.33751866 -170.96844 -19.571562 -96.377319
25325000000 -21.079021 -87.479233 -0.35618338 -171.4612 -0.35071003 -171.27029 -20.231918 -96.811172
25350000000 -20.563509 -87.39872 -0.34029093 -171.4437 -0.34379637 -171.35468 -19.473028 -100.79193
25375000000 -20.150995 -84.527077 -0.35205805 -171.45833 -0.35146436 -171.22768 -19.225166 -94.677704
25400000000 -20.826521 -83.822319 -0.36629695 -171.84167 -0.35574841 -171.47112 -20.261192 -92.493332
25425000000 -21.15485 -82.110611 -0.37539485 -172.13637 -0.35297695 -171.81995 -20.138977 -100.13582
25450000000 -21.378885 -86.400078 -0.3471995 -172.21295 -0.3428005 -171.9366 -19.514311 -97.467705
25475000000 -20.933819 -89.468872 -0.3561618 -172.39374 -0.34944731 -172.17558 -20.013569 -94.766273
25500000000 -20.379101 -85.908943 -0.37177932 -172.56274 -0.35077566 -172.35475 -19.907221 -99.077187
25525000000 -20.80496 -82.767609 -0.35260659 -172.79932 -0.34917954 -172.34744 -19.679983 -95.963844
25550000000 -21.323341 -85.457123 -0.38762352 -172.90753 -0.35214531 -172.4389 -20.48402 -92.933975
25575000000 -21.367544 -85.257309 -0.38509011 -173.01695 -0.35224822 -172.73608 -20.455072 -100.49911
25600000000 -20.775394 -89.745064 -0.33975136 -173.21655 -0.32886568 -172.84361 -19.459036 -99.535851
25625000000 -20.45883 -85.491615 -0.36295566 -173.4536 -0.31528863 -173.03931 -19.830149 -94.080353
25650000000 -20.875259 -81.973595 -0.40321419 -173.55951 -0.3361344 -173.29677 -20.506178 -98.380066
25675000000 -21.344099 -84.170876 -0.38553292 -173.7505 -0.34406585 -173.46683 -20.187559 -99.929428
25700000000 -20.990498 -86.564621 -0.37729988 -173.91896 -0.33764619 -173.61011 -20.148638 -96.631012
25725000000 -20.948843 -86.069756 -0.3925738 -174.00356 -0.34068224 -173.82486 -20.287823 -99.401924
25750000000 -20.531694 -86.231606 -0.37767947 -174.10725 -0.34240824 -173.95853 -19.817652 -99.623497
25775000000 -20.764023 -84.653191 -0.37365913 -174.47125 -0.32629073 -174.12146 -20.132013 -95.750031
25800000000 -20.824158 -82.745697 -0.40974003 -174.52684 -0.33305168 -174.41307 -20.625044 -99.460693
25825000000 -21.229139 -84.43325 -0.38039389 -174.59171 -0.3553021 -174.55051 -20.07255 -101.48676
25850000000 -20.861275 -88.169617 -0.37173989 -174.86366 -0.34686869 -174.63972 -19.859394 -97.778732
25875000000 -20.479555 -85.922249 -0.39634466 -174.95789 -0.33766523 -174.80786 -20.273457 -98.657318
25900000000 -20.705002 -82.142776 -0.39797711 -175.08066 -0.35008255 -175.01843 -20.199726 -101.31832
25925000000 -21.211798 -85.246758 -0.38530976 -175.33498 -0.34912613 -175.18925 -20.145727 -98.652534
25950000000 -20.891903 -85.706688 -0.38017282 -175.4223 -0.34362963 -175.40317 -20.454748 -100.12315
25975000000 -20.837204 -86.501686 -0.38372639 -175.55368 -0.36085352 -175.50999 -19.916029 -102.04709
26000000000 -20.548571 -85.42215 -0.38458416 -175.68773 -0.36361408 -175.55009 -19.688679 -97.789803
26025000000 -20.900604 -84.292801 -0.39188763 -176.0253 -0.34798527 -175.75464 -20.449217 -98.146278
26050000000 -21.139404 -84.246277 -0.38612437 -176.02562 -0.34257156 -175.93382 -20.290417 -103.48591
26075000000 -20.898449 -88.402802 -0.35341975 -176.15627 -0.34269172 -176.08418 -19.668272 -99.955765
26100000000 -20.776382 -87.710396 -0.3724519 -176.46199 -0.34300706 -176.33066 -20.089043 -97.939819
26125000000 -20.547543 -87.44928 -0.36385888 -176.53357 -0.33614004 -176.49615 -20.072908 -101.48521
26150000000 -20.714245 -85.660835 -0.36601377 -176.73869 -0.34675089 -176.59074 -19.76671 -99.49247
26175000000 -20.908199 -86.123634 -0.37077311 -177.00659 -0.34646323 -176.8074 -20.348665 -97.839714
26200000000 -21.247782 -86.458717 -0.35317528 -177.08331 -0.33567962 -177.02754 -20.244566 -102.36709
26225000000 -20.897268 -91.829323 -0.32497117 -177.17403 -0.32811105 -177.09863 -19.453785 -100.2648
26250000000 -20.516258 -90.059532 -0.34676269 -177.48267 -0.33330789 -177.33244 -19.981359 -96.325424
26275000000 -20.686953 -85.502007 -0.3648985 -177.71416 -0.33564651 -177.57484 -20.429972 -100.64309
26300000000 -21.452637 -88.037895 -0.33823594 -177.97997 -0.33682016 -177.77623 -19.915129 -100.83215
26325000000 -21.059383 -91.326416 -0.35449535 -178.13206 -0.35077995 -177.96335 -20.153811 -96.330956
26350000000 -20.934734 -90.047531 -0.35514542 -178.28688 -0.35062382 -178.17245 -20.293812 -100.21458
26375000000 -20.80628 -90.366119 -0.33225453 -178.32561 -0.34194449 -178.18472 -19.644627 -100.0202
26400000000 -21.04129 -90.775894 -0.35242409 -178.61922 -0.3395502 -178.3102 -20.026905 -94.935249
26425000000 -21.040016 -87.918518 -0.37519076 -178.93883 -0.35039508 -178.61281 -20.571507 -99.522934
26450000000 -21.548115 -89.887657 -0.33713421 -179.0696 -0.33976936 -178.79224 -19.880125 -101.20126
26475000000 -21.387072 -94.000717 -0.34788832 -179.16423 -0.3524794 -178.94475 -19.954187 -95.76236
26500000000 -20.765276 -93.193237 -0.37767276 -179.36806 -0.36371565 -179.16574 -20.51548 -98.419792
26525000000 -20.810053 -88.387711 -0.36926013 -179.49989 -0.35879701 -179.32082 -20.179958 -101.20103
26550000000 -21.43347 -89.296364 -0.36605686 -179.65219 -0.35314336 -179.32802 -20.156649 -96.592216
26575000000 -21.606651 -89.458633 -0.37733391 -179.92522 -0.36043033 -179.5672 -20.646524 -98.811279
26600000000 -21.416922 -93.305573 -0.365641 179.8902 -0.35561204 -179.81259 -20.088755 -101.70407
26625000000 -20.971378 -92.992676 -0.35999122 179.84764 -0.33759919 -179.90582 -20.030313 -97.182655
26650000000 -20.887117 -89.953674 -0.39524329 179.71988 -0.34044364 179.9221 -20.82831 -98.597649
26675000000 -21.251846 -88.482109 -0.40101638 179.42914 -0.34810993 179.65599 -20.431538 -103.03855
26700000000 -21.31496 -90.958054 -0.37244293 179.32581 -0.33762795 179.57434 -20.116058 -97.870972
26725000000 -21.437786 -91.020897 -0.37829638 179.22461 -0.33694637 179.40076 -20.73348 -98.270256
26750000000 -21.170193 -92.152466 -0.38496253 179.01988 -0.35026279 179.10428 -20.44067 -102.84055
26775000000 -21.021431 -92.343544 -0.37610558 178.89024 -0.33865559 178.97792 -20.276339 -99.01667
26800000000 -20.794012 -89.70726 -0.41095021 178.69608 -0.33831227 178.83127 -20.925692 -99.459305
26825000000 -21.447252 -87.366203 -0.40172258 178.54362 -0.34686399 178.60136 -20.592331 -103.38458
26850000000 -21.65206 -93.126793 -0.37677944 178.31737 -0.34756124 178.42151 -20.220079 -99.335518
26875000000 -20.965515 -94.919586 -0.39220849 178.26692 -0.34263954 178.2574 -20.834616 -99.072533
26900000000 -20.594786 -89.555283 -0.38777652 178.17422 -0.34830886 178.00552 -20.706175 -103.98334
26925000000 -21.20244 -90.278038 -0.38142624 177.92169 -0.35426345 177.87738 -20.30361 -100.85264
26950000000 -21.022139 -90.747505 -0.38659945 177.7164 -0.35208383 177.77248 -20.748484 -98.874016
26975000000 -21.210243 -90.279694 -0.39668825 177.57602 -0.35685503 177.61128 -20.589611 -103.74543
27000000000 -21.229805 -92.30542 -0.38194695 177.45193 -0.36106798 177.45915 -20.137911 -101.22626
27025000000 -20.946404 -94.229446 -0.37835547 177.30519 -0.35156986 177.27803 -20.594038 -99.209236
27050000000 -20.640097 -91.353935 -0.3926672 177.11127 -0.35973462 177.05855 -20.720341 -103.44079
27075000000 -20.967695 -89.469902 -0.38325307 176.91214 -0.36287776 176.94193 -20.273109 -101.31781
27100000000 -21.40032 -91.195129 -0.37342173 176.70735 -0.36256281 176.81573 -20.485247 -99.752373
27125000000 -21.050465 -93.747635 -0.38569599 176.52458 -0.36315194 176.62747 -20.430897 -103.2869
27150000000 -20.908175 -92.273613 -0.38736978 176.44281 -0.36228523 176.52295 -20.200695 -101.17932
27175000000 -20.949526 -93.17675 -0.38222212 176.31429 -0.35173178 176.39157 -20.560339 -99.774818
27200000000 -20.98082 -90.975357 -0.3793751 176.06165 -0.34663844 176.15817 -20.558016 -102.61682
27225000000 -21.228804 -92.724495 -0.37618974 175.89955 -0.34785441 176.01872 -20.238726 -101.2141
27250000000 -21.031538 -94.555351 -0.3684234 175.73927 -0.33965564 175.87448 -20.432926 -100.82104
27275000000 -20.866602 -92.995697 -0.37204981 175.58391 -0.32997841 175.65967 -20.308865 -102.44511
27300000000 -21.222561 -93.035286 -0.36920542 175.36378 -0.33804545 175.45792 -20.36762 -99.730827
27325000000 -20.910688 -94.730713 -0.37323117 175.16876 -0.3358756 175.2981 -20.900755 -100.84015
27350000000 -21.156301 -92.087753 -0.35780624 174.96799 -0.31925818 175.00076 -20.13315 -105.5868
27375000000 -21.31354 -93.463364 -0.35159066 174.79308 -0.33236063 174.77609 -19.518076 -99.096504
27400000000 -21.230797 -96.412613 -0.38784203 174.49155 -0.35956892 174.62445 -21.035358 -93.207642
27425000000 -20.817465 -94.248268 -0.42029205 174.31042 -0.37416852 174.34941 -21.878664 -106.0409
27450000000 -21.007406 -92.255745 -0.3961488 174.21249 -0.36507407 174.21274 -20.161329 -107.33507
27475000000 -21.461813 -93.96109 -0.3847335 174.16762 -0.37055835 174.24236 -20.005207 -97.280319
27500000000 -21.062006 -97.045311 -0.40144193 174.12563 -0.37091133 174.10863 -21.134258 -98.172462
27525000000 -20.95332 -93.396095 -0.39045087 173.9046 -0.36182576 173.85568 -20.725882 -104.04001
27550000000 -21.522858 -95.077171 -0.36473081 173.71231 -0.35884097 173.78688 -20.327993 -99.50666
27575000000 -21.217958 -95.556419 -0.38732904 173.48022 -0.35655284 173.62494 -20.897532 -99.053505
27600000000 -21.269505 -93.43177 -0.38489485 173.30548 -0.35634062 173.37279 -20.886883 -103.87733
27625000000 -21.398462 -95.086136 -0.36519912 173.19435 -0.35999662 173.23929 -20.387711 -101.71459
27650000000 -21.227093 -95.336967 -0.37048808 172.98941 -0.35286462 173.16692 -20.727558 -99.387276
27675000000 -21.338793 -94.508621 -0.38675249 172.82008 -0.35153282 172.93907 -21.013086 -102.38712
27700000000 -21.226852 -95.121613 -0.37792203 172.64824 -0.35396755 172.75781 -20.702099 -102.17912
27725000000 -21.403124 -93.080902 -0.35084495 172.44324 -0.33987406 172.6393 -20.799353 -100.40359
27750000000 -21.37674 -96.245491 -0.38069022 172.25661 -0.34840262 172.36491 -20.91502 -102.80772
27775000000 -20.986273 -95.99501 -0.37947568 172.15714 -0.35713103 172.21263 -20.633827 -102.61817
27800000000 -21.105515 -93.980621 -0.36386555 171.94937 -0.34170011 172.13228 -20.790979 -100.41258
27825000000 -21.310165 -92.872726 -0.38687289 171.71344 -0.33048564 171.87682 -21.163429 -102.33111
27850000000 -21.490995 -94.362663 -0.37736347 171.56465 -0.34469303 171.67923 -20.903221 -104.17558
27875000000 -21.244846 -97.277924 -0.36957178 171.44124 -0.34403309 171.47565 -20.577488 -102.17096
27900000000 -20.869507 -94.89463 -0.37737176 171.23349 -0.33980203 171.18239 -20.877258 -101.35421
27925000000 -21.485941 -95.12532 -0.38572124 171.08871 -0.35244521 171.06833 -21.041363 -103.17758
27950000000 -21.04739 -97.830986 -0.39350513 170.8609 -0.35031384 170.94923 -20.745277 -102.4644
27975000000 -20.915672 -92.894585 -0.37993744 170.68787 -0.33498281 170.6955 -20.902349 -102.34098
28000000000 -21.580866 -95.246071 -0.37796465 170.51936 -0.35104951 170.56503 -20.947945 -104.96947
28025000000 -21.120667 -98.862816 -0.38721502 170.47066 -0.36104885 170.45505 -20.539032 -103.07621
28050000000 -20.89896 -95.57608 -0.39053574 170.28648 -0.35014638 170.19781 -20.921492 -100.48884
28075000000 -21.328125 -95.35408 -0.39218253 169.96858 -0.36155632 170.04807 -21.417553 -103.87668
28100000000 -21.184429 -95.881676 -0.39837483 169.875 -0.37146831 170.03995 -20.596342 -104.76207
28125000000 -21.313778 -97.245819 -0.3998327 169.76912 -0.36073977 169.79124 -20.505617 -101.42909
28150000000 -21.101328 -97.647202 -0.38951766 169.61481 -0.36624914 169.58243 -21.265743 -101.91004
28175000000 -21.053474 -97.032135 -0.38830385 169.51073 -0.36617872 169.58188 -20.721315 -104.93673
28200000000 -21.131079 -96.904091 -0.39668232 169.3101 -0.35620534 169.35957 -20.406425 -100.23443
28225000000 -21.259308 -95.904465 -0.38649523 169.06595 -0.34983078 169.11966 -21.555429 -99.524757
28250000000 -21.175777 -98.461205 -0.35366586 168.98863 -0.32809824 169.1356 -20.937874 -109.82536
28275000000 -21.125469 -100.4901 -0.34778157 168.9704 -0.31363526 168.98892 -19.175817 -103.63274
28300000000 -21.448637 -96.038574 -0.36596242 168.63416 -0.31153852 168.54723 -20.341717 -87.62278
28325000000 -21.130751 -101.21653 -0.31743172 168.22859 -0.28559324 168.20003 -24.457895 -99.635208
28350000000 -21.30065 -98.789719 -0.3049098 167.65477 -0.26427168 167.81097 -20.628298 -127.82071
28375000000 -21.392681 -94.930748 -0.3947306 167.47263 -0.34075674 167.50458 -17.758675 -108.53098
28400000000 -21.69528 -101.32779 -0.44774333 167.56735 -0.42133147 167.47005 -19.2673 -83.002403
28425000000 -20.948574 -97.447334 -0.48264411 167.34082 -0.43793643 167.42566 -24.517435 -87.490829
28450000000 -21.251167 -96.528496 -0.46209723 167.3732 -0.41230968 167.32993 -21.759491 -118.23222
28475000000 -21.488382 -98.845322 -0.43566489 167.41275 -0.40321842 167.32597 -19.315823 -102.57378
28500000000 -21.231745 -99.246437 -0.42020524 167.25169 -0.39909396 167.26364 -20.903133 -91.217773
28525000000 -21.252115 -97.545219 -0.42244494 166.93372 -0.39219537 166.97003 -22.015913 -104.31963
28550000000 -21.724625 -98.805168 -0.42012075 166.80498 -0.3905409 166.78607 -20.391491 -103.69657
28575000000 -21.252613 -101.40711 -0.40565437 166.84933 -0.38783035 166.70876 -20.915546 -95.726814
28600000000 -20.991472 -96.765678 -0.40450999 166.41101 -0.39334711 166.48427 -21.691185 -102.75175
28625000000 -21.704609 -96.627235 -0.43076763 166.21098 -0.39755741 166.28543 -20.438511 -103.44901
28650000000 -21.556429 -102.40324 -0.40394694 166.37579 -0.3899748 166.23705 -20.681049 -96.328537
28675000000 -21.07449 -97.657204 -0.39524671 165.87151 -0.38423571 166.00491 -21.709419 -100.7813
28700000000 -21.567287 -97.580269 -0.43625638 165.6801 -0.39895609 165.76439 -20.888767 -104.18523
28725000000 -21.265205 -99.551956 -0.42456663 165.71477 -0.4022159 165.72543 -20.736776 -98.330284
28750000000 -21.288557 -96.797012 -0.41068032 165.43193 -0.3982375 165.60382 -21.44651 -101.33625
28775000000 -21.533249 -98.040588 -0.43211854 165.26886 -0.40361416 165.38689 -20.73341 -103.30091
28800000000 -21.308727 -99.821007 -0.41809046 165.17348 -0.39620224 165.32336 -20.784275 -97.968727
28825000000 -21.222466 -97.424919 -0.41539624 165.00452 -0.38114631 165.1124 -21.474867 -101.1863
28850000000 -21.244257 -98.294907 -0.4239102 164.75603 -0.40338266 164.85809 -20.681311 -103.83751
28875000000 -21.185699 -98.580429 -0.4250859 164.60596 -0.40104267 164.81975 -20.528099 -98.090622
28900000000 -21.187613 -98.338455 -0.43566599 164.49945 -0.3833653 164.67152 -21.345037 -100.19352
28925000000 -21.380054 -97.557159 -0.43730426 164.38022 -0.39758185 164.38576 -20.719257 -103.80085
28950000000 -21.285887 -101.81836 -0.42705026 164.23094 -0.39562607 164.3127 -20.507572 -98.546608
28975000000 -20.784203 -99.17276 -0.43244094 163.99681 -0.37400252 164.12436 -21.251678 -100.31532
29000000000 -21.128799 -96.59774 -0.43389958 163.92647 -0.39016205 163.85242 -20.641989 -104.83711
29025000000 -21.481339 -101.27185 -0.42822018 163.80574 -0.39848024 163.77692 -20.304304 -99.414215
29050000000 -20.882502 -100.84576 -0.43098265 163.541 -0.38702372 163.60394 -21.186859 -100.35241
29075000000 -21.252846 -98.686623 -0.44705927 163.45721 -0.38536009 163.38268 -20.702837 -105.46733
29100000000 -21.20174 -102.52254 -0.43412784 163.38318 -0.40292534 163.27014 -20.239569 -100.22495
29125000000 -20.892929 -100.82768 -0.41295511 163.07803 -0.38507685 163.11603 -20.993853 -99.360023
29150000000 -21.142242 -98.98307 -0.42020735 162.88245 -0.38797101 162.79086 -20.780247 -105.14089
29175000000 -21.469769 -101.87709 -0.44328827 162.8293 -0.41779339 162.7764 -20.282784 -100.50569
29200000000 -21.104471 -103.4233 -0.42279461 162.68224 -0.40336683 162.68938 -20.922972 -99.888718
29225000000 -20.939917 -101.39382 -0.43154973 162.3058 -0.40056115 162.478 -20.805567 -104.71817
29250000000 -21.097273 -100.28024 -0.44889054 162.37001 -0.40933698 162.42636 -20.211149 -101.05698
29275000000 -21.330513 -102.50238 -0.41131368 162.29958 -0.39283231 162.28589 -20.92359 -99.33287
29300000000 -21.100119 -101.62646 -0.42052251 161.94902 -0.39024329 161.99414 -20.940023 -104.9184
29325000000 -21.326654 -103.14765 -0.42907783 161.90321 -0.39761516 161.91093 -20.235645 -102.29696
29350000000 -21.078239 -103.97462 -0.42523846 161.80351 -0.39211932 161.80252 -20.740318 -99.752625
29375000000 -21.123011 -101.98271 -0.40628579 161.4512 -0.38049492 161.54404 -20.960152 -103.96938
29400000000 -21.356865 -103.29858 -0.41778988 161.40315 -0.38026965 161.3788 -20.446173 -102.64183
29425000000 -21.121218 -104.61195 -0.40957063 161.35371 -0.3876816 161.28741 -20.874987 -100.32491
29450000000 -21.386408 -102.43662 -0.41127777 161.03317 -0.369643 161.02919 -21.022356 -104.50156
29475000000 -21.422508 -106.14962 -0.41021815 160.93846 -0.38207015 160.8251 -20.467434 -102.57331
29500000000 -21.145493 -104.81007 -0.39471748 160.66364 -0.36920983 160.78546 -20.97267 -99.545387
29525000000 -21.319757 -102.74657 -0.40033171 160.47226 -0.35850459 160.43169 -21.301731 -104.86035
29550000000 -21.544107 -104.01805 -0.40826526 160.332 -0.38459533 160.22316 -20.638674 -104.60292
29575000000 -21.373053 -105.65609 -0.39932007 160.31549 -0.38276869 160.21364 -20.825298 -100.46421
29600000000 -21.519062 -103.55199 -0.398065 160.07358 -0.36434126 160.04007 -21.348042 -102.61167
29625000000 -21.601702 -103.75195 -0.39448312 159.74501 -0.3758654 159.70897 -20.937916 -104.13221
29650000000 -21.62376 -105.81759 -0.38727406 159.67152 -0.37867346 159.62903 -21.016029 -101.38045
29675000000 -21.256435 -104.09386 -0.394667 159.44934 -0.37289098 159.3511 -21.299999 -104.25929
29700000000 -21.649223 -103.47893 -0.40880433 159.2153 -0.39872727 159.1106 -20.798159 -104.54929
29725000000 -21.518215 -105.73805 -0.39962506 159.311 -0.39958733 159.15086 -20.907639 -100.26762
29750000000 -21.518934 -102.90984 -0.37142894 158.94859 -0.37635368 159.07892 -21.628513 -102.47207
29775000000 -21.565077 -103.59931 -0.4034003 158.64214 -0.38015261 158.74187 -21.025635 -107.25981
29800000000 -21.351068 -106.13275 -0.40421185 158.65926 -0.40384442 158.62288 -20.665045 -103.07424
29825000000 -21.286121 -102.81165 -0.38027263 158.48752 -0.37927294 158.4978 -21.126083 -102.35935
29850000000 -21.614422 -104.22448 -0.40305272 158.1862 -0.38380489 158.27419 -21.09778 -104.96059
29875000000 -21.372845 -104.79949 -0.39602718 158.02782 -0.39689907 158.14639 -20.916847 -103.11588
29900000000 -21.40589 -103.8215 -0.38420141 157.83443 -0.36952886 158.03171 -21.183254 -104.11157
29925000000 -21.453735 -105.26888 -0.41768768 157.62764 -0.3780826 157.74118 -20.912258 -107.32056
29950000000 -21.316668 -106.86281 -0.4095625 157.60973 -0.40645945 157.62766 -20.541889 -103.37446
29975000000 -21.262127 -104.66309 -0.39330643 157.43562 -0.36846957 157.58243 -21.073771 -101.73166
30000000000 -21.405453 -104.86411 -0.39773586 157.07867 -0.37620869 157.26363 -21.244635 -106.72131
30025000000 -21.387701 -107.10989 -0.4331899 156.94868 -0.3926093 157.19492 -20.634611 -106.06248
30050000000 -21.006935 -107.45537 -0.4245531 156.96941 -0.38023657 156.98059 -20.704082 -104.17451
30075000000 -21.337475 -105.42657 -0.43018016 156.72545 -0.38317701 156.79929 -20.88464 -105.53307
30100000000 -21.324009 -108.92025 -0.41858369 156.74602 -0.38085291 156.68069 -20.646971 -104.10242
30125000000 -21.08555 -106.25669 -0.38813299 156.38408 -0.36647102 156.51913 -21.118973 -103.14416
30150000000 -21.483141 -105.5265 -0.41367012 156.18433 -0.35058573 156.26688 -21.184847 -108.51846
30175000000 -21.675575 -110.81158 -0.43887132 156.18207 -0.38087162 156.11169 -20.423166 -106.77795
30200000000 -21.120125 -110.38713 -0.42080057 156.12883 -0.38944289 156.04416 -20.587135 -101.72907
30225000000 -21.434376 -108.59638 -0.40637997 155.86993 -0.35672414 155.82251 -21.365814 -104.47731
30250000000 -21.434208 -109.36677 -0.40411741 155.62503 -0.37857339 155.54236 -21.019087 -107.2197
30275000000 -21.468542 -109.49604 -0.40908754 155.43726 -0.37411329 155.51549 -20.792236 -104.85138
30300000000 -21.619204 -109.97768 -0.42181522 155.4008 -0.36062282 155.22647 -21.122425 -106.24623
30325000000 -21.793156 -111.997 -0.42088166 155.2364 -0.38705209 155.10635 -20.688803 -105.27506
30350000000 -21.515734 -112.48772 -0.39572302 155.25916 -0.36686012 155.10033 -21.019329 -101.69504
30375000000 -21.628592 -109.38508 -0.36109334 154.76358 -0.35393927 154.77878 -21.923666 -105.92807
30400000000 -21.908115 -110.14126 -0.41014299 154.59056 -0.35953993 154.58458 -21.036922 -110.39055
30425000000 -21.767351 -113.51205 -0.40252772 154.82225 -0.36480337 154.49409 -20.38781 -103.63651
30450000000 -21.967426 -110.84941 -0.36800116 154.46405 -0.36239225 154.32104 -21.394466 -101.56628
30475000000 -22.222807 -114.35339 -0.38184407 154.16594 -0.35157573 154.06201 -21.596092 -106.38579
30500000000 -21.540091 -113.13446 -0.36303449 153.95157 -0.36171508 153.85527 -21.273161 -105.10069
30525000000 -21.791302 -108.88503 -0.364043 153.59715 -0.35114494 153.65047 -21.645796 -106.405
30550000000 -22.480619 -111.68376 -0.40322855 153.60767 -0.35697436 153.37466 -21.16736 -108.55358
30575000000 -22.147333 -114.91982 -0.37168846 153.68735 -0.37593302 153.39258 -20.827667 -102.77042
30600000000 -22.230637 -111.76836 -0.33001763 153.28716 -0.34161666 153.30415 -22.124914 -101.66545
30625000000 -22.156706 -113.47734 -0.37050763 152.89285 -0.35716552 152.95731 -22.061516 -110.80765
30650000000 -21.825188 -113.15736 -0.38278207 152.69656 -0.37587312 152.80823 -21.037657 -107.95792
30675000000 -21.940327 -110.60772 -0.39027861 152.70891 -0.35962796 152.57368 -21.489132 -104.3103
30700000000 -22.819782 -111.63941 -0.36985391 152.59245 -0.37753651 152.3519 -21.686676 -107.371
30725000000 -22.440865 -116.87804 -0.36036429 152.28554 -0.3657341 152.35014 -21.407761 -105.08216
30750000000 -21.847475 -114.23486 -0.36338675 151.94443 -0.34842595 152.13124 -22.200184 -105.83041
30775000000 -22.013981 -112.61936 -0.37687227 151.74806 -0.37406713 151.93407 -21.849577 -113.55087
30800000000 -21.828348 -115.2108 -0.425098 151.73599 -0.38669193 151.81934 -20.768215 -107.74882
30825000000 -21.92382 -110.08623 -0.37417281 151.71071 -0.38337553 151.61266 -21.647738 -102.20538
30850000000 -23.261557 -112.51488 -0.36073238 151.29291 -0.36202714 151.51653 -22.35651 -109.35035
30875000000 -22.130362 -121.29172 -0.41834748 151.117 -0.37042555 151.37238 -21.490807 -110.23729
30900000000 -21.192762 -114.35181 -0.39628625 150.74373 -0.39050329 151.08144 -21.688705 -107.63383
30925000000 -22.325672 -110.12725 -0.44151515 150.74092 -0.38344043 150.94608 -21.618166 -110.48727
30950000000 -22.565889 -118.99601 -0.42564785 150.95253 -0.37749264 150.80675 -20.984846 -106.57081
30975000000 -21.680607 -115.35306 -0.38159582 150.3782 -0.37051651 150.61363 -21.961658 -102.63306
31000000000 -22.795568 -112.64891 -0.40511745 150.16606 -0.35420334 150.42921 -22.460371 -112.00014
31025000000 -22.514961 -126.4126 -0.46390676 150.18536 -0.36640984 150.42621 -20.979479 -111.28634
31050000000 -19.791519 -123.21333 -0.5031969 150.02818 -0.39561045 150.31929 -21.069645 -103.68929
31075000000 -20.387665 -103.41656 -0.40295738 149.99535 -0.41496405 150.10855 -21.947195 -105.719
31100000000 -25.295231 -103.30541 -0.39620161 149.74359 -0.35199469 149.87691 -21.606092 -107.67816
31125000000 -23.974537 -146.79787 -0.48258775 149.71846 -0.32137668 149.60716 -21.932264 -104.5564
31150000000 -20.109663 -136.48218 -0.46844056 149.09901 -0.35086405 149.58595 -21.818729 -108.47245
31175000000 -19.671888 -114.9002 -0.47849894 149.17888 -0.38545319 149.43684 -20.807186 -107.70043
31200000000 -21.982092 -97.740105 -0.46184164 149.61145 -0.45147735 149.06252 -21.195602 -99.926865
31225000000 -26.542789 -114.76271 -0.42659208 149.1472 -0.41504645 149.0175 -22.269173 -104.84269
31250000000 -21.856628 -138.21838 -0.45551947 148.74059 -0.37054899 148.90112 -21.790779 -107.86475
31275000000 -19.299137 -115.85467 -0.45577741 148.49393 -0.43796805 148.82736 -21.760759 -103.20471
31300000000 -22.108326 -94.567551 -0.46419853 148.81105 -0.42863575 148.72374 -21.366905 -108.21162
31325000000 -25.813814 -136.2803 -0.45014489 148.89961 -0.36906937 148.35757 -20.812185 -104.61688
31350000000 -19.470684 -130.70679 -0.43188801 148.11255 -0.36676866 148.12694 -22.120394 -95.829742
31375000000 -20.26165 -93.708176 -0.40712771 147.92921 -0.40082175 147.73557 -23.330296 -109.8203
31400000000 -33.333332 -135.60365 -0.41952804 148.21996 -0.37209564 147.66591 -20.700083 -112.14922
31425000000 -17.097328 -155.36836 -0.58004284 148.00888 -0.38082975 148.22208 -20.473881 -94.512016
31450000000 -14.145297 -104.57707 -0.38330516 148.05292 -0.42469609 149.21021 -23.098688 -96.658096
31475000000 -17.735474 -28.309145 -0.27573293 147.88429 -0.33556184 148.98425 -23.029724 -110.65734
31500000000 -16.201365 108.05952 -0.53813708 149.06453 -0.10169681 148.58873 -21.430067 -97.31707
31525000000 -11.058231 -179.6786 -0.49996981 147.35378 0.097477131 147.83624 -22.120464 -98.207161
31550000000 -11.901329 -115.08475 -0.38087606 145.78894 -0.11693192 146.66452 -22.039581 -107.73706
31575000000 -16.679327 -43.595436 -0.19520888 147.29549 -0.35073164 145.26711 -20.718571 -101.12154
31600000000 -24.987764 106.14389 -0.34047937 147.45276 -0.44300127 145.25797 -22.672014 -98.130325
31625000000 -17.012356 -154.92316 -0.42402086 145.69096 -0.40406713 145.5006 -23.000891 -109.03299
31650000000 -17.234137 -94.665176 -0.32289994 145.28162 -0.48903832 144.9921 -21.34255 -108.71952
31675000000 -27.679798 -59.442844 -0.29925242 146.22978 -0.52588445 145.41104 -22.026409 -100.85442
31700000000 -23.6236 -157.62665 -0.39845917 145.89848 -0.3938489 145.62105 -22.941652 -104.56494
31725000000 -20.034801 -120.55813 -0.34216169 145.13872 -0.40086836 145.19643 -21.955341 -105.49122
31750000000 -23.998205 -101.15199 -0.32219473 145.12004 -0.4292379 145.33768 -22.676386 -101.13614
31775000000 -24.165493 -133.76392 -0.39733163 145.11752 -0.35581183 145.19337 -22.804424 -107.96869
31800000000 -21.372324 -120.30492 -0.40245539 144.6059 -0.39656064 144.76221 -21.598938 -106.2794
31825000000 -24.070736 -107.45497 -0.39796013 144.84653 -0.42799592 144.86362 -22.130566 -98.04982
31850000000 -24.974085 -134.18924 -0.33801308 144.73064 -0.36369058 144.75156 -23.486481 -103.57227
31875000000 -21.291847 -126.99073 -0.41814971 143.74455 -0.38529915 144.27512 -22.325199 -110.37804
31900000000 -22.351946 -109.23121 -0.43645445 144.10776 -0.43855432 144.1994 -21.929659 -102.32034
31925000000 -24.866997 -120.37594 -0.3776938 144.06972 -0.38185206 144.2205 -22.608843 -103.80881
31950000000 -23.00448 -126.36653 -0.43745071 143.73669 -0.364566 143.78131 -22.203104 -105.63022
31975000000 -23.553011 -117.30527 -0.39284471 143.67715 -0.41593868 143.60837 -22.267881 -100.9921
32000000000 -24.300196 -127.45966 -0.38700235 143.30542 -0.3726905 143.70508 -22.86747 -104.55827
32025000000 -22.220613 -127.61424 -0.47856203 143.13525 -0.37428904 143.28047 -22.13459 -108.5787
32050000000 -22.766644 -116.55484 -0.43576077 143.17854 -0.44164184 143.2668 -21.58206 -100.43144
32075000000 -24.324707 -121.05601 -0.42273808 143.03955 -0.37963551 143.28905 -22.637611 -100.44191
32100000000 -23.700825 -126.85369 -0.44194442 142.76051 -0.3577117 142.68947 -22.590811 -105.68211
32125000000 -23.47051 -123.02404 -0.46261579 142.36792 -0.42101836 142.59865 -21.952942 -100.92777
32150000000 -23.635378 -127.7445 -0.46979976 142.58192 -0.38776863 142.62959 -22.362087 -102.65141
32175000000 -22.589563 -127.1935 -0.46976337 142.38739 -0.37361825 142.29529 -22.052015 -105.80834
32200000000 -22.836115 -118.13061 -0.50411916 142.4996 -0.42312431 142.26146 -21.400385 -99.261536
32225000000 -24.926167 -121.49606 -0.42467788 142.4044 -0.4007684 142.15137 -22.665649 -97.90995
32250000000 -23.910992 -133.24675 -0.44573608 141.74559 -0.37241343 141.81326 -22.572145 -105.16794
32275000000 -22.625023 -127.3365 -0.54307771 141.96669 -0.4181039 141.73871 -21.357769 -100.27113
32300000000 -23.323179 -125.75582 -0.43633723 142.08128 -0.40273297 141.83942 -22.006849 -98.695976
32325000000 -23.215223 -125.90958 -0.45340452 141.47845 -0.34806463 141.39217 -22.598751 -101.89717
32350000000 -23.436361 -120.05232 -0.46970844 141.77394 -0.3988176 140.97733 -21.764362 -98.335686
32375000000 -24.797802 -123.51334 -0.39215985 141.38176 -0.41095358 141.17941 -22.419737 -96.450874
32400000000 -23.817251 -131.54044 -0.46607864 140.96889 -0.36542383 140.8008 -22.774687 -102.75983
32425000000 -23.038393 -126.71045 -0.46570337 141.21225 -0.41008574 140.65337 -21.418201 -100.97191
32450000000 -23.375311 -125.07783 -0.42618293 141.14192 -0.38445556 140.87674 -22.135815 -95.620499
32475000000 -23.684771 -121.27176 -0.40664884 140.78282 -0.34594634 140.2354 -23.235619 -97.729439
32500000000 -23.957386 -118.05521 -0.41175979 140.4958 -0.40981841 139.89209 -22.030439 -100.34045
32525000000 -25.114113 -123.94374 -0.43211219 140.58202 -0.4135102 140.15181 -22.141571 -95.482216
32550000000 -24.227943 -132.14761 -0.38621873 140.28831 -0.38618091 139.87979 -23.188881 -98.490372
32575000000 -22.871176 -125.73792 -0.40688732 140.03423 -0.39076698 139.61617 -22.180235 -101.19221
32600000000 -23.746807 -117.51185 -0.3773776 140.18272 -0.38756704 139.71803 -22.433924 -94.120827
32625000000 -25.002224 -120.06866 -0.32795823 139.67667 -0.3507337 139.43524 -23.615664 -95.388985
32650000000 -24.220982 -122.12347 -0.40815547 139.24313 -0.38750502 138.82791 -22.518391 -102.39514
32675000000 -24.920048 -122.77562 -0.35931188 139.49342 -0.41497979 139.0743 -22.13802 -96.470764
32700000000 -24.523327 -128.08452 -0.34215233 139.0294 -0.35540459 138.98732 -23.549255 -94.726501
32725000000 -23.306822 -121.5121 -0.35831481 138.68237 -0.37068319 138.22009 -22.776764 -101.69675
32750000000 -24.582336 -112.73778 -0.31397262 138.65771 -0.40823084 138.44423 -22.485588 -95.002602
32775000000 -25.734009 -120.08178 -0.34045446 138.12547 -0.34939948 138.32823 -23.676325 -94.900345
32800000000 -24.79207 -123.34497 -0.39813295 137.95642 -0.3938562 137.71114 -22.971384 -104.63961
32825000000 -25.152601 -122.39118 -0.3743453 137.9975 -0.42697304 137.94218 -22.073824 -97.255493
32850000000 -25.183294 -125.03555 -0.35760659 137.69643 -0.37012511 137.84731 -23.50392 -93.008842
32875000000 -24.199209 -122.51802 -0.35541397 137.3143 -0.37415639 137.28499 -23.205412 -102.82663
32900000000 -24.641682 -115.62473 -0.39980808 137.01302 -0.42311847 137.08836 -22.434685 -97.770683
32925000000 -25.865374 -117.64913 -0.37833938 137.09355 -0.39530939 137.21857 -23.400126 -95.015419
32950000000 -25.658886 -123.61316 -0.39710391 136.62613 -0.38187212 136.86014 -23.110735 -104.47285
32975000000 -25.37536 -122.76192 -0.46211854 136.66687 -0.43103623 136.63828 -22.115465 -96.906906
33000000000 -25.693396 -123.80658 -0.36420116 136.59798 -0.39293209 136.77837 -23.359539 -92.176567
33025000000 -24.48225 -123.93954 -0.43335718 135.83339 -0.37218273 136.27676 -23.584848 -105.32452
33050000000 -25.507854 -114.37238 -0.51430017 136.13995 -0.44694749 135.88139 -21.959023 -99.293167
33075000000 -27.304123 -123.19556 -0.42739224 136.20197 -0.44385883 136.14529 -22.501436 -93.664803
33100000000 -25.81777 -134.565 -0.47732595 135.62209 -0.39220783 135.87628 -23.234821 -100.40549
33125000000 -24.938755 -127.46004 -0.48497063 135.72888 -0.44580698 135.63007 -22.137695 -97.651939
33150000000 -25.545612 -125.02534 -0.46482873 135.43669 -0.43144181 135.69724 -22.859186 -93.283318
33175000000 -25.035975 -126.88858 -0.49330565 135.20049 -0.39233533 135.29102 -23.33202 -103.1124
33200000000 -25.662306 -119.87135 -0.53512394 135.43831 -0.47060546 135.0441 -21.468233 -98.064079
33225000000 -27.069021 -124.17649 -0.50939751 135.34883 -0.47731584 135.13116 -22.079124 -90.860985
33250000000 -26.153023 -138.13832 -0.46798071 134.90131 -0.41289482 134.95645 -23.416651 -98.214897
33275000000 -24.37097 -132.0148 -0.55053991 134.75578 -0.45381635 134.81895 -21.914627 -99.042442
33300000000 -24.798704 -123.8792 -0.53983706 135.01588 -0.46139002 134.77159 -21.852697 -93.532097
33325000000 -26.203817 -124.9054 -0.49288124 134.67279 -0.41174561 134.43962 -22.737316 -97.298393
33350000000 -26.530315 -130.58388 -0.54495287 134.76262 -0.445952 134.09822 -21.477654 -96.192101
33375000000 -26.462263 -136.26736 -0.47124985 134.65887 -0.4669489 134.13249 -21.987808 -91.045967
33400000000 -24.842089 -141.16487 -0.48886082 133.97449 -0.42433766 133.97243 -23.301409 -96.18824
33425000000 -23.782633 -131.51077 -0.55451918 134.0417 -0.4538413 133.74001 -21.8064 -98.880157
33450000000 -24.555359 -124.70014 -0.49787149 134.4063 -0.48282495 133.94505 -21.469522 -91.791862
33475000000 -26.086224 -124.54214 -0.46933872 133.85268 -0.42941722 133.54453 -23.112425 -90.567322
33500000000 -26.270704 -128.48122 -0.49125826 133.58466 -0.45446777 133.01743 -22.330042 -96.071663
33525000000 -26.197332 -133.42075 -0.48439476 133.57475 -0.49190506 133.20537 -21.934475 -92.26918
33550000000 -24.793053 -136.32553 -0.50272697 133.17046 -0.44766998 133.06439 -23.041208 -93.724564
33575000000 -23.881084 -127.37901 -0.49000773 133.25101 -0.45215291 132.799 -21.978718 -96.869293
33600000000 -24.79335 -117.15452 -0.48785424 133.40289 -0.4900181 132.82307 -21.568882 -88.532936
33625000000 -27.039377 -119.84361 -0.4307726 133.0089 -0.46149501 132.60368 -23.216858 -86.586357
33650000000 -26.155003 -129.72403 -0.47841555 132.42796 -0.46948344 132.24475 -22.709295 -96.565048
33675000000 -25.090401 -129.1194 -0.51584369 132.50919 -0.49618277 132.28166 -21.636986 -92.802597
33700000000 -24.811354 -126.68848 -0.46143249 132.56929 -0.46096915 132.29202 -22.723536 -89.195595
33725000000 -24.45639 -120.94596 -0.44560537 132.12289 -0.44667014 131.81081 -22.420252 -92.221306
33750000000 -24.959085 -113.53053 -0.45534015 131.92752 -0.51393062 131.58298 -22.001301 -89.112495
33775000000 -26.770332 -117.72594 -0.43279439 131.87868 -0.49630332 131.80672 -23.149734 -88.965622
33800000000 -25.904535 -128.185 -0.50491101 131.20882 -0.47277182 131.38837 -22.485973 -97.402115
33825000000 -24.594994 -126.82278 -0.50191075 131.6568 -0.49763885 131.43422 -21.411139 -92.351501
33850000000 -24.773046 -119.27335 -0.430015 131.46133 -0.44807845 131.40623 -22.627392 -85.38504
33875000000 -25.059557 -116.59028 -0.45598593 130.69325 -0.43940696 130.77684 -22.947598 -95.227104
33900000000 -25.860703 -116.77228 -0.50830585 130.62383 -0.51992172 130.56253 -21.833681 -94.275467
33925000000 -26.210192 -124.72424 -0.50470239 130.77365 -0.51545715 130.80457 -22.165924 -91.461205
33950000000 -25.286575 -128.56268 -0.50761229 130.40331 -0.460917 130.64537 -22.324259 -96.783752
33975000000 -24.518869 -124.69141 -0.52832597 130.52724 -0.48968273 130.33823 -21.545816 -93.807472
34000000000 -24.913046 -119.1247 -0.47299236 130.22527 -0.47590575 130.32367 -22.341307 -89.239944
34025000000 -25.21855 -117.76878 -0.49272901 129.87933 -0.44841483 129.90701 -22.730547 -97.895355
34050000000 -26.570868 -115.72162 -0.61310923 129.75604 -0.53870964 129.55379 -21.298565 -95.998024
34075000000 -26.905418 -130.96992 -0.54597098 130.23195 -0.53743923 129.96068 -21.415693 -92.77906
34100000000 -24.984436 -136.17615 -0.50402653 129.66968 -0.46003878 129.76498 -22.395741 -94.546333
34125000000 -23.795721 -126.16388 -0.57858974 129.44058 -0.48977506 129.2827 -21.732841 -96.020866
34150000000 -25.003054 -118.26336 -0.52173877 129.73196 -0.52576911 129.4371 -21.479679 -93.096619
34175000000 -26.157782 -124.44996 -0.53413105 129.31937 -0.48048326 129.29965 -22.090305 -96.716797
34200000000 -26.104582 -132.13979 -0.60546881 129.37224 -0.49623948 128.9924 -21.064514 -97.834694
34225000000 -25.318493 -135.18581 -0.53166318 129.69365 -0.4980866 129.17213 -21.29759 -94.0233
34250000000 -24.763567 -135.49445 -0.49473608 128.8261 -0.4370282 128.85501 -22.523872 -94.363884
34275000000 -24.258102 -129.49133 -0.56671906 128.8676 -0.47198996 128.3932 -21.657057 -98.71106
34300000000 -25.078566 -125.66901 -0.54525441 129.21057 -0.53057718 128.63249 -20.802401 -96.385765
34325000000 -26.594873 -135.05414 -0.505238 128.79372 -0.46699271 128.53854 -21.982115 -95.27903
34350000000 -25.458406 -143.86957 -0.5321101 128.77592 -0.45288479 128.09511 -21.65201 -97.690353
34375000000 -24.457159 -140.29231 -0.5020349 128.58968 -0.4588829 128.13077 -21.580826 -95.133514
34400000000 -24.465069 -137.64685 -0.4738104 128.20398 -0.4341563 127.85776 -22.562553 -94.653488
34425000000 -24.387884 -134.18665 -0.53165144 128.23129 -0.46774969 127.58512 -21.624695 -98.825752
34450000000 -25.064173 -136.16109 -0.49825475 128.37225 -0.47605532 127.73318 -21.047201 -94.710701
34475000000 -25.347139 -140.45871 -0.44061208 128.02333 -0.44637838 127.5351 -22.622065 -90.322021
34500000000 -24.566727 -139.55974 -0.4849824 127.53423 -0.43708766 127.04829 -22.511669 -96.652023
34525000000 -24.488945 -138.52646 -0.47097617 127.62898 -0.460026 127.07745 -21.562822 -94.670456
34550000000 -24.212305 -138.79749 -0.46297017 127.4715 -0.43485975 127.01698 -22.501699 -90.539421
34575000000 -23.960722 -133.79504 -0.45960972 127.172 -0.43852934 126.54445 -22.35438 -95.223885
34600000000 -24.480577 -131.63495 -0.45893583 127.44634 -0.47398362 126.74624 -21.500792 -93.59816
34625000000 -25.444084 -136.06927 -0.41034079 127.09058 -0.44680846 126.6967 -22.843534 -87.631119
34650000000 -23.97793 -138.62907 -0.42514676 126.42468 -0.42408857 126.13181 -22.83209 -96.574112
34675000000 -23.300661 -132.923 -0.46219403 126.88886 -0.43950438 126.29949 -21.426491 -95.889496
34700000000 -24.448153 -128.60855 -0.39088386 126.79786 -0.40623957 126.31991 -22.400011 -85.931168
34725000000 -24.416565 -130.22879 -0.37473044 126.17482 -0.40881065 125.69947 -23.010654 -91.790848
34750000000 -24.022158 -129.50134 -0.42103598 126.12406 -0.45213461 125.6114 -21.872887 -95.419861
34775000000 -24.805738 -130.23486 -0.36185643 126.20229 -0.42503718 125.87943 -22.636467 -87.994377
34800000000 -24.203268 -131.76932 -0.35459694 125.6205 -0.37692389 125.44593 -23.254498 -91.718536
34825000000 -23.503227 -130.08638 -0.382276 125.46933 -0.39244065 125.00081 -21.902098 -94.456055
34850000000 -23.665173 -124.96613 -0.32819644 125.67931 -0.3666003 125.2535 -22.383066 -85.266357
34875000000 -23.796627 -120.04553 -0.30127558 124.84126 -0.36314264 124.67109 -23.3367 -91.421761
34900000000 -24.650106 -122.90342 -0.39590207 124.5134 -0.42363575 124.46732 -22.119631 -98.41906
34925000000 -24.960339 -128.5733 -0.35915241 125.16117 -0.37892541 124.85004 -22.242411 -87.656296
34950000000 -24.031185 -124.34813 -0.27721503 124.23447 -0.29891461 124.22311 -22.990562 -85.572868
34975000000 -23.732765 -121.91994 -0.3562755 124.00845 -0.36112425 123.47328 -22.408028 -95.736046
35000000000 -24.336002 -117.01321 -0.32943055 124.22324 -0.41288275 123.83917 -22.14802 -89.693825
35025000000 -25.108377 -116.87743 -0.32953623 123.49023 -0.36318541 123.68992 -23.110558 -90.679428
35050000000 -25.346081 -120.29988 -0.39079702 123.62095 -0.39723557 123.35526 -22.372692 -96.877235
35075000000 -25.818398 -123.20844 -0.33508891 123.71841 -0.3751159 123.57961 -22.099573 -87.798759
35100000000 -24.430696 -126.7225 -0.32891092 122.88516 -0.31610498 122.88551 -23.083027 -89.292259
35125000000 -23.479214 -119.14361 -0.40035927 122.82778 -0.40854231 122.18289 -22.617952 -99.293373
35150000000 -25.086409 -107.93419 -0.37097502 122.99608 -0.46717867 122.70261 -21.681147 -92.585358
35175000000 -27.402325 -116.64619 -0.36172551 122.85223 -0.39257276 122.9437 -22.894014 -88.017097
35200000000 -26.252398 -126.01871 -0.3770963 122.31313 -0.36879742 122.33498 -22.724192 -96.85186
35225000000 -25.696972 -124.15047 -0.38399553 122.61101 -0.38634458 122.21162 -21.906219 -91.81559
35250000000 -25.577635 -121.90522 -0.3543244 122.23952 -0.36320516 121.91605 -22.797791 -90.089485
35275000000 -25.705511 -119.13589 -0.42107198 121.92727 -0.40004274 121.41653 -22.556345 -97.654129
35300000000 -26.805485 -116.27618 -0.37281421 122.47984 -0.46140042 121.77835 -21.700037 -93.290161
35325000000 -28.817007 -121.06159 -0.31708607 121.94141 -0.38370275 122.02554 -23.067257 -86.458359
35350000000 -27.476646 -136.9619 -0.37053528 121.21819 -0.344852 121.23677 -23.151129 -97.853928
35375000000 -25.563223 -129.45294 -0.38123861 121.69666 -0.42347404 120.97679 -21.889832 -94.418701
35400000000 -26.77689 -118.58585 -0.32516947 121.56006 -0.39323881 121.08495 -22.675425 -88.779083
35425000000 -28.352276 -123.93966 -0.34966525 121.10448 -0.38465697 120.68399 -22.986263 -94.653595
35450000000 -28.186655 -130.10202 -0.32953492 121.08727 -0.41705105 120.7504 -22.334171 -92.391937
35475000000 -28.818617 -131.45123 -0.29461515 120.84518 -0.36467579 120.74023 -23.260347 -86.749252
35500000000 -27.486193 -141.33966 -0.35706905 120.22688 -0.35500476 120.16145 -23.292492 -96.630959
35525000000 -26.227943 -134.38348 -0.34531847 120.5793 -0.40797475 119.919 -21.901352 -93.082069
35550000000 -27.12274 -126.47341 -0.26967105 120.62598 -0.41345215 120.12094 -22.865337 -83.961601
35575000000 -28.490683 -123.86202 -0.28743142 119.82007 -0.36942098 119.88184 -23.906315 -89.790169
35600000000 -28.828875 -135.63838 -0.31690401 119.50674 -0.39848894 119.4437 -22.827436 -94.761696
35625000000 -27.508869 -138.95491 -0.32409015 119.74818 -0.39489961 119.59319 -22.817436 -87.091797
35650000000 -27.172684 -133.00308 -0.28366202 119.3933 -0.35209659 119.145 -23.130701 -89.165901
35675000000 -27.117752 -132.54948 -0.28965002 119.20113 -0.41514352 118.85908 -22.612104 -89.952713
35700000000 -27.203747 -127.92728 -0.23174199 118.97408 -0.40940219 119.15212 -23.329468 -82.457619
35725000000 -28.141012 -126.3245 -0.29309949 118.44304 -0.36547133 118.8567 -23.935278 -90.964546
35750000000 -27.483 -138.80023 -0.33781263 118.37711 -0.40432709 118.43406 -22.571129 -93.777649
35775000000 -26.389801 -133.09877 -0.24125913 118.5028 -0.37968585 118.54695 -22.475506 -81.71151
35800000000 -26.213896 -126.78365 -0.24709938 117.88464 -0.34772694 118.19296 -23.74551 -84.023659
35825000000 -26.23708 -125.22055 -0.32103664 117.42541 -0.39693764 117.78488 -23.31731 -93.68026
35850000000 -26.778664 -122.20824 -0.28147098 117.52299 -0.43073484 117.87868 -22.722134 -87.632034
35875000000 -27.574339 -123.05157 -0.30869216 117.29186 -0.36675471 117.99086 -23.272411 -86.212646
35900000000 -26.930914 -128.46249 -0.32164595 116.97311 -0.36201853 117.38644 -22.874275 -91.857658
35925000000 -26.247835 -125.41306 -0.29519191 116.99814 -0.38535494 117.43044 -22.547981 -85.025696
35950000000 -25.893314 -118.70652 -0.26673144 116.44662 -0.31317335 117.07926 -23.350771 -87.092979
35975000000 -27.322065 -119.28763 -0.3802982 116.04179 -0.39133149 116.61615 -23.592339 -95.353424
36000000000 -27.204893 -122.68974 -0.388549 116.5421 -0.43611628 116.89261 -22.321526 -89.626366
36025000000 -26.657246 -114.97688 -0.27670324 116.05396 -0.32729337 116.98003 -22.751825 -84.508018
36050000000 -27.636614 -115.9746 -0.36599874 115.73106 -0.31411439 116.29493 -23.438278 -91.510605
36075000000 -27.518137 -120.04093 -0.36307272 115.63113 -0.37654918 115.96556 -22.916571 -90.156906
36100000000 -27.021006 -112.82213 -0.35537055 115.38568 -0.35684654 115.87692 -23.250875 -89.064728
36125000000 -28.635855 -110.48608 -0.44693846 115.26029 -0.38592038 115.46335 -23.304916 -92.623207
36150000000 -28.753902 -111.2083 -0.40229133 115.46383 -0.4189592 115.64084 -22.241196 -88.714729
36175000000 -28.722059 -106.77099 -0.34664825 115.019 -0.339389 115.67296 -22.896357 -83.503151
36200000000 -29.784925 -110.43538 -0.43533736 114.61463 -0.30721906 115.01558 -24.127575 -92.407028
36225000000 -30.233494 -110.54709 -0.46775785 114.69083 -0.41358644 114.51361 -22.759516 -91.760986
36250000000 -29.545919 -107.09611 -0.44792929 115.04589 -0.44192687 114.87817 -22.216246 -86.092812
36275000000 -30.402639 -100.3176 -0.41217297 114.54476 -0.38492811 114.61249 -23.17251 -87.539215
36300000000 -32.318146 -98.159904 -0.45885766 114.47292 -0.41686156 114.49001 -22.651316 -88.965698
36325000000 -32.754951 -109.20701 -0.43120766 114.29702 -0.37778166 114.44357 -22.755081 -86.395401
36350000000 -33.024899 -107.56958 -0.46403915 114.07973 -0.35791382 113.99786 -23.497395 -89.542824
36375000000 -34.421104 -106.42813 -0.50381142 114.38624 -0.43332908 113.51164 -22.080713 -90.861053
36400000000 -34.241371 -114.70197 -0.41149703 114.35706 -0.47531784 114.0201 -21.848139 -85.697723
36425000000 -35.263596 -113.01974 -0.37701932 113.7765 -0.394196 113.96605 -23.261604 -84.508125
36450000000 -36.76823 -121.19415 -0.46375233 113.52783 -0.39544505 113.47285 -23.151379 -91.482254
36475000000 -37.445244 -125.93987 -0.44519889 113.62725 -0.41809773 113.46404 -22.129036 -89.535988
36500000000 -39.915489 -154.31371 -0.43094495 113.61838 -0.39439017 113.21817 -22.623873 -86.970375
36525000000 -35.587708 -163.47894 -0.42012635 113.37044 -0.41626585 112.94131 -22.513798 -89.452568
36550000000 -35.050591 -147.70215 -0.35944518 113.18748 -0.46199885 113.11417 -22.480213 -85.226402
36575000000 -37.230034 -148.13205 -0.39780447 112.55895 -0.3911891 113.10905 -23.67317 -85.174835
36600000000 -37.183754 -171.59108 -0.45557457 112.57491 -0.38029844 112.58046 -23.229681 -94.27626
36625000000 -35.354378 -178.86095 -0.43853655 113.03898 -0.431849 112.47056 -21.708796 -89.87159
36650000000 -33.662132 -179.52625 -0.33756948 112.4738 -0.39483947 112.5034 -22.904793 -81.526466
36675000000 -32.885666 -168.90746 -0.3751978 111.90562 -0.41178828 112.15393 -23.827513 -87.73381
36700000000 -33.726158 -163.09128 -0.3982293 111.89697 -0.44160292 112.21522 -22.621 -89.238731
36725000000 -35.28091 -168.70027 -0.3718963 111.46694 -0.38336238 112.17493 -23.116806 -85.520569
36750000000 -33.107094 172.04596 -0.4398928 111.50255 -0.37427482 111.6347 -23.434151 -90.921898
36775000000 -31.087027 -177.9238 -0.39431909 111.5618 -0.4116281 111.59319 -22.168205 -88.178986
36800000000 -31.321722 -168.44151 -0.30582044 110.97878 -0.38745463 111.54381 -23.173866 -78.08474
36825000000 -31.514387 -163.95055 -0.4298189 110.44517 -0.39883497 111.29147 -24.573109 -88.120605
36850000000 -32.067554 -159.65811 -0.46880397 110.79844 -0.42757788 111.32333 -22.362488 -94.670303
36875000000 -33.098877 -172.08482 -0.42554903 110.75021 -0.38550499 111.17191 -22.340937 -84.656525
36900000000 -30.350986 -179.90651 -0.3871499 110.35881 -0.35960117 110.63628 -23.750727 -84.026924
36925000000 -29.521908 -161.42941 -0.38905185 109.94682 -0.42557976 110.62276 -23.12351 -86.933144
36950000000 -30.396709 -152.34413 -0.42848024 109.797 -0.39644116 110.71704 -22.965559 -84.004776
36975000000 -30.755497 -155.24673 -0.45227942 109.55011 -0.36692378 110.37211 -23.78483 -89.984558
37000000000 -30.659895 -149.96814 -0.49718305 109.94807 -0.40326753 110.29874 -22.239038 -91.33374
37025000000 -32.247414 -150.81155 -0.4104774 109.69888 -0.34707671 110.11246 -22.492872 -79.518669
37050000000 -31.071962 -158.80247 -0.39219168 108.98214 -0.33592725 109.52708 -24.554918 -81.595245
37075000000 -29.406673 -149.02657 -0.51067179 108.97382 -0.42111373 109.51527 -23.066347 -91.00132
37100000000 -29.299564 -133.02567 -0.48680264 109.13351 -0.39778453 109.7543 -22.083225 -85.96109
37125000000 -32.59919 -125.62788 -0.47168058 108.97836 -0.34658012 109.34518 -23.377295 -82.991837
37150000000 -33.469738 -135.43501 -0.47777569 108.93056 -0.3506119 108.88526 -22.950323 -87.201927
37175000000 -34.007915 -131.24791 -0.42768434 108.67805 -0.37189254 108.72678 -22.425148 -80.151062
37200000000 -34.42844 -141.21988 -0.48499274 108.28544 -0.35783941 108.35788 -24.021902 -80.315872
37225000000 -31.617695 -136.24635 -0.51091725 108.5133 -0.41585413 108.27927 -22.678629 -91.113594
37250000000 -31.846941 -116.23904 -0.47104225 108.76376 -0.43750563 108.63461 -21.640745 -84.454765
37275000000 -36.986202 -105.16546 -0.43089542 108.19145 -0.32438713 108.18642 -23.272045 -75.536919
37300000000 -36.855053 -123.41541 -0.44851664 107.72537 -0.34976667 107.42607 -23.555834 -84.755081
37325000000 -35.22863 -113.46857 -0.49931899 108.12389 -0.44199187 107.46814 -21.834114 -83.327499
37350000000 -37.525986 -106.77895 -0.43966243 107.89597 -0.40151376 107.35679 -22.867371 -78.710205
37375000000 -36.721153 -112.90131 -0.46823543 107.61398 -0.43537384 107.19344 -22.793251 -85.976547
37400000000 -36.201935 -95.446915 -0.45334858 107.94527 -0.42715687 107.36986 -21.943428 -82.103973
37425000000 -40.024315 -60.994717 -0.35272422 107.1433 -0.3578971 107.01717 -23.051554 -72.677498
37450000000 -47.276775 -95.441635 -0.47969425 106.82884 -0.37654376 106.3821 -23.659403 -82.436996
37475000000 -38.932377 -103.24315 -0.46140468 107.37849 -0.47237316 106.5014 -21.640711 -85.704994
37500000000 -42.441818 -47.931046 -0.37416872 107.03764 -0.44973779 106.63581 -22.536606 -75.898003
37525000000 -58.992306 -146.79156 -0.42087922 106.42718 -0.38662055 106.24202 -23.460293 -79.427406
37550000000 -41.341454 -93.458076 -0.38507655 106.53354 -0.43213618 106.1105 -22.48731 -81.735939
37575000000 -38.407845 -18.71722 -0.37984821 106.12367 -0.40158904 105.9501 -22.941959 -74.575714
37600000000 -37.772152 52.386078 -0.43324625 105.89709 -0.37234044 105.44646 -23.572039 -81.359032
37625000000 -40.256306 113.7583 -0.38457292 106.0292 -0.4402785 105.48078 -22.164652 -84.048271
37650000000 -42.920769 121.94064 -0.36777574 105.6873 -0.41674533 105.63096 -22.556044 -71.767754
37675000000 -44.204674 142.14552 -0.36104262 105.10648 -0.38905868 105.24828 -24.113331 -75.307266
37700000000 -48.598892 171.39912 -0.43405837 105.03935 -0.42429829 105.10489 -22.813736 -83.371017
37725000000 -46.201107 59.247841 -0.39637852 104.9821 -0.41066623 104.93653 -22.529572 -75.317757
37750000000 -35.976822 97.490791 -0.39818588 104.72601 -0.39031807 104.58757 -23.61289 -76.366394
37775000000 -34.49704 149.95786 -0.40398788 104.47072 -0.41280386 104.56071 -22.641432 -80.888565
37800000000 -39.240494 -162.84879 -0.3731308 104.25349 -0.41788208 104.71043 -22.479397 -71.787155
37825000000 -52.072357 146.94362 -0.38517642 103.82825 -0.38518718 104.32251 -24.11475 -74.04705
37850000000 -39.583317 141.89502 -0.49391168 103.82571 -0.41168198 104.021 -22.803774 -84.573227
37875000000 -40.744576 147.22762 -0.39873812 103.98865 -0.42009985 103.96651 -22.04641 -75.4076
37900000000 -36.169678 130.76604 -0.40432343 103.308 -0.39913693 103.67229 -23.338465 -70.445107
37925000000 -31.843695 167.63219 -0.44178089 103.11946 -0.40206492 103.68367 -23.070005 -80.503738
37950000000 -32.255951 -153.1339 -0.4483934 103.06121 -0.39686388 103.83936 -22.045046 -76.234207
37975000000 -37.782711 -124.45718 -0.44545746 102.74771 -0.35762304 103.41789 -23.309326 -72.590782
38000000000 -42.098988 -170.43883 -0.49228239 102.7786 -0.40504295 102.98505 -22.926319 -81.214264
38025000000 -36.558281 -177.11166 -0.48492759 102.80975 -0.42331502 102.96032 -21.519951 -75.932152
38050000000 -34.958828 -162.11388 -0.42893609 102.29945 -0.39382526 102.75725 -22.730316 -68.075203
38075000000 -33.098743 -150.93048 -0.50299454 102.00893 -0.41181192 102.70597 -23.13283 -80.443001
38100000000 -32.155083 -135.65616 -0.58286691 102.40324 -0.39449337 102.80344 -21.541702 -80.27684
38125000000 -34.935604 -108.08867 -0.45494059 102.33183 -0.346798 102.28319 -22.169991 -68.042831
38150000000 -38.715111 -120.27943 -0.52209866 101.64628 -0.40118906 101.70694 -22.837286 -76.09948
38175000000 -35.083145 -142.33417 -0.54585326 102.19373 -0.45847225 101.95924 -21.157743 -77.687088
38200000000 -32.985958 -128.60886 -0.4519878 101.6703 -0.40198499 101.88825 -21.899786 -67.404144
38225000000 -31.45097 -115.59386 -0.54657823 101.1943 -0.38146442 101.54758 -22.983736 -76.72982
38250000000 -31.710348 -96.089546 -0.57308394 101.98364 -0.42271847 101.55621 -21.149284 -78.983002
38275000000 -34.227657 -80.958443 -0.46969065 101.57467 -0.37970707 101.1559 -21.076517 -65.396095
38300000000 -33.796871 -99.243134 -0.51229513 100.77811 -0.43186733 100.40841 -22.62888 -70.352837
38325000000 -31.283705 -98.65374 -0.57477707 101.34415 -0.53575003 100.91846 -20.921448 -79.869659
38350000000 -31.427444 -84.494553 -0.51816809 101.16624 -0.4516041 101.1003 -20.962376 -69.366722
38375000000 -30.941984 -83.665382 -0.54602319 100.73845 -0.42068285 100.39812 -22.153839 -71.70195
38400000000 -30.02615 -72.315407 -0.53498572 101.48105 -0.47155091 100.29808 -20.612646 -79.032089
38425000000 -31.871155 -55.250626 -0.45427248 100.95045 -0.47061542 100.28817 -20.223494 -68.720032
38450000000 -35.523678 -77.674644 -0.50298285 100.31455 -0.49334711 99.787315 -22.076601 -70.950737
38475000000 -31.725233 -95.655602 -0.54292095 100.65436 -0.56791395 100.1524 -20.894749 -84.561325
38500000000 -31.535143 -73.307236 -0.48883525 100.84677 -0.50213444 100.57264 -20.41847 -74.31723
38525000000 -33.684471 -61.881432 -0.4440521 100.26549 -0.41940868 99.810562 -21.798948 -71.796547
38550000000 -33.303047 -65.276512 -0.47165287 100.15646 -0.48406884 99.299438 -21.180546 -83.230873
38575000000 -34.367516 -33.662373 -0.41094771 100.4155 -0.51098436 99.557243 -20.703316 -75.485489
38600000000 -42.954506 18.867012 -0.41048381 99.348434 -0.44856101 99.370972 -22.662609 -73.091042
38625000000 -39.96521 -113.21641 -0.49858469 99.709732 -0.49447981 99.40168 -21.726835 -87.990067
38650000000 -35.497379 -39.947506 -0.360535 99.949974 -0.45168686 99.679268 -20.828161 -76.491409
38675000000 -34.630291 11.448733 -0.35002151 98.681969 -0.36909243 98.912773 -22.368963 -68.634033
38700000000 -37.587555 39.214703 -0.42856246 98.759842 -0.43005666 98.274017 -22.825903 -82.576019
38725000000 -37.122116 48.035809 -0.3894124 98.560463 -0.46553642 98.462578 -21.34856 -78.483574
38750000000 -35.664772 78.061516 -0.4145709 98.229858 -0.41414729 98.385193 -22.658621 -71.888031
38775000000 -39.883133 112.02413 -0.40881592 98.112877 -0.41339338 98.253899 -22.646662 -82.524727
38800000000 -43.018417 18.660383 -0.40352356 97.852013 -0.41985756 98.160324 -21.224077 -74.901703
38825000000 -33.478138 41.89381 -0.37075907 97.629631 -0.38900712 97.753769 -22.913311 -66.526505
38850000000 -32.125019 71.373009 -0.45099846 96.927872 -0.3968614 97.377998 -23.218994 -82.147575
38875000000 -33.336647 87.813766 -0.52626944 97.49614 -0.44295946 97.449829 -20.890018 -81.523476
38900000000 -31.964146 96.62915 -0.38378748 97.226082 -0.38539124 97.302345 -22.337013 -67.240471
38925000000 -35.586857 124.50054 -0.44599271 96.338211 -0.37417299 97.109032 -23.120689 -78.812263
38950000000 -40.277546 65.020752 -0.51252931 96.870735 -0.42488962 97.053741 -21.352846 -78.761024
38975000000 -30.757475 71.616882 -0.43774047 96.281036 -0.38359421 96.65332 -22.577023 -68.466774
39000000000 -29.284664 110.88274 -0.54066706 96.260239 -0.37174177 96.545914 -22.790606 -84.051636
39025000000 -32.031757 127.90167 -0.52613968 96.890556 -0.37402362 96.744698 -20.845472 -82.222832
39050000000 -33.27932 122.52198 -0.42378843 95.860573 -0.32726052 96.246338 -21.815413 -64.975746
39075000000 -33.633961 140.86176 -0.52635497 95.609734 -0.32317603 95.969383 -23.753298 -79.360832
39100000000 -40.188152 148.41008 -0.58023643 96.349144 -0.3767837 96.045639 -21.050812 -83.002296
39125000000 -34.175316 73.491531 -0.48767504 95.897263 -0.3845132 95.699928 -21.444126 -68.703728
39150000000 -29.048113 106.31312 -0.54223746 95.551704 -0.347078 95.242958 -22.854095 -77.270981
39175000000 -29.397987 142.53416 -0.52296913 95.993103 -0.33528772 95.526299 -20.837265 -80.002884
39200000000 -36.007248 160.0925 -0.47851652 95.362564 -0.28730777 95.195572 -21.321035 -63.573101
39225000000 -42.459587 143.12018 -0.51778346 94.885757 -0.30171609 94.509254 -23.397436 -73.439636
39250000000 -41.733261 129.5063 -0.61068261 96.050629 -0.39809039 94.95121 -20.27145 -84.176529
39275000000 -36.061359 74.265068 -0.48768249 96.005005 -0.38194552 94.723236 -20.407623 -64.301506
39300000000 -32.331852 115.51159 -0.44499749 94.422874 -0.35984501 93.990906 -22.253853 -65.482277
39325000000 -31.901901 169.96819 -0.56611073 95.235931 -0.33810779 94.439766 -21.204683 -79.507355
39350000000 -37.6521 -102.35835 -0.46413791 95.488258 -0.29030424 94.329857 -20.577236 -63.924416
39375000000 -36.757477 -33.00071 -0.45035571 94.529449 -0.30539387 93.443741 -21.689829 -65.595093
39400000000 -36.466103 26.781935 -0.48193786 95.470192 -0.38942832 93.544395 -20.242031 -76.837227
39425000000 -36.602917 64.286209 -0.33667275 95.041656 -0.37666503 93.576965 -19.725698 -61.902782
39450000000 -41.941261 150.96434 -0.40606603 93.511864 -0.36204383 92.888733 -21.656094 -61.685078
39475000000 -38.208965 -103.07745 -0.44393256 94.615707 -0.36131659 93.09655 -21.019028 -76.368683
39500000000 -31.96417 -41.054375 -0.34073073 94.462715 -0.34168744 93.257484 -19.470139 -63.563183
39525000000 -30.515507 -7.7308259 -0.38202679 93.923447 -0.36218923 92.286064 -20.623352 -60.020336
39550000000 -33.613029 21.154465 -0.29956073 93.4543 -0.43581772 92.136414 -20.657639 -73.578362
39575000000 -38.368683 22.750654 -0.32082438 93.191292 -0.43979114 92.511887 -19.895033 -63.676441
39600000000 -41.147598 -38.206631 -0.35522717 92.741096 -0.39052939 92.067757 -21.43437 -59.584885
39625000000 -32.232738 -54.079582 -0.34381649 92.796974 -0.39690569 91.906662 -20.768135 -75.08815
39650000000 -27.203075 -22.093006 -0.28103387 93.39283 -0.42048681 92.106544 -18.943672 -64.721123
39675000000 -27.276007 11.063037 -0.23671804 91.987244 -0.42328405 91.563133 -20.377216 -56.947353
39700000000 -33.057571 30.528437 -0.37447828 91.078712 -0.4763889 91.200943 -21.840752 -70.789169
39725000000 -36.212555 -1.6459225 -0.38972396 91.957237 -0.45857871 91.657074 -20.165154 -69.807373
39750000000 -32.674988 -17.653093 -0.27712446 91.220985 -0.40413472 91.328354 -20.153067 -60.414547
39775000000 -30.474203 -19.980087 -0.41458717 91.033241 -0.43153763 90.809074 -21.055414 -70.144615
39800000000 -27.967119 -3.2405169 -0.29752237 91.173813 -0.45582598 90.697823 -19.774105 -68.281479
39825000000 -28.321489 22.758522 -0.35394812 89.957504 -0.47782546 90.485535 -20.841631 -59.748535
39850000000 -32.480759 52.437717 -0.50422019 90.301071 -0.45776802 90.436424 -21.860039 -74.957939
39875000000 -40.766865 18.554571 -0.42260149 90.554398 -0.44059709 90.641205 -19.818727 -73.531036
39900000000 -32.965271 -15.458717 -0.37273628 90.132515 -0.41218051 90.476501 -19.874596 -61.464264
39925000000 -30.958027 6.5531149 -0.44393906 89.42244 -0.43706959 89.793633 -21.769238 -69.812187
39950000000 -31.308483 23.990545 -0.52941078 89.420128 -0.51235521 89.694725 -20.306692 -75.147774
39975000000 -31.138311 51.598045 -0.50877333 89.897827 -0.47787005 89.711952 -20.565901 -68.803604
40000000000 -34.49585 86.528442 -0.47324845 89.261177 -0.43011621 89.498619 -21.173824 -74.120964
40025000000 -48.770752 117.69186 -0.58890581 89.669754 -0.41925657 89.691803 -20.091717 -76.017242
40050000000 -37.564861 -1.6176838 -0.46055803 89.617691 -0.39945838 89.292656 -20.10556 -64.957779
40075000000 -35.803322 37.219883 -0.55034995 88.48774 -0.45853347 88.895073 -21.675219 -73.784752
40100000000 -34.224987 70.513893 -0.67011732 89.933266 -0.47309664 89.176857 -20.086571 -83.759346
40125000000 -33.715565 95.829941 -0.49788839 89.636284 -0.40760192 88.865074 -19.854015 -70.010315
40150000000 -34.118656 149.62646 -0.55082524 88.817741 -0.35502061 88.28791 -20.990824 -70.381844
40175000000 -36.30735 -138.11378 -0.5676204 89.763237 -0.38287583 88.362556 -20.213802 -74.386536
40200000000 -37.673988 -51.669209 -0.48591977 89.212524 -0.41351664 88.542404 -19.672207 -68.688293
40225000000 -37.457481 48.042831 -0.59637803 89.012512 -0.43359485 88.052795 -20.948322 -71.357651
40250000000 -33.632751 123.67794 -0.52188116 89.862984 -0.40847802 88.299545 -19.878439 -78.773109
40275000000 -34.717381 -176.3299 -0.45373577 89.636696 -0.30894136 88.177246 -19.108671 -65.043762
40300000000 -33.352074 -144.18935 -0.45871386 88.823013 -0.28818485 87.081802 -20.15794 -62.45322
40325000000 -32.331722 -128.03618 -0.47606423 89.258713 -0.38956115 87.114456 -19.979858 -74.867523
40350000000 -34.548008 -84.125603 -0.43457133 89.933075 -0.37002081 87.82653 -18.912788 -68.954277
40375000000 -44.076653 -46.519016 -0.37347084 89.41497 -0.36787441 87.089996 -19.197132 -62.958977
40400000000 -35.290916 175.00801 -0.31982356 89.124184 -0.39363718 86.954109 -19.53886 -69.2584
40425000000 -29.291513 -136.59404 -0.2553663 89.621254 -0.26572317 86.769432 -18.479309 -61.749542
40450000000 -26.468931 -111.84611 -0.20758238 88.316963 -0.24412245 85.968819 -19.013828 -62.141064
40475000000 -27.088781 -84.132889 -0.2415625 88.93557 -0.33008051 85.884331 -19.149467 -71.509705
40500000000 -29.215134 -52.545616 -0.052166954 89.473915 -0.35450202 86.660065 -17.788034 -65.509056
40525000000 -35.095573 -57.490707 -0.036351584 87.746574 -0.37576711 86.194565 -18.599827 -58.392975
40550000000 -33.142921 -120.80233 -0.13493617 87.080811 -0.39890069 85.354126 -20.057661 -67.446396
40575000000 -26.990822 -103.84975 0.022262502 87.480469 -0.32255602 85.76963 -18.544119 -66.718933
40600000000 -24.192572 -84.489922 0.028959701 86.925545 -0.22267625 85.295082 -18.349691 -61.447456
40625000000 -25.150654 -66.997826 0.051835544 86.18486 -0.31359914 84.518372 -19.64011 -70.432343
40650000000 -26.957176 -49.862789 0.094916783 85.356544 -0.39582285 85.014145 -19.135944 -67.059669
40675000000 -29.062614 -45.812164 -0.021945974 85.320152 -0.39467391 85.067749 -19.580414 -57.557976
40700000000 -30.682261 -78.696106 -0.03611315 83.92791 -0.43898296 84.521667 -21.414833 -66.425529
40725000000 -24.77606 -80.175781 -0.029199431 84.28965 -0.38314202 84.542862 -19.271324 -68.102005
40750000000 -22.026106 -57.910526 0.097403459 84.232971 -0.26652452 84.713966 -18.977877 -58.68948
40775000000 -24.389545 -34.095161 -0.14921112 82.357292 -0.37946677 83.938873 -22.823322 -59.074013
40800000000 -27.535658 -23.814856 -0.23821178 82.8405 -0.49520099 83.832146 -21.065731 -64.520157
40825000000 -28.420506 -41.254997 -0.0853028 82.737381 -0.44118193 84.570587 -19.884951 -56.078262
40850000000 -27.961353 -58.60825 -0.26508421 81.687447 -0.40223524 84.004349 -22.080416 -61.953568
40875000000 -25.401905 -60.806095 -0.24442701 82.037277 -0.40182132 83.487572 -20.638756 -68.916367
40900000000 -23.241381 -47.138943 -0.23196551 81.075897 -0.32869107 83.529259 -20.695826 -57.384552
40925000000 -23.747252 -17.63755 -0.48374823 81.438011 -0.38502559 83.149033 -23.314589 -53.494099
40950000000 -27.326771 5.088727 -0.49345669 81.228218 -0.51194054 83.183823 -21.128195 -71.503845
40975000000 -35.753822 -35.539074 -0.42989823 80.85434 -0.42029312 83.650185 -19.6665 -66.421516
41000000000 -29.718184 -60.1143 -0.56832844 80.855682 -0.30971047 83.053886 -22.670877 -68.875595
41025000000 -26.417658 -37.498627 -0.67339396 80.935966 -0.42839262 82.392311 -21.48579 -75.354187
41050000000 -25.261314 -18.087797 -0.66809726 81.287552 -0.46996883 82.51667 -20.119368 -70.106064
41075000000 -26.506695 9.2671995 -0.75762808 81.517586 -0.44504702 82.638748 -21.468945 -73.974785
41100000000 -32.157715 33.586098 -0.86766797 82.165268 -0.51043171 82.883057 -19.342461 -85.08477
41125000000 -39.564137 4.8062477 -0.75563645 82.02742 -0.3750762 82.727943 -19.46703 -75.617744
41150000000 -31.487598 -22.748075 -0.81845486 82.158646 -0.31529996 82.121582 -21.34453 -75.670753
41175000000 -27.224306 -14.743174 -0.95280308 84.524651 -0.48049858 82.228737 -17.894079 -85.56002
41200000000 -26.073509 14.609072 -0.79421365 84.507011 -0.54811329 82.633629 -17.161442 -78.652283
41225000000 -26.470518 45.283073 -0.76402205 84.529976 -0.453251 82.767525 -18.218349 -78.579742
41250000000 -30.7925 56.139423 -0.71016908 86.238724 -0.39025965 83.231262 -16.372396 -81.027779
41275000000 -31.324617 -4.4894867 -0.68520606 87.084229 -0.37870136 83.557304 -15.075622 -67.777786
41300000000 -22.998638 -10.724171 -0.52525854 88.74353 -0.27581897 83.436012 -14.079124 -66.675087
41325000000 -20.598866 10.16175 -0.093761019 91.762054 -0.45721486 85.668556 -11.436187 -71.529869
41350000000 -18.342237 25.682829 -0.27468339 92.865341 -0.55342424 88.446609 -10.181123 -49.697433
41375000000 -16.422384 15.356265 -0.002124303 96.484268 -0.21792832 91.36467 -7.9683862 -40.707268
41400000000 -10.267805 15.077752 0.7386868 114.90792 -0.05629614 106.867 -1.1390731 -24.556511
41425000000 -4.7805648 40.206223 -1.7812265 175.08438 -2.9987736 140.34465 5.1640415 29.722528
41450000000 -5.6967549 97.943634 10.378395 71.773499 -14.081998 39.946857 6.0761275 -98.753113
41475000000 -4.4193592 70.418304 -7.4436769 47.957596 -17.56496 55.525391 -4.3985419 101.88239
41500000000 -6.9860978 39.66481 -8.0398445 90.465744 -7.5441442 107.31731 -2.1115427 91.120834
41525000000 -11.908693 -1.640426 -2.2131736 96.231186 -2.485775 100.17726 -6.4212255 56.664242
41550000000 -14.43437 -39.047329 -0.85161 89.77562 -1.0635873 93.065826 -9.5428953 41.980129
41575000000 -16.463289 -49.516113 -0.65759242 83.262108 -0.76134151 86.774399 -14.868041 39.718315
41600000000 -18.803612 -45.670696 -0.51888597 79.642914 -0.55375183 83.251732 -20.670465 2.9339077
41625000000 -22.372414 -41.095993 -0.43038529 78.338348 -0.46665034 81.488998 -20.630829 -8.8792353
41650000000 -25.481796 -59.70892 -0.49514493 77.373291 -0.51350695 80.809547 -22.739681 -28.249077
41675000000 -24.16135 -80.334702 -0.52442086 76.659996 -0.40399912 79.314056 -22.350264 -50.719242
41700000000 -21.56035 -69.667946 -0.57511365 76.511536 -0.37689805 78.058105 -21.853064 -47.646126
41725000000 -20.301371 -49.309669 -0.55071443 76.499542 -0.43257722 77.457245 -21.059412 -58.107113
41750000000 -21.075497 -28.831554 -0.50431907 76.083771 -0.45790094 77.57579 -19.330366 -58.934364
41775000000 -24.741531 -17.687099 -0.49626651 75.342636 -0.46628487 77.424133 -19.816174 -55.008568
41800000000 -26.048031 -52.355827 -0.61544704 74.73539 -0.55658793 77.166039 -19.133499 -62.279236
41825000000 -21.330944 -58.406384 -0.5440703 74.816582 -0.40813139 76.664505 -18.005701 -61.157372
41850000000 -19.313601 -39.637913 -0.58225352 73.778244 -0.33533651 75.441925 -18.475529 -49.483402
41875000000 -18.762203 -24.000624 -0.71770895 73.607086 -0.45156881 74.720543 -17.769753 -49.257702
41900000000 -19.372114 -19.804876 -0.76288539 72.776207 -0.5577327 74.894646 -16.656315 -50.293228
41925000000 -20.727633 -20.932709 -0.88140476 72.081757 -0.49912211 74.616165 -16.772247 -42.894642
41950000000 -20.584774 -37.302742 -1.0463738 71.678146 -0.55859667 73.567436 -16.021297 -40.575981
41975000000 -17.507259 -47.45739 -1.1419091 70.740822 -0.52212059 72.088333 -14.570393 -28.186218
42000000000 -14.956338 -39.001965 -1.2433776 70.219978 -0.39102754 69.948059 -13.321159 -11.43158
42025000000 -14.114811 -39.386803 -1.6567057 68.319427 -0.60356927 66.043587 -11.749891 -13.224133
42050000000 -12.390287 -80.408188 -3.4677122 57.919876 -2.0243051 56.264309 -5.5140815 -23.286104
42075000000 -7.8175297 -132.24828 -13.397185 90.167915 -6.5041108 46.455036 -0.14152277 -59.690266
42100000000 -5.4728122 159.76874 -0.086792126 101.96938 -7.3804884 109.24398 -11.268835 -31.080732
42125000000 -7.7826543 -97.5839 0.26169679 30.026814 -1.9599949 38.978092 0.87435114 31.989584
42150000000 -9.899621 -41.125149 1.153779 68.001671 0.76254225 65.144699 -13.844255 84.478226
42175000000 -14.927257 -23.725424 0.27585205 74.24015 0.072620936 70.153702 -24.313389 0.13871895
42200000000 -21.856817 -24.128965 0.029028526 73.871506 -0.16368537 70.306404 -24.299582 0.71073234
42225000000 -23.438608 -41.715981 0.2804099 76.181763 -0.13139914 72.406746 -21.379669 -68.452652
42250000000 -21.299358 -37.950726 0.43099549 76.993431 -0.29013231 74.163391 -16.975161 -66.20121
42275000000 -20.348722 -28.803516 0.16719861 74.835403 -0.45264176 73.657066 -19.574087 -49.82238
42300000000 -19.727446 -10.417034 0.12678012 73.502747 -0.41155446 73.000458 -20.606125 -62.039566
42325000000 -21.0324 18.931612 0.11665528 73.726372 -0.33757198 73.304718 -18.138681 -61.245373
42350000000 -29.65484 52.203094 0.14611526 73.731255 -0.29079056 73.459877 -17.642038 -53.432514
42375000000 -28.807405 -96.328804 0.2837534 72.427002 -0.22546661 73.086342 -17.447363 -65.003204
42400000000 -22.635851 -54.248825 0.14777759 71.413315 -0.31825727 72.885139 -18.065731 -63.553238
42425000000 -20.997845 -20.651623 -0.043550126 71.342728 -0.47208533 73.103966 -19.238848 -52.088139
42450000000 -22.292133 8.5586157 -0.12508862 70.800858 -0.44039756 72.868904 -18.607941 -64.154213
42475000000 -27.202499 56.169586 -9.7175311e-005 70.488701 -0.33195636 72.376465 -17.138096 -63.289238
42500000000 -28.662893 -176.86212 -0.011771586 69.70726 -0.24500799 72.187553 -18.235109 -58.258286
42525000000 -22.621712 -106.24039 -0.24339667 69.105194 -0.21658747 71.360603 -19.985023 -69.372971
42550000000 -20.36492 -53.164913 -0.31110278 69.260529 -0.30378771 71.238625 -18.979671 -62.975555
42575000000 -21.43903 -13.112275 -0.37349764 69.426987 -0.43648502 71.997009 -18.872665 -54.958832
42600000000 -28.880796 29.947071 -0.46314654 69.243652 -0.39305991 72.033928 -18.801161 -68.901558
42625000000 -30.892685 169.82607 -0.36679879 68.566154 -0.29418525 70.364716 -18.15213 -68.102051
42650000000 -21.86301 -130.38515 -0.44974172 68.321083 -0.31205171 69.969704 -19.831858 -54.695583
42675000000 -17.669977 -88.220016 -0.71217763 69.513618 -0.22814946 69.941772 -20.375345 -64.51973
42700000000 -16.918053 -45.685547 -0.64714485 69.664238 -0.27048042 69.522789 -17.913645 -65.552933
42725000000 -21.140125 -6.6926465 -0.67271638 68.858017 -0.45186403 70.649857 -17.699368 -57.515659
42750000000 -39.853832 -174.62695 -0.70707053 69.602303 -0.33957124 71.011993 -19.487797 -69.369911
42775000000 -20.777775 -118.61159 -0.70324183 69.309608 -0.27386582 68.585732 -18.41313 -67.164993
42800000000 -15.624784 -89.166695 -0.78333807 70.166992 -0.28120485 66.96814 -17.936985 -57.721336
42825000000 -13.646446 -62.342407 -0.78397185 71.532822 -0.34310812 67.11866 -18.000923 -69.626869
42850000000 -14.606629 -29.240778 -0.7715776 71.981422 -0.37308145 68.352631 -16.847078 -73.071266
42875000000 -21.390158 8.7960958 -0.65345889 69.98967 -0.46124101 69.955544 -17.734713 -65.101349
42900000000 -26.225323 -130.95195 -0.70246911 70.471977 -0.32655746 70.034332 -18.950771 -71.196823
42925000000 -14.55585 -97.303528 -0.54493529 71.955498 -0.21994546 66.303848 -16.535177 -71.343971
42950000000 -11.504114 -72.45858 -0.50355196 71.629875 -0.40766093 63.533546 -16.966822 -69.415329
42975000000 -10.749981 -45.381371 -0.40605932 72.925003 -0.54411089 64.101166 -18.363749 -82.847176
43000000000 -13.024392 -6.4434762 -0.40835828 71.547485 -0.41393611 67.333107 -17.364389 -76.043365
43025000000 -22.240751 54.165707 -0.49949121 69.291176 -0.35083446 69.312752 -17.434767 -63.807449
43050000000 -16.526611 -125.60781 -0.36813787 70.740585 -0.21770294 67.848267 -18.08882 -69.816978
43075000000 -9.1436872 -88.57058 0.081640936 70.84687 -0.33794668 62.070061 -16.739328 -82.622719
43100000000 -7.2954664 -55.066589 -0.035563573 70.008247 -0.54576355 58.789371 -18.238319 -68.483177
43125000000 -7.7322783 -16.435225 -0.21309556 68.734253 -0.42155755 59.378536 -19.089691 -65.700836
43150000000 -10.401202 34.494354 -0.43746081 68.422897 -0.18847178 63.467907 -17.032288 -71.977226
43175000000 -14.945893 138.4946 -0.20267528 67.884171 -0.077485278 66.755417 -16.546202 -62.984768
43200000000 -7.7626891 -124.51271 -0.03463072 67.660347 -0.28758675 62.763115 -18.068161 -73.152397
43225000000 -3.4897373 -82.794113 0.023124726 66.640572 -1.2903895 52.778309 -17.86183 -70.409248
43250000000 -1.2847999 -41.015923 -1.1297157 66.959908 -1.8834984 43.780407 -15.335926 -71.608475
43275000000 1.0527813 1.6634998 -1.3794174 68.858017 -1.7450732 32.573212 -19.123259 -90.637711
43300000000 2.9614716 58.638588 -1.2761186 65.504578 -0.96613508 27.800167 -18.647419 -87.285049
43325000000 5.2531128 137.14182 0.5963583 57.474586 -1.4606416 30.279119 -17.558172 -87.682014
43350000000 4.4540052 -138.56441 -0.11618613 65.704262 -5.514883 38.972107 -18.682392 -64.436836
43375000000 2.7407651 -96.659653 -1.0166762 74.292526 -10.098939 79.353302 -17.949608 -101.23419
43400000000 -0.8020038 -77.249336 0.087181292 86.954971 -3.3952661 98.700279 -18.195204 42.510147
43425000000 0.98209846 -7.7877159 0.86550689 69.152748 -6.9890804 88.337669 -13.319699 -51.057507
43450000000 8.3208647 64.991463 -0.61842376 59.037868 -14.254033 -99.703926 -19.369881 -89.697365
43475000000 5.7507763 -158.29852 1.213622 59.362099 -2.0275552 30.519714 -20.791912 -74.377533
43500000000 1.1486009 -53.636108 -0.96348822 67.041153 -2.6228266 51.555393 -18.13533 -67.856873
