!Keysight Technologies,N5224A,MY55441802,A.10.65.16
!Date: Tuesday, March 03, 2026 17:13:01
!Correction: S11(Full 2 Port(1,2)) 
!S21(Full 2 Port(1,2)) 
!S12(Full 2 Port(1,2)) 
!S22(Full 2 Port(1,2)) 
!S2P File: Measurements: S11, S21, S12, S22:
# Hz S  dB   R 50
25000000000 -2.8299954 37.842594 -8.9685659 143.7023 -9.1469393 143.98679 -2.9071326 9.5170975
25025000000 -2.9168835 37.390114 -8.9166927 143.74368 -9.1969547 144.35773 -2.9511802 9.8199224
25050000000 -2.909184 36.881676 -8.9424772 144.15822 -9.2015285 144.29478 -3.0037246 8.9986706
25075000000 -2.9610364 36.430119 -9.0939665 144.10907 -9.3132277 143.86124 -2.9062164 8.676527
25100000000 -2.9069061 35.380051 -9.1824865 143.39879 -9.3244019 144.1978 -2.9509034 8.7286749
25125000000 -2.7584534 35.561554 -9.1713057 143.11356 -9.3335152 143.82413 -2.9704821 7.8852801
25150000000 -2.8325572 36.137375 -9.185771 143.0006 -9.4895124 142.88748 -2.830662 7.8034425
25175000000 -2.9337201 35.159164 -9.2249784 142.91609 -9.5289793 143.55212 -2.8836124 8.1182652
25200000000 -2.8683736 34.35918 -9.2919006 143.56085 -9.5172377 143.65376 -2.9527433 7.2602
25225000000 -2.8538835 34.183002 -9.4557877 143.27551 -9.6384277 143.17014 -2.8362482 6.6659746
25250000000 -2.7997534 33.519848 -9.4972038 142.31725 -9.6823606 143.33398 -2.8230567 6.7913585
25275000000 -2.7057974 33.807903 -9.4432507 142.28275 -9.6776962 143.23805 -2.8512716 6.260757
25300000000 -2.872299 34.129456 -9.4807281 142.7388 -9.7628746 142.53322 -2.7636786 6.0785732
25325000000 -2.9700699 32.229836 -9.546052 142.81807 -9.8320313 142.84802 -2.798388 6.0079346
25350000000 -2.780726 31.271793 -9.6822557 142.75462 -9.8422937 143.07301 -2.8377011 5.0750513
25375000000 -2.7383628 32.170002 -9.7849464 142.53658 -9.9665747 142.78166 -2.704603 4.7517381
25400000000 -2.8445737 31.734303 -9.7752724 142.01883 -10.022454 142.90514 -2.7125795 5.2034149
25425000000 -2.800184 31.11743 -9.7586527 142.06914 -9.9863234 142.95306 -2.8062961 4.5078669
25450000000 -2.8141196 31.403379 -9.8126736 142.72502 -10.047749 142.55811 -2.7235353 3.8318455
25475000000 -2.9078739 30.414751 -9.9178677 142.52415 -10.137056 142.65082 -2.7027161 3.9570334
25500000000 -2.7879488 29.464565 -9.9627047 141.87392 -10.127635 142.80382 -2.7599328 3.3620141
25525000000 -2.7074251 30.305386 -9.9798698 141.9951 -10.183639 142.68967 -2.6664987 2.9850771
25550000000 -2.8561661 30.331249 -10.042866 142.11728 -10.257964 142.68332 -2.6610804 3.5154016
25575000000 -2.8662469 29.123264 -10.039054 142.14954 -10.231877 142.69568 -2.7770703 2.8365803
25600000000 -2.7544408 28.998005 -10.105988 142.35959 -10.288527 142.34984 -2.703778 1.8013142
25625000000 -2.7809455 28.770977 -10.191652 141.86124 -10.397367 142.58932 -2.6169751 2.1041708
25650000000 -2.7701452 28.151661 -10.209653 141.38249 -10.359221 142.66879 -2.722739 2.0326412
25675000000 -2.7374861 28.465378 -10.215075 141.65865 -10.351021 142.44284 -2.7080464 1.2754323
25700000000 -2.799695 28.433004 -10.263928 141.88887 -10.431552 142.22337 -2.6617286 1.2800394
25725000000 -2.7612565 27.600344 -10.311033 141.72301 -10.442051 142.25339 -2.7271242 0.99127048
25750000000 -2.67904 27.52931 -10.333854 141.31564 -10.49767 141.92563 -2.6842854 0.15362962
25775000000 -2.7473958 27.446228 -10.368039 141.1422 -10.582494 142.02774 -2.6026101 0.39427376
25800000000 -2.7675006 26.524084 -10.413559 140.98334 -10.55085 142.11848 -2.6994104 0.34431458
25825000000 -2.6995759 26.520456 -10.438003 141.2023 -10.554684 141.81259 -2.7228684 -0.65376949
25850000000 -2.717293 26.896736 -10.510068 141.28171 -10.657682 141.28183 -2.6291308 -0.90787166
25875000000 -2.7192016 26.219576 -10.534105 140.65756 -10.702415 141.7012 -2.6665583 -0.83896607
25900000000 -2.6570106 26.0797 -10.519831 140.48651 -10.706007 141.47043 -2.6867721 -1.5610144
25925000000 -2.7374332 26.260881 -10.575983 140.71561 -10.776202 141.25493 -2.6292732 -1.7051795
25950000000 -2.78934 25.192167 -10.627626 140.71252 -10.777666 141.35269 -2.6927991 -1.7227122
25975000000 -2.6374092 24.782118 -10.69645 140.6055 -10.799551 141.04453 -2.7294078 -2.6120186
26000000000 -2.5966668 25.495506 -10.741454 140.22723 -10.950374 140.48827 -2.6252673 -2.8698597
26025000000 -2.7306361 25.153681 -10.710287 139.71255 -10.979394 140.9688 -2.6637435 -2.5640414
26050000000 -2.7313764 24.347128 -10.711811 140.02878 -10.93129 141.0255 -2.7354395 -3.1724007
26075000000 -2.6837053 24.256067 -10.80373 140.41084 -11.003792 140.66412 -2.6621227 -3.7160122
26100000000 -2.670908 23.904221 -10.890264 140.10382 -11.060365 140.55376 -2.6551085 -3.549407
26125000000 -2.5919352 23.521368 -10.897547 139.57407 -11.064609 140.45468 -2.6974592 -4.0082188
26150000000 -2.5829775 23.772701 -10.897737 139.43193 -11.188703 140.03528 -2.6209395 -4.3306146
26175000000 -2.7106955 23.302778 -10.929828 139.20506 -11.240255 140.26373 -2.6307149 -4.1434669
26200000000 -2.696234 22.245266 -10.950212 139.49251 -11.188721 140.35588 -2.6954188 -4.7050838
26225000000 -2.5886302 22.189499 -11.079819 139.92981 -11.26529 140.04309 -2.6118519 -5.2769408
26250000000 -2.5694635 22.121136 -11.173673 139.38133 -11.38096 139.97346 -2.5660589 -5.0146761
26275000000 -2.5551229 21.82303 -11.114659 138.5721 -11.3613 139.94466 -2.6268485 -5.3264132
26300000000 -2.6182067 21.857653 -11.09913 138.93112 -11.412802 139.68408 -2.5832427 -5.8664279
26325000000 -2.7394681 20.817091 -11.203876 139.16458 -11.501783 139.6436 -2.5567491 -5.8430395
26350000000 -2.605504 19.647404 -11.30575 139.12747 -11.481347 139.72858 -2.6127214 -6.2608399
26375000000 -2.4518499 20.341061 -11.390205 139.2681 -11.555616 139.59599 -2.5482495 -6.7737279
26400000000 -2.574755 20.693476 -11.399675 138.71021 -11.683331 139.71103 -2.4980342 -6.4971881
26425000000 -2.6582952 19.663055 -11.355192 138.22487 -11.642394 139.59044 -2.5872648 -6.824141
26450000000 -2.6214552 19.306309 -11.352846 138.96008 -11.670232 139.61282 -2.5466187 -7.516386
26475000000 -2.6970165 18.864836 -11.502982 139.25766 -11.755857 139.48329 -2.4800177 -7.3096089
26500000000 -2.6312263 17.662491 -11.623586 138.5706 -11.761972 139.29146 -2.5449471 -7.4210091
26525000000 -2.4461422 18.392021 -11.630335 138.45868 -11.801332 139.31631 -2.507268 -8.0178528
26550000000 -2.5681846 19.32892 -11.635926 138.36615 -11.931756 139.28641 -2.4474285 -7.845437
26575000000 -2.7474067 18.048079 -11.647314 138.12505 -11.928971 139.17661 -2.51055 -8.1788902
26600000000 -2.6118481 16.897554 -11.693733 138.74953 -11.933211 139.28818 -2.4754462 -9.0472918
26625000000 -2.5191183 17.164351 -11.844007 139.07118 -12.021606 139.47778 -2.3889544 -8.8076792
26650000000 -2.5371566 16.899961 -11.927955 138.1738 -12.028248 139.39166 -2.4769413 -8.8603315
26675000000 -2.4966342 17.065653 -11.88174 138.06593 -12.037181 139.31216 -2.4756479 -9.8233166
26700000000 -2.5850725 17.261253 -11.887352 138.65181 -12.151567 139.36148 -2.3784606 -9.7772293
26725000000 -2.6632979 15.896185 -11.96623 138.67188 -12.154459 139.35335 -2.4509549 -9.6832294
26750000000 -2.4840531 15.112977 -12.018716 138.59698 -12.140186 139.25194 -2.4690282 -10.648955
26775000000 -2.4106116 15.876553 -12.102978 138.63773 -12.219311 139.40472 -2.3761194 -10.686805
26800000000 -2.4942808 15.819815 -12.141112 138.06366 -12.237442 139.31493 -2.4333241 -10.518932
26825000000 -2.4873273 15.560987 -12.078086 137.97684 -12.243917 139.14116 -2.4783337 -11.395907
26850000000 -2.5596056 15.34136 -12.106259 138.60858 -12.339119 139.06087 -2.3819237 -11.587389
26875000000 -2.5857322 13.652513 -12.247923 138.45221 -12.363963 139.00813 -2.4296429 -11.321074
26900000000 -2.3605893 12.995395 -12.316957 137.86472 -12.354197 138.87917 -2.4718876 -12.155127
26925000000 -2.3313301 14.605586 -12.347408 138.00165 -12.434428 138.88873 -2.3894496 -12.471942
26950000000 -2.5437741 14.541374 -12.352393 137.97325 -12.509495 138.94495 -2.4142277 -12.291599
26975000000 -2.5046687 13.330199 -12.348882 138.03427 -12.509837 139.00755 -2.47509 -13.092358
27000000000 -2.4249067 13.545642 -12.409011 138.35925 -12.576878 138.93709 -2.388478 -13.42752
27025000000 -2.5283654 12.973806 -12.510603 138.03308 -12.63299 138.9863 -2.4101808 -13.17579
27050000000 -2.4531636 12.017685 -12.561394 137.51187 -12.625627 138.85785 -2.4685786 -13.840619
27075000000 -2.3549087 13.078638 -12.557774 137.79515 -12.677565 138.76077 -2.3948941 -14.218518
27100000000 -2.4992719 13.220078 -12.575975 137.99202 -12.782117 138.77077 -2.4080253 -13.979637
27125000000 -2.4991574 11.748017 -12.636732 137.70906 -12.779241 138.86011 -2.4712098 -14.665374
27150000000 -2.3443704 11.730972 -12.710881 137.99852 -12.839815 138.94005 -2.3849902 -15.052468
27175000000 -2.4106762 12.01353 -12.780293 137.91364 -12.907857 138.97964 -2.3911183 -14.614395
27200000000 -2.4414108 11.354205 -12.778714 137.53625 -12.889317 139.00826 -2.4802835 -15.239142
27225000000 -2.3597486 11.322011 -12.79294 138.05939 -12.939263 138.95799 -2.3971016 -15.909433
27250000000 -2.391892 11.07088 -12.860389 138.26361 -13.041276 138.97577 -2.3521032 -15.452353
27275000000 -2.360359 10.165931 -12.906909 137.6306 -13.018421 139.04587 -2.4719605 -15.753757
27300000000 -2.3095884 10.427054 -12.933258 137.82841 -13.062131 139.11674 -2.4412315 -16.659575
27325000000 -2.4096372 10.418627 -12.996714 138.14516 -13.143518 139.06984 -2.3114243 -16.392097
27350000000 -2.3826504 9.395627 -13.053892 138.03532 -13.168198 139.09607 -2.3976614 -15.564046
27375000000 -2.264425 9.4880457 -13.041229 138.39507 -13.186701 139.17236 -2.5246489 -15.751825
27400000000 -2.3642151 9.4021101 -13.053688 138.3584 -13.250505 139.22623 -2.4254987 -17.280157
27425000000 -2.407887 8.1279936 -13.098234 138.1756 -13.20524 139.45224 -2.1649346 -17.690258
27450000000 -2.3114929 8.2902746 -13.076176 138.12766 -13.209883 139.35571 -2.0888839 -16.906549
27475000000 -2.3818538 8.6336432 -13.144103 138.45171 -13.328285 138.95775 -2.3188839 -16.991837
27500000000 -2.3803563 7.4212928 -13.221228 138.35675 -13.327527 138.91968 -2.3548064 -18.486557
27525000000 -2.2143507 7.3500085 -13.231845 138.02271 -13.348379 139.02957 -2.1885943 -18.702974
27550000000 -2.3216512 8.0870876 -13.268909 138.10268 -13.490903 139.11876 -2.2404151 -17.894423
27575000000 -2.502692 6.9416623 -13.342565 137.72545 -13.488564 138.94315 -2.3329451 -18.663345
27600000000 -2.3742809 6.2642446 -13.347351 138.04759 -13.480434 138.96024 -2.2395027 -19.433638
27625000000 -2.2737856 6.9626803 -13.397432 138.61882 -13.558636 139.08099 -2.2135623 -19.009199
27650000000 -2.3294654 6.5363898 -13.448251 138.10565 -13.607308 139.11388 -2.2710049 -19.433468
27675000000 -2.2854848 5.9808779 -13.470704 137.7959 -13.608484 139.17931 -2.2140999 -20.005383
27700000000 -2.3256481 6.1948113 -13.504641 138.13293 -13.671894 139.29262 -2.1902022 -19.694904
27725000000 -2.4054396 5.4741764 -13.560212 138.31631 -13.713805 139.24353 -2.2558413 -20.07534
27750000000 -2.2809615 4.8233299 -13.653728 138.23575 -13.712296 139.09264 -2.2112553 -20.826685
27775000000 -2.1847575 5.3099484 -13.688555 138.30753 -13.790648 139.09471 -2.1710532 -20.667856
27800000000 -2.2486405 5.1723289 -13.704632 138.10054 -13.860381 139.41867 -2.2134013 -20.888634
27825000000 -2.2769635 4.719645 -13.737228 137.67932 -13.850082 139.35942 -2.1916652 -21.446091
27850000000 -2.3243978 4.546309 -13.733022 138.4213 -13.892586 139.48471 -2.1681283 -21.436375
27875000000 -2.332654 3.4848697 -13.866207 138.91965 -13.958282 139.48886 -2.2050006 -21.802988
27900000000 -2.1519094 3.0081406 -13.96597 138.33742 -13.969831 139.38879 -2.1605282 -22.296257
27925000000 -2.1159022 3.9851115 -13.97375 138.27963 -14.030652 139.47076 -2.1382961 -22.184984
27950000000 -2.3047016 3.6567135 -13.988409 138.39392 -14.106769 139.74821 -2.1816154 -22.458874
27975000000 -2.3099194 2.1427314 -14.0059 138.46448 -14.105812 139.72064 -2.1565065 -23.139521
28000000000 -2.1993067 2.153115 -14.09428 139.12206 -14.152882 139.8488 -2.1244843 -23.165483
28025000000 -2.2155788 2.2664275 -14.198 139.30713 -14.227344 140.03859 -2.1613941 -23.42383
28050000000 -2.1889548 1.7296935 -14.245743 138.80205 -14.237324 140.1223 -2.1418183 -23.986242
28075000000 -2.1628926 2.2104096 -14.223796 138.6897 -14.265003 140.15697 -2.1040981 -23.978016
28100000000 -2.3015959 2.1214559 -14.21328 139.22221 -14.356998 140.38347 -2.1480613 -24.173746
28125000000 -2.3491068 0.77399063 -14.316726 139.61317 -14.37493 140.52309 -2.1449971 -24.885973
28150000000 -2.1876709 0.58401656 -14.3941 139.7926 -14.40132 140.67467 -2.0935442 -25.042126
28175000000 -2.147301 1.1124417 -14.420369 139.94385 -14.489389 140.88483 -2.1112943 -25.019417
28200000000 -2.2029855 0.94154352 -14.460413 139.66219 -14.485631 141.0972 -2.1527529 -25.467413
28225000000 -2.2149651 0.67151797 -14.413861 139.70248 -14.494683 141.25621 -2.1295757 -26.026608
28250000000 -2.2517083 0.16780414 -14.429155 140.61063 -14.584929 141.48442 -2.0788126 -26.090246
28275000000 -2.2121155 -0.70725995 -14.580012 140.6006 -14.604432 141.48999 -2.1241755 -25.893005
28300000000 -2.1078794 -0.52311379 -14.628304 140.67604 -14.606319 141.73509 -2.2515874 -26.316765
28325000000 -2.1441424 -0.12437218 -14.606045 141.05833 -14.682714 142.07312 -2.1575799 -27.394484
28350000000 -2.2014382 -0.6870783 -14.653129 140.85593 -14.738604 142.35356 -1.9437993 -26.846094
28375000000 -2.1789587 -1.1053571 -14.579576 141.42975 -14.664601 142.64259 -1.9656307 -25.263262
28400000000 -2.2170098 -1.499644 -14.554391 141.85695 -14.688388 142.72182 -2.1971934 -26.675802
28425000000 -2.1944053 -2.3876348 -14.639456 142.00533 -14.714483 142.85501 -2.0746088 -28.958029
28450000000 -2.0861344 -2.2405641 -14.684504 141.65002 -14.672136 142.73674 -1.8315768 -28.683414
28475000000 -2.1662097 -1.6863213 -14.674448 141.76559 -14.771746 142.87053 -1.9990559 -27.83285
28500000000 -2.2628233 -2.7605009 -14.660983 142.28189 -14.830507 143.21312 -2.1556404 -28.9797
28525000000 -2.1703777 -3.4194741 -14.682209 142.23317 -14.788004 143.3555 -2.0151966 -29.727978
28550000000 -2.1758888 -3.0670326 -14.708169 142.72275 -14.817765 143.7354 -2.0003111 -29.063627
28575000000 -2.2569809 -3.6895239 -14.762559 143.07205 -14.854209 143.89735 -2.1204517 -29.315716
28600000000 -2.1568396 -4.0679221 -14.733238 142.52631 -14.814926 143.8062 -2.0776134 -30.152826
28625000000 -2.1723669 -3.5205553 -14.716262 142.92831 -14.836631 143.99684 -2.0237036 -30.045269
28650000000 -2.3093686 -4.4108553 -14.748755 143.39516 -14.89906 144.21107 -2.0879908 -30.056892
28675000000 -2.2349064 -5.3853574 -14.775128 142.78366 -14.874387 144.06017 -2.08339 -30.668594
28700000000 -2.1599731 -4.504055 -14.82472 143.13446 -14.86969 144.32484 -2.0397921 -30.778816
28725000000 -2.258239 -4.3702946 -14.843969 143.58221 -14.951884 144.57281 -2.086834 -30.82299
28750000000 -2.2315993 -5.1202602 -14.807712 143.45824 -14.946716 144.65207 -2.0866098 -31.428364
28775000000 -2.1696217 -5.1319823 -14.823958 143.69971 -14.940317 144.85561 -2.037317 -31.645954
28800000000 -2.2463229 -5.5568004 -14.859585 143.87701 -15.000427 145.19653 -2.0665305 -31.598297
28825000000 -2.2236812 -6.3380556 -14.910554 143.84377 -14.973358 145.1503 -2.0975499 -32.124668
28850000000 -2.1775386 -6.0649052 -14.893108 144.10588 -14.961195 145.35265 -2.0505011 -32.522404
28875000000 -2.2244265 -6.2399917 -14.914092 144.66164 -15.021022 145.72824 -2.0574679 -32.484192
28900000000 -2.1709974 -6.9697242 -14.964178 144.61331 -15.002805 145.82283 -2.0874929 -32.79937
28925000000 -2.1273024 -6.7249951 -14.920519 144.45326 -14.977957 145.91251 -2.0538297 -33.20554
28950000000 -2.2644811 -7.0410829 -14.931733 145.02847 -15.028096 146.28291 -2.0549808 -33.182888
28975000000 -2.2495537 -8.1069393 -14.991117 145.01334 -15.010963 146.30466 -2.0959594 -33.503899
29000000000 -2.1595018 -7.7429833 -14.940428 145.36339 -14.978954 146.42917 -2.0636849 -33.996452
29025000000 -2.2358 -7.7367058 -14.941136 145.96327 -15.019332 146.86708 -2.051661 -33.958115
29050000000 -2.2171593 -8.7489014 -14.972417 145.61554 -15.006059 146.89977 -2.0997708 -34.143593
29075000000 -2.1443796 -8.4027338 -14.947255 145.45749 -14.945172 146.95053 -2.0843575 -34.69471
29100000000 -2.31335 -8.2175407 -14.899052 145.95042 -14.976322 147.1657 -2.0635059 -34.725361
29125000000 -2.3308222 -9.6960363 -14.884496 146.1283 -14.97138 147.12917 -2.0939333 -34.865337
29150000000 -2.1644845 -9.6846352 -14.913137 146.07497 -14.928684 146.97815 -2.0898874 -35.345966
29175000000 -2.2107689 -8.761508 -14.923403 146.16209 -14.97034 147.20221 -2.0658369 -35.363297
29200000000 -2.3346045 -9.5853367 -14.901096 145.93095 -14.975949 147.28012 -2.1027613 -35.463806
29225000000 -2.2771833 -9.9038286 -14.876318 145.58128 -14.939524 147.24158 -2.1004438 -35.943825
29250000000 -2.3067665 -9.7705135 -14.86047 146.21193 -14.961922 147.33815 -2.0691068 -36.00959
29275000000 -2.319973 -10.658638 -14.903415 146.65721 -14.979198 147.31175 -2.0948124 -36.053638
29300000000 -2.1731486 -10.800581 -14.945744 146.09128 -14.951699 147.20923 -2.1027455 -36.539574
29325000000 -2.1958466 -10.095654 -14.917415 146.19749 -14.978126 147.42171 -2.072582 -36.698318
29350000000 -2.3281651 -10.728492 -14.921339 146.24684 -15.005686 147.49864 -2.0914714 -36.766747
29375000000 -2.2887802 -11.315411 -14.871614 146.12086 -14.971632 147.50026 -2.0954669 -37.153725
29400000000 -2.264385 -11.359813 -14.872522 146.71075 -14.964907 147.62263 -2.0750191 -37.314449
29425000000 -2.238605 -11.955317 -14.929579 146.93495 -14.990414 147.64673 -2.0991049 -37.329826
29450000000 -2.1307561 -11.803806 -14.958219 146.31877 -14.94718 147.54327 -2.1032078 -37.796581
29475000000 -2.2299013 -11.078783 -14.909231 146.16995 -14.962759 147.57803 -2.0645947 -37.917206
29500000000 -2.3859019 -12.265799 -14.852513 146.2092 -14.994073 147.56914 -2.0850449 -37.778721
29525000000 -2.2717977 -13.332289 -14.901659 146.44724 -14.971241 147.30223 -2.120106 -38.231522
29550000000 -2.1746023 -12.701647 -14.941292 146.55089 -14.972745 147.37595 -2.0877759 -38.673161
29575000000 -2.2155817 -12.715986 -14.965994 146.61787 -15.028455 147.50446 -2.0763493 -38.608513
29600000000 -2.1630392 -12.897466 -14.992785 146.17619 -15.01175 147.44104 -2.0806463 -38.782459
29625000000 -2.2133915 -12.448443 -14.93767 145.95676 -15.015289 147.43945 -2.070781 -39.094509
29650000000 -2.3450959 -13.458487 -14.943537 146.55055 -15.072334 147.51819 -2.0877225 -39.194202
29675000000 -2.2341895 -14.603083 -15.037419 146.62239 -15.070835 147.35152 -2.0983431 -39.634644
29700000000 -2.1167915 -13.75865 -15.069696 146.62543 -15.077087 147.50229 -2.0570886 -40.020466
29725000000 -2.217005 -13.500166 -15.052151 146.86697 -15.126264 147.85333 -2.0464385 -39.823925
29750000000 -2.2361579 -14.294444 -15.00923 146.647 -15.106399 147.93071 -2.0900509 -39.902386
29775000000 -2.2152631 -14.507979 -15.001001 146.58658 -15.071661 147.89389 -2.0962706 -40.637058
29800000000 -2.2757876 -14.995701 -15.024958 147.17197 -15.107591 148.12964 -2.0611732 -40.962708
29825000000 -2.2068243 -15.68883 -15.056125 147.22348 -15.100353 148.11299 -2.0434213 -40.967445
29850000000 -2.1326733 -14.894923 -15.072228 146.97285 -15.066224 148.17238 -2.0586233 -41.164539
29875000000 -2.2370195 -14.719855 -15.007429 147.00087 -15.081896 148.29025 -2.0615737 -41.382523
29900000000 -2.2649107 -15.7716 -15.006809 146.9989 -15.081057 148.23509 -2.067734 -41.626915
29925000000 -2.2008419 -15.998162 -15.05472 146.78978 -15.053452 148.11467 -2.0751455 -42.084114
29950000000 -2.2323923 -15.943783 -15.048603 147.15788 -15.086236 148.25882 -2.0401709 -42.291553
29975000000 -2.207937 -16.299469 -15.077714 147.18855 -15.082229 148.34061 -2.0206006 -42.213734
30000000000 -2.1675375 -15.780864 -15.036295 146.69977 -15.047306 148.17322 -2.0627036 -42.447193
30025000000 -2.2490852 -15.97786 -15.024484 146.77698 -15.059868 148.24988 -2.0727327 -42.980194
30050000000 -2.2561569 -17.226265 -15.075181 147.03888 -15.088401 148.16583 -2.0464287 -43.231285
30075000000 -2.1618769 -17.226534 -15.123531 146.83586 -15.084115 148.05959 -2.0383413 -43.334923
30100000000 -2.2160621 -16.874359 -15.109362 147.0636 -15.098004 148.15474 -2.0376422 -43.430412
30125000000 -2.2235196 -17.510328 -15.098466 146.96605 -15.115109 148.11362 -2.0369732 -43.423508
30150000000 -2.1165247 -17.519571 -15.145756 146.69728 -15.098527 147.81526 -2.0707111 -43.846958
30175000000 -2.1671436 -17.273811 -15.18678 146.69281 -15.12982 147.86238 -2.0417819 -44.378941
30200000000 -2.2273123 -18.116022 -15.192577 146.80739 -15.199247 148.01595 -1.982857 -44.30751
30225000000 -2.161561 -18.346401 -15.24451 146.80853 -15.200234 147.98174 -2.0170143 -44.136501
30250000000 -2.1848807 -17.876228 -15.217527 146.88878 -15.200893 148.02672 -2.0539083 -44.630241
30275000000 -2.1961739 -18.59222 -15.237908 147.20642 -15.245204 148.17563 -2.0209002 -44.974594
30300000000 -2.1051846 -18.964907 -15.334672 147.23648 -15.254649 148.06924 -2.0221741 -45.180496
30325000000 -2.1255116 -18.526917 -15.328269 147.08316 -15.284022 148.24881 -1.9955447 -45.43856
30350000000 -2.2263038 -19.116344 -15.304109 147.45911 -15.321902 148.57372 -1.9588436 -45.259304
30375000000 -2.1727636 -19.4807 -15.291748 147.4537 -15.300073 148.53052 -2.0301349 -45.22744
30400000000 -2.1279607 -19.255713 -15.301145 147.60583 -15.273284 148.53816 -2.0585032 -46.176868
30425000000 -2.131104 -19.848604 -15.344959 148.25185 -15.330811 148.76689 -1.9560814 -46.464542
30450000000 -2.0486312 -20.064884 -15.364868 147.82924 -15.364129 148.83278 -1.9453995 -46.005806
30475000000 -2.1090097 -19.519075 -15.371766 147.56172 -15.341372 148.92422 -2.0152338 -46.30159
30500000000 -2.2325013 -20.353718 -15.316787 147.9257 -15.354693 149.09848 -1.994698 -46.71946
30525000000 -2.1150813 -21.295231 -15.349752 148.26808 -15.36623 149.03354 -2.0081339 -46.965347
30550000000 -2.0225539 -20.722994 -15.428575 148.40959 -15.34746 149.01056 -2.0132349 -47.613834
30575000000 -2.0953274 -20.819649 -15.389761 148.60844 -15.405202 149.41768 -1.9227453 -47.526505
30600000000 -2.0800755 -21.414684 -15.384362 148.37695 -15.392836 149.60297 -1.9583421 -47.012119
30625000000 -2.1032515 -20.936083 -15.381307 148.09671 -15.346959 149.51787 -2.0641952 -47.813904
30650000000 -2.214906 -21.608187 -15.320115 148.56445 -15.361178 149.71558 -2.0041656 -48.601612
30675000000 -2.0853739 -22.772907 -15.405995 149.26236 -15.390195 149.72559 -1.968676 -48.467514
30700000000 -1.9532861 -21.83556 -15.436212 149.10078 -15.381621 149.66129 -2.0129013 -48.676094
30725000000 -2.1071863 -21.490606 -15.370536 148.77773 -15.36328 150.08925 -1.9674802 -48.906593
30750000000 -2.1651456 -22.620016 -15.353922 148.67828 -15.339116 150.0929 -1.9979882 -48.678715
30775000000 -2.0952899 -22.505331 -15.321439 148.61539 -15.304513 149.88887 -2.0666158 -49.507755
30800000000 -2.175864 -22.807234 -15.337061 148.94957 -15.319777 150.10294 -1.9734102 -50.139599
30825000000 -2.0603256 -23.89926 -15.343336 149.57909 -15.350971 150.10414 -1.9386021 -49.55114
30850000000 -1.8906169 -22.648224 -15.40808 148.87791 -15.30859 149.92262 -2.0407872 -49.766098
30875000000 -2.1388099 -21.770514 -15.385249 147.9061 -15.280298 149.96986 -2.0219002 -50.551888
30900000000 -2.2505383 -24.018682 -15.285765 148.29913 -15.331491 149.8394 -1.9857363 -50.533672
30925000000 -1.9748615 -24.210215 -15.471619 148.91753 -15.371076 149.64095 -2.0230961 -50.961384
30950000000 -2.0315416 -22.793732 -15.511635 148.95685 -15.392804 149.88148 -1.9382851 -51.308968
30975000000 -2.1382022 -24.184715 -15.407402 148.77376 -15.430176 150.03548 -1.9184412 -50.742458
31000000000 -1.8290921 -24.262682 -15.54924 148.93695 -15.411901 149.89197 -2.0368588 -51.222897
31025000000 -1.9019333 -22.147848 -15.647517 147.57382 -15.402567 150.04689 -1.9790429 -52.269829
31050000000 -2.329437 -24.48547 -15.533983 147.39297 -15.460571 150.52315 -1.9013304 -52.044521
31075000000 -1.8713577 -27.839056 -15.354462 150.62088 -15.530167 151.00487 -1.9765871 -52.024445
31100000000 -1.2799596 -26.173304 -15.754502 151.3821 -15.448563 150.99867 -1.9524215 -52.705223
31125000000 -1.7199581 -23.476728 -16.19342 149.35332 -15.444745 150.57472 -1.9256887 -52.549103
31150000000 -2.4459896 -25.061983 -15.576056 147.26492 -15.439918 150.92332 -2.0079298 -53.028534
31175000000 -2.5827639 -28.955614 -15.233609 149.89711 -15.500296 151.81212 -1.9162979 -53.808044
31200000000 -2.0290139 -28.717934 -15.4465 152.99622 -15.577162 152.20029 -1.8596619 -53.09219
31225000000 -1.780296 -24.616034 -15.804499 151.59814 -15.570127 152.12602 -2.0355086 -53.158253
31250000000 -2.3527884 -21.728325 -15.626698 149.18044 -15.411707 152.92679 -2.0156853 -54.611465
31275000000 -2.5582681 -26.939852 -15.206203 150.31119 -15.398151 152.92508 -1.8824458 -54.18417
31300000000 -1.7558947 -28.396652 -15.482546 153.06729 -15.512804 152.74173 -2.0486937 -53.755959
31325000000 -1.7445178 -22.919857 -15.793497 152.51091 -15.43012 153.09389 -2.0874529 -54.997604
31350000000 -2.5917423 -25.579483 -15.31119 150.26637 -15.355026 153.578 -1.8780136 -54.907322
31375000000 -1.8127275 -31.077576 -15.143431 153.61703 -15.391228 153.32278 -1.9576921 -53.812492
31400000000 -1.0687164 -23.824499 -15.757504 154.27809 -15.283071 153.16937 -2.063355 -54.647415
31425000000 -2.5697198 -21.77281 -15.753027 147.54402 -15.098822 153.34608 -1.9614017 -55.515621
31450000000 -2.1500475 -37.260979 -14.40682 151.62526 -15.075407 154.88858 -1.900843 -55.038776
31475000000 0.95915663 -34.273052 -14.534392 161.37143 -14.724755 154.80106 -1.9551754 -55.363049
31500000000 0.68266422 -20.330355 -17.490475 159.27873 -14.684867 150.68748 -1.9892633 -55.610832
31525000000 -3.492667 -20.348539 -16.194458 141.51326 -14.82663 150.73666 -2.0452955 -55.586967
31550000000 -3.6053047 -51.106239 -13.575054 144.79745 -14.934778 150.57477 -2.0367155 -56.498417
31575000000 -1.2406867 -41.715504 -14.032266 157.62463 -15.357162 152.30705 -1.9206049 -56.219494
31600000000 -1.7170844 -25.142559 -15.98175 155.0054 -15.351384 152.30556 -2.0040853 -55.319439
31625000000 -3.6819248 -26.966705 -15.364519 144.35222 -15.320833 152.33615 -2.1220987 -56.490757
31650000000 -2.8269448 -35.54583 -14.2764 149.52406 -15.230437 153.21178 -1.9991294 -57.348228
31675000000 -1.7453799 -30.868223 -15.010225 155.30875 -15.267135 152.68259 -1.9613043 -56.597336
31700000000 -2.3454542 -27.996189 -15.644533 150.24789 -15.220811 152.71478 -2.0597086 -56.791649
31725000000 -2.5189664 -31.245855 -14.957685 149.31731 -15.120027 152.8739 -2.0086906 -57.457417
31750000000 -2.0701592 -31.609262 -14.944055 152.59525 -15.153474 152.59108 -1.9963008 -57.188633
31775000000 -2.1953335 -30.462715 -15.373623 151.4698 -15.134156 152.68561 -2.074764 -57.784439
31800000000 -2.2122631 -31.75631 -15.062607 150.15797 -15.084639 152.59756 -1.9749482 -58.413383
31825000000 -2.0012267 -31.755726 -15.004977 152.3374 -15.155377 152.74065 -1.9341189 -57.652622
31850000000 -2.1614017 -30.940002 -15.241697 151.77975 -15.120994 152.88191 -2.0648811 -57.801849
31875000000 -2.277086 -32.077339 -15.073745 149.60001 -15.044264 152.73393 -2.0382581 -58.958206
31900000000 -2.1128981 -32.854832 -14.965117 151.44806 -15.078833 152.57207 -1.9576664 -58.825436
31925000000 -2.0747788 -32.43396 -15.138358 152.23747 -15.08216 152.80125 -2.0193205 -58.825108
31950000000 -2.0860333 -32.526566 -15.17508 150.86363 -15.028728 152.67653 -1.9925166 -59.54171
31975000000 -2.0509889 -32.598743 -15.005002 151.4679 -15.059145 152.49281 -1.9344147 -59.219826
32000000000 -2.1331699 -32.690422 -15.13736 151.34128 -15.04566 152.68877 -2.019217 -59.300678
32025000000 -2.1748841 -33.424812 -15.193212 150.20921 -15.009239 152.61229 -2.0070314 -60.343136
32050000000 -2.1028323 -33.691231 -15.007279 151.28304 -15.065072 152.50275 -1.8956561 -60.141994
32075000000 -2.1083286 -33.758312 -15.12571 152.03508 -15.069958 152.78653 -1.960534 -59.810677
32100000000 -2.0902429 -33.941883 -15.201607 151.28157 -15.01644 152.71893 -1.9968203 -60.611893
32125000000 -2.0590751 -33.659718 -15.115046 150.86017 -15.048738 152.48178 -1.9189458 -60.8069
32150000000 -2.1807766 -33.828835 -15.169718 151.57292 -15.07154 152.85577 -1.9528999 -60.764561
32175000000 -2.187139 -34.833458 -15.16152 151.3299 -15.02385 153.03088 -1.9541502 -61.479141
32200000000 -2.0403161 -34.990204 -15.094512 152.08138 -15.047179 153.15154 -1.8693523 -61.336227
32225000000 -2.0463681 -34.45385 -15.067367 152.81473 -15.052323 153.43533 -1.935028 -61.018341
32250000000 -2.113796 -34.839897 -15.145885 151.72067 -14.969815 153.36494 -1.9808961 -61.921253
32275000000 -2.1160374 -35.298737 -15.15062 151.70595 -14.968978 153.28885 -1.8805407 -62.141033
32300000000 -2.1614399 -35.632046 -15.001639 152.58264 -15.007957 153.6071 -1.8896725 -61.769623
32325000000 -2.1470125 -36.341957 -15.037141 152.27519 -14.939663 153.69574 -1.941052 -62.404842
32350000000 -2.033675 -36.439007 -14.94394 152.89078 -14.897277 153.72406 -1.867975 -62.555271
32375000000 -2.0404344 -36.103188 -14.885327 153.16086 -14.915363 153.88574 -1.9133552 -62.277023
32400000000 -2.1273701 -36.619423 -15.004458 152.32329 -14.839947 153.73772 -1.9922117 -63.212891
32425000000 -2.1502297 -36.983006 -14.883718 152.28169 -14.81047 153.69356 -1.8709356 -63.468079
32450000000 -2.2232342 -37.434486 -14.783542 152.89664 -14.827436 153.90897 -1.8835838 -62.701603
32475000000 -2.2182391 -38.215176 -14.793881 152.88503 -14.775485 153.75046 -2.0077722 -63.331326
32500000000 -2.0368993 -37.936111 -14.729719 152.68227 -14.702322 153.50536 -1.9212682 -64.042427
32525000000 -2.0752754 -37.128716 -14.719093 152.81105 -14.72209 153.66336 -1.9042506 -63.390591
32550000000 -2.2440419 -37.651138 -14.703698 152.18095 -14.677685 153.45462 -2.0271511 -63.817902
32575000000 -2.2180209 -38.641178 -14.626712 151.55775 -14.610335 153.19025 -1.9424945 -64.60379
32600000000 -2.1597872 -38.621239 -14.528535 152.30521 -14.601042 153.27451 -1.8989878 -63.809288
32625000000 -2.1602514 -38.744633 -14.551949 152.11862 -14.569901 152.88736 -2.0358629 -64.07122
32650000000 -2.0817211 -38.851589 -14.582046 151.11906 -14.523106 152.27101 -1.9934857 -65.219917
32675000000 -2.1122301 -38.474308 -14.499961 151.32578 -14.562651 152.23271 -1.9111074 -64.603638
32700000000 -2.2604916 -39.055279 -14.56929 150.67058 -14.56103 152.00691 -2.0269673 -64.61396
32725000000 -2.2173624 -39.812347 -14.539145 149.95964 -14.530439 151.55347 -2.0002565 -65.57325
32750000000 -2.114768 -39.454453 -14.435491 150.5423 -14.534149 151.49689 -1.9052448 -64.991104
32775000000 -2.1552038 -39.30687 -14.572898 150.26871 -14.553174 151.23946 -2.0474946 -64.920227
32800000000 -2.1279912 -39.528179 -14.646451 149.36086 -14.557409 150.56262 -2.035207 -66.25618
32825000000 -2.1183865 -39.220192 -14.613633 149.25137 -14.625353 150.56079 -1.8865483 -65.844765
32850000000 -2.2348585 -39.366879 -14.695891 149.3459 -14.659803 150.71556 -1.9966824 -65.315041
32875000000 -2.1807382 -40.162674 -14.720069 148.8882 -14.667525 150.31696 -2.0359631 -66.502121
32900000000 -2.0572765 -40.049511 -14.701673 148.86591 -14.699328 150.12764 -1.8969434 -66.548477
32925000000 -2.0601718 -39.966003 -14.757415 149.42047 -14.751066 150.32333 -1.967842 -66.064018
32950000000 -2.0602071 -40.351276 -14.874391 148.743 -14.756784 150.18918 -2.0002341 -67.118179
32975000000 -2.0587256 -40.121708 -14.92564 148.7775 -14.796445 150.16484 -1.8634135 -67.190094
33000000000 -2.156548 -40.272034 -14.886569 149.4539 -14.844808 150.5354 -1.9116948 -66.631187
33025000000 -2.1111488 -41.10603 -14.961177 148.91455 -14.831265 150.51216 -1.9886372 -67.707954
33050000000 -1.9612488 -40.895237 -14.996134 149.42889 -14.851992 150.30991 -1.8636607 -68.115349
33075000000 -2.0063334 -40.490448 -14.985805 150.09616 -14.914266 150.76773 -1.8764147 -67.591423
33100000000 -2.071831 -40.996113 -15.126882 149.31947 -14.875797 150.92346 -1.9411703 -68.224182
33125000000 -2.0507789 -41.136612 -15.07219 149.32899 -14.879978 150.76659 -1.8501129 -68.461586
33150000000 -2.0896423 -41.144146 -15.024957 149.83939 -14.923285 151.05702 -1.8833395 -68.114975
33175000000 -2.0840752 -41.9035 -15.087662 149.78278 -14.897554 151.19989 -1.9410785 -69.063835
33200000000 -1.9598696 -41.951603 -15.105781 150.23923 -14.91523 151.07813 -1.7976463 -69.280678
33225000000 -1.9722341 -41.519409 -15.114187 150.69124 -14.990049 151.36743 -1.8232985 -68.532982
33250000000 -2.0671639 -41.853565 -15.16555 150.29175 -14.943386 151.64647 -1.9320186 -69.264053
33275000000 -2.0513568 -42.351116 -15.186424 149.9109 -14.912768 151.55927 -1.8300693 -69.945023
33300000000 -2.0316103 -42.613197 -15.106669 150.90782 -14.970728 151.84489 -1.8068045 -69.533081
33325000000 -1.9844522 -43.008282 -15.105674 151.3765 -14.946397 152.06902 -1.8670031 -70.066765
33350000000 -1.9258512 -42.90564 -15.183191 151.47864 -14.929475 151.95605 -1.7678628 -70.345711
33375000000 -2.0038576 -42.693031 -15.094078 151.57571 -14.99465 152.22072 -1.7804133 -69.767471
33400000000 -2.0950058 -43.494476 -15.13223 150.96368 -14.949948 152.53809 -1.8897724 -70.511116
33425000000 -2.0487745 -44.150478 -15.125463 150.90129 -14.892242 152.57825 -1.7781063 -71.242813
33450000000 -2.0070114 -44.341545 -14.984518 152.06485 -14.958675 152.83507 -1.7326077 -70.454361
33475000000 -1.9951489 -44.704136 -15.009771 152.24187 -14.934834 153.04037 -1.8452419 -70.743378
33500000000 -1.94075 -44.643623 -15.068005 152.01083 -14.882755 152.80833 -1.795889 -71.597084
33525000000 -2.0066295 -44.318638 -15.035457 152.04866 -14.954761 152.89687 -1.7542343 -71.264984
33550000000 -2.113215 -45.034286 -15.052666 151.86154 -14.937037 153.3468 -1.8389757 -71.690208
33575000000 -2.0354207 -45.885406 -14.983786 152.16342 -14.876035 153.54512 -1.7390829 -72.336746
33600000000 -1.934558 -45.857601 -14.900743 152.98738 -14.896901 153.83675 -1.6932646 -71.560257
33625000000 -1.9480839 -45.793163 -14.900052 153.34767 -14.89426 153.96651 -1.8314195 -71.777657
33650000000 -1.9527537 -45.90683 -14.992033 152.677 -14.841369 153.82767 -1.7990164 -73.068146
33675000000 -2.0047441 -45.955086 -14.967721 152.625 -14.849982 153.94342 -1.7000307 -72.812187
33700000000 -2.0732057 -46.579651 -14.884949 153.24506 -14.866656 154.44028 -1.7752786 -72.775223
33725000000 -1.9789903 -47.318512 -14.833678 153.30775 -14.792549 154.64215 -1.7528782 -73.544701
33750000000 -1.8726748 -47.187912 -14.759846 153.72115 -14.765151 154.66341 -1.6982002 -73.265381
33775000000 -1.9041123 -47.085243 -14.77701 154.17583 -14.779414 154.98445 -1.8132842 -73.37989
33800000000 -1.954199 -47.358204 -14.868063 153.33928 -14.701126 154.92627 -1.7860049 -74.633179
33825000000 -1.9924264 -47.562618 -14.791891 153.76599 -14.685539 155.0921 -1.6703655 -74.332657
33850000000 -2.0247929 -48.128349 -14.666808 154.37656 -14.669358 155.54352 -1.7647147 -73.941818
33875000000 -1.917266 -48.604809 -14.652382 154.1646 -14.585286 155.4295 -1.8190622 -75.086288
33900000000 -1.8438442 -48.323215 -14.637516 154.10208 -14.547626 155.13036 -1.7257638 -75.381088
33925000000 -1.931242 -48.32243 -14.637552 154.45107 -14.564993 155.43575 -1.7682376 -75.184685
33950000000 -1.9806577 -48.955334 -14.653019 154.05688 -14.502176 155.6337 -1.7852888 -75.942245
33975000000 -1.9668019 -49.083588 -14.589184 154.228 -14.446464 155.6046 -1.7016332 -75.947327
34000000000 -1.9900718 -49.413395 -14.46252 154.71259 -14.427106 155.83371 -1.7678016 -75.6166
34025000000 -1.9192034 -50.037727 -14.483134 154.74583 -14.366724 155.67728 -1.8217081 -76.66378
34050000000 -1.8501815 -49.540928 -14.573447 154.52771 -14.35487 155.2417 -1.7193081 -76.97625
34075000000 -2.0017903 -49.200642 -14.503969 154.9402 -14.394881 155.72452 -1.7329816 -76.592934
34100000000 -2.1192064 -50.050354 -14.45906 154.48882 -14.310432 156.01276 -1.7899284 -77.134995
34125000000 -2.0153151 -50.67099 -14.408622 154.23856 -14.209653 155.88747 -1.7337749 -77.514229
34150000000 -1.9357227 -50.565582 -14.273336 155.20561 -14.209449 155.84425 -1.7573417 -77.304543
34175000000 -1.9288723 -50.705402 -14.304417 155.1377 -14.161429 155.90504 -1.8007301 -78.018723
34200000000 -1.9339647 -50.595028 -14.39104 154.92181 -14.117169 155.59615 -1.7111727 -78.258018
34225000000 -2.0445445 -50.602551 -14.263537 155.05557 -14.134324 155.79602 -1.7311872 -77.767403
34250000000 -2.1043208 -51.39101 -14.187602 154.47772 -14.050404 155.96509 -1.8315823 -78.379295
34275000000 -1.9986227 -51.851662 -14.189308 154.47466 -13.952116 155.58839 -1.7634203 -79.053017
34300000000 -1.9451442 -51.615452 -14.103691 155.0722 -14.001602 155.32605 -1.7323092 -78.586266
34325000000 -2.0029199 -51.673172 -14.088687 154.94795 -13.967495 155.59131 -1.8012205 -78.855339
34350000000 -2.0409918 -51.873447 -14.141235 154.54573 -13.889303 155.27806 -1.7672606 -79.314407
34375000000 -2.0869064 -52.111607 -14.038793 154.2157 -13.896368 155.15794 -1.7604913 -79.039177
34400000000 -2.0924447 -52.700279 -13.978793 154.17563 -13.869048 155.2092 -1.840078 -79.485588
34425000000 -2.0087764 -53.031319 -14.005055 154.14935 -13.821116 154.94191 -1.7631848 -80.020012
34450000000 -2.005451 -52.97126 -13.92564 154.33429 -13.854442 154.97839 -1.7232261 -79.362869
34475000000 -2.0773618 -53.440506 -13.883285 154.16696 -13.854973 155.01511 -1.8231302 -79.542007
34500000000 -2.0691099 -53.820915 -13.945451 153.62685 -13.798206 154.92392 -1.796675 -80.478142
34525000000 -2.0809574 -53.750004 -13.884729 153.89279 -13.787778 154.92142 -1.7294699 -80.149445
34550000000 -2.1216581 -54.368664 -13.834118 154.02934 -13.798869 155.03227 -1.8088886 -80.172348
34575000000 -2.0430079 -54.962418 -13.787544 153.85692 -13.734624 155.07793 -1.7790487 -80.999046
34600000000 -2.0150001 -54.852257 -13.722127 154.19067 -13.709467 155.22351 -1.7130075 -80.585098
34625000000 -2.1222818 -55.049927 -13.68343 154.14281 -13.707623 155.30013 -1.8314698 -80.591827
34650000000 -2.118371 -55.599976 -13.698719 153.56184 -13.636862 155.14006 -1.8262612 -81.953354
34675000000 -2.0765295 -55.704014 -13.636909 153.86995 -13.574084 155.21132 -1.6919467 -81.699844
34700000000 -2.1153667 -55.99044 -13.503661 154.22261 -13.563616 155.41785 -1.7773732 -81.108513
34725000000 -2.0667272 -56.508354 -13.476887 153.83853 -13.503545 155.12285 -1.8539958 -82.159782
34750000000 -2.0316801 -56.443535 -13.455083 153.55632 -13.435574 154.96497 -1.7484791 -82.420021
34775000000 -2.1098607 -56.532028 -13.395284 153.81078 -13.441266 155.05104 -1.801668 -81.962814
34800000000 -2.1296589 -56.937889 -13.385759 153.15625 -13.39242 154.83 -1.8693197 -82.883766
34825000000 -2.108736 -57.066612 -13.309459 152.90402 -13.313686 154.70604 -1.751066 -83.153938
34850000000 -2.1209681 -57.73983 -13.197007 153.36136 -13.285007 154.72101 -1.7997209 -82.44593
34875000000 -2.038913 -58.400398 -13.163736 152.7901 -13.257844 154.35008 -1.9155489 -83.360229
34900000000 -1.9993707 -57.853508 -13.220556 152.3837 -13.203031 154.05499 -1.8002559 -84.101524
34925000000 -2.1418529 -57.70723 -13.193643 152.91234 -13.203901 154.17967 -1.7769285 -83.303696
34950000000 -2.1989257 -58.564476 -13.141284 152.26443 -13.187721 153.99927 -1.9003863 -83.678909
34975000000 -2.0947824 -58.77401 -13.102999 151.84697 -13.107806 153.59935 -1.8419197 -84.548225
35000000000 -2.0647438 -58.798538 -13.004251 152.27885 -13.073565 153.6037 -1.8167534 -84.16317
35025000000 -2.0536764 -59.139877 -13.042081 151.96671 -13.063342 153.34058 -1.9099503 -84.569908
35050000000 -2.0332735 -58.709999 -13.094211 151.54263 -13.017429 153.03581 -1.84395 -85.275414
35075000000 -2.1946936 -58.323551 -13.008884 151.63623 -13.012096 153.04193 -1.8135381 -84.664001
35100000000 -2.2973769 -59.485264 -13.028419 151.15988 -13.021665 152.74095 -1.9425287 -84.988182
35125000000 -2.1258221 -60.021927 -13.004797 150.5808 -12.96861 152.1862 -1.8962545 -86.015526
35150000000 -2.0348144 -59.427563 -12.917662 150.98228 -12.96067 152.18631 -1.8158538 -85.550217
35175000000 -2.1155274 -59.192722 -13.018771 151.13847 -12.977872 152.19899 -1.9055355 -85.392967
35200000000 -2.149056 -59.144958 -13.065731 150.32936 -12.952647 151.95607 -1.9066421 -86.249161
35225000000 -2.1969411 -59.062374 -13.007567 150.49158 -12.927953 151.93239 -1.8388674 -86.143608
35250000000 -2.2278628 -59.680569 -12.987183 150.67674 -12.947453 151.88643 -1.9062834 -86.134979
35275000000 -2.0908689 -60.048969 -13.03618 150.44406 -12.915094 151.47978 -1.8879181 -86.846581
35300000000 -2.0271592 -59.561012 -12.997665 150.80756 -12.941787 151.48038 -1.8241123 -86.54805
35325000000 -2.1305852 -59.356804 -12.993822 150.76105 -12.948977 151.8175 -1.8948348 -86.443695
35350000000 -2.1950533 -59.798725 -13.078558 150.06654 -12.903316 151.65759 -1.910581 -87.336029
35375000000 -2.1732314 -60.085518 -13.001996 150.2803 -12.861091 151.54802 -1.8388294 -87.36412
35400000000 -2.1201999 -60.448807 -12.909949 150.88811 -12.894186 151.66086 -1.880748 -87.278854
35425000000 -2.0546627 -60.52866 -12.976658 150.76422 -12.853373 151.55219 -1.8781058 -87.823372
35450000000 -2.0717037 -60.313141 -12.933636 150.52574 -12.835334 151.53928 -1.8334213 -87.705795
35475000000 -2.1621361 -60.577988 -12.892085 150.78853 -12.833193 151.91006 -1.9116905 -87.804092
35500000000 -2.1763873 -61.035267 -12.95298 150.29346 -12.772507 151.78185 -1.9000889 -88.860428
35525000000 -2.1503122 -61.38533 -12.845068 150.43105 -12.709235 151.73201 -1.7933643 -88.598724
35550000000 -2.1137571 -61.818241 -12.716867 151.09563 -12.715445 151.87819 -1.8647867 -88.116905
35575000000 -2.0737686 -61.990982 -12.736503 150.66515 -12.685493 151.80658 -1.9505677 -88.976646
35600000000 -2.1231253 -61.808945 -12.727679 150.22708 -12.610787 151.59958 -1.8765649 -89.52787
35625000000 -2.2146425 -62.325783 -12.68883 150.53445 -12.61168 151.77644 -1.8846555 -89.329796
35650000000 -2.1968269 -62.88232 -12.631803 150.60289 -12.557475 151.80791 -1.9109272 -89.74102
35675000000 -2.1452565 -62.949223 -12.548436 150.39964 -12.467677 151.6176 -1.868769 -89.745384
35700000000 -2.1560652 -63.281773 -12.418751 150.29671 -12.458145 151.65854 -1.9422886 -89.617599
35725000000 -2.1552684 -63.670982 -12.447256 150.09258 -12.429091 151.54819 -1.9977734 -90.709846
35750000000 -2.1907897 -63.635307 -12.468492 149.64926 -12.342711 151.32385 -1.878129 -91.053368
35775000000 -2.2629471 -64.091011 -12.317235 149.87349 -12.31412 151.53481 -1.8993169 -90.25592
35800000000 -2.2389088 -64.749168 -12.258001 149.90656 -12.269629 151.49336 -2.029175 -90.767548
35825000000 -2.1659024 -64.857079 -12.21281 149.17729 -12.17174 151.0932 -1.9758418 -91.797455
35850000000 -2.1912215 -65.050179 -12.113232 149.26515 -12.126127 150.93007 -1.9376688 -91.59153
35875000000 -2.2138429 -65.351349 -12.127543 149.32495 -12.096632 150.9906 -2.0111821 -91.803238
35900000000 -2.2338893 -65.342293 -12.083576 148.85228 -11.997371 150.78526 -1.9796857 -92.455261
35925000000 -2.2811453 -65.644905 -11.955204 148.92371 -11.926095 150.61224 -1.9613267 -92.174515
35950000000 -2.2698133 -66.204857 -11.855034 148.77333 -11.863295 150.51086 -2.0740466 -92.36319
35975000000 -2.2305396 -66.338577 -11.85394 147.97754 -11.764774 149.96616 -2.0698106 -93.356979
36000000000 -2.2725525 -66.63089 -11.822701 148.02487 -11.723649 149.60611 -2.0060079 -93.322334
36025000000 -2.2890201 -66.915359 -11.686706 147.83104 -11.664895 149.5896 -2.060823 -93.083344
36050000000 -2.3000338 -66.794159 -11.684093 147.27814 -11.548141 149.23325 -2.1185505 -93.662041
36075000000 -2.3697028 -66.871178 -11.572067 146.91345 -11.461488 148.69836 -2.1131315 -93.968475
36100000000 -2.3860664 -67.493752 -11.476525 146.72096 -11.41626 148.20903 -2.151942 -94.085358
36125000000 -2.358808 -67.647377 -11.52758 146.08734 -11.331877 147.47879 -2.1688824 -94.571533
36150000000 -2.4049385 -67.501808 -11.429479 145.76059 -11.277135 146.99251 -2.1454196 -94.457359
36175000000 -2.4745162 -67.590088 -11.316629 145.49817 -11.205423 146.7327 -2.2139993 -94.207489
36200000000 -2.5067666 -67.505325 -11.337063 144.55038 -11.090562 146.01297 -2.2979686 -94.899559
36225000000 -2.5757685 -67.511879 -11.26142 143.8047 -10.997119 144.97299 -2.2667108 -95.214653
36250000000 -2.6070702 -67.879517 -11.180568 143.69675 -11.009872 144.23126 -2.2865267 -94.858818
36275000000 -2.5974545 -67.836563 -11.138431 142.7728 -10.941924 143.43159 -2.3631916 -95.016129
36300000000 -2.6692772 -67.293991 -11.131094 141.75285 -10.882157 142.35298 -2.3748541 -95.148651
36325000000 -2.7932127 -67.233543 -11.078731 140.93407 -10.850783 141.65404 -2.4278951 -94.913834
36350000000 -2.8315279 -67.178505 -11.087492 139.92361 -10.801059 140.46645 -2.4961929 -95.236046
36375000000 -2.8646331 -66.785629 -11.113708 138.8158 -10.768548 138.75621 -2.4530158 -95.141113
36400000000 -2.9174368 -66.562782 -11.060879 137.71919 -10.89434 137.6743 -2.4661899 -94.297012
36425000000 -2.9350238 -66.263168 -11.108326 136.39445 -10.926739 136.82158 -2.5908589 -94.234016
36450000000 -2.9481897 -65.616081 -11.266549 134.85167 -10.95949 135.30341 -2.5697229 -94.679031
36475000000 -2.9891355 -65.065842 -11.359257 133.96996 -11.100504 134.16049 -2.493113 -94.092293
36500000000 -2.9990873 -64.713013 -11.524846 133.26765 -11.235259 133.20844 -2.5279455 -93.611763
36525000000 -2.9587402 -64.36953 -11.679775 131.98616 -11.372554 132.05392 -2.4899981 -93.627579
36550000000 -2.9023299 -64.210121 -11.768663 131.30217 -11.641299 131.38554 -2.4262316 -93.08989
36575000000 -2.8429034 -63.987823 -12.015483 130.71315 -11.832094 131.48415 -2.4746206 -93.063042
36600000000 -2.804419 -63.683094 -12.27731 130.49196 -11.946021 131.12546 -2.3961709 -93.799179
36625000000 -2.7851248 -63.67944 -12.433588 131.05449 -12.15279 130.91133 -2.2448759 -93.406174
36650000000 -2.7357788 -63.988102 -12.511478 131.14868 -12.334926 131.56209 -2.2649264 -92.897072
36675000000 -2.6450374 -64.299011 -12.637877 130.82137 -12.432901 131.55351 -2.284863 -93.658913
36700000000 -2.5906491 -64.427376 -12.759707 131.25357 -12.610493 131.85443 -2.1753109 -93.960037
36725000000 -2.5605814 -64.539558 -12.856953 131.72983 -12.720618 132.76115 -2.1732421 -93.975227
36750000000 -2.557709 -64.627869 -13.046844 132.10353 -12.730561 133.09776 -2.1501536 -94.677467
36775000000 -2.5394385 -65.061531 -13.032993 132.57843 -12.813377 133.31645 -2.032614 -94.534828
36800000000 -2.4981191 -65.606789 -12.968929 133.0089 -12.899262 134.06546 -2.0842593 -94.122597
36825000000 -2.4212029 -65.962189 -13.114218 132.64963 -12.92541 134.34254 -2.1484869 -95.248001
36850000000 -2.4043477 -65.958519 -13.209258 133.31783 -13.001496 134.61749 -2.001498 -95.838142
36875000000 -2.4290111 -66.117104 -13.225819 134.21642 -13.060358 135.42264 -1.9618011 -95.354126
36900000000 -2.4195054 -66.533417 -13.245153 134.43764 -13.021767 136.05118 -2.0396738 -95.640686
36925000000 -2.3633306 -67.050949 -13.160205 134.33418 -13.009654 136.01344 -1.9982562 -96.199905
36950000000 -2.3228829 -67.45903 -13.18248 134.77612 -13.074412 136.57477 -1.9850959 -96.305199
36975000000 -2.2877963 -67.765137 -13.237328 134.9478 -13.061543 137.08305 -1.9906616 -96.942871
37000000000 -2.2752426 -67.786697 -13.292115 135.62408 -13.050263 137.28728 -1.8960637 -97.046234
37025000000 -2.3103144 -67.827316 -13.206461 136.2756 -13.055073 137.93649 -1.9236071 -96.610703
37050000000 -2.300539 -68.30999 -13.149291 136.1158 -12.983748 138.23982 -2.017714 -97.403465
37075000000 -2.251029 -68.87883 -13.215595 135.8558 -12.947021 138.02229 -1.9234006 -98.139221
37100000000 -2.2041175 -69.19709 -13.154814 136.53207 -12.994595 138.37447 -1.8813224 -97.737183
37125000000 -2.197716 -69.153099 -13.1625 137.17741 -12.970888 138.79077 -1.9478283 -98.07341
37150000000 -2.2032821 -69.097878 -13.170013 137.38916 -12.914968 138.96475 -1.8887016 -98.563126
37175000000 -2.2243884 -69.155777 -13.06879 137.78165 -12.886439 139.11938 -1.8863569 -98.238945
37200000000 -2.2247941 -69.626366 -13.107846 137.67917 -12.844733 139.22009 -1.9760268 -98.923363
37225000000 -2.1771955 -70.152229 -13.109857 137.6328 -12.801167 139.08723 -1.8622324 -99.578636
37250000000 -2.1437814 -70.275116 -13.022052 138.3535 -12.847928 139.24593 -1.8152356 -98.867241
37275000000 -2.1743264 -70.190239 -13.006539 138.57948 -12.814096 139.7276 -1.9544529 -99.042084
37300000000 -2.2028301 -70.224686 -13.002975 138.15109 -12.705902 139.64496 -1.9219953 -100.12452
37325000000 -2.1915734 -70.455666 -12.984245 138.59567 -12.699368 139.29433 -1.8493563 -99.812279
37350000000 -2.186625 -70.722618 -12.937263 138.93217 -12.715929 139.50563 -1.9302406 -99.869774
37375000000 -2.1610794 -70.912857 -12.963064 138.67854 -12.690103 139.30267 -1.889282 -100.60318
37400000000 -2.1549013 -70.878685 -12.924745 139.10753 -12.713791 139.6122 -1.8297997 -100.16075
37425000000 -2.1983521 -70.767876 -12.829824 139.26854 -12.676284 140.01479 -1.9585378 -100.25983
37450000000 -2.2155929 -71.010902 -12.919182 139.02815 -12.565773 139.85226 -1.9335028 -101.50151
37475000000 -2.1727605 -71.273079 -12.878508 139.4305 -12.569082 139.38791 -1.8147652 -101.10349
37500000000 -2.1642129 -71.303528 -12.786194 139.74869 -12.640753 139.70111 -1.9025142 -100.79345
37525000000 -2.1787856 -71.633362 -12.826244 139.25677 -12.566488 139.94969 -1.9409487 -101.82999
37550000000 -2.155549 -71.879219 -12.753089 139.4662 -12.533951 139.73065 -1.8491281 -101.82568
37575000000 -2.1518281 -71.791435 -12.708098 139.87762 -12.525075 140.05022 -1.9315904 -101.71535
37600000000 -2.1882915 -71.939667 -12.776031 139.79292 -12.415812 139.93697 -1.9446942 -102.77695
37625000000 -2.2073135 -72.323463 -12.712128 139.73564 -12.440265 139.23257 -1.8205984 -102.53584
37650000000 -2.2107463 -72.749268 -12.635522 139.63051 -12.487603 139.92613 -1.9147383 -101.98346
37675000000 -2.2036512 -73.123657 -12.596713 139.20187 -12.404819 139.9696 -2.0030231 -103.20267
37700000000 -2.1809721 -73.206581 -12.625161 139.05309 -12.38013 139.62303 -1.8719506 -103.60999
37725000000 -2.1952622 -73.12278 -12.574403 139.50853 -12.377177 139.90211 -1.8962373 -103.08065
37750000000 -2.2555616 -73.50103 -12.583364 139.41687 -12.308698 139.7757 -1.9790132 -103.83141
37775000000 -2.2442546 -74.2752 -12.548373 138.7533 -12.278946 139.35983 -1.8739353 -104.16496
37800000000 -2.193279 -74.557785 -12.430574 138.75613 -12.339433 139.69389 -1.9099801 -103.65519
37825000000 -2.2079639 -74.54052 -12.431225 138.85245 -12.289365 140.00247 -2.0092895 -104.60488
37850000000 -2.2245469 -74.645653 -12.540672 138.59546 -12.223592 139.683 -1.8792275 -105.19668
37875000000 -2.2446415 -74.845711 -12.409495 139.02747 -12.235768 139.7813 -1.8684394 -104.43886
37900000000 -2.2729354 -75.336662 -12.370811 138.69797 -12.178708 139.93483 -2.0006013 -104.92027
37925000000 -2.2523985 -76.131233 -12.373089 137.96165 -12.126124 139.67572 -1.9274733 -105.75573
37950000000 -2.1931281 -76.445152 -12.290698 137.82695 -12.13724 139.71954 -1.9000193 -105.36607
37975000000 -2.1940272 -76.240929 -12.247249 138.03484 -12.099855 140.06647 -1.9932845 -105.89064
38000000000 -2.2305636 -76.125885 -12.293362 138.11176 -12.011895 139.82285 -1.909246 -106.56549
38025000000 -2.2623463 -76.562637 -12.239311 138.0921 -11.984856 139.5546 -1.887403 -105.88171
38050000000 -2.2589056 -77.173981 -12.116842 137.66376 -11.957438 139.58539 -2.0356627 -106.27743
38075000000 -2.2068043 -77.592659 -12.14183 137.04633 -11.906569 139.30142 -1.9687016 -107.35011
38100000000 -2.1928885 -77.51619 -12.201038 137.20795 -11.913986 139.24156 -1.8927813 -106.6839
38125000000 -2.2486627 -77.417915 -12.048569 137.61024 -11.877518 139.36691 -2.0254333 -106.74355
38150000000 -2.2631021 -77.445374 -12.078753 137.00017 -11.785357 139.11227 -1.9935297 -107.78216
38175000000 -2.2693815 -77.808105 -12.096607 137.243 -11.782584 138.5583 -1.9261653 -107.14931
38200000000 -2.2543261 -78.321251 -11.954929 136.92207 -11.796933 138.6432 -2.0604749 -107.19312
38225000000 -2.1788945 -78.535194 -12.00747 136.20718 -11.750528 138.61993 -2.0204866 -108.41113
38250000000 -2.1897342 -78.091217 -12.022215 137.0862 -11.733974 138.5014 -1.9068009 -107.78271
38275000000 -2.2793202 -78.107201 -11.9068 137.28061 -11.717059 138.65338 -2.0672715 -107.46814
38300000000 -2.2721009 -78.671585 -11.909492 136.51173 -11.622626 138.37392 -2.0953741 -108.93819
38325000000 -2.2157626 -78.740318 -11.931556 136.68802 -11.620021 137.66896 -1.9531598 -108.55929
38350000000 -2.2483511 -78.718254 -11.834977 136.78546 -11.661252 138.02037 -2.066781 -108.10017
38375000000 -2.2449164 -78.978661 -11.82537 136.4286 -11.57634 138.00098 -2.1082871 -109.46023
38400000000 -2.2156625 -78.65274 -11.784925 137.02063 -11.506266 137.76022 -1.9436769 -109.1154
38425000000 -2.293997 -78.334335 -11.679215 137.03961 -11.490726 137.7072 -2.0959496 -108.32556
38450000000 -2.3232365 -79.025978 -11.693025 136.30644 -11.416031 137.20924 -2.2210929 -109.90281
38475000000 -2.2420454 -79.307976 -11.707199 135.90587 -11.425918 136.2964 -2.0152347 -110.13844
38500000000 -2.2681632 -79.003395 -11.641433 136.04221 -11.491542 136.73334 -2.0776811 -109.0117
38525000000 -2.3249767 -79.159561 -11.61226 135.7547 -11.410181 136.71365 -2.239265 -110.06467
38550000000 -2.2822874 -79.166412 -11.612311 135.41623 -11.308756 135.89252 -2.0887408 -110.50829
38575000000 -2.317838 -78.868759 -11.572819 135.82944 -11.369732 135.47321 -2.145591 -109.41592
38600000000 -2.3580203 -79.412903 -11.60373 134.95743 -11.367556 135.3788 -2.3073123 -110.54094
38625000000 -2.2956743 -79.769188 -11.700712 134.36157 -11.388477 134.54671 -2.1064618 -111.18788
38650000000 -2.2991917 -79.316536 -11.577721 134.987 -11.473071 135.16019 -2.093786 -109.80466
38675000000 -2.3771229 -79.428406 -11.588521 134.63191 -11.390644 135.38071 -2.3040931 -110.33167
38700000000 -2.3541999 -79.80191 -11.679852 134.34113 -11.320773 134.28619 -2.2053626 -111.60877
38725000000 -2.3565233 -79.873779 -11.63562 134.25037 -11.443325 133.96945 -2.1238003 -110.84924
38750000000 -2.3932874 -80.443733 -11.678813 133.92104 -11.453166 134.44795 -2.2588868 -111.20036
38775000000 -2.3290977 -80.853447 -11.694327 133.61575 -11.437798 134.32375 -2.1448548 -111.92185
38800000000 -2.3153052 -80.569839 -11.633707 133.60657 -11.453195 134.47514 -2.1283243 -111.03493
38825000000 -2.3788478 -80.666222 -11.607958 134.18471 -11.410988 134.6837 -2.3021033 -111.71545
38850000000 -2.3633475 -81.086708 -11.70463 133.39389 -11.33814 134.09337 -2.1571612 -112.88516
38875000000 -2.4118006 -81.294418 -11.776835 133.45323 -11.452232 133.52969 -2.0733981 -111.79871
38900000000 -2.4700851 -82.10527 -11.629332 133.62553 -11.458446 134.37085 -2.2385972 -112.08817
38925000000 -2.3451638 -82.434608 -11.63829 132.66426 -11.368304 134.59467 -2.1618755 -113.33007
38950000000 -2.3439093 -81.829147 -11.674157 133.32509 -11.38014 134.2556 -2.0933127 -112.62832
38975000000 -2.4669325 -82.166695 -11.580354 133.56967 -11.337354 134.68037 -2.2430255 -113.097
39000000000 -2.4320951 -83.253624 -11.716755 133.09369 -11.235327 134.31154 -2.1136777 -114.25797
39025000000 -2.3916361 -83.287819 -11.664589 133.48303 -11.303373 134.22585 -2.0089905 -113.03307
39050000000 -2.4624233 -83.6716 -11.472555 132.70691 -11.25911 134.58066 -2.2427714 -113.28309
39075000000 -2.3865907 -84.32151 -11.53327 132.18002 -11.136127 134.6136 -2.1847174 -115.0432
39100000000 -2.3368905 -83.888405 -11.528838 132.94719 -11.091381 134.30573 -2.0595722 -114.27292
39125000000 -2.4521785 -83.721825 -11.382312 133.2133 -11.092349 134.07376 -2.2364211 -114.18739
39150000000 -2.5031178 -84.876282 -11.467863 132.71141 -10.99377 133.98241 -2.184938 -115.49913
39175000000 -2.4447832 -85.523804 -11.404326 132.33321 -10.962412 133.54715 -2.0930884 -114.43317
39200000000 -2.4774301 -85.600128 -11.229796 131.63425 -10.956321 133.49124 -2.332793 -114.50056
39225000000 -2.4337842 -85.601311 -11.238418 131.37823 -10.852103 133.46956 -2.2857516 -116.4771
39250000000 -2.4261987 -84.87751 -11.326608 132.17145 -10.80409 132.82155 -2.0879052 -115.11395
39275000000 -2.5722957 -84.864342 -11.152957 132.14163 -10.873799 132.62125 -2.3570471 -114.24158
39300000000 -2.5886438 -86.137535 -11.107861 130.5219 -10.764957 132.16293 -2.4407911 -116.22884
39325000000 -2.4574485 -86.577011 -11.214417 130.25822 -10.730291 131.72319 -2.2403452 -115.71207
39350000000 -2.4434094 -85.854347 -11.031841 130.50371 -10.766041 131.67043 -2.4019616 -114.87989
39375000000 -2.4797215 -85.564865 -11.010566 129.83534 -10.702567 131.28702 -2.4704897 -116.45486
39400000000 -2.5075867 -85.153625 -11.085423 130.54335 -10.644179 130.8147 -2.26174 -115.64659
39425000000 -2.6136987 -85.552025 -10.968583 130.04599 -10.740081 130.38019 -2.4560535 -114.61435
39450000000 -2.5725875 -86.770622 -10.995885 128.28142 -10.710254 129.91397 -2.5998306 -116.50538
39475000000 -2.4241705 -86.559776 -11.037701 128.71039 -10.671262 129.59058 -2.3557611 -116.36806
39500000000 -2.4828873 -85.434677 -10.935124 128.89809 -10.733005 129.71112 -2.4774814 -114.91285
39525000000 -2.5821123 -85.414902 -10.966159 128.8257 -10.705514 129.41486 -2.6522355 -116.28761
39550000000 -2.5562496 -85.696976 -10.947394 128.4091 -10.610662 128.6188 -2.458766 -116.43273
39575000000 -2.5882952 -85.976318 -10.93007 127.65144 -10.704189 128.08173 -2.5719242 -115.22726
39600000000 -2.5737193 -86.800949 -10.932815 126.90906 -10.730393 127.98779 -2.7243571 -116.95303
39625000000 -2.4334054 -86.376167 -10.916777 126.73875 -10.667184 127.67892 -2.4270351 -117.00494
39650000000 -2.4866154 -85.065216 -10.871413 127.48759 -10.701096 127.73052 -2.5238309 -114.65165
39675000000 -2.661092 -85.265999 -10.887678 126.91103 -10.701922 127.30792 -2.8313465 -115.84325
39700000000 -2.6122897 -86.225952 -10.98815 125.13975 -10.651339 125.73977 -2.6202483 -117.54928
39725000000 -2.5785263 -86.254295 -11.050577 125.11845 -10.837465 125.40537 -2.5200644 -115.96454
39750000000 -2.600646 -86.299057 -11.008281 124.67214 -10.904781 125.75726 -2.7208838 -116.24482
39775000000 -2.5146341 -86.117432 -11.141327 124.29673 -10.892292 125.37311 -2.5888526 -117.18272
39800000000 -2.5380156 -85.432732 -11.117343 124.93275 -10.925491 125.15607 -2.5472648 -115.90314
39825000000 -2.6417406 -85.965759 -11.180953 124.22243 -11.005669 124.7507 -2.7295964 -116.45724
39850000000 -2.5762372 -87.068863 -11.443977 123.80719 -11.085115 124.5163 -2.5254614 -117.79003
39875000000 -2.4839878 -86.970139 -11.409523 123.91279 -11.185602 124.7093 -2.3708088 -116.29161
39900000000 -2.5448165 -86.752487 -11.361198 124.0601 -11.255457 125.44745 -2.5843611 -116.13287
39925000000 -2.5255301 -86.8629 -11.456412 124.03073 -11.20671 125.61922 -2.5360243 -117.79764
39950000000 -2.5114143 -86.846535 -11.560557 123.884 -11.201615 124.72711 -2.378551 -117.24719
39975000000 -2.5857491 -87.668556 -11.61085 124.6569 -11.342114 125.00967 -2.4617176 -117.13153
40000000000 -2.4906356 -88.679436 -11.625434 124.07556 -11.344996 125.61794 -2.3759143 -118.17982
40025000000 -2.4216907 -88.387276 -11.742107 124.149 -11.37124 125.90893 -2.2609954 -117.38082
40050000000 -2.5177188 -88.354843 -11.591269 124.99014 -11.396998 126.45168 -2.4060578 -117.33854
40075000000 -2.4906847 -88.814659 -11.666397 124.40896 -11.316631 126.50446 -2.352566 -118.83879
40100000000 -2.4673533 -89.000771 -11.880815 125.70747 -11.347248 126.09406 -2.1568787 -118.16823
40125000000 -2.5408757 -89.71804 -11.711899 125.7073 -11.430054 126.60373 -2.2566795 -117.60294
40150000000 -2.4550421 -90.977829 -11.730056 124.859 -11.387453 127.09042 -2.280252 -118.70905
40175000000 -2.3039825 -90.533165 -11.712773 125.87933 -11.325896 127.61332 -2.170943 -118.47871
40200000000 -2.3676655 -89.634857 -11.576653 126.29587 -11.319959 127.83051 -2.2485559 -118.42775
40225000000 -2.4556646 -90.358337 -11.695468 126.73257 -11.27712 128.03738 -2.1939349 -119.58455
40250000000 -2.4211261 -91.369202 -11.683894 127.42281 -11.220507 128.11118 -2.0034807 -118.6084
40275000000 -2.4094059 -91.826134 -11.549288 127.03464 -11.243896 128.30559 -2.184972 -117.93663
40300000000 -2.3625021 -92.552574 -11.481211 126.56103 -11.188072 128.42683 -2.2736475 -119.84464
40325000000 -2.2677686 -92.421448 -11.456059 126.96042 -11.069959 128.69983 -2.045748 -120.00641
40350000000 -2.3189206 -91.718834 -11.35251 127.99606 -11.056463 128.91953 -2.0837553 -118.69799
40375000000 -2.4359579 -92.220055 -11.3134 128.15665 -11.040556 128.90987 -2.2090259 -119.64316
40400000000 -2.4048784 -93.21537 -11.281281 127.58353 -10.937709 128.70999 -2.0808454 -119.88202
40425000000 -2.3849893 -93.818481 -11.145243 127.4354 -10.920458 128.78183 -2.1599035 -119.15859
40450000000 -2.3232107 -94.058754 -11.038974 126.89515 -10.879069 128.63235 -2.2770212 -120.65506
40475000000 -2.2239962 -93.086403 -11.029056 127.68394 -10.75628 128.70135 -2.0501287 -120.8814
40500000000 -2.3306425 -91.942673 -10.893058 128.89963 -10.726027 129.23538 -2.086225 -118.90463
40525000000 -2.4900155 -92.713287 -10.859811 127.97974 -10.749866 128.90086 -2.3647182 -120.1118
40550000000 -2.4081511 -94.15477 -10.883076 126.76159 -10.670798 128.21387 -2.2274833 -122.04062
40575000000 -2.3033319 -94.198074 -10.706993 126.88075 -10.574108 128.19003 -2.1044233 -121.03807
40600000000 -2.3232667 -93.865623 -10.645438 127.00485 -10.595498 128.35036 -2.3217974 -121.29265
40625000000 -2.3067851 -93.228546 -10.627477 127.23845 -10.502046 128.0787 -2.2474368 -122.50686
40650000000 -2.3589127 -92.430946 -10.492684 127.19129 -10.406215 127.80775 -2.1824675 -121.6716
40675000000 -2.4840136 -93.07177 -10.523115 127.02036 -10.472283 127.91195 -2.4384449 -122.19473
40700000000 -2.4000945 -94.332146 -10.486423 125.67216 -10.444798 127.14854 -2.3459144 -124.11145
40725000000 -2.2660413 -93.966858 -10.39132 125.2957 -10.338877 126.9641 -2.1863773 -123.08329
40750000000 -2.3491168 -92.953888 -10.283034 126.74496 -10.345078 127.68217 -2.4650207 -122.58619
40775000000 -2.4237921 -92.691727 -10.288181 125.77015 -10.281089 127.07475 -2.4836745 -124.77251
40800000000 -2.464397 -92.945847 -10.3692 124.57997 -10.184683 125.75002 -2.296104 -124.83479
40825000000 -2.495672 -93.69101 -10.236493 124.82297 -10.29872 125.9119 -2.4356055 -124.27853
40850000000 -2.4146259 -94.273483 -10.234394 123.3064 -10.294741 125.87581 -2.4581425 -125.88984
40875000000 -2.3286145 -93.780937 -10.248816 123.14014 -10.212306 125.3302 -2.2981548 -125.76762
40900000000 -2.3879662 -92.879074 -10.042305 123.60049 -10.159745 125.54372 -2.4349453 -125.20033
40925000000 -2.4844372 -92.985832 -10.300361 122.96827 -10.137479 125.01411 -2.5007823 -127.05154
40950000000 -2.5313864 -93.723656 -10.455733 121.84921 -10.187551 123.55655 -2.318377 -127.29739
40975000000 -2.5185995 -94.763817 -10.351174 120.80614 -10.308387 123.99451 -2.3586304 -126.58145
41000000000 -2.4043903 -95.062584 -10.39278 120.21893 -10.277899 124.64378 -2.4024696 -127.58628
41025000000 -2.3625393 -94.150871 -10.528569 119.91819 -10.17193 124.01939 -2.2926931 -127.75249
41050000000 -2.5073867 -93.707336 -10.540146 120.97163 -10.198737 123.62827 -2.3288043 -127.28096
41075000000 -2.5999398 -94.780365 -10.794875 121.24884 -10.253176 123.65876 -2.2869012 -127.79287
41100000000 -2.5600207 -95.581802 -11.081354 121.06091 -10.309303 122.91264 -2.1723495 -126.83977
41125000000 -2.5653265 -95.884781 -10.921971 120.61613 -10.374252 123.74929 -2.2440159 -126.32238
41150000000 -2.5303419 -96.016045 -11.004933 121.11845 -10.316264 124.65412 -2.151818 -126.96449
41175000000 -2.483201 -95.263962 -11.107084 124.1913 -10.248386 124.49398 -1.9658027 -125.06724
41200000000 -2.5919948 -95.13105 -10.957933 124.77742 -10.319315 124.23051 -2.0766122 -123.40498
41225000000 -2.6594791 -96.640068 -11.033581 125.50226 -10.347476 125.01881 -1.9600209 -122.99104
41250000000 -2.522774 -97.591232 -11.047424 126.72298 -10.341226 126.37936 -1.7026694 -119.72562
41275000000 -2.4628923 -97.204094 -10.896147 127.5071 -10.333764 127.5772 -1.8164992 -116.26619
41300000000 -2.4971235 -96.786926 -10.653088 130.27533 -10.176967 129.62044 -1.4993076 -113.18578
41325000000 -2.5587804 -96.384926 -10.554025 134.80161 -10.021862 132.69965 -0.927333 -103.55006
41350000000 -2.6951046 -96.813896 -10.61681 138.51639 -10.25786 136.26408 -0.93313062 -91.658852
41375000000 -2.8449242 -98.596893 -10.1464 146.44612 -9.8343143 144.94566 0.58888692 -76.505234
41400000000 -2.8296838 -100.80154 -10.205659 174.14717 -9.7043428 171.97993 4.0390158 -32.384388
41425000000 -2.6078746 -102.21182 -13.019967 -121.8815 -13.198012 -143.82806 6.9485331 31.016176
41450000000 -2.2860096 -99.356827 -3.3017414 128.55844 -23.84853 116.10614 4.6798692 -87.214012
41475000000 -2.485832 -100.43105 -21.142046 95.492989 -33.157444 108.22559 -4.2248626 103.65517
41500000000 -2.7762842 -101.08324 -20.630924 151.89076 -20.054104 171.44952 -2.4125762 89.849014
41525000000 -2.8770914 -100.48389 -12.287776 157.60748 -11.906031 160.25192 -7.5374908 13.301965
41550000000 -2.5697045 -99.025688 -9.9928379 142.68533 -9.8797998 144.65567 -8.1437864 -63.503178
41575000000 -2.3913927 -97.424232 -9.5498075 130.75983 -9.6209717 132.67839 -5.7380686 -108.07938
41600000000 -2.4627755 -97.045517 -9.5044031 124.53558 -9.580615 126.64307 -3.8266494 -120.21805
41625000000 -2.5067015 -97.857758 -9.5648603 121.47385 -9.5555487 124.44463 -3.383714 -124.64672
41650000000 -2.4638891 -98.817917 -9.6895514 118.20835 -9.7109203 122.27838 -3.081094 -128.48943
41675000000 -2.4184086 -99.455734 -9.7436943 116.88293 -9.7194843 121.5726 -2.8137414 -129.73686
41700000000 -2.2948754 -99.14315 -9.8323116 116.67786 -9.6710701 121.12978 -2.7832799 -130.87741
41725000000 -2.294328 -97.765099 -9.8847151 117.28155 -9.627389 120.14471 -2.6678352 -131.83398
41750000000 -2.4815743 -97.297852 -9.8878593 117.5424 -9.6472044 119.50838 -2.6406238 -131.59001
41775000000 -2.5669479 -98.623573 -9.9496393 116.39898 -9.6839743 119.37721 -2.7086983 -132.14737
41800000000 -2.43627 -99.584503 -10.024504 114.24915 -9.7311916 118.34972 -2.6558459 -132.53682
41825000000 -2.3352334 -98.985718 -9.9007711 115.01976 -9.7456493 118.3936 -2.6815712 -132.01181
41850000000 -2.3739891 -97.889587 -9.790267 115.14526 -9.6263132 118.35408 -2.8169944 -132.46039
41875000000 -2.4757442 -97.526718 -9.973525 114.65441 -9.5359459 117.04723 -2.8770957 -133.28201
41900000000 -2.5722384 -98.01049 -10.006411 113.64066 -9.6432848 115.85147 -2.9963303 -133.47124
41925000000 -2.5712655 -98.941422 -10.227934 111.52307 -9.6775799 115.68843 -3.2107031 -134.67558
41950000000 -2.4811773 -99.330536 -10.419764 110.27338 -9.6026478 114.0515 -3.5371289 -136.3466
41975000000 -2.411911 -98.599045 -10.229294 109.26573 -9.4813137 112.1535 -4.2752962 -140.09703
42000000000 -2.473218 -97.114845 -9.9639425 109.00526 -9.3523417 108.48914 -5.5433593 -149.0258
42025000000 -2.5642445 -95.988495 -10.123632 100.38847 -9.4772205 98.380157 -9.9713097 -161.33788
42050000000 -2.3236046 -96.508583 -13.034805 74.420105 -11.591537 76.33387 -8.8905611 -19.064413
42075000000 -1.9285294 -99.841774 -24.385965 136.19716 -20.687183 67.178833 0.36770323 -71.997124
42100000000 -1.9035225 -102.33566 -10.970506 127.23788 -22.165966 143.01399 -10.343741 -38.08971
42125000000 -1.7118062 -98.664352 -11.565304 31.638693 -15.709578 28.487986 3.5198977 25.571962
42150000000 -2.4375565 -95.364922 -6.6249576 89.559326 -6.5575247 85.128479 1.5097184 139.48195
42175000000 -2.6875608 -98.615578 -8.6292162 109.69209 -8.0909834 105.10748 -2.2032197 -171.3938
42200000000 -2.6244421 -101.01015 -9.256424 111.8793 -8.8540277 107.7859 -2.3783808 -162.59669
42225000000 -2.5083048 -102.04094 -9.2611408 115.50722 -8.9723101 112.99226 -1.6250801 -149.90999
42250000000 -2.4194953 -101.61555 -9.4255524 118.51424 -9.1784744 116.83417 -2.1262565 -139.95958
42275000000 -2.4266589 -100.8958 -9.5849428 118.17413 -9.418602 116.19667 -2.8175852 -141.10326
42300000000 -2.5815248 -101.13554 -9.513092 117.89476 -9.4280128 115.09996 -2.4274626 -142.5795
42325000000 -2.7280395 -103.26299 -9.5888157 118.2747 -9.4173727 116.02383 -2.2749107 -139.196
42350000000 -2.609514 -105.4688 -9.6395063 117.26917 -9.5055046 116.95817 -2.5510819 -137.98911
42375000000 -2.3725479 -105.17921 -9.4355965 116.56126 -9.4816227 117.38553 -2.5092795 -138.42067
42400000000 -2.3246 -103.23856 -9.2991295 117.16962 -9.363389 117.9341 -2.5224686 -137.48569
42425000000 -2.4779394 -102.51588 -9.3317289 117.41772 -9.3838978 117.07955 -2.6737411 -138.28288
42450000000 -2.6790576 -104.09581 -9.4482565 116.5256 -9.4754667 116.47888 -2.5008073 -138.92923
42475000000 -2.6735008 -107.04151 -9.4664612 115.43417 -9.3882608 117.00613 -2.4995835 -137.62479
42500000000 -2.3668466 -108.31212 -9.2798939 113.58363 -9.3414021 117.43847 -2.7019212 -137.96838
42525000000 -2.1263285 -106.37164 -9.1361237 112.76086 -9.2950554 117.33026 -2.5811374 -139.14116
42550000000 -2.2530324 -103.78085 -9.1059046 114.09309 -9.1593962 117.30666 -2.5440838 -138.68665
42575000000 -2.5642338 -104.06702 -9.2708483 114.16478 -9.1661034 116.47016 -2.6576622 -139.24191
42600000000 -2.6801958 -107.38963 -9.5364904 112.52513 -9.2931204 116.082 -2.5472889 -139.53841
42625000000 -2.4465191 -110.26397 -9.4620762 110.69653 -9.1971445 116.18264 -2.5609751 -138.85455
42650000000 -2.0690424 -110.04409 -9.2790613 108.56655 -9.1190453 116.28815 -2.6822271 -139.91731
42675000000 -1.9566637 -106.89925 -9.3566275 110.03416 -9.0505733 116.2449 -2.5305896 -140.5545
42700000000 -2.3095829 -104.21866 -9.2976151 113.78583 -8.8922234 116.14988 -2.5579951 -139.65192
42725000000 -2.6955664 -106.04746 -9.6030941 112.90701 -8.9260044 115.20431 -2.7432058 -140.20651
42750000000 -2.5870302 -109.91205 -9.8506536 110.96196 -9.0927029 115.31841 -2.577529 -140.76685
42775000000 -2.2209578 -110.8431 -9.6433153 109.51242 -8.9934635 115.10094 -2.5774913 -140.24471
42800000000 -1.970751 -108.71014 -9.4184599 110.67355 -8.8395891 114.84998 -2.7092774 -141.08928
42825000000 -2.1154158 -105.05417 -9.1284142 113.9902 -8.7025347 114.45909 -2.5788283 -141.19963
42850000000 -2.6300621 -103.93707 -9.2392788 116.74554 -8.6399431 114.06656 -2.6467276 -139.9875
42875000000 -2.8759081 -107.88675 -9.5668488 114.46555 -8.773118 113.44653 -2.7957723 -140.96948
42900000000 -2.4817805 -111.49123 -9.7363005 111.40911 -8.8951902 114.06844 -2.5715601 -141.6088
42925000000 -2.1013036 -110.36191 -9.2746019 111.88735 -8.7703896 113.80999 -2.6294122 -140.39735
42950000000 -2.0867596 -106.53825 -8.8205872 113.76351 -8.5191622 112.96284 -2.8382688 -141.24562
42975000000 -2.5007498 -103.31544 -8.5596857 117.1516 -8.3873835 110.95325 -2.5823295 -141.52095
43000000000 -3.1385276 -105.66409 -8.9326773 118.3133 -8.5666037 111.39681 -2.6183579 -139.86052
43025000000 -2.9855707 -112.6764 -9.5014095 113.50084 -8.7077799 112.2819 -2.9020805 -141.30209
43050000000 -2.1628587 -113.66777 -9.2456636 110.08399 -8.6870728 112.5999 -2.625247 -142.74341
43075000000 -1.8980863 -107.8311 -8.3806973 112.74471 -8.4347944 111.89919 -2.582444 -140.19406
43100000000 -2.3919029 -102.11842 -7.9576716 116.89357 -8.063715 109.23038 -2.9090092 -140.40898
43125000000 -3.5730891 -103.43956 -8.0692968 119.48468 -8.1516857 105.85247 -2.6268115 -143.31114
43150000000 -4.0712385 -116.02478 -9.0584555 117.68982 -8.4061546 108.68775 -2.5928116 -141.69746
43175000000 -2.553659 -123.22928 -9.5253725 108.7181 -8.4948797 110.59111 -2.9625182 -141.54774
43200000000 -1.3434347 -115.63766 -8.3661642 105.98122 -8.5407 109.70831 -2.827157 -143.62679
43225000000 -1.7296668 -102.34526 -7.0184321 114.20314 -8.104001 106.32798 -2.5169439 -141.42142
43250000000 -4.7243509 -89.722229 -6.7083097 124.45901 -7.6562338 97.279129 -2.6328027 -143.10469
43275000000 -29.606083 153.17471 -7.3904562 133.87048 -7.2608547 87.084442 -2.730638 -146.99403
43300000000 -0.49705067 135.82861 -14.015984 129.41379 -7.2537746 81.876892 -2.4316003 -144.03215
43325000000 4.0903568 -173.83716 -10.311987 61.837589 -8.288043 89.896042 -2.7330768 -142.76299
43350000000 2.9744816 -121.29932 -4.0924649 94.810417 -9.8283043 95.327873 -2.6305318 -146.02989
43375000000 1.2196527 -93.295517 -2.4942017 92.452629 -12.484103 98.490089 -3.6080298 -150.59145
43400000000 -4.6030488 -87.921677 -5.5892735 100.78021 -10.105559 103.46534 -3.5253143 -142.1692
43425000000 -2.6302321 -7.6516571 -6.6075263 118.6327 -14.727465 103.26945 -3.3821554 -145.78226
43450000000 10.337275 52.831654 -4.528882 -164.17084 -16.361914 -99.725266 -3.4159229 -150.9299
43475000000 5.8015623 -137.16139 -5.1416435 79.237015 -8.5625296 87.22509 -2.7983341 -143.95879
43500000000 -1.5523027 -89.494881 -6.3789082 123.7068 -9.1030788 100.51475 -3.0104778 -146.2916
